     Program PWSCF v.6.7GPU starts on 27Sep2021 at 22: 1:51

     R & G space division:  proc/nbgrp/npool/nimage =       8
     Reading input from /storage/home/hcoda1/3/ntian30/research/carbon/CxH_vib/H2O_calc/ads_slab/CH3OHN2H2O_a/out_0012/pw.inp
Warning: card &CELL ignored
Warning: card   CELL_DYNAMICS='IPI', ignored
Warning: card / ignored

     Current dimensions of program PWSCF are:
     Max number of different atomic species (ntypx) = 10
     Max number of k-points (npk) =  40000
     Max angular momentum in pseudopotentials (lmaxx) =  3
     Presently no symmetry can be used with electric field

     Message from routine cell_base_init:
     DEPRECATED: use true lattice parameter, not A to a.u. conversion factor

     IMPORTANT: XC functional enforced from input :
     Exchange-correlation= BEEF-VDW
                           (   1   4  43  14   2   0   0)
     Any further DFT definition will be discarded
     Please, verify this is what you really want

  @ DRIVER MODE: Connecting to
 qe_1139763_3000313.sched-torque.pace.gatech.edupyfcdlo4_scratch
  using UNIX socket
  @ DRIVER MODE: Message from server: STATUS
  @ DRIVER MODE: Message from server: INIT
  @ DRIVER MODE: Receiving replica           0          -1
  @ DRIVER MODE: Receiving encoded integer          25
  @ DRIVER MODE:  SCF:  T  FORCE:  T  STRESS:  F  VC:  F  ENSEMBLE:  F
  @ DRIVER MODE:  SCF:  T  FORCE:  T  STRESS:  F  VC:  F  ENSEMBLE:  F

     Using Slab Decomposition

     bravais-lattice index     =            0
     lattice parameter (alat)  =       1.8897  a.u.
     unit-cell volume          =    6658.9804 (a.u.)^3
     number of atoms/cell      =           58
     number of atomic types    =            5
     number of electrons       =       410.00
     number of Kohn-Sham states=          215
     kinetic-energy cutoff     =      29.3995  Ry
     charge density cutoff     =     293.9946  Ry
     scf convergence threshold =      7.3E-08
     mixing beta               =       0.0500
     number of iterations used =            8  plain     mixing
     Exchange-correlation= BEEF-VDW
                           (   1   4  43  14   2   0   0)

     celldm(1)=   1.889726  celldm(2)=   0.000000  celldm(3)=   0.000000
     celldm(4)=   0.000000  celldm(5)=   0.000000  celldm(6)=   0.000000

     crystal axes: (cart. coord. in units of alat)
               a(1) = (   6.579727   0.000000   0.000000 )
               a(2) = (  -0.000775   5.961596   0.000000 )
               a(3) = (   0.000000   0.000000  25.155947 )

     reciprocal axes: (cart. coord. in units 2 pi/alat)
               b(1) = (  0.151982  0.000020  0.000000 )
               b(2) = (  0.000000  0.167740  0.000000 )
               b(3) = (  0.000000  0.000000  0.039752 )

     PseudoPot. # 1 for Ti read from file:
     /storage/coda1/p-amedford6/0/shared/rich_project_chbe-medford/medford-share/data/pseudos_module/espresso/nninc/pbe/van/Ti.UPF
     MD5 check sum: 8e4df49b7f0d34bbd5052bf3f5ea0213
     Pseudo is Ultrasoft, Zval = 12.0
     Generated by new atomic code, or converted to UPF format
     Using radial grid of  851 points,  6 beta functions with:
                l(1) =   0
                l(2) =   0
                l(3) =   1
                l(4) =   1
                l(5) =   2
                l(6) =   2
     Q(r) pseudized with  8 coefficients,  rinner =    1.000   1.000   1.000
                                                       1.000   1.000

     PseudoPot. # 2 for O  read from file:
     /storage/coda1/p-amedford6/0/shared/rich_project_chbe-medford/medford-share/data/pseudos_module/espresso/nninc/pbe/van/O.UPF
     MD5 check sum: 78c19812648e8988a0fe644b0f25305e
     Pseudo is Ultrasoft, Zval =  6.0
     Generated by new atomic code, or converted to UPF format
     Using radial grid of  737 points,  4 beta functions with:
                l(1) =   0
                l(2) =   0
                l(3) =   1
                l(4) =   1
     Q(r) pseudized with  8 coefficients,  rinner =    0.800   0.800   0.800

     PseudoPot. # 3 for C  read from file:
     /storage/coda1/p-amedford6/0/shared/rich_project_chbe-medford/medford-share/data/pseudos_module/espresso/nninc/pbe/van/C.UPF
     MD5 check sum: 1a69bf6b8db32088f5b2163dbdb77a27
     Pseudo is Ultrasoft, Zval =  4.0
     Generated by new atomic code, or converted to UPF format
     Using radial grid of  721 points,  4 beta functions with:
                l(1) =   0
                l(2) =   0
                l(3) =   1
                l(4) =   1
     Q(r) pseudized with  8 coefficients,  rinner =    0.800   0.800   0.800

     PseudoPot. # 4 for H  read from file:
     /storage/coda1/p-amedford6/0/shared/rich_project_chbe-medford/medford-share/data/pseudos_module/espresso/nninc/pbe/van/H.UPF
     MD5 check sum: b5ee9d7bfd3a09ee7748110bda690ff7
     Pseudo is Ultrasoft, Zval =  1.0
     Generated by new atomic code, or converted to UPF format
     Using radial grid of  615 points,  1 beta functions with:
                l(1) =   0
     Q(r) pseudized with  8 coefficients,  rinner =    0.800

     PseudoPot. # 5 for N  read from file:
     /storage/coda1/p-amedford6/0/shared/rich_project_chbe-medford/medford-share/data/pseudos_module/espresso/nninc/pbe/van/N.UPF
     MD5 check sum: 90d10febe142ad51ac9d5be1deb811c4
     Pseudo is Ultrasoft, Zval =  5.0
     Generated by new atomic code, or converted to UPF format
     Using radial grid of  729 points,  4 beta functions with:
                l(1) =   0
                l(2) =   0
                l(3) =   1
                l(4) =   1
     Q(r) pseudized with  8 coefficients,  rinner =    0.800   0.800   0.800

     atomic species   valence    mass     pseudopotential
        Ti1           12.00    47.86700     Ti( 1.00)
        O1             6.00    15.99900     O ( 1.00)
        C1             4.00    12.01100     C ( 1.00)
        H1             1.00     1.00800     H ( 1.00)
        N1             5.00    14.00700     N ( 1.00)

     No symmetry found

   Cartesian axes

     site n.     atom                  positions (alat units)
         1           Ti1 tau(   1) = (   0.0004258   2.9801865   6.0000000  )
         2           Ti1 tau(   2) = (   3.2906075   1.4906267   6.0002472  )
         3           O1  tau(   3) = (   0.0006271   0.0005054   7.9858123  )
         4           O1  tau(   4) = (   3.2906025   0.0005020   7.3038282  )
         5           O1  tau(   5) = (   4.5942328   1.4918067   9.2879030  )
         6           O1  tau(   6) = (   1.9868534   1.4903216   9.2879459  )
         7           Ti1 tau(   7) = (   3.3250738   2.9918783   9.1599549  )
         8           Ti1 tau(   8) = (   0.0412716   1.4903975   9.2658274  )
         9           O1  tau(   9) = (   3.2852344   0.0116916  11.3753809  )
        10           O1  tau(  10) = (   6.5701620   0.0027176  10.6052010  )
        11           O1  tau(  11) = (   1.2758103   1.4969824  12.6410148  )
        12           O1  tau(  12) = (   5.2796941   1.4985041  12.6691897  )
        13           Ti1 tau(  13) = (   6.5531116   2.9870417  12.5348353  )
        14           Ti1 tau(  14) = (   3.2504356   1.4995581  12.5215122  )
        15           O1  tau(  15) = (   0.0383206   0.0046779  14.6787597  )
        16           O1  tau(  16) = (   3.2537876   0.0095675  14.0320577  )
        17           O1  tau(  17) = (   4.5855444   1.5609978  16.0639115  )
        18           O1  tau(  18) = (   2.0343745   1.5440679  16.2001998  )
        19           Ti1 tau(  19) = (   3.3058624   3.0043567  15.7064231  )
        20           Ti1 tau(  20) = (   6.5549511   1.4266458  15.8675638  )
        21           O1  tau(  21) = (   3.2904802   0.0005063   4.7018136  )
        22           O1  tau(  22) = (   6.4974171   0.0126247  17.2237355  )
        23           O1  tau(  23) = (   1.3043587   1.4918075   6.0039043  )
        24           O1  tau(  24) = (   5.2767064   1.4903225   6.0039473  )
        25           Ti1 tau(  25) = (   0.0000382   5.9609847   6.0000000  )
        26           Ti1 tau(  26) = (   3.2902200   4.4714249   6.0002472  )
        27           O1  tau(  27) = (   0.0002396   2.9813036   7.9858123  )
        28           O1  tau(  28) = (   3.2902150   2.9813002   7.3038282  )
        29           O1  tau(  29) = (   4.5938453   4.4726049   9.2879030  )
        30           O1  tau(  30) = (   1.9864658   4.4711199   9.2879459  )
        31           Ti1 tau(  31) = (   3.3194574   0.0113313   9.1541029  )
        32           Ti1 tau(  32) = (   0.0414074   4.4589881   9.2683624  )
        33           O1  tau(  33) = (   3.2821265   2.9896323  11.3676027  )
        34           O1  tau(  34) = (   6.5712111   2.9825298  10.6251173  )
        35           O1  tau(  35) = (   1.2751242   4.4805681  12.6359318  )
        36           O1  tau(  36) = (   5.2791817   4.4782367  12.6627471  )
        37           Ti1 tau(  37) = (   6.5506445   0.0032150  12.4806913  )
        38           Ti1 tau(  38) = (   3.2507345   4.4881811  12.5195668  )
        39           O1  tau(  39) = (   0.0469291   2.9928743  14.8464778  )
        40           O1  tau(  40) = (   3.2514374   2.9975957  13.9281162  )
        41           O1  tau(  41) = (   4.5866068   4.4203933  16.0984022  )
        42           O1  tau(  42) = (   2.0418857   4.4579080  16.2200674  )
        43           Ti1 tau(  43) = (   3.2648600   0.0292614  15.8571223  )
        44           Ti1 tau(  44) = (   6.5763064   4.6169283  15.9626260  )
        45           O1  tau(  45) = (   3.2900926   2.9813045   4.7018136  )
        46           O1  tau(  46) = (   1.3039711   4.4726057   6.0039043  )
        47           O1  tau(  47) = (   5.2763189   4.4711207   6.0039473  )
        48           C1  tau(  48) = (   6.0301898   2.9050411  18.9351799  )
        49           O1  tau(  49) = (   0.1575529   2.9516393  17.6823866  )
        50           H1  tau(  50) = (   4.9714676   2.8818909  18.6991823  )
        51           H1  tau(  51) = (   1.1132637   2.8218831  17.8130049  )
        52           H1  tau(  52) = (   6.2985093   1.9952365  19.4696065  )
        53           H1  tau(  53) = (   6.2732381   3.7939772  19.5169533  )
        54           N1  tau(  54) = (   4.8840950   3.1052494  22.6850861  )
        55           N1  tau(  55) = (   4.2680757   3.3403818  21.7970487  )
        56           O1  tau(  56) = (   3.8772584   0.1141246  18.3039653  )
        57           H1  tau(  57) = (   4.8407149   0.0692883  18.0716375  )
        58           H1  tau(  58) = (   3.6680196   5.2122673  18.6877519  )

     number of k points=    10  Fermi-Dirac smearing, width (Ry)=  0.0073
                       cart. coord. in units 2pi/alat
        k(    1) = (   0.0000000   0.0000000   0.0000000), wk =   0.1250000
        k(    2) = (   0.0000000   0.0419351   0.0000000), wk =   0.2500000
        k(    3) = (   0.0000000  -0.0838702   0.0000000), wk =   0.1250000
        k(    4) = (   0.0379955   0.0000049   0.0000000), wk =   0.2500000
        k(    5) = (   0.0379955   0.0419400   0.0000000), wk =   0.2500000
        k(    6) = (   0.0379955  -0.0838652   0.0000000), wk =   0.2500000
        k(    7) = (   0.0379955  -0.0419301   0.0000000), wk =   0.2500000
        k(    8) = (  -0.0759910  -0.0000099   0.0000000), wk =   0.1250000
        k(    9) = (  -0.0759910   0.0419252   0.0000000), wk =   0.2500000
        k(   10) = (  -0.0759910  -0.0838800   0.0000000), wk =   0.1250000

     Initial potential from superposition of free atoms

     starting charge  393.99913, renormalised to  410.00000

     negative rho (up, down):  9.557E-03 0.000E+00

     %%%%%%%%%%%%%%%%%%%%%%%%%%%%%%%%%%%%%%%%%%%%%%%%%%%%%%%%%%%%%%%%%%%%%%%%
     %                                                                      %
     % You are using vdW-DF, which was implemented by the Thonhauser group. %
     % Please cite the following two papers that made this development      %
     % possible and the two reviews that describe the various versions:     %
     %                                                                      %
     %   T. Thonhauser et al., PRL 115, 136402 (2015).                      %
     %   T. Thonhauser et al., PRB 76, 125112 (2007).                       %
     %   K. Berland et al., Rep. Prog. Phys. 78, 066501 (2015).             %
     %   D.C. Langreth et al., J. Phys.: Condens. Matter 21, 084203 (2009). %
     %                                                                      %
     %                                                                      %
     % If you are calculating the stress with vdW-DF, please also cite:     %
     %                                                                      %
     %   R. Sabatini et al., J. Phys.: Condens. Matter 24, 424209 (2012).   %
     %                                                                      %
     %%%%%%%%%%%%%%%%%%%%%%%%%%%%%%%%%%%%%%%%%%%%%%%%%%%%%%%%%%%%%%%%%%%%%%%%

     Adding external electric field

     Computed dipole along edir(3) :
        Dipole              -20.0830 Ry au,        -51.0459 Debye
        Dipole field         -0.0379 Ry au,

        Potential amp.        3.5132 Ry
        Total length         46.3494 bohr

     Starting wfcs are  310 atomic wfcs
  @ DRIVER MODE: Message from server: STATUS
  @ DRIVER MODE: Message from server: POSDATA
  @ DRIVER MODE: Reading and sharing cell
  @ DRIVER MODE: Reading and sharing positions
  @ DRIVER MODE: Received positions

     Self-consistent Calculation

     iteration #  1     ecut=    29.40 Ry     beta= 0.05
     Davidson diagonalization with overlap
     c_bands:  1 eigenvalues not converged
     c_bands:  1 eigenvalues not converged
     c_bands:  5 eigenvalues not converged
     c_bands:  1 eigenvalues not converged
     c_bands:  4 eigenvalues not converged
     c_bands:  3 eigenvalues not converged
     ethr =  1.00E-05,  avg # of iterations = 32.2

[...]

     total energy              =   -2098.56725705 Ry
     estimated scf accuracy    <   10669.04488030 Ry

     iteration #  2     ecut=    29.40 Ry     beta= 0.05
     Davidson diagonalization with overlap
     ethr =  1.00E-02,  avg # of iterations = 30.7

[...]

     iteration # 85     ecut=    29.40 Ry     beta= 0.05
     Davidson diagonalization with overlap
     ethr =  3.89E-11,  avg # of iterations = 11.5

[...]

     total energy              =   -3007.66309884 Ry
     estimated scf accuracy    <       0.00000011 Ry

     iteration # 86     ecut=    29.40 Ry     beta= 0.05
     Davidson diagonalization with overlap
     c_bands:  1 eigenvalues not converged
     ethr =  2.68E-11,  avg # of iterations =  8.3

     negative rho (up, down):  1.051E-02 0.000E+00

     Adding external electric field

     Computed dipole along edir(3) :
        Dipole                1.2271 Ry au,          3.1190 Debye
        Dipole field          0.0023 Ry au,

        Potential amp.       -0.2147 Ry
        Total length         46.3494 bohr

     End of self-consistent calculation

          k = 0.0000 0.0000 0.0000 ( 18029 PWs)   bands (ev):

   -54.9386 -54.9148 -54.9026 -54.8805 -54.8659 -54.8602 -54.8331 -54.8143
   -54.7856 -54.7830 -54.7485 -54.7276 -54.6960 -54.6937 -54.0029 -53.9689
   -31.5044 -31.4791 -31.4106 -31.3177 -31.2585 -31.2525 -31.2405 -31.2387
   -31.2034 -31.1687 -31.1602 -31.1575 -31.1531 -31.1297 -31.1234 -31.1173
   -31.1019 -31.0823 -31.0764 -31.0749 -31.0681 -31.0603 -31.0376 -31.0315
   -31.0309 -31.0256 -31.0104 -31.0081 -31.0072 -30.9713 -30.9541 -30.9339
   -30.9324 -30.9317 -30.9235 -30.9228 -30.9122 -30.8821 -30.8674 -30.8632
   -30.8585 -30.8392 -30.4149 -30.3126 -30.2910 -30.2311 -30.1448 -30.0337
   -21.6210 -19.8488 -18.2722 -15.7720 -15.5259 -15.3868 -15.2896 -15.1655
   -15.0358 -14.9613 -14.8410 -14.7690 -14.6752 -14.6615 -14.6437 -14.6222
   -14.5891 -14.5630 -14.5059 -14.5010 -14.4462 -14.4428 -14.4322 -14.4213
   -14.3885 -14.3724 -14.3420 -14.3329 -14.1705 -14.1048 -14.0452 -13.9012
   -12.5035 -12.3841 -10.8259  -6.8721  -6.5730  -6.0302  -4.8595  -4.7799
    -4.7312  -4.6418  -3.5431  -3.1043  -2.9537  -2.9156  -2.8924  -2.8745
    -2.7371  -2.6533  -2.6119  -2.4673  -2.3754  -2.2390  -2.2097  -2.1806
    -2.1407  -2.0748  -2.0164  -1.9317  -1.9025  -1.8617  -1.8426  -1.8189
    -1.8040  -1.7772  -1.7459  -1.6756  -1.6369  -1.5514  -1.5312  -1.4366
    -1.3955  -1.3872  -1.3443  -1.2813  -1.2778  -1.2675  -1.2267  -1.2117
    -1.2053  -1.1950  -1.1866  -1.0254  -0.9822  -0.9449  -0.8243  -0.7149
    -0.6217  -0.6075  -0.5091  -0.4957  -0.4331  -0.4288  -0.3887  -0.3493
    -0.2870  -0.1908  -0.1319  -0.0856  -0.0730   0.0376   0.1031   0.1188
     0.1803   0.2547   0.2698   0.2913   0.3214   0.4078   0.4756   0.5175
     0.5519   0.6166   0.6265   0.6733   0.7026   0.7439   0.8294   0.8831
     0.8866   0.9738   0.9907   1.0041   1.0292   1.0351   1.1333   1.1672
     1.2114   1.2394   1.3906   1.4260   1.6169   1.6525   1.9126   2.0111
     2.0229   2.1842   2.6089   2.6634   4.1513   4.2193   4.2558   4.2630
     4.2776   4.3572   4.6395   4.6557   4.6606   4.6715   4.6796

[...]

          k = 0.0380-0.0419 0.0000 ( 17876 PWs)   bands (ev):

[...]

          k =-0.0760-0.0000 0.0000 ( 17886 PWs)   bands (ev):

[...]

          k =-0.0760-0.0839 0.0000 ( 17948 PWs)   bands (ev):

   -54.9215 -54.9194 -54.8994 -54.8958 -54.8604 -54.8562 -54.8258 -54.8217
   -54.7929 -54.7679 -54.7632 -54.7120 -54.7093 -54.6976 -53.9858 -53.9858
   -31.3920 -31.3133 -31.3030 -31.2273 -31.2238 -31.2009 -31.1937 -31.1922
   -31.1853 -31.1625 -31.1477 -31.1463 -31.1387 -31.1321 -31.1139 -31.0990
   -31.0838 -31.0820 -31.0730 -31.0717 -31.0701 -31.0689 -31.0632 -31.0576
   -31.0330 -31.0279 -31.0236 -31.0186 -31.0182 -31.0155 -31.0146 -31.0145
   -31.0142 -30.9853 -30.9764 -30.9659 -30.9648 -30.9373 -30.9349 -30.8989
   -30.8957 -30.8809 -30.3036 -30.3035 -30.2277 -30.2274 -30.1880 -30.1879
   -21.6208 -19.8454 -18.2712 -15.3485 -15.2332 -15.0675 -14.9591 -14.9494
   -14.9207 -14.8614 -14.8184 -14.7876 -14.7471 -14.7371 -14.7077 -14.6898
   -14.6845 -14.6267 -14.5429 -14.5373 -14.5234 -14.4880 -14.4610 -14.4470
   -14.4450 -14.4307 -14.3937 -14.3919 -14.3727 -14.3615 -14.3062 -14.2122
   -12.4854 -12.4849 -10.8286  -6.8711  -6.5748  -6.0327  -4.8563  -4.7863
    -4.7264  -4.6299  -3.5347  -2.7365  -2.5196  -2.5005  -2.4280  -2.2610
    -2.1826  -2.1614  -2.0853  -2.0615  -2.0260  -1.9480  -1.9442  -1.9102
    -1.8705  -1.8459  -1.8400  -1.8218  -1.8030  -1.7700  -1.7496  -1.7265
    -1.7146  -1.6991  -1.6532  -1.6443  -1.6086  -1.6050  -1.5897  -1.5785
    -1.5592  -1.5485  -1.4652  -1.4398  -1.3980  -1.3079  -1.2960  -1.1668
    -1.1606  -1.1012  -1.0788  -1.0384  -1.0216  -0.9989  -0.9747  -0.9387
    -0.9128  -0.7410  -0.7199  -0.6766  -0.6259  -0.6185  -0.5463  -0.5309
    -0.4773  -0.4441  -0.3544  -0.3137  -0.2747  -0.1653  -0.1385  -0.1261
     0.0123   0.0181   0.0630   0.0646   0.1072   0.1454   0.1583   0.1647
     0.2399   0.2720   0.3085   0.3344   0.3580   0.5361   0.5724   0.6309
     0.7202   0.7388   0.9175   0.9476   0.9913   1.0724   1.1338   1.1877
     1.2097   1.3187   1.3257   1.3493   1.4406   1.4891   1.4903   1.5203
     2.3742   2.3771   2.4779   2.4807   4.2754   4.4065   4.4127   4.4927
     4.5669   4.6591   4.6694   4.6763   4.7043   4.7140   4.7265

     the Fermi energy is     4.2075 ev

!    total energy              =   -3007.66310929 Ry
     estimated scf accuracy    <       0.00000007 Ry
     smearing contrib. (-TS)   =      -0.03679083 Ry
     internal energy E=F+TS    =   -3007.62631846 Ry

     The total energy is F=E-TS. E is the sum of the following terms:
     one-electron contribution =  -22336.16894892 Ry
     hartree contribution      =   11269.83774226 Ry
     xc contribution           =    -502.08772433 Ry
     ewald contribution        =    8560.78977090 Ry
     electric field correction =       0.00284162 Ry

     convergence has been achieved in  86 iterations

     Forces acting on atoms (cartesian axes, Ry/au):

     atom    1 type  1   force =    -0.00027453   -0.00000885    0.09253125
     atom    2 type  1   force =    -0.00013722    0.00113944   -0.18324019
     atom    3 type  2   force =     0.00054934   -0.00040099   -0.02389099
     atom    4 type  2   force =     0.00079817    0.00021117    0.05085908
     atom    5 type  2   force =    -0.01550174   -0.00014308    0.00437501
     atom    6 type  2   force =     0.01421548   -0.00032936    0.00506086
     atom    7 type  1   force =    -0.00011649    0.00020620    0.00005882
     atom    8 type  1   force =    -0.00006188    0.00017086    0.00001151
     atom    9 type  2   force =     0.00007242    0.00004358    0.00013322
     atom   10 type  2   force =    -0.00000133    0.00001858   -0.00003126
     atom   11 type  2   force =     0.00015570    0.00001421   -0.00012839
     atom   12 type  2   force =     0.00005672    0.00003353   -0.00005682
     atom   13 type  1   force =     0.00016978    0.00011686   -0.00012026
     atom   14 type  1   force =     0.00027046    0.00016745   -0.00010292
     atom   15 type  2   force =     0.00024271    0.00044935    0.00015875
     atom   16 type  2   force =     0.00014903   -0.00001615    0.00015755
     atom   17 type  2   force =     0.00007388    0.00014913    0.00008938
     atom   18 type  2   force =    -0.00008459    0.00020465    0.00038986
     atom   19 type  1   force =     0.00014578   -0.00013320    0.00016443
     atom   20 type  1   force =     0.00017714   -0.00027511    0.00013734
     atom   21 type  2   force =     0.00002842    0.00001610    0.10493049
     atom   22 type  2   force =    -0.00019987   -0.00000404   -0.00016629
     atom   23 type  2   force =    -0.06804049   -0.00011401   -0.02685209
     atom   24 type  2   force =     0.06790201    0.00034363   -0.02689272
     atom   25 type  1   force =    -0.00012019   -0.00002909    0.09598269
     atom   26 type  1   force =    -0.00010904   -0.00143427   -0.18316096
     atom   27 type  2   force =     0.00050096   -0.00019704   -0.02269625
     atom   28 type  2   force =     0.00086510    0.00017858    0.05125314
     atom   29 type  2   force =    -0.01541925    0.00050415    0.00454813
     atom   30 type  2   force =     0.01417018    0.00078096    0.00524911
     atom   31 type  1   force =    -0.00010367    0.00005144   -0.00000205
     atom   32 type  1   force =    -0.00006930    0.00015928   -0.00003562
     atom   33 type  2   force =     0.00012536   -0.00003048    0.00018473
     atom   34 type  2   force =    -0.00000273    0.00007157    0.00006171
     atom   35 type  2   force =     0.00011228   -0.00000058   -0.00002561
     atom   36 type  2   force =     0.00009908   -0.00000452    0.00009491
     atom   37 type  1   force =     0.00015050    0.00006350   -0.00018867
     atom   38 type  1   force =     0.00015599   -0.00003354    0.00005273
     atom   39 type  2   force =     0.00018906   -0.00006704    0.00024169
     atom   40 type  2   force =     0.00002104   -0.00018316    0.00001574
     atom   41 type  2   force =     0.00025109   -0.00000744   -0.00000889
     atom   42 type  2   force =    -0.00026410   -0.00013386    0.00018341
     atom   43 type  1   force =     0.00004868   -0.00020871    0.00131144
     atom   44 type  1   force =     0.00002881    0.00024615    0.00062877
     atom   45 type  2   force =     0.00003338    0.00002004    0.10486072
     atom   46 type  2   force =    -0.06804980   -0.00051015   -0.02684080
     atom   47 type  2   force =     0.06790813   -0.00009020   -0.02692123
     atom   48 type  3   force =    -0.00084385   -0.00039186    0.00597877
     atom   49 type  2   force =     0.00034665    0.00070929   -0.01202687
     atom   50 type  4   force =    -0.00026543   -0.00041937    0.00006913
     atom   51 type  4   force =     0.00217468   -0.00062199    0.00233956
     atom   52 type  4   force =    -0.00043033   -0.00039564    0.00124365
     atom   53 type  4   force =    -0.00065052    0.00014312    0.00106263
     atom   54 type  5   force =    -0.00101011    0.00006707   -0.00120632
     atom   55 type  5   force =     0.00044229   -0.00011036    0.00034307
     atom   56 type  2   force =     0.00129416    0.00056986   -0.00095910
     atom   57 type  4   force =    -0.00107709   -0.00043439    0.00032370
     atom   58 type  4   force =    -0.00109090   -0.00012127    0.00046733

     Total force =     0.368466     Total SCF correction =     0.000601
  @ DRIVER MODE: Message from server: STATUS
  @ DRIVER MODE: Message from server: GETFORCE
  @ DRIVER MODE: Returning v,forces,stress,ensemble

     Writing output data file ./calc.save/
  @ DRIVER MODE: Message from server: EXIT
  @ DRIVE MODE: Exiting

     General routines

     Parallel routines

   This run was terminated on:  22:32:16  27Sep2021

   JOB DONE.