     Program PWSCF v.6.7GPU starts on 26Sep2021 at  5:13:52

     R & G space division:  proc/nbgrp/npool/nimage =       8
     Reading input from /storage/home/hcoda1/3/ntian30/research/carbon/CxH_vib/H2O_calc/ads_slab/CH3OHN2HO_a/out_0026/pw.inp
Warning: card &CELL ignored
Warning: card   CELL_DYNAMICS='IPI', ignored
Warning: card / ignored

     Current dimensions of program PWSCF are:
     Max number of different atomic species (ntypx) = 10
     Max number of k-points (npk) =  40000
     Max angular momentum in pseudopotentials (lmaxx) =  3
     Presently no symmetry can be used with electric field

     Message from routine cell_base_init:
     DEPRECATED: use true lattice parameter, not A to a.u. conversion factor

     IMPORTANT: XC functional enforced from input :
     Exchange-correlation= BEEF-VDW
                           (   1   4  43  14   2   0   0)
     Any further DFT definition will be discarded
     Please, verify this is what you really want

  @ DRIVER MODE: Connecting to
 qe_1139763_2971668.sched-torque.pace.gatech.edu46qehyng_scratch
  using UNIX socket
  @ DRIVER MODE: Message from server: STATUS
  @ DRIVER MODE: Message from server: INIT
  @ DRIVER MODE: Receiving replica           0          -1
  @ DRIVER MODE: Receiving encoded integer          25
  @ DRIVER MODE:  SCF:  T  FORCE:  T  STRESS:  F  VC:  F  ENSEMBLE:  F
  @ DRIVER MODE:  SCF:  T  FORCE:  T  STRESS:  F  VC:  F  ENSEMBLE:  F

     Using Slab Decomposition

     bravais-lattice index     =            0
     lattice parameter (alat)  =       1.8897  a.u.
     unit-cell volume          =    6658.9804 (a.u.)^3
     number of atoms/cell      =           57
     number of atomic types    =            5
     number of electrons       =       409.00
     number of Kohn-Sham states=          214
     kinetic-energy cutoff     =      29.3995  Ry
     charge density cutoff     =     293.9946  Ry
     scf convergence threshold =      7.3E-08
     mixing beta               =       0.0500
     number of iterations used =            8  plain     mixing
     Exchange-correlation= BEEF-VDW
                           (   1   4  43  14   2   0   0)

     celldm(1)=   1.889726  celldm(2)=   0.000000  celldm(3)=   0.000000
     celldm(4)=   0.000000  celldm(5)=   0.000000  celldm(6)=   0.000000

     crystal axes: (cart. coord. in units of alat)
               a(1) = (   6.579727   0.000000   0.000000 )
               a(2) = (  -0.000775   5.961596   0.000000 )
               a(3) = (   0.000000   0.000000  25.155947 )

     reciprocal axes: (cart. coord. in units 2 pi/alat)
               b(1) = (  0.151982  0.000020  0.000000 )
               b(2) = (  0.000000  0.167740  0.000000 )
               b(3) = (  0.000000  0.000000  0.039752 )

     PseudoPot. # 1 for Ti read from file:
     /storage/coda1/p-amedford6/0/shared/rich_project_chbe-medford/medford-share/data/pseudos_module/espresso/nninc/pbe/van/Ti.UPF
     MD5 check sum: 8e4df49b7f0d34bbd5052bf3f5ea0213
     Pseudo is Ultrasoft, Zval = 12.0
     Generated by new atomic code, or converted to UPF format
     Using radial grid of  851 points,  6 beta functions with:
                l(1) =   0
                l(2) =   0
                l(3) =   1
                l(4) =   1
                l(5) =   2
                l(6) =   2
     Q(r) pseudized with  8 coefficients,  rinner =    1.000   1.000   1.000
                                                       1.000   1.000

     PseudoPot. # 2 for O  read from file:
     /storage/coda1/p-amedford6/0/shared/rich_project_chbe-medford/medford-share/data/pseudos_module/espresso/nninc/pbe/van/O.UPF
     MD5 check sum: 78c19812648e8988a0fe644b0f25305e
     Pseudo is Ultrasoft, Zval =  6.0
     Generated by new atomic code, or converted to UPF format
     Using radial grid of  737 points,  4 beta functions with:
                l(1) =   0
                l(2) =   0
                l(3) =   1
                l(4) =   1
     Q(r) pseudized with  8 coefficients,  rinner =    0.800   0.800   0.800

     PseudoPot. # 3 for C  read from file:
     /storage/coda1/p-amedford6/0/shared/rich_project_chbe-medford/medford-share/data/pseudos_module/espresso/nninc/pbe/van/C.UPF
     MD5 check sum: 1a69bf6b8db32088f5b2163dbdb77a27
     Pseudo is Ultrasoft, Zval =  4.0
     Generated by new atomic code, or converted to UPF format
     Using radial grid of  721 points,  4 beta functions with:
                l(1) =   0
                l(2) =   0
                l(3) =   1
                l(4) =   1
     Q(r) pseudized with  8 coefficients,  rinner =    0.800   0.800   0.800

     PseudoPot. # 4 for H  read from file:
     /storage/coda1/p-amedford6/0/shared/rich_project_chbe-medford/medford-share/data/pseudos_module/espresso/nninc/pbe/van/H.UPF
     MD5 check sum: b5ee9d7bfd3a09ee7748110bda690ff7
     Pseudo is Ultrasoft, Zval =  1.0
     Generated by new atomic code, or converted to UPF format
     Using radial grid of  615 points,  1 beta functions with:
                l(1) =   0
     Q(r) pseudized with  8 coefficients,  rinner =    0.800

     PseudoPot. # 5 for N  read from file:
     /storage/coda1/p-amedford6/0/shared/rich_project_chbe-medford/medford-share/data/pseudos_module/espresso/nninc/pbe/van/N.UPF
     MD5 check sum: 90d10febe142ad51ac9d5be1deb811c4
     Pseudo is Ultrasoft, Zval =  5.0
     Generated by new atomic code, or converted to UPF format
     Using radial grid of  729 points,  4 beta functions with:
                l(1) =   0
                l(2) =   0
                l(3) =   1
                l(4) =   1
     Q(r) pseudized with  8 coefficients,  rinner =    0.800   0.800   0.800

     atomic species   valence    mass     pseudopotential
        Ti1           12.00    47.86700     Ti( 1.00)
        O1             6.00    15.99900     O ( 1.00)
        C1             4.00    12.01100     C ( 1.00)
        H1             1.00     1.00800     H ( 1.00)
        N1             5.00    14.00700     N ( 1.00)

     No symmetry found

   Cartesian axes

     site n.     atom                  positions (alat units)
         1           Ti1 tau(   1) = (   0.0004258   2.9801865   6.0000000  )
         2           Ti1 tau(   2) = (   3.2906075   1.4906267   6.0002472  )
         3           O1  tau(   3) = (   0.0006271   0.0005054   7.9858123  )
         4           O1  tau(   4) = (   3.2906025   0.0005020   7.3038282  )
         5           O1  tau(   5) = (   4.5942328   1.4918067   9.2879030  )
         6           O1  tau(   6) = (   1.9868534   1.4903216   9.2879459  )
         7           Ti1 tau(   7) = (   3.3371032   3.0268772   9.1887580  )
         8           Ti1 tau(   8) = (   0.0611061   1.5258697   9.2809523  )
         9           O1  tau(   9) = (   3.3143856   0.0188946  11.3581724  )
        10           O1  tau(  10) = (   0.0164151   0.0031400  10.5895864  )
        11           O1  tau(  11) = (   1.3088961   1.4994640  12.6347600  )
        12           O1  tau(  12) = (   5.3347766   1.4946156  12.6347356  )
        13           Ti1 tau(  13) = (   0.0202478   3.0292801  12.5720800  )
        14           Ti1 tau(  14) = (   3.3188568   1.5851219  12.4260843  )
        15           O1  tau(  15) = (   0.0445434   5.9450813  14.6510506  )
        16           O1  tau(  16) = (   3.3207065   5.8849141  14.0104376  )
        17           O1  tau(  17) = (   4.6249962   1.5116716  16.1313945  )
        18           O1  tau(  18) = (   2.0639035   1.5439872  16.0680944  )
        19           Ti1 tau(  19) = (   3.3360141   2.9454253  15.6763505  )
        20           Ti1 tau(  20) = (   0.0686920   1.3314864  15.9334539  )
        21           O1  tau(  21) = (   3.2904802   0.0005063   4.7018136  )
        22           O1  tau(  22) = (   0.0979609   0.0039778  17.1657837  )
        23           O1  tau(  23) = (   1.3043587   1.4918075   6.0039043  )
        24           O1  tau(  24) = (   5.2767064   1.4903225   6.0039473  )
        25           Ti1 tau(  25) = (   0.0000382   5.9609847   6.0000000  )
        26           Ti1 tau(  26) = (   3.2902200   4.4714249   6.0002472  )
        27           O1  tau(  27) = (   0.0002396   2.9813036   7.9858123  )
        28           O1  tau(  28) = (   3.2902150   2.9813002   7.3038282  )
        29           O1  tau(  29) = (   4.5938453   4.4726049   9.2879030  )
        30           O1  tau(  30) = (   1.9864658   4.4711199   9.2879459  )
        31           Ti1 tau(  31) = (   3.3368545   0.0404040   9.1664313  )
        32           Ti1 tau(  32) = (   0.0604674   4.4799263   9.2696248  )
        33           O1  tau(  33) = (   3.3137611   2.9662427  11.3084074  )
        34           O1  tau(  34) = (   0.0134136   2.9850836  10.6046154  )
        35           O1  tau(  35) = (   1.3054726   4.4719986  12.6384794  )
        36           O1  tau(  36) = (   5.3362180   4.4781181  12.6390536  )
        37           Ti1 tau(  37) = (   0.0365240   0.0487139  12.4702884  )
        38           Ti1 tau(  38) = (   3.3180881   4.6653017  12.7087268  )
        39           O1  tau(  39) = (   0.0228105   2.9918545  14.7761892  )
        40           O1  tau(  40) = (   3.3431522   2.9700269  13.9040455  )
        41           O1  tau(  41) = (   4.6265974   4.4152401  16.1544535  )
        42           O1  tau(  42) = (   2.0571238   4.3592187  16.1146037  )
        43           Ti1 tau(  43) = (   3.3848590   5.9294639  16.2700006  )
        44           Ti1 tau(  44) = (   0.0517009   4.5268197  15.8466567  )
        45           O1  tau(  45) = (   3.2900926   2.9813045   4.7018136  )
        46           O1  tau(  46) = (   1.3039711   4.4726057   6.0039043  )
        47           O1  tau(  47) = (   5.2763189   4.4711207   6.0039473  )
        48           C1  tau(  48) = (   5.9450987   3.0517216  18.8599509  )
        49           O1  tau(  49) = (   0.1802289   3.0084098  17.6484507  )
        50           H1  tau(  50) = (   4.9625852   2.6832861  18.5889656  )
        51           H1  tau(  51) = (   1.1163247   3.1442434  17.8758057  )
        52           H1  tau(  52) = (   6.3999442   2.3914015  19.6026461  )
        53           H1  tau(  53) = (   5.8846647   4.0795385  19.2151274  )
        54           N1  tau(  54) = (   5.7598779   3.1323611  22.9045362  )
        55           N1  tau(  55) = (   4.9845974   3.1850264  22.1203839  )
        56           O1  tau(  56) = (   3.1467188   0.0118795  18.1166202  )
        57           H1  tau(  57) = (   2.2164505   0.0865285  18.3868412  )

     number of k points=    10  Fermi-Dirac smearing, width (Ry)=  0.0073
                       cart. coord. in units 2pi/alat
        k(    1) = (   0.0000000   0.0000000   0.0000000), wk =   0.1250000
        k(    2) = (   0.0000000   0.0419351   0.0000000), wk =   0.2500000
        k(    3) = (   0.0000000  -0.0838702   0.0000000), wk =   0.1250000
        k(    4) = (   0.0379955   0.0000049   0.0000000), wk =   0.2500000
        k(    5) = (   0.0379955   0.0419400   0.0000000), wk =   0.2500000
        k(    6) = (   0.0379955  -0.0838652   0.0000000), wk =   0.2500000
        k(    7) = (   0.0379955  -0.0419301   0.0000000), wk =   0.2500000
        k(    8) = (  -0.0759910  -0.0000099   0.0000000), wk =   0.1250000
        k(    9) = (  -0.0759910   0.0419252   0.0000000), wk =   0.2500000
        k(   10) = (  -0.0759910  -0.0838800   0.0000000), wk =   0.1250000

     Initial potential from superposition of free atoms

     starting charge  392.99914, renormalised to  409.00000

     negative rho (up, down):  9.138E-03 0.000E+00

     %%%%%%%%%%%%%%%%%%%%%%%%%%%%%%%%%%%%%%%%%%%%%%%%%%%%%%%%%%%%%%%%%%%%%%%%
     %                                                                      %
     % You are using vdW-DF, which was implemented by the Thonhauser group. %
     % Please cite the following two papers that made this development      %
     % possible and the two reviews that describe the various versions:     %
     %                                                                      %
     %   T. Thonhauser et al., PRL 115, 136402 (2015).                      %
     %   T. Thonhauser et al., PRB 76, 125112 (2007).                       %
     %   K. Berland et al., Rep. Prog. Phys. 78, 066501 (2015).             %
     %   D.C. Langreth et al., J. Phys.: Condens. Matter 21, 084203 (2009). %
     %                                                                      %
     %                                                                      %
     % If you are calculating the stress with vdW-DF, please also cite:     %
     %                                                                      %
     %   R. Sabatini et al., J. Phys.: Condens. Matter 24, 424209 (2012).   %
     %                                                                      %
     %%%%%%%%%%%%%%%%%%%%%%%%%%%%%%%%%%%%%%%%%%%%%%%%%%%%%%%%%%%%%%%%%%%%%%%%

     Adding external electric field

     Computed dipole along edir(3) :
        Dipole              -18.8687 Ry au,        -47.9594 Debye
        Dipole field         -0.0356 Ry au,

        Potential amp.        3.3008 Ry
        Total length         46.3494 bohr

     Starting wfcs are  309 atomic wfcs
  @ DRIVER MODE: Message from server: STATUS
  @ DRIVER MODE: Message from server: POSDATA
  @ DRIVER MODE: Reading and sharing cell
  @ DRIVER MODE: Reading and sharing positions
  @ DRIVER MODE: Received positions

     Self-consistent Calculation

     iteration #  1     ecut=    29.40 Ry     beta= 0.05
     Davidson diagonalization with overlap
     c_bands:  5 eigenvalues not converged
     c_bands:  5 eigenvalues not converged
     c_bands:  1 eigenvalues not converged
     c_bands:  4 eigenvalues not converged
     c_bands:  1 eigenvalues not converged
     c_bands:  3 eigenvalues not converged
     ethr =  1.00E-05,  avg # of iterations = 27.3

[...]

     total energy              =   -2113.20591579 Ry
     estimated scf accuracy    <   10331.03035557 Ry

     iteration #  2     ecut=    29.40 Ry     beta= 0.05
     Davidson diagonalization with overlap
     ethr =  1.00E-02,  avg # of iterations = 30.6

[...]

     iteration # 87     ecut=    29.40 Ry     beta= 0.05
     Davidson diagonalization with overlap
     c_bands:  1 eigenvalues not converged
     c_bands:  1 eigenvalues not converged
     ethr =  1.17E-10,  avg # of iterations = 15.1

[...]

     total energy              =   -3006.45830667 Ry
     estimated scf accuracy    <       0.00000009 Ry

     iteration # 90     ecut=    29.40 Ry     beta= 0.05
     Davidson diagonalization with overlap
     ethr =  2.32E-11,  avg # of iterations =  6.3

     negative rho (up, down):  1.063E-02 0.000E+00

     Adding external electric field

     Computed dipole along edir(3) :
        Dipole                1.0495 Ry au,          2.6675 Debye
        Dipole field          0.0020 Ry au,

        Potential amp.       -0.1836 Ry
        Total length         46.3494 bohr

     End of self-consistent calculation

          k = 0.0000 0.0000 0.0000 ( 18029 PWs)   bands (ev):

   -55.3290 -55.2533 -55.2181 -55.1440 -55.1218 -55.0873 -55.0513 -55.0465
   -55.0448 -55.0258 -55.0158 -54.9858 -54.8989 -54.8229 -54.2132 -54.1791
   -31.7314 -31.7224 -31.6353 -31.6237 -31.5825 -31.5690 -31.5444 -31.5425
   -31.5078 -31.4962 -31.4850 -31.4199 -31.4070 -31.4070 -31.3802 -31.3618
   -31.3535 -31.3365 -31.3352 -31.3239 -31.3168 -31.3121 -31.2662 -31.2640
   -31.2622 -31.2555 -31.2525 -31.2398 -31.2334 -31.2146 -31.2080 -31.1974
   -31.1957 -31.1757 -31.1712 -31.1632 -31.1617 -31.1280 -31.0877 -31.0683
   -31.0371 -31.0268 -30.6193 -30.5331 -30.5105 -30.4363 -30.3500 -30.2384
   -21.5042 -19.7114 -16.1359 -15.9054 -15.7262 -15.5242 -15.4673 -15.4010
   -15.2137 -15.1403 -14.9844 -14.8591 -14.8447 -14.7878 -14.7868 -14.7767
   -14.7477 -14.7228 -14.6775 -14.6661 -14.6607 -14.6572 -14.5956 -14.5532
   -14.5507 -14.5233 -14.5028 -14.3756 -14.3286 -14.2741 -14.1041 -14.0819
   -12.7126 -12.5964 -10.5645  -6.6840  -6.4041  -4.6668  -4.6283  -4.5924
    -4.4001  -3.6522  -3.3685  -3.2549  -3.1543  -3.1356  -3.0715  -3.0203
    -2.8052  -2.7012  -2.6358  -2.5231  -2.3961  -2.3600  -2.3090  -2.2778
    -2.1858  -2.1676  -2.1360  -2.1058  -2.0508  -2.0228  -2.0152  -2.0020
    -1.9265  -1.9201  -1.7903  -1.7853  -1.7289  -1.6370  -1.6192  -1.5963
    -1.5888  -1.5549  -1.5522  -1.5101  -1.4864  -1.4622  -1.4328  -1.3583
    -1.3392  -1.2763  -1.2390  -1.0059  -0.8520  -0.8275  -0.7472  -0.7307
    -0.6993  -0.6709  -0.6511  -0.6401  -0.6030  -0.5876  -0.4840  -0.3805
    -0.3720  -0.3122  -0.2746  -0.2697  -0.1342  -0.0892  -0.0150   0.0078
     0.0400   0.0610   0.1454   0.1942   0.2157   0.2823   0.3137   0.4192
     0.4567   0.4760   0.5172   0.5727   0.6331   0.6670   0.7063   0.7097
     0.7425   0.7916   0.8211   0.8557   0.8780   0.9251   1.0280   1.0653
     1.0758   1.2163   1.2275   1.3097   1.4345   1.4863   1.7594   1.8120
     1.8586   2.0043   2.3808   2.4277   3.8705   3.9732   3.9942   4.0154
     4.0832   4.1650   4.3304   4.3537   4.4180   4.5190

[...]

          k = 0.0380-0.0419 0.0000 ( 17876 PWs)   bands (ev):

[...]

          k =-0.0760-0.0000 0.0000 ( 17886 PWs)   bands (ev):

[...]

          k =-0.0760-0.0839 0.0000 ( 17948 PWs)   bands (ev):

   -55.3283 -55.2402 -55.2311 -55.1380 -55.1174 -55.0931 -55.0503 -55.0459
   -55.0375 -55.0292 -55.0169 -54.9951 -54.8952 -54.8265 -54.1963 -54.1958
   -31.6420 -31.5787 -31.5689 -31.5513 -31.5424 -31.5422 -31.5364 -31.5205
   -31.4584 -31.4537 -31.4148 -31.3932 -31.3818 -31.3766 -31.3602 -31.3580
   -31.3544 -31.3524 -31.3458 -31.3399 -31.3348 -31.3329 -31.3175 -31.3155
   -31.2965 -31.2859 -31.2563 -31.2499 -31.2474 -31.2432 -31.2353 -31.2338
   -31.2273 -31.2225 -31.2187 -31.2143 -31.2118 -31.1734 -31.1548 -31.0918
   -31.0743 -31.0307 -30.5234 -30.5231 -30.4331 -30.4315 -30.3933 -30.3924
   -21.5041 -19.7076 -16.1124 -15.5352 -15.3789 -15.2079 -15.1940 -15.1147
   -15.0233 -15.0055 -14.9750 -14.9616 -14.9444 -14.9200 -14.9118 -14.8766
   -14.8137 -14.7718 -14.7487 -14.7405 -14.6935 -14.6882 -14.6847 -14.6219
   -14.6147 -14.5965 -14.5719 -14.5120 -14.5029 -14.4025 -14.3874 -14.2154
   -12.6987 -12.6978 -10.5666  -6.6843  -6.4060  -4.6619  -4.6351  -4.5807
    -4.3921  -3.6173  -3.3590  -2.6836  -2.5996  -2.5408  -2.4317  -2.3534
    -2.2998  -2.2500  -2.2291  -2.1840  -2.1628  -2.0934  -2.0588  -2.0498
    -2.0305  -2.0284  -1.9979  -1.9825  -1.9697  -1.9485  -1.9201  -1.9028
    -1.8923  -1.8713  -1.8515  -1.8256  -1.8135  -1.8036  -1.7887  -1.7728
    -1.6621  -1.6450  -1.6124  -1.4495  -1.4381  -1.3692  -1.3376  -1.3111
    -1.3074  -1.2770  -1.2618  -1.2196  -1.1139  -1.0866  -1.0375  -0.9936
    -0.9025  -0.8871  -0.8363  -0.7853  -0.7395  -0.7109  -0.6804  -0.6651
    -0.6115  -0.4732  -0.4523  -0.4072  -0.2881  -0.2148  -0.1991  -0.1866
    -0.1648  -0.1418  -0.0952  -0.0871  -0.0252  -0.0126   0.0582   0.0622
     0.0913   0.1128   0.2153   0.3374   0.4160   0.4599   0.5049   0.5542
     0.5879   0.6703   0.7464   0.8329   0.9089   0.9385   0.9522   1.0699
     1.1024   1.1549   1.2008   1.2210   1.2793   1.3150   1.3553   1.3884
     2.1730   2.1867   2.2430   2.2487   4.0515   4.3014   4.3613   4.3783
     4.3881   4.4204   4.4415   4.4929   4.5100   4.5337

     the Fermi energy is     3.8807 ev

!    total energy              =   -3006.45830897 Ry
     estimated scf accuracy    <       0.00000006 Ry
     smearing contrib. (-TS)   =      -0.02082659 Ry
     internal energy E=F+TS    =   -3006.43748237 Ry

     The total energy is F=E-TS. E is the sum of the following terms:
     one-electron contribution =  -22317.76133855 Ry
     hartree contribution      =   11258.39842039 Ry
     xc contribution           =    -501.14325415 Ry
     ewald contribution        =    8554.06661146 Ry
     electric field correction =       0.00207848 Ry

     convergence has been achieved in  90 iterations

     Forces acting on atoms (cartesian axes, Ry/au):

     atom    1 type  1   force =    -0.00037539   -0.00017084    0.09496341
     atom    2 type  1   force =    -0.00035532    0.00512982   -0.17484215
     atom    3 type  2   force =     0.00070858    0.00012941   -0.02671901
     atom    4 type  2   force =     0.00128995    0.00083286    0.05209222
     atom    5 type  2   force =    -0.01096143   -0.00256149    0.00078983
     atom    6 type  2   force =     0.01193331   -0.00381126    0.00179920
     atom    7 type  1   force =    -0.00021630    0.00039532    0.00067925
     atom    8 type  1   force =     0.00013730    0.00022718    0.00017196
     atom    9 type  2   force =     0.00024952    0.00075442   -0.00065134
     atom   10 type  2   force =    -0.00039092    0.00016161    0.00015739
     atom   11 type  2   force =     0.00044496   -0.00015298    0.00011077
     atom   12 type  2   force =    -0.00085432   -0.00015327    0.00036327
     atom   13 type  1   force =     0.00043845    0.00034632   -0.00022637
     atom   14 type  1   force =    -0.00033766   -0.00070084    0.00092533
     atom   15 type  2   force =    -0.00014380   -0.00051592   -0.00098917
     atom   16 type  2   force =    -0.00027597   -0.00000112   -0.00022511
     atom   17 type  2   force =    -0.00098296    0.00031905    0.00000041
     atom   18 type  2   force =     0.00048707    0.00068755   -0.00007656
     atom   19 type  1   force =     0.00022752   -0.00082225    0.00013648
     atom   20 type  1   force =    -0.00023663    0.00010167    0.00041399
     atom   21 type  2   force =    -0.00000278    0.00007289    0.10301383
     atom   22 type  2   force =    -0.00002636   -0.00013948    0.00095897
     atom   23 type  2   force =    -0.07196317    0.00013623   -0.02802377
     atom   24 type  2   force =     0.07179900    0.00063428   -0.02812917
     atom   25 type  1   force =    -0.00036470    0.00025986    0.10242041
     atom   26 type  1   force =    -0.00010703   -0.00474976   -0.17508279
     atom   27 type  2   force =     0.00084846    0.00117015   -0.02483798
     atom   28 type  2   force =     0.00119610    0.00025348    0.05171986
     atom   29 type  2   force =    -0.01192166    0.00381474    0.00173355
     atom   30 type  2   force =     0.01376089    0.00146499    0.00246491
     atom   31 type  1   force =    -0.00028834   -0.00015989    0.00081040
     atom   32 type  1   force =     0.00028020    0.00028901    0.00059969
     atom   33 type  2   force =     0.00000564    0.00020690    0.00009963
     atom   34 type  2   force =    -0.00027300   -0.00032455   -0.00055049
     atom   35 type  2   force =    -0.00022430    0.00005217   -0.00047160
     atom   36 type  2   force =    -0.00038633    0.00009732   -0.00008899
     atom   37 type  1   force =    -0.00005126   -0.00034426    0.00003856
     atom   38 type  1   force =    -0.00056905    0.00026931   -0.00001187
     atom   39 type  2   force =    -0.00025505   -0.00024611    0.00076255
     atom   40 type  2   force =    -0.00019810    0.00011678    0.00028904
     atom   41 type  2   force =    -0.00140594   -0.00027511   -0.00003071
     atom   42 type  2   force =     0.00109867   -0.00013024   -0.00051097
     atom   43 type  1   force =    -0.00021126    0.00054692    0.00015488
     atom   44 type  1   force =    -0.00004986    0.00007315    0.00010695
     atom   45 type  2   force =     0.00000315    0.00013941    0.10260148
     atom   46 type  2   force =    -0.07185609   -0.00062745   -0.02796843
     atom   47 type  2   force =     0.07171368   -0.00013561   -0.02804478
     atom   48 type  3   force =     0.00345200   -0.00276574    0.00304495
     atom   49 type  2   force =    -0.00136335   -0.00029069   -0.00078450
     atom   50 type  4   force =     0.00026819   -0.00115737    0.00047271
     atom   51 type  4   force =     0.00027969    0.00041991   -0.00068545
     atom   52 type  4   force =    -0.00405840    0.00287233   -0.00323036
     atom   53 type  4   force =    -0.00004701   -0.00035235   -0.00103000
     atom   54 type  5   force =     0.00015796   -0.00008371    0.00036855
     atom   55 type  5   force =    -0.00051137    0.00006704   -0.00033544
     atom   56 type  2   force =     0.00079001   -0.00056362    0.00048247
     atom   57 type  4   force =    -0.00030517   -0.00080619   -0.00119987

     Total force =     0.364922     Total SCF correction =     0.000531
  @ DRIVER MODE: Message from server: STATUS
  @ DRIVER MODE: Message from server: GETFORCE
  @ DRIVER MODE: Returning v,forces,stress,ensemble

     Writing output data file ./calc.save/
  @ DRIVER MODE: Message from server: EXIT
  @ DRIVE MODE: Exiting

     General routines

     Parallel routines

   This run was terminated on:   5:50: 9  26Sep2021

   JOB DONE.