     Program PWSCF v.6.7GPU starts on 22Sep2021 at 19:45:35

     R & G space division:  proc/nbgrp/npool/nimage =      10
     Reading input from /storage/home/hcoda1/3/ntian30/research/carbon/CxH_vib/H2O_calc/ads_slab/CH2NHNHO_a/out_0011/pw.inp
Warning: card &CELL ignored
Warning: card   CELL_DYNAMICS='IPI', ignored
Warning: card / ignored

     Current dimensions of program PWSCF are:
     Max number of different atomic species (ntypx) = 10
     Max number of k-points (npk) =  40000
     Max angular momentum in pseudopotentials (lmaxx) =  3
     Presently no symmetry can be used with electric field

     Message from routine cell_base_init:
     DEPRECATED: use true lattice parameter, not A to a.u. conversion factor

     IMPORTANT: XC functional enforced from input :
     Exchange-correlation= BEEF-VDW
                           (   1   4  43  14   2   0   0)
     Any further DFT definition will be discarded
     Please, verify this is what you really want

  @ DRIVER MODE: Connecting to
 qe_1139763_2937322.sched-torque.pace.gatech.edubp456tnw_scratch
  using UNIX socket
  @ DRIVER MODE: Message from server: STATUS
  @ DRIVER MODE: Message from server: INIT
  @ DRIVER MODE: Receiving replica           0          -1
  @ DRIVER MODE: Receiving encoded integer          25
  @ DRIVER MODE:  SCF:  T  FORCE:  T  STRESS:  F  VC:  F  ENSEMBLE:  F
  @ DRIVER MODE:  SCF:  T  FORCE:  T  STRESS:  F  VC:  F  ENSEMBLE:  F

     Using Slab Decomposition

     bravais-lattice index     =            0
     lattice parameter (alat)  =       1.8897  a.u.
     unit-cell volume          =    6658.9804 (a.u.)^3
     number of atoms/cell      =           55
     number of atomic types    =            5
     number of electrons       =       402.00
     number of Kohn-Sham states=          211
     kinetic-energy cutoff     =      29.3995  Ry
     charge density cutoff     =     293.9946  Ry
     scf convergence threshold =      7.3E-08
     mixing beta               =       0.0500
     number of iterations used =            8  plain     mixing
     Exchange-correlation= BEEF-VDW
                           (   1   4  43  14   2   0   0)

     celldm(1)=   1.889726  celldm(2)=   0.000000  celldm(3)=   0.000000
     celldm(4)=   0.000000  celldm(5)=   0.000000  celldm(6)=   0.000000

     crystal axes: (cart. coord. in units of alat)
               a(1) = (   6.579727   0.000000   0.000000 )
               a(2) = (  -0.000775   5.961596   0.000000 )
               a(3) = (   0.000000   0.000000  25.155947 )

     reciprocal axes: (cart. coord. in units 2 pi/alat)
               b(1) = (  0.151982  0.000020  0.000000 )
               b(2) = (  0.000000  0.167740  0.000000 )
               b(3) = (  0.000000  0.000000  0.039752 )

     PseudoPot. # 1 for Ti read from file:
     /storage/coda1/p-amedford6/0/shared/rich_project_chbe-medford/medford-share/data/pseudos_module/espresso/nninc/pbe/van/Ti.UPF
     MD5 check sum: 8e4df49b7f0d34bbd5052bf3f5ea0213
     Pseudo is Ultrasoft, Zval = 12.0
     Generated by new atomic code, or converted to UPF format
     Using radial grid of  851 points,  6 beta functions with:
                l(1) =   0
                l(2) =   0
                l(3) =   1
                l(4) =   1
                l(5) =   2
                l(6) =   2
     Q(r) pseudized with  8 coefficients,  rinner =    1.000   1.000   1.000
                                                       1.000   1.000

     PseudoPot. # 2 for O  read from file:
     /storage/coda1/p-amedford6/0/shared/rich_project_chbe-medford/medford-share/data/pseudos_module/espresso/nninc/pbe/van/O.UPF
     MD5 check sum: 78c19812648e8988a0fe644b0f25305e
     Pseudo is Ultrasoft, Zval =  6.0
     Generated by new atomic code, or converted to UPF format
     Using radial grid of  737 points,  4 beta functions with:
                l(1) =   0
                l(2) =   0
                l(3) =   1
                l(4) =   1
     Q(r) pseudized with  8 coefficients,  rinner =    0.800   0.800   0.800

     PseudoPot. # 3 for N  read from file:
     /storage/coda1/p-amedford6/0/shared/rich_project_chbe-medford/medford-share/data/pseudos_module/espresso/nninc/pbe/van/N.UPF
     MD5 check sum: 90d10febe142ad51ac9d5be1deb811c4
     Pseudo is Ultrasoft, Zval =  5.0
     Generated by new atomic code, or converted to UPF format
     Using radial grid of  729 points,  4 beta functions with:
                l(1) =   0
                l(2) =   0
                l(3) =   1
                l(4) =   1
     Q(r) pseudized with  8 coefficients,  rinner =    0.800   0.800   0.800

     PseudoPot. # 4 for C  read from file:
     /storage/coda1/p-amedford6/0/shared/rich_project_chbe-medford/medford-share/data/pseudos_module/espresso/nninc/pbe/van/C.UPF
     MD5 check sum: 1a69bf6b8db32088f5b2163dbdb77a27
     Pseudo is Ultrasoft, Zval =  4.0
     Generated by new atomic code, or converted to UPF format
     Using radial grid of  721 points,  4 beta functions with:
                l(1) =   0
                l(2) =   0
                l(3) =   1
                l(4) =   1
     Q(r) pseudized with  8 coefficients,  rinner =    0.800   0.800   0.800

     PseudoPot. # 5 for H  read from file:
     /storage/coda1/p-amedford6/0/shared/rich_project_chbe-medford/medford-share/data/pseudos_module/espresso/nninc/pbe/van/H.UPF
     MD5 check sum: b5ee9d7bfd3a09ee7748110bda690ff7
     Pseudo is Ultrasoft, Zval =  1.0
     Generated by new atomic code, or converted to UPF format
     Using radial grid of  615 points,  1 beta functions with:
                l(1) =   0
     Q(r) pseudized with  8 coefficients,  rinner =    0.800

     atomic species   valence    mass     pseudopotential
        Ti1           12.00    47.86700     Ti( 1.00)
        O1             6.00    15.99900     O ( 1.00)
        N1             5.00    14.00700     N ( 1.00)
        C1             4.00    12.01100     C ( 1.00)
        H1             1.00     1.00800     H ( 1.00)

     No symmetry found

   Cartesian axes

     site n.     atom                  positions (alat units)
         1           Ti1 tau(   1) = (   0.0004258   2.9801865   6.0000000  )
         2           Ti1 tau(   2) = (   3.2906075   1.4906267   6.0002472  )
         3           O1  tau(   3) = (   0.0006271   0.0005054   7.9858123  )
         4           O1  tau(   4) = (   3.2906025   0.0005020   7.3038282  )
         5           O1  tau(   5) = (   4.5942328   1.4918067   9.2879030  )
         6           O1  tau(   6) = (   1.9868534   1.4903216   9.2879459  )
         7           Ti1 tau(   7) = (   3.2907910   2.8959150   9.1758416  )
         8           Ti1 tau(   8) = (   0.0015273   1.4827037   9.2680791  )
         9           O1  tau(   9) = (   3.2865774   0.0244666  11.2672233  )
        10           O1  tau(  10) = (   0.0116148   5.9584955  10.6183126  )
        11           O1  tau(  11) = (   1.2851059   1.4881214  12.6284388  )
        12           O1  tau(  12) = (   5.2821296   1.4859116  12.6239949  )
        13           Ti1 tau(  13) = (   6.5757640   3.1226837  12.6583379  )
        14           Ti1 tau(  14) = (   3.2808560   1.5553189  12.4169499  )
        15           O1  tau(  15) = (   6.5631415   0.0020138  14.6662933  )
        16           O1  tau(  16) = (   3.2768600   5.9282172  13.8639556  )
        17           O1  tau(  17) = (   4.5247100   1.5609280  15.9911388  )
        18           O1  tau(  18) = (   2.0319249   1.5505618  16.0334288  )
        19           Ti1 tau(  19) = (   3.2655126   3.0139642  15.6417618  )
        20           Ti1 tau(  20) = (   6.4701730   1.5779936  15.7979382  )
        21           O1  tau(  21) = (   3.2904802   0.0005063   4.7018136  )
        22           O1  tau(  22) = (   6.5470303   0.0764028  17.2486596  )
        23           O1  tau(  23) = (   1.3043587   1.4918075   6.0039043  )
        24           O1  tau(  24) = (   5.2767064   1.4903225   6.0039473  )
        25           Ti1 tau(  25) = (   0.0000382   5.9609847   6.0000000  )
        26           Ti1 tau(  26) = (   3.2902200   4.4714249   6.0002472  )
        27           O1  tau(  27) = (   0.0002396   2.9813036   7.9858123  )
        28           O1  tau(  28) = (   3.2902150   2.9813002   7.3038282  )
        29           O1  tau(  29) = (   4.5938453   4.4726049   9.2879030  )
        30           O1  tau(  30) = (   1.9864658   4.4711199   9.2879459  )
        31           Ti1 tau(  31) = (   3.2891106   5.8743827   9.1763621  )
        32           Ti1 tau(  32) = (   0.0006254   4.4649316   9.2693709  )
        33           O1  tau(  33) = (   3.2856154   2.9374191  11.2445503  )
        34           O1  tau(  34) = (   0.0092240   2.9805883  10.6323155  )
        35           O1  tau(  35) = (   1.2776263   4.4762221  12.6158080  )
        36           O1  tau(  36) = (   5.2889682   4.4773653  12.6103441  )
        37           Ti1 tau(  37) = (   6.5721904   0.1276321  12.6579576  )
        38           Ti1 tau(  38) = (   3.2825792   4.6513186  12.6446142  )
        39           O1  tau(  39) = (   6.5601178   2.9984380  14.6401328  )
        40           O1  tau(  40) = (   3.2784952   3.0022753  13.8540846  )
        41           O1  tau(  41) = (   4.5130724   4.4679886  16.1105769  )
        42           O1  tau(  42) = (   2.0068779   4.4712703  16.0772645  )
        43           Ti1 tau(  43) = (   3.1879138   0.0422448  16.2953621  )
        44           Ti1 tau(  44) = (   6.5239028   4.6756254  16.1574449  )
        45           O1  tau(  45) = (   3.2900926   2.9813045   4.7018136  )
        46           O1  tau(  46) = (   1.3039711   4.4726057   6.0039043  )
        47           O1  tau(  47) = (   5.2763189   4.4711207   6.0039473  )
        48           N1  tau(  48) = (   0.1470516   2.5879757  18.5611170  )
        49           N1  tau(  49) = (   6.5778558   2.9357776  17.3115245  )
        50           C1  tau(  50) = (   0.2601206   3.3452726  19.6311682  )
        51           H1  tau(  51) = (   0.3627438   2.8498571  20.5812141  )
        52           H1  tau(  52) = (   0.2464683   4.4174571  19.5160682  )
        53           H1  tau(  53) = (   0.1772712   1.5612145  18.6921905  )
        54           O1  tau(  54) = (   3.2326362   0.0923429  18.1472848  )
        55           H1  tau(  55) = (   3.6209404   5.2806276  18.5811828  )

     number of k points=    10  Fermi-Dirac smearing, width (Ry)=  0.0073
                       cart. coord. in units 2pi/alat
        k(    1) = (   0.0000000   0.0000000   0.0000000), wk =   0.1250000
        k(    2) = (   0.0000000   0.0419351   0.0000000), wk =   0.2500000
        k(    3) = (   0.0000000  -0.0838702   0.0000000), wk =   0.1250000
        k(    4) = (   0.0379955   0.0000049   0.0000000), wk =   0.2500000
        k(    5) = (   0.0379955   0.0419400   0.0000000), wk =   0.2500000
        k(    6) = (   0.0379955  -0.0838652   0.0000000), wk =   0.2500000
        k(    7) = (   0.0379955  -0.0419301   0.0000000), wk =   0.2500000
        k(    8) = (  -0.0759910  -0.0000099   0.0000000), wk =   0.1250000
        k(    9) = (  -0.0759910   0.0419252   0.0000000), wk =   0.2500000
        k(   10) = (  -0.0759910  -0.0838800   0.0000000), wk =   0.1250000

     Initial potential from superposition of free atoms

     starting charge  385.99915, renormalised to  402.00000

     negative rho (up, down):  1.462E-02 0.000E+00

     %%%%%%%%%%%%%%%%%%%%%%%%%%%%%%%%%%%%%%%%%%%%%%%%%%%%%%%%%%%%%%%%%%%%%%%%
     %                                                                      %
     % You are using vdW-DF, which was implemented by the Thonhauser group. %
     % Please cite the following two papers that made this development      %
     % possible and the two reviews that describe the various versions:     %
     %                                                                      %
     %   T. Thonhauser et al., PRL 115, 136402 (2015).                      %
     %   T. Thonhauser et al., PRB 76, 125112 (2007).                       %
     %   K. Berland et al., Rep. Prog. Phys. 78, 066501 (2015).             %
     %   D.C. Langreth et al., J. Phys.: Condens. Matter 21, 084203 (2009). %
     %                                                                      %
     %                                                                      %
     % If you are calculating the stress with vdW-DF, please also cite:     %
     %                                                                      %
     %   R. Sabatini et al., J. Phys.: Condens. Matter 24, 424209 (2012).   %
     %                                                                      %
     %%%%%%%%%%%%%%%%%%%%%%%%%%%%%%%%%%%%%%%%%%%%%%%%%%%%%%%%%%%%%%%%%%%%%%%%

     Adding external electric field

     Computed dipole along edir(3) :
        Dipole              -11.6251 Ry au,        -29.5481 Debye
        Dipole field         -0.0219 Ry au,

        Potential amp.        2.0336 Ry
        Total length         46.3494 bohr

     Starting wfcs are  304 atomic wfcs
  @ DRIVER MODE: Message from server: STATUS
  @ DRIVER MODE: Message from server: POSDATA
  @ DRIVER MODE: Reading and sharing cell
  @ DRIVER MODE: Reading and sharing positions
  @ DRIVER MODE: Received positions

     Self-consistent Calculation

     iteration #  1     ecut=    29.40 Ry     beta= 0.05
     Davidson diagonalization with overlap
     c_bands:  4 eigenvalues not converged
     c_bands:  2 eigenvalues not converged
     c_bands:  3 eigenvalues not converged
     c_bands:  4 eigenvalues not converged
     c_bands:  1 eigenvalues not converged
     c_bands:  4 eigenvalues not converged
     c_bands:  5 eigenvalues not converged
     c_bands:  5 eigenvalues not converged
     c_bands:  5 eigenvalues not converged
     ethr =  1.00E-05,  avg # of iterations = 24.0

[...]

     total energy              =   -2412.18287193 Ry
     estimated scf accuracy    <    6292.77593771 Ry

     iteration #  2     ecut=    29.40 Ry     beta= 0.05
     Davidson diagonalization with overlap
     ethr =  1.00E-02,  avg # of iterations = 22.7

[...]

     iteration # 37     ecut=    29.40 Ry     beta= 0.05
     Davidson diagonalization with overlap
     c_bands:  1 eigenvalues not converged
     c_bands:  1 eigenvalues not converged
     c_bands:  1 eigenvalues not converged
     ethr =  4.80E-06,  avg # of iterations = 14.0

[...]

     total energy              =   -2972.74091686 Ry
     estimated scf accuracy    <       0.00000009 Ry

     iteration # 65     ecut=    29.40 Ry     beta= 0.05
     Davidson diagonalization with overlap
     ethr =  2.23E-11,  avg # of iterations =  5.0

     negative rho (up, down):  1.522E-02 0.000E+00

     Adding external electric field

     Computed dipole along edir(3) :
        Dipole                0.6765 Ry au,          1.7196 Debye
        Dipole field          0.0013 Ry au,

        Potential amp.       -0.1184 Ry
        Total length         46.3494 bohr

     End of self-consistent calculation

          k = 0.0000 0.0000 0.0000 ( 18029 PWs)   bands (ev):

   -56.4999 -56.4663 -55.6944 -55.6603 -55.4355 -55.3791 -55.1241 -55.0944
   -55.0857 -55.0518 -55.0210 -54.9712 -54.9635 -54.7741 -54.7326 -54.6211
   -32.9233 -32.7772 -32.7492 -32.6739 -32.5833 -32.5498 -32.1778 -31.9166
   -31.9156 -31.8857 -31.8344 -31.8299 -31.8103 -31.6647 -31.6566 -31.6095
   -31.5817 -31.5787 -31.5397 -31.4977 -31.4707 -31.4497 -31.4308 -31.4064
   -31.3599 -31.3571 -31.3528 -31.3419 -31.2923 -31.2917 -31.2549 -31.2363
   -31.2192 -31.2107 -31.2000 -31.1889 -31.1669 -31.1603 -31.1410 -31.0989
   -31.0341 -31.0138 -30.9843 -30.9640 -30.9500 -30.8986 -30.8364 -30.8119
   -18.5573 -16.6326 -16.1230 -16.0699 -15.8357 -15.7681 -15.7152 -15.7134
   -15.6586 -15.4269 -15.3855 -15.3430 -15.3088 -15.2045 -15.0807 -14.9840
   -14.7824 -14.7318 -14.7302 -14.7062 -14.6759 -14.6453 -14.6133 -14.5872
   -14.5792 -14.5468 -14.4933 -14.3210 -14.2523 -14.0448 -14.0308 -13.5833
   -13.4755 -12.3906  -8.5625  -6.0169  -4.5972  -4.1992  -3.6325  -3.6016
    -3.4247  -3.3030  -3.2455  -3.1562  -3.0713  -3.0396  -2.9534  -2.9181
    -2.9016  -2.8274  -2.8137  -2.6535  -2.6235  -2.6051  -2.5133  -2.4842
    -2.3235  -2.2945  -2.2145  -2.1402  -2.1196  -2.0649  -2.0539  -1.9881
    -1.9381  -1.9194  -1.8560  -1.8523  -1.8282  -1.7155  -1.7151  -1.6686
    -1.6182  -1.5673  -1.5462  -1.4945  -1.4125  -1.3982  -1.2629  -1.1867
    -1.1407  -1.1298  -1.1027  -1.0581  -1.0064  -0.8765  -0.8666  -0.7575
    -0.7345  -0.7313  -0.6643  -0.5660  -0.5448  -0.5130  -0.4372  -0.4020
    -0.3655  -0.3007  -0.2553  -0.1345  -0.1226  -0.1060  -0.0650  -0.0226
    -0.0096   0.0687   0.1606   0.1769   0.2846   0.3010   0.3486   0.4402
     0.5192   0.5324   0.5525   0.6142   0.6553   0.6904   0.7640   0.7820
     0.8242   0.8363   0.8878   0.9360   0.9706   1.0732   1.1151   1.1389
     1.1735   1.2137   1.2989   1.3831   1.4709   1.5128   1.5378   1.8230
     2.3215   2.7836   2.9469   3.2242   3.3392   3.6511   3.7707   3.7727
     3.7826   3.9910   4.1398

[...]

          k = 0.0380-0.0419 0.0000 ( 17876 PWs)   bands (ev):

[...]

          k =-0.0760-0.0000 0.0000 ( 17886 PWs)   bands (ev):

[...]

          k =-0.0760-0.0839 0.0000 ( 17948 PWs)   bands (ev):

   -56.4833 -56.4827 -55.6803 -55.6743 -55.4298 -55.3846 -55.1229 -55.0900
   -55.0689 -55.0685 -55.0251 -54.9698 -54.9645 -54.7754 -54.7303 -54.6232
   -32.7632 -32.7627 -32.7405 -32.7400 -32.6274 -32.6269 -32.0002 -31.9954
   -31.8752 -31.8697 -31.8646 -31.8547 -31.7370 -31.7021 -31.6580 -31.6512
   -31.6110 -31.6072 -31.4290 -31.4223 -31.4195 -31.4193 -31.3679 -31.3642
   -31.3484 -31.3398 -31.3260 -31.3089 -31.2904 -31.2896 -31.2869 -31.2615
   -31.2519 -31.2514 -31.2383 -31.2260 -31.2094 -31.1709 -31.1669 -31.1289
   -31.1216 -31.0378 -30.9884 -30.9866 -30.9647 -30.9285 -30.8517 -30.8385
   -18.5534 -16.0605 -16.0012 -15.9985 -15.9390 -15.9373 -15.7034 -15.6994
   -15.4615 -15.4333 -15.2667 -15.1802 -15.1623 -15.1007 -15.0632 -15.0036
   -14.9504 -14.9231 -14.8068 -14.7708 -14.7398 -14.7028 -14.6753 -14.6565
   -14.5993 -14.5632 -14.5318 -14.4335 -14.4160 -14.1785 -14.1678 -13.5797
   -13.5794 -12.3959  -8.5651  -6.0119  -4.5538  -3.6528  -3.2957  -3.0674
    -3.0633  -3.0594  -3.0546  -3.0196  -2.8148  -2.8113  -2.6528  -2.6214
    -2.6091  -2.5842  -2.5526  -2.4488  -2.3705  -2.3572  -2.3539  -2.3519
    -2.3036  -2.2950  -2.2391  -2.1551  -2.0946  -2.0848  -2.0513  -1.9912
    -1.9284  -1.8821  -1.8767  -1.8431  -1.8209  -1.7888  -1.7704  -1.7434
    -1.6980  -1.6131  -1.4936  -1.4192  -1.3870  -1.3739  -1.3340  -1.2835
    -1.2783  -1.2604  -1.2115  -1.1959  -1.1349  -1.1056  -1.0613  -0.9620
    -0.9015  -0.8712  -0.8487  -0.7412  -0.7014  -0.6299  -0.5885  -0.5517
    -0.5130  -0.4916  -0.4292  -0.4130  -0.3326  -0.2658  -0.2412  -0.1853
    -0.1710  -0.1594  -0.1434  -0.0959   0.0111   0.0252   0.0534   0.1528
     0.2214   0.2910   0.3106   0.4043   0.4278   0.5016   0.6155   0.6548
     0.7220   0.7870   0.8650   0.9470   0.9981   1.0418   1.1497   1.2324
     1.2447   1.2938   1.3179   1.3186   1.3202   1.3754   1.3977   1.5231
     2.1527   3.3677   3.3694   3.4263   3.4310   3.7315   3.7366   3.8422
     3.8458   4.1003   4.1218

     the Fermi energy is     2.5906 ev

!    total energy              =   -2972.74094988 Ry
     estimated scf accuracy    <       0.00000005 Ry
     smearing contrib. (-TS)   =      -0.00405043 Ry
     internal energy E=F+TS    =   -2972.73689945 Ry

     The total energy is F=E-TS. E is the sum of the following terms:
     one-electron contribution =  -23702.60080595 Ry
     hartree contribution      =   11946.71304789 Ry
     xc contribution           =    -493.11539797 Ry
     ewald contribution        =    9276.26539282 Ry
     electric field correction =       0.00086376 Ry

     convergence has been achieved in  65 iterations

     Forces acting on atoms (cartesian axes, Ry/au):

     atom    1 type  1   force =     0.00016998   -0.00043619    0.12223554
     atom    2 type  1   force =    -0.00004255    0.00027612   -0.15626420
     atom    3 type  2   force =     0.00004767   -0.00048493   -0.06087472
     atom    4 type  2   force =     0.00005156    0.00072426    0.01951067
     atom    5 type  2   force =    -0.00083549   -0.00259514   -0.01526864
     atom    6 type  2   force =     0.00218768   -0.00197973   -0.01662832
     atom    7 type  1   force =    -0.00030270   -0.00092060    0.05455592
     atom    8 type  1   force =     0.00081340    0.00107849    0.09046943
     atom    9 type  2   force =    -0.00035834   -0.00026558   -0.00018052
     atom   10 type  2   force =    -0.00295865    0.00315779   -0.05967748
     atom   11 type  2   force =    -0.00019584    0.00020465   -0.00006442
     atom   12 type  2   force =    -0.00028776    0.00015559   -0.00049612
     atom   13 type  1   force =    -0.00052958    0.00039434    0.00099305
     atom   14 type  1   force =     0.00006609    0.00143556   -0.00080572
     atom   15 type  2   force =     0.00005128   -0.00106204   -0.00223964
     atom   16 type  2   force =     0.00011253    0.00067386    0.00035067
     atom   17 type  2   force =    -0.00129830   -0.00059563   -0.00016478
     atom   18 type  2   force =     0.00083157   -0.00012084   -0.00038227
     atom   19 type  1   force =     0.00007687    0.00117926    0.00000350
     atom   20 type  1   force =     0.00000579   -0.00010197   -0.00117489
     atom   21 type  2   force =     0.00009268   -0.00002653    0.09823543
     atom   22 type  2   force =     0.00037187   -0.00056694    0.00076491
     atom   23 type  2   force =    -0.08171201   -0.00004854   -0.03251936
     atom   24 type  2   force =     0.08169603    0.00036879   -0.03255173
     atom   25 type  1   force =     0.00002654   -0.00029242    0.12191706
     atom   26 type  1   force =     0.00003212   -0.00155056   -0.15628534
     atom   27 type  2   force =     0.00012845    0.00020702   -0.05983752
     atom   28 type  2   force =     0.00005400    0.00039805    0.01437083
     atom   29 type  2   force =    -0.00454906    0.00218760   -0.01169693
     atom   30 type  2   force =     0.00587985    0.00263487   -0.01300544
     atom   31 type  1   force =    -0.00043785   -0.00214041    0.04053680
     atom   32 type  1   force =     0.00078574   -0.00225115    0.09150365
     atom   33 type  2   force =    -0.00012472    0.00042435   -0.00018276
     atom   34 type  2   force =    -0.00235018    0.00048176   -0.06918597
     atom   35 type  2   force =    -0.00018587    0.00005592    0.00015601
     atom   36 type  2   force =     0.00056437   -0.00026589   -0.00007771
     atom   37 type  1   force =    -0.00002871    0.00015619   -0.00000502
     atom   38 type  1   force =     0.00013159    0.00098041   -0.00021630
     atom   39 type  2   force =    -0.00051190   -0.00114531   -0.00056180
     atom   40 type  2   force =    -0.00001510    0.00044600   -0.00038371
     atom   41 type  2   force =     0.00046623   -0.00028053   -0.00002210
     atom   42 type  2   force =    -0.00026135   -0.00050313   -0.00074508
     atom   43 type  1   force =    -0.00018652   -0.00122086   -0.00042355
     atom   44 type  1   force =    -0.00014011   -0.00008950   -0.00055655
     atom   45 type  2   force =     0.00009602    0.00008442    0.09804041
     atom   46 type  2   force =    -0.08166414   -0.00002606   -0.03251341
     atom   47 type  2   force =     0.08165028    0.00041377   -0.03253139
     atom   48 type  3   force =    -0.00103794    0.00369959   -0.01174600
     atom   49 type  3   force =     0.00171556   -0.00479646    0.02019363
     atom   50 type  4   force =    -0.00008726   -0.00044504   -0.00335577
     atom   51 type  5   force =     0.00068231    0.00023871   -0.00055653
     atom   52 type  5   force =     0.00058715   -0.00088014   -0.00002748
     atom   53 type  5   force =    -0.00014037    0.00202447   -0.00106406
     atom   54 type  2   force =    -0.00051649    0.00101853   -0.00041215
     atom   55 type  5   force =     0.00138357   -0.00000822    0.00084791

     Total force =     0.409639     Total SCF correction =     0.000544
  @ DRIVER MODE: Message from server: STATUS
  @ DRIVER MODE: Message from server: GETFORCE
  @ DRIVER MODE: Returning v,forces,stress,ensemble

     Writing output data file ./calc.save/
  @ DRIVER MODE: Message from server: EXIT
  @ DRIVE MODE: Exiting

     General routines

     Parallel routines

   This run was terminated on:  20: 3:35  22Sep2021

   JOB DONE.