     Program PWSCF v.6.7GPU starts on 23Sep2021 at  9:23:20

     R & G space division:  proc/nbgrp/npool/nimage =       8
     Reading input from /storage/home/hcoda1/3/ntian30/research/carbon/CxH_vib/H2O_calc/ads_slab/CH3OHHO_e/out_0029/pw.inp
Warning: card &CELL ignored
Warning: card   CELL_DYNAMICS='IPI', ignored
Warning: card / ignored

     Current dimensions of program PWSCF are:
     Max number of different atomic species (ntypx) = 10
     Max number of k-points (npk) =  40000
     Max angular momentum in pseudopotentials (lmaxx) =  3
     Presently no symmetry can be used with electric field

     Message from routine cell_base_init:
     DEPRECATED: use true lattice parameter, not A to a.u. conversion factor

     IMPORTANT: XC functional enforced from input :
     Exchange-correlation= BEEF-VDW
                           (   1   4  43  14   2   0   0)
     Any further DFT definition will be discarded
     Please, verify this is what you really want

  @ DRIVER MODE: Connecting to
 qe_1139763_2941008.sched-torque.pace.gatech.edu9cbmmttn_scratch
  using UNIX socket
  @ DRIVER MODE: Message from server: STATUS
  @ DRIVER MODE: Message from server: INIT
  @ DRIVER MODE: Receiving replica           0          -1
  @ DRIVER MODE: Receiving encoded integer          25
  @ DRIVER MODE:  SCF:  T  FORCE:  T  STRESS:  F  VC:  F  ENSEMBLE:  F
  @ DRIVER MODE:  SCF:  T  FORCE:  T  STRESS:  F  VC:  F  ENSEMBLE:  F

     Using Slab Decomposition

     bravais-lattice index     =            0
     lattice parameter (alat)  =       1.8897  a.u.
     unit-cell volume          =    6658.9804 (a.u.)^3
     number of atoms/cell      =           55
     number of atomic types    =            4
     number of electrons       =       399.00
     number of Kohn-Sham states=          209
     kinetic-energy cutoff     =      29.3995  Ry
     charge density cutoff     =     293.9946  Ry
     scf convergence threshold =      7.3E-08
     mixing beta               =       0.0500
     number of iterations used =            8  plain     mixing
     Exchange-correlation= BEEF-VDW
                           (   1   4  43  14   2   0   0)

     celldm(1)=   1.889726  celldm(2)=   0.000000  celldm(3)=   0.000000
     celldm(4)=   0.000000  celldm(5)=   0.000000  celldm(6)=   0.000000

     crystal axes: (cart. coord. in units of alat)
               a(1) = (   6.579727   0.000000   0.000000 )
               a(2) = (  -0.000775   5.961596   0.000000 )
               a(3) = (   0.000000   0.000000  25.155947 )

     reciprocal axes: (cart. coord. in units 2 pi/alat)
               b(1) = (  0.151982  0.000020  0.000000 )
               b(2) = (  0.000000  0.167740  0.000000 )
               b(3) = (  0.000000  0.000000  0.039752 )

     PseudoPot. # 1 for Ti read from file:
     /storage/coda1/p-amedford6/0/shared/rich_project_chbe-medford/medford-share/data/pseudos_module/espresso/nninc/pbe/van/Ti.UPF
     MD5 check sum: 8e4df49b7f0d34bbd5052bf3f5ea0213
     Pseudo is Ultrasoft, Zval = 12.0
     Generated by new atomic code, or converted to UPF format
     Using radial grid of  851 points,  6 beta functions with:
                l(1) =   0
                l(2) =   0
                l(3) =   1
                l(4) =   1
                l(5) =   2
                l(6) =   2
     Q(r) pseudized with  8 coefficients,  rinner =    1.000   1.000   1.000
                                                       1.000   1.000

     PseudoPot. # 2 for O  read from file:
     /storage/coda1/p-amedford6/0/shared/rich_project_chbe-medford/medford-share/data/pseudos_module/espresso/nninc/pbe/van/O.UPF
     MD5 check sum: 78c19812648e8988a0fe644b0f25305e
     Pseudo is Ultrasoft, Zval =  6.0
     Generated by new atomic code, or converted to UPF format
     Using radial grid of  737 points,  4 beta functions with:
                l(1) =   0
                l(2) =   0
                l(3) =   1
                l(4) =   1
     Q(r) pseudized with  8 coefficients,  rinner =    0.800   0.800   0.800

     PseudoPot. # 3 for C  read from file:
     /storage/coda1/p-amedford6/0/shared/rich_project_chbe-medford/medford-share/data/pseudos_module/espresso/nninc/pbe/van/C.UPF
     MD5 check sum: 1a69bf6b8db32088f5b2163dbdb77a27
     Pseudo is Ultrasoft, Zval =  4.0
     Generated by new atomic code, or converted to UPF format
     Using radial grid of  721 points,  4 beta functions with:
                l(1) =   0
                l(2) =   0
                l(3) =   1
                l(4) =   1
     Q(r) pseudized with  8 coefficients,  rinner =    0.800   0.800   0.800

     PseudoPot. # 4 for H  read from file:
     /storage/coda1/p-amedford6/0/shared/rich_project_chbe-medford/medford-share/data/pseudos_module/espresso/nninc/pbe/van/H.UPF
     MD5 check sum: b5ee9d7bfd3a09ee7748110bda690ff7
     Pseudo is Ultrasoft, Zval =  1.0
     Generated by new atomic code, or converted to UPF format
     Using radial grid of  615 points,  1 beta functions with:
                l(1) =   0
     Q(r) pseudized with  8 coefficients,  rinner =    0.800

     atomic species   valence    mass     pseudopotential
        Ti1           12.00    47.86700     Ti( 1.00)
        O1             6.00    15.99900     O ( 1.00)
        C1             4.00    12.01100     C ( 1.00)
        H1             1.00     1.00800     H ( 1.00)

     No symmetry found

   Cartesian axes

     site n.     atom                  positions (alat units)
         1           Ti1 tau(   1) = (   0.0004258   2.9801865   6.0000000  )
         2           Ti1 tau(   2) = (   3.2906075   1.4906267   6.0002472  )
         3           O1  tau(   3) = (   0.0006271   0.0005054   7.9858123  )
         4           O1  tau(   4) = (   3.2906025   0.0005020   7.3038282  )
         5           O1  tau(   5) = (   4.5942328   1.4918067   9.2879030  )
         6           O1  tau(   6) = (   1.9868534   1.4903216   9.2879459  )
         7           Ti1 tau(   7) = (   3.3364693   3.0244086   9.1899460  )
         8           Ti1 tau(   8) = (   0.0614121   1.5180315   9.2736979  )
         9           O1  tau(   9) = (   3.3192415   0.0109611  11.3574448  )
        10           O1  tau(  10) = (   0.0135824   0.0030625  10.5923660  )
        11           O1  tau(  11) = (   1.3113730   1.4888140  12.6397483  )
        12           O1  tau(  12) = (   5.3365169   1.4868518  12.6422516  )
        13           Ti1 tau(  13) = (   0.0249591   3.0356721  12.5595363  )
        14           Ti1 tau(  14) = (   3.3216347   1.5719315  12.4302660  )
        15           O1  tau(  15) = (   0.0475996   5.9320359  14.6592625  )
        16           O1  tau(  16) = (   3.3253441   5.8716044  14.0084122  )
        17           O1  tau(  17) = (   4.6294077   1.4993822  16.1384749  )
        18           O1  tau(  18) = (   2.0712093   1.5368213  16.0656395  )
        19           Ti1 tau(  19) = (   3.3420502   2.9337026  15.6791356  )
        20           Ti1 tau(  20) = (   0.0819182   1.3209985  15.9439250  )
        21           O1  tau(  21) = (   3.2904802   0.0005063   4.7018136  )
        22           O1  tau(  22) = (   0.1121901   0.0005398  17.1797988  )
        23           O1  tau(  23) = (   1.3043587   1.4918075   6.0039043  )
        24           O1  tau(  24) = (   5.2767064   1.4903225   6.0039473  )
        25           Ti1 tau(  25) = (   0.0000382   5.9609847   6.0000000  )
        26           Ti1 tau(  26) = (   3.2902200   4.4714249   6.0002472  )
        27           O1  tau(  27) = (   0.0002396   2.9813036   7.9858123  )
        28           O1  tau(  28) = (   3.2902150   2.9813002   7.3038282  )
        29           O1  tau(  29) = (   4.5938453   4.4726049   9.2879030  )
        30           O1  tau(  30) = (   1.9864658   4.4711199   9.2879459  )
        31           Ti1 tau(  31) = (   3.3365859   0.0383882   9.1683042  )
        32           Ti1 tau(  32) = (   0.0607984   4.4756772   9.2727477  )
        33           O1  tau(  33) = (   3.3154497   2.9528697  11.3100477  )
        34           O1  tau(  34) = (   0.0130381   2.9821538  10.6068333  )
        35           O1  tau(  35) = (   1.3079814   4.4632751  12.6339740  )
        36           O1  tau(  36) = (   5.3374838   4.4678533  12.6371107  )
        37           Ti1 tau(  37) = (   0.0367351   0.0553833  12.4739561  )
        38           Ti1 tau(  38) = (   3.3178111   4.6524667  12.7070490  )
        39           O1  tau(  39) = (   0.0226182   2.9861015  14.7894940  )
        40           O1  tau(  40) = (   3.3464301   2.9603322  13.9061577  )
        41           O1  tau(  41) = (   4.6320376   4.4053937  16.1659747  )
        42           O1  tau(  42) = (   2.0651706   4.3480327  16.1155179  )
        43           Ti1 tau(  43) = (   3.4032537   5.9185344  16.2710929  )
        44           Ti1 tau(  44) = (   0.0646745   4.5145260  15.8553686  )
        45           O1  tau(  45) = (   3.2900926   2.9813045   4.7018136  )
        46           O1  tau(  46) = (   1.3039711   4.4726057   6.0039043  )
        47           O1  tau(  47) = (   5.2763189   4.4711207   6.0039473  )
        48           C1  tau(  48) = (   5.9353497   3.0583042  18.8699169  )
        49           O1  tau(  49) = (   0.1856485   3.0014673  17.6677584  )
        50           H1  tau(  50) = (   4.9577780   2.6849493  18.5881267  )
        51           H1  tau(  51) = (   1.1185258   3.1466834  17.9024234  )
        52           H1  tau(  52) = (   6.3707541   2.4080388  19.6165123  )
        53           H1  tau(  53) = (   5.8722695   4.0904670  19.2075282  )
        54           O1  tau(  54) = (   3.1419305   5.9539177  18.1124628  )
        55           H1  tau(  55) = (   2.2021640   0.0520986  18.3490109  )

     number of k points=    10  Fermi-Dirac smearing, width (Ry)=  0.0073
                       cart. coord. in units 2pi/alat
        k(    1) = (   0.0000000   0.0000000   0.0000000), wk =   0.1250000
        k(    2) = (   0.0000000   0.0419351   0.0000000), wk =   0.2500000
        k(    3) = (   0.0000000  -0.0838702   0.0000000), wk =   0.1250000
        k(    4) = (   0.0379955   0.0000049   0.0000000), wk =   0.2500000
        k(    5) = (   0.0379955   0.0419400   0.0000000), wk =   0.2500000
        k(    6) = (   0.0379955  -0.0838652   0.0000000), wk =   0.2500000
        k(    7) = (   0.0379955  -0.0419301   0.0000000), wk =   0.2500000
        k(    8) = (  -0.0759910  -0.0000099   0.0000000), wk =   0.1250000
        k(    9) = (  -0.0759910   0.0419252   0.0000000), wk =   0.2500000
        k(   10) = (  -0.0759910  -0.0838800   0.0000000), wk =   0.1250000

     Initial potential from superposition of free atoms

     starting charge  382.99916, renormalised to  399.00000

     negative rho (up, down):  1.654E-02 0.000E+00

     %%%%%%%%%%%%%%%%%%%%%%%%%%%%%%%%%%%%%%%%%%%%%%%%%%%%%%%%%%%%%%%%%%%%%%%%
     %                                                                      %
     % You are using vdW-DF, which was implemented by the Thonhauser group. %
     % Please cite the following two papers that made this development      %
     % possible and the two reviews that describe the various versions:     %
     %                                                                      %
     %   T. Thonhauser et al., PRL 115, 136402 (2015).                      %
     %   T. Thonhauser et al., PRB 76, 125112 (2007).                       %
     %   K. Berland et al., Rep. Prog. Phys. 78, 066501 (2015).             %
     %   D.C. Langreth et al., J. Phys.: Condens. Matter 21, 084203 (2009). %
     %                                                                      %
     %                                                                      %
     % If you are calculating the stress with vdW-DF, please also cite:     %
     %                                                                      %
     %   R. Sabatini et al., J. Phys.: Condens. Matter 24, 424209 (2012).   %
     %                                                                      %
     %%%%%%%%%%%%%%%%%%%%%%%%%%%%%%%%%%%%%%%%%%%%%%%%%%%%%%%%%%%%%%%%%%%%%%%%

     Adding external electric field

     Computed dipole along edir(3) :
        Dipole              -10.2314 Ry au,        -26.0056 Debye
        Dipole field         -0.0193 Ry au,

        Potential amp.        1.7898 Ry
        Total length         46.3494 bohr

     Starting wfcs are  301 atomic wfcs
  @ DRIVER MODE: Message from server: STATUS
  @ DRIVER MODE: Message from server: POSDATA
  @ DRIVER MODE: Reading and sharing cell
  @ DRIVER MODE: Reading and sharing positions
  @ DRIVER MODE: Received positions

     Self-consistent Calculation

     iteration #  1     ecut=    29.40 Ry     beta= 0.05
     Davidson diagonalization with overlap
     c_bands:  3 eigenvalues not converged
     c_bands:  3 eigenvalues not converged
     c_bands:  4 eigenvalues not converged
     c_bands:  1 eigenvalues not converged
     c_bands:  5 eigenvalues not converged
     c_bands:  5 eigenvalues not converged
     c_bands:  4 eigenvalues not converged
     c_bands:  4 eigenvalues not converged
     c_bands:  4 eigenvalues not converged
     ethr =  1.00E-05,  avg # of iterations = 21.1

[...]

     total energy              =   -2463.83142786 Ry
     estimated scf accuracy    <    5598.16370091 Ry

     iteration #  2     ecut=    29.40 Ry     beta= 0.05
     Davidson diagonalization with overlap
     ethr =  1.00E-02,  avg # of iterations = 24.9

[...]

     iteration # 72     ecut=    29.40 Ry     beta= 0.05
     Davidson diagonalization with overlap
     c_bands:  1 eigenvalues not converged
     ethr =  2.13E-11,  avg # of iterations =  9.4

[...]

     total energy              =   -2966.27808974 Ry
     estimated scf accuracy    <       0.00000009 Ry

     iteration # 73     ecut=    29.40 Ry     beta= 0.05
     Davidson diagonalization with overlap
     ethr =  2.13E-11,  avg # of iterations =  2.0

     negative rho (up, down):  1.672E-02 0.000E+00

     Adding external electric field

     Computed dipole along edir(3) :
        Dipole                1.0460 Ry au,          2.6587 Debye
        Dipole field          0.0020 Ry au,

        Potential amp.       -0.1830 Ry
        Total length         46.3494 bohr

     End of self-consistent calculation

          k = 0.0000 0.0000 0.0000 ( 18029 PWs)   bands (ev):

   -55.7015 -55.6320 -55.5971 -55.5175 -55.4937 -55.4665 -55.4345 -55.4273
   -55.4232 -55.4103 -55.3980 -55.3707 -55.2847 -55.2126 -54.5903 -54.5562
   -32.1110 -32.0931 -32.0127 -32.0020 -31.9585 -31.9498 -31.9219 -31.9193
   -31.8922 -31.8757 -31.8664 -31.7938 -31.7911 -31.7854 -31.7580 -31.7402
   -31.7331 -31.7213 -31.7112 -31.6982 -31.6946 -31.6906 -31.6462 -31.6456
   -31.6441 -31.6364 -31.6317 -31.6246 -31.6124 -31.5967 -31.5915 -31.5817
   -31.5757 -31.5605 -31.5562 -31.5468 -31.5363 -31.5124 -31.4733 -31.4566
   -31.4244 -31.4170 -30.9963 -30.9105 -30.8879 -30.8134 -30.7270 -30.6154
   -20.0607 -16.5168 -16.2850 -16.1054 -15.9041 -15.8406 -15.7822 -15.5938
   -15.5184 -15.3778 -15.2328 -15.2203 -15.1661 -15.1658 -15.1568 -15.1335
   -15.1029 -15.0587 -15.0494 -15.0433 -15.0377 -14.9821 -14.9403 -14.9321
   -14.9255 -14.8847 -14.7564 -14.7159 -14.6599 -14.4890 -14.4460 -13.0899
   -12.9738 -10.9429  -6.7735  -4.9664  -4.7886  -4.0111  -3.6371  -3.5365
    -3.5186  -3.4564  -3.4001  -3.1875  -3.0691  -3.0158  -2.9035  -2.7766
    -2.7375  -2.6817  -2.6575  -2.5658  -2.5442  -2.5137  -2.4893  -2.4313
    -2.4018  -2.3935  -2.3808  -2.3097  -2.2998  -2.1695  -2.1655  -2.0923
    -2.0242  -2.0030  -1.9842  -1.9664  -1.9346  -1.9342  -1.8879  -1.8673
    -1.8458  -1.8138  -1.7425  -1.7214  -1.6610  -1.6205  -1.3869  -1.2256
    -1.2029  -1.1329  -1.1152  -1.0837  -1.0462  -1.0313  -1.0258  -0.9871
    -0.9707  -0.8623  -0.7660  -0.7539  -0.6934  -0.6540  -0.6528  -0.5190
    -0.4709  -0.3973  -0.3713  -0.3462  -0.3232  -0.2306  -0.1879  -0.1703
    -0.1071  -0.0771   0.0347   0.0743   0.0921   0.1308   0.1865   0.2545
     0.2848   0.3215   0.3293   0.3616   0.4107   0.4354   0.4682   0.4950
     0.5340   0.6387   0.6782   0.6935   0.8376   0.8386   0.9265   1.0538
     1.1018   1.3828   1.4349   1.4729   1.6279   2.0025   2.0486   3.4869
     3.6038   3.6145   3.6328   3.7033   3.7936   3.9491   3.9773   4.0484
     4.1429

[...]

          k = 0.0380-0.0419 0.0000 ( 17876 PWs)   bands (ev):

[...]

          k =-0.0760-0.0000 0.0000 ( 17886 PWs)   bands (ev):

[...]

          k =-0.0760-0.0839 0.0000 ( 17948 PWs)   bands (ev):

   -55.7007 -55.6184 -55.6106 -55.5106 -55.4890 -55.4731 -55.4281 -55.4276
   -55.4218 -55.4101 -55.4011 -55.3801 -55.2807 -55.2164 -54.5734 -54.5730
   -32.0125 -31.9536 -31.9445 -31.9302 -31.9226 -31.9185 -31.9146 -31.9008
   -31.8335 -31.8326 -31.7969 -31.7671 -31.7626 -31.7549 -31.7387 -31.7382
   -31.7333 -31.7302 -31.7276 -31.7175 -31.7148 -31.7125 -31.7005 -31.6987
   -31.6714 -31.6689 -31.6357 -31.6305 -31.6297 -31.6290 -31.6188 -31.6150
   -31.6084 -31.6065 -31.5995 -31.5984 -31.5965 -31.5598 -31.5401 -31.4776
   -31.4636 -31.4210 -30.9007 -30.9005 -30.8101 -30.8086 -30.7704 -30.7695
   -20.0571 -16.4920 -15.9005 -15.7566 -15.5941 -15.5758 -15.4982 -15.4025
   -15.3860 -15.3569 -15.3475 -15.3271 -15.3015 -15.2993 -15.2511 -15.1961
   -15.1543 -15.1313 -15.1269 -15.0808 -15.0716 -15.0680 -15.0124 -14.9997
   -14.9904 -14.9518 -14.8920 -14.8631 -14.7854 -14.7577 -14.6040 -13.0760
   -13.0754 -10.9450  -6.7747  -4.9478  -4.7811  -3.9743  -3.0504  -2.9774
    -2.9063  -2.8170  -2.7360  -2.6785  -2.6276  -2.6088  -2.5658  -2.5454
    -2.4751  -2.4412  -2.4336  -2.4122  -2.4100  -2.3834  -2.3675  -2.3551
    -2.3324  -2.3024  -2.2883  -2.2744  -2.2560  -2.2354  -2.2144  -2.1952
    -2.1824  -2.1717  -2.1519  -2.0446  -2.0209  -1.9843  -1.8309  -1.8195
    -1.7539  -1.7213  -1.6910  -1.6857  -1.6529  -1.6451  -1.6024  -1.4927
    -1.4641  -1.4169  -1.3625  -1.2690  -1.2640  -1.2172  -1.1645  -1.1251
    -1.0959  -1.0487  -1.0458  -1.0006  -0.8591  -0.8323  -0.7937  -0.6695
    -0.5975  -0.5821  -0.5681  -0.5511  -0.5250  -0.4779  -0.4724  -0.4160
    -0.3943  -0.3225  -0.3203  -0.2960  -0.2716  -0.1648  -0.0501   0.0412
     0.0757   0.1320   0.1718   0.2049   0.2879   0.3616   0.4451   0.5311
     0.5575   0.5683   0.6896   0.7166   0.7676   0.8203   0.8364   0.8961
     0.9289   0.9719   1.0001   1.7960   1.8093   1.8651   1.8699   3.6751
     3.9242   3.9761   3.9943   4.0069   4.0404   4.0604   4.1072   4.1250
     4.1506

     the Fermi energy is     3.5004 ev

!    total energy              =   -2966.27810954 Ry
     estimated scf accuracy    <       0.00000006 Ry
     smearing contrib. (-TS)   =      -0.02072834 Ry
     internal energy E=F+TS    =   -2966.25738120 Ry

     The total energy is F=E-TS. E is the sum of the following terms:
     one-electron contribution =  -24039.44714573 Ry
     hartree contribution      =   12112.24896144 Ry
     xc contribution           =    -490.94903588 Ry
     ewald contribution        =    9451.88777413 Ry
     electric field correction =       0.00206485 Ry

     convergence has been achieved in  73 iterations

     Forces acting on atoms (cartesian axes, Ry/au):

     atom    1 type  1   force =    -0.00039751    0.00005103    0.09455224
     atom    2 type  1   force =    -0.00032501    0.00499213   -0.17463642
     atom    3 type  2   force =     0.00082280   -0.00023604   -0.02594454
     atom    4 type  2   force =     0.00125402    0.00074882    0.05284595
     atom    5 type  2   force =    -0.01097633   -0.00285533    0.00048520
     atom    6 type  2   force =     0.01164538   -0.00410238    0.00186226
     atom    7 type  1   force =     0.00052191    0.00038789   -0.00013675
     atom    8 type  1   force =    -0.00045167    0.00019785    0.00078078
     atom    9 type  2   force =    -0.00044485    0.00028048   -0.00027923
     atom   10 type  2   force =     0.00031643   -0.00035481   -0.00046848
     atom   11 type  2   force =     0.00062042    0.00031633   -0.00023153
     atom   12 type  2   force =    -0.00038972   -0.00046496   -0.00038398
     atom   13 type  1   force =    -0.00129742   -0.00080211    0.00034296
     atom   14 type  1   force =     0.00029171    0.00009717    0.00059019
     atom   15 type  2   force =     0.00048433    0.00069407    0.00017210
     atom   16 type  2   force =    -0.00048919    0.00052046    0.00056129
     atom   17 type  2   force =     0.00003966    0.00031485    0.00008298
     atom   18 type  2   force =    -0.00027869   -0.00001950    0.00038448
     atom   19 type  1   force =    -0.00041973    0.00114208   -0.00020285
     atom   20 type  1   force =    -0.00016179   -0.00020208   -0.00069991
     atom   21 type  2   force =    -0.00001498    0.00005438    0.10308830
     atom   22 type  2   force =    -0.00037679   -0.00056713   -0.00044708
     atom   23 type  2   force =    -0.07205087    0.00004942   -0.02790787
     atom   24 type  2   force =     0.07190792    0.00054053   -0.02801450
     atom   25 type  1   force =    -0.00043879    0.00000261    0.10114042
     atom   26 type  1   force =    -0.00006647   -0.00460825   -0.17488975
     atom   27 type  2   force =     0.00089639    0.00114449   -0.02443605
     atom   28 type  2   force =     0.00113626    0.00015028    0.05241232
     atom   29 type  2   force =    -0.01186176    0.00306155    0.00195427
     atom   30 type  2   force =     0.01326668    0.00116165    0.00308995
     atom   31 type  1   force =     0.00058501    0.00002772   -0.00053962
     atom   32 type  1   force =    -0.00036440    0.00070437    0.00048686
     atom   33 type  2   force =    -0.00020164    0.00094299    0.00015455
     atom   34 type  2   force =     0.00013865   -0.00012924   -0.00097236
     atom   35 type  2   force =     0.00034480    0.00007621    0.00053832
     atom   36 type  2   force =     0.00008844    0.00016538    0.00047574
     atom   37 type  1   force =    -0.00145614   -0.00060131    0.00032065
     atom   38 type  1   force =     0.00078077   -0.00026185   -0.00011288
     atom   39 type  2   force =     0.00044861   -0.00020532    0.00120274
     atom   40 type  2   force =    -0.00010914    0.00034212    0.00052031
     atom   41 type  2   force =    -0.00052954    0.00002587   -0.00065580
     atom   42 type  2   force =    -0.00000434   -0.00018145   -0.00054841
     atom   43 type  1   force =    -0.00004385   -0.00029629   -0.00062147
     atom   44 type  1   force =    -0.00021814   -0.00058094   -0.00110412
     atom   45 type  2   force =    -0.00001358    0.00012790    0.10266147
     atom   46 type  2   force =    -0.07202114   -0.00056612   -0.02788974
     atom   47 type  2   force =     0.07187280   -0.00007548   -0.02797047
     atom   48 type  3   force =    -0.00274318    0.00299936   -0.00745042
     atom   49 type  2   force =    -0.00075419    0.00014975   -0.00212595
     atom   50 type  4   force =    -0.00003050    0.00008311   -0.00018637
     atom   51 type  4   force =    -0.00013434   -0.00012011   -0.00028311
     atom   52 type  4   force =     0.00282456   -0.00448835    0.00709612
     atom   53 type  4   force =    -0.00068114    0.00035333    0.00029750
     atom   54 type  2   force =     0.00104046    0.00007858    0.00070596
     atom   55 type  4   force =    -0.00158120   -0.00026567    0.00033377

     Total force =     0.364599     Total SCF correction =     0.000897
  @ DRIVER MODE: Message from server: STATUS
  @ DRIVER MODE: Message from server: GETFORCE
  @ DRIVER MODE: Returning v,forces,stress,ensemble

     Writing output data file ./calc.save/
  @ DRIVER MODE: Message from server: EXIT
  @ DRIVE MODE: Exiting

     General routines

     Parallel routines

   This run was terminated on:   9:48: 9  23Sep2021

   JOB DONE.