     Program PWSCF v.6.7GPU starts on  9Sep2021 at  1:38:43

     R & G space division:  proc/nbgrp/npool/nimage =      10
     Reading input from /storage/home/hcoda1/3/ntian30/research/carbon/CxH_vib/CH_calc/ads_slab/CHNHH_a/out_0013/pw.inp
Warning: card &CELL ignored
Warning: card   CELL_DYNAMICS='IPI', ignored
Warning: card / ignored

     Current dimensions of program PWSCF are:
     Max number of different atomic species (ntypx) = 10
     Max number of k-points (npk) =  40000
     Max angular momentum in pseudopotentials (lmaxx) =  3
     Presently no symmetry can be used with electric field

     Message from routine cell_base_init:
     DEPRECATED: use true lattice parameter, not A to a.u. conversion factor

     IMPORTANT: XC functional enforced from input :
     Exchange-correlation= BEEF-VDW
                           (   1   4  43  14   2   0   0)
     Any further DFT definition will be discarded
     Please, verify this is what you really want

  @ DRIVER MODE: Connecting to
 qe_1139763_2767378.sched-torque.pace.gatech.edu_a4b2oyu_scratch
  using UNIX socket
  @ DRIVER MODE: Message from server: STATUS
  @ DRIVER MODE: Message from server: INIT
  @ DRIVER MODE: Receiving replica           0          -1
  @ DRIVER MODE: Receiving encoded integer          25
  @ DRIVER MODE:  SCF:  T  FORCE:  T  STRESS:  F  VC:  F  ENSEMBLE:  F
  @ DRIVER MODE:  SCF:  T  FORCE:  T  STRESS:  F  VC:  F  ENSEMBLE:  F

     Using Slab Decomposition

     bravais-lattice index     =            0
     lattice parameter (alat)  =       1.8897  a.u.
     unit-cell volume          =    6658.9804 (a.u.)^3
     number of atoms/cell      =           52
     number of atomic types    =            5
     number of electrons       =       390.00
     number of Kohn-Sham states=          205
     kinetic-energy cutoff     =      29.3995  Ry
     charge density cutoff     =     293.9946  Ry
     scf convergence threshold =      7.3E-08
     mixing beta               =       0.0500
     number of iterations used =            8  plain     mixing
     Exchange-correlation= BEEF-VDW
                           (   1   4  43  14   2   0   0)

     celldm(1)=   1.889726  celldm(2)=   0.000000  celldm(3)=   0.000000
     celldm(4)=   0.000000  celldm(5)=   0.000000  celldm(6)=   0.000000

     crystal axes: (cart. coord. in units of alat)
               a(1) = (   6.579727   0.000000   0.000000 )
               a(2) = (  -0.000775   5.961596   0.000000 )
               a(3) = (   0.000000   0.000000  25.155947 )

     reciprocal axes: (cart. coord. in units 2 pi/alat)
               b(1) = (  0.151982  0.000020  0.000000 )
               b(2) = (  0.000000  0.167740  0.000000 )
               b(3) = (  0.000000  0.000000  0.039752 )

     PseudoPot. # 1 for Ti read from file:
     /storage/coda1/p-amedford6/0/shared/rich_project_chbe-medford/medford-share/data/pseudos_module/espresso/nninc/pbe/van/Ti.UPF
     MD5 check sum: 8e4df49b7f0d34bbd5052bf3f5ea0213
     Pseudo is Ultrasoft, Zval = 12.0
     Generated by new atomic code, or converted to UPF format
     Using radial grid of  851 points,  6 beta functions with:
                l(1) =   0
                l(2) =   0
                l(3) =   1
                l(4) =   1
                l(5) =   2
                l(6) =   2
     Q(r) pseudized with  8 coefficients,  rinner =    1.000   1.000   1.000
                                                       1.000   1.000

     PseudoPot. # 2 for O  read from file:
     /storage/coda1/p-amedford6/0/shared/rich_project_chbe-medford/medford-share/data/pseudos_module/espresso/nninc/pbe/van/O.UPF
     MD5 check sum: 78c19812648e8988a0fe644b0f25305e
     Pseudo is Ultrasoft, Zval =  6.0
     Generated by new atomic code, or converted to UPF format
     Using radial grid of  737 points,  4 beta functions with:
                l(1) =   0
                l(2) =   0
                l(3) =   1
                l(4) =   1
     Q(r) pseudized with  8 coefficients,  rinner =    0.800   0.800   0.800

     PseudoPot. # 3 for N  read from file:
     /storage/coda1/p-amedford6/0/shared/rich_project_chbe-medford/medford-share/data/pseudos_module/espresso/nninc/pbe/van/N.UPF
     MD5 check sum: 90d10febe142ad51ac9d5be1deb811c4
     Pseudo is Ultrasoft, Zval =  5.0
     Generated by new atomic code, or converted to UPF format
     Using radial grid of  729 points,  4 beta functions with:
                l(1) =   0
                l(2) =   0
                l(3) =   1
                l(4) =   1
     Q(r) pseudized with  8 coefficients,  rinner =    0.800   0.800   0.800

     PseudoPot. # 4 for C  read from file:
     /storage/coda1/p-amedford6/0/shared/rich_project_chbe-medford/medford-share/data/pseudos_module/espresso/nninc/pbe/van/C.UPF
     MD5 check sum: 1a69bf6b8db32088f5b2163dbdb77a27
     Pseudo is Ultrasoft, Zval =  4.0
     Generated by new atomic code, or converted to UPF format
     Using radial grid of  721 points,  4 beta functions with:
                l(1) =   0
                l(2) =   0
                l(3) =   1
                l(4) =   1
     Q(r) pseudized with  8 coefficients,  rinner =    0.800   0.800   0.800

     PseudoPot. # 5 for H  read from file:
     /storage/coda1/p-amedford6/0/shared/rich_project_chbe-medford/medford-share/data/pseudos_module/espresso/nninc/pbe/van/H.UPF
     MD5 check sum: b5ee9d7bfd3a09ee7748110bda690ff7
     Pseudo is Ultrasoft, Zval =  1.0
     Generated by new atomic code, or converted to UPF format
     Using radial grid of  615 points,  1 beta functions with:
                l(1) =   0
     Q(r) pseudized with  8 coefficients,  rinner =    0.800

     atomic species   valence    mass     pseudopotential
        Ti1           12.00    47.86700     Ti( 1.00)
        O1             6.00    15.99900     O ( 1.00)
        N1             5.00    14.00700     N ( 1.00)
        C1             4.00    12.01100     C ( 1.00)
        H1             1.00     1.00800     H ( 1.00)

     No symmetry found

   Cartesian axes

     site n.     atom                  positions (alat units)
         1           Ti1 tau(   1) = (   0.0004258   2.9801865   6.0000000  )
         2           Ti1 tau(   2) = (   3.2906075   1.4906267   6.0002472  )
         3           O1  tau(   3) = (   0.0006271   0.0005054   7.9858123  )
         4           O1  tau(   4) = (   3.2906025   0.0005020   7.3038282  )
         5           O1  tau(   5) = (   4.5942328   1.4918067   9.2879030  )
         6           O1  tau(   6) = (   1.9868534   1.4903216   9.2879459  )
         7           Ti1 tau(   7) = (   3.2907910   2.8959150   9.1758416  )
         8           Ti1 tau(   8) = (   0.0015273   1.4827037   9.2680791  )
         9           O1  tau(   9) = (   3.2768318   5.9518058  11.3501096  )
        10           O1  tau(  10) = (   0.0116148   5.9584955  10.6183126  )
        11           O1  tau(  11) = (   1.2820894   1.4890407  12.6429483  )
        12           O1  tau(  12) = (   5.2701592   1.4861355  12.6244956  )
        13           Ti1 tau(  13) = (   0.0263608   2.9732685  12.5725065  )
        14           Ti1 tau(  14) = (   3.3311081   1.4825583  12.4934812  )
        15           O1  tau(  15) = (   6.5448050   0.0382128  14.6485099  )
        16           O1  tau(  16) = (   3.2835306   5.9556129  13.9684075  )
        17           O1  tau(  17) = (   4.5065730   1.5084740  16.1486978  )
        18           O1  tau(  18) = (   2.0110176   1.4968469  16.1316129  )
        19           Ti1 tau(  19) = (   3.2365874   2.9692752  15.7101938  )
        20           Ti1 tau(  20) = (   6.5183500   1.5288441  15.9766389  )
        21           O1  tau(  21) = (   3.2904802   0.0005063   4.7018136  )
        22           O1  tau(  22) = (   6.5552815   5.8936090  17.2115513  )
        23           O1  tau(  23) = (   1.3043587   1.4918075   6.0039043  )
        24           O1  tau(  24) = (   5.2767064   1.4903225   6.0039473  )
        25           Ti1 tau(  25) = (   0.0000382   5.9609847   6.0000000  )
        26           Ti1 tau(  26) = (   3.2902200   4.4714249   6.0002472  )
        27           O1  tau(  27) = (   0.0002396   2.9813036   7.9858123  )
        28           O1  tau(  28) = (   3.2902150   2.9813002   7.3038282  )
        29           O1  tau(  29) = (   4.5938453   4.4726049   9.2879030  )
        30           O1  tau(  30) = (   1.9864658   4.4711199   9.2879459  )
        31           Ti1 tau(  31) = (   3.2891106   5.8743827   9.1763621  )
        32           Ti1 tau(  32) = (   0.0006254   4.4649316   9.2693709  )
        33           O1  tau(  33) = (   3.2825058   2.9767457  11.3441782  )
        34           O1  tau(  34) = (   0.0092240   2.9805883  10.6323155  )
        35           O1  tau(  35) = (   1.2778777   4.4660374  12.6604661  )
        36           O1  tau(  36) = (   5.2710664   4.4675109  12.6369154  )
        37           Ti1 tau(  37) = (   0.0243246   5.9574881  12.5203091  )
        38           Ti1 tau(  38) = (   3.3318591   4.4611298  12.5006215  )
        39           O1  tau(  39) = (   6.5359656   2.9584677  14.7835642  )
        40           O1  tau(  40) = (   3.2771955   2.9708399  13.9242642  )
        41           O1  tau(  41) = (   4.4981441   4.4410618  16.1740548  )
        42           O1  tau(  42) = (   2.0042129   4.4512231  16.1075086  )
        43           Ti1 tau(  43) = (   3.2538698   5.9555144  15.7617387  )
        44           Ti1 tau(  44) = (   6.5531130   4.6830099  15.9084494  )
        45           O1  tau(  45) = (   3.2900926   2.9813045   4.7018136  )
        46           O1  tau(  46) = (   1.3039711   4.4726057   6.0039043  )
        47           O1  tau(  47) = (   5.2763189   4.4711207   6.0039473  )
        48           N1  tau(  48) = (   5.6690603   3.2568973  18.6585782  )
        49           C1  tau(  49) = (   0.0091554   2.6844975  17.9068455  )
        50           H1  tau(  50) = (   0.8705123   2.3964943  18.5001670  )
        51           H1  tau(  51) = (   4.8619660   3.6873350  18.2178346  )
        52           H1  tau(  52) = (   5.8095507   3.4768026  19.6356901  )

     number of k points=    10  Fermi-Dirac smearing, width (Ry)=  0.0073
                       cart. coord. in units 2pi/alat
        k(    1) = (   0.0000000   0.0000000   0.0000000), wk =   0.1250000
        k(    2) = (   0.0000000   0.0419351   0.0000000), wk =   0.2500000
        k(    3) = (   0.0000000  -0.0838702   0.0000000), wk =   0.1250000
        k(    4) = (   0.0379955   0.0000049   0.0000000), wk =   0.2500000
        k(    5) = (   0.0379955   0.0419400   0.0000000), wk =   0.2500000
        k(    6) = (   0.0379955  -0.0838652   0.0000000), wk =   0.2500000
        k(    7) = (   0.0379955  -0.0419301   0.0000000), wk =   0.2500000
        k(    8) = (  -0.0759910  -0.0000099   0.0000000), wk =   0.1250000
        k(    9) = (  -0.0759910   0.0419252   0.0000000), wk =   0.2500000
        k(   10) = (  -0.0759910  -0.0838800   0.0000000), wk =   0.1250000

     Initial potential from superposition of free atoms

     starting charge  373.99917, renormalised to  390.00000

     negative rho (up, down):  1.782E-02 0.000E+00

     %%%%%%%%%%%%%%%%%%%%%%%%%%%%%%%%%%%%%%%%%%%%%%%%%%%%%%%%%%%%%%%%%%%%%%%%
     %                                                                      %
     % You are using vdW-DF, which was implemented by the Thonhauser group. %
     % Please cite the following two papers that made this development      %
     % possible and the two reviews that describe the various versions:     %
     %                                                                      %
     %   T. Thonhauser et al., PRL 115, 136402 (2015).                      %
     %   T. Thonhauser et al., PRB 76, 125112 (2007).                       %
     %   K. Berland et al., Rep. Prog. Phys. 78, 066501 (2015).             %
     %   D.C. Langreth et al., J. Phys.: Condens. Matter 21, 084203 (2009). %
     %                                                                      %
     %                                                                      %
     % If you are calculating the stress with vdW-DF, please also cite:     %
     %                                                                      %
     %   R. Sabatini et al., J. Phys.: Condens. Matter 24, 424209 (2012).   %
     %                                                                      %
     %%%%%%%%%%%%%%%%%%%%%%%%%%%%%%%%%%%%%%%%%%%%%%%%%%%%%%%%%%%%%%%%%%%%%%%%

     Adding external electric field

     Computed dipole along edir(3) :
        Dipole               -5.8555 Ry au,        -14.8831 Debye
        Dipole field         -0.0111 Ry au,

        Potential amp.        1.0243 Ry
        Total length         46.3494 bohr

     Starting wfcs are  295 atomic wfcs
  @ DRIVER MODE: Message from server: STATUS
  @ DRIVER MODE: Message from server: POSDATA
  @ DRIVER MODE: Reading and sharing cell
  @ DRIVER MODE: Reading and sharing positions
  @ DRIVER MODE: Received positions

     Self-consistent Calculation

     iteration #  1     ecut=    29.40 Ry     beta= 0.05
     Davidson diagonalization with overlap
     c_bands:  4 eigenvalues not converged
     c_bands:  1 eigenvalues not converged
     c_bands:  2 eigenvalues not converged
     c_bands:  2 eigenvalues not converged
     c_bands:  3 eigenvalues not converged
     c_bands:  4 eigenvalues not converged
     c_bands:  3 eigenvalues not converged
     c_bands:  3 eigenvalues not converged
     c_bands:  4 eigenvalues not converged
     c_bands:  5 eigenvalues not converged
     ethr =  1.00E-05,  avg # of iterations = 20.0

[...]

     total energy              =   -2777.29499022 Ry
     estimated scf accuracy    <    1560.81769762 Ry

[...]

     iteration #  3     ecut=    29.40 Ry     beta= 0.05
     Davidson diagonalization with overlap
     ethr =  1.00E-02,  avg # of iterations = 15.4

[...]

     iteration # 75     ecut=    29.40 Ry     beta= 0.05
     Davidson diagonalization with overlap
     ethr =  4.57E-11,  avg # of iterations =  9.2

[...]

     total energy              =   -2919.04279788 Ry
     estimated scf accuracy    <       0.00000019 Ry

     iteration # 77     ecut=    29.40 Ry     beta= 0.05
     Davidson diagonalization with overlap
     c_bands:  1 eigenvalues not converged
     ethr =  2.93E-11,  avg # of iterations = 11.6

     negative rho (up, down):  1.803E-02 0.000E+00

     Adding external electric field

     Computed dipole along edir(3) :
        Dipole                1.3836 Ry au,          3.5169 Debye
        Dipole field          0.0026 Ry au,

        Potential amp.       -0.2420 Ry
        Total length         46.3494 bohr

     End of self-consistent calculation

          k = 0.0000 0.0000 0.0000 ( 18029 PWs)   bands (ev):

   -55.5089 -55.4837 -55.4726 -55.4496 -55.4227 -55.3779 -55.3359 -55.3274
   -55.3086 -55.3017 -55.2722 -55.2702 -55.0528 -54.9455 -54.4870 -54.4530
   -32.0759 -31.9714 -31.8694 -31.8472 -31.8370 -31.8041 -31.7964 -31.7741
   -31.7638 -31.7274 -31.7234 -31.7185 -31.6854 -31.6603 -31.6506 -31.6480
   -31.6364 -31.6118 -31.6013 -31.5930 -31.5797 -31.5666 -31.5410 -31.5370
   -31.5359 -31.5160 -31.5134 -31.5088 -31.5075 -31.4984 -31.4844 -31.4689
   -31.4577 -31.4576 -31.4344 -31.4234 -31.4078 -31.3559 -31.2893 -31.1904
   -31.1800 -31.0917 -30.8953 -30.8042 -30.7819 -30.7119 -30.6253 -30.5142
   -17.0254 -16.3081 -16.0242 -15.8596 -15.7168 -15.6860 -15.5753 -15.4003
   -15.3218 -15.2472 -15.2280 -15.1482 -15.1315 -15.1166 -15.0969 -15.0383
   -15.0304 -14.9853 -14.9803 -14.9450 -14.9263 -14.8945 -14.8770 -14.8695
   -14.8141 -14.7747 -14.7112 -14.6451 -14.5899 -14.1184 -12.9898 -12.8728
    -9.4708  -7.2256  -4.6218  -3.6655  -3.4960  -3.4155  -3.4060  -3.3849
    -3.1956  -3.1190  -2.8434  -2.7501  -2.7150  -2.7089  -2.6822  -2.6217
    -2.5500  -2.4509  -2.3789  -2.3500  -2.3297  -2.3226  -2.3111  -2.2963
    -2.2862  -2.2550  -2.1812  -2.1238  -2.0513  -1.9698  -1.8947  -1.8789
    -1.8186  -1.7908  -1.7758  -1.7694  -1.7624  -1.7368  -1.7317  -1.6405
    -1.5502  -1.5114  -1.4113  -1.3889  -1.2936  -1.1589  -1.1308  -1.0267
    -1.0196  -0.9638  -0.9393  -0.8955  -0.8459  -0.8374  -0.8194  -0.6763
    -0.6092  -0.5481  -0.4895  -0.4630  -0.4443  -0.3609  -0.2911  -0.2837
    -0.2663  -0.2450  -0.0694  -0.0379  -0.0175   0.0052   0.0197   0.1092
     0.1410   0.2161   0.2958   0.3100   0.3153   0.3930   0.4161   0.4592
     0.4617   0.4890   0.4944   0.6655   0.6760   0.7024   0.7334   0.8130
     0.8975   1.1023   1.1250   1.1669   1.4507   1.5173   1.5352   1.7229
     2.1088   2.1557   3.5816   3.6864   3.7186   3.7344   3.7624   3.8326
     3.8983   4.0772   4.0843   4.1152   4.1213

[...]

          k = 0.0380-0.0419 0.0000 ( 17876 PWs)   bands (ev):

[...]

          k =-0.0760-0.0000 0.0000 ( 17886 PWs)   bands (ev):

[...]

          k =-0.0760-0.0839 0.0000 ( 17948 PWs)   bands (ev):

   -55.4931 -55.4882 -55.4669 -55.4662 -55.4195 -55.3690 -55.3448 -55.3305
   -55.2900 -55.2883 -55.2880 -55.2862 -55.0500 -54.9483 -54.4700 -54.4699
   -31.8813 -31.8774 -31.8119 -31.7869 -31.7862 -31.7747 -31.7598 -31.7590
   -31.7195 -31.7142 -31.7123 -31.7053 -31.6758 -31.6391 -31.6302 -31.6260
   -31.6255 -31.6230 -31.6187 -31.6174 -31.6073 -31.5865 -31.5860 -31.5732
   -31.5698 -31.5593 -31.5469 -31.5305 -31.5231 -31.5207 -31.5046 -31.5038
   -31.5034 -31.5022 -31.4771 -31.4666 -31.4630 -31.3604 -31.2846 -31.2091
   -31.1830 -31.1756 -30.7947 -30.7946 -30.7080 -30.7078 -30.6686 -30.6686
   -17.0203 -15.7658 -15.7041 -15.5681 -15.4873 -15.4653 -15.4536 -15.4296
   -15.2909 -15.2755 -15.2569 -15.2074 -15.2038 -15.2012 -15.1613 -15.1052
   -15.0718 -15.0693 -15.0608 -15.0344 -14.9998 -14.9945 -14.9603 -14.9517
   -14.9382 -14.8485 -14.8433 -14.8410 -14.6684 -14.3426 -12.9745 -12.9744
    -9.4755  -7.2269  -4.6037  -3.0487  -2.9752  -2.8147  -2.7126  -2.6828
    -2.6509  -2.5076  -2.4724  -2.4625  -2.4489  -2.4122  -2.3977  -2.3827
    -2.3533  -2.3392  -2.3347  -2.3163  -2.3055  -2.2933  -2.2493  -2.2077
    -2.2036  -2.1960  -2.1657  -2.1454  -2.1331  -2.1041  -2.0848  -2.0692
    -2.0551  -2.0075  -1.8330  -1.8019  -1.7018  -1.6813  -1.6722  -1.6506
    -1.5839  -1.5568  -1.5246  -1.4851  -1.4337  -1.3118  -1.2448  -1.2237
    -1.1940  -1.1844  -1.1324  -1.0105  -0.9747  -0.9520  -0.9054  -0.8689
    -0.8249  -0.8140  -0.6942  -0.6893  -0.6434  -0.6006  -0.4875  -0.4704
    -0.4611  -0.4487  -0.4343  -0.3053  -0.2957  -0.2890  -0.2716  -0.2281
    -0.2106  -0.1050  -0.0072   0.0092   0.1110   0.1624   0.2889   0.3522
     0.4483   0.4944   0.5184   0.6084   0.6444   0.7265   0.7493   0.8029
     0.8145   0.9102   0.9651   0.9834   0.9914   1.0593   1.8953   1.8961
     1.9756   1.9758   3.7416   3.8377   3.8761   3.8982   3.9439   4.1026
     4.1182   4.1660   4.1685   4.1845   4.2643

     the Fermi energy is     3.6392 ev

!    total energy              =   -2919.04280794 Ry
     estimated scf accuracy    <       0.00000005 Ry
     smearing contrib. (-TS)   =      -0.03610936 Ry
     internal energy E=F+TS    =   -2919.00669858 Ry

     The total energy is F=E-TS. E is the sum of the following terms:
     one-electron contribution =  -24479.34566871 Ry
     hartree contribution      =   12327.84884813 Ry
     xc contribution           =    -480.00507546 Ry
     ewald contribution        =    9712.49158461 Ry
     electric field correction =       0.00361286 Ry

     convergence has been achieved in  77 iterations

     Forces acting on atoms (cartesian axes, Ry/au):

     atom    1 type  1   force =     0.00009489   -0.00020207    0.09493667
     atom    2 type  1   force =    -0.00023104   -0.00036365   -0.17675439
     atom    3 type  2   force =    -0.00004514   -0.00006714   -0.02292707
     atom    4 type  2   force =    -0.00004504   -0.00167863    0.05577546
     atom    5 type  2   force =    -0.01134895   -0.00123295    0.00625974
     atom    6 type  2   force =     0.01252620   -0.00035199    0.00442260
     atom    7 type  1   force =    -0.00113945    0.00152077   -0.01377570
     atom    8 type  1   force =     0.00062634    0.00694832    0.01263944
     atom    9 type  2   force =     0.00020018   -0.00005021    0.00013124
     atom   10 type  2   force =    -0.00163912    0.00010173   -0.00994202
     atom   11 type  2   force =    -0.00020039    0.00002615    0.00015538
     atom   12 type  2   force =     0.00023196    0.00011062   -0.00006854
     atom   13 type  1   force =     0.00006925   -0.00001174    0.00032034
     atom   14 type  1   force =     0.00001262   -0.00015455    0.00021717
     atom   15 type  2   force =     0.00003236   -0.00002797    0.00002120
     atom   16 type  2   force =     0.00025417    0.00028446   -0.00001771
     atom   17 type  2   force =    -0.00009455   -0.00020935    0.00021420
     atom   18 type  2   force =     0.00034001    0.00010670    0.00017369
     atom   19 type  1   force =     0.00039824   -0.00000705   -0.00014884
     atom   20 type  1   force =     0.00020234    0.00003028    0.00010349
     atom   21 type  2   force =     0.00004841   -0.00004580    0.10359704
     atom   22 type  2   force =     0.00005271    0.00012145    0.00019762
     atom   23 type  2   force =    -0.07096952   -0.00017480   -0.02730883
     atom   24 type  2   force =     0.07082217    0.00030754   -0.02732302
     atom   25 type  1   force =    -0.00012470   -0.00020216    0.09464465
     atom   26 type  1   force =    -0.00019636   -0.00046488   -0.17690647
     atom   27 type  2   force =     0.00006969   -0.00035356   -0.02194385
     atom   28 type  2   force =     0.00003545   -0.00138726    0.05532975
     atom   29 type  2   force =    -0.01157360   -0.00009416    0.00586544
     atom   30 type  2   force =     0.01264164    0.00012730    0.00408277
     atom   31 type  1   force =    -0.00124937    0.00417190   -0.01465790
     atom   32 type  1   force =     0.00055595   -0.00777175    0.01249819
     atom   33 type  2   force =    -0.00001401    0.00009270    0.00004812
     atom   34 type  2   force =    -0.00127356    0.00083064   -0.00834660
     atom   35 type  2   force =     0.00012477    0.00020262   -0.00001029
     atom   36 type  2   force =     0.00011122    0.00004254    0.00018242
     atom   37 type  1   force =     0.00003106    0.00000032    0.00000242
     atom   38 type  1   force =    -0.00003143   -0.00015892   -0.00014723
     atom   39 type  2   force =    -0.00018484   -0.00018897   -0.00005166
     atom   40 type  2   force =     0.00023238   -0.00002678   -0.00016726
     atom   41 type  2   force =     0.00026262   -0.00008297    0.00011121
     atom   42 type  2   force =    -0.00009172    0.00011637   -0.00039061
     atom   43 type  1   force =    -0.00022930    0.00001091    0.00017352
     atom   44 type  1   force =     0.00043849   -0.00013139    0.00011716
     atom   45 type  2   force =     0.00003464   -0.00004934    0.10355529
     atom   46 type  2   force =    -0.07097326   -0.00006292   -0.02730058
     atom   47 type  2   force =     0.07083148    0.00033580   -0.02732921
     atom   48 type  3   force =    -0.00137972    0.00140387   -0.00176924
     atom   49 type  4   force =    -0.00783491    0.00201182   -0.00379889
     atom   50 type  5   force =     0.00894990   -0.00286804    0.00410110
     atom   51 type  5   force =     0.00072757   -0.00017860    0.00003684
     atom   52 type  5   force =    -0.00008872   -0.00030519    0.00117175

     Total force =     0.366271     Total SCF correction =     0.000730
  @ DRIVER MODE: Message from server: STATUS
  @ DRIVER MODE: Message from server: GETFORCE
  @ DRIVER MODE: Returning v,forces,stress,ensemble

     Writing output data file ./calc.save/
  @ DRIVER MODE: Message from server: EXIT
  @ DRIVE MODE: Exiting

     General routines

     Parallel routines

   This run was terminated on:   1:57:31   9Sep2021

   JOB DONE.