     Program PWSCF v.6.7GPU starts on 15Sep2021 at 13:16: 0

     R & G space division:  proc/nbgrp/npool/nimage =      10
     Reading input from /storage/home/hcoda1/3/ntian30/research/carbon/CxH_vib/CH_calc/ads_slab/CHNHNH_b/out_0012/pw.inp
Warning: card &CELL ignored
Warning: card   CELL_DYNAMICS='IPI', ignored
Warning: card / ignored

     Current dimensions of program PWSCF are:
     Max number of different atomic species (ntypx) = 10
     Max number of k-points (npk) =  40000
     Max angular momentum in pseudopotentials (lmaxx) =  3
     Presently no symmetry can be used with electric field

     Message from routine cell_base_init:
     DEPRECATED: use true lattice parameter, not A to a.u. conversion factor

     IMPORTANT: XC functional enforced from input :
     Exchange-correlation= BEEF-VDW
                           (   1   4  43  14   2   0   0)
     Any further DFT definition will be discarded
     Please, verify this is what you really want

  @ DRIVER MODE: Connecting to
 qe_1139763_2850202.sched-torque.pace.gatech.edu4tua_2ll_scratch
  using UNIX socket
  @ DRIVER MODE: Message from server: STATUS
  @ DRIVER MODE: Message from server: INIT
  @ DRIVER MODE: Receiving replica           0          -1
  @ DRIVER MODE: Receiving encoded integer          25
  @ DRIVER MODE:  SCF:  T  FORCE:  T  STRESS:  F  VC:  F  ENSEMBLE:  F
  @ DRIVER MODE:  SCF:  T  FORCE:  T  STRESS:  F  VC:  F  ENSEMBLE:  F

     Using Slab Decomposition

     bravais-lattice index     =            0
     lattice parameter (alat)  =       1.8897  a.u.
     unit-cell volume          =    6658.9804 (a.u.)^3
     number of atoms/cell      =           53
     number of atomic types    =            5
     number of electrons       =       395.00
     number of Kohn-Sham states=          207
     kinetic-energy cutoff     =      29.3995  Ry
     charge density cutoff     =     293.9946  Ry
     scf convergence threshold =      7.3E-08
     mixing beta               =       0.0500
     number of iterations used =            8  plain     mixing
     Exchange-correlation= BEEF-VDW
                           (   1   4  43  14   2   0   0)

     celldm(1)=   1.889726  celldm(2)=   0.000000  celldm(3)=   0.000000
     celldm(4)=   0.000000  celldm(5)=   0.000000  celldm(6)=   0.000000

     crystal axes: (cart. coord. in units of alat)
               a(1) = (   6.579727   0.000000   0.000000 )
               a(2) = (  -0.000775   5.961596   0.000000 )
               a(3) = (   0.000000   0.000000  25.155947 )

     reciprocal axes: (cart. coord. in units 2 pi/alat)
               b(1) = (  0.151982  0.000020  0.000000 )
               b(2) = (  0.000000  0.167740  0.000000 )
               b(3) = (  0.000000  0.000000  0.039752 )

     PseudoPot. # 1 for Ti read from file:
     /storage/coda1/p-amedford6/0/shared/rich_project_chbe-medford/medford-share/data/pseudos_module/espresso/nninc/pbe/van/Ti.UPF
     MD5 check sum: 8e4df49b7f0d34bbd5052bf3f5ea0213
     Pseudo is Ultrasoft, Zval = 12.0
     Generated by new atomic code, or converted to UPF format
     Using radial grid of  851 points,  6 beta functions with:
                l(1) =   0
                l(2) =   0
                l(3) =   1
                l(4) =   1
                l(5) =   2
                l(6) =   2
     Q(r) pseudized with  8 coefficients,  rinner =    1.000   1.000   1.000
                                                       1.000   1.000

     PseudoPot. # 2 for O  read from file:
     /storage/coda1/p-amedford6/0/shared/rich_project_chbe-medford/medford-share/data/pseudos_module/espresso/nninc/pbe/van/O.UPF
     MD5 check sum: 78c19812648e8988a0fe644b0f25305e
     Pseudo is Ultrasoft, Zval =  6.0
     Generated by new atomic code, or converted to UPF format
     Using radial grid of  737 points,  4 beta functions with:
                l(1) =   0
                l(2) =   0
                l(3) =   1
                l(4) =   1
     Q(r) pseudized with  8 coefficients,  rinner =    0.800   0.800   0.800

     PseudoPot. # 3 for N  read from file:
     /storage/coda1/p-amedford6/0/shared/rich_project_chbe-medford/medford-share/data/pseudos_module/espresso/nninc/pbe/van/N.UPF
     MD5 check sum: 90d10febe142ad51ac9d5be1deb811c4
     Pseudo is Ultrasoft, Zval =  5.0
     Generated by new atomic code, or converted to UPF format
     Using radial grid of  729 points,  4 beta functions with:
                l(1) =   0
                l(2) =   0
                l(3) =   1
                l(4) =   1
     Q(r) pseudized with  8 coefficients,  rinner =    0.800   0.800   0.800

     PseudoPot. # 4 for C  read from file:
     /storage/coda1/p-amedford6/0/shared/rich_project_chbe-medford/medford-share/data/pseudos_module/espresso/nninc/pbe/van/C.UPF
     MD5 check sum: 1a69bf6b8db32088f5b2163dbdb77a27
     Pseudo is Ultrasoft, Zval =  4.0
     Generated by new atomic code, or converted to UPF format
     Using radial grid of  721 points,  4 beta functions with:
                l(1) =   0
                l(2) =   0
                l(3) =   1
                l(4) =   1
     Q(r) pseudized with  8 coefficients,  rinner =    0.800   0.800   0.800

     PseudoPot. # 5 for H  read from file:
     /storage/coda1/p-amedford6/0/shared/rich_project_chbe-medford/medford-share/data/pseudos_module/espresso/nninc/pbe/van/H.UPF
     MD5 check sum: b5ee9d7bfd3a09ee7748110bda690ff7
     Pseudo is Ultrasoft, Zval =  1.0
     Generated by new atomic code, or converted to UPF format
     Using radial grid of  615 points,  1 beta functions with:
                l(1) =   0
     Q(r) pseudized with  8 coefficients,  rinner =    0.800

     atomic species   valence    mass     pseudopotential
        Ti1           12.00    47.86700     Ti( 1.00)
        O1             6.00    15.99900     O ( 1.00)
        N1             5.00    14.00700     N ( 1.00)
        C1             4.00    12.01100     C ( 1.00)
        H1             1.00     1.00800     H ( 1.00)

     No symmetry found

   Cartesian axes

     site n.     atom                  positions (alat units)
         1           Ti1 tau(   1) = (   0.0004258   2.9801865   6.0000000  )
         2           Ti1 tau(   2) = (   3.2906075   1.4906267   6.0002472  )
         3           O1  tau(   3) = (   0.0006271   0.0005054   7.9858123  )
         4           O1  tau(   4) = (   3.2906025   0.0005020   7.3038282  )
         5           O1  tau(   5) = (   4.5942328   1.4918067   9.2879030  )
         6           O1  tau(   6) = (   1.9868534   1.4903216   9.2879459  )
         7           Ti1 tau(   7) = (   3.2907910   2.8959150   9.1758416  )
         8           Ti1 tau(   8) = (   0.0015273   1.4827037   9.2680791  )
         9           O1  tau(   9) = (   3.2799393   5.9535521  11.3540639  )
        10           O1  tau(  10) = (   0.0116148   5.9584955  10.6183126  )
        11           O1  tau(  11) = (   1.2974255   1.4613897  12.6506698  )
        12           O1  tau(  12) = (   5.3017888   1.4901577  12.6050164  )
        13           Ti1 tau(  13) = (   6.5221663   3.0180504  12.5986966  )
        14           Ti1 tau(  14) = (   3.2221172   1.5532140  12.5512791  )
        15           O1  tau(  15) = (   6.4783894   5.9520290  14.6579590  )
        16           O1  tau(  16) = (   3.3696489   5.9508513  13.9183136  )
        17           O1  tau(  17) = (   4.5179258   1.5103438  16.1624884  )
        18           O1  tau(  18) = (   1.9802590   1.4047766  15.9099196  )
        19           Ti1 tau(  19) = (   3.2637731   3.0080032  15.8837983  )
        20           Ti1 tau(  20) = (   6.5766856   1.4756295  15.8014380  )
        21           O1  tau(  21) = (   3.2904802   0.0005063   4.7018136  )
        22           O1  tau(  22) = (   0.0065935   5.9492922  17.2122405  )
        23           O1  tau(  23) = (   1.3043587   1.4918075   6.0039043  )
        24           O1  tau(  24) = (   5.2767064   1.4903225   6.0039473  )
        25           Ti1 tau(  25) = (   0.0000382   5.9609847   6.0000000  )
        26           Ti1 tau(  26) = (   3.2902200   4.4714249   6.0002472  )
        27           O1  tau(  27) = (   0.0002396   2.9813036   7.9858123  )
        28           O1  tau(  28) = (   3.2902150   2.9813002   7.3038282  )
        29           O1  tau(  29) = (   4.5938453   4.4726049   9.2879030  )
        30           O1  tau(  30) = (   1.9864658   4.4711199   9.2879459  )
        31           Ti1 tau(  31) = (   3.2891106   5.8743827   9.1763621  )
        32           Ti1 tau(  32) = (   0.0006254   4.4649316   9.2693709  )
        33           O1  tau(  33) = (   3.2772596   2.9828089  11.3369495  )
        34           O1  tau(  34) = (   0.0092240   2.9805883  10.6323155  )
        35           O1  tau(  35) = (   1.2916203   4.4718874  12.6594431  )
        36           O1  tau(  36) = (   5.2999639   4.4615573  12.6129894  )
        37           Ti1 tau(  37) = (   6.5361528   0.0312684  12.5125129  )
        38           Ti1 tau(  38) = (   3.2177194   4.4831555  12.4956785  )
        39           O1  tau(  39) = (   6.5168025   2.9395006  14.7032746  )
        40           O1  tau(  40) = (   3.2870264   2.9515371  13.9313172  )
        41           O1  tau(  41) = (   4.5204763   4.4345026  16.1736457  )
        42           O1  tau(  42) = (   1.9972348   4.5331091  15.9467552  )
        43           Ti1 tau(  43) = (   3.2981618   0.0182476  15.6956140  )
        44           Ti1 tau(  44) = (   0.0010288   4.6427453  16.0560918  )
        45           O1  tau(  45) = (   3.2900926   2.9813045   4.7018136  )
        46           O1  tau(  46) = (   1.3039711   4.4726057   6.0039043  )
        47           O1  tau(  47) = (   5.2763189   4.4711207   6.0039473  )
        48           N1  tau(  48) = (   1.3052520   2.8252889  18.3786263  )
        49           N1  tau(  49) = (   0.2128110   2.9323531  17.5295281  )
        50           C1  tau(  50) = (   2.5582938   2.8657590  18.0399718  )
        51           H1  tau(  51) = (   3.1786551   2.7222395  18.9297303  )
        52           H1  tau(  52) = (   1.0317423   2.6491596  19.3433462  )
        53           H1  tau(  53) = (   5.9645394   2.8535341  18.1048464  )

     number of k points=    10  Fermi-Dirac smearing, width (Ry)=  0.0073
                       cart. coord. in units 2pi/alat
        k(    1) = (   0.0000000   0.0000000   0.0000000), wk =   0.1250000
        k(    2) = (   0.0000000   0.0419351   0.0000000), wk =   0.2500000
        k(    3) = (   0.0000000  -0.0838702   0.0000000), wk =   0.1250000
        k(    4) = (   0.0379955   0.0000049   0.0000000), wk =   0.2500000
        k(    5) = (   0.0379955   0.0419400   0.0000000), wk =   0.2500000
        k(    6) = (   0.0379955  -0.0838652   0.0000000), wk =   0.2500000
        k(    7) = (   0.0379955  -0.0419301   0.0000000), wk =   0.2500000
        k(    8) = (  -0.0759910  -0.0000099   0.0000000), wk =   0.1250000
        k(    9) = (  -0.0759910   0.0419252   0.0000000), wk =   0.2500000
        k(   10) = (  -0.0759910  -0.0838800   0.0000000), wk =   0.1250000

     Initial potential from superposition of free atoms

     starting charge  378.99916, renormalised to  395.00000

     negative rho (up, down):  1.762E-02 0.000E+00

     %%%%%%%%%%%%%%%%%%%%%%%%%%%%%%%%%%%%%%%%%%%%%%%%%%%%%%%%%%%%%%%%%%%%%%%%
     %                                                                      %
     % You are using vdW-DF, which was implemented by the Thonhauser group. %
     % Please cite the following two papers that made this development      %
     % possible and the two reviews that describe the various versions:     %
     %                                                                      %
     %   T. Thonhauser et al., PRL 115, 136402 (2015).                      %
     %   T. Thonhauser et al., PRB 76, 125112 (2007).                       %
     %   K. Berland et al., Rep. Prog. Phys. 78, 066501 (2015).             %
     %   D.C. Langreth et al., J. Phys.: Condens. Matter 21, 084203 (2009). %
     %                                                                      %
     %                                                                      %
     % If you are calculating the stress with vdW-DF, please also cite:     %
     %                                                                      %
     %   R. Sabatini et al., J. Phys.: Condens. Matter 24, 424209 (2012).   %
     %                                                                      %
     %%%%%%%%%%%%%%%%%%%%%%%%%%%%%%%%%%%%%%%%%%%%%%%%%%%%%%%%%%%%%%%%%%%%%%%%

     Adding external electric field

     Computed dipole along edir(3) :
        Dipole               -7.9540 Ry au,        -20.2171 Debye
        Dipole field         -0.0150 Ry au,

        Potential amp.        1.3914 Ry
        Total length         46.3494 bohr

     Starting wfcs are  299 atomic wfcs
  @ DRIVER MODE: Message from server: STATUS
  @ DRIVER MODE: Message from server: POSDATA
  @ DRIVER MODE: Reading and sharing cell
  @ DRIVER MODE: Reading and sharing positions
  @ DRIVER MODE: Received positions

     Self-consistent Calculation

     iteration #  1     ecut=    29.40 Ry     beta= 0.05
     Davidson diagonalization with overlap
     c_bands:  1 eigenvalues not converged
     c_bands:  2 eigenvalues not converged
     c_bands:  2 eigenvalues not converged
     c_bands:  3 eigenvalues not converged
     c_bands:  3 eigenvalues not converged
     c_bands:  1 eigenvalues not converged
     c_bands:  1 eigenvalues not converged
     ethr =  1.00E-05,  avg # of iterations = 19.2

[...]

     total energy              =   -2627.20056660 Ry
     estimated scf accuracy    <    3450.20802350 Ry

[...]

     iteration #  3     ecut=    29.40 Ry     beta= 0.05
     Davidson diagonalization with overlap
     ethr =  1.00E-02,  avg # of iterations = 13.5

[...]

     iteration # 61     ecut=    29.40 Ry     beta= 0.05
     Davidson diagonalization with overlap
     c_bands:  1 eigenvalues not converged
     c_bands:  1 eigenvalues not converged
     ethr =  1.38E-10,  avg # of iterations = 10.9

[...]

     total energy              =   -2939.10934804 Ry
     estimated scf accuracy    <       0.00000018 Ry

     iteration # 64     ecut=    29.40 Ry     beta= 0.05
     Davidson diagonalization with overlap
     ethr =  4.55E-11,  avg # of iterations = 10.2

     negative rho (up, down):  1.780E-02 0.000E+00

     Adding external electric field

     Computed dipole along edir(3) :
        Dipole                1.3627 Ry au,          3.4636 Debye
        Dipole field          0.0026 Ry au,

        Potential amp.       -0.2384 Ry
        Total length         46.3494 bohr

     End of self-consistent calculation

          k = 0.0000 0.0000 0.0000 ( 18029 PWs)   bands (ev):

   -55.4873 -55.4533 -55.3943 -55.3491 -55.3375 -55.3279 -55.3053 -55.2989
   -55.2926 -55.2712 -55.2635 -55.2287 -55.1522 -54.9972 -54.4671 -54.4331
   -31.9712 -31.9223 -31.8356 -31.8078 -31.8052 -31.7793 -31.7530 -31.7320
   -31.7174 -31.6622 -31.6501 -31.6397 -31.6389 -31.6041 -31.5931 -31.5861
   -31.5702 -31.5676 -31.5524 -31.5446 -31.5107 -31.4996 -31.4993 -31.4969
   -31.4963 -31.4884 -31.4840 -31.4823 -31.4551 -31.4464 -31.4441 -31.4419
   -31.4368 -31.4288 -31.4176 -31.4120 -31.3983 -31.3757 -31.3754 -31.2499
   -31.2359 -31.2018 -30.8740 -30.7859 -30.7635 -30.6909 -30.6044 -30.4932
   -18.7968 -16.1679 -15.9663 -15.7800 -15.6498 -15.5967 -15.3616 -15.2588
   -15.2237 -15.1403 -15.0939 -15.0660 -15.0271 -15.0128 -14.9965 -14.9887
   -14.9306 -14.9119 -14.9066 -14.8755 -14.8570 -14.8335 -14.8199 -14.7299
   -14.6455 -14.6415 -14.6298 -14.6051 -14.5420 -14.1544 -13.5182 -12.9681
   -12.8516  -8.8841  -7.4135  -4.4605  -3.6899  -3.5357  -3.4270  -3.4102
    -3.3920  -3.2659  -3.1494  -2.9004  -2.8704  -2.7532  -2.6661  -2.6250
    -2.5525  -2.4775  -2.4431  -2.3853  -2.3202  -2.2975  -2.2796  -2.2466
    -2.2248  -2.2145  -2.1849  -2.0416  -2.0228  -1.9564  -1.8690  -1.8602
    -1.8022  -1.7966  -1.7762  -1.7448  -1.7374  -1.7358  -1.7152  -1.6905
    -1.6251  -1.5469  -1.5017  -1.4608  -1.3224  -1.1931  -1.1354  -1.0981
    -1.0342  -0.9588  -0.9243  -0.9087  -0.8952  -0.8788  -0.7311  -0.6830
    -0.6608  -0.6233  -0.5052  -0.4239  -0.3687  -0.3197  -0.2876  -0.2593
    -0.2382  -0.2259  -0.1895  -0.0699  -0.0023   0.0449   0.0770   0.1531
     0.2100   0.2440   0.2560   0.3204   0.3587   0.3821   0.4321   0.4704
     0.4845   0.5071   0.5402   0.5579   0.6353   0.7470   0.7701   0.7734
     0.8140   1.0033   1.0676   1.1363   1.1708   1.2975   1.3292   1.4916
     1.5566   1.6321   1.7492   2.1268   2.1726   3.6265   3.7332   3.7698
     3.8095   3.8446   3.8910   4.0897   4.1351   4.1805   4.2711

[...]

          k = 0.0380-0.0419 0.0000 ( 17876 PWs)   bands (ev):

[...]

          k =-0.0760-0.0000 0.0000 ( 17886 PWs)   bands (ev):

[...]

          k =-0.0760-0.0839 0.0000 ( 17948 PWs)   bands (ev):

   -55.4706 -55.4698 -55.3856 -55.3574 -55.3270 -55.3157 -55.3096 -55.3047
   -55.2886 -55.2874 -55.2507 -55.2416 -55.1504 -54.9989 -54.4502 -54.4499
   -31.7868 -31.7862 -31.7650 -31.7647 -31.7644 -31.7343 -31.6711 -31.6675
   -31.6529 -31.6309 -31.6242 -31.6150 -31.6041 -31.6032 -31.5937 -31.5902
   -31.5894 -31.5850 -31.5829 -31.5812 -31.5633 -31.5619 -31.5489 -31.5367
   -31.5357 -31.5169 -31.5139 -31.5121 -31.4903 -31.4886 -31.4782 -31.4660
   -31.4636 -31.4612 -31.4597 -31.4585 -31.4416 -31.3923 -31.3798 -31.2951
   -31.2521 -31.2394 -30.7763 -30.7760 -30.6870 -30.6866 -30.6478 -30.6475
   -18.7933 -15.6030 -15.5086 -15.4908 -15.4161 -15.3935 -15.2918 -15.2552
   -15.2159 -15.1911 -15.1843 -15.1523 -15.1030 -15.0892 -15.0504 -15.0389
   -15.0134 -14.9794 -14.9704 -14.9328 -14.9298 -14.9228 -14.8863 -14.8260
   -14.8089 -14.8012 -14.7992 -14.7197 -14.6147 -14.3592 -13.5375 -12.9535
   -12.9533  -8.8746  -7.3338  -4.5908  -3.6668  -2.8531  -2.7890  -2.7479
    -2.6743  -2.5953  -2.5297  -2.4894  -2.4639  -2.4065  -2.3977  -2.3439
    -2.3350  -2.3089  -2.2940  -2.2811  -2.2468  -2.2299  -2.2273  -2.1937
    -2.1868  -2.1628  -2.1363  -2.1140  -2.1030  -2.0873  -2.0718  -2.0469
    -2.0335  -2.0024  -1.9586  -1.8278  -1.7132  -1.6639  -1.6332  -1.6128
    -1.5903  -1.5590  -1.5417  -1.5298  -1.4975  -1.4558  -1.3149  -1.1760
    -1.1541  -1.0649  -1.0178  -0.9957  -0.9574  -0.9029  -0.8791  -0.8774
    -0.8195  -0.7947  -0.7090  -0.6606  -0.6195  -0.5945  -0.4620  -0.4541
    -0.4495  -0.4342  -0.4031  -0.3837  -0.3308  -0.2510  -0.2197  -0.2134
    -0.1676  -0.1651  -0.1528  -0.0115   0.0533   0.1002   0.1900   0.2365
     0.3849   0.5398   0.5638   0.5985   0.6899   0.7455   0.7867   0.8246
     0.8412   0.8926   0.9610   1.0268   1.0409   1.0932   1.1207   1.1944
     1.2461   1.9209   1.9218   1.9924   1.9927   3.9920   4.0007   4.0141
     4.0838   4.1453   4.1519   4.1849   4.1860   4.2875   4.3197

     the Fermi energy is     3.6411 ev

!    total energy              =   -2939.10937600 Ry
     estimated scf accuracy    <       0.00000006 Ry
     smearing contrib. (-TS)   =      -0.02092444 Ry
     internal energy E=F+TS    =   -2939.08845155 Ry

     The total energy is F=E-TS. E is the sum of the following terms:
     one-electron contribution =  -24575.14934920 Ry
     hartree contribution      =   12379.11537175 Ry
     xc contribution           =    -485.21477440 Ry
     ewald contribution        =    9742.15679613 Ry
     electric field correction =       0.00350417 Ry

     convergence has been achieved in  64 iterations

     Forces acting on atoms (cartesian axes, Ry/au):

     atom    1 type  1   force =     0.00005146   -0.00021781    0.09565507
     atom    2 type  1   force =    -0.00001841   -0.00052268   -0.17548088
     atom    3 type  2   force =     0.00008635   -0.00008529   -0.02327101
     atom    4 type  2   force =    -0.00003519   -0.00149549    0.05265358
     atom    5 type  2   force =    -0.01058722   -0.00050088    0.00372674
     atom    6 type  2   force =     0.01177354   -0.00007187    0.00224756
     atom    7 type  1   force =    -0.00003002   -0.00027316   -0.00807352
     atom    8 type  1   force =     0.00050060    0.01257023    0.01815971
     atom    9 type  2   force =    -0.00031402    0.00004857    0.00008298
     atom   10 type  2   force =    -0.00242997    0.00020549   -0.01639001
     atom   11 type  2   force =    -0.00032054    0.00019488    0.00004039
     atom   12 type  2   force =    -0.00044329   -0.00014333   -0.00010575
     atom   13 type  1   force =     0.00023616   -0.00008574   -0.00012334
     atom   14 type  1   force =     0.00033581    0.00007814   -0.00002247
     atom   15 type  2   force =     0.00013547    0.00040573    0.00042485
     atom   16 type  2   force =    -0.00015235   -0.00019497    0.00016252
     atom   17 type  2   force =     0.00019553   -0.00022807   -0.00029855
     atom   18 type  2   force =    -0.00025895   -0.00009147   -0.00042586
     atom   19 type  1   force =     0.00008239    0.00005277   -0.00010442
     atom   20 type  1   force =     0.00040809    0.00028191    0.00036084
     atom   21 type  2   force =     0.00005425   -0.00006459    0.10318692
     atom   22 type  2   force =     0.00003645    0.00013498   -0.00022987
     atom   23 type  2   force =    -0.07159414   -0.00015867   -0.02755846
     atom   24 type  2   force =     0.07151759    0.00028291   -0.02761643
     atom   25 type  1   force =     0.00017249   -0.00026034    0.09536006
     atom   26 type  1   force =     0.00003772   -0.00030692   -0.17587064
     atom   27 type  2   force =     0.00009024   -0.00019464   -0.02226103
     atom   28 type  2   force =    -0.00001881   -0.00114394    0.05313213
     atom   29 type  2   force =    -0.01041425   -0.00021427    0.00332224
     atom   30 type  2   force =     0.01140707    0.00019900    0.00189551
     atom   31 type  1   force =    -0.00014000    0.00482418   -0.00025149
     atom   32 type  1   force =     0.00059381   -0.01317973    0.01869309
     atom   33 type  2   force =    -0.00015033    0.00013178   -0.00007987
     atom   34 type  2   force =    -0.00060249    0.00043508   -0.01720206
     atom   35 type  2   force =    -0.00038626   -0.00014785    0.00016501
     atom   36 type  2   force =    -0.00019518   -0.00033432    0.00022796
     atom   37 type  1   force =     0.00034969   -0.00017382   -0.00011855
     atom   38 type  1   force =     0.00017181    0.00018871    0.00021702
     atom   39 type  2   force =    -0.00024787   -0.00005304    0.00027142
     atom   40 type  2   force =    -0.00014760   -0.00013117    0.00026493
     atom   41 type  2   force =     0.00010835    0.00010417   -0.00002552
     atom   42 type  2   force =     0.00007791   -0.00001845    0.00004905
     atom   43 type  1   force =    -0.00018585    0.00011994    0.00027485
     atom   44 type  1   force =     0.00036010   -0.00027945    0.00074935
     atom   45 type  2   force =     0.00006758   -0.00009426    0.10320253
     atom   46 type  2   force =    -0.07164706   -0.00011714   -0.02760417
     atom   47 type  2   force =     0.07153220    0.00026830   -0.02764588
     atom   48 type  3   force =     0.00046676   -0.00099751    0.00579736
     atom   49 type  3   force =     0.00388139    0.00145077   -0.01565041
     atom   50 type  4   force =     0.00013807   -0.00004367   -0.00083591
     atom   51 type  5   force =    -0.00004126   -0.00002657    0.00015836
     atom   52 type  5   force =     0.00098289    0.00115028    0.00037852
     atom   53 type  5   force =    -0.00549071   -0.00127671    0.00638553

     Total force =     0.366077     Total SCF correction =     0.000499
  @ DRIVER MODE: Message from server: STATUS
  @ DRIVER MODE: Message from server: GETFORCE
  @ DRIVER MODE: Returning v,forces,stress,ensemble

     Writing output data file ./calc.save/
  @ DRIVER MODE: Message from server: EXIT
  @ DRIVE MODE: Exiting

     General routines

     Parallel routines

   This run was terminated on:  13:33:33  15Sep2021

   JOB DONE.