     Program PWSCF v.6.7GPU starts on 16Sep2021 at  0:39: 8

     R & G space division:  proc/nbgrp/npool/nimage =      10
     Reading input from /storage/home/hcoda1/3/ntian30/research/carbon/CxH_vib/H2O_calc/ads_slab/CHNHHH2O_a/out_0028/pw.inp
Warning: card &CELL ignored
Warning: card   CELL_DYNAMICS='IPI', ignored
Warning: card / ignored

     Current dimensions of program PWSCF are:
     Max number of different atomic species (ntypx) = 10
     Max number of k-points (npk) =  40000
     Max angular momentum in pseudopotentials (lmaxx) =  3
     Presently no symmetry can be used with electric field

     Message from routine cell_base_init:
     DEPRECATED: use true lattice parameter, not A to a.u. conversion factor

     IMPORTANT: XC functional enforced from input :
     Exchange-correlation= BEEF-VDW
                           (   1   4  43  14   2   0   0)
     Any further DFT definition will be discarded
     Please, verify this is what you really want

  @ DRIVER MODE: Connecting to
 qe_1139763_2852629.sched-torque.pace.gatech.eduvqjyi_au_scratch
  using UNIX socket
  @ DRIVER MODE: Message from server: STATUS
  @ DRIVER MODE: Message from server: INIT
  @ DRIVER MODE: Receiving replica           0          -1
  @ DRIVER MODE: Receiving encoded integer          25
  @ DRIVER MODE:  SCF:  T  FORCE:  T  STRESS:  F  VC:  F  ENSEMBLE:  F
  @ DRIVER MODE:  SCF:  T  FORCE:  T  STRESS:  F  VC:  F  ENSEMBLE:  F

     Using Slab Decomposition

     bravais-lattice index     =            0
     lattice parameter (alat)  =       1.8897  a.u.
     unit-cell volume          =    6658.9804 (a.u.)^3
     number of atoms/cell      =           55
     number of atomic types    =            5
     number of electrons       =       398.00
     number of Kohn-Sham states=          209
     kinetic-energy cutoff     =      29.3995  Ry
     charge density cutoff     =     293.9946  Ry
     scf convergence threshold =      7.3E-08
     mixing beta               =       0.0500
     number of iterations used =            8  plain     mixing
     Exchange-correlation= BEEF-VDW
                           (   1   4  43  14   2   0   0)

     celldm(1)=   1.889726  celldm(2)=   0.000000  celldm(3)=   0.000000
     celldm(4)=   0.000000  celldm(5)=   0.000000  celldm(6)=   0.000000

     crystal axes: (cart. coord. in units of alat)
               a(1) = (   6.579727   0.000000   0.000000 )
               a(2) = (  -0.000775   5.961596   0.000000 )
               a(3) = (   0.000000   0.000000  25.155947 )

     reciprocal axes: (cart. coord. in units 2 pi/alat)
               b(1) = (  0.151982  0.000020  0.000000 )
               b(2) = (  0.000000  0.167740  0.000000 )
               b(3) = (  0.000000  0.000000  0.039752 )

     PseudoPot. # 1 for Ti read from file:
     /storage/coda1/p-amedford6/0/shared/rich_project_chbe-medford/medford-share/data/pseudos_module/espresso/nninc/pbe/van/Ti.UPF
     MD5 check sum: 8e4df49b7f0d34bbd5052bf3f5ea0213
     Pseudo is Ultrasoft, Zval = 12.0
     Generated by new atomic code, or converted to UPF format
     Using radial grid of  851 points,  6 beta functions with:
                l(1) =   0
                l(2) =   0
                l(3) =   1
                l(4) =   1
                l(5) =   2
                l(6) =   2
     Q(r) pseudized with  8 coefficients,  rinner =    1.000   1.000   1.000
                                                       1.000   1.000

     PseudoPot. # 2 for O  read from file:
     /storage/coda1/p-amedford6/0/shared/rich_project_chbe-medford/medford-share/data/pseudos_module/espresso/nninc/pbe/van/O.UPF
     MD5 check sum: 78c19812648e8988a0fe644b0f25305e
     Pseudo is Ultrasoft, Zval =  6.0
     Generated by new atomic code, or converted to UPF format
     Using radial grid of  737 points,  4 beta functions with:
                l(1) =   0
                l(2) =   0
                l(3) =   1
                l(4) =   1
     Q(r) pseudized with  8 coefficients,  rinner =    0.800   0.800   0.800

     PseudoPot. # 3 for N  read from file:
     /storage/coda1/p-amedford6/0/shared/rich_project_chbe-medford/medford-share/data/pseudos_module/espresso/nninc/pbe/van/N.UPF
     MD5 check sum: 90d10febe142ad51ac9d5be1deb811c4
     Pseudo is Ultrasoft, Zval =  5.0
     Generated by new atomic code, or converted to UPF format
     Using radial grid of  729 points,  4 beta functions with:
                l(1) =   0
                l(2) =   0
                l(3) =   1
                l(4) =   1
     Q(r) pseudized with  8 coefficients,  rinner =    0.800   0.800   0.800

     PseudoPot. # 4 for C  read from file:
     /storage/coda1/p-amedford6/0/shared/rich_project_chbe-medford/medford-share/data/pseudos_module/espresso/nninc/pbe/van/C.UPF
     MD5 check sum: 1a69bf6b8db32088f5b2163dbdb77a27
     Pseudo is Ultrasoft, Zval =  4.0
     Generated by new atomic code, or converted to UPF format
     Using radial grid of  721 points,  4 beta functions with:
                l(1) =   0
                l(2) =   0
                l(3) =   1
                l(4) =   1
     Q(r) pseudized with  8 coefficients,  rinner =    0.800   0.800   0.800

     PseudoPot. # 5 for H  read from file:
     /storage/coda1/p-amedford6/0/shared/rich_project_chbe-medford/medford-share/data/pseudos_module/espresso/nninc/pbe/van/H.UPF
     MD5 check sum: b5ee9d7bfd3a09ee7748110bda690ff7
     Pseudo is Ultrasoft, Zval =  1.0
     Generated by new atomic code, or converted to UPF format
     Using radial grid of  615 points,  1 beta functions with:
                l(1) =   0
     Q(r) pseudized with  8 coefficients,  rinner =    0.800

     atomic species   valence    mass     pseudopotential
        Ti1           12.00    47.86700     Ti( 1.00)
        O1             6.00    15.99900     O ( 1.00)
        N1             5.00    14.00700     N ( 1.00)
        C1             4.00    12.01100     C ( 1.00)
        H1             1.00     1.00800     H ( 1.00)

     No symmetry found

   Cartesian axes

     site n.     atom                  positions (alat units)
         1           Ti1 tau(   1) = (   0.0004258   2.9801865   6.0000000  )
         2           Ti1 tau(   2) = (   3.2906075   1.4906267   6.0002472  )
         3           O1  tau(   3) = (   0.0006271   0.0005054   7.9858123  )
         4           O1  tau(   4) = (   3.2906025   0.0005020   7.3038282  )
         5           O1  tau(   5) = (   4.5942328   1.4918067   9.2879030  )
         6           O1  tau(   6) = (   1.9868534   1.4903216   9.2879459  )
         7           Ti1 tau(   7) = (   3.2907910   2.8959150   9.1758416  )
         8           Ti1 tau(   8) = (   0.0015273   1.4827037   9.2680791  )
         9           O1  tau(   9) = (   3.2943807   5.9438157  11.3430345  )
        10           O1  tau(  10) = (   0.0116148   5.9584955  10.6183126  )
        11           O1  tau(  11) = (   1.2953376   1.4759649  12.6292060  )
        12           O1  tau(  12) = (   5.2846356   1.4785235  12.6176154  )
        13           Ti1 tau(  13) = (   0.0556596   2.9564334  12.6140783  )
        14           Ti1 tau(  14) = (   3.3658323   1.4657407  12.4949608  )
        15           O1  tau(  15) = (   6.5664030   0.0209144  14.6477191  )
        16           O1  tau(  16) = (   3.3113265   5.9542485  13.9698242  )
        17           O1  tau(  17) = (   4.5454210   1.5146250  16.1225105  )
        18           O1  tau(  18) = (   2.0305911   1.5113983  16.0894517  )
        19           Ti1 tau(  19) = (   3.2587399   2.9544808  15.6767922  )
        20           Ti1 tau(  20) = (   6.5654577   1.5458692  15.9193722  )
        21           O1  tau(  21) = (   3.2904802   0.0005063   4.7018136  )
        22           O1  tau(  22) = (   0.0418464   5.8849155  17.2380659  )
        23           O1  tau(  23) = (   1.3043587   1.4918075   6.0039043  )
        24           O1  tau(  24) = (   5.2767064   1.4903225   6.0039473  )
        25           Ti1 tau(  25) = (   0.0000382   5.9609847   6.0000000  )
        26           Ti1 tau(  26) = (   3.2902200   4.4714249   6.0002472  )
        27           O1  tau(  27) = (   0.0002396   2.9813036   7.9858123  )
        28           O1  tau(  28) = (   3.2902150   2.9813002   7.3038282  )
        29           O1  tau(  29) = (   4.5938453   4.4726049   9.2879030  )
        30           O1  tau(  30) = (   1.9864658   4.4711199   9.2879459  )
        31           Ti1 tau(  31) = (   3.2891106   5.8743827   9.1763621  )
        32           Ti1 tau(  32) = (   0.0006254   4.4649316   9.2693709  )
        33           O1  tau(  33) = (   3.2978316   2.9705197  11.3397625  )
        34           O1  tau(  34) = (   0.0092240   2.9805883  10.6323155  )
        35           O1  tau(  35) = (   1.2936985   4.4655287  12.6460247  )
        36           O1  tau(  36) = (   5.2856521   4.4646452  12.6308247  )
        37           Ti1 tau(  37) = (   0.0515089   5.9379728  12.5308627  )
        38           Ti1 tau(  38) = (   3.3654372   4.4547101  12.4935900  )
        39           O1  tau(  39) = (   6.5748852   2.9443291  14.6951209  )
        40           O1  tau(  40) = (   3.2957406   2.9584624  13.8938737  )
        41           O1  tau(  41) = (   4.5486474   4.4154460  16.0876977  )
        42           O1  tau(  42) = (   2.0388008   4.4257786  16.0448984  )
        43           Ti1 tau(  43) = (   3.3137362   5.9209902  15.7922403  )
        44           Ti1 tau(  44) = (   0.0032603   4.6697478  15.9558853  )
        45           O1  tau(  45) = (   3.2900926   2.9813045   4.7018136  )
        46           O1  tau(  46) = (   1.3039711   4.4726057   6.0039043  )
        47           O1  tau(  47) = (   5.2763189   4.4711207   6.0039473  )
        48           N1  tau(  48) = (   5.6270067   3.1633449  18.6203826  )
        49           C1  tau(  49) = (   0.0237924   2.7940403  17.7774691  )
        50           H1  tau(  50) = (   0.9584034   2.6460975  18.3247808  )
        51           H1  tau(  51) = (   4.7713523   3.5531088  18.2436842  )
        52           H1  tau(  52) = (   5.8168525   3.4266350  19.5804594  )
        53           O1  tau(  53) = (   3.2115967   5.9081562  18.2546127  )
        54           H1  tau(  54) = (   3.8106726   0.6855978  18.4519937  )
        55           H1  tau(  55) = (   2.3006756   0.2828797  18.3268221  )

     number of k points=    10  Fermi-Dirac smearing, width (Ry)=  0.0073
                       cart. coord. in units 2pi/alat
        k(    1) = (   0.0000000   0.0000000   0.0000000), wk =   0.1250000
        k(    2) = (   0.0000000   0.0419351   0.0000000), wk =   0.2500000
        k(    3) = (   0.0000000  -0.0838702   0.0000000), wk =   0.1250000
        k(    4) = (   0.0379955   0.0000049   0.0000000), wk =   0.2500000
        k(    5) = (   0.0379955   0.0419400   0.0000000), wk =   0.2500000
        k(    6) = (   0.0379955  -0.0838652   0.0000000), wk =   0.2500000
        k(    7) = (   0.0379955  -0.0419301   0.0000000), wk =   0.2500000
        k(    8) = (  -0.0759910  -0.0000099   0.0000000), wk =   0.1250000
        k(    9) = (  -0.0759910   0.0419252   0.0000000), wk =   0.2500000
        k(   10) = (  -0.0759910  -0.0838800   0.0000000), wk =   0.1250000

     Initial potential from superposition of free atoms

     starting charge  381.99915, renormalised to  398.00000

     negative rho (up, down):  1.708E-02 0.000E+00

     %%%%%%%%%%%%%%%%%%%%%%%%%%%%%%%%%%%%%%%%%%%%%%%%%%%%%%%%%%%%%%%%%%%%%%%%
     %                                                                      %
     % You are using vdW-DF, which was implemented by the Thonhauser group. %
     % Please cite the following two papers that made this development      %
     % possible and the two reviews that describe the various versions:     %
     %                                                                      %
     %   T. Thonhauser et al., PRL 115, 136402 (2015).                      %
     %   T. Thonhauser et al., PRB 76, 125112 (2007).                       %
     %   K. Berland et al., Rep. Prog. Phys. 78, 066501 (2015).             %
     %   D.C. Langreth et al., J. Phys.: Condens. Matter 21, 084203 (2009). %
     %                                                                      %
     %                                                                      %
     % If you are calculating the stress with vdW-DF, please also cite:     %
     %                                                                      %
     %   R. Sabatini et al., J. Phys.: Condens. Matter 24, 424209 (2012).   %
     %                                                                      %
     %%%%%%%%%%%%%%%%%%%%%%%%%%%%%%%%%%%%%%%%%%%%%%%%%%%%%%%%%%%%%%%%%%%%%%%%

     Adding external electric field

     Computed dipole along edir(3) :
        Dipole              -10.1352 Ry au,        -25.7611 Debye
        Dipole field         -0.0191 Ry au,

        Potential amp.        1.7730 Ry
        Total length         46.3494 bohr

     Starting wfcs are  301 atomic wfcs
  @ DRIVER MODE: Message from server: STATUS
  @ DRIVER MODE: Message from server: POSDATA
  @ DRIVER MODE: Reading and sharing cell
  @ DRIVER MODE: Reading and sharing positions
  @ DRIVER MODE: Received positions

     Self-consistent Calculation

     iteration #  1     ecut=    29.40 Ry     beta= 0.05
     Davidson diagonalization with overlap
     c_bands:  2 eigenvalues not converged
     c_bands:  1 eigenvalues not converged
     c_bands:  1 eigenvalues not converged
     c_bands:  3 eigenvalues not converged
     c_bands:  1 eigenvalues not converged
     c_bands:  3 eigenvalues not converged
     c_bands:  3 eigenvalues not converged
     c_bands:  3 eigenvalues not converged
     c_bands:  1 eigenvalues not converged
     ethr =  1.00E-05,  avg # of iterations = 19.8

[...]

     total energy              =   -2497.71745761 Ry
     estimated scf accuracy    <    5094.10115523 Ry

     iteration #  2     ecut=    29.40 Ry     beta= 0.05
     Davidson diagonalization with overlap
     ethr =  1.00E-02,  avg # of iterations = 25.1

[...]

     iteration # 52     ecut=    29.40 Ry     beta= 0.05
     Davidson diagonalization with overlap
     c_bands:  1 eigenvalues not converged
     ethr =  1.40E-09,  avg # of iterations = 11.5

[...]

     total energy              =   -2953.88251721 Ry
     estimated scf accuracy    <       0.00000011 Ry

     iteration # 62     ecut=    29.40 Ry     beta= 0.05
     Davidson diagonalization with overlap
     ethr =  2.80E-11,  avg # of iterations = 12.5

     negative rho (up, down):  1.666E-02 0.000E+00

     Adding external electric field

     Computed dipole along edir(3) :
        Dipole                1.2934 Ry au,          3.2875 Debye
        Dipole field          0.0024 Ry au,

        Potential amp.       -0.2263 Ry
        Total length         46.3494 bohr

     End of self-consistent calculation

          k = 0.0000 0.0000 0.0000 ( 18029 PWs)   bands (ev):

   -55.4436 -55.4372 -55.4177 -55.4095 -55.4011 -55.2998 -55.2579 -55.2515
   -55.2360 -55.2340 -55.2169 -55.2006 -54.8598 -54.7676 -54.4300 -54.3960
   -31.9932 -31.9275 -31.8187 -31.7948 -31.7542 -31.7503 -31.7350 -31.7246
   -31.6862 -31.6849 -31.6549 -31.6389 -31.6278 -31.6173 -31.5965 -31.5838
   -31.5746 -31.5493 -31.5451 -31.5098 -31.5014 -31.4985 -31.4643 -31.4528
   -31.4465 -31.4441 -31.4359 -31.4352 -31.4349 -31.4092 -31.4089 -31.4034
   -31.3866 -31.3827 -31.3583 -31.3507 -31.3436 -31.1918 -31.0773 -31.0253
   -30.9659 -30.9295 -30.8375 -30.7482 -30.7258 -30.6542 -30.5677 -30.4566
   -19.0617 -16.4504 -16.2008 -15.9396 -15.7555 -15.6267 -15.5994 -15.4254
   -15.2905 -15.1885 -15.1262 -15.0696 -15.0492 -15.0017 -14.9988 -14.9870
   -14.9841 -14.9531 -14.9049 -14.8841 -14.8643 -14.8229 -14.8138 -14.7970
   -14.7478 -14.7087 -14.6143 -14.5825 -14.5562 -14.5160 -14.0317 -12.9322
   -12.8156  -9.0173  -6.8691  -6.6685  -4.2578  -3.5718  -3.4096  -3.3554
    -3.3452  -3.3211  -3.2310  -3.0924  -2.9547  -2.7218  -2.6596  -2.6238
    -2.5913  -2.5540  -2.4373  -2.3868  -2.3747  -2.3093  -2.2623  -2.2541
    -2.2412  -2.2199  -2.2046  -2.1439  -2.1309  -2.0296  -1.9881  -1.9182
    -1.8576  -1.8261  -1.7751  -1.7605  -1.7168  -1.7136  -1.6986  -1.6797
    -1.6660  -1.6501  -1.5915  -1.5307  -1.4528  -1.2679  -1.2351  -1.1191
    -1.0902  -1.0589  -1.0150  -0.9312  -0.9044  -0.8822  -0.8427  -0.7518
    -0.7260  -0.6791  -0.5905  -0.5008  -0.4541  -0.4290  -0.3495  -0.3146
    -0.2860  -0.2196  -0.2122  -0.2006  -0.1246  -0.0701   0.0376   0.0739
     0.1083   0.1239   0.1387   0.2229   0.2614   0.3190   0.3629   0.4154
     0.4518   0.4666   0.5032   0.5238   0.5387   0.5658   0.5777   0.7603
     0.8016   0.8307   0.8613   0.9467   1.0480   1.1148   1.1982   1.2677
     1.5150   1.5925   1.6453   1.7829   2.1646   2.2109   3.6274   3.7561
     3.7743   3.7927   3.8239   3.8866   3.9496   4.1386   4.1612   4.1825
     4.2107

[...]

          k = 0.0380-0.0419 0.0000 ( 17876 PWs)   bands (ev):

[...]

          k =-0.0760-0.0000 0.0000 ( 17886 PWs)   bands (ev):

[...]

          k =-0.0760-0.0839 0.0000 ( 17948 PWs)   bands (ev):

   -55.4271 -55.4259 -55.4208 -55.4176 -55.4156 -55.2909 -55.2667 -55.2376
   -55.2363 -55.2313 -55.2191 -55.2161 -54.8567 -54.7707 -54.4130 -54.4129
   -31.8027 -31.7920 -31.7431 -31.7423 -31.7274 -31.7209 -31.7198 -31.7033
   -31.6882 -31.6472 -31.6397 -31.6345 -31.6244 -31.6061 -31.5704 -31.5600
   -31.5555 -31.5554 -31.5529 -31.5471 -31.5466 -31.5459 -31.5424 -31.5035
   -31.4825 -31.4768 -31.4656 -31.4519 -31.4467 -31.4426 -31.4407 -31.4405
   -31.4336 -31.4303 -31.4114 -31.4060 -31.2526 -31.1936 -31.0706 -31.0433
   -31.0264 -30.9660 -30.7385 -30.7384 -30.6503 -30.6501 -30.6110 -30.6109
   -19.0607 -16.4399 -15.6907 -15.5615 -15.4329 -15.3752 -15.3698 -15.3111
   -15.3071 -15.1934 -15.1839 -15.1556 -15.1306 -15.1136 -15.0855 -15.0661
   -15.0044 -14.9839 -14.9804 -14.9502 -14.9211 -14.9082 -14.9035 -14.8886
   -14.8848 -14.8307 -14.7747 -14.7716 -14.6605 -14.5577 -14.1883 -12.9175
   -12.9172  -9.0269  -6.8547  -6.6859  -4.2252  -3.2357  -2.9749  -2.7937
    -2.6882  -2.6321  -2.5688  -2.5501  -2.3838  -2.3688  -2.3589  -2.3218
    -2.3054  -2.2843  -2.2739  -2.2691  -2.2428  -2.2308  -2.2128  -2.1810
    -2.1480  -2.1299  -2.1217  -2.1155  -2.0990  -2.0803  -2.0575  -2.0360
    -2.0323  -2.0054  -1.9652  -1.9425  -1.8814  -1.7463  -1.7095  -1.6690
    -1.5990  -1.5925  -1.5386  -1.5228  -1.4957  -1.4681  -1.4043  -1.3812
    -1.2316  -1.1688  -1.1527  -1.1367  -1.1222  -1.0006  -0.9599  -0.8910
    -0.8645  -0.7951  -0.7648  -0.7528  -0.7064  -0.6047  -0.5920  -0.5400
    -0.5285  -0.4315  -0.4090  -0.3978  -0.3628  -0.3182  -0.2500  -0.2092
    -0.1945  -0.1848  -0.1515  -0.1445  -0.1042   0.0160   0.0760   0.1374
     0.2089   0.3105   0.4241   0.4361   0.5847   0.6112   0.6252   0.7308
     0.8168   0.8476   0.8676   0.8959   0.8981   1.0228   1.0701   1.0799
     1.0814   1.2321   1.9546   1.9560   2.0304   2.0309   3.7352   3.9358
     3.9569   3.9989   4.0454   4.1769   4.1858   4.2201   4.2213   4.3053
     4.3400

     the Fermi energy is     3.6869 ev

!    total energy              =   -2953.88256135 Ry
     estimated scf accuracy    <       0.00000003 Ry
     smearing contrib. (-TS)   =      -0.03289797 Ry
     internal energy E=F+TS    =   -2953.84966337 Ry

     The total energy is F=E-TS. E is the sum of the following terms:
     one-electron contribution =  -24258.42432110 Ry
     hartree contribution      =   12222.76194975 Ry
     xc contribution           =    -488.84132835 Ry
     ewald contribution        =    9570.65087936 Ry
     electric field correction =       0.00315697 Ry

     convergence has been achieved in  62 iterations

     Forces acting on atoms (cartesian axes, Ry/au):

     atom    1 type  1   force =     0.00021025   -0.00020377    0.09615135
     atom    2 type  1   force =    -0.00010959   -0.00027761   -0.17608164
     atom    3 type  2   force =     0.00002820    0.00001832   -0.02489830
     atom    4 type  2   force =     0.00003365   -0.00160026    0.05415146
     atom    5 type  2   force =    -0.01178476   -0.00148329    0.00427752
     atom    6 type  2   force =     0.01354922   -0.00070625    0.00348532
     atom    7 type  1   force =    -0.00084100    0.00087656   -0.01027205
     atom    8 type  1   force =     0.00025126    0.01222879    0.02352437
     atom    9 type  2   force =    -0.00035794   -0.00008607   -0.00023730
     atom   10 type  2   force =    -0.00088073   -0.00045257   -0.01483014
     atom   11 type  2   force =     0.00041631    0.00008303    0.00018633
     atom   12 type  2   force =    -0.00039669   -0.00007667    0.00003708
     atom   13 type  1   force =    -0.00065405   -0.00006915   -0.00156989
     atom   14 type  1   force =     0.00058019    0.00018832    0.00034297
     atom   15 type  2   force =     0.00058806    0.00042568    0.00007766
     atom   16 type  2   force =    -0.00028456    0.00006061    0.00035449
     atom   17 type  2   force =    -0.00016629   -0.00026628   -0.00044435
     atom   18 type  2   force =     0.00011070   -0.00011577   -0.00006621
     atom   19 type  1   force =     0.00081539    0.00005094    0.00060816
     atom   20 type  1   force =    -0.00042978   -0.00058642    0.00026377
     atom   21 type  2   force =     0.00006165    0.00004486    0.10335082
     atom   22 type  2   force =     0.00038784    0.00073282   -0.00027240
     atom   23 type  2   force =    -0.07131902   -0.00007842   -0.02765911
     atom   24 type  2   force =     0.07127787    0.00035839   -0.02769523
     atom   25 type  1   force =    -0.00006296   -0.00014300    0.09567188
     atom   26 type  1   force =    -0.00020120   -0.00031403   -0.17602383
     atom   27 type  2   force =     0.00012470   -0.00040221   -0.02390594
     atom   28 type  2   force =     0.00009680   -0.00126681    0.05361656
     atom   29 type  2   force =    -0.01201624    0.00045233    0.00380385
     atom   30 type  2   force =     0.01366112    0.00069650    0.00308424
     atom   31 type  1   force =    -0.00061280    0.00370885   -0.01330653
     atom   32 type  1   force =     0.00020569   -0.01325262    0.02339249
     atom   33 type  2   force =    -0.00007804   -0.00005531   -0.00029430
     atom   34 type  2   force =    -0.00008562    0.00021948   -0.01830365
     atom   35 type  2   force =     0.00033862   -0.00048645    0.00025523
     atom   36 type  2   force =    -0.00030831   -0.00016290    0.00011829
     atom   37 type  1   force =    -0.00083666   -0.00023634   -0.00008570
     atom   38 type  1   force =     0.00046955    0.00009127    0.00067581
     atom   39 type  2   force =    -0.00002158    0.00080996   -0.00002404
     atom   40 type  2   force =    -0.00023247   -0.00018355   -0.00063818
     atom   41 type  2   force =     0.00032629    0.00046352    0.00000203
     atom   42 type  2   force =    -0.00079082    0.00018596    0.00006666
     atom   43 type  1   force =     0.00078744    0.00014654   -0.00004040
     atom   44 type  1   force =    -0.00040616   -0.00091360    0.00044408
     atom   45 type  2   force =     0.00005864    0.00003567    0.10330669
     atom   46 type  2   force =    -0.07130305   -0.00002040   -0.02762728
     atom   47 type  2   force =     0.07125225    0.00040255   -0.02764872
     atom   48 type  3   force =    -0.00025796    0.00274273    0.00365790
     atom   49 type  4   force =     0.00002244    0.00061941   -0.00030689
     atom   50 type  5   force =     0.00070635    0.00018226    0.00090799
     atom   51 type  5   force =     0.00051514    0.00027550   -0.00042299
     atom   52 type  5   force =    -0.00021586   -0.00144548   -0.00345089
     atom   53 type  2   force =    -0.00148478   -0.00110972   -0.00067677
     atom   54 type  5   force =    -0.00072727    0.00082709    0.00049800
     atom   55 type  5   force =    -0.00000941   -0.00093297    0.00046974

     Total force =     0.367670     Total SCF correction =     0.000583
  @ DRIVER MODE: Message from server: STATUS
  @ DRIVER MODE: Message from server: GETFORCE
  @ DRIVER MODE: Returning v,forces,stress,ensemble

     Writing output data file ./calc.save/
  @ DRIVER MODE: Message from server: EXIT
  @ DRIVE MODE: Exiting

     General routines

     Parallel routines

   This run was terminated on:   0:55:55  16Sep2021

   JOB DONE.