     Program PWSCF v.6.7GPU starts on 24Sep2021 at  2:15:57

     R & G space division:  proc/nbgrp/npool/nimage =       8
     Reading input from /storage/home/hcoda1/3/ntian30/research/carbon/CxH_vib/H2O_calc/ads_slab/CH3NHNH2HO_a/out_0032/pw.inp
Warning: card &CELL ignored
Warning: card   CELL_DYNAMICS='IPI', ignored
Warning: card / ignored

     Current dimensions of program PWSCF are:
     Max number of different atomic species (ntypx) = 10
     Max number of k-points (npk) =  40000
     Max angular momentum in pseudopotentials (lmaxx) =  3
     Presently no symmetry can be used with electric field

     Message from routine cell_base_init:
     DEPRECATED: use true lattice parameter, not A to a.u. conversion factor

     IMPORTANT: XC functional enforced from input :
     Exchange-correlation= BEEF-VDW
                           (   1   4  43  14   2   0   0)
     Any further DFT definition will be discarded
     Please, verify this is what you really want

  @ DRIVER MODE: Connecting to
 qe_1139763_2947307.sched-torque.pace.gatech.edubdmnvkoc_scratch
  using UNIX socket
  @ DRIVER MODE: Message from server: STATUS
  @ DRIVER MODE: Message from server: INIT
  @ DRIVER MODE: Receiving replica           0          -1
  @ DRIVER MODE: Receiving encoded integer          25
  @ DRIVER MODE:  SCF:  T  FORCE:  T  STRESS:  F  VC:  F  ENSEMBLE:  F
  @ DRIVER MODE:  SCF:  T  FORCE:  T  STRESS:  F  VC:  F  ENSEMBLE:  F

     Using Slab Decomposition

     bravais-lattice index     =            0
     lattice parameter (alat)  =       1.8897  a.u.
     unit-cell volume          =    6658.9804 (a.u.)^3
     number of atoms/cell      =           58
     number of atomic types    =            5
     number of electrons       =       405.00
     number of Kohn-Sham states=          212
     kinetic-energy cutoff     =      29.3995  Ry
     charge density cutoff     =     293.9946  Ry
     scf convergence threshold =      7.3E-08
     mixing beta               =       0.0500
     number of iterations used =            8  plain     mixing
     Exchange-correlation= BEEF-VDW
                           (   1   4  43  14   2   0   0)

     celldm(1)=   1.889726  celldm(2)=   0.000000  celldm(3)=   0.000000
     celldm(4)=   0.000000  celldm(5)=   0.000000  celldm(6)=   0.000000

     crystal axes: (cart. coord. in units of alat)
               a(1) = (   6.579727   0.000000   0.000000 )
               a(2) = (  -0.000775   5.961596   0.000000 )
               a(3) = (   0.000000   0.000000  25.155947 )

     reciprocal axes: (cart. coord. in units 2 pi/alat)
               b(1) = (  0.151982  0.000020  0.000000 )
               b(2) = (  0.000000  0.167740  0.000000 )
               b(3) = (  0.000000  0.000000  0.039752 )

     PseudoPot. # 1 for Ti read from file:
     /storage/coda1/p-amedford6/0/shared/rich_project_chbe-medford/medford-share/data/pseudos_module/espresso/nninc/pbe/van/Ti.UPF
     MD5 check sum: 8e4df49b7f0d34bbd5052bf3f5ea0213
     Pseudo is Ultrasoft, Zval = 12.0
     Generated by new atomic code, or converted to UPF format
     Using radial grid of  851 points,  6 beta functions with:
                l(1) =   0
                l(2) =   0
                l(3) =   1
                l(4) =   1
                l(5) =   2
                l(6) =   2
     Q(r) pseudized with  8 coefficients,  rinner =    1.000   1.000   1.000
                                                       1.000   1.000

     PseudoPot. # 2 for O  read from file:
     /storage/coda1/p-amedford6/0/shared/rich_project_chbe-medford/medford-share/data/pseudos_module/espresso/nninc/pbe/van/O.UPF
     MD5 check sum: 78c19812648e8988a0fe644b0f25305e
     Pseudo is Ultrasoft, Zval =  6.0
     Generated by new atomic code, or converted to UPF format
     Using radial grid of  737 points,  4 beta functions with:
                l(1) =   0
                l(2) =   0
                l(3) =   1
                l(4) =   1
     Q(r) pseudized with  8 coefficients,  rinner =    0.800   0.800   0.800

     PseudoPot. # 3 for N  read from file:
     /storage/coda1/p-amedford6/0/shared/rich_project_chbe-medford/medford-share/data/pseudos_module/espresso/nninc/pbe/van/N.UPF
     MD5 check sum: 90d10febe142ad51ac9d5be1deb811c4
     Pseudo is Ultrasoft, Zval =  5.0
     Generated by new atomic code, or converted to UPF format
     Using radial grid of  729 points,  4 beta functions with:
                l(1) =   0
                l(2) =   0
                l(3) =   1
                l(4) =   1
     Q(r) pseudized with  8 coefficients,  rinner =    0.800   0.800   0.800

     PseudoPot. # 4 for C  read from file:
     /storage/coda1/p-amedford6/0/shared/rich_project_chbe-medford/medford-share/data/pseudos_module/espresso/nninc/pbe/van/C.UPF
     MD5 check sum: 1a69bf6b8db32088f5b2163dbdb77a27
     Pseudo is Ultrasoft, Zval =  4.0
     Generated by new atomic code, or converted to UPF format
     Using radial grid of  721 points,  4 beta functions with:
                l(1) =   0
                l(2) =   0
                l(3) =   1
                l(4) =   1
     Q(r) pseudized with  8 coefficients,  rinner =    0.800   0.800   0.800

     PseudoPot. # 5 for H  read from file:
     /storage/coda1/p-amedford6/0/shared/rich_project_chbe-medford/medford-share/data/pseudos_module/espresso/nninc/pbe/van/H.UPF
     MD5 check sum: b5ee9d7bfd3a09ee7748110bda690ff7
     Pseudo is Ultrasoft, Zval =  1.0
     Generated by new atomic code, or converted to UPF format
     Using radial grid of  615 points,  1 beta functions with:
                l(1) =   0
     Q(r) pseudized with  8 coefficients,  rinner =    0.800

     atomic species   valence    mass     pseudopotential
        Ti1           12.00    47.86700     Ti( 1.00)
        O1             6.00    15.99900     O ( 1.00)
        N1             5.00    14.00700     N ( 1.00)
        C1             4.00    12.01100     C ( 1.00)
        H1             1.00     1.00800     H ( 1.00)

     No symmetry found

   Cartesian axes

     site n.     atom                  positions (alat units)
         1           Ti1 tau(   1) = (   0.0004258   2.9801865   6.0000000  )
         2           Ti1 tau(   2) = (   3.2906075   1.4906267   6.0002472  )
         3           O1  tau(   3) = (   0.0006271   0.0005054   7.9858123  )
         4           O1  tau(   4) = (   3.2906025   0.0005020   7.3038282  )
         5           O1  tau(   5) = (   4.5942328   1.4918067   9.2879030  )
         6           O1  tau(   6) = (   1.9868534   1.4903216   9.2879459  )
         7           Ti1 tau(   7) = (   3.2907910   2.8959150   9.1758416  )
         8           Ti1 tau(   8) = (   0.0015273   1.4827037   9.2680791  )
         9           O1  tau(   9) = (   3.3003128   0.0493987  11.3625472  )
        10           O1  tau(  10) = (   0.0116148   5.9584955  10.6183126  )
        11           O1  tau(  11) = (   1.2863924   1.5188706  12.6959087  )
        12           O1  tau(  12) = (   5.3173592   1.5183023  12.6957539  )
        13           Ti1 tau(  13) = (   0.0130489   2.9571150  12.5182267  )
        14           Ti1 tau(  14) = (   3.3124343   1.5987737  12.4587140  )
        15           O1  tau(  15) = (   0.0455642   5.8537743  14.6515032  )
        16           O1  tau(  16) = (   3.3135256   5.8999501  14.0036581  )
        17           O1  tau(  17) = (   4.5824137   1.5787328  16.0473457  )
        18           O1  tau(  18) = (   2.0456054   1.5356268  16.0652349  )
        19           Ti1 tau(  19) = (   3.2855744   2.9948502  15.7047272  )
        20           Ti1 tau(  20) = (   0.0729980   1.3194477  15.7501807  )
        21           O1  tau(  21) = (   3.2904802   0.0005063   4.7018136  )
        22           O1  tau(  22) = (   6.5643345   0.1786488  17.1561759  )
        23           O1  tau(  23) = (   1.3043587   1.4918075   6.0039043  )
        24           O1  tau(  24) = (   5.2767064   1.4903225   6.0039473  )
        25           Ti1 tau(  25) = (   0.0000382   5.9609847   6.0000000  )
        26           Ti1 tau(  26) = (   3.2902200   4.4714249   6.0002472  )
        27           O1  tau(  27) = (   0.0002396   2.9813036   7.9858123  )
        28           O1  tau(  28) = (   3.2902150   2.9813002   7.3038282  )
        29           O1  tau(  29) = (   4.5938453   4.4726049   9.2879030  )
        30           O1  tau(  30) = (   1.9864658   4.4711199   9.2879459  )
        31           Ti1 tau(  31) = (   3.2891106   5.8743827   9.1763621  )
        32           Ti1 tau(  32) = (   0.0006254   4.4649316   9.2693709  )
        33           O1  tau(  33) = (   3.3044115   2.9646987  11.3227374  )
        34           O1  tau(  34) = (   0.0092240   2.9805883  10.6323155  )
        35           O1  tau(  35) = (   1.2889249   4.4812606  12.6373974  )
        36           O1  tau(  36) = (   5.3198440   4.4849614  12.6453916  )
        37           Ti1 tau(  37) = (   0.0274371   5.9167426  12.5032498  )
        38           Ti1 tau(  38) = (   3.3124303   4.6827448  12.7121475  )
        39           O1  tau(  39) = (   0.0064664   3.0605765  14.9143048  )
        40           O1  tau(  40) = (   3.2921723   3.0190953  13.9337278  )
        41           O1  tau(  41) = (   4.5343043   4.4484976  16.2223827  )
        42           O1  tau(  42) = (   2.0055671   4.4324605  16.2273083  )
        43           Ti1 tau(  43) = (   3.3963104   0.0511244  16.3072024  )
        44           Ti1 tau(  44) = (   0.1011521   4.5293608  16.0606835  )
        45           O1  tau(  45) = (   3.2900926   2.9813045   4.7018136  )
        46           O1  tau(  46) = (   1.3039711   4.4726057   6.0039043  )
        47           O1  tau(  47) = (   5.2763189   4.4711207   6.0039473  )
        48           N1  tau(  48) = (   0.7799224   3.1460235  19.0808133  )
        49           N1  tau(  49) = (   6.3029119   3.3142126  18.0946246  )
        50           C1  tau(  50) = (   0.9829876   4.3811599  19.8296872  )
        51           H1  tau(  51) = (   0.0599524   4.7630682  20.2995108  )
        52           H1  tau(  52) = (   1.7087173   4.1728717  20.6153690  )
        53           H1  tau(  53) = (   1.3878604   5.1510331  19.1745456  )
        54           H1  tau(  54) = (   0.4845774   2.4057476  19.7140978  )
        55           H1  tau(  55) = (   5.5451363   3.8924421  18.4761980  )
        56           H1  tau(  56) = (   5.8791802   2.3931312  17.9634808  )
        57           O1  tau(  57) = (   3.3895457   0.1916509  18.1699706  )
        58           H1  tau(  58) = (   3.8128180   5.4341384  18.6581559  )

     number of k points=    10  Fermi-Dirac smearing, width (Ry)=  0.0073
                       cart. coord. in units 2pi/alat
        k(    1) = (   0.0000000   0.0000000   0.0000000), wk =   0.1250000
        k(    2) = (   0.0000000   0.0419351   0.0000000), wk =   0.2500000
        k(    3) = (   0.0000000  -0.0838702   0.0000000), wk =   0.1250000
        k(    4) = (   0.0379955   0.0000049   0.0000000), wk =   0.2500000
        k(    5) = (   0.0379955   0.0419400   0.0000000), wk =   0.2500000
        k(    6) = (   0.0379955  -0.0838652   0.0000000), wk =   0.2500000
        k(    7) = (   0.0379955  -0.0419301   0.0000000), wk =   0.2500000
        k(    8) = (  -0.0759910  -0.0000099   0.0000000), wk =   0.1250000
        k(    9) = (  -0.0759910   0.0419252   0.0000000), wk =   0.2500000
        k(   10) = (  -0.0759910  -0.0838800   0.0000000), wk =   0.1250000

     Initial potential from superposition of free atoms

     starting charge  388.99913, renormalised to  405.00000

     negative rho (up, down):  1.368E-02 0.000E+00

     %%%%%%%%%%%%%%%%%%%%%%%%%%%%%%%%%%%%%%%%%%%%%%%%%%%%%%%%%%%%%%%%%%%%%%%%
     %                                                                      %
     % You are using vdW-DF, which was implemented by the Thonhauser group. %
     % Please cite the following two papers that made this development      %
     % possible and the two reviews that describe the various versions:     %
     %                                                                      %
     %   T. Thonhauser et al., PRL 115, 136402 (2015).                      %
     %   T. Thonhauser et al., PRB 76, 125112 (2007).                       %
     %   K. Berland et al., Rep. Prog. Phys. 78, 066501 (2015).             %
     %   D.C. Langreth et al., J. Phys.: Condens. Matter 21, 084203 (2009). %
     %                                                                      %
     %                                                                      %
     % If you are calculating the stress with vdW-DF, please also cite:     %
     %                                                                      %
     %   R. Sabatini et al., J. Phys.: Condens. Matter 24, 424209 (2012).   %
     %                                                                      %
     %%%%%%%%%%%%%%%%%%%%%%%%%%%%%%%%%%%%%%%%%%%%%%%%%%%%%%%%%%%%%%%%%%%%%%%%

     Adding external electric field

     Computed dipole along edir(3) :
        Dipole              -14.8124 Ry au,        -37.6493 Debye
        Dipole field         -0.0280 Ry au,

        Potential amp.        2.5912 Ry
        Total length         46.3494 bohr

     Starting wfcs are  307 atomic wfcs
  @ DRIVER MODE: Message from server: STATUS
  @ DRIVER MODE: Message from server: POSDATA
  @ DRIVER MODE: Reading and sharing cell
  @ DRIVER MODE: Reading and sharing positions
  @ DRIVER MODE: Received positions

     Self-consistent Calculation

     iteration #  1     ecut=    29.40 Ry     beta= 0.05
     Davidson diagonalization with overlap
     c_bands:  4 eigenvalues not converged
     c_bands:  4 eigenvalues not converged
     c_bands:  5 eigenvalues not converged
     c_bands:  2 eigenvalues not converged
     c_bands:  3 eigenvalues not converged
     c_bands:  4 eigenvalues not converged
     c_bands:  2 eigenvalues not converged
     ethr =  1.00E-05,  avg # of iterations = 22.9

[...]

     total energy              =   -2202.99110865 Ry
     estimated scf accuracy    <    8803.88678681 Ry

     iteration #  2     ecut=    29.40 Ry     beta= 0.05
     Davidson diagonalization with overlap
     ethr =  1.00E-02,  avg # of iterations = 30.1

[...]

     iteration # 50     ecut=    29.40 Ry     beta= 0.05
     Davidson diagonalization with overlap
     c_bands:  1 eigenvalues not converged
     c_bands:  1 eigenvalues not converged
     c_bands:  2 eigenvalues not converged
     ethr =  7.35E-07,  avg # of iterations = 13.9

[...]

     total energy              =   -2976.46401473 Ry
     estimated scf accuracy    <       0.00000008 Ry

     iteration # 70     ecut=    29.40 Ry     beta= 0.05
     Davidson diagonalization with overlap
     ethr =  1.92E-11,  avg # of iterations = 10.5

     negative rho (up, down):  1.441E-02 0.000E+00

     Adding external electric field

     Computed dipole along edir(3) :
        Dipole                1.2258 Ry au,          3.1158 Debye
        Dipole field          0.0023 Ry au,

        Potential amp.       -0.2144 Ry
        Total length         46.3494 bohr

     End of self-consistent calculation

          k = 0.0000 0.0000 0.0000 ( 18029 PWs)   bands (ev):

   -55.4452 -55.3567 -55.3226 -55.2178 -55.2151 -55.1874 -55.1852 -55.1775
   -55.1534 -55.1303 -55.0872 -54.9855 -54.9367 -54.8936 -54.3316 -54.2975
   -31.8418 -31.7913 -31.7215 -31.7043 -31.6902 -31.6758 -31.6552 -31.6476
   -31.6164 -31.6029 -31.5968 -31.5092 -31.4943 -31.4870 -31.4673 -31.4638
   -31.4599 -31.4505 -31.4500 -31.4204 -31.4141 -31.3925 -31.3856 -31.3756
   -31.3706 -31.3547 -31.3537 -31.3218 -31.3211 -31.3149 -31.3142 -31.3084
   -31.3000 -31.2820 -31.2582 -31.2397 -31.1745 -31.1525 -31.1410 -31.1323
   -31.1119 -31.1027 -30.7376 -30.6512 -30.6287 -30.5551 -30.4687 -30.3569
   -17.7419 -16.3694 -16.0109 -15.8471 -15.6323 -15.5396 -15.5125 -15.3137
   -15.2187 -15.1605 -14.9588 -14.9319 -14.8945 -14.8815 -14.8728 -14.8517
   -14.8480 -14.7965 -14.7811 -14.7712 -14.7677 -14.7373 -14.7103 -14.6710
   -14.6113 -14.5976 -14.4951 -14.4396 -14.3997 -14.1583 -14.1376 -13.1750
   -12.8303 -12.7139  -9.4330  -6.4445  -5.7387  -4.2712  -3.9360  -3.3690
    -3.2676  -3.2559  -3.1998  -3.1319  -2.9850  -2.8842  -2.7788  -2.7421
    -2.6020  -2.5896  -2.4922  -2.4435  -2.3700  -2.3242  -2.2831  -2.2477
    -2.2208  -2.1645  -2.1423  -2.1164  -2.1051  -2.0324  -2.0141  -1.9237
    -1.8915  -1.8778  -1.7602  -1.7256  -1.6910  -1.6778  -1.6688  -1.6623
    -1.6189  -1.6084  -1.5977  -1.5558  -1.4552  -1.4472  -1.4297  -1.3390
    -1.2416  -0.9915  -0.9604  -0.9098  -0.8982  -0.8201  -0.7815  -0.7499
    -0.7172  -0.6475  -0.6367  -0.6099  -0.5489  -0.4734  -0.4191  -0.3714
    -0.3370  -0.2254  -0.1754  -0.1315  -0.0988  -0.0620   0.0010   0.0409
     0.0647   0.1078   0.1954   0.2586   0.2862   0.3027   0.3531   0.3950
     0.4330   0.4737   0.5453   0.5678   0.5779   0.6172   0.6258   0.6467
     0.7422   0.7606   0.8201   0.8473   0.9353   0.9663   1.0104   1.1799
     1.2497   1.3078   1.3860   1.4776   1.6402   1.6947   1.7196   1.8886
     2.2620   2.3074   3.7271   3.8745   3.8908   3.9684   3.9854   4.0496
     4.2160   4.2751   4.4136   4.4235

[...]

          k = 0.0380-0.0419 0.0000 ( 17876 PWs)   bands (ev):

[...]

          k =-0.0760-0.0000 0.0000 ( 17886 PWs)   bands (ev):

[...]

          k =-0.0760-0.0839 0.0000 ( 17948 PWs)   bands (ev):

   -55.4444 -55.3397 -55.3395 -55.2165 -55.2035 -55.1891 -55.1858 -55.1716
   -55.1688 -55.1223 -55.0954 -54.9824 -54.9377 -54.8965 -54.3145 -54.3144
   -31.7301 -31.6699 -31.6572 -31.6570 -31.6563 -31.6419 -31.6332 -31.6329
   -31.5757 -31.5308 -31.5094 -31.4986 -31.4932 -31.4879 -31.4653 -31.4596
   -31.4590 -31.4559 -31.4496 -31.4371 -31.4303 -31.4274 -31.4159 -31.3900
   -31.3851 -31.3834 -31.3759 -31.3681 -31.3496 -31.3443 -31.3409 -31.3405
   -31.3375 -31.3175 -31.3160 -31.2515 -31.2344 -31.2063 -31.1788 -31.1547
   -31.1488 -31.1076 -30.6415 -30.6414 -30.5506 -30.5503 -30.5120 -30.5118
   -17.7379 -16.3595 -15.5915 -15.4466 -15.3382 -15.3279 -15.2040 -15.1367
   -15.1270 -15.0933 -15.0706 -15.0486 -15.0301 -15.0150 -14.9601 -14.9205
   -14.8891 -14.8617 -14.8571 -14.8142 -14.8044 -14.7930 -14.7752 -14.7637
   -14.7084 -14.6723 -14.6626 -14.6040 -14.4649 -14.4436 -14.2885 -13.1763
   -12.8158 -12.8156  -9.4519  -6.4289  -5.7449  -4.2573  -3.9246  -2.9701
    -2.8005  -2.6581  -2.5888  -2.5625  -2.4490  -2.4232  -2.3669  -2.3163
    -2.2923  -2.2707  -2.2183  -2.2086  -2.1628  -2.1467  -2.1225  -2.1076
    -2.0912  -2.0847  -2.0568  -2.0410  -2.0307  -2.0172  -1.9907  -1.9796
    -1.9613  -1.9326  -1.9125  -1.9034  -1.8698  -1.8274  -1.7664  -1.6555
    -1.5819  -1.5709  -1.5270  -1.5022  -1.4860  -1.4449  -1.4323  -1.3913
    -1.3739  -1.3078  -1.1498  -1.1245  -1.1101  -0.9677  -0.9605  -0.9316
    -0.8574  -0.8158  -0.7939  -0.7358  -0.7061  -0.6650  -0.5890  -0.5457
    -0.4917  -0.4255  -0.3255  -0.3180  -0.3018  -0.2820  -0.2657  -0.2578
    -0.2246  -0.1874  -0.1143  -0.0679  -0.0591  -0.0531  -0.0020   0.0780
     0.1288   0.2434   0.3895   0.3938   0.4607   0.4617   0.6613   0.6698
     0.7470   0.7819   0.8167   0.8439   0.9376   0.9556   0.9932   1.0764
     1.1397   1.1692   1.1901   1.1949   1.2480   1.4599   2.0570   2.0648
     2.1277   2.1279   3.9683   4.2012   4.2416   4.2546   4.2732   4.2994
     4.3133   4.3273   4.3941   4.4180

     the Fermi energy is     3.7644 ev

!    total energy              =   -2976.46403900 Ry
     estimated scf accuracy    <       0.00000006 Ry
     smearing contrib. (-TS)   =      -0.01955461 Ry
     internal energy E=F+TS    =   -2976.44448439 Ry

     The total energy is F=E-TS. E is the sum of the following terms:
     one-electron contribution =  -23037.23851532 Ry
     hartree contribution      =   11616.34062216 Ry
     xc contribution           =    -495.72336774 Ry
     ewald contribution        =    8940.17394079 Ry
     electric field correction =       0.00283572 Ry

     convergence has been achieved in  70 iterations

     Forces acting on atoms (cartesian axes, Ry/au):

     atom    1 type  1   force =     0.00016460   -0.00022852    0.09416659
     atom    2 type  1   force =    -0.00010162    0.00018359   -0.17536519
     atom    3 type  2   force =     0.00005576   -0.00049381   -0.02103549
     atom    4 type  2   force =    -0.00002272   -0.00093817    0.05426102
     atom    5 type  2   force =    -0.00489697   -0.00215901    0.00106333
     atom    6 type  2   force =     0.00672164   -0.00138503    0.00107886
     atom    7 type  1   force =     0.00005892    0.00331162    0.00865609
     atom    8 type  1   force =    -0.00010036    0.00120016    0.00271200
     atom    9 type  2   force =    -0.00021784   -0.00031027   -0.00059241
     atom   10 type  2   force =    -0.00111937    0.00428929   -0.01025162
     atom   11 type  2   force =    -0.00007821   -0.00055013   -0.00010647
     atom   12 type  2   force =     0.00062156   -0.00031440   -0.00026743
     atom   13 type  1   force =    -0.00143564    0.00019252   -0.00056857
     atom   14 type  1   force =     0.00071169    0.00016917   -0.00046768
     atom   15 type  2   force =     0.00013377   -0.00001732    0.00003238
     atom   16 type  2   force =    -0.00009235   -0.00069654   -0.00028350
     atom   17 type  2   force =    -0.00045370    0.00068402    0.00007868
     atom   18 type  2   force =    -0.00073856    0.00031550   -0.00020686
     atom   19 type  1   force =     0.00041123   -0.00093263    0.00056901
     atom   20 type  1   force =    -0.00068892   -0.00010583    0.00055411
     atom   21 type  2   force =     0.00003877   -0.00000988    0.10320278
     atom   22 type  2   force =    -0.00011679    0.00004194    0.00039315
     atom   23 type  2   force =    -0.07199557   -0.00019866   -0.02726010
     atom   24 type  2   force =     0.07187303    0.00025688   -0.02732966
     atom   25 type  1   force =     0.00007732   -0.00016945    0.09389432
     atom   26 type  1   force =    -0.00012172   -0.00136876   -0.17551132
     atom   27 type  2   force =     0.00011240   -0.00005443   -0.01984712
     atom   28 type  2   force =     0.00006557   -0.00105274    0.04980679
     atom   29 type  2   force =    -0.00748173    0.00209638    0.00339076
     atom   30 type  2   force =     0.00908781    0.00223763    0.00330929
     atom   31 type  1   force =     0.00019692    0.00151179    0.00005048
     atom   32 type  1   force =    -0.00008599   -0.00226668    0.00302386
     atom   33 type  2   force =    -0.00017536   -0.00031460   -0.00002122
     atom   34 type  2   force =    -0.00116976   -0.00218337   -0.00964409
     atom   35 type  2   force =     0.00063963    0.00005664   -0.00022744
     atom   36 type  2   force =     0.00037620    0.00011645   -0.00035406
     atom   37 type  1   force =    -0.00096406    0.00024941    0.00036138
     atom   38 type  1   force =     0.00096603   -0.00024094    0.00020052
     atom   39 type  2   force =    -0.00017211   -0.00051656    0.00009331
     atom   40 type  2   force =    -0.00019763   -0.00018897   -0.00015388
     atom   41 type  2   force =     0.00024238   -0.00031923   -0.00009338
     atom   42 type  2   force =    -0.00064166    0.00005181   -0.00009625
     atom   43 type  1   force =     0.00023580    0.00093441    0.00029730
     atom   44 type  1   force =    -0.00040023    0.00088239    0.00011243
     atom   45 type  2   force =     0.00002527    0.00003254    0.10302176
     atom   46 type  2   force =    -0.07194425   -0.00008151   -0.02721374
     atom   47 type  2   force =     0.07183619    0.00034983   -0.02729792
     atom   48 type  3   force =     0.00003020   -0.00081417   -0.00073036
     atom   49 type  3   force =    -0.00033746   -0.00022860   -0.00051022
     atom   50 type  4   force =     0.00323195    0.00237330   -0.00207855
     atom   51 type  5   force =    -0.00063544    0.00046310   -0.00017373
     atom   52 type  5   force =     0.00024897   -0.00069833    0.00088696
     atom   53 type  5   force =    -0.00352888   -0.00210510    0.00199790
     atom   54 type  5   force =     0.00061998   -0.00025469    0.00003079
     atom   55 type  5   force =     0.00054351   -0.00056814    0.00005317
     atom   56 type  5   force =     0.00064287   -0.00004626   -0.00005125
     atom   57 type  2   force =     0.00068399   -0.00115608    0.00023652
     atom   58 type  5   force =    -0.00073905    0.00096844    0.00020398

     Total force =     0.362050     Total SCF correction =     0.000556
  @ DRIVER MODE: Message from server: STATUS
  @ DRIVER MODE: Message from server: GETFORCE
  @ DRIVER MODE: Returning v,forces,stress,ensemble

     Writing output data file ./calc.save/
  @ DRIVER MODE: Message from server: EXIT
  @ DRIVE MODE: Exiting

     General routines

     Parallel routines

   This run was terminated on:   2:49:59  24Sep2021

   JOB DONE.