     Program PWSCF v.6.7GPU starts on 21Sep2021 at 11:52: 2

     R & G space division:  proc/nbgrp/npool/nimage =      10
     Reading input from /storage/home/hcoda1/3/ntian30/research/carbon/CxH_vib/H2O_calc/ads_slab/CH3H2O_a/out_0040/pw.inp
Warning: card &CELL ignored
Warning: card   CELL_DYNAMICS='IPI', ignored
Warning: card / ignored

     Current dimensions of program PWSCF are:
     Max number of different atomic species (ntypx) = 10
     Max number of k-points (npk) =  40000
     Max angular momentum in pseudopotentials (lmaxx) =  3
     Presently no symmetry can be used with electric field

     Message from routine cell_base_init:
     DEPRECATED: use true lattice parameter, not A to a.u. conversion factor

     IMPORTANT: XC functional enforced from input :
     Exchange-correlation= BEEF-VDW
                           (   1   4  43  14   2   0   0)
     Any further DFT definition will be discarded
     Please, verify this is what you really want

  @ DRIVER MODE: Connecting to
 qe_1139763_2911776.sched-torque.pace.gatech.eduu0fw2fot_scratch
  using UNIX socket
  @ DRIVER MODE: Message from server: STATUS
  @ DRIVER MODE: Message from server: INIT
  @ DRIVER MODE: Receiving replica           0          -1
  @ DRIVER MODE: Receiving encoded integer          25
  @ DRIVER MODE:  SCF:  T  FORCE:  T  STRESS:  F  VC:  F  ENSEMBLE:  F
  @ DRIVER MODE:  SCF:  T  FORCE:  T  STRESS:  F  VC:  F  ENSEMBLE:  F

     Using Slab Decomposition

     bravais-lattice index     =            0
     lattice parameter (alat)  =       1.8897  a.u.
     unit-cell volume          =    6658.9804 (a.u.)^3
     number of atoms/cell      =           54
     number of atomic types    =            4
     number of electrons       =       393.00
     number of Kohn-Sham states=          206
     kinetic-energy cutoff     =      29.3995  Ry
     charge density cutoff     =     293.9946  Ry
     scf convergence threshold =      7.3E-08
     mixing beta               =       0.0500
     number of iterations used =            8  plain     mixing
     Exchange-correlation= BEEF-VDW
                           (   1   4  43  14   2   0   0)

     celldm(1)=   1.889726  celldm(2)=   0.000000  celldm(3)=   0.000000
     celldm(4)=   0.000000  celldm(5)=   0.000000  celldm(6)=   0.000000

     crystal axes: (cart. coord. in units of alat)
               a(1) = (   6.579727   0.000000   0.000000 )
               a(2) = (  -0.000775   5.961596   0.000000 )
               a(3) = (   0.000000   0.000000  25.155947 )

     reciprocal axes: (cart. coord. in units 2 pi/alat)
               b(1) = (  0.151982  0.000020  0.000000 )
               b(2) = (  0.000000  0.167740  0.000000 )
               b(3) = (  0.000000  0.000000  0.039752 )

     PseudoPot. # 1 for Ti read from file:
     /storage/coda1/p-amedford6/0/shared/rich_project_chbe-medford/medford-share/data/pseudos_module/espresso/nninc/pbe/van/Ti.UPF
     MD5 check sum: 8e4df49b7f0d34bbd5052bf3f5ea0213
     Pseudo is Ultrasoft, Zval = 12.0
     Generated by new atomic code, or converted to UPF format
     Using radial grid of  851 points,  6 beta functions with:
                l(1) =   0
                l(2) =   0
                l(3) =   1
                l(4) =   1
                l(5) =   2
                l(6) =   2
     Q(r) pseudized with  8 coefficients,  rinner =    1.000   1.000   1.000
                                                       1.000   1.000

     PseudoPot. # 2 for O  read from file:
     /storage/coda1/p-amedford6/0/shared/rich_project_chbe-medford/medford-share/data/pseudos_module/espresso/nninc/pbe/van/O.UPF
     MD5 check sum: 78c19812648e8988a0fe644b0f25305e
     Pseudo is Ultrasoft, Zval =  6.0
     Generated by new atomic code, or converted to UPF format
     Using radial grid of  737 points,  4 beta functions with:
                l(1) =   0
                l(2) =   0
                l(3) =   1
                l(4) =   1
     Q(r) pseudized with  8 coefficients,  rinner =    0.800   0.800   0.800

     PseudoPot. # 3 for C  read from file:
     /storage/coda1/p-amedford6/0/shared/rich_project_chbe-medford/medford-share/data/pseudos_module/espresso/nninc/pbe/van/C.UPF
     MD5 check sum: 1a69bf6b8db32088f5b2163dbdb77a27
     Pseudo is Ultrasoft, Zval =  4.0
     Generated by new atomic code, or converted to UPF format
     Using radial grid of  721 points,  4 beta functions with:
                l(1) =   0
                l(2) =   0
                l(3) =   1
                l(4) =   1
     Q(r) pseudized with  8 coefficients,  rinner =    0.800   0.800   0.800

     PseudoPot. # 4 for H  read from file:
     /storage/coda1/p-amedford6/0/shared/rich_project_chbe-medford/medford-share/data/pseudos_module/espresso/nninc/pbe/van/H.UPF
     MD5 check sum: b5ee9d7bfd3a09ee7748110bda690ff7
     Pseudo is Ultrasoft, Zval =  1.0
     Generated by new atomic code, or converted to UPF format
     Using radial grid of  615 points,  1 beta functions with:
                l(1) =   0
     Q(r) pseudized with  8 coefficients,  rinner =    0.800

     atomic species   valence    mass     pseudopotential
        Ti1           12.00    47.86700     Ti( 1.00)
        O1             6.00    15.99900     O ( 1.00)
        C1             4.00    12.01100     C ( 1.00)
        H1             1.00     1.00800     H ( 1.00)

     No symmetry found

   Cartesian axes

     site n.     atom                  positions (alat units)
         1           Ti1 tau(   1) = (   0.0004258   2.9801865   6.0000000  )
         2           Ti1 tau(   2) = (   3.2906075   1.4906267   6.0002472  )
         3           O1  tau(   3) = (   0.0006271   0.0005054   7.9858123  )
         4           O1  tau(   4) = (   3.2906025   0.0005020   7.3038282  )
         5           O1  tau(   5) = (   4.5942328   1.4918067   9.2879030  )
         6           O1  tau(   6) = (   1.9868534   1.4903216   9.2879459  )
         7           Ti1 tau(   7) = (   3.3154911   2.9426235   9.1630835  )
         8           Ti1 tau(   8) = (   0.0285409   1.6075342   9.3657832  )
         9           O1  tau(   9) = (   3.2815087   0.0160907  11.3545821  )
        10           O1  tau(  10) = (   0.0024802   0.0106306  10.6007539  )
        11           O1  tau(  11) = (   1.2725489   1.5064038  12.6453836  )
        12           O1  tau(  12) = (   5.2753141   1.5150378  12.6350139  )
        13           Ti1 tau(  13) = (   0.0284581   2.9538459  12.7835337  )
        14           Ti1 tau(  14) = (   3.3388075   1.4895305  12.5082680  )
        15           O1  tau(  15) = (   6.5535251   0.0144872  14.6406477  )
        16           O1  tau(  16) = (   3.2781334   0.0285334  13.9682696  )
        17           O1  tau(  17) = (   4.5366274   1.5703088  16.0558364  )
        18           O1  tau(  18) = (   2.0012422   1.5648880  16.0484572  )
        19           Ti1 tau(  19) = (   3.2604835   3.0254881  15.6976271  )
        20           Ti1 tau(  20) = (   6.5333720   1.5229778  16.1593769  )
        21           O1  tau(  21) = (   3.2904802   0.0005063   4.7018136  )
        22           O1  tau(  22) = (   6.5574971   0.0350135  17.1872057  )
        23           O1  tau(  23) = (   1.3043587   1.4918075   6.0039043  )
        24           O1  tau(  24) = (   5.2767064   1.4903225   6.0039473  )
        25           Ti1 tau(  25) = (   0.0000382   5.9609847   6.0000000  )
        26           Ti1 tau(  26) = (   3.2902200   4.4714249   6.0002472  )
        27           O1  tau(  27) = (   0.0002396   2.9813036   7.9858123  )
        28           O1  tau(  28) = (   3.2902150   2.9813002   7.3038282  )
        29           O1  tau(  29) = (   4.5938453   4.4726049   9.2879030  )
        30           O1  tau(  30) = (   1.9864658   4.4711199   9.2879459  )
        31           Ti1 tau(  31) = (   3.3083403   5.9269411   9.1538128  )
        32           Ti1 tau(  32) = (   0.0303829   4.5362093   9.2612125  )
        33           O1  tau(  33) = (   3.2841341   2.9899418  11.3555480  )
        34           O1  tau(  34) = (   0.0038936   2.9924975  10.5838058  )
        35           O1  tau(  35) = (   1.2726398   4.4822405  12.6394144  )
        36           O1  tau(  36) = (   5.2736595   4.4864409  12.6303220  )
        37           Ti1 tau(  37) = (   0.0300145   5.9360250  12.5182071  )
        38           Ti1 tau(  38) = (   3.3377519   4.4811756  12.4937589  )
        39           O1  tau(  39) = (   6.5654514   3.0136449  14.7225067  )
        40           O1  tau(  40) = (   3.2707049   3.0114760  13.9116621  )
        41           O1  tau(  41) = (   4.5328936   4.4881537  16.0752462  )
        42           O1  tau(  42) = (   1.9999049   4.4921254  16.0707699  )
        43           Ti1 tau(  43) = (   3.2502456   0.0519323  15.7983500  )
        44           Ti1 tau(  44) = (   6.5407796   4.6451211  15.8442649  )
        45           O1  tau(  45) = (   3.2900926   2.9813045   4.7018136  )
        46           O1  tau(  46) = (   1.3039711   4.4726057   6.0039043  )
        47           O1  tau(  47) = (   5.2763189   4.4711207   6.0039473  )
        48           C1  tau(  48) = (   6.5619928   2.8946514  17.8930439  )
        49           H1  tau(  49) = (   6.5552299   3.9601472  18.1196503  )
        50           H1  tau(  50) = (   0.8760557   2.4850835  18.3732843  )
        51           H1  tau(  51) = (   5.6817198   2.4733575  18.3891814  )
        52           O1  tau(  52) = (   3.2572702   0.1178616  18.1992317  )
        53           H1  tau(  53) = (   4.0330629   5.5870706  18.5079137  )
        54           H1  tau(  54) = (   2.4710694   5.6089049  18.5058656  )

     number of k points=    10  Fermi-Dirac smearing, width (Ry)=  0.0073
                       cart. coord. in units 2pi/alat
        k(    1) = (   0.0000000   0.0000000   0.0000000), wk =   0.1250000
        k(    2) = (   0.0000000   0.0419351   0.0000000), wk =   0.2500000
        k(    3) = (   0.0000000  -0.0838702   0.0000000), wk =   0.1250000
        k(    4) = (   0.0379955   0.0000049   0.0000000), wk =   0.2500000
        k(    5) = (   0.0379955   0.0419400   0.0000000), wk =   0.2500000
        k(    6) = (   0.0379955  -0.0838652   0.0000000), wk =   0.2500000
        k(    7) = (   0.0379955  -0.0419301   0.0000000), wk =   0.2500000
        k(    8) = (  -0.0759910  -0.0000099   0.0000000), wk =   0.1250000
        k(    9) = (  -0.0759910   0.0419252   0.0000000), wk =   0.2500000
        k(   10) = (  -0.0759910  -0.0838800   0.0000000), wk =   0.1250000

     Initial potential from superposition of free atoms

     starting charge  376.99916, renormalised to  393.00000

     negative rho (up, down):  1.843E-02 0.000E+00

     %%%%%%%%%%%%%%%%%%%%%%%%%%%%%%%%%%%%%%%%%%%%%%%%%%%%%%%%%%%%%%%%%%%%%%%%
     %                                                                      %
     % You are using vdW-DF, which was implemented by the Thonhauser group. %
     % Please cite the following two papers that made this development      %
     % possible and the two reviews that describe the various versions:     %
     %                                                                      %
     %   T. Thonhauser et al., PRL 115, 136402 (2015).                      %
     %   T. Thonhauser et al., PRB 76, 125112 (2007).                       %
     %   K. Berland et al., Rep. Prog. Phys. 78, 066501 (2015).             %
     %   D.C. Langreth et al., J. Phys.: Condens. Matter 21, 084203 (2009). %
     %                                                                      %
     %                                                                      %
     % If you are calculating the stress with vdW-DF, please also cite:     %
     %                                                                      %
     %   R. Sabatini et al., J. Phys.: Condens. Matter 24, 424209 (2012).   %
     %                                                                      %
     %%%%%%%%%%%%%%%%%%%%%%%%%%%%%%%%%%%%%%%%%%%%%%%%%%%%%%%%%%%%%%%%%%%%%%%%

     Adding external electric field

     Computed dipole along edir(3) :
        Dipole               -6.6597 Ry au,        -16.9273 Debye
        Dipole field         -0.0126 Ry au,

        Potential amp.        1.1650 Ry
        Total length         46.3494 bohr

     Starting wfcs are  297 atomic wfcs
  @ DRIVER MODE: Message from server: STATUS
  @ DRIVER MODE: Message from server: POSDATA
  @ DRIVER MODE: Reading and sharing cell
  @ DRIVER MODE: Reading and sharing positions
  @ DRIVER MODE: Received positions

     Self-consistent Calculation

     iteration #  1     ecut=    29.40 Ry     beta= 0.05
     Davidson diagonalization with overlap
     c_bands:  2 eigenvalues not converged
     c_bands:  2 eigenvalues not converged
     c_bands:  2 eigenvalues not converged
     c_bands:  1 eigenvalues not converged
     c_bands:  1 eigenvalues not converged
     ethr =  1.00E-05,  avg # of iterations = 18.0

[...]

     total energy              =   -2713.80347437 Ry
     estimated scf accuracy    <    2414.31581452 Ry

[...]

     iteration #  3     ecut=    29.40 Ry     beta= 0.05
     Davidson diagonalization with overlap
     ethr =  1.00E-02,  avg # of iterations = 16.0

[...]

     iteration # 70     ecut=    29.40 Ry     beta= 0.05
     Davidson diagonalization with overlap
     c_bands:  2 eigenvalues not converged
     ethr =  1.74E-10,  avg # of iterations = 16.4

[...]

     total energy              =   -2933.86691301 Ry
     estimated scf accuracy    <       0.00000016 Ry

     iteration # 74     ecut=    29.40 Ry     beta= 0.05
     Davidson diagonalization with overlap
     ethr =  3.95E-11,  avg # of iterations = 10.2

     negative rho (up, down):  1.750E-02 0.000E+00

     Adding external electric field

     Computed dipole along edir(3) :
        Dipole                0.8194 Ry au,          2.0827 Debye
        Dipole field          0.0015 Ry au,

        Potential amp.       -0.1433 Ry
        Total length         46.3494 bohr

     End of self-consistent calculation

          k = 0.0000 0.0000 0.0000 ( 18029 PWs)   bands (ev):

   -55.8885 -55.8525 -55.8458 -55.8200 -55.8093 -55.7779 -55.7449 -55.6891
   -55.6589 -55.6498 -55.6167 -55.6094 -55.5505 -55.5501 -54.8977 -54.8636
   -32.4035 -32.3573 -32.2612 -32.2401 -32.1802 -32.1604 -32.1597 -32.1263
   -32.1158 -32.1065 -32.0871 -32.0824 -32.0636 -32.0484 -32.0469 -32.0293
   -31.9976 -31.9916 -31.9794 -31.9786 -31.9533 -31.9504 -31.9451 -31.9299
   -31.9267 -31.9042 -31.9006 -31.8871 -31.8816 -31.8736 -31.8711 -31.8454
   -31.8210 -31.8051 -31.7933 -31.7910 -31.7687 -31.7546 -31.7522 -31.7363
   -31.7354 -31.6580 -31.3074 -31.2109 -31.1885 -31.1237 -31.0376 -30.9268
   -19.3587 -16.6139 -16.3376 -16.1889 -16.0502 -16.0141 -15.8144 -15.7023
   -15.5824 -15.5454 -15.4860 -15.4654 -15.4337 -15.4136 -15.4106 -15.3969
   -15.3892 -15.3367 -15.3278 -15.2924 -15.2909 -15.2644 -15.2089 -15.1637
   -15.1091 -15.0558 -15.0071 -14.9415 -14.8844 -14.8743 -13.3987 -13.2806
    -9.3003  -7.1829  -3.9846  -3.8323  -3.8152  -3.7798  -3.7167  -3.6215
    -3.4761  -3.3641  -3.2280  -3.0747  -3.0245  -3.0108  -3.0089  -2.9812
    -2.8831  -2.7582  -2.7330  -2.7051  -2.7003  -2.6818  -2.6803  -2.6445
    -2.5990  -2.5875  -2.5521  -2.5391  -2.3872  -2.3190  -2.3017  -2.2604
    -2.2001  -2.1899  -2.1561  -2.1416  -2.1340  -2.0961  -2.0786  -2.0318
    -1.9827  -1.9103  -1.8273  -1.7713  -1.6709  -1.5809  -1.5207  -1.4653
    -1.4331  -1.3326  -1.3154  -1.2881  -1.2165  -1.1895  -1.1215  -1.0717
    -0.9802  -0.9051  -0.8865  -0.8366  -0.7866  -0.6726  -0.6482  -0.6206
    -0.6158  -0.6016  -0.5790  -0.4227  -0.3945  -0.3301  -0.3217  -0.2095
    -0.2057  -0.1752  -0.1574  -0.0992  -0.0701   0.0005   0.0369   0.0785
     0.0882   0.1119   0.1219   0.1348   0.2263   0.3163   0.3411   0.4125
     0.4492   0.5653   0.6433   0.7610   0.8525   1.0333   1.0749   1.1263
     1.2026   1.2984   1.7131   1.7719   3.2967   3.3429   3.3629   3.3840
     3.4117   3.5429   3.6640   3.7486   3.7736   3.8059

[...]

          k = 0.0380-0.0419 0.0000 ( 17876 PWs)   bands (ev):

[...]

          k =-0.0760-0.0000 0.0000 ( 17886 PWs)   bands (ev):

[...]

          k =-0.0760-0.0839 0.0000 ( 17948 PWs)   bands (ev):

   -55.8764 -55.8644 -55.8301 -55.8249 -55.8176 -55.7634 -55.7595 -55.6912
   -55.6552 -55.6347 -55.6325 -55.6050 -55.5543 -55.5532 -54.8810 -54.8801
   -32.2158 -32.1993 -32.1805 -32.1686 -32.1667 -32.1500 -32.1221 -32.1183
   -32.1000 -32.0976 -32.0958 -32.0439 -32.0349 -32.0340 -32.0142 -32.0023
   -31.9972 -31.9964 -31.9947 -31.9936 -31.9906 -31.9771 -31.9718 -31.9644
   -31.9546 -31.9535 -31.9492 -31.9096 -31.8892 -31.8886 -31.8811 -31.8801
   -31.8595 -31.8392 -31.8373 -31.8294 -31.8157 -31.7976 -31.7949 -31.7785
   -31.7462 -31.7039 -31.2017 -31.2006 -31.1208 -31.1200 -31.0811 -31.0803
   -19.3580 -16.0765 -15.9642 -15.8464 -15.7693 -15.7472 -15.7128 -15.6638
   -15.6582 -15.5965 -15.5908 -15.5428 -15.5327 -15.5052 -15.4798 -15.4358
   -15.4145 -15.3938 -15.3730 -15.3373 -15.3164 -15.3062 -15.2679 -15.2562
   -15.2436 -15.2158 -15.2042 -15.1417 -15.0992 -15.0539 -13.3827 -13.3811
    -9.3160  -7.1762  -3.7063  -3.3628  -3.1692  -3.1132  -3.0141  -2.9664
    -2.9551  -2.8913  -2.8304  -2.8183  -2.7833  -2.7679  -2.7631  -2.7222
    -2.7195  -2.7061  -2.6746  -2.6711  -2.6608  -2.6295  -2.5830  -2.5685
    -2.5529  -2.5151  -2.4987  -2.4953  -2.4555  -2.4388  -2.4324  -2.4253
    -2.3855  -2.3737  -2.2086  -2.1489  -2.1188  -2.0400  -2.0213  -1.9889
    -1.9794  -1.9509  -1.9280  -1.8916  -1.7513  -1.7131  -1.7102  -1.6283
    -1.6024  -1.5756  -1.4686  -1.4053  -1.3777  -1.3689  -1.3021  -1.2642
    -1.2302  -1.1253  -1.0936  -1.0436  -0.9876  -0.9743  -0.9304  -0.8497
    -0.8435  -0.8097  -0.7934  -0.7705  -0.6524  -0.6090  -0.5990  -0.5509
    -0.5263  -0.5074  -0.4419  -0.4027  -0.3999  -0.3388  -0.2782  -0.2253
     0.0231   0.1250   0.1403   0.1605   0.2297   0.2786   0.4201   0.4334
     0.4419   0.5028   0.5595   0.6377   0.6630   0.6663   0.7448   1.1770
     1.4869   1.4881   1.5763   1.5857   3.5225   3.5263   3.5920   3.6326
     3.7590   3.7642   3.7844   3.7881   3.9038   3.9329

     the Fermi energy is     3.2652 ev

!    total energy              =   -2933.86692611 Ry
     estimated scf accuracy    <       0.00000007 Ry
     smearing contrib. (-TS)   =      -0.02305716 Ry
     internal energy E=F+TS    =   -2933.84386894 Ry

     The total energy is F=E-TS. E is the sum of the following terms:
     one-electron contribution =  -24504.18570885 Ry
     hartree contribution      =   12339.02159551 Ry
     xc contribution           =    -483.58054819 Ry
     ewald contribution        =    9714.89952560 Ry
     electric field correction =       0.00126699 Ry

     convergence has been achieved in  74 iterations

     Forces acting on atoms (cartesian axes, Ry/au):

     atom    1 type  1   force =    -0.00011335   -0.00196019    0.10542208
     atom    2 type  1   force =    -0.00038327    0.00132299   -0.17935871
     atom    3 type  2   force =     0.00025962   -0.00510323   -0.03369451
     atom    4 type  2   force =     0.00051679   -0.00078135    0.04637255
     atom    5 type  2   force =    -0.01892462   -0.00017672    0.00449078
     atom    6 type  2   force =     0.01982359    0.00140120    0.00400086
     atom    7 type  1   force =    -0.00040522   -0.00014719   -0.00042604
     atom    8 type  1   force =     0.00015608    0.00074276    0.00129847
     atom    9 type  2   force =     0.00011921   -0.00045054   -0.00100422
     atom   10 type  2   force =     0.00008353    0.00006579   -0.00008791
     atom   11 type  2   force =    -0.00053942   -0.00010703    0.00016395
     atom   12 type  2   force =     0.00098474   -0.00002638    0.00021355
     atom   13 type  1   force =    -0.00047600   -0.00077472    0.00048768
     atom   14 type  1   force =    -0.00029565   -0.00001541    0.00075711
     atom   15 type  2   force =     0.00004110   -0.00043489    0.00113337
     atom   16 type  2   force =    -0.00011524   -0.00003564   -0.00007104
     atom   17 type  2   force =    -0.00036019   -0.00041686    0.00005687
     atom   18 type  2   force =     0.00052099   -0.00016149    0.00007094
     atom   19 type  1   force =    -0.00103615    0.00021980    0.00087584
     atom   20 type  1   force =     0.00058385   -0.00037740   -0.00025451
     atom   21 type  2   force =    -0.00001369   -0.00000961    0.10413112
     atom   22 type  2   force =    -0.00025138   -0.00016472    0.00017549
     atom   23 type  2   force =    -0.06927970    0.00063677   -0.02952967
     atom   24 type  2   force =     0.06899644    0.00107178   -0.02959194
     atom   25 type  1   force =    -0.00014024    0.00131497    0.11497258
     atom   26 type  1   force =    -0.00023267   -0.00149302   -0.17965025
     atom   27 type  2   force =     0.00036026    0.00379633   -0.02634292
     atom   28 type  2   force =     0.00059890   -0.00051835    0.04864132
     atom   29 type  2   force =    -0.01842091    0.00190658    0.00401436
     atom   30 type  2   force =     0.01789132    0.00351814    0.00328632
     atom   31 type  1   force =    -0.00050449    0.00057992    0.00004977
     atom   32 type  1   force =     0.00013102   -0.00151787    0.00085359
     atom   33 type  2   force =    -0.00015552    0.00046480   -0.00159505
     atom   34 type  2   force =     0.00001801   -0.00082911   -0.00158630
     atom   35 type  2   force =     0.00013001    0.00019916   -0.00029948
     atom   36 type  2   force =     0.00030754    0.00018349   -0.00027386
     atom   37 type  1   force =     0.00009871    0.00042337   -0.00061046
     atom   38 type  1   force =    -0.00011579    0.00074594    0.00044050
     atom   39 type  2   force =    -0.00010030    0.00013913    0.00003126
     atom   40 type  2   force =     0.00040320    0.00042482    0.00023411
     atom   41 type  2   force =    -0.00065584   -0.00055306   -0.00032257
     atom   42 type  2   force =     0.00088912   -0.00055720   -0.00051938
     atom   43 type  1   force =    -0.00067749    0.00006073    0.00053917
     atom   44 type  1   force =     0.00065306   -0.00018349   -0.00077299
     atom   45 type  2   force =    -0.00002604   -0.00001551    0.10411245
     atom   46 type  2   force =    -0.06883236   -0.00085327   -0.02955941
     atom   47 type  2   force =     0.06863562   -0.00046949   -0.02962375
     atom   48 type  3   force =    -0.00021057   -0.00054750   -0.00105016
     atom   49 type  4   force =    -0.00001342    0.00040415   -0.00132831
     atom   50 type  4   force =     0.00060437   -0.00002044    0.00039915
     atom   51 type  4   force =    -0.00052932   -0.00006742    0.00040776
     atom   52 type  2   force =     0.00748593    0.00623690   -0.00502679
     atom   53 type  4   force =    -0.00001239   -0.00139213    0.00107080
     atom   54 type  4   force =    -0.00747181   -0.00569831    0.00387642

     Total force =     0.375655     Total SCF correction =     0.000878
  @ DRIVER MODE: Message from server: STATUS
  @ DRIVER MODE: Message from server: GETFORCE
  @ DRIVER MODE: Returning v,forces,stress,ensemble

     Writing output data file ./calc.save/
  @ DRIVER MODE: Message from server: EXIT
  @ DRIVE MODE: Exiting

     General routines

     Parallel routines

   This run was terminated on:  12:54:25  21Sep2021

   JOB DONE.