     Program PWSCF v.6.7GPU starts on 15Sep2021 at 17: 4:37

     R & G space division:  proc/nbgrp/npool/nimage =      10
     Reading input from /storage/home/hcoda1/3/ntian30/research/carbon/CxH_vib/H2O_calc/ads_slab/CHN2HH2O_a/out_0005/pw.inp
Warning: card &CELL ignored
Warning: card   CELL_DYNAMICS='IPI', ignored
Warning: card / ignored

     Current dimensions of program PWSCF are:
     Max number of different atomic species (ntypx) = 10
     Max number of k-points (npk) =  40000
     Max angular momentum in pseudopotentials (lmaxx) =  3
     Presently no symmetry can be used with electric field

     Message from routine cell_base_init:
     DEPRECATED: use true lattice parameter, not A to a.u. conversion factor

     IMPORTANT: XC functional enforced from input :
     Exchange-correlation= BEEF-VDW
                           (   1   4  43  14   2   0   0)
     Any further DFT definition will be discarded
     Please, verify this is what you really want

  @ DRIVER MODE: Connecting to
 qe_1139763_2852626.sched-torque.pace.gatech.edu4ncrpqj0_scratch
  using UNIX socket
  @ DRIVER MODE: Message from server: STATUS
  @ DRIVER MODE: Message from server: INIT
  @ DRIVER MODE: Receiving replica           0          -1
  @ DRIVER MODE: Receiving encoded integer          25
  @ DRIVER MODE:  SCF:  T  FORCE:  T  STRESS:  F  VC:  F  ENSEMBLE:  F
  @ DRIVER MODE:  SCF:  T  FORCE:  T  STRESS:  F  VC:  F  ENSEMBLE:  F

     Using Slab Decomposition

     bravais-lattice index     =            0
     lattice parameter (alat)  =       1.8897  a.u.
     unit-cell volume          =    6658.9804 (a.u.)^3
     number of atoms/cell      =           55
     number of atomic types    =            5
     number of electrons       =       402.00
     number of Kohn-Sham states=          211
     kinetic-energy cutoff     =      29.3995  Ry
     charge density cutoff     =     293.9946  Ry
     scf convergence threshold =      7.3E-08
     mixing beta               =       0.0500
     number of iterations used =            8  plain     mixing
     Exchange-correlation= BEEF-VDW
                           (   1   4  43  14   2   0   0)

     celldm(1)=   1.889726  celldm(2)=   0.000000  celldm(3)=   0.000000
     celldm(4)=   0.000000  celldm(5)=   0.000000  celldm(6)=   0.000000

     crystal axes: (cart. coord. in units of alat)
               a(1) = (   6.579727   0.000000   0.000000 )
               a(2) = (  -0.000775   5.961596   0.000000 )
               a(3) = (   0.000000   0.000000  25.155947 )

     reciprocal axes: (cart. coord. in units 2 pi/alat)
               b(1) = (  0.151982  0.000020  0.000000 )
               b(2) = (  0.000000  0.167740  0.000000 )
               b(3) = (  0.000000  0.000000  0.039752 )

     PseudoPot. # 1 for Ti read from file:
     /storage/coda1/p-amedford6/0/shared/rich_project_chbe-medford/medford-share/data/pseudos_module/espresso/nninc/pbe/van/Ti.UPF
     MD5 check sum: 8e4df49b7f0d34bbd5052bf3f5ea0213
     Pseudo is Ultrasoft, Zval = 12.0
     Generated by new atomic code, or converted to UPF format
     Using radial grid of  851 points,  6 beta functions with:
                l(1) =   0
                l(2) =   0
                l(3) =   1
                l(4) =   1
                l(5) =   2
                l(6) =   2
     Q(r) pseudized with  8 coefficients,  rinner =    1.000   1.000   1.000
                                                       1.000   1.000

     PseudoPot. # 2 for O  read from file:
     /storage/coda1/p-amedford6/0/shared/rich_project_chbe-medford/medford-share/data/pseudos_module/espresso/nninc/pbe/van/O.UPF
     MD5 check sum: 78c19812648e8988a0fe644b0f25305e
     Pseudo is Ultrasoft, Zval =  6.0
     Generated by new atomic code, or converted to UPF format
     Using radial grid of  737 points,  4 beta functions with:
                l(1) =   0
                l(2) =   0
                l(3) =   1
                l(4) =   1
     Q(r) pseudized with  8 coefficients,  rinner =    0.800   0.800   0.800

     PseudoPot. # 3 for N  read from file:
     /storage/coda1/p-amedford6/0/shared/rich_project_chbe-medford/medford-share/data/pseudos_module/espresso/nninc/pbe/van/N.UPF
     MD5 check sum: 90d10febe142ad51ac9d5be1deb811c4
     Pseudo is Ultrasoft, Zval =  5.0
     Generated by new atomic code, or converted to UPF format
     Using radial grid of  729 points,  4 beta functions with:
                l(1) =   0
                l(2) =   0
                l(3) =   1
                l(4) =   1
     Q(r) pseudized with  8 coefficients,  rinner =    0.800   0.800   0.800

     PseudoPot. # 4 for C  read from file:
     /storage/coda1/p-amedford6/0/shared/rich_project_chbe-medford/medford-share/data/pseudos_module/espresso/nninc/pbe/van/C.UPF
     MD5 check sum: 1a69bf6b8db32088f5b2163dbdb77a27
     Pseudo is Ultrasoft, Zval =  4.0
     Generated by new atomic code, or converted to UPF format
     Using radial grid of  721 points,  4 beta functions with:
                l(1) =   0
                l(2) =   0
                l(3) =   1
                l(4) =   1
     Q(r) pseudized with  8 coefficients,  rinner =    0.800   0.800   0.800

     PseudoPot. # 5 for H  read from file:
     /storage/coda1/p-amedford6/0/shared/rich_project_chbe-medford/medford-share/data/pseudos_module/espresso/nninc/pbe/van/H.UPF
     MD5 check sum: b5ee9d7bfd3a09ee7748110bda690ff7
     Pseudo is Ultrasoft, Zval =  1.0
     Generated by new atomic code, or converted to UPF format
     Using radial grid of  615 points,  1 beta functions with:
                l(1) =   0
     Q(r) pseudized with  8 coefficients,  rinner =    0.800

     atomic species   valence    mass     pseudopotential
        Ti1           12.00    47.86700     Ti( 1.00)
        O1             6.00    15.99900     O ( 1.00)
        N1             5.00    14.00700     N ( 1.00)
        C1             4.00    12.01100     C ( 1.00)
        H1             1.00     1.00800     H ( 1.00)

     No symmetry found

   Cartesian axes

     site n.     atom                  positions (alat units)
         1           Ti1 tau(   1) = (   0.0004258   2.9801865   6.0000000  )
         2           Ti1 tau(   2) = (   3.2906075   1.4906267   6.0002472  )
         3           O1  tau(   3) = (   0.0006271   0.0005054   7.9858123  )
         4           O1  tau(   4) = (   3.2906025   0.0005020   7.3038282  )
         5           O1  tau(   5) = (   4.5942328   1.4918067   9.2879030  )
         6           O1  tau(   6) = (   1.9868534   1.4903216   9.2879459  )
         7           Ti1 tau(   7) = (   3.2907910   2.8959150   9.1758416  )
         8           Ti1 tau(   8) = (   0.0015273   1.4827037   9.2680791  )
         9           O1  tau(   9) = (   3.2768631   0.0039008  11.3091060  )
        10           O1  tau(  10) = (   0.0116148   5.9584955  10.6183126  )
        11           O1  tau(  11) = (   1.2710838   1.4709840  12.6395574  )
        12           O1  tau(  12) = (   5.2772223   1.5075092  12.6020671  )
        13           Ti1 tau(  13) = (   0.0276258   2.9086511  12.7028215  )
        14           Ti1 tau(  14) = (   3.3492493   1.4375301  12.4845766  )
        15           O1  tau(  15) = (   6.5006329   5.9509897  14.6081112  )
        16           O1  tau(  16) = (   3.3450391   0.0041935  13.9069437  )
        17           O1  tau(  17) = (   4.5555219   1.5659029  16.0522165  )
        18           O1  tau(  18) = (   1.9836904   1.4119734  15.8927236  )
        19           Ti1 tau(  19) = (   3.2827818   2.9316656  15.8555152  )
        20           Ti1 tau(  20) = (   6.5629331   1.3437128  15.9803530  )
        21           O1  tau(  21) = (   3.2904802   0.0005063   4.7018136  )
        22           O1  tau(  22) = (   6.5074089   5.9525318  17.1494500  )
        23           O1  tau(  23) = (   1.3043587   1.4918075   6.0039043  )
        24           O1  tau(  24) = (   5.2767064   1.4903225   6.0039473  )
        25           Ti1 tau(  25) = (   0.0000382   5.9609847   6.0000000  )
        26           Ti1 tau(  26) = (   3.2902200   4.4714249   6.0002472  )
        27           O1  tau(  27) = (   0.0002396   2.9813036   7.9858123  )
        28           O1  tau(  28) = (   3.2902150   2.9813002   7.3038282  )
        29           O1  tau(  29) = (   4.5938453   4.4726049   9.2879030  )
        30           O1  tau(  30) = (   1.9864658   4.4711199   9.2879459  )
        31           Ti1 tau(  31) = (   3.2891106   5.8743827   9.1763621  )
        32           Ti1 tau(  32) = (   0.0006254   4.4649316   9.2693709  )
        33           O1  tau(  33) = (   3.2854303   2.9668816  11.2996989  )
        34           O1  tau(  34) = (   0.0092240   2.9805883  10.6323155  )
        35           O1  tau(  35) = (   1.2743094   4.4851408  12.6236879  )
        36           O1  tau(  36) = (   5.2782958   4.4707264  12.5946799  )
        37           Ti1 tau(  37) = (   0.0481499   5.8920156  12.5607908  )
        38           Ti1 tau(  38) = (   3.3544845   4.3749597  12.5572158  )
        39           O1  tau(  39) = (   6.5410016   3.0017514  14.6365314  )
        40           O1  tau(  40) = (   3.2441134   3.0029108  13.8718978  )
        41           O1  tau(  41) = (   4.5385932   4.4028810  16.0550583  )
        42           O1  tau(  42) = (   1.9619458   4.5383001  15.8611175  )
        43           Ti1 tau(  43) = (   3.2178196   5.9097812  15.7399460  )
        44           Ti1 tau(  44) = (   6.5330930   4.4908980  15.8705378  )
        45           O1  tau(  45) = (   3.2900926   2.9813045   4.7018136  )
        46           O1  tau(  46) = (   1.3039711   4.4726057   6.0039043  )
        47           O1  tau(  47) = (   5.2763189   4.4711207   6.0039473  )
        48           N1  tau(  48) = (   1.2867840   3.0293760  18.3247772  )
        49           C1  tau(  49) = (   2.5003166   3.0326976  17.9707196  )
        50           H1  tau(  50) = (   3.2053588   3.1791635  18.8000936  )
        51           N1  tau(  51) = (   0.2138509   2.9871109  17.4421441  )
        52           H1  tau(  52) = (   5.9621615   2.9869774  18.0311354  )
        53           O1  tau(  53) = (   3.4290693   5.9360351  18.0748810  )
        54           H1  tau(  54) = (   4.3780305   0.1327944  18.2306609  )
        55           H1  tau(  55) = (   2.9458904   0.7245148  18.4607207  )

     number of k points=    10  Fermi-Dirac smearing, width (Ry)=  0.0073
                       cart. coord. in units 2pi/alat
        k(    1) = (   0.0000000   0.0000000   0.0000000), wk =   0.1250000
        k(    2) = (   0.0000000   0.0419351   0.0000000), wk =   0.2500000
        k(    3) = (   0.0000000  -0.0838702   0.0000000), wk =   0.1250000
        k(    4) = (   0.0379955   0.0000049   0.0000000), wk =   0.2500000
        k(    5) = (   0.0379955   0.0419400   0.0000000), wk =   0.2500000
        k(    6) = (   0.0379955  -0.0838652   0.0000000), wk =   0.2500000
        k(    7) = (   0.0379955  -0.0419301   0.0000000), wk =   0.2500000
        k(    8) = (  -0.0759910  -0.0000099   0.0000000), wk =   0.1250000
        k(    9) = (  -0.0759910   0.0419252   0.0000000), wk =   0.2500000
        k(   10) = (  -0.0759910  -0.0838800   0.0000000), wk =   0.1250000

     Initial potential from superposition of free atoms

     starting charge  385.99915, renormalised to  402.00000

     negative rho (up, down):  1.832E-02 0.000E+00

     %%%%%%%%%%%%%%%%%%%%%%%%%%%%%%%%%%%%%%%%%%%%%%%%%%%%%%%%%%%%%%%%%%%%%%%%
     %                                                                      %
     % You are using vdW-DF, which was implemented by the Thonhauser group. %
     % Please cite the following two papers that made this development      %
     % possible and the two reviews that describe the various versions:     %
     %                                                                      %
     %   T. Thonhauser et al., PRL 115, 136402 (2015).                      %
     %   T. Thonhauser et al., PRB 76, 125112 (2007).                       %
     %   K. Berland et al., Rep. Prog. Phys. 78, 066501 (2015).             %
     %   D.C. Langreth et al., J. Phys.: Condens. Matter 21, 084203 (2009). %
     %                                                                      %
     %                                                                      %
     % If you are calculating the stress with vdW-DF, please also cite:     %
     %                                                                      %
     %   R. Sabatini et al., J. Phys.: Condens. Matter 24, 424209 (2012).   %
     %                                                                      %
     %%%%%%%%%%%%%%%%%%%%%%%%%%%%%%%%%%%%%%%%%%%%%%%%%%%%%%%%%%%%%%%%%%%%%%%%

     Adding external electric field

     Computed dipole along edir(3) :
        Dipole              -11.0860 Ry au,        -28.1778 Debye
        Dipole field         -0.0209 Ry au,

        Potential amp.        1.9393 Ry
        Total length         46.3494 bohr

     Starting wfcs are  304 atomic wfcs
  @ DRIVER MODE: Message from server: STATUS
  @ DRIVER MODE: Message from server: POSDATA
  @ DRIVER MODE: Reading and sharing cell
  @ DRIVER MODE: Reading and sharing positions
  @ DRIVER MODE: Received positions

     Self-consistent Calculation

     iteration #  1     ecut=    29.40 Ry     beta= 0.05
     Davidson diagonalization with overlap
     c_bands:  5 eigenvalues not converged
     c_bands:  1 eigenvalues not converged
     c_bands:  3 eigenvalues not converged
     c_bands:  4 eigenvalues not converged
     c_bands:  1 eigenvalues not converged
     c_bands:  1 eigenvalues not converged
     c_bands:  1 eigenvalues not converged
     c_bands:  1 eigenvalues not converged
     c_bands:  5 eigenvalues not converged
     c_bands:  5 eigenvalues not converged
     ethr =  1.00E-05,  avg # of iterations = 26.0

[...]

     total energy              =   -2403.80935467 Ry
     estimated scf accuracy    <    6374.00256041 Ry

     iteration #  2     ecut=    29.40 Ry     beta= 0.05
     Davidson diagonalization with overlap
     ethr =  1.00E-02,  avg # of iterations = 25.7

[...]

     iteration # 50     ecut=    29.40 Ry     beta= 0.05
     Davidson diagonalization with overlap
     c_bands:  1 eigenvalues not converged
     ethr =  1.04E-08,  avg # of iterations =  7.5

[...]

     total energy              =   -2972.69106592 Ry
     estimated scf accuracy    <       0.00000008 Ry

     iteration # 67     ecut=    29.40 Ry     beta= 0.05
     Davidson diagonalization with overlap
     ethr =  2.11E-11,  avg # of iterations =  5.5

     negative rho (up, down):  1.793E-02 0.000E+00

     Adding external electric field

     Computed dipole along edir(3) :
        Dipole                0.3806 Ry au,          0.9674 Debye
        Dipole field          0.0007 Ry au,

        Potential amp.       -0.0666 Ry
        Total length         46.3494 bohr

     End of self-consistent calculation

          k = 0.0000 0.0000 0.0000 ( 18029 PWs)   bands (ev):

   -56.3245 -56.2906 -55.9263 -55.8926 -55.7392 -55.7027 -55.5592 -55.5537
   -55.5421 -55.5182 -55.5089 -55.4563 -55.2585 -55.2390 -55.1302 -55.0962
   -32.7783 -32.6170 -32.5902 -32.4825 -32.4022 -32.4014 -32.3896 -32.2281
   -32.1438 -32.1400 -32.0814 -32.0687 -32.0622 -32.0350 -32.0269 -31.9804
   -31.9622 -31.9534 -31.9205 -31.9137 -31.8964 -31.8531 -31.8460 -31.8412
   -31.8201 -31.7787 -31.7548 -31.7262 -31.7231 -31.7047 -31.7034 -31.7010
   -31.6923 -31.6640 -31.6477 -31.6432 -31.5527 -31.5290 -31.5132 -31.5020
   -31.4753 -31.4607 -31.4458 -31.4372 -31.3471 -31.3319 -31.2621 -31.1505
   -18.7590 -17.0212 -16.6441 -16.3363 -16.1418 -15.9512 -15.8983 -15.8254
   -15.7708 -15.6500 -15.5997 -15.5624 -15.4922 -15.3866 -15.3632 -15.3514
   -15.2889 -15.2867 -15.2633 -15.2372 -15.1799 -15.1545 -15.1269 -15.0526
   -15.0309 -15.0112 -14.9030 -14.8268 -14.7981 -14.7673 -14.5253 -13.6290
   -13.5159 -12.3302  -6.7735  -6.5445  -4.1448  -4.1080  -3.8950  -3.7957
    -3.6582  -3.6108  -3.5004  -3.4126  -3.3513  -3.2729  -3.1087  -3.0749
    -2.9990  -2.9514  -2.9164  -2.8549  -2.8011  -2.7479  -2.7202  -2.6410
    -2.6249  -2.6089  -2.5934  -2.5635  -2.5575  -2.4482  -2.3568  -2.3404
    -2.3078  -2.2621  -2.2430  -2.2331  -2.1788  -2.1575  -2.0722  -2.0616
    -2.0192  -1.9605  -1.9190  -1.8063  -1.7971  -1.7196  -1.6879  -1.6440
    -1.5240  -1.3950  -1.3618  -1.3231  -1.3147  -1.2286  -1.1911  -1.1702
    -1.0731  -1.0559  -1.0137  -0.9942  -0.8651  -0.8415  -0.7920  -0.7867
    -0.7652  -0.6716  -0.6299  -0.5131  -0.4736  -0.4265  -0.4138  -0.3419
    -0.3082  -0.2612  -0.2141  -0.1631  -0.1588  -0.1319  -0.0547  -0.0097
     0.0352   0.0830   0.1198   0.2122   0.2629   0.2947   0.3074   0.3981
     0.4458   0.4600   0.5231   0.5947   0.6435   0.7097   0.7548   0.8694
     0.8935   0.9087   0.9811   1.1151   1.4157   1.4467   1.4871   1.6424
     2.6676   2.8979   3.0184   3.1800   3.3280   3.3739   3.6279   3.6907
     3.7417   3.7760   3.8421

[...]

          k = 0.0380-0.0419 0.0000 ( 17876 PWs)   bands (ev):

[...]

          k =-0.0760-0.0000 0.0000 ( 17886 PWs)   bands (ev):

[...]

          k =-0.0760-0.0839 0.0000 ( 17948 PWs)   bands (ev):

   -56.3081 -56.3069 -55.9112 -55.9076 -55.7278 -55.7141 -55.5578 -55.5388
   -55.5323 -55.5275 -55.5243 -55.4549 -55.2598 -55.2399 -55.1132 -55.1131
   -32.6032 -32.6019 -32.5945 -32.5938 -32.4349 -32.4335 -32.2268 -32.2227
   -32.1170 -32.1136 -32.1036 -32.0964 -32.0278 -32.0178 -31.9566 -31.9458
   -31.9365 -31.9340 -31.8950 -31.8871 -31.8615 -31.8603 -31.8548 -31.8316
   -31.8104 -31.7837 -31.7688 -31.7526 -31.7502 -31.7431 -31.7415 -31.7251
   -31.7202 -31.7151 -31.7060 -31.6404 -31.6095 -31.5568 -31.5290 -31.5156
   -31.4803 -31.4502 -31.4501 -31.3433 -31.3431 -31.3333 -31.3048 -31.3046
   -18.7566 -17.0020 -16.0486 -16.0361 -15.9178 -15.9126 -15.7353 -15.7156
   -15.6861 -15.6622 -15.6320 -15.5442 -15.4793 -15.4692 -15.4621 -15.4023
   -15.3563 -15.3442 -15.3236 -15.2984 -15.2781 -15.2524 -15.1571 -15.1293
   -15.1281 -15.0974 -15.0135 -15.0039 -14.9464 -14.8011 -14.7465 -13.6188
   -13.6186 -12.3512  -6.7476  -6.4741  -4.0259  -3.8873  -3.2212  -3.1963
    -3.1600  -3.0512  -3.0250  -2.9535  -2.8584  -2.8424  -2.8224  -2.7910
    -2.7619  -2.7538  -2.7415  -2.7068  -2.6504  -2.6315  -2.6179  -2.6059
    -2.6010  -2.5975  -2.5628  -2.5340  -2.4765  -2.4695  -2.4412  -2.4136
    -2.3909  -2.3132  -2.3049  -2.2732  -2.2728  -2.2353  -2.1258  -2.1047
    -2.0971  -2.0561  -2.0086  -1.9290  -1.8385  -1.7983  -1.7340  -1.6781
    -1.6144  -1.5874  -1.5759  -1.4740  -1.4134  -1.4053  -1.3526  -1.3065
    -1.2322  -1.1873  -1.1498  -1.1338  -1.1199  -1.0983  -1.0460  -0.9812
    -0.8675  -0.8419  -0.8272  -0.7622  -0.7565  -0.7474  -0.6458  -0.6151
    -0.5604  -0.5377  -0.5143  -0.4812  -0.4450  -0.3796  -0.2844  -0.2383
    -0.1129  -0.0996  -0.0400   0.0153   0.0260   0.1072   0.2083   0.2327
     0.3660   0.3790   0.4093   0.5376   0.6149   0.6596   0.6798   0.8028
     0.8223   0.8580   1.0275   1.2796   1.2839   1.3036   1.3046   1.5926
     2.6447   3.4367   3.4391   3.4684   3.4705   3.6787   3.6924   3.7672
     3.7988   3.8900   3.9158

     the Fermi energy is     2.8400 ev

!    total energy              =   -2972.69110008 Ry
     estimated scf accuracy    <       0.00000005 Ry
     smearing contrib. (-TS)   =      -0.01356830 Ry
     internal energy E=F+TS    =   -2972.67753178 Ry

     The total energy is F=E-TS. E is the sum of the following terms:
     one-electron contribution =  -24589.65055887 Ry
     hartree contribution      =   12386.91641410 Ry
     xc contribution           =    -493.18528553 Ry
     ewald contribution        =    9723.24162514 Ry
     electric field correction =       0.00027339 Ry

     convergence has been achieved in  67 iterations

     Forces acting on atoms (cartesian axes, Ry/au):

     atom    1 type  1   force =    -0.00000471   -0.00027646    0.10588205
     atom    2 type  1   force =    -0.00022485   -0.00076662   -0.16704529
     atom    3 type  2   force =    -0.00002488   -0.00013573   -0.03864401
     atom    4 type  2   force =    -0.00009877   -0.00038438    0.03667064
     atom    5 type  2   force =    -0.00759514   -0.00013607   -0.00568622
     atom    6 type  2   force =     0.00860738    0.00077385   -0.00737613
     atom    7 type  1   force =    -0.00080161   -0.00144900    0.01934257
     atom    8 type  1   force =     0.00109931    0.01829743    0.06270974
     atom    9 type  2   force =    -0.00008418   -0.00016744    0.00065429
     atom   10 type  2   force =    -0.00264185    0.00202113   -0.04708372
     atom   11 type  2   force =    -0.00023206   -0.00000941    0.00025577
     atom   12 type  2   force =     0.00038818   -0.00013196    0.00021955
     atom   13 type  1   force =     0.00006959   -0.00013276   -0.00120374
     atom   14 type  1   force =    -0.00050131    0.00010105   -0.00037088
     atom   15 type  2   force =     0.00022867    0.00008013    0.00023487
     atom   16 type  2   force =    -0.00014263   -0.00031513    0.00113696
     atom   17 type  2   force =     0.00025026   -0.00031372    0.00058824
     atom   18 type  2   force =    -0.00005798    0.00013845   -0.00006910
     atom   19 type  1   force =     0.00046268    0.00006093    0.00051332
     atom   20 type  1   force =     0.00000730   -0.00001981   -0.00115998
     atom   21 type  2   force =     0.00004887   -0.00001941    0.10092658
     atom   22 type  2   force =     0.00032454    0.00019005    0.00093931
     atom   23 type  2   force =    -0.07574147   -0.00012093   -0.02983505
     atom   24 type  2   force =     0.07563222    0.00033308   -0.02984557
     atom   25 type  1   force =     0.00020166   -0.00055394    0.10623815
     atom   26 type  1   force =    -0.00007651   -0.00025350   -0.16749656
     atom   27 type  2   force =    -0.00006310   -0.00031952   -0.03730337
     atom   28 type  2   force =     0.00006997   -0.00046791    0.03713366
     atom   29 type  2   force =    -0.00856548    0.00126110   -0.00508325
     atom   30 type  2   force =     0.00951984    0.00122302   -0.00679901
     atom   31 type  1   force =    -0.00129711   -0.00006336    0.02566074
     atom   32 type  1   force =     0.00114911   -0.02139672    0.06328603
     atom   33 type  2   force =    -0.00000936    0.00025039    0.00025555
     atom   34 type  2   force =    -0.00007886    0.00089849   -0.05893921
     atom   35 type  2   force =    -0.00007949    0.00008185    0.00000458
     atom   36 type  2   force =    -0.00010675    0.00036821   -0.00001145
     atom   37 type  1   force =     0.00002179   -0.00031538   -0.00078026
     atom   38 type  1   force =    -0.00042671   -0.00017040   -0.00054333
     atom   39 type  2   force =    -0.00020732    0.00045547    0.00106034
     atom   40 type  2   force =     0.00041082    0.00010289   -0.00013254
     atom   41 type  2   force =     0.00009385    0.00040030    0.00011848
     atom   42 type  2   force =     0.00029697    0.00012873    0.00024253
     atom   43 type  1   force =    -0.00032417    0.00002171   -0.00077658
     atom   44 type  1   force =     0.00022343    0.00037875   -0.00153154
     atom   45 type  2   force =     0.00002509   -0.00000259    0.10093828
     atom   46 type  2   force =    -0.07575456   -0.00010273   -0.02978956
     atom   47 type  2   force =     0.07562249    0.00032509   -0.02982845
     atom   48 type  3   force =    -0.00248224    0.00059746    0.00858002
     atom   49 type  4   force =     0.00555438    0.00072400   -0.00291910
     atom   50 type  5   force =    -0.00108183   -0.00131975   -0.00001980
     atom   51 type  3   force =    -0.00171046   -0.00013607   -0.00394582
     atom   52 type  5   force =     0.00039280    0.00030405    0.00059774
     atom   53 type  2   force =    -0.00057974    0.00001050   -0.00063807
     atom   54 type  5   force =    -0.00025581    0.00013041    0.00035971
     atom   55 type  5   force =     0.00054975   -0.00017785    0.00030789

     Total force =     0.383410     Total SCF correction =     0.000432
  @ DRIVER MODE: Message from server: STATUS
  @ DRIVER MODE: Message from server: GETFORCE
  @ DRIVER MODE: Returning v,forces,stress,ensemble

     Writing output data file ./calc.save/
  @ DRIVER MODE: Message from server: EXIT
  @ DRIVE MODE: Exiting

     General routines

     Parallel routines

   This run was terminated on:  17:22:22  15Sep2021

   JOB DONE.