     Program PWSCF v.6.7GPU starts on 15Sep2021 at 17:13:28

     R & G space division:  proc/nbgrp/npool/nimage =      10
     Reading input from /storage/home/hcoda1/3/ntian30/research/carbon/CxH_vib/H2O_calc/ads_slab/CH2NHHH2O_a/out_0005/pw.inp
Warning: card &CELL ignored
Warning: card   CELL_DYNAMICS='IPI', ignored
Warning: card / ignored

     Current dimensions of program PWSCF are:
     Max number of different atomic species (ntypx) = 10
     Max number of k-points (npk) =  40000
     Max angular momentum in pseudopotentials (lmaxx) =  3
     Presently no symmetry can be used with electric field

     Message from routine cell_base_init:
     DEPRECATED: use true lattice parameter, not A to a.u. conversion factor

     IMPORTANT: XC functional enforced from input :
     Exchange-correlation= BEEF-VDW
                           (   1   4  43  14   2   0   0)
     Any further DFT definition will be discarded
     Please, verify this is what you really want

  @ DRIVER MODE: Connecting to
 qe_1139763_2852609.sched-torque.pace.gatech.edu7dxxzufp_scratch
  using UNIX socket
  @ DRIVER MODE: Message from server: STATUS
  @ DRIVER MODE: Message from server: INIT
  @ DRIVER MODE: Receiving replica           0          -1
  @ DRIVER MODE: Receiving encoded integer          25
  @ DRIVER MODE:  SCF:  T  FORCE:  T  STRESS:  F  VC:  F  ENSEMBLE:  F
  @ DRIVER MODE:  SCF:  T  FORCE:  T  STRESS:  F  VC:  F  ENSEMBLE:  F

     Using Slab Decomposition

     bravais-lattice index     =            0
     lattice parameter (alat)  =       1.8897  a.u.
     unit-cell volume          =    6658.9804 (a.u.)^3
     number of atoms/cell      =           56
     number of atomic types    =            5
     number of electrons       =       399.00
     number of Kohn-Sham states=          209
     kinetic-energy cutoff     =      29.3995  Ry
     charge density cutoff     =     293.9946  Ry
     scf convergence threshold =      7.3E-08
     mixing beta               =       0.0500
     number of iterations used =            8  plain     mixing
     Exchange-correlation= BEEF-VDW
                           (   1   4  43  14   2   0   0)

     celldm(1)=   1.889726  celldm(2)=   0.000000  celldm(3)=   0.000000
     celldm(4)=   0.000000  celldm(5)=   0.000000  celldm(6)=   0.000000

     crystal axes: (cart. coord. in units of alat)
               a(1) = (   6.579727   0.000000   0.000000 )
               a(2) = (  -0.000775   5.961596   0.000000 )
               a(3) = (   0.000000   0.000000  25.155947 )

     reciprocal axes: (cart. coord. in units 2 pi/alat)
               b(1) = (  0.151982  0.000020  0.000000 )
               b(2) = (  0.000000  0.167740  0.000000 )
               b(3) = (  0.000000  0.000000  0.039752 )

     PseudoPot. # 1 for Ti read from file:
     /storage/coda1/p-amedford6/0/shared/rich_project_chbe-medford/medford-share/data/pseudos_module/espresso/nninc/pbe/van/Ti.UPF
     MD5 check sum: 8e4df49b7f0d34bbd5052bf3f5ea0213
     Pseudo is Ultrasoft, Zval = 12.0
     Generated by new atomic code, or converted to UPF format
     Using radial grid of  851 points,  6 beta functions with:
                l(1) =   0
                l(2) =   0
                l(3) =   1
                l(4) =   1
                l(5) =   2
                l(6) =   2
     Q(r) pseudized with  8 coefficients,  rinner =    1.000   1.000   1.000
                                                       1.000   1.000

     PseudoPot. # 2 for O  read from file:
     /storage/coda1/p-amedford6/0/shared/rich_project_chbe-medford/medford-share/data/pseudos_module/espresso/nninc/pbe/van/O.UPF
     MD5 check sum: 78c19812648e8988a0fe644b0f25305e
     Pseudo is Ultrasoft, Zval =  6.0
     Generated by new atomic code, or converted to UPF format
     Using radial grid of  737 points,  4 beta functions with:
                l(1) =   0
                l(2) =   0
                l(3) =   1
                l(4) =   1
     Q(r) pseudized with  8 coefficients,  rinner =    0.800   0.800   0.800

     PseudoPot. # 3 for N  read from file:
     /storage/coda1/p-amedford6/0/shared/rich_project_chbe-medford/medford-share/data/pseudos_module/espresso/nninc/pbe/van/N.UPF
     MD5 check sum: 90d10febe142ad51ac9d5be1deb811c4
     Pseudo is Ultrasoft, Zval =  5.0
     Generated by new atomic code, or converted to UPF format
     Using radial grid of  729 points,  4 beta functions with:
                l(1) =   0
                l(2) =   0
                l(3) =   1
                l(4) =   1
     Q(r) pseudized with  8 coefficients,  rinner =    0.800   0.800   0.800

     PseudoPot. # 4 for C  read from file:
     /storage/coda1/p-amedford6/0/shared/rich_project_chbe-medford/medford-share/data/pseudos_module/espresso/nninc/pbe/van/C.UPF
     MD5 check sum: 1a69bf6b8db32088f5b2163dbdb77a27
     Pseudo is Ultrasoft, Zval =  4.0
     Generated by new atomic code, or converted to UPF format
     Using radial grid of  721 points,  4 beta functions with:
                l(1) =   0
                l(2) =   0
                l(3) =   1
                l(4) =   1
     Q(r) pseudized with  8 coefficients,  rinner =    0.800   0.800   0.800

     PseudoPot. # 5 for H  read from file:
     /storage/coda1/p-amedford6/0/shared/rich_project_chbe-medford/medford-share/data/pseudos_module/espresso/nninc/pbe/van/H.UPF
     MD5 check sum: b5ee9d7bfd3a09ee7748110bda690ff7
     Pseudo is Ultrasoft, Zval =  1.0
     Generated by new atomic code, or converted to UPF format
     Using radial grid of  615 points,  1 beta functions with:
                l(1) =   0
     Q(r) pseudized with  8 coefficients,  rinner =    0.800

     atomic species   valence    mass     pseudopotential
        Ti1           12.00    47.86700     Ti( 1.00)
        O1             6.00    15.99900     O ( 1.00)
        N1             5.00    14.00700     N ( 1.00)
        C1             4.00    12.01100     C ( 1.00)
        H1             1.00     1.00800     H ( 1.00)

     No symmetry found

   Cartesian axes

     site n.     atom                  positions (alat units)
         1           Ti1 tau(   1) = (   0.0004258   2.9801865   6.0000000  )
         2           Ti1 tau(   2) = (   3.2906075   1.4906267   6.0002472  )
         3           O1  tau(   3) = (   0.0006271   0.0005054   7.9858123  )
         4           O1  tau(   4) = (   3.2906025   0.0005020   7.3038282  )
         5           O1  tau(   5) = (   4.5942328   1.4918067   9.2879030  )
         6           O1  tau(   6) = (   1.9868534   1.4903216   9.2879459  )
         7           Ti1 tau(   7) = (   3.2907910   2.8959150   9.1758416  )
         8           Ti1 tau(   8) = (   0.0015273   1.4827037   9.2680791  )
         9           O1  tau(   9) = (   3.2861202   0.0128588  11.3777969  )
        10           O1  tau(  10) = (   0.0116148   5.9584955  10.6183126  )
        11           O1  tau(  11) = (   1.2831632   1.4993340  12.6921085  )
        12           O1  tau(  12) = (   5.2921761   1.5015178  12.6679780  )
        13           Ti1 tau(  13) = (   0.0111066   2.9912061  12.5123142  )
        14           Ti1 tau(  14) = (   3.3187119   1.4875497  12.5412637  )
        15           O1  tau(  15) = (   6.5416963   5.9006142  14.6662030  )
        16           O1  tau(  16) = (   3.3066524   0.0016155  14.0179881  )
        17           O1  tau(  17) = (   4.5377470   1.5714702  16.1207712  )
        18           O1  tau(  18) = (   1.9925948   1.5577299  16.0387284  )
        19           Ti1 tau(  19) = (   3.2598466   3.0207798  15.7337896  )
        20           Ti1 tau(  20) = (   0.0086319   1.3133152  15.8444473  )
        21           O1  tau(  21) = (   3.2904802   0.0005063   4.7018136  )
        22           O1  tau(  22) = (   6.5660721   0.1678205  17.2271563  )
        23           O1  tau(  23) = (   1.3043587   1.4918075   6.0039043  )
        24           O1  tau(  24) = (   5.2767064   1.4903225   6.0039473  )
        25           Ti1 tau(  25) = (   0.0000382   5.9609847   6.0000000  )
        26           Ti1 tau(  26) = (   3.2902200   4.4714249   6.0002472  )
        27           O1  tau(  27) = (   0.0002396   2.9813036   7.9858123  )
        28           O1  tau(  28) = (   3.2902150   2.9813002   7.3038282  )
        29           O1  tau(  29) = (   4.5938453   4.4726049   9.2879030  )
        30           O1  tau(  30) = (   1.9864658   4.4711199   9.2879459  )
        31           Ti1 tau(  31) = (   3.2891106   5.8743827   9.1763621  )
        32           Ti1 tau(  32) = (   0.0006254   4.4649316   9.2693709  )
        33           O1  tau(  33) = (   3.2870289   2.9785969  11.3746142  )
        34           O1  tau(  34) = (   0.0092240   2.9805883  10.6323155  )
        35           O1  tau(  35) = (   1.2865429   4.4729593  12.6568099  )
        36           O1  tau(  36) = (   5.2907978   4.4713399  12.6331247  )
        37           Ti1 tau(  37) = (   0.0245089   0.0029545  12.5000319  )
        38           Ti1 tau(  38) = (   3.3192338   4.4773935  12.5310228  )
        39           O1  tau(  39) = (   6.5398775   3.0461246  14.9162120  )
        40           O1  tau(  40) = (   3.2968145   3.0151409  13.9465962  )
        41           O1  tau(  41) = (   4.5189833   4.4812017  16.2068643  )
        42           O1  tau(  42) = (   1.9905864   4.4756957  16.1679402  )
        43           Ti1 tau(  43) = (   3.3140030   0.0507474  15.8534526  )
        44           Ti1 tau(  44) = (   0.0184218   4.5194176  15.9927436  )
        45           O1  tau(  45) = (   3.2900926   2.9813045   4.7018136  )
        46           O1  tau(  46) = (   1.3039711   4.4726057   6.0039043  )
        47           O1  tau(  47) = (   5.2763189   4.4711207   6.0039473  )
        48           N1  tau(  48) = (   6.2908993   3.4294391  18.1652670  )
        49           C1  tau(  49) = (   0.7550536   3.1452864  19.0745941  )
        50           H1  tau(  50) = (   1.1396299   3.9643166  19.6610198  )
        51           H1  tau(  51) = (   1.3301158   2.2513941  18.9084762  )
        52           H1  tau(  52) = (   5.7550451   4.2450011  18.4501662  )
        53           H1  tau(  53) = (   5.6463078   2.6497838  18.0429669  )
        54           O1  tau(  54) = (   3.1180431   0.1968263  18.2683150  )
        55           H1  tau(  55) = (   3.8687171   5.7182160  18.6922429  )
        56           H1  tau(  56) = (   2.3371514   5.6040609  18.4451484  )

     number of k points=    10  Fermi-Dirac smearing, width (Ry)=  0.0073
                       cart. coord. in units 2pi/alat
        k(    1) = (   0.0000000   0.0000000   0.0000000), wk =   0.1250000
        k(    2) = (   0.0000000   0.0419351   0.0000000), wk =   0.2500000
        k(    3) = (   0.0000000  -0.0838702   0.0000000), wk =   0.1250000
        k(    4) = (   0.0379955   0.0000049   0.0000000), wk =   0.2500000
        k(    5) = (   0.0379955   0.0419400   0.0000000), wk =   0.2500000
        k(    6) = (   0.0379955  -0.0838652   0.0000000), wk =   0.2500000
        k(    7) = (   0.0379955  -0.0419301   0.0000000), wk =   0.2500000
        k(    8) = (  -0.0759910  -0.0000099   0.0000000), wk =   0.1250000
        k(    9) = (  -0.0759910   0.0419252   0.0000000), wk =   0.2500000
        k(   10) = (  -0.0759910  -0.0838800   0.0000000), wk =   0.1250000

     Initial potential from superposition of free atoms

     starting charge  382.99914, renormalised to  399.00000

     negative rho (up, down):  1.613E-02 0.000E+00

     %%%%%%%%%%%%%%%%%%%%%%%%%%%%%%%%%%%%%%%%%%%%%%%%%%%%%%%%%%%%%%%%%%%%%%%%
     %                                                                      %
     % You are using vdW-DF, which was implemented by the Thonhauser group. %
     % Please cite the following two papers that made this development      %
     % possible and the two reviews that describe the various versions:     %
     %                                                                      %
     %   T. Thonhauser et al., PRL 115, 136402 (2015).                      %
     %   T. Thonhauser et al., PRB 76, 125112 (2007).                       %
     %   K. Berland et al., Rep. Prog. Phys. 78, 066501 (2015).             %
     %   D.C. Langreth et al., J. Phys.: Condens. Matter 21, 084203 (2009). %
     %                                                                      %
     %                                                                      %
     % If you are calculating the stress with vdW-DF, please also cite:     %
     %                                                                      %
     %   R. Sabatini et al., J. Phys.: Condens. Matter 24, 424209 (2012).   %
     %                                                                      %
     %%%%%%%%%%%%%%%%%%%%%%%%%%%%%%%%%%%%%%%%%%%%%%%%%%%%%%%%%%%%%%%%%%%%%%%%

     Adding external electric field

     Computed dipole along edir(3) :
        Dipole              -11.3130 Ry au,        -28.7547 Debye
        Dipole field         -0.0213 Ry au,

        Potential amp.        1.9790 Ry
        Total length         46.3494 bohr

     Starting wfcs are  302 atomic wfcs
  @ DRIVER MODE: Message from server: STATUS
  @ DRIVER MODE: Message from server: POSDATA
  @ DRIVER MODE: Reading and sharing cell
  @ DRIVER MODE: Reading and sharing positions
  @ DRIVER MODE: Received positions

     Self-consistent Calculation

     iteration #  1     ecut=    29.40 Ry     beta= 0.05
     Davidson diagonalization with overlap
     c_bands:  3 eigenvalues not converged
     c_bands:  3 eigenvalues not converged
     c_bands:  1 eigenvalues not converged
     c_bands:  4 eigenvalues not converged
     c_bands:  1 eigenvalues not converged
     c_bands:  1 eigenvalues not converged
     c_bands:  1 eigenvalues not converged
     c_bands:  2 eigenvalues not converged
     c_bands:  3 eigenvalues not converged
     ethr =  1.00E-05,  avg # of iterations = 24.0

[...]

     total energy              =   -2437.58173644 Ry
     estimated scf accuracy    <    5825.64250891 Ry

     iteration #  2     ecut=    29.40 Ry     beta= 0.05
     Davidson diagonalization with overlap
     ethr =  1.00E-02,  avg # of iterations = 27.0

[...]

     iteration # 71     ecut=    29.40 Ry     beta= 0.05
     Davidson diagonalization with overlap
     c_bands:  1 eigenvalues not converged
     ethr =  1.84E-10,  avg # of iterations = 14.8

[...]

     total energy              =   -2955.08676578 Ry
     estimated scf accuracy    <       0.00000010 Ry

     iteration # 76     ecut=    29.40 Ry     beta= 0.05
     Davidson diagonalization with overlap
     ethr =  2.59E-11,  avg # of iterations = 13.2

     negative rho (up, down):  1.531E-02 0.000E+00

     Adding external electric field

     Computed dipole along edir(3) :
        Dipole                0.9477 Ry au,          2.4089 Debye
        Dipole field          0.0018 Ry au,

        Potential amp.       -0.1658 Ry
        Total length         46.3494 bohr

     End of self-consistent calculation

          k = 0.0000 0.0000 0.0000 ( 18029 PWs)   bands (ev):

   -55.5501 -55.5165 -55.5136 -55.4957 -55.4824 -55.4341 -55.3978 -55.3782
   -55.3612 -55.3486 -55.3434 -55.3151 -55.3031 -55.1189 -54.5426 -54.5086
   -32.1059 -32.0086 -31.9223 -31.9069 -31.8805 -31.8670 -31.8533 -31.8482
   -31.8055 -31.7699 -31.7647 -31.7613 -31.7511 -31.7271 -31.7219 -31.7010
   -31.6915 -31.6888 -31.6773 -31.6687 -31.6476 -31.6300 -31.6131 -31.6069
   -31.5778 -31.5736 -31.5687 -31.5667 -31.5643 -31.5516 -31.5424 -31.5357
   -31.5315 -31.5263 -31.5155 -31.5030 -31.4919 -31.4766 -31.4733 -31.4596
   -31.3443 -31.2999 -30.9518 -30.8581 -30.8360 -30.7682 -30.6815 -30.5706
   -19.2324 -16.3873 -16.2886 -16.0902 -15.9235 -15.8480 -15.7531 -15.6115
   -15.5410 -15.4303 -15.3945 -15.2350 -15.2082 -15.2016 -15.1691 -15.1490
   -15.1131 -15.0951 -15.0655 -15.0543 -15.0530 -15.0311 -14.9946 -14.9907
   -14.9482 -14.9352 -14.8722 -14.7796 -14.7119 -14.6479 -14.3301 -13.0448
   -12.9274  -9.1757  -7.0047  -6.5170  -4.5542  -3.7214  -3.5842  -3.5681
    -3.5067  -3.4547  -3.4098  -3.3060  -3.0744  -3.0176  -2.9834  -2.9265
    -2.8170  -2.7459  -2.7416  -2.6623  -2.5864  -2.5448  -2.4876  -2.4799
    -2.4033  -2.3695  -2.3517  -2.3291  -2.2829  -2.2560  -2.2162  -2.1244
    -2.1020  -2.0163  -1.9960  -1.9520  -1.9474  -1.9007  -1.8831  -1.8438
    -1.8430  -1.8313  -1.8098  -1.7743  -1.7320  -1.6732  -1.5857  -1.5518
    -1.3917  -1.2770  -1.2146  -1.1884  -1.1361  -1.1045  -1.0393  -0.9891
    -0.9739  -0.9408  -0.8739  -0.7701  -0.7017  -0.6894  -0.6316  -0.5415
    -0.4819  -0.4403  -0.3623  -0.3376  -0.3187  -0.3132  -0.2457  -0.1801
    -0.1355  -0.0589  -0.0434   0.0108   0.0334   0.0862   0.1150   0.1825
     0.2372   0.2792   0.3289   0.3836   0.3848   0.3998   0.4351   0.4369
     0.5375   0.5485   0.5714   0.6715   0.7712   0.9613   1.0560   1.0931
     1.3886   1.4043   1.4805   1.6649   2.0562   2.1042   3.5105   3.5413
     3.6250   3.6804   3.6893   3.7203   3.7757   4.0292   4.0406   4.0627
     4.0759

[...]

          k = 0.0380-0.0419 0.0000 ( 17876 PWs)   bands (ev):

[...]

          k =-0.0760-0.0000 0.0000 ( 17886 PWs)   bands (ev):

[...]

          k =-0.0760-0.0839 0.0000 ( 17948 PWs)   bands (ev):

   -55.5355 -55.5279 -55.4994 -55.4994 -55.4935 -55.4217 -55.4102 -55.3635
   -55.3632 -55.3575 -55.3322 -55.3317 -55.3013 -55.1207 -54.5257 -54.5254
   -31.9176 -31.9054 -31.8237 -31.8237 -31.8068 -31.8056 -31.7932 -31.7909
   -31.7908 -31.7744 -31.7634 -31.7562 -31.7386 -31.7209 -31.7018 -31.6960
   -31.6928 -31.6907 -31.6862 -31.6795 -31.6768 -31.6667 -31.6392 -31.6382
   -31.6190 -31.6189 -31.6162 -31.6069 -31.5956 -31.5873 -31.5769 -31.5711
   -31.5619 -31.5608 -31.5591 -31.5493 -31.5193 -31.5118 -31.5112 -31.4881
   -31.3832 -31.3472 -30.8487 -30.8485 -30.7644 -30.7642 -30.7249 -30.7248
   -19.2315 -16.2820 -15.8880 -15.7908 -15.6614 -15.5787 -15.5560 -15.4823
   -15.4229 -15.3895 -15.3319 -15.3109 -15.2962 -15.2808 -15.2472 -15.2189
   -15.2001 -15.1582 -15.1412 -15.1231 -15.0913 -15.0668 -15.0559 -15.0507
   -15.0450 -15.0105 -15.0061 -14.9174 -14.9113 -14.9079 -14.5716 -13.0290
   -13.0288  -9.1747  -7.0348  -6.4580  -4.5367  -3.5448  -3.0866  -3.0542
    -2.9928  -2.8599  -2.8012  -2.7347  -2.6978  -2.6567  -2.6052  -2.5719
    -2.5539  -2.5015  -2.4931  -2.4297  -2.4141  -2.3993  -2.3813  -2.3756
    -2.3690  -2.3322  -2.2949  -2.2836  -2.2756  -2.2675  -2.2520  -2.2064
    -2.1905  -2.1592  -2.1493  -2.1171  -2.0857  -2.0558  -1.9413  -1.9112
    -1.8866  -1.8188  -1.7598  -1.7539  -1.6722  -1.6505  -1.5942  -1.5901
    -1.5662  -1.5297  -1.3989  -1.2989  -1.2875  -1.2351  -1.2013  -1.1777
    -1.1170  -1.0643  -1.0107  -1.0080  -0.9122  -0.8700  -0.8434  -0.7432
    -0.7126  -0.7042  -0.5881  -0.5610  -0.5238  -0.5139  -0.5074  -0.4481
    -0.4406  -0.4141  -0.3333  -0.3155  -0.2887  -0.2772  -0.2137  -0.0517
    -0.0227   0.0225   0.1491   0.1916   0.3534   0.3843   0.4163   0.5226
     0.5657   0.6148   0.6188   0.7404   0.7504   0.8377   0.8530   0.8680
     0.9027   0.9144   1.8374   1.8387   1.9241   1.9243   3.5259   3.7717
     3.8360   3.8438   3.8804   4.0169   4.0605   4.1190   4.1223   4.1328
     4.1512

     the Fermi energy is     3.5973 ev

!    total energy              =   -2955.08678045 Ry
     estimated scf accuracy    <       0.00000006 Ry
     smearing contrib. (-TS)   =      -0.04063903 Ry
     internal energy E=F+TS    =   -2955.04614143 Ry

     The total energy is F=E-TS. E is the sum of the following terms:
     one-electron contribution =  -23875.61073992 Ry
     hartree contribution      =   12029.91875497 Ry
     xc contribution           =    -489.72665009 Ry
     ewald contribution        =    9380.37079857 Ry
     electric field correction =       0.00169504 Ry

     convergence has been achieved in  76 iterations

     Forces acting on atoms (cartesian axes, Ry/au):

     atom    1 type  1   force =    -0.00000473   -0.00024370    0.09340124
     atom    2 type  1   force =    -0.00016068   -0.00040378   -0.17806121
     atom    3 type  2   force =     0.00001424   -0.00034848   -0.02033056
     atom    4 type  2   force =    -0.00003553   -0.00190277    0.05857212
     atom    5 type  2   force =    -0.01018283   -0.00084886    0.00745170
     atom    6 type  2   force =     0.01152447   -0.00017475    0.00625217
     atom    7 type  1   force =    -0.00076889    0.00201707   -0.01056405
     atom    8 type  1   force =     0.00032687    0.00074209   -0.00335967
     atom    9 type  2   force =     0.00024629    0.00043364    0.00015402
     atom   10 type  2   force =    -0.00108524    0.00267665   -0.00408161
     atom   11 type  2   force =    -0.00026488    0.00005291   -0.00001502
     atom   12 type  2   force =    -0.00005199   -0.00002470    0.00009279
     atom   13 type  1   force =     0.00074762    0.00071453    0.00050359
     atom   14 type  1   force =    -0.00092775   -0.00012076   -0.00002708
     atom   15 type  2   force =    -0.00014289   -0.00012123    0.00042268
     atom   16 type  2   force =     0.00031527    0.00056363   -0.00009419
     atom   17 type  2   force =    -0.00010247   -0.00040300    0.00005999
     atom   18 type  2   force =     0.00073957    0.00017686   -0.00009249
     atom   19 type  1   force =    -0.00075811   -0.00058003    0.00039034
     atom   20 type  1   force =     0.00020345   -0.00040514    0.00012597
     atom   21 type  2   force =     0.00002171   -0.00011747    0.10393861
     atom   22 type  2   force =     0.00001930   -0.00113029   -0.00000748
     atom   23 type  2   force =    -0.07057052   -0.00021394   -0.02694188
     atom   24 type  2   force =     0.07038989    0.00022266   -0.02698791
     atom   25 type  1   force =     0.00003913   -0.00022259    0.09300615
     atom   26 type  1   force =    -0.00024692   -0.00043593   -0.17804875
     atom   27 type  2   force =     0.00006901   -0.00024448   -0.01931073
     atom   28 type  2   force =     0.00002536   -0.00162704    0.05767191
     atom   29 type  2   force =    -0.01076486   -0.00046424    0.00807665
     atom   30 type  2   force =     0.01198562   -0.00007532    0.00683884
     atom   31 type  1   force =    -0.00063825    0.00609066   -0.01379517
     atom   32 type  1   force =     0.00028382   -0.00085419   -0.00338487
     atom   33 type  2   force =     0.00014496    0.00005717    0.00001925
     atom   34 type  2   force =    -0.00051048   -0.00107230   -0.00269141
     atom   35 type  2   force =    -0.00040964    0.00006544    0.00001215
     atom   36 type  2   force =     0.00004081    0.00001830    0.00023672
     atom   37 type  1   force =     0.00082748   -0.00082429    0.00034364
     atom   38 type  1   force =    -0.00088276    0.00033857   -0.00046700
     atom   39 type  2   force =    -0.00021166   -0.00002370   -0.00043256
     atom   40 type  2   force =     0.00033039    0.00013558    0.00032717
     atom   41 type  2   force =    -0.00036340   -0.00008822   -0.00051630
     atom   42 type  2   force =     0.00067832   -0.00006454   -0.00072658
     atom   43 type  1   force =    -0.00095300    0.00000727    0.00071873
     atom   44 type  1   force =     0.00127997   -0.00112214    0.00043241
     atom   45 type  2   force =     0.00000917   -0.00012156    0.10393379
     atom   46 type  2   force =    -0.07056458   -0.00016759   -0.02691926
     atom   47 type  2   force =     0.07039657    0.00026971   -0.02698991
     atom   48 type  3   force =     0.00448263    0.00439524    0.00783127
     atom   49 type  4   force =    -0.00269823    0.00109484   -0.00407426
     atom   50 type  5   force =    -0.00093787   -0.00056611   -0.00097391
     atom   51 type  5   force =     0.00044255    0.00011610    0.00031633
     atom   52 type  5   force =     0.00181213   -0.00364937   -0.00247208
     atom   53 type  5   force =    -0.00181928   -0.00158132    0.00002442
     atom   54 type  2   force =     0.00001675    0.00017706    0.00008932
     atom   55 type  5   force =    -0.00067300   -0.00019655   -0.00008681
     atom   56 type  5   force =    -0.00068287    0.00007440    0.00020878

     Total force =     0.366051     Total SCF correction =     0.000514
  @ DRIVER MODE: Message from server: STATUS
  @ DRIVER MODE: Message from server: GETFORCE
  @ DRIVER MODE: Returning v,forces,stress,ensemble

     Writing output data file ./calc.save/
  @ DRIVER MODE: Message from server: EXIT
  @ DRIVE MODE: Exiting

     General routines

     Parallel routines

   This run was terminated on:  17:33:27  15Sep2021

   JOB DONE.