     Program PWSCF v.6.7GPU starts on 15Sep2021 at 19:46:53

     R & G space division:  proc/nbgrp/npool/nimage =      10
     Reading input from /storage/home/hcoda1/3/ntian30/research/carbon/CxH_vib/H2O_calc/ads_slab/CHNHHH2O_a/out_0013/pw.inp
Warning: card &CELL ignored
Warning: card   CELL_DYNAMICS='IPI', ignored
Warning: card / ignored

     Current dimensions of program PWSCF are:
     Max number of different atomic species (ntypx) = 10
     Max number of k-points (npk) =  40000
     Max angular momentum in pseudopotentials (lmaxx) =  3
     Presently no symmetry can be used with electric field

     Message from routine cell_base_init:
     DEPRECATED: use true lattice parameter, not A to a.u. conversion factor

     IMPORTANT: XC functional enforced from input :
     Exchange-correlation= BEEF-VDW
                           (   1   4  43  14   2   0   0)
     Any further DFT definition will be discarded
     Please, verify this is what you really want

  @ DRIVER MODE: Connecting to
 qe_1139763_2852629.sched-torque.pace.gatech.edua_lm0906_scratch
  using UNIX socket
  @ DRIVER MODE: Message from server: STATUS
  @ DRIVER MODE: Message from server: INIT
  @ DRIVER MODE: Receiving replica           0          -1
  @ DRIVER MODE: Receiving encoded integer          25
  @ DRIVER MODE:  SCF:  T  FORCE:  T  STRESS:  F  VC:  F  ENSEMBLE:  F
  @ DRIVER MODE:  SCF:  T  FORCE:  T  STRESS:  F  VC:  F  ENSEMBLE:  F

     Using Slab Decomposition

     bravais-lattice index     =            0
     lattice parameter (alat)  =       1.8897  a.u.
     unit-cell volume          =    6658.9804 (a.u.)^3
     number of atoms/cell      =           55
     number of atomic types    =            5
     number of electrons       =       398.00
     number of Kohn-Sham states=          209
     kinetic-energy cutoff     =      29.3995  Ry
     charge density cutoff     =     293.9946  Ry
     scf convergence threshold =      7.3E-08
     mixing beta               =       0.0500
     number of iterations used =            8  plain     mixing
     Exchange-correlation= BEEF-VDW
                           (   1   4  43  14   2   0   0)

     celldm(1)=   1.889726  celldm(2)=   0.000000  celldm(3)=   0.000000
     celldm(4)=   0.000000  celldm(5)=   0.000000  celldm(6)=   0.000000

     crystal axes: (cart. coord. in units of alat)
               a(1) = (   6.579727   0.000000   0.000000 )
               a(2) = (  -0.000775   5.961596   0.000000 )
               a(3) = (   0.000000   0.000000  25.155947 )

     reciprocal axes: (cart. coord. in units 2 pi/alat)
               b(1) = (  0.151982  0.000020  0.000000 )
               b(2) = (  0.000000  0.167740  0.000000 )
               b(3) = (  0.000000  0.000000  0.039752 )

     PseudoPot. # 1 for Ti read from file:
     /storage/coda1/p-amedford6/0/shared/rich_project_chbe-medford/medford-share/data/pseudos_module/espresso/nninc/pbe/van/Ti.UPF
     MD5 check sum: 8e4df49b7f0d34bbd5052bf3f5ea0213
     Pseudo is Ultrasoft, Zval = 12.0
     Generated by new atomic code, or converted to UPF format
     Using radial grid of  851 points,  6 beta functions with:
                l(1) =   0
                l(2) =   0
                l(3) =   1
                l(4) =   1
                l(5) =   2
                l(6) =   2
     Q(r) pseudized with  8 coefficients,  rinner =    1.000   1.000   1.000
                                                       1.000   1.000

     PseudoPot. # 2 for O  read from file:
     /storage/coda1/p-amedford6/0/shared/rich_project_chbe-medford/medford-share/data/pseudos_module/espresso/nninc/pbe/van/O.UPF
     MD5 check sum: 78c19812648e8988a0fe644b0f25305e
     Pseudo is Ultrasoft, Zval =  6.0
     Generated by new atomic code, or converted to UPF format
     Using radial grid of  737 points,  4 beta functions with:
                l(1) =   0
                l(2) =   0
                l(3) =   1
                l(4) =   1
     Q(r) pseudized with  8 coefficients,  rinner =    0.800   0.800   0.800

     PseudoPot. # 3 for N  read from file:
     /storage/coda1/p-amedford6/0/shared/rich_project_chbe-medford/medford-share/data/pseudos_module/espresso/nninc/pbe/van/N.UPF
     MD5 check sum: 90d10febe142ad51ac9d5be1deb811c4
     Pseudo is Ultrasoft, Zval =  5.0
     Generated by new atomic code, or converted to UPF format
     Using radial grid of  729 points,  4 beta functions with:
                l(1) =   0
                l(2) =   0
                l(3) =   1
                l(4) =   1
     Q(r) pseudized with  8 coefficients,  rinner =    0.800   0.800   0.800

     PseudoPot. # 4 for C  read from file:
     /storage/coda1/p-amedford6/0/shared/rich_project_chbe-medford/medford-share/data/pseudos_module/espresso/nninc/pbe/van/C.UPF
     MD5 check sum: 1a69bf6b8db32088f5b2163dbdb77a27
     Pseudo is Ultrasoft, Zval =  4.0
     Generated by new atomic code, or converted to UPF format
     Using radial grid of  721 points,  4 beta functions with:
                l(1) =   0
                l(2) =   0
                l(3) =   1
                l(4) =   1
     Q(r) pseudized with  8 coefficients,  rinner =    0.800   0.800   0.800

     PseudoPot. # 5 for H  read from file:
     /storage/coda1/p-amedford6/0/shared/rich_project_chbe-medford/medford-share/data/pseudos_module/espresso/nninc/pbe/van/H.UPF
     MD5 check sum: b5ee9d7bfd3a09ee7748110bda690ff7
     Pseudo is Ultrasoft, Zval =  1.0
     Generated by new atomic code, or converted to UPF format
     Using radial grid of  615 points,  1 beta functions with:
                l(1) =   0
     Q(r) pseudized with  8 coefficients,  rinner =    0.800

     atomic species   valence    mass     pseudopotential
        Ti1           12.00    47.86700     Ti( 1.00)
        O1             6.00    15.99900     O ( 1.00)
        N1             5.00    14.00700     N ( 1.00)
        C1             4.00    12.01100     C ( 1.00)
        H1             1.00     1.00800     H ( 1.00)

     No symmetry found

   Cartesian axes

     site n.     atom                  positions (alat units)
         1           Ti1 tau(   1) = (   0.0004258   2.9801865   6.0000000  )
         2           Ti1 tau(   2) = (   3.2906075   1.4906267   6.0002472  )
         3           O1  tau(   3) = (   0.0006271   0.0005054   7.9858123  )
         4           O1  tau(   4) = (   3.2906025   0.0005020   7.3038282  )
         5           O1  tau(   5) = (   4.5942328   1.4918067   9.2879030  )
         6           O1  tau(   6) = (   1.9868534   1.4903216   9.2879459  )
         7           Ti1 tau(   7) = (   3.2907910   2.8959150   9.1758416  )
         8           Ti1 tau(   8) = (   0.0015273   1.4827037   9.2680791  )
         9           O1  tau(   9) = (   3.2943807   5.9438157  11.3430345  )
        10           O1  tau(  10) = (   0.0116148   5.9584955  10.6183126  )
        11           O1  tau(  11) = (   1.2953376   1.4759649  12.6292060  )
        12           O1  tau(  12) = (   5.2846356   1.4785235  12.6176154  )
        13           Ti1 tau(  13) = (   0.0556596   2.9564334  12.6140783  )
        14           Ti1 tau(  14) = (   3.3658323   1.4657407  12.4949608  )
        15           O1  tau(  15) = (   6.5664030   0.0209144  14.6477191  )
        16           O1  tau(  16) = (   3.3113265   5.9542485  13.9698242  )
        17           O1  tau(  17) = (   4.5454210   1.5146250  16.1225105  )
        18           O1  tau(  18) = (   2.0305911   1.5113983  16.0894517  )
        19           Ti1 tau(  19) = (   3.2587399   2.9544808  15.6767922  )
        20           Ti1 tau(  20) = (   6.5654577   1.5458692  15.9193722  )
        21           O1  tau(  21) = (   3.2904802   0.0005063   4.7018136  )
        22           O1  tau(  22) = (   0.0418464   5.8849155  17.2380659  )
        23           O1  tau(  23) = (   1.3043587   1.4918075   6.0039043  )
        24           O1  tau(  24) = (   5.2767064   1.4903225   6.0039473  )
        25           Ti1 tau(  25) = (   0.0000382   5.9609847   6.0000000  )
        26           Ti1 tau(  26) = (   3.2902200   4.4714249   6.0002472  )
        27           O1  tau(  27) = (   0.0002396   2.9813036   7.9858123  )
        28           O1  tau(  28) = (   3.2902150   2.9813002   7.3038282  )
        29           O1  tau(  29) = (   4.5938453   4.4726049   9.2879030  )
        30           O1  tau(  30) = (   1.9864658   4.4711199   9.2879459  )
        31           Ti1 tau(  31) = (   3.2891106   5.8743827   9.1763621  )
        32           Ti1 tau(  32) = (   0.0006254   4.4649316   9.2693709  )
        33           O1  tau(  33) = (   3.2978316   2.9705197  11.3397625  )
        34           O1  tau(  34) = (   0.0092240   2.9805883  10.6323155  )
        35           O1  tau(  35) = (   1.2936985   4.4655287  12.6460247  )
        36           O1  tau(  36) = (   5.2856521   4.4646452  12.6308247  )
        37           Ti1 tau(  37) = (   0.0515089   5.9379728  12.5308627  )
        38           Ti1 tau(  38) = (   3.3654372   4.4547101  12.4935900  )
        39           O1  tau(  39) = (   6.5748852   2.9443291  14.6951209  )
        40           O1  tau(  40) = (   3.2957406   2.9584624  13.8938737  )
        41           O1  tau(  41) = (   4.5486474   4.4154460  16.0876977  )
        42           O1  tau(  42) = (   2.0388008   4.4257786  16.0448984  )
        43           Ti1 tau(  43) = (   3.3137362   5.9209902  15.7922403  )
        44           Ti1 tau(  44) = (   0.0032603   4.6697478  15.9558853  )
        45           O1  tau(  45) = (   3.2900926   2.9813045   4.7018136  )
        46           O1  tau(  46) = (   1.3039711   4.4726057   6.0039043  )
        47           O1  tau(  47) = (   5.2763189   4.4711207   6.0039473  )
        48           N1  tau(  48) = (   5.6270067   3.1633449  18.6203826  )
        49           C1  tau(  49) = (   0.0237924   2.7940403  17.7774691  )
        50           H1  tau(  50) = (   0.9484034   2.6460975  18.3247808  )
        51           H1  tau(  51) = (   4.7713523   3.5531088  18.2436842  )
        52           H1  tau(  52) = (   5.8168525   3.4166350  19.5804594  )
        53           O1  tau(  53) = (   3.2115967   5.9081562  18.2546127  )
        54           H1  tau(  54) = (   3.8106726   0.6855978  18.4519937  )
        55           H1  tau(  55) = (   2.3006756   0.2828797  18.3268221  )

     number of k points=    10  Fermi-Dirac smearing, width (Ry)=  0.0073
                       cart. coord. in units 2pi/alat
        k(    1) = (   0.0000000   0.0000000   0.0000000), wk =   0.1250000
        k(    2) = (   0.0000000   0.0419351   0.0000000), wk =   0.2500000
        k(    3) = (   0.0000000  -0.0838702   0.0000000), wk =   0.1250000
        k(    4) = (   0.0379955   0.0000049   0.0000000), wk =   0.2500000
        k(    5) = (   0.0379955   0.0419400   0.0000000), wk =   0.2500000
        k(    6) = (   0.0379955  -0.0838652   0.0000000), wk =   0.2500000
        k(    7) = (   0.0379955  -0.0419301   0.0000000), wk =   0.2500000
        k(    8) = (  -0.0759910  -0.0000099   0.0000000), wk =   0.1250000
        k(    9) = (  -0.0759910   0.0419252   0.0000000), wk =   0.2500000
        k(   10) = (  -0.0759910  -0.0838800   0.0000000), wk =   0.1250000

     Initial potential from superposition of free atoms

     starting charge  381.99915, renormalised to  398.00000

     negative rho (up, down):  1.708E-02 0.000E+00

     %%%%%%%%%%%%%%%%%%%%%%%%%%%%%%%%%%%%%%%%%%%%%%%%%%%%%%%%%%%%%%%%%%%%%%%%
     %                                                                      %
     % You are using vdW-DF, which was implemented by the Thonhauser group. %
     % Please cite the following two papers that made this development      %
     % possible and the two reviews that describe the various versions:     %
     %                                                                      %
     %   T. Thonhauser et al., PRL 115, 136402 (2015).                      %
     %   T. Thonhauser et al., PRB 76, 125112 (2007).                       %
     %   K. Berland et al., Rep. Prog. Phys. 78, 066501 (2015).             %
     %   D.C. Langreth et al., J. Phys.: Condens. Matter 21, 084203 (2009). %
     %                                                                      %
     %                                                                      %
     % If you are calculating the stress with vdW-DF, please also cite:     %
     %                                                                      %
     %   R. Sabatini et al., J. Phys.: Condens. Matter 24, 424209 (2012).   %
     %                                                                      %
     %%%%%%%%%%%%%%%%%%%%%%%%%%%%%%%%%%%%%%%%%%%%%%%%%%%%%%%%%%%%%%%%%%%%%%%%

     Adding external electric field

     Computed dipole along edir(3) :
        Dipole              -10.1352 Ry au,        -25.7611 Debye
        Dipole field         -0.0191 Ry au,

        Potential amp.        1.7730 Ry
        Total length         46.3494 bohr

     Starting wfcs are  301 atomic wfcs
  @ DRIVER MODE: Message from server: STATUS
  @ DRIVER MODE: Message from server: POSDATA
  @ DRIVER MODE: Reading and sharing cell
  @ DRIVER MODE: Reading and sharing positions
  @ DRIVER MODE: Received positions

     Self-consistent Calculation

     iteration #  1     ecut=    29.40 Ry     beta= 0.05
     Davidson diagonalization with overlap
     c_bands:  2 eigenvalues not converged
     c_bands:  1 eigenvalues not converged
     c_bands:  1 eigenvalues not converged
     c_bands:  3 eigenvalues not converged
     c_bands:  1 eigenvalues not converged
     c_bands:  3 eigenvalues not converged
     c_bands:  3 eigenvalues not converged
     c_bands:  3 eigenvalues not converged
     c_bands:  1 eigenvalues not converged
     ethr =  1.00E-05,  avg # of iterations = 19.8

[...]

     total energy              =   -2497.69388900 Ry
     estimated scf accuracy    <    5094.11618752 Ry

     iteration #  2     ecut=    29.40 Ry     beta= 0.05
     Davidson diagonalization with overlap
     ethr =  1.00E-02,  avg # of iterations = 25.7

[...]

     iteration # 59     ecut=    29.40 Ry     beta= 0.05
     Davidson diagonalization with overlap
     c_bands:  1 eigenvalues not converged
     ethr =  2.08E-09,  avg # of iterations = 11.3

[...]

     total energy              =   -2953.88243584 Ry
     estimated scf accuracy    <       0.00000014 Ry

     iteration # 69     ecut=    29.40 Ry     beta= 0.05
     Davidson diagonalization with overlap
     ethr =  3.63E-11,  avg # of iterations = 11.2

     negative rho (up, down):  1.666E-02 0.000E+00

     Adding external electric field

     Computed dipole along edir(3) :
        Dipole                1.2966 Ry au,          3.2957 Debye
        Dipole field          0.0024 Ry au,

        Potential amp.       -0.2268 Ry
        Total length         46.3494 bohr

     End of self-consistent calculation

          k = 0.0000 0.0000 0.0000 ( 18029 PWs)   bands (ev):

   -55.4419 -55.4355 -55.4163 -55.4078 -55.3994 -55.2981 -55.2562 -55.2499
   -55.2347 -55.2323 -55.2153 -55.1989 -54.8588 -54.7668 -54.4281 -54.3940
   -31.9915 -31.9257 -31.8173 -31.7931 -31.7527 -31.7487 -31.7332 -31.7229
   -31.6847 -31.6831 -31.6532 -31.6374 -31.6264 -31.6156 -31.5948 -31.5822
   -31.5729 -31.5475 -31.5434 -31.5081 -31.4996 -31.4968 -31.4626 -31.4512
   -31.4448 -31.4424 -31.4341 -31.4335 -31.4335 -31.4076 -31.4074 -31.4017
   -31.3849 -31.3811 -31.3567 -31.3498 -31.3420 -31.1907 -31.0764 -31.0245
   -30.9650 -30.9287 -30.8356 -30.7462 -30.7238 -30.6522 -30.5657 -30.4547
   -19.0625 -16.4586 -16.1993 -15.9379 -15.7544 -15.6250 -15.5976 -15.4238
   -15.2888 -15.1868 -15.1246 -15.0683 -15.0481 -15.0000 -14.9977 -14.9853
   -14.9823 -14.9513 -14.9031 -14.8823 -14.8625 -14.8212 -14.8120 -14.7951
   -14.7463 -14.7077 -14.6126 -14.5807 -14.5545 -14.5142 -14.0310 -12.9303
   -12.8137  -9.0380  -6.8715  -6.6937  -4.2694  -3.5702  -3.4078  -3.3536
    -3.3455  -3.3199  -3.2308  -3.0908  -2.9535  -2.7202  -2.6580  -2.6221
    -2.5897  -2.5525  -2.4363  -2.3853  -2.3742  -2.3080  -2.2605  -2.2526
    -2.2397  -2.2183  -2.2029  -2.1423  -2.1294  -2.0288  -1.9869  -1.9169
    -1.8563  -1.8243  -1.7739  -1.7587  -1.7154  -1.7120  -1.6970  -1.6782
    -1.6643  -1.6488  -1.5911  -1.5290  -1.4513  -1.2663  -1.2342  -1.1176
    -1.0889  -1.0571  -1.0137  -0.9297  -0.9026  -0.8804  -0.8409  -0.7501
    -0.7249  -0.6779  -0.5888  -0.4992  -0.4539  -0.4276  -0.3479  -0.3128
    -0.2848  -0.2179  -0.2105  -0.1989  -0.1235  -0.0723   0.0388   0.0751
     0.1096   0.1246   0.1393   0.2246   0.2631   0.3202   0.3642   0.4170
     0.4535   0.4683   0.5041   0.5256   0.5403   0.5673   0.5793   0.7619
     0.8033   0.8324   0.8626   0.9469   1.0496   1.1159   1.2001   1.2692
     1.5169   1.5944   1.6471   1.7848   2.1664   2.2127   3.6292   3.7577
     3.7760   3.7942   3.8255   3.8880   3.9512   4.1403   4.1628   4.1843
     4.2131

[...]

          k = 0.0380-0.0419 0.0000 ( 17876 PWs)   bands (ev):

[...]

          k =-0.0760-0.0000 0.0000 ( 17886 PWs)   bands (ev):

[...]

          k =-0.0760-0.0839 0.0000 ( 17948 PWs)   bands (ev):

   -55.4253 -55.4242 -55.4192 -55.4160 -55.4141 -55.2893 -55.2650 -55.2362
   -55.2347 -55.2297 -55.2174 -55.2144 -54.8557 -54.7699 -54.4111 -54.4109
   -31.8010 -31.7904 -31.7413 -31.7406 -31.7260 -31.7191 -31.7181 -31.7018
   -31.6867 -31.6455 -31.6381 -31.6328 -31.6230 -31.6047 -31.5687 -31.5584
   -31.5538 -31.5537 -31.5512 -31.5453 -31.5450 -31.5442 -31.5411 -31.5018
   -31.4808 -31.4751 -31.4640 -31.4501 -31.4449 -31.4410 -31.4393 -31.4388
   -31.4319 -31.4286 -31.4098 -31.4044 -31.2518 -31.1925 -31.0697 -31.0425
   -31.0256 -30.9651 -30.7366 -30.7364 -30.6484 -30.6482 -30.6090 -30.6089
   -19.0615 -16.4483 -15.6892 -15.5598 -15.4312 -15.3735 -15.3680 -15.3096
   -15.3056 -15.1922 -15.1825 -15.1539 -15.1289 -15.1122 -15.0842 -15.0648
   -15.0027 -14.9821 -14.9786 -14.9486 -14.9193 -14.9064 -14.9019 -14.8869
   -14.8831 -14.8289 -14.7728 -14.7697 -14.6588 -14.5562 -14.1877 -12.9156
   -12.9153  -9.0475  -6.8556  -6.7125  -4.2375  -3.2361  -2.9734  -2.7923
    -2.6866  -2.6305  -2.5671  -2.5484  -2.3822  -2.3671  -2.3576  -2.3205
    -2.3040  -2.2827  -2.2721  -2.2673  -2.2416  -2.2293  -2.2114  -2.1798
    -2.1465  -2.1284  -2.1204  -2.1138  -2.0975  -2.0789  -2.0559  -2.0349
    -2.0316  -2.0036  -1.9642  -1.9410  -1.8808  -1.7456  -1.7080  -1.6674
    -1.5972  -1.5907  -1.5373  -1.5210  -1.4941  -1.4664  -1.4032  -1.3800
    -1.2332  -1.1672  -1.1510  -1.1354  -1.1208  -0.9992  -0.9584  -0.8894
    -0.8633  -0.7937  -0.7633  -0.7515  -0.7050  -0.6032  -0.5903  -0.5387
    -0.5278  -0.4300  -0.4072  -0.3962  -0.3615  -0.3169  -0.2486  -0.2075
    -0.1928  -0.1833  -0.1500  -0.1429  -0.1025   0.0177   0.0777   0.1389
     0.2092   0.3108   0.4236   0.4368   0.5861   0.6128   0.6267   0.7326
     0.8184   0.8493   0.8693   0.8961   0.8997   1.0237   1.0720   1.0816
     1.0832   1.2339   1.9566   1.9579   2.0322   2.0327   3.7370   3.9370
     3.9584   4.0004   4.0469   4.1785   4.1875   4.2217   4.2231   4.3071
     4.3390

     the Fermi energy is     3.6886 ev

!    total energy              =   -2953.88247160 Ry
     estimated scf accuracy    <       0.00000006 Ry
     smearing contrib. (-TS)   =      -0.03290857 Ry
     internal energy E=F+TS    =   -2953.84956303 Ry

     The total energy is F=E-TS. E is the sum of the following terms:
     one-electron contribution =  -24258.55363059 Ry
     hartree contribution      =   12222.84431870 Ry
     xc contribution           =    -488.84907090 Ry
     ewald contribution        =    9570.70564711 Ry
     electric field correction =       0.00317264 Ry

     convergence has been achieved in  69 iterations

     Forces acting on atoms (cartesian axes, Ry/au):

     atom    1 type  1   force =     0.00020753   -0.00020340    0.09614873
     atom    2 type  1   force =    -0.00011300   -0.00027593   -0.17607980
     atom    3 type  2   force =     0.00002664    0.00001957   -0.02490242
     atom    4 type  2   force =     0.00003476   -0.00159989    0.05414751
     atom    5 type  2   force =    -0.01177389   -0.00148607    0.00428166
     atom    6 type  2   force =     0.01354026   -0.00070871    0.00349000
     atom    7 type  1   force =    -0.00083799    0.00087474   -0.01027720
     atom    8 type  1   force =     0.00024968    0.01222846    0.02352474
     atom    9 type  2   force =    -0.00035561   -0.00008256   -0.00023325
     atom   10 type  2   force =    -0.00088223   -0.00045256   -0.01481556
     atom   11 type  2   force =     0.00041707    0.00008234    0.00018567
     atom   12 type  2   force =    -0.00039401   -0.00007666    0.00003715
     atom   13 type  1   force =    -0.00066474   -0.00006847   -0.00161193
     atom   14 type  1   force =     0.00058025    0.00018597    0.00032488
     atom   15 type  2   force =     0.00058588    0.00041740    0.00011119
     atom   16 type  2   force =    -0.00028459    0.00005769    0.00037956
     atom   17 type  2   force =    -0.00014931   -0.00027677   -0.00043042
     atom   18 type  2   force =     0.00005867   -0.00010758    0.00001134
     atom   19 type  1   force =     0.00082154    0.00006724    0.00057944
     atom   20 type  1   force =    -0.00041813   -0.00059340    0.00001182
     atom   21 type  2   force =     0.00006013    0.00004516    0.10335942
     atom   22 type  2   force =     0.00040051    0.00083898   -0.00018173
     atom   23 type  2   force =    -0.07130708   -0.00008198   -0.02765933
     atom   24 type  2   force =     0.07126544    0.00035474   -0.02769627
     atom   25 type  1   force =    -0.00006052   -0.00014550    0.09567161
     atom   26 type  1   force =    -0.00019875   -0.00030925   -0.17601594
     atom   27 type  2   force =     0.00012335   -0.00040035   -0.02390336
     atom   28 type  2   force =     0.00009664   -0.00126807    0.05361458
     atom   29 type  2   force =    -0.01200506    0.00044926    0.00380740
     atom   30 type  2   force =     0.01365025    0.00069267    0.00308807
     atom   31 type  1   force =    -0.00061053    0.00370957   -0.01331937
     atom   32 type  1   force =     0.00020429   -0.01325473    0.02339393
     atom   33 type  2   force =    -0.00007641   -0.00005718   -0.00028531
     atom   34 type  2   force =    -0.00008601    0.00022113   -0.01829188
     atom   35 type  2   force =     0.00033859   -0.00048571    0.00025754
     atom   36 type  2   force =    -0.00030729   -0.00016178    0.00012078
     atom   37 type  1   force =    -0.00084353   -0.00023657   -0.00011463
     atom   38 type  1   force =     0.00047739    0.00008949    0.00065866
     atom   39 type  2   force =    -0.00002849    0.00081847    0.00001810
     atom   40 type  2   force =    -0.00023114   -0.00018275   -0.00061956
     atom   41 type  2   force =     0.00035622    0.00045305    0.00004832
     atom   42 type  2   force =    -0.00079497    0.00019510    0.00008870
     atom   43 type  1   force =     0.00079912    0.00013687   -0.00009992
     atom   44 type  1   force =    -0.00039175   -0.00098807    0.00045239
     atom   45 type  2   force =     0.00006005    0.00003642    0.10331468
     atom   46 type  2   force =    -0.07129060   -0.00001702   -0.02762631
     atom   47 type  2   force =     0.07123822    0.00040792   -0.02764721
     atom   48 type  3   force =    -0.00141028    0.00132665   -0.00094549
     atom   49 type  4   force =    -0.00864584    0.00217248   -0.00450959
     atom   50 type  5   force =     0.01037526   -0.00165938    0.00531325
     atom   51 type  5   force =     0.00050735    0.00044472    0.00024606
     atom   52 type  5   force =    -0.00007060    0.00007197    0.00030259
     atom   53 type  2   force =    -0.00150162   -0.00110740   -0.00063455
     atom   54 type  5   force =    -0.00072725    0.00082288    0.00047128
     atom   55 type  5   force =    -0.00001388   -0.00093322    0.00043997

     Total force =     0.367937     Total SCF correction =     0.000550
  @ DRIVER MODE: Message from server: STATUS
  @ DRIVER MODE: Message from server: GETFORCE
  @ DRIVER MODE: Returning v,forces,stress,ensemble

     Writing output data file ./calc.save/
  @ DRIVER MODE: Message from server: EXIT
  @ DRIVE MODE: Exiting

     General routines

     Parallel routines

   This run was terminated on:  20: 6:26  15Sep2021

   JOB DONE.