     Program PWSCF v.6.7GPU starts on 16Sep2021 at  2: 1:47

     R & G space division:  proc/nbgrp/npool/nimage =      10
     Reading input from /storage/home/hcoda1/3/ntian30/research/carbon/CxH_vib/H2O_calc/ads_slab/CHN2HH2O_a/out_0034/pw.inp
Warning: card &CELL ignored
Warning: card   CELL_DYNAMICS='IPI', ignored
Warning: card / ignored

     Current dimensions of program PWSCF are:
     Max number of different atomic species (ntypx) = 10
     Max number of k-points (npk) =  40000
     Max angular momentum in pseudopotentials (lmaxx) =  3
     Presently no symmetry can be used with electric field

     Message from routine cell_base_init:
     DEPRECATED: use true lattice parameter, not A to a.u. conversion factor

     IMPORTANT: XC functional enforced from input :
     Exchange-correlation= BEEF-VDW
                           (   1   4  43  14   2   0   0)
     Any further DFT definition will be discarded
     Please, verify this is what you really want

  @ DRIVER MODE: Connecting to
 qe_1139763_2852626.sched-torque.pace.gatech.eduxzxgo_7f_scratch
  using UNIX socket
  @ DRIVER MODE: Message from server: STATUS
  @ DRIVER MODE: Message from server: INIT
  @ DRIVER MODE: Receiving replica           0          -1
  @ DRIVER MODE: Receiving encoded integer          25
  @ DRIVER MODE:  SCF:  T  FORCE:  T  STRESS:  F  VC:  F  ENSEMBLE:  F
  @ DRIVER MODE:  SCF:  T  FORCE:  T  STRESS:  F  VC:  F  ENSEMBLE:  F

     Using Slab Decomposition

     bravais-lattice index     =            0
     lattice parameter (alat)  =       1.8897  a.u.
     unit-cell volume          =    6658.9804 (a.u.)^3
     number of atoms/cell      =           55
     number of atomic types    =            5
     number of electrons       =       402.00
     number of Kohn-Sham states=          211
     kinetic-energy cutoff     =      29.3995  Ry
     charge density cutoff     =     293.9946  Ry
     scf convergence threshold =      7.3E-08
     mixing beta               =       0.0500
     number of iterations used =            8  plain     mixing
     Exchange-correlation= BEEF-VDW
                           (   1   4  43  14   2   0   0)

     celldm(1)=   1.889726  celldm(2)=   0.000000  celldm(3)=   0.000000
     celldm(4)=   0.000000  celldm(5)=   0.000000  celldm(6)=   0.000000

     crystal axes: (cart. coord. in units of alat)
               a(1) = (   6.579727   0.000000   0.000000 )
               a(2) = (  -0.000775   5.961596   0.000000 )
               a(3) = (   0.000000   0.000000  25.155947 )

     reciprocal axes: (cart. coord. in units 2 pi/alat)
               b(1) = (  0.151982  0.000020  0.000000 )
               b(2) = (  0.000000  0.167740  0.000000 )
               b(3) = (  0.000000  0.000000  0.039752 )

     PseudoPot. # 1 for Ti read from file:
     /storage/coda1/p-amedford6/0/shared/rich_project_chbe-medford/medford-share/data/pseudos_module/espresso/nninc/pbe/van/Ti.UPF
     MD5 check sum: 8e4df49b7f0d34bbd5052bf3f5ea0213
     Pseudo is Ultrasoft, Zval = 12.0
     Generated by new atomic code, or converted to UPF format
     Using radial grid of  851 points,  6 beta functions with:
                l(1) =   0
                l(2) =   0
                l(3) =   1
                l(4) =   1
                l(5) =   2
                l(6) =   2
     Q(r) pseudized with  8 coefficients,  rinner =    1.000   1.000   1.000
                                                       1.000   1.000

     PseudoPot. # 2 for O  read from file:
     /storage/coda1/p-amedford6/0/shared/rich_project_chbe-medford/medford-share/data/pseudos_module/espresso/nninc/pbe/van/O.UPF
     MD5 check sum: 78c19812648e8988a0fe644b0f25305e
     Pseudo is Ultrasoft, Zval =  6.0
     Generated by new atomic code, or converted to UPF format
     Using radial grid of  737 points,  4 beta functions with:
                l(1) =   0
                l(2) =   0
                l(3) =   1
                l(4) =   1
     Q(r) pseudized with  8 coefficients,  rinner =    0.800   0.800   0.800

     PseudoPot. # 3 for N  read from file:
     /storage/coda1/p-amedford6/0/shared/rich_project_chbe-medford/medford-share/data/pseudos_module/espresso/nninc/pbe/van/N.UPF
     MD5 check sum: 90d10febe142ad51ac9d5be1deb811c4
     Pseudo is Ultrasoft, Zval =  5.0
     Generated by new atomic code, or converted to UPF format
     Using radial grid of  729 points,  4 beta functions with:
                l(1) =   0
                l(2) =   0
                l(3) =   1
                l(4) =   1
     Q(r) pseudized with  8 coefficients,  rinner =    0.800   0.800   0.800

     PseudoPot. # 4 for C  read from file:
     /storage/coda1/p-amedford6/0/shared/rich_project_chbe-medford/medford-share/data/pseudos_module/espresso/nninc/pbe/van/C.UPF
     MD5 check sum: 1a69bf6b8db32088f5b2163dbdb77a27
     Pseudo is Ultrasoft, Zval =  4.0
     Generated by new atomic code, or converted to UPF format
     Using radial grid of  721 points,  4 beta functions with:
                l(1) =   0
                l(2) =   0
                l(3) =   1
                l(4) =   1
     Q(r) pseudized with  8 coefficients,  rinner =    0.800   0.800   0.800

     PseudoPot. # 5 for H  read from file:
     /storage/coda1/p-amedford6/0/shared/rich_project_chbe-medford/medford-share/data/pseudos_module/espresso/nninc/pbe/van/H.UPF
     MD5 check sum: b5ee9d7bfd3a09ee7748110bda690ff7
     Pseudo is Ultrasoft, Zval =  1.0
     Generated by new atomic code, or converted to UPF format
     Using radial grid of  615 points,  1 beta functions with:
                l(1) =   0
     Q(r) pseudized with  8 coefficients,  rinner =    0.800

     atomic species   valence    mass     pseudopotential
        Ti1           12.00    47.86700     Ti( 1.00)
        O1             6.00    15.99900     O ( 1.00)
        N1             5.00    14.00700     N ( 1.00)
        C1             4.00    12.01100     C ( 1.00)
        H1             1.00     1.00800     H ( 1.00)

     No symmetry found

   Cartesian axes

     site n.     atom                  positions (alat units)
         1           Ti1 tau(   1) = (   0.0004258   2.9801865   6.0000000  )
         2           Ti1 tau(   2) = (   3.2906075   1.4906267   6.0002472  )
         3           O1  tau(   3) = (   0.0006271   0.0005054   7.9858123  )
         4           O1  tau(   4) = (   3.2906025   0.0005020   7.3038282  )
         5           O1  tau(   5) = (   4.5942328   1.4918067   9.2879030  )
         6           O1  tau(   6) = (   1.9868534   1.4903216   9.2879459  )
         7           Ti1 tau(   7) = (   3.2907910   2.8959150   9.1758416  )
         8           Ti1 tau(   8) = (   0.0015273   1.4827037   9.2680791  )
         9           O1  tau(   9) = (   3.2768631   0.0039008  11.3091060  )
        10           O1  tau(  10) = (   0.0116148   5.9584955  10.6183126  )
        11           O1  tau(  11) = (   1.2710838   1.4709840  12.6395574  )
        12           O1  tau(  12) = (   5.2772223   1.5075092  12.6020671  )
        13           Ti1 tau(  13) = (   0.0276258   2.9086511  12.7028215  )
        14           Ti1 tau(  14) = (   3.3492493   1.4375301  12.4845766  )
        15           O1  tau(  15) = (   6.5006329   5.9509897  14.6081112  )
        16           O1  tau(  16) = (   3.3450391   0.0041935  13.9069437  )
        17           O1  tau(  17) = (   4.5555219   1.5659029  16.0522165  )
        18           O1  tau(  18) = (   1.9836904   1.4119734  15.8927236  )
        19           Ti1 tau(  19) = (   3.2827818   2.9316656  15.8555152  )
        20           Ti1 tau(  20) = (   6.5629331   1.3437128  15.9803530  )
        21           O1  tau(  21) = (   3.2904802   0.0005063   4.7018136  )
        22           O1  tau(  22) = (   6.5074089   5.9525318  17.1494500  )
        23           O1  tau(  23) = (   1.3043587   1.4918075   6.0039043  )
        24           O1  tau(  24) = (   5.2767064   1.4903225   6.0039473  )
        25           Ti1 tau(  25) = (   0.0000382   5.9609847   6.0000000  )
        26           Ti1 tau(  26) = (   3.2902200   4.4714249   6.0002472  )
        27           O1  tau(  27) = (   0.0002396   2.9813036   7.9858123  )
        28           O1  tau(  28) = (   3.2902150   2.9813002   7.3038282  )
        29           O1  tau(  29) = (   4.5938453   4.4726049   9.2879030  )
        30           O1  tau(  30) = (   1.9864658   4.4711199   9.2879459  )
        31           Ti1 tau(  31) = (   3.2891106   5.8743827   9.1763621  )
        32           Ti1 tau(  32) = (   0.0006254   4.4649316   9.2693709  )
        33           O1  tau(  33) = (   3.2854303   2.9668816  11.2996989  )
        34           O1  tau(  34) = (   0.0092240   2.9805883  10.6323155  )
        35           O1  tau(  35) = (   1.2743094   4.4851408  12.6236879  )
        36           O1  tau(  36) = (   5.2782958   4.4707264  12.5946799  )
        37           Ti1 tau(  37) = (   0.0481499   5.8920156  12.5607908  )
        38           Ti1 tau(  38) = (   3.3544845   4.3749597  12.5572158  )
        39           O1  tau(  39) = (   6.5410016   3.0017514  14.6365314  )
        40           O1  tau(  40) = (   3.2441134   3.0029108  13.8718978  )
        41           O1  tau(  41) = (   4.5385932   4.4028810  16.0550583  )
        42           O1  tau(  42) = (   1.9619458   4.5383001  15.8611175  )
        43           Ti1 tau(  43) = (   3.2178196   5.9097812  15.7399460  )
        44           Ti1 tau(  44) = (   6.5330930   4.4908980  15.8705378  )
        45           O1  tau(  45) = (   3.2900926   2.9813045   4.7018136  )
        46           O1  tau(  46) = (   1.3039711   4.4726057   6.0039043  )
        47           O1  tau(  47) = (   5.2763189   4.4711207   6.0039473  )
        48           N1  tau(  48) = (   1.2867840   3.0293760  18.3347772  )
        49           C1  tau(  49) = (   2.5003166   3.0326976  17.9707196  )
        50           H1  tau(  50) = (   3.2053588   3.1791635  18.8000936  )
        51           N1  tau(  51) = (   0.2138509   2.9871109  17.4421441  )
        52           H1  tau(  52) = (   5.9621615   2.9869774  18.0311354  )
        53           O1  tau(  53) = (   3.4290693   5.9460351  18.0748810  )
        54           H1  tau(  54) = (   4.3780305   0.1327944  18.2306609  )
        55           H1  tau(  55) = (   2.9458904   0.7245148  18.4607207  )

     number of k points=    10  Fermi-Dirac smearing, width (Ry)=  0.0073
                       cart. coord. in units 2pi/alat
        k(    1) = (   0.0000000   0.0000000   0.0000000), wk =   0.1250000
        k(    2) = (   0.0000000   0.0419351   0.0000000), wk =   0.2500000
        k(    3) = (   0.0000000  -0.0838702   0.0000000), wk =   0.1250000
        k(    4) = (   0.0379955   0.0000049   0.0000000), wk =   0.2500000
        k(    5) = (   0.0379955   0.0419400   0.0000000), wk =   0.2500000
        k(    6) = (   0.0379955  -0.0838652   0.0000000), wk =   0.2500000
        k(    7) = (   0.0379955  -0.0419301   0.0000000), wk =   0.2500000
        k(    8) = (  -0.0759910  -0.0000099   0.0000000), wk =   0.1250000
        k(    9) = (  -0.0759910   0.0419252   0.0000000), wk =   0.2500000
        k(   10) = (  -0.0759910  -0.0838800   0.0000000), wk =   0.1250000

     Initial potential from superposition of free atoms

     starting charge  385.99915, renormalised to  402.00000

     negative rho (up, down):  1.831E-02 0.000E+00

     %%%%%%%%%%%%%%%%%%%%%%%%%%%%%%%%%%%%%%%%%%%%%%%%%%%%%%%%%%%%%%%%%%%%%%%%
     %                                                                      %
     % You are using vdW-DF, which was implemented by the Thonhauser group. %
     % Please cite the following two papers that made this development      %
     % possible and the two reviews that describe the various versions:     %
     %                                                                      %
     %   T. Thonhauser et al., PRL 115, 136402 (2015).                      %
     %   T. Thonhauser et al., PRB 76, 125112 (2007).                       %
     %   K. Berland et al., Rep. Prog. Phys. 78, 066501 (2015).             %
     %   D.C. Langreth et al., J. Phys.: Condens. Matter 21, 084203 (2009). %
     %                                                                      %
     %                                                                      %
     % If you are calculating the stress with vdW-DF, please also cite:     %
     %                                                                      %
     %   R. Sabatini et al., J. Phys.: Condens. Matter 24, 424209 (2012).   %
     %                                                                      %
     %%%%%%%%%%%%%%%%%%%%%%%%%%%%%%%%%%%%%%%%%%%%%%%%%%%%%%%%%%%%%%%%%%%%%%%%

     Adding external electric field

     Computed dipole along edir(3) :
        Dipole              -11.0899 Ry au,        -28.1877 Debye
        Dipole field         -0.0209 Ry au,

        Potential amp.        1.9400 Ry
        Total length         46.3494 bohr

     Starting wfcs are  304 atomic wfcs
  @ DRIVER MODE: Message from server: STATUS
  @ DRIVER MODE: Message from server: POSDATA
  @ DRIVER MODE: Reading and sharing cell
  @ DRIVER MODE: Reading and sharing positions
  @ DRIVER MODE: Received positions

     Self-consistent Calculation

     iteration #  1     ecut=    29.40 Ry     beta= 0.05
     Davidson diagonalization with overlap
     c_bands:  5 eigenvalues not converged
     c_bands:  1 eigenvalues not converged
     c_bands:  3 eigenvalues not converged
     c_bands:  4 eigenvalues not converged
     c_bands:  1 eigenvalues not converged
     c_bands:  1 eigenvalues not converged
     c_bands:  1 eigenvalues not converged
     c_bands:  1 eigenvalues not converged
     ethr =  1.00E-05,  avg # of iterations = 28.9

[...]

     total energy              =   -2403.79737471 Ry
     estimated scf accuracy    <    6374.27638001 Ry

     iteration #  2     ecut=    29.40 Ry     beta= 0.05
     Davidson diagonalization with overlap
     ethr =  1.00E-02,  avg # of iterations = 24.8

[...]

     iteration # 35     ecut=    29.40 Ry     beta= 0.05
     Davidson diagonalization with overlap
     c_bands:  1 eigenvalues not converged
     ethr =  2.27E-07,  avg # of iterations = 12.6

[...]

     total energy              =   -2972.69102399 Ry
     estimated scf accuracy    <       0.00000035 Ry

     iteration # 68     ecut=    29.40 Ry     beta= 0.05
     Davidson diagonalization with overlap
     ethr =  6.92E-11,  avg # of iterations =  6.2

     negative rho (up, down):  1.793E-02 0.000E+00

     Adding external electric field

     Computed dipole along edir(3) :
        Dipole                0.3646 Ry au,          0.9267 Debye
        Dipole field          0.0007 Ry au,

        Potential amp.       -0.0638 Ry
        Total length         46.3494 bohr

     End of self-consistent calculation

          k = 0.0000 0.0000 0.0000 ( 18029 PWs)   bands (ev):

   -56.3422 -56.3083 -55.9402 -55.9065 -55.7519 -55.7154 -55.5603 -55.5561
   -55.5471 -55.5237 -55.5138 -55.4516 -55.2528 -55.2392 -55.1455 -55.1116
   -32.7957 -32.6348 -32.6079 -32.5003 -32.4195 -32.4153 -32.4075 -32.2408
   -32.1577 -32.1534 -32.0950 -32.0822 -32.0680 -32.0433 -32.0377 -31.9784
   -31.9746 -31.9663 -31.9330 -31.9092 -31.9091 -31.8658 -31.8510 -31.8428
   -31.8184 -31.7805 -31.7590 -31.7316 -31.7286 -31.7095 -31.7076 -31.7048
   -31.6898 -31.6694 -31.6526 -31.6390 -31.5507 -31.5442 -31.5120 -31.4979
   -31.4762 -31.4695 -31.4528 -31.4406 -31.3624 -31.3327 -31.2774 -31.1657
   -18.7858 -16.9390 -16.6590 -16.3471 -16.1453 -15.9620 -15.8987 -15.8399
   -15.7872 -15.6664 -15.6047 -15.5762 -15.5042 -15.3991 -15.3796 -15.3526
   -15.3014 -15.2845 -15.2674 -15.2383 -15.1845 -15.1505 -15.1326 -15.0571
   -15.0356 -15.0237 -14.8992 -14.8317 -14.8074 -14.7724 -14.5206 -13.6445
   -13.5315 -12.2809  -6.7447  -6.5945  -4.1607  -4.0800  -3.9056  -3.7709
    -3.6664  -3.6181  -3.4634  -3.4098  -3.3644  -3.2538  -3.1192  -3.0876
    -3.0148  -2.9645  -2.9225  -2.8635  -2.8041  -2.7588  -2.7176  -2.6348
    -2.6292  -2.6181  -2.5990  -2.5802  -2.5624  -2.4481  -2.3556  -2.3394
    -2.3147  -2.2713  -2.2522  -2.2398  -2.1898  -2.1605  -2.0769  -2.0675
    -2.0206  -1.9625  -1.9158  -1.8079  -1.7959  -1.7185  -1.7022  -1.6605
    -1.5295  -1.4050  -1.3745  -1.3220  -1.3073  -1.2246  -1.2040  -1.1766
    -1.0786  -1.0663  -1.0224  -1.0005  -0.8762  -0.8509  -0.8025  -0.7950
    -0.7661  -0.6695  -0.6315  -0.5200  -0.4753  -0.4305  -0.4202  -0.3463
    -0.3174  -0.2730  -0.2225  -0.1695  -0.1680  -0.1395  -0.0560  -0.0154
     0.0302   0.0794   0.1148   0.2028   0.2565   0.2927   0.3080   0.3957
     0.4387   0.4541   0.5189   0.5880   0.6390   0.7055   0.7492   0.8631
     0.8779   0.8951   0.9772   1.1000   1.4094   1.4311   1.4714   1.6604
     2.6488   2.8811   3.0020   3.1662   3.3114   3.3609   3.6302   3.6855
     3.7283   3.7615   3.8394

[...]

          k = 0.0380-0.0419 0.0000 ( 17876 PWs)   bands (ev):

[...]

          k =-0.0760-0.0000 0.0000 ( 17886 PWs)   bands (ev):

[...]

          k =-0.0760-0.0839 0.0000 ( 17948 PWs)   bands (ev):

   -56.3258 -56.3246 -55.9251 -55.9214 -55.7405 -55.7268 -55.5559 -55.5444
   -55.5378 -55.5328 -55.5288 -55.4502 -55.2540 -55.2402 -55.1285 -55.1285
   -32.6208 -32.6196 -32.6118 -32.6112 -32.4527 -32.4514 -32.2407 -32.2366
   -32.1303 -32.1270 -32.1175 -32.1102 -32.0408 -32.0306 -31.9686 -31.9586
   -31.9492 -31.9464 -31.8979 -31.8881 -31.8666 -31.8646 -31.8582 -31.8279
   -31.8123 -31.7819 -31.7742 -31.7579 -31.7551 -31.7471 -31.7458 -31.7304
   -31.7255 -31.7161 -31.7051 -31.6357 -31.6081 -31.5550 -31.5255 -31.5101
   -31.4740 -31.4656 -31.4656 -31.3585 -31.3584 -31.3341 -31.3201 -31.3199
   -18.7835 -16.9175 -16.0635 -16.0511 -15.9332 -15.9282 -15.7497 -15.7313
   -15.6975 -15.6722 -15.6355 -15.5495 -15.4846 -15.4770 -15.4702 -15.4064
   -15.3612 -15.3521 -15.3330 -15.3051 -15.2789 -15.2525 -15.1609 -15.1349
   -15.1311 -15.1015 -15.0199 -15.0075 -14.9473 -14.8101 -14.7391 -13.6346
   -13.6340 -12.3021  -6.7492  -6.4930  -3.9926  -3.8277  -3.2340  -3.1825
    -3.1742  -3.0649  -3.0381  -2.9638  -2.8670  -2.8481  -2.8354  -2.8017
    -2.7767  -2.7683  -2.7518  -2.7076  -2.6597  -2.6383  -2.6225  -2.6138
    -2.6087  -2.5956  -2.5654  -2.5374  -2.4784  -2.4690  -2.4356  -2.4175
    -2.3892  -2.3125  -2.3041  -2.2886  -2.2873  -2.2318  -2.1322  -2.1166
    -2.1078  -2.0648  -2.0002  -1.9310  -1.8419  -1.7999  -1.7331  -1.6781
    -1.6218  -1.5931  -1.5807  -1.4818  -1.4224  -1.4119  -1.3650  -1.3121
    -1.2326  -1.1967  -1.1591  -1.1478  -1.1352  -1.0953  -1.0447  -0.9845
    -0.8696  -0.8455  -0.8349  -0.7720  -0.7675  -0.7575  -0.6484  -0.6177
    -0.5666  -0.5412  -0.5219  -0.4857  -0.4543  -0.3792  -0.2884  -0.2422
    -0.1137  -0.0975  -0.0439   0.0039   0.0158   0.1075   0.1954   0.2195
     0.3582   0.3722   0.4046   0.5373   0.6072   0.6580   0.6760   0.7984
     0.8176   0.8531   1.0202   1.2643   1.2688   1.2877   1.2888   1.6108
     2.6256   3.4204   3.4226   3.4526   3.4547   3.6645   3.6780   3.7560
     3.7938   3.8857   3.9069

     the Fermi energy is     2.8226 ev

!    total energy              =   -2972.69105211 Ry
     estimated scf accuracy    <       0.00000007 Ry
     smearing contrib. (-TS)   =      -0.01345690 Ry
     internal energy E=F+TS    =   -2972.67759521 Ry

     The total energy is F=E-TS. E is the sum of the following terms:
     one-electron contribution =  -24586.84319971 Ry
     hartree contribution      =   12385.44361350 Ry
     xc contribution           =    -493.18338197 Ry
     ewald contribution        =    9721.90512211 Ry
     electric field correction =       0.00025086 Ry

     convergence has been achieved in  68 iterations

     Forces acting on atoms (cartesian axes, Ry/au):

     atom    1 type  1   force =    -0.00000888   -0.00028739    0.10604764
     atom    2 type  1   force =    -0.00021922   -0.00076581   -0.16692950
     atom    3 type  2   force =    -0.00002478   -0.00013768   -0.03888930
     atom    4 type  2   force =    -0.00009886   -0.00037844    0.03648724
     atom    5 type  2   force =    -0.00755666   -0.00012957   -0.00575816
     atom    6 type  2   force =     0.00857043    0.00077837   -0.00744587
     atom    7 type  1   force =    -0.00080026   -0.00145699    0.01973495
     atom    8 type  1   force =     0.00110744    0.01828267    0.06311780
     atom    9 type  2   force =    -0.00008267   -0.00019736    0.00035081
     atom   10 type  2   force =    -0.00265114    0.00203277   -0.04759634
     atom   11 type  2   force =    -0.00024618   -0.00001961    0.00012316
     atom   12 type  2   force =     0.00038053   -0.00013778    0.00009026
     atom   13 type  1   force =     0.00006274   -0.00011533   -0.00045106
     atom   14 type  1   force =    -0.00048635    0.00002256    0.00002054
     atom   15 type  2   force =     0.00026850    0.00007179   -0.00029273
     atom   16 type  2   force =    -0.00013684   -0.00027831    0.00067714
     atom   17 type  2   force =     0.00020662   -0.00004177    0.00009064
     atom   18 type  2   force =     0.00009153    0.00011064   -0.00034678
     atom   19 type  1   force =     0.00007614   -0.00012126    0.00122544
     atom   20 type  1   force =     0.00015037    0.00031511   -0.00005118
     atom   21 type  2   force =     0.00004982   -0.00002122    0.10086377
     atom   22 type  2   force =     0.00024749    0.00021226    0.00060205
     atom   23 type  2   force =    -0.07579944   -0.00011843   -0.02987062
     atom   24 type  2   force =     0.07568780    0.00033691   -0.02987906
     atom   25 type  1   force =     0.00019772   -0.00055669    0.10641545
     atom   26 type  1   force =    -0.00006690   -0.00026196   -0.16736838
     atom   27 type  2   force =    -0.00006234   -0.00032159   -0.03753871
     atom   28 type  2   force =     0.00007060   -0.00045795    0.03694295
     atom   29 type  2   force =    -0.00852686    0.00126094   -0.00515459
     atom   30 type  2   force =     0.00948207    0.00122234   -0.00687162
     atom   31 type  1   force =    -0.00130048   -0.00008270    0.02605669
     atom   32 type  1   force =     0.00115827   -0.02138954    0.06368820
     atom   33 type  2   force =    -0.00002328    0.00024491   -0.00003584
     atom   34 type  2   force =    -0.00008482    0.00090550   -0.05940545
     atom   35 type  2   force =    -0.00009444    0.00009819   -0.00012727
     atom   36 type  2   force =    -0.00010860    0.00037490   -0.00014190
     atom   37 type  1   force =     0.00002279   -0.00031919   -0.00000148
     atom   38 type  1   force =    -0.00042467   -0.00011581   -0.00017066
     atom   39 type  2   force =    -0.00022188    0.00041143    0.00052987
     atom   40 type  2   force =     0.00046763    0.00014293   -0.00040620
     atom   41 type  2   force =    -0.00017904    0.00057124    0.00017135
     atom   42 type  2   force =     0.00050789    0.00025406    0.00013516
     atom   43 type  1   force =    -0.00047042    0.00024207   -0.00007249
     atom   44 type  1   force =     0.00046613    0.00001652   -0.00038706
     atom   45 type  2   force =     0.00002610   -0.00000388    0.10090247
     atom   46 type  2   force =    -0.07581008   -0.00010724   -0.02982539
     atom   47 type  2   force =     0.07567883    0.00032084   -0.02986068
     atom   48 type  3   force =     0.00010260    0.00028751    0.00002223
     atom   49 type  4   force =     0.00071335    0.00126589    0.00093325
     atom   50 type  5   force =    -0.00026959   -0.00138231   -0.00025209
     atom   51 type  3   force =     0.00014593    0.00005626   -0.00031495
     atom   52 type  5   force =     0.00001038    0.00026224    0.00024227
     atom   53 type  2   force =     0.00359514   -0.01397025   -0.00798764
     atom   54 type  5   force =     0.00150604    0.00179648    0.00154636
     atom   55 type  5   force =    -0.00529620    0.01127875    0.00641532

     Total force =     0.384185     Total SCF correction =     0.000982
  @ DRIVER MODE: Message from server: STATUS
  @ DRIVER MODE: Message from server: GETFORCE
  @ DRIVER MODE: Returning v,forces,stress,ensemble

     Writing output data file ./calc.save/
  @ DRIVER MODE: Message from server: EXIT
  @ DRIVE MODE: Exiting

     General routines

     Parallel routines

   This run was terminated on:   2:19:46  16Sep2021

   JOB DONE.