     Program PWSCF v.6.7GPU starts on 22Sep2021 at 20: 8:43

     R & G space division:  proc/nbgrp/npool/nimage =      10
     Reading input from /storage/home/hcoda1/3/ntian30/research/carbon/CxH_vib/H2O_calc/ads_slab/CH3OHO_a/out_0012/pw.inp
Warning: card &CELL ignored
Warning: card   CELL_DYNAMICS='IPI', ignored
Warning: card / ignored

     Current dimensions of program PWSCF are:
     Max number of different atomic species (ntypx) = 10
     Max number of k-points (npk) =  40000
     Max angular momentum in pseudopotentials (lmaxx) =  3
     Presently no symmetry can be used with electric field

     Message from routine cell_base_init:
     DEPRECATED: use true lattice parameter, not A to a.u. conversion factor

     IMPORTANT: XC functional enforced from input :
     Exchange-correlation= BEEF-VDW
                           (   1   4  43  14   2   0   0)
     Any further DFT definition will be discarded
     Please, verify this is what you really want

  @ DRIVER MODE: Connecting to
 qe_1139763_2937320.sched-torque.pace.gatech.eduap5z_9a6_scratch
  using UNIX socket
  @ DRIVER MODE: Message from server: STATUS
  @ DRIVER MODE: Message from server: INIT
  @ DRIVER MODE: Receiving replica           0          -1
  @ DRIVER MODE: Receiving encoded integer          25
  @ DRIVER MODE:  SCF:  T  FORCE:  T  STRESS:  F  VC:  F  ENSEMBLE:  F
  @ DRIVER MODE:  SCF:  T  FORCE:  T  STRESS:  F  VC:  F  ENSEMBLE:  F

     Using Slab Decomposition

     bravais-lattice index     =            0
     lattice parameter (alat)  =       1.8897  a.u.
     unit-cell volume          =    6658.9804 (a.u.)^3
     number of atoms/cell      =           54
     number of atomic types    =            4
     number of electrons       =       398.00
     number of Kohn-Sham states=          209
     kinetic-energy cutoff     =      29.3995  Ry
     charge density cutoff     =     293.9946  Ry
     scf convergence threshold =      7.3E-08
     mixing beta               =       0.0500
     number of iterations used =            8  plain     mixing
     Exchange-correlation= BEEF-VDW
                           (   1   4  43  14   2   0   0)

     celldm(1)=   1.889726  celldm(2)=   0.000000  celldm(3)=   0.000000
     celldm(4)=   0.000000  celldm(5)=   0.000000  celldm(6)=   0.000000

     crystal axes: (cart. coord. in units of alat)
               a(1) = (   6.579727   0.000000   0.000000 )
               a(2) = (  -0.000775   5.961596   0.000000 )
               a(3) = (   0.000000   0.000000  25.155947 )

     reciprocal axes: (cart. coord. in units 2 pi/alat)
               b(1) = (  0.151982  0.000020  0.000000 )
               b(2) = (  0.000000  0.167740  0.000000 )
               b(3) = (  0.000000  0.000000  0.039752 )

     PseudoPot. # 1 for Ti read from file:
     /storage/coda1/p-amedford6/0/shared/rich_project_chbe-medford/medford-share/data/pseudos_module/espresso/nninc/pbe/van/Ti.UPF
     MD5 check sum: 8e4df49b7f0d34bbd5052bf3f5ea0213
     Pseudo is Ultrasoft, Zval = 12.0
     Generated by new atomic code, or converted to UPF format
     Using radial grid of  851 points,  6 beta functions with:
                l(1) =   0
                l(2) =   0
                l(3) =   1
                l(4) =   1
                l(5) =   2
                l(6) =   2
     Q(r) pseudized with  8 coefficients,  rinner =    1.000   1.000   1.000
                                                       1.000   1.000

     PseudoPot. # 2 for O  read from file:
     /storage/coda1/p-amedford6/0/shared/rich_project_chbe-medford/medford-share/data/pseudos_module/espresso/nninc/pbe/van/O.UPF
     MD5 check sum: 78c19812648e8988a0fe644b0f25305e
     Pseudo is Ultrasoft, Zval =  6.0
     Generated by new atomic code, or converted to UPF format
     Using radial grid of  737 points,  4 beta functions with:
                l(1) =   0
                l(2) =   0
                l(3) =   1
                l(4) =   1
     Q(r) pseudized with  8 coefficients,  rinner =    0.800   0.800   0.800

     PseudoPot. # 3 for C  read from file:
     /storage/coda1/p-amedford6/0/shared/rich_project_chbe-medford/medford-share/data/pseudos_module/espresso/nninc/pbe/van/C.UPF
     MD5 check sum: 1a69bf6b8db32088f5b2163dbdb77a27
     Pseudo is Ultrasoft, Zval =  4.0
     Generated by new atomic code, or converted to UPF format
     Using radial grid of  721 points,  4 beta functions with:
                l(1) =   0
                l(2) =   0
                l(3) =   1
                l(4) =   1
     Q(r) pseudized with  8 coefficients,  rinner =    0.800   0.800   0.800

     PseudoPot. # 4 for H  read from file:
     /storage/coda1/p-amedford6/0/shared/rich_project_chbe-medford/medford-share/data/pseudos_module/espresso/nninc/pbe/van/H.UPF
     MD5 check sum: b5ee9d7bfd3a09ee7748110bda690ff7
     Pseudo is Ultrasoft, Zval =  1.0
     Generated by new atomic code, or converted to UPF format
     Using radial grid of  615 points,  1 beta functions with:
                l(1) =   0
     Q(r) pseudized with  8 coefficients,  rinner =    0.800

     atomic species   valence    mass     pseudopotential
        Ti1           12.00    47.86700     Ti( 1.00)
        O1             6.00    15.99900     O ( 1.00)
        C1             4.00    12.01100     C ( 1.00)
        H1             1.00     1.00800     H ( 1.00)

     No symmetry found

   Cartesian axes

     site n.     atom                  positions (alat units)
         1           Ti1 tau(   1) = (   0.0004258   2.9801865   6.0000000  )
         2           Ti1 tau(   2) = (   3.2906075   1.4906267   6.0002472  )
         3           O1  tau(   3) = (   0.0006271   0.0005054   7.9858123  )
         4           O1  tau(   4) = (   3.2906025   0.0005020   7.3038282  )
         5           O1  tau(   5) = (   4.5942328   1.4918067   9.2879030  )
         6           O1  tau(   6) = (   1.9868534   1.4903216   9.2879459  )
         7           Ti1 tau(   7) = (   3.2957662   3.1068914   9.2181075  )
         8           Ti1 tau(   8) = (   0.0157633   1.6119101   9.3474628  )
         9           O1  tau(   9) = (   3.3075722   0.0245345  11.3221904  )
        10           O1  tau(  10) = (   0.0080709   0.0223756  10.5933645  )
        11           O1  tau(  11) = (   1.2996580   1.5014007  12.6293879  )
        12           O1  tau(  12) = (   5.3220639   1.4985920  12.6296061  )
        13           Ti1 tau(  13) = (   0.0338638   3.0995910  12.8036746  )
        14           Ti1 tau(  14) = (   3.3037623   1.5692239  12.4279754  )
        15           O1  tau(  15) = (   0.0261714   0.0103614  14.6808343  )
        16           O1  tau(  16) = (   3.3158872   5.9294016  13.9235834  )
        17           O1  tau(  17) = (   4.5845781   1.5190771  16.0542726  )
        18           O1  tau(  18) = (   2.0543804   1.5366111  16.0227792  )
        19           Ti1 tau(  19) = (   3.3281905   2.9581697  15.6655982  )
        20           Ti1 tau(  20) = (   0.0947853   1.4300879  15.9722461  )
        21           O1  tau(  21) = (   3.2904802   0.0005063   4.7018136  )
        22           O1  tau(  22) = (   0.0746355   0.0166105  17.2029963  )
        23           O1  tau(  23) = (   1.3043587   1.4918075   6.0039043  )
        24           O1  tau(  24) = (   5.2767064   1.4903225   6.0039473  )
        25           Ti1 tau(  25) = (   0.0000382   5.9609847   6.0000000  )
        26           Ti1 tau(  26) = (   3.2902200   4.4714249   6.0002472  )
        27           O1  tau(  27) = (   0.0002396   2.9813036   7.9858123  )
        28           O1  tau(  28) = (   3.2902150   2.9813002   7.3038282  )
        29           O1  tau(  29) = (   4.5938453   4.4726049   9.2879030  )
        30           O1  tau(  30) = (   1.9864658   4.4711199   9.2879459  )
        31           Ti1 tau(  31) = (   3.3049890   0.1224192   9.1815931  )
        32           Ti1 tau(  32) = (   0.0115838   4.5621182   9.3618056  )
        33           O1  tau(  33) = (   3.3056077   2.9569042  11.2892548  )
        34           O1  tau(  34) = (   0.0073068   3.0072357  10.5542745  )
        35           O1  tau(  35) = (   1.3032543   4.4799722  12.6367586  )
        36           O1  tau(  36) = (   5.3275811   4.4862388  12.6364370  )
        37           Ti1 tau(  37) = (   0.0060541   0.1153383  12.6179110  )
        38           Ti1 tau(  38) = (   3.3135592   4.6638430  12.6816895  )
        39           O1  tau(  39) = (   0.0323206   2.9919573  14.6814448  )
        40           O1  tau(  40) = (   3.3290587   2.9835885  13.8850256  )
        41           O1  tau(  41) = (   4.5809508   4.4372854  16.0867525  )
        42           O1  tau(  42) = (   2.0525355   4.4234120  16.0327814  )
        43           Ti1 tau(  43) = (   3.4083040   5.9395600  16.2643712  )
        44           Ti1 tau(  44) = (   0.1061243   4.5568233  16.0547075  )
        45           O1  tau(  45) = (   3.2900926   2.9813045   4.7018136  )
        46           O1  tau(  46) = (   1.3039711   4.4726057   6.0039043  )
        47           O1  tau(  47) = (   5.2763189   4.4711207   6.0039473  )
        48           C1  tau(  48) = (   6.0247352   2.9430639  18.6208924  )
        49           O1  tau(  49) = (   0.0129984   2.9830681  17.3198104  )
        50           H1  tau(  50) = (   4.9427965   2.8012130  18.5644550  )
        51           H1  tau(  51) = (   6.4567215   2.1053551  19.1708771  )
        52           H1  tau(  52) = (   6.2362830   3.8810018  19.1352789  )
        53           O1  tau(  53) = (   3.2195589   0.0134334  18.0862892  )
        54           H1  tau(  54) = (   2.3313237   0.1261415  18.4590370  )

     number of k points=    10  Fermi-Dirac smearing, width (Ry)=  0.0073
                       cart. coord. in units 2pi/alat
        k(    1) = (   0.0000000   0.0000000   0.0000000), wk =   0.1250000
        k(    2) = (   0.0000000   0.0419351   0.0000000), wk =   0.2500000
        k(    3) = (   0.0000000  -0.0838702   0.0000000), wk =   0.1250000
        k(    4) = (   0.0379955   0.0000049   0.0000000), wk =   0.2500000
        k(    5) = (   0.0379955   0.0419400   0.0000000), wk =   0.2500000
        k(    6) = (   0.0379955  -0.0838652   0.0000000), wk =   0.2500000
        k(    7) = (   0.0379955  -0.0419301   0.0000000), wk =   0.2500000
        k(    8) = (  -0.0759910  -0.0000099   0.0000000), wk =   0.1250000
        k(    9) = (  -0.0759910   0.0419252   0.0000000), wk =   0.2500000
        k(   10) = (  -0.0759910  -0.0838800   0.0000000), wk =   0.1250000

     Initial potential from superposition of free atoms

     starting charge  381.99917, renormalised to  398.00000

     negative rho (up, down):  1.723E-02 0.000E+00

     %%%%%%%%%%%%%%%%%%%%%%%%%%%%%%%%%%%%%%%%%%%%%%%%%%%%%%%%%%%%%%%%%%%%%%%%
     %                                                                      %
     % You are using vdW-DF, which was implemented by the Thonhauser group. %
     % Please cite the following two papers that made this development      %
     % possible and the two reviews that describe the various versions:     %
     %                                                                      %
     %   T. Thonhauser et al., PRL 115, 136402 (2015).                      %
     %   T. Thonhauser et al., PRB 76, 125112 (2007).                       %
     %   K. Berland et al., Rep. Prog. Phys. 78, 066501 (2015).             %
     %   D.C. Langreth et al., J. Phys.: Condens. Matter 21, 084203 (2009). %
     %                                                                      %
     %                                                                      %
     % If you are calculating the stress with vdW-DF, please also cite:     %
     %                                                                      %
     %   R. Sabatini et al., J. Phys.: Condens. Matter 24, 424209 (2012).   %
     %                                                                      %
     %%%%%%%%%%%%%%%%%%%%%%%%%%%%%%%%%%%%%%%%%%%%%%%%%%%%%%%%%%%%%%%%%%%%%%%%

     Adding external electric field

     Computed dipole along edir(3) :
        Dipole               -8.3499 Ry au,        -21.2234 Debye
        Dipole field         -0.0158 Ry au,

        Potential amp.        1.4607 Ry
        Total length         46.3494 bohr

     Starting wfcs are  300 atomic wfcs
  @ DRIVER MODE: Message from server: STATUS
  @ DRIVER MODE: Message from server: POSDATA
  @ DRIVER MODE: Reading and sharing cell
  @ DRIVER MODE: Reading and sharing positions
  @ DRIVER MODE: Received positions

     Self-consistent Calculation

     iteration #  1     ecut=    29.40 Ry     beta= 0.05
     Davidson diagonalization with overlap
     c_bands:  1 eigenvalues not converged
     c_bands:  1 eigenvalues not converged
     c_bands:  1 eigenvalues not converged
     c_bands:  1 eigenvalues not converged
     c_bands:  1 eigenvalues not converged
     ethr =  1.00E-05,  avg # of iterations = 18.4

[...]

     total energy              =   -2612.87786856 Ry
     estimated scf accuracy    <    3892.51850758 Ry

     iteration #  2     ecut=    29.40 Ry     beta= 0.05
     Davidson diagonalization with overlap
     ethr =  1.00E-02,  avg # of iterations = 23.7

[...]

     iteration # 42     ecut=    29.40 Ry     beta= 0.05
     Davidson diagonalization with overlap
     c_bands:  2 eigenvalues not converged
     c_bands:  2 eigenvalues not converged
     c_bands:  1 eigenvalues not converged
     c_bands:  1 eigenvalues not converged
     c_bands:  1 eigenvalues not converged
     ethr =  1.72E-06,  avg # of iterations = 14.2

[...]

     total energy              =   -2965.10854206 Ry
     estimated scf accuracy    <       0.00000015 Ry

     iteration # 86     ecut=    29.40 Ry     beta= 0.05
     Davidson diagonalization with overlap
     ethr =  2.95E-11,  avg # of iterations =  5.1

     negative rho (up, down):  1.731E-02 0.000E+00

     Adding external electric field

     Computed dipole along edir(3) :
        Dipole                0.5217 Ry au,          1.3259 Debye
        Dipole field          0.0010 Ry au,

        Potential amp.       -0.0913 Ry
        Total length         46.3494 bohr

     End of self-consistent calculation

          k = 0.0000 0.0000 0.0000 ( 18029 PWs)   bands (ev):

   -56.4519 -56.4051 -55.8803 -55.8470 -55.8335 -55.8268 -55.7823 -55.7459
   -55.7220 -55.7050 -55.6689 -55.6267 -55.6228 -55.4759 -55.0551 -55.0212
   -32.8643 -32.7169 -32.6674 -32.6313 -32.5369 -32.4908 -32.3696 -32.3254
   -32.3194 -32.2000 -32.1665 -32.1424 -32.1378 -32.1216 -32.1147 -32.0779
   -32.0737 -32.0572 -32.0443 -32.0389 -32.0245 -31.9876 -31.9764 -31.9614
   -31.9534 -31.9415 -31.9389 -31.9270 -31.9255 -31.9144 -31.9104 -31.8948
   -31.8727 -31.8703 -31.8629 -31.8321 -31.8207 -31.8199 -31.7908 -31.7317
   -31.7012 -31.6823 -31.4493 -31.3960 -31.3716 -31.2661 -31.1811 -31.0705
   -17.6442 -16.6308 -16.5950 -16.4509 -16.2130 -16.0657 -15.9855 -15.7662
   -15.7634 -15.6443 -15.6320 -15.5988 -15.4606 -15.4479 -15.4419 -15.3827
   -15.3698 -15.3591 -15.3530 -15.3427 -15.3323 -15.2845 -15.2718 -15.2198
   -15.1610 -15.0943 -15.0625 -15.0209 -15.0005 -14.9666 -14.7354 -13.5574
   -13.4491  -9.3056  -4.3324  -4.2467  -4.1316  -4.0376  -3.8912  -3.7895
    -3.7529  -3.6692  -3.5878  -3.4776  -3.2792  -3.1172  -3.0605  -3.0234
    -2.9909  -2.9372  -2.8826  -2.8235  -2.7782  -2.7488  -2.7207  -2.6529
    -2.6362  -2.6251  -2.5971  -2.5901  -2.5539  -2.5246  -2.5111  -2.3769
    -2.3486  -2.3094  -2.3060  -2.2466  -2.2266  -2.2007  -2.1945  -2.1456
    -2.0515  -1.9721  -1.9353  -1.8954  -1.7037  -1.6522  -1.5795  -1.5157
    -1.4380  -1.3907  -1.3711  -1.3416  -1.2770  -1.2489  -1.1353  -1.1153
    -1.0685  -1.0049  -1.0013  -0.9637  -0.9012  -0.8690  -0.8138  -0.7807
    -0.7572  -0.6117  -0.5834  -0.5562  -0.5178  -0.5090  -0.4059  -0.3403
    -0.2950  -0.2772  -0.2301  -0.1961  -0.1549  -0.1109  -0.0924  -0.0643
     0.0224   0.0483   0.0722   0.1226   0.1530   0.1777   0.2034   0.2907
     0.3391   0.3546   0.3740   0.5254   0.5683   0.5817   0.7098   0.7354
     0.8974   0.9614   0.9992   1.1785   1.2247   1.5113   1.5535   2.8499
     3.0081   3.2792   3.4291   3.4942   3.5335   3.5871   3.6043   3.7447
     3.7816

[...]

          k = 0.0380-0.0419 0.0000 ( 17876 PWs)   bands (ev):

[...]

          k =-0.0760-0.0000 0.0000 ( 17886 PWs)   bands (ev):

[...]

          k =-0.0760-0.0839 0.0000 ( 17948 PWs)   bands (ev):

   -56.4448 -56.4121 -55.8784 -55.8416 -55.8323 -55.8228 -55.7872 -55.7497
   -55.7237 -55.7065 -55.6604 -55.6351 -55.6209 -55.4777 -55.0383 -55.0379
   -32.7123 -32.6951 -32.6715 -32.6673 -32.5966 -32.5687 -32.2585 -32.1961
   -32.1692 -32.1339 -32.1146 -32.1062 -32.1006 -32.0847 -32.0740 -32.0616
   -32.0567 -32.0514 -32.0452 -32.0380 -32.0352 -32.0301 -32.0076 -32.0046
   -32.0044 -31.9876 -31.9780 -31.9609 -31.9547 -31.9493 -31.9285 -31.9146
   -31.9085 -31.8979 -31.8847 -31.8702 -31.8698 -31.8356 -31.8251 -31.8057
   -31.7339 -31.6859 -31.3848 -31.3846 -31.2648 -31.2632 -31.2234 -31.2225
   -17.6089 -16.6002 -15.9922 -15.9141 -15.9099 -15.8984 -15.8718 -15.8298
   -15.7523 -15.7460 -15.6737 -15.6080 -15.5737 -15.5271 -15.5043 -15.4940
   -15.4567 -15.4522 -15.3956 -15.3522 -15.3354 -15.3244 -15.3046 -15.2612
   -15.2555 -15.2528 -15.2293 -15.2095 -15.1634 -15.0631 -14.8756 -13.5534
   -13.5523  -9.3059  -4.2579  -4.1756  -3.9720  -3.7408  -3.2249  -3.1494
    -3.0757  -3.0672  -2.9926  -2.9325  -2.9183  -2.8730  -2.8661  -2.8339
    -2.7631  -2.7523  -2.7397  -2.7292  -2.7216  -2.7129  -2.6904  -2.6447
    -2.6318  -2.6242  -2.6070  -2.5998  -2.5869  -2.5842  -2.5555  -2.5186
    -2.4479  -2.3848  -2.2651  -2.2576  -2.2203  -2.2048  -2.1630  -2.1522
    -2.0990  -2.0071  -1.9949  -1.9922  -1.9022  -1.8460  -1.6314  -1.6158
    -1.6008  -1.5342  -1.4618  -1.3950  -1.3723  -1.3474  -1.3177  -1.2936
    -1.2446  -1.1934  -1.1606  -1.1248  -1.1080  -1.0701  -1.0141  -0.9465
    -0.9152  -0.9118  -0.8682  -0.8206  -0.7898  -0.7112  -0.7035  -0.6814
    -0.6577  -0.6120  -0.5327  -0.4818  -0.4373  -0.3427  -0.2919  -0.2686
    -0.1219  -0.0670  -0.0331   0.0479   0.0962   0.1879   0.2135   0.2936
     0.3025   0.3304   0.3546   0.4400   0.4966   0.5531   0.5975   0.6375
     0.6506   0.6986   0.7730   1.3554   1.3559   1.3632   1.3709   3.3952
     3.4200   3.4278   3.4576   3.6846   3.7031   3.7738   3.8040   3.8217
     3.8749

     the Fermi energy is     2.2596 ev

!    total energy              =   -2965.10854609 Ry
     estimated scf accuracy    <       0.00000003 Ry
     smearing contrib. (-TS)   =      -0.00015934 Ry
     internal energy E=F+TS    =   -2965.10838675 Ry

     The total energy is F=E-TS. E is the sum of the following terms:
     one-electron contribution =  -24219.71776701 Ry
     hartree contribution      =   12199.06917654 Ry
     xc contribution           =    -490.03205572 Ry
     ewald contribution        =    9545.57174591 Ry
     electric field correction =       0.00051353 Ry

     convergence has been achieved in  86 iterations

     Forces acting on atoms (cartesian axes, Ry/au):

     atom    1 type  1   force =    -0.00002489    0.00002938    0.13236104
     atom    2 type  1   force =    -0.00019123    0.00778419   -0.15741292
     atom    3 type  2   force =     0.00008490   -0.00480387   -0.05218171
     atom    4 type  2   force =     0.00035967    0.00109217    0.04043960
     atom    5 type  2   force =    -0.00609660   -0.00278225   -0.00019550
     atom    6 type  2   force =     0.00838590   -0.00338074    0.00078361
     atom    7 type  1   force =    -0.00002397   -0.00015770   -0.00000853
     atom    8 type  1   force =     0.00020522   -0.00057216    0.00038946
     atom    9 type  2   force =    -0.00004286    0.00020659   -0.00007557
     atom   10 type  2   force =    -0.00014443   -0.00037139   -0.00013293
     atom   11 type  2   force =     0.00040091    0.00026946   -0.00016484
     atom   12 type  2   force =    -0.00023258    0.00016306   -0.00002768
     atom   13 type  1   force =    -0.00069116    0.00050887   -0.00039656
     atom   14 type  1   force =     0.00007879   -0.00031785   -0.00014937
     atom   15 type  2   force =    -0.00019608    0.00007229   -0.00034372
     atom   16 type  2   force =    -0.00034007    0.00009416   -0.00003637
     atom   17 type  2   force =     0.00035216    0.00018718   -0.00004775
     atom   18 type  2   force =    -0.00091136    0.00030634   -0.00022795
     atom   19 type  1   force =     0.00008265   -0.00042615    0.00017147
     atom   20 type  1   force =    -0.00010880    0.00052447    0.00153881
     atom   21 type  2   force =    -0.00002435    0.00002209    0.09911348
     atom   22 type  2   force =     0.00000832    0.00006937   -0.00019395
     atom   23 type  2   force =    -0.08089769    0.00049031   -0.03408180
     atom   24 type  2   force =     0.08070288    0.00095605   -0.03414577
     atom   25 type  1   force =    -0.00001179   -0.00027346    0.14097289
     atom   26 type  1   force =    -0.00013148   -0.00647970   -0.15705919
     atom   27 type  2   force =     0.00016299    0.00109433   -0.05218009
     atom   28 type  2   force =     0.00018990    0.00033429    0.04177017
     atom   29 type  2   force =    -0.00751248    0.00512610    0.00201681
     atom   30 type  2   force =     0.00858463    0.00383358    0.00271814
     atom   31 type  1   force =    -0.00002501    0.00016081    0.00001704
     atom   32 type  1   force =     0.00029893   -0.00006632   -0.00052735
     atom   33 type  2   force =    -0.00005835    0.00040614    0.00019001
     atom   34 type  2   force =    -0.00011927    0.00020050    0.00042877
     atom   35 type  2   force =    -0.00054506   -0.00035942   -0.00004617
     atom   36 type  2   force =     0.00053031   -0.00044722    0.00018649
     atom   37 type  1   force =    -0.00055868   -0.00028151   -0.00019345
     atom   38 type  1   force =     0.00001419   -0.00002208   -0.00035119
     atom   39 type  2   force =    -0.00004428   -0.00014001    0.00059775
     atom   40 type  2   force =    -0.00013801   -0.00015104   -0.00047343
     atom   41 type  2   force =     0.00019491   -0.00005583   -0.00046933
     atom   42 type  2   force =    -0.00031632    0.00019763   -0.00025879
     atom   43 type  1   force =    -0.00025142    0.00037004    0.00054995
     atom   44 type  1   force =    -0.00007578   -0.00140794    0.00179202
     atom   45 type  2   force =    -0.00003042    0.00012670    0.09866413
     atom   46 type  2   force =    -0.08085765   -0.00164482   -0.03408123
     atom   47 type  2   force =     0.08066771   -0.00117561   -0.03414842
     atom   48 type  3   force =    -0.00203289    0.00023327    0.00632790
     atom   49 type  2   force =     0.00388748    0.00078553   -0.01414885
     atom   50 type  4   force =    -0.00105693    0.00013373    0.00050531
     atom   51 type  4   force =    -0.00043055   -0.00021832    0.00149955
     atom   52 type  4   force =    -0.00061152    0.00045262    0.00154729
     atom   53 type  2   force =     0.00035875   -0.00030002   -0.00182788
     atom   54 type  4   force =    -0.00081724   -0.00039584    0.00100663

     Total force =     0.383031     Total SCF correction =     0.000383
  @ DRIVER MODE: Message from server: STATUS
  @ DRIVER MODE: Message from server: GETFORCE
  @ DRIVER MODE: Returning v,forces,stress,ensemble

     Writing output data file ./calc.save/
  @ DRIVER MODE: Message from server: EXIT
  @ DRIVE MODE: Exiting

     General routines

     Parallel routines

   This run was terminated on:  20:31:18  22Sep2021

   JOB DONE.