     Program PWSCF v.6.7GPU starts on 15Sep2021 at 17:48:28

     R & G space division:  proc/nbgrp/npool/nimage =      10
     Reading input from /storage/home/hcoda1/3/ntian30/research/carbon/CxH_vib/H2O_calc/ads_slab/CH3N2H2O_c/out_0007/pw.inp
Warning: card &CELL ignored
Warning: card   CELL_DYNAMICS='IPI', ignored
Warning: card / ignored

     Current dimensions of program PWSCF are:
     Max number of different atomic species (ntypx) = 10
     Max number of k-points (npk) =  40000
     Max angular momentum in pseudopotentials (lmaxx) =  3
     Presently no symmetry can be used with electric field

     Message from routine cell_base_init:
     DEPRECATED: use true lattice parameter, not A to a.u. conversion factor

     IMPORTANT: XC functional enforced from input :
     Exchange-correlation= BEEF-VDW
                           (   1   4  43  14   2   0   0)
     Any further DFT definition will be discarded
     Please, verify this is what you really want

  @ DRIVER MODE: Connecting to
 qe_1139763_2852616.sched-torque.pace.gatech.edu538exjd2_scratch
  using UNIX socket
  @ DRIVER MODE: Message from server: STATUS
  @ DRIVER MODE: Message from server: INIT
  @ DRIVER MODE: Receiving replica           0          -1
  @ DRIVER MODE: Receiving encoded integer          25
  @ DRIVER MODE:  SCF:  T  FORCE:  T  STRESS:  F  VC:  F  ENSEMBLE:  F
  @ DRIVER MODE:  SCF:  T  FORCE:  T  STRESS:  F  VC:  F  ENSEMBLE:  F

     Using Slab Decomposition

     bravais-lattice index     =            0
     lattice parameter (alat)  =       1.8897  a.u.
     unit-cell volume          =    6658.9804 (a.u.)^3
     number of atoms/cell      =           56
     number of atomic types    =            5
     number of electrons       =       403.00
     number of Kohn-Sham states=          211
     kinetic-energy cutoff     =      29.3995  Ry
     charge density cutoff     =     293.9946  Ry
     scf convergence threshold =      7.3E-08
     mixing beta               =       0.0500
     number of iterations used =            8  plain     mixing
     Exchange-correlation= BEEF-VDW
                           (   1   4  43  14   2   0   0)

     celldm(1)=   1.889726  celldm(2)=   0.000000  celldm(3)=   0.000000
     celldm(4)=   0.000000  celldm(5)=   0.000000  celldm(6)=   0.000000

     crystal axes: (cart. coord. in units of alat)
               a(1) = (   6.579727   0.000000   0.000000 )
               a(2) = (  -0.000775   5.961596   0.000000 )
               a(3) = (   0.000000   0.000000  25.155947 )

     reciprocal axes: (cart. coord. in units 2 pi/alat)
               b(1) = (  0.151982  0.000020  0.000000 )
               b(2) = (  0.000000  0.167740  0.000000 )
               b(3) = (  0.000000  0.000000  0.039752 )

     PseudoPot. # 1 for Ti read from file:
     /storage/coda1/p-amedford6/0/shared/rich_project_chbe-medford/medford-share/data/pseudos_module/espresso/nninc/pbe/van/Ti.UPF
     MD5 check sum: 8e4df49b7f0d34bbd5052bf3f5ea0213
     Pseudo is Ultrasoft, Zval = 12.0
     Generated by new atomic code, or converted to UPF format
     Using radial grid of  851 points,  6 beta functions with:
                l(1) =   0
                l(2) =   0
                l(3) =   1
                l(4) =   1
                l(5) =   2
                l(6) =   2
     Q(r) pseudized with  8 coefficients,  rinner =    1.000   1.000   1.000
                                                       1.000   1.000

     PseudoPot. # 2 for O  read from file:
     /storage/coda1/p-amedford6/0/shared/rich_project_chbe-medford/medford-share/data/pseudos_module/espresso/nninc/pbe/van/O.UPF
     MD5 check sum: 78c19812648e8988a0fe644b0f25305e
     Pseudo is Ultrasoft, Zval =  6.0
     Generated by new atomic code, or converted to UPF format
     Using radial grid of  737 points,  4 beta functions with:
                l(1) =   0
                l(2) =   0
                l(3) =   1
                l(4) =   1
     Q(r) pseudized with  8 coefficients,  rinner =    0.800   0.800   0.800

     PseudoPot. # 3 for N  read from file:
     /storage/coda1/p-amedford6/0/shared/rich_project_chbe-medford/medford-share/data/pseudos_module/espresso/nninc/pbe/van/N.UPF
     MD5 check sum: 90d10febe142ad51ac9d5be1deb811c4
     Pseudo is Ultrasoft, Zval =  5.0
     Generated by new atomic code, or converted to UPF format
     Using radial grid of  729 points,  4 beta functions with:
                l(1) =   0
                l(2) =   0
                l(3) =   1
                l(4) =   1
     Q(r) pseudized with  8 coefficients,  rinner =    0.800   0.800   0.800

     PseudoPot. # 4 for C  read from file:
     /storage/coda1/p-amedford6/0/shared/rich_project_chbe-medford/medford-share/data/pseudos_module/espresso/nninc/pbe/van/C.UPF
     MD5 check sum: 1a69bf6b8db32088f5b2163dbdb77a27
     Pseudo is Ultrasoft, Zval =  4.0
     Generated by new atomic code, or converted to UPF format
     Using radial grid of  721 points,  4 beta functions with:
                l(1) =   0
                l(2) =   0
                l(3) =   1
                l(4) =   1
     Q(r) pseudized with  8 coefficients,  rinner =    0.800   0.800   0.800

     PseudoPot. # 5 for H  read from file:
     /storage/coda1/p-amedford6/0/shared/rich_project_chbe-medford/medford-share/data/pseudos_module/espresso/nninc/pbe/van/H.UPF
     MD5 check sum: b5ee9d7bfd3a09ee7748110bda690ff7
     Pseudo is Ultrasoft, Zval =  1.0
     Generated by new atomic code, or converted to UPF format
     Using radial grid of  615 points,  1 beta functions with:
                l(1) =   0
     Q(r) pseudized with  8 coefficients,  rinner =    0.800

     atomic species   valence    mass     pseudopotential
        Ti1           12.00    47.86700     Ti( 1.00)
        O1             6.00    15.99900     O ( 1.00)
        N1             5.00    14.00700     N ( 1.00)
        C1             4.00    12.01100     C ( 1.00)
        H1             1.00     1.00800     H ( 1.00)

     No symmetry found

   Cartesian axes

     site n.     atom                  positions (alat units)
         1           Ti1 tau(   1) = (   0.0004258   2.9801865   6.0000000  )
         2           Ti1 tau(   2) = (   3.2906075   1.4906267   6.0002472  )
         3           O1  tau(   3) = (   0.0006271   0.0005054   7.9858123  )
         4           O1  tau(   4) = (   3.2906025   0.0005020   7.3038282  )
         5           O1  tau(   5) = (   4.5942328   1.4918067   9.2879030  )
         6           O1  tau(   6) = (   1.9868534   1.4903216   9.2879459  )
         7           Ti1 tau(   7) = (   3.2907910   2.8959150   9.1758416  )
         8           Ti1 tau(   8) = (   0.0015273   1.4827037   9.2680791  )
         9           O1  tau(   9) = (   3.2828550   5.9398922  11.3444325  )
        10           O1  tau(  10) = (   0.0116148   5.9584955  10.6183126  )
        11           O1  tau(  11) = (   1.2785533   1.4626539  12.6279770  )
        12           O1  tau(  12) = (   5.2704455   1.4657548  12.6160130  )
        13           Ti1 tau(  13) = (   0.0600808   2.9393476  12.6134163  )
        14           Ti1 tau(  14) = (   3.3737088   1.4602624  12.5010433  )
        15           O1  tau(  15) = (   6.5684750   5.9323085  14.6353932  )
        16           O1  tau(  16) = (   3.2849856   5.9366180  13.9618146  )
        17           O1  tau(  17) = (   4.5362432   1.5114280  16.0576559  )
        18           O1  tau(  18) = (   2.0240554   1.5008084  16.0383298  )
        19           Ti1 tau(  19) = (   3.2703657   2.9522362  15.6888820  )
        20           Ti1 tau(  20) = (   6.5391562   1.4934284  15.8005638  )
        21           O1  tau(  21) = (   3.2904802   0.0005063   4.7018136  )
        22           O1  tau(  22) = (   6.5583345   5.9570231  17.1947061  )
        23           O1  tau(  23) = (   1.3043587   1.4918075   6.0039043  )
        24           O1  tau(  24) = (   5.2767064   1.4903225   6.0039473  )
        25           Ti1 tau(  25) = (   0.0000382   5.9609847   6.0000000  )
        26           Ti1 tau(  26) = (   3.2902200   4.4714249   6.0002472  )
        27           O1  tau(  27) = (   0.0002396   2.9813036   7.9858123  )
        28           O1  tau(  28) = (   3.2902150   2.9813002   7.3038282  )
        29           O1  tau(  29) = (   4.5938453   4.4726049   9.2879030  )
        30           O1  tau(  30) = (   1.9864658   4.4711199   9.2879459  )
        31           Ti1 tau(  31) = (   3.2891106   5.8743827   9.1763621  )
        32           Ti1 tau(  32) = (   0.0006254   4.4649316   9.2693709  )
        33           O1  tau(  33) = (   3.2888364   2.9620848  11.3424199  )
        34           O1  tau(  34) = (   0.0092240   2.9805883  10.6323155  )
        35           O1  tau(  35) = (   1.2785924   4.4508711  12.6313046  )
        36           O1  tau(  36) = (   5.2742027   4.4576360  12.6186982  )
        37           Ti1 tau(  37) = (   0.0560446   5.9134488  12.5469576  )
        38           Ti1 tau(  38) = (   3.3742563   4.4530221  12.5021653  )
        39           O1  tau(  39) = (   6.5655761   2.9369947  14.6516633  )
        40           O1  tau(  40) = (   3.2805149   2.9594171  13.8967751  )
        41           O1  tau(  41) = (   4.5308665   4.4203993  16.0704334  )
        42           O1  tau(  42) = (   2.0169005   4.4237906  16.0574931  )
        43           Ti1 tau(  43) = (   3.2493829   5.9208236  15.8028744  )
        44           Ti1 tau(  44) = (   6.5423592   4.6318136  16.0678394  )
        45           O1  tau(  45) = (   3.2900926   2.9813045   4.7018136  )
        46           O1  tau(  46) = (   1.3039711   4.4726057   6.0039043  )
        47           O1  tau(  47) = (   5.2763189   4.4711207   6.0039473  )
        48           N1  tau(  48) = (   0.1516996   2.6368831  18.6397825  )
        49           N1  tau(  49) = (   0.0243947   2.8734663  17.4441277  )
        50           C1  tau(  50) = (   0.1908864   3.7705318  19.5986308  )
        51           H1  tau(  51) = (   6.5333492   4.7333814  19.1494580  )
        52           H1  tau(  52) = (   6.0816938   3.5230213  20.4074400  )
        53           H1  tau(  53) = (   1.1988782   3.7880179  20.0220438  )
        54           O1  tau(  54) = (   3.2442500   5.9498283  18.2024067  )
        55           H1  tau(  55) = (   4.0366425   0.4867780  18.4672138  )
        56           H1  tau(  56) = (   2.4709518   0.5160301  18.4623371  )

     number of k points=    10  Fermi-Dirac smearing, width (Ry)=  0.0073
                       cart. coord. in units 2pi/alat
        k(    1) = (   0.0000000   0.0000000   0.0000000), wk =   0.1250000
        k(    2) = (   0.0000000   0.0419351   0.0000000), wk =   0.2500000
        k(    3) = (   0.0000000  -0.0838702   0.0000000), wk =   0.1250000
        k(    4) = (   0.0379955   0.0000049   0.0000000), wk =   0.2500000
        k(    5) = (   0.0379955   0.0419400   0.0000000), wk =   0.2500000
        k(    6) = (   0.0379955  -0.0838652   0.0000000), wk =   0.2500000
        k(    7) = (   0.0379955  -0.0419301   0.0000000), wk =   0.2500000
        k(    8) = (  -0.0759910  -0.0000099   0.0000000), wk =   0.1250000
        k(    9) = (  -0.0759910   0.0419252   0.0000000), wk =   0.2500000
        k(   10) = (  -0.0759910  -0.0838800   0.0000000), wk =   0.1250000

     Initial potential from superposition of free atoms

     starting charge  386.99914, renormalised to  403.00000

     negative rho (up, down):  1.444E-02 0.000E+00

     %%%%%%%%%%%%%%%%%%%%%%%%%%%%%%%%%%%%%%%%%%%%%%%%%%%%%%%%%%%%%%%%%%%%%%%%
     %                                                                      %
     % You are using vdW-DF, which was implemented by the Thonhauser group. %
     % Please cite the following two papers that made this development      %
     % possible and the two reviews that describe the various versions:     %
     %                                                                      %
     %   T. Thonhauser et al., PRL 115, 136402 (2015).                      %
     %   T. Thonhauser et al., PRB 76, 125112 (2007).                       %
     %   K. Berland et al., Rep. Prog. Phys. 78, 066501 (2015).             %
     %   D.C. Langreth et al., J. Phys.: Condens. Matter 21, 084203 (2009). %
     %                                                                      %
     %                                                                      %
     % If you are calculating the stress with vdW-DF, please also cite:     %
     %                                                                      %
     %   R. Sabatini et al., J. Phys.: Condens. Matter 24, 424209 (2012).   %
     %                                                                      %
     %%%%%%%%%%%%%%%%%%%%%%%%%%%%%%%%%%%%%%%%%%%%%%%%%%%%%%%%%%%%%%%%%%%%%%%%

     Adding external electric field

     Computed dipole along edir(3) :
        Dipole              -13.2286 Ry au,        -33.6236 Debye
        Dipole field         -0.0250 Ry au,

        Potential amp.        2.3141 Ry
        Total length         46.3494 bohr

     Starting wfcs are  305 atomic wfcs
  @ DRIVER MODE: Message from server: STATUS
  @ DRIVER MODE: Message from server: POSDATA
  @ DRIVER MODE: Reading and sharing cell
  @ DRIVER MODE: Reading and sharing positions
  @ DRIVER MODE: Received positions

     Self-consistent Calculation

     iteration #  1     ecut=    29.40 Ry     beta= 0.05
     Davidson diagonalization with overlap
     c_bands:  4 eigenvalues not converged
     c_bands:  2 eigenvalues not converged
     c_bands:  4 eigenvalues not converged
     c_bands:  1 eigenvalues not converged
     c_bands:  1 eigenvalues not converged
     c_bands:  1 eigenvalues not converged
     c_bands:  4 eigenvalues not converged
     c_bands:  1 eigenvalues not converged
     c_bands:  1 eigenvalues not converged
     ethr =  1.00E-05,  avg # of iterations = 29.8

[...]

     total energy              =   -2367.49745034 Ry
     estimated scf accuracy    <    6916.84497447 Ry

     iteration #  2     ecut=    29.40 Ry     beta= 0.05
     Davidson diagonalization with overlap
     ethr =  1.00E-02,  avg # of iterations = 23.9

[...]

     iteration # 55     ecut=    29.40 Ry     beta= 0.05
     Davidson diagonalization with overlap
     c_bands:  1 eigenvalues not converged
     ethr =  1.02E-09,  avg # of iterations = 17.2

[...]

     total energy              =   -2974.00305714 Ry
     estimated scf accuracy    <       0.00000009 Ry

     iteration # 62     ecut=    29.40 Ry     beta= 0.05
     Davidson diagonalization with overlap
     ethr =  2.18E-11,  avg # of iterations =  9.3

     negative rho (up, down):  1.458E-02 0.000E+00

     Adding external electric field

     Computed dipole along edir(3) :
        Dipole                0.9240 Ry au,          2.3486 Debye
        Dipole field          0.0017 Ry au,

        Potential amp.       -0.1616 Ry
        Total length         46.3494 bohr

     End of self-consistent calculation

          k = 0.0000 0.0000 0.0000 ( 18029 PWs)   bands (ev):

   -55.6028 -55.5688 -55.5617 -55.5541 -55.5257 -55.4358 -55.4128 -55.3956
   -55.3788 -55.3778 -55.3498 -55.3440 -55.0015 -54.8728 -54.5814 -54.5474
   -32.1039 -32.0854 -31.9532 -31.9358 -31.9116 -31.8956 -31.8675 -31.8649
   -31.8457 -31.7981 -31.7911 -31.7765 -31.7550 -31.7403 -31.7243 -31.7186
   -31.7073 -31.6944 -31.6888 -31.6600 -31.6529 -31.6402 -31.6053 -31.6012
   -31.5904 -31.5882 -31.5847 -31.5768 -31.5529 -31.5492 -31.5475 -31.5426
   -31.5306 -31.5290 -31.5197 -31.5108 -31.4896 -31.2708 -31.2005 -31.1302
   -31.1095 -31.0793 -30.9886 -30.9001 -30.8776 -30.8053 -30.7188 -30.6078
   -18.9000 -18.2862 -16.3017 -16.0688 -15.8428 -15.7517 -15.7103 -15.5039
   -15.4034 -15.3278 -15.2096 -15.1456 -15.1376 -15.1182 -15.1068 -15.1019
   -15.0436 -15.0393 -15.0371 -15.0239 -14.9980 -14.9508 -14.9361 -14.9317
   -14.8368 -14.7638 -14.7400 -14.7225 -14.6804 -14.6554 -14.2026 -13.0837
   -12.9672 -11.3146  -6.8650  -6.6906  -4.2016  -3.8521  -3.8226  -3.6760
    -3.5471  -3.5074  -3.4360  -3.3637  -3.2325  -3.2084  -3.0355  -2.8364
    -2.7762  -2.7475  -2.7015  -2.6302  -2.5154  -2.4593  -2.4089  -2.4063
    -2.3861  -2.3808  -2.3566  -2.3383  -2.2399  -2.2205  -2.1483  -2.1356
    -2.0868  -1.9857  -1.9560  -1.9152  -1.9055  -1.8778  -1.8638  -1.8504
    -1.8279  -1.8036  -1.7625  -1.6939  -1.6168  -1.5812  -1.5004  -1.4488
    -1.4080  -1.3483  -1.2128  -1.1370  -1.0883  -1.0569  -1.0475  -1.0294
    -0.9953  -0.9778  -0.8668  -0.7545  -0.7385  -0.6735  -0.6114  -0.5282
    -0.4942  -0.4336  -0.3697  -0.3519  -0.3468  -0.3101  -0.2679  -0.2217
    -0.0845  -0.0293   0.0042   0.0126   0.0742   0.1150   0.1464   0.2294
     0.2434   0.2834   0.3265   0.3579   0.3690   0.3788   0.3998   0.4306
     0.4355   0.6253   0.6680   0.7128   0.7474   0.7858   0.9312   0.9507
     1.0568   1.1627   1.3676   1.4409   1.5403   1.6329   2.0122   2.0579
     2.7578   3.5314   3.6190   3.6638   3.7017   3.7774   3.7889   3.9864
     4.0015   4.0410   4.1164

[...]

          k = 0.0380-0.0419 0.0000 ( 17876 PWs)   bands (ev):

[...]

          k =-0.0760-0.0000 0.0000 ( 17886 PWs)   bands (ev):

[...]

          k =-0.0760-0.0839 0.0000 ( 17948 PWs)   bands (ev):

   -55.5862 -55.5853 -55.5530 -55.5448 -55.5421 -55.4260 -55.4055 -55.3964
   -55.3946 -55.3629 -55.3592 -55.3511 -54.9994 -54.8748 -54.5645 -54.5642
   -31.9176 -31.9012 -31.9010 -31.9003 -31.8815 -31.8805 -31.8402 -31.8315
   -31.8048 -31.7838 -31.7722 -31.7635 -31.7590 -31.7155 -31.7117 -31.7092
   -31.7068 -31.7057 -31.7047 -31.7001 -31.6977 -31.6969 -31.6566 -31.6446
   -31.6238 -31.6177 -31.6106 -31.5961 -31.5954 -31.5927 -31.5865 -31.5777
   -31.5738 -31.5644 -31.5639 -31.5546 -31.4215 -31.2728 -31.2190 -31.1634
   -31.1321 -31.1063 -30.8904 -30.8902 -30.8015 -30.8012 -30.7621 -30.7620
   -18.8990 -18.2824 -15.7556 -15.6515 -15.5550 -15.5195 -15.4628 -15.4031
   -15.3882 -15.3069 -15.2834 -15.2799 -15.2187 -15.1968 -15.1618 -15.1493
   -15.1281 -15.1146 -15.1112 -15.0552 -15.0486 -15.0397 -15.0329 -15.0295
   -14.9622 -14.9202 -14.9166 -14.9120 -14.7875 -14.6617 -14.3821 -13.0692
   -13.0689 -11.3120  -6.8912  -6.6713  -4.1271  -3.8768  -3.7917  -3.2599
    -3.0385  -2.8361  -2.8080  -2.7131  -2.6985  -2.6682  -2.5358  -2.4961
    -2.4561  -2.4418  -2.4189  -2.4178  -2.4048  -2.3982  -2.3808  -2.3567
    -2.3294  -2.3036  -2.2741  -2.2663  -2.2542  -2.2354  -2.2223  -2.2054
    -2.2018  -2.1585  -2.1369  -2.1275  -2.0444  -1.9901  -1.8272  -1.7851
    -1.7410  -1.7315  -1.7062  -1.7002  -1.6689  -1.6548  -1.5998  -1.5908
    -1.4755  -1.3605  -1.3221  -1.2990  -1.2891  -1.2711  -1.1995  -1.0984
    -1.0740  -0.9994  -0.9949  -0.8912  -0.8772  -0.7960  -0.7865  -0.7620
    -0.7063  -0.6700  -0.6505  -0.5670  -0.5615  -0.5384  -0.4962  -0.4658
    -0.4084  -0.3530  -0.3237  -0.3142  -0.2768  -0.2522  -0.2115  -0.1595
    -0.0982  -0.0603   0.0353   0.1381   0.2223   0.3580   0.4680   0.4959
     0.5708   0.6072   0.6816   0.7109   0.7178   0.7794   0.7926   0.8820
     0.9383   0.9511   0.9873   1.1060   1.8042   1.8056   1.8775   1.8778
     2.7822   3.7562   3.8664   3.9090   3.9299   4.0046   4.0461   4.0657
     4.0682   4.1041   4.2089

     the Fermi energy is     3.5309 ev

!    total energy              =   -2974.00311391 Ry
     estimated scf accuracy    <       0.00000006 Ry
     smearing contrib. (-TS)   =      -0.02180745 Ry
     internal energy E=F+TS    =   -2973.98130646 Ry

     The total energy is F=E-TS. E is the sum of the following terms:
     one-electron contribution =  -23851.68232444 Ry
     hartree contribution      =   12020.42579059 Ry
     xc contribution           =    -494.03634152 Ry
     ewald contribution        =    9351.30995773 Ry
     electric field correction =       0.00161118 Ry

     convergence has been achieved in  62 iterations

     Forces acting on atoms (cartesian axes, Ry/au):

     atom    1 type  1   force =     0.00016427   -0.00020983    0.09638639
     atom    2 type  1   force =    -0.00017374   -0.00044733   -0.17540686
     atom    3 type  2   force =     0.00001558   -0.00014613   -0.02470800
     atom    4 type  2   force =     0.00005498   -0.00162011    0.05340206
     atom    5 type  2   force =    -0.01199045   -0.00148253    0.00368248
     atom    6 type  2   force =     0.01344177   -0.00064186    0.00221743
     atom    7 type  1   force =    -0.00108290    0.00056206   -0.00697340
     atom    8 type  1   force =     0.00064142    0.00916003    0.02676038
     atom    9 type  2   force =     0.00017518    0.00020183   -0.00047424
     atom   10 type  2   force =    -0.00158239   -0.00030288   -0.01791029
     atom   11 type  2   force =     0.00089941    0.00088826    0.00000780
     atom   12 type  2   force =    -0.00061270    0.00060999   -0.00003100
     atom   13 type  1   force =    -0.00025731    0.00023228   -0.00031071
     atom   14 type  1   force =     0.00028220    0.00027724    0.00009421
     atom   15 type  2   force =    -0.00014699    0.00017136   -0.00034273
     atom   16 type  2   force =    -0.00000628    0.00020942    0.00079710
     atom   17 type  2   force =     0.00071204   -0.00012861   -0.00009745
     atom   18 type  2   force =    -0.00169774    0.00010815    0.00014704
     atom   19 type  1   force =     0.00020095    0.00131223    0.00001730
     atom   20 type  1   force =    -0.00046709   -0.00010101   -0.00013607
     atom   21 type  2   force =     0.00009593    0.00001151    0.10322329
     atom   22 type  2   force =     0.00000712    0.00028794    0.00048895
     atom   23 type  2   force =    -0.07145205   -0.00008938   -0.02778266
     atom   24 type  2   force =     0.07144195    0.00035389   -0.02777756
     atom   25 type  1   force =     0.00001339   -0.00033226    0.09611858
     atom   26 type  1   force =    -0.00029767   -0.00044742   -0.17575215
     atom   27 type  2   force =     0.00009371   -0.00025233   -0.02370126
     atom   28 type  2   force =     0.00012234   -0.00129961    0.05280544
     atom   29 type  2   force =    -0.01226166    0.00021610    0.00356133
     atom   30 type  2   force =     0.01360111    0.00042612    0.00205994
     atom   31 type  1   force =    -0.00116833    0.00350376   -0.01016182
     atom   32 type  1   force =     0.00082012   -0.01098939    0.02703556
     atom   33 type  2   force =     0.00009995   -0.00000155    0.00057525
     atom   34 type  2   force =    -0.00115597   -0.00123145   -0.02347349
     atom   35 type  2   force =     0.00081937   -0.00051599   -0.00010566
     atom   36 type  2   force =    -0.00059270   -0.00018725   -0.00013957
     atom   37 type  1   force =    -0.00055572    0.00019740   -0.00038312
     atom   38 type  1   force =     0.00029324   -0.00025924    0.00014874
     atom   39 type  2   force =     0.00020641    0.00043474    0.00008624
     atom   40 type  2   force =     0.00018801    0.00015015   -0.00057168
     atom   41 type  2   force =     0.00044100    0.00088934    0.00009315
     atom   42 type  2   force =    -0.00122392    0.00052115    0.00041048
     atom   43 type  1   force =     0.00021606   -0.00095843   -0.00081002
     atom   44 type  1   force =    -0.00055138    0.00110353    0.00040071
     atom   45 type  2   force =     0.00008546   -0.00002623    0.10321426
     atom   46 type  2   force =    -0.07145501   -0.00001524   -0.02779175
     atom   47 type  2   force =     0.07143936    0.00039317   -0.02778699
     atom   48 type  3   force =    -0.00077220   -0.00104080   -0.00262258
     atom   49 type  3   force =     0.00238943   -0.00056183    0.00262936
     atom   50 type  4   force =     0.00039447    0.00119725    0.00042163
     atom   51 type  5   force =     0.00002090   -0.00063473   -0.00093551
     atom   52 type  5   force =     0.00019506   -0.00009432   -0.00028340
     atom   53 type  5   force =     0.00002391   -0.00022874   -0.00045543
     atom   54 type  2   force =     0.00161846    0.00012892   -0.00024946
     atom   55 type  5   force =    -0.00062488   -0.00008351   -0.00013717
     atom   56 type  5   force =    -0.00108545    0.00078213    0.00052694

     Total force =     0.367780     Total SCF correction =     0.000623
  @ DRIVER MODE: Message from server: STATUS
  @ DRIVER MODE: Message from server: GETFORCE
  @ DRIVER MODE: Returning v,forces,stress,ensemble

     Writing output data file ./calc.save/
  @ DRIVER MODE: Message from server: EXIT
  @ DRIVE MODE: Exiting

     General routines

     Parallel routines

   This run was terminated on:  18: 6:21  15Sep2021

   JOB DONE.