     Program PWSCF v.6.7GPU starts on 27Sep2021 at  0:54:23

     R & G space division:  proc/nbgrp/npool/nimage =       8
     Reading input from /storage/home/hcoda1/3/ntian30/research/carbon/CxH_vib/H2O_calc/ads_slab/CH3OHN2HO_a/out_0058/pw.inp
Warning: card &CELL ignored
Warning: card   CELL_DYNAMICS='IPI', ignored
Warning: card / ignored

     Current dimensions of program PWSCF are:
     Max number of different atomic species (ntypx) = 10
     Max number of k-points (npk) =  40000
     Max angular momentum in pseudopotentials (lmaxx) =  3
     Presently no symmetry can be used with electric field

     Message from routine cell_base_init:
     DEPRECATED: use true lattice parameter, not A to a.u. conversion factor

     IMPORTANT: XC functional enforced from input :
     Exchange-correlation= BEEF-VDW
                           (   1   4  43  14   2   0   0)
     Any further DFT definition will be discarded
     Please, verify this is what you really want

  @ DRIVER MODE: Connecting to
 qe_1139763_2971668.sched-torque.pace.gatech.edu1h2vr4xh_scratch
  using UNIX socket
  @ DRIVER MODE: Message from server: STATUS
  @ DRIVER MODE: Message from server: INIT
  @ DRIVER MODE: Receiving replica           0          -1
  @ DRIVER MODE: Receiving encoded integer          25
  @ DRIVER MODE:  SCF:  T  FORCE:  T  STRESS:  F  VC:  F  ENSEMBLE:  F
  @ DRIVER MODE:  SCF:  T  FORCE:  T  STRESS:  F  VC:  F  ENSEMBLE:  F

     Using Slab Decomposition

     bravais-lattice index     =            0
     lattice parameter (alat)  =       1.8897  a.u.
     unit-cell volume          =    6658.9804 (a.u.)^3
     number of atoms/cell      =           57
     number of atomic types    =            5
     number of electrons       =       409.00
     number of Kohn-Sham states=          214
     kinetic-energy cutoff     =      29.3995  Ry
     charge density cutoff     =     293.9946  Ry
     scf convergence threshold =      7.3E-08
     mixing beta               =       0.0500
     number of iterations used =            8  plain     mixing
     Exchange-correlation= BEEF-VDW
                           (   1   4  43  14   2   0   0)

     celldm(1)=   1.889726  celldm(2)=   0.000000  celldm(3)=   0.000000
     celldm(4)=   0.000000  celldm(5)=   0.000000  celldm(6)=   0.000000

     crystal axes: (cart. coord. in units of alat)
               a(1) = (   6.579727   0.000000   0.000000 )
               a(2) = (  -0.000775   5.961596   0.000000 )
               a(3) = (   0.000000   0.000000  25.155947 )

     reciprocal axes: (cart. coord. in units 2 pi/alat)
               b(1) = (  0.151982  0.000020  0.000000 )
               b(2) = (  0.000000  0.167740  0.000000 )
               b(3) = (  0.000000  0.000000  0.039752 )

     PseudoPot. # 1 for Ti read from file:
     /storage/coda1/p-amedford6/0/shared/rich_project_chbe-medford/medford-share/data/pseudos_module/espresso/nninc/pbe/van/Ti.UPF
     MD5 check sum: 8e4df49b7f0d34bbd5052bf3f5ea0213
     Pseudo is Ultrasoft, Zval = 12.0
     Generated by new atomic code, or converted to UPF format
     Using radial grid of  851 points,  6 beta functions with:
                l(1) =   0
                l(2) =   0
                l(3) =   1
                l(4) =   1
                l(5) =   2
                l(6) =   2
     Q(r) pseudized with  8 coefficients,  rinner =    1.000   1.000   1.000
                                                       1.000   1.000

     PseudoPot. # 2 for O  read from file:
     /storage/coda1/p-amedford6/0/shared/rich_project_chbe-medford/medford-share/data/pseudos_module/espresso/nninc/pbe/van/O.UPF
     MD5 check sum: 78c19812648e8988a0fe644b0f25305e
     Pseudo is Ultrasoft, Zval =  6.0
     Generated by new atomic code, or converted to UPF format
     Using radial grid of  737 points,  4 beta functions with:
                l(1) =   0
                l(2) =   0
                l(3) =   1
                l(4) =   1
     Q(r) pseudized with  8 coefficients,  rinner =    0.800   0.800   0.800

     PseudoPot. # 3 for C  read from file:
     /storage/coda1/p-amedford6/0/shared/rich_project_chbe-medford/medford-share/data/pseudos_module/espresso/nninc/pbe/van/C.UPF
     MD5 check sum: 1a69bf6b8db32088f5b2163dbdb77a27
     Pseudo is Ultrasoft, Zval =  4.0
     Generated by new atomic code, or converted to UPF format
     Using radial grid of  721 points,  4 beta functions with:
                l(1) =   0
                l(2) =   0
                l(3) =   1
                l(4) =   1
     Q(r) pseudized with  8 coefficients,  rinner =    0.800   0.800   0.800

     PseudoPot. # 4 for H  read from file:
     /storage/coda1/p-amedford6/0/shared/rich_project_chbe-medford/medford-share/data/pseudos_module/espresso/nninc/pbe/van/H.UPF
     MD5 check sum: b5ee9d7bfd3a09ee7748110bda690ff7
     Pseudo is Ultrasoft, Zval =  1.0
     Generated by new atomic code, or converted to UPF format
     Using radial grid of  615 points,  1 beta functions with:
                l(1) =   0
     Q(r) pseudized with  8 coefficients,  rinner =    0.800

     PseudoPot. # 5 for N  read from file:
     /storage/coda1/p-amedford6/0/shared/rich_project_chbe-medford/medford-share/data/pseudos_module/espresso/nninc/pbe/van/N.UPF
     MD5 check sum: 90d10febe142ad51ac9d5be1deb811c4
     Pseudo is Ultrasoft, Zval =  5.0
     Generated by new atomic code, or converted to UPF format
     Using radial grid of  729 points,  4 beta functions with:
                l(1) =   0
                l(2) =   0
                l(3) =   1
                l(4) =   1
     Q(r) pseudized with  8 coefficients,  rinner =    0.800   0.800   0.800

     atomic species   valence    mass     pseudopotential
        Ti1           12.00    47.86700     Ti( 1.00)
        O1             6.00    15.99900     O ( 1.00)
        C1             4.00    12.01100     C ( 1.00)
        H1             1.00     1.00800     H ( 1.00)
        N1             5.00    14.00700     N ( 1.00)

     No symmetry found

   Cartesian axes

     site n.     atom                  positions (alat units)
         1           Ti1 tau(   1) = (   0.0004258   2.9801865   6.0000000  )
         2           Ti1 tau(   2) = (   3.2906075   1.4906267   6.0002472  )
         3           O1  tau(   3) = (   0.0006271   0.0005054   7.9858123  )
         4           O1  tau(   4) = (   3.2906025   0.0005020   7.3038282  )
         5           O1  tau(   5) = (   4.5942328   1.4918067   9.2879030  )
         6           O1  tau(   6) = (   1.9868534   1.4903216   9.2879459  )
         7           Ti1 tau(   7) = (   3.3371032   3.0268772   9.1887580  )
         8           Ti1 tau(   8) = (   0.0611061   1.5258697   9.2809523  )
         9           O1  tau(   9) = (   3.3143856   0.0188946  11.3581724  )
        10           O1  tau(  10) = (   0.0164151   0.0031400  10.5895864  )
        11           O1  tau(  11) = (   1.3088961   1.4994640  12.6347600  )
        12           O1  tau(  12) = (   5.3347766   1.4946156  12.6347356  )
        13           Ti1 tau(  13) = (   0.0202478   3.0292801  12.5720800  )
        14           Ti1 tau(  14) = (   3.3188568   1.5851219  12.4260843  )
        15           O1  tau(  15) = (   0.0445434   5.9450813  14.6510506  )
        16           O1  tau(  16) = (   3.3207065   5.8849141  14.0104376  )
        17           O1  tau(  17) = (   4.6249962   1.5116716  16.1313945  )
        18           O1  tau(  18) = (   2.0639035   1.5439872  16.0680944  )
        19           Ti1 tau(  19) = (   3.3360141   2.9454253  15.6763505  )
        20           Ti1 tau(  20) = (   0.0686920   1.3314864  15.9334539  )
        21           O1  tau(  21) = (   3.2904802   0.0005063   4.7018136  )
        22           O1  tau(  22) = (   0.0979609   0.0039778  17.1657837  )
        23           O1  tau(  23) = (   1.3043587   1.4918075   6.0039043  )
        24           O1  tau(  24) = (   5.2767064   1.4903225   6.0039473  )
        25           Ti1 tau(  25) = (   0.0000382   5.9609847   6.0000000  )
        26           Ti1 tau(  26) = (   3.2902200   4.4714249   6.0002472  )
        27           O1  tau(  27) = (   0.0002396   2.9813036   7.9858123  )
        28           O1  tau(  28) = (   3.2902150   2.9813002   7.3038282  )
        29           O1  tau(  29) = (   4.5938453   4.4726049   9.2879030  )
        30           O1  tau(  30) = (   1.9864658   4.4711199   9.2879459  )
        31           Ti1 tau(  31) = (   3.3368545   0.0404040   9.1664313  )
        32           Ti1 tau(  32) = (   0.0604674   4.4799263   9.2696248  )
        33           O1  tau(  33) = (   3.3137611   2.9662427  11.3084074  )
        34           O1  tau(  34) = (   0.0134136   2.9850836  10.6046154  )
        35           O1  tau(  35) = (   1.3054726   4.4719986  12.6384794  )
        36           O1  tau(  36) = (   5.3362180   4.4781181  12.6390536  )
        37           Ti1 tau(  37) = (   0.0365240   0.0487139  12.4702884  )
        38           Ti1 tau(  38) = (   3.3180881   4.6653017  12.7087268  )
        39           O1  tau(  39) = (   0.0228105   2.9918545  14.7761892  )
        40           O1  tau(  40) = (   3.3431522   2.9700269  13.9040455  )
        41           O1  tau(  41) = (   4.6265974   4.4152401  16.1544535  )
        42           O1  tau(  42) = (   2.0571238   4.3592187  16.1146037  )
        43           Ti1 tau(  43) = (   3.3848590   5.9294639  16.2700006  )
        44           Ti1 tau(  44) = (   0.0517009   4.5268197  15.8466567  )
        45           O1  tau(  45) = (   3.2900926   2.9813045   4.7018136  )
        46           O1  tau(  46) = (   1.3039711   4.4726057   6.0039043  )
        47           O1  tau(  47) = (   5.2763189   4.4711207   6.0039473  )
        48           C1  tau(  48) = (   5.9450987   3.0517216  18.8599509  )
        49           O1  tau(  49) = (   0.1802289   3.0084098  17.6484507  )
        50           H1  tau(  50) = (   4.9625852   2.6832861  18.5889656  )
        51           H1  tau(  51) = (   1.1163247   3.1442434  17.8758057  )
        52           H1  tau(  52) = (   6.3899442   2.3914015  19.6026461  )
        53           H1  tau(  53) = (   5.8846647   4.0795385  19.2151274  )
        54           N1  tau(  54) = (   5.7598779   3.1323611  22.9045362  )
        55           N1  tau(  55) = (   4.9845974   3.1850264  22.1203839  )
        56           O1  tau(  56) = (   3.1467188   0.0118795  18.1166202  )
        57           H1  tau(  57) = (   2.2164505   0.0965285  18.3868412  )

     number of k points=    10  Fermi-Dirac smearing, width (Ry)=  0.0073
                       cart. coord. in units 2pi/alat
        k(    1) = (   0.0000000   0.0000000   0.0000000), wk =   0.1250000
        k(    2) = (   0.0000000   0.0419351   0.0000000), wk =   0.2500000
        k(    3) = (   0.0000000  -0.0838702   0.0000000), wk =   0.1250000
        k(    4) = (   0.0379955   0.0000049   0.0000000), wk =   0.2500000
        k(    5) = (   0.0379955   0.0419400   0.0000000), wk =   0.2500000
        k(    6) = (   0.0379955  -0.0838652   0.0000000), wk =   0.2500000
        k(    7) = (   0.0379955  -0.0419301   0.0000000), wk =   0.2500000
        k(    8) = (  -0.0759910  -0.0000099   0.0000000), wk =   0.1250000
        k(    9) = (  -0.0759910   0.0419252   0.0000000), wk =   0.2500000
        k(   10) = (  -0.0759910  -0.0838800   0.0000000), wk =   0.1250000

     Initial potential from superposition of free atoms

     starting charge  392.99914, renormalised to  409.00000

     negative rho (up, down):  9.139E-03 0.000E+00

     %%%%%%%%%%%%%%%%%%%%%%%%%%%%%%%%%%%%%%%%%%%%%%%%%%%%%%%%%%%%%%%%%%%%%%%%
     %                                                                      %
     % You are using vdW-DF, which was implemented by the Thonhauser group. %
     % Please cite the following two papers that made this development      %
     % possible and the two reviews that describe the various versions:     %
     %                                                                      %
     %   T. Thonhauser et al., PRL 115, 136402 (2015).                      %
     %   T. Thonhauser et al., PRB 76, 125112 (2007).                       %
     %   K. Berland et al., Rep. Prog. Phys. 78, 066501 (2015).             %
     %   D.C. Langreth et al., J. Phys.: Condens. Matter 21, 084203 (2009). %
     %                                                                      %
     %                                                                      %
     % If you are calculating the stress with vdW-DF, please also cite:     %
     %                                                                      %
     %   R. Sabatini et al., J. Phys.: Condens. Matter 24, 424209 (2012).   %
     %                                                                      %
     %%%%%%%%%%%%%%%%%%%%%%%%%%%%%%%%%%%%%%%%%%%%%%%%%%%%%%%%%%%%%%%%%%%%%%%%

     Adding external electric field

     Computed dipole along edir(3) :
        Dipole              -18.8687 Ry au,        -47.9594 Debye
        Dipole field         -0.0356 Ry au,

        Potential amp.        3.3008 Ry
        Total length         46.3494 bohr

     Starting wfcs are  309 atomic wfcs
  @ DRIVER MODE: Message from server: STATUS
  @ DRIVER MODE: Message from server: POSDATA
  @ DRIVER MODE: Reading and sharing cell
  @ DRIVER MODE: Reading and sharing positions
  @ DRIVER MODE: Received positions

     Self-consistent Calculation

     iteration #  1     ecut=    29.40 Ry     beta= 0.05
     Davidson diagonalization with overlap
     c_bands:  5 eigenvalues not converged
     c_bands:  5 eigenvalues not converged
     c_bands:  1 eigenvalues not converged
     c_bands:  4 eigenvalues not converged
     c_bands:  1 eigenvalues not converged
     c_bands:  3 eigenvalues not converged
     ethr =  1.00E-05,  avg # of iterations = 27.3

[...]

     total energy              =   -2113.19979208 Ry
     estimated scf accuracy    <   10331.03656867 Ry

     iteration #  2     ecut=    29.40 Ry     beta= 0.05
     Davidson diagonalization with overlap
     ethr =  1.00E-02,  avg # of iterations = 29.4

[...]

     iteration # 69     ecut=    29.40 Ry     beta= 0.05
     Davidson diagonalization with overlap
     c_bands:  2 eigenvalues not converged
     ethr =  1.18E-10,  avg # of iterations = 10.2

[...]

     total energy              =   -3006.45831708 Ry
     estimated scf accuracy    <       0.00000010 Ry

     iteration # 73     ecut=    29.40 Ry     beta= 0.05
     Davidson diagonalization with overlap
     ethr =  2.37E-11,  avg # of iterations =  9.4

     negative rho (up, down):  1.064E-02 0.000E+00

     Adding external electric field

     Computed dipole along edir(3) :
        Dipole                1.0506 Ry au,          2.6703 Debye
        Dipole field          0.0020 Ry au,

        Potential amp.       -0.1838 Ry
        Total length         46.3494 bohr

     End of self-consistent calculation

          k = 0.0000 0.0000 0.0000 ( 18029 PWs)   bands (ev):

   -55.3286 -55.2533 -55.2180 -55.1440 -55.1221 -55.0873 -55.0511 -55.0466
   -55.0449 -55.0257 -55.0156 -54.9857 -54.8987 -54.8226 -54.2129 -54.1789
   -31.7312 -31.7227 -31.6351 -31.6236 -31.5820 -31.5688 -31.5439 -31.5424
   -31.5076 -31.4961 -31.4849 -31.4201 -31.4069 -31.4068 -31.3802 -31.3619
   -31.3533 -31.3363 -31.3353 -31.3240 -31.3169 -31.3120 -31.2662 -31.2641
   -31.2621 -31.2554 -31.2524 -31.2395 -31.2334 -31.2146 -31.2078 -31.1972
   -31.1955 -31.1756 -31.1710 -31.1630 -31.1618 -31.1278 -31.0875 -31.0680
   -31.0368 -31.0264 -30.6191 -30.5328 -30.5102 -30.4361 -30.3498 -30.2382
   -21.5064 -19.7121 -16.1312 -15.9052 -15.7259 -15.5241 -15.4673 -15.4009
   -15.2137 -15.1402 -14.9843 -14.8594 -14.8445 -14.7877 -14.7869 -14.7766
   -14.7476 -14.7227 -14.6774 -14.6660 -14.6606 -14.6570 -14.5955 -14.5531
   -14.5505 -14.5233 -14.5026 -14.3755 -14.3285 -14.2739 -14.1038 -14.0821
   -12.7126 -12.5965 -10.5727  -6.6863  -6.4097  -4.6678  -4.6301  -4.5914
    -4.4089  -3.6496  -3.3705  -3.2546  -3.1542  -3.1354  -3.0710  -3.0200
    -2.8050  -2.6989  -2.6358  -2.5231  -2.3959  -2.3597  -2.3078  -2.2776
    -2.1858  -2.1678  -2.1359  -2.1060  -2.0508  -2.0226  -2.0151  -2.0023
    -1.9267  -1.9200  -1.7903  -1.7852  -1.7290  -1.6371  -1.6190  -1.5962
    -1.5890  -1.5547  -1.5522  -1.5099  -1.4862  -1.4621  -1.4334  -1.3587
    -1.3393  -1.2761  -1.2389  -1.0068  -0.8521  -0.8276  -0.7472  -0.7310
    -0.7002  -0.6710  -0.6509  -0.6402  -0.6031  -0.5876  -0.4840  -0.3801
    -0.3727  -0.3117  -0.2743  -0.2694  -0.1340  -0.0890  -0.0149   0.0079
     0.0404   0.0611   0.1454   0.1943   0.2158   0.2827   0.3140   0.4193
     0.4566   0.4760   0.5174   0.5727   0.6333   0.6668   0.7065   0.7099
     0.7426   0.7918   0.8209   0.8558   0.8784   0.9252   1.0281   1.0654
     1.0759   1.2159   1.2277   1.3102   1.4346   1.4865   1.7595   1.8119
     1.8587   2.0043   2.3808   2.4277   3.8706   3.9733   3.9943   4.0155
     4.0832   4.1650   4.3305   4.3539   4.4181   4.5223

[...]

          k = 0.0380-0.0419 0.0000 ( 17876 PWs)   bands (ev):

[...]

          k =-0.0760-0.0000 0.0000 ( 17886 PWs)   bands (ev):

[...]

          k =-0.0760-0.0839 0.0000 ( 17948 PWs)   bands (ev):

   -55.3278 -55.2402 -55.2308 -55.1380 -55.1177 -55.0931 -55.0505 -55.0459
   -55.0372 -55.0289 -55.0167 -54.9949 -54.8951 -54.8262 -54.1961 -54.1956
   -31.6423 -31.5788 -31.5681 -31.5512 -31.5421 -31.5417 -31.5364 -31.5203
   -31.4583 -31.4536 -31.4147 -31.3934 -31.3816 -31.3765 -31.3602 -31.3581
   -31.3542 -31.3525 -31.3456 -31.3399 -31.3349 -31.3327 -31.3174 -31.3153
   -31.2966 -31.2858 -31.2564 -31.2500 -31.2472 -31.2429 -31.2350 -31.2338
   -31.2271 -31.2223 -31.2185 -31.2141 -31.2116 -31.1731 -31.1545 -31.0916
   -31.0739 -31.0304 -30.5231 -30.5228 -30.4329 -30.4313 -30.3931 -30.3922
   -21.5063 -19.7083 -16.1071 -15.5354 -15.3788 -15.2078 -15.1940 -15.1146
   -15.0233 -15.0054 -14.9751 -14.9613 -14.9444 -14.9200 -14.9118 -14.8762
   -14.8136 -14.7717 -14.7486 -14.7404 -14.6934 -14.6882 -14.6846 -14.6218
   -14.6146 -14.5964 -14.5717 -14.5118 -14.5030 -14.4024 -14.3876 -14.2150
   -12.6988 -12.6979 -10.5748  -6.6865  -6.4116  -4.6633  -4.6370  -4.5790
    -4.4011  -3.6150  -3.3610  -2.6837  -2.5992  -2.5367  -2.4316  -2.3532
    -2.2996  -2.2499  -2.2289  -2.1839  -2.1628  -2.0932  -2.0587  -2.0498
    -2.0304  -2.0283  -1.9979  -1.9823  -1.9697  -1.9483  -1.9200  -1.9028
    -1.8922  -1.8713  -1.8513  -1.8256  -1.8133  -1.8036  -1.7885  -1.7727
    -1.6616  -1.6452  -1.6125  -1.4498  -1.4384  -1.3691  -1.3375  -1.3110
    -1.3074  -1.2771  -1.2620  -1.2200  -1.1148  -1.0866  -1.0368  -0.9965
    -0.9031  -0.8870  -0.8362  -0.7853  -0.7394  -0.7108  -0.6804  -0.6650
    -0.6113  -0.4732  -0.4523  -0.4071  -0.2881  -0.2147  -0.1990  -0.1865
    -0.1647  -0.1417  -0.0954  -0.0869  -0.0251  -0.0123   0.0582   0.0623
     0.0915   0.1131   0.2155   0.3383   0.4157   0.4599   0.5050   0.5547
     0.5868   0.6712   0.7466   0.8330   0.9091   0.9385   0.9523   1.0700
     1.1025   1.1550   1.2007   1.2215   1.2794   1.3152   1.3555   1.3885
     2.1730   2.1867   2.2430   2.2487   4.0511   4.3015   4.3614   4.3786
     4.3882   4.4205   4.4418   4.4931   4.5096   4.5334

     the Fermi energy is     3.8808 ev

!    total energy              =   -3006.45833049 Ry
     estimated scf accuracy    <       0.00000002 Ry
     smearing contrib. (-TS)   =      -0.02082613 Ry
     internal energy E=F+TS    =   -3006.43750436 Ry

     The total energy is F=E-TS. E is the sum of the following terms:
     one-electron contribution =  -22317.78358359 Ry
     hartree contribution      =   11258.41175719 Ry
     xc contribution           =    -501.14513542 Ry
     ewald contribution        =    8554.07737468 Ry
     electric field correction =       0.00208278 Ry

     convergence has been achieved in  73 iterations

     Forces acting on atoms (cartesian axes, Ry/au):

     atom    1 type  1   force =    -0.00037801   -0.00017245    0.09499301
     atom    2 type  1   force =    -0.00035198    0.00512878   -0.17481932
     atom    3 type  2   force =     0.00070952    0.00012967   -0.02672106
     atom    4 type  2   force =     0.00128961    0.00083240    0.05206887
     atom    5 type  2   force =    -0.01096764   -0.00256137    0.00077993
     atom    6 type  2   force =     0.01193436   -0.00381163    0.00178864
     atom    7 type  1   force =    -0.00021659    0.00039231    0.00066648
     atom    8 type  1   force =     0.00013585    0.00022658    0.00015463
     atom    9 type  2   force =     0.00024979    0.00075689   -0.00064302
     atom   10 type  2   force =    -0.00039200    0.00016128    0.00014699
     atom   11 type  2   force =     0.00044299   -0.00015086    0.00010455
     atom   12 type  2   force =    -0.00084829   -0.00015091    0.00035507
     atom   13 type  1   force =     0.00043551    0.00035467   -0.00022746
     atom   14 type  1   force =    -0.00033708   -0.00070582    0.00093939
     atom   15 type  2   force =    -0.00014284   -0.00053519   -0.00099466
     atom   16 type  2   force =    -0.00027579    0.00000529   -0.00025249
     atom   17 type  2   force =    -0.00093073    0.00040101   -0.00007800
     atom   18 type  2   force =     0.00052632    0.00062072    0.00003154
     atom   19 type  1   force =     0.00025676   -0.00077501    0.00018539
     atom   20 type  1   force =    -0.00036390    0.00009355    0.00037101
     atom   21 type  2   force =    -0.00000578    0.00007458    0.10301319
     atom   22 type  2   force =    -0.00003894   -0.00007732    0.00096867
     atom   23 type  2   force =    -0.07195770    0.00014102   -0.02803125
     atom   24 type  2   force =     0.07179342    0.00063830   -0.02813291
     atom   25 type  1   force =    -0.00035992    0.00025815    0.10243176
     atom   26 type  1   force =    -0.00010754   -0.00474931   -0.17506669
     atom   27 type  2   force =     0.00085059    0.00117078   -0.02484175
     atom   28 type  2   force =     0.00119681    0.00025511    0.05170202
     atom   29 type  2   force =    -0.01192795    0.00381529    0.00172407
     atom   30 type  2   force =     0.01376283    0.00146432    0.00245438
     atom   31 type  1   force =    -0.00028658   -0.00017070    0.00080405
     atom   32 type  1   force =     0.00028267    0.00028806    0.00059130
     atom   33 type  2   force =     0.00000622    0.00019848    0.00010854
     atom   34 type  2   force =    -0.00027481   -0.00032252   -0.00056416
     atom   35 type  2   force =    -0.00022667    0.00004909   -0.00048003
     atom   36 type  2   force =    -0.00038534    0.00009400   -0.00009540
     atom   37 type  1   force =    -0.00006208   -0.00035127    0.00003862
     atom   38 type  1   force =    -0.00057288    0.00027793    0.00000607
     atom   39 type  2   force =    -0.00025826   -0.00024656    0.00077904
     atom   40 type  2   force =    -0.00019894    0.00011771    0.00029037
     atom   41 type  2   force =    -0.00147918   -0.00017093    0.00003139
     atom   42 type  2   force =     0.00104821   -0.00022350   -0.00059981
     atom   43 type  1   force =    -0.00021540    0.00041575    0.00019749
     atom   44 type  1   force =     0.00004327    0.00012181    0.00011685
     atom   45 type  2   force =     0.00000227    0.00014077    0.10260493
     atom   46 type  2   force =    -0.07184989   -0.00062816   -0.02797755
     atom   47 type  2   force =     0.07170732   -0.00013656   -0.02805112
     atom   48 type  3   force =    -0.00033097   -0.00012530    0.00001458
     atom   49 type  2   force =    -0.00119739   -0.00082128    0.00020310
     atom   50 type  4   force =    -0.00006516   -0.00044807   -0.00021142
     atom   51 type  4   force =     0.00036094    0.00048244   -0.00067596
     atom   52 type  4   force =    -0.00020862    0.00009258   -0.00045639
     atom   53 type  4   force =    -0.00000999   -0.00040448   -0.00106347
     atom   54 type  5   force =     0.00013287   -0.00007876    0.00034433
     atom   55 type  5   force =    -0.00048169    0.00006021   -0.00031670
     atom   56 type  2   force =    -0.00066219   -0.00028473    0.00094321
     atom   57 type  4   force =     0.00120058   -0.00115684   -0.00165281

     Total force =     0.364823     Total SCF correction =     0.000470
  @ DRIVER MODE: Message from server: STATUS
  @ DRIVER MODE: Message from server: GETFORCE
  @ DRIVER MODE: Returning v,forces,stress,ensemble

     Writing output data file ./calc.save/
  @ DRIVER MODE: Message from server: EXIT
  @ DRIVE MODE: Exiting

     General routines

     Parallel routines

   This run was terminated on:   1:22:57  27Sep2021

   JOB DONE.