     Program PWSCF v.6.7GPU starts on 21Sep2021 at 14:30:46

     R & G space division:  proc/nbgrp/npool/nimage =      10
     Reading input from /storage/home/hcoda1/3/ntian30/research/carbon/CxH_vib/CH3_calc/ads_slab/CH3ON2_a/out_0008/pw.inp
Warning: card &CELL ignored
Warning: card   CELL_DYNAMICS='IPI', ignored
Warning: card / ignored

     Current dimensions of program PWSCF are:
     Max number of different atomic species (ntypx) = 10
     Max number of k-points (npk) =  40000
     Max angular momentum in pseudopotentials (lmaxx) =  3
     Presently no symmetry can be used with electric field

     Message from routine cell_base_init:
     DEPRECATED: use true lattice parameter, not A to a.u. conversion factor

     IMPORTANT: XC functional enforced from input :
     Exchange-correlation= BEEF-VDW
                           (   1   4  43  14   2   0   0)
     Any further DFT definition will be discarded
     Please, verify this is what you really want

  @ DRIVER MODE: Connecting to
 qe_1139763_2922197.sched-torque.pace.gatech.edufknbaxij_scratch
  using UNIX socket
  @ DRIVER MODE: Message from server: STATUS
  @ DRIVER MODE: Message from server: INIT
  @ DRIVER MODE: Receiving replica           0          -1
  @ DRIVER MODE: Receiving encoded integer          25
  @ DRIVER MODE:  SCF:  T  FORCE:  T  STRESS:  F  VC:  F  ENSEMBLE:  F
  @ DRIVER MODE:  SCF:  T  FORCE:  T  STRESS:  F  VC:  F  ENSEMBLE:  F

     Using Slab Decomposition

     bravais-lattice index     =            0
     lattice parameter (alat)  =       1.8897  a.u.
     unit-cell volume          =    6658.9804 (a.u.)^3
     number of atoms/cell      =           54
     number of atomic types    =            5
     number of electrons       =       401.00
     number of Kohn-Sham states=          210
     kinetic-energy cutoff     =      29.3995  Ry
     charge density cutoff     =     293.9946  Ry
     scf convergence threshold =      7.3E-08
     mixing beta               =       0.0500
     number of iterations used =            8  plain     mixing
     Exchange-correlation= BEEF-VDW
                           (   1   4  43  14   2   0   0)

     celldm(1)=   1.889726  celldm(2)=   0.000000  celldm(3)=   0.000000
     celldm(4)=   0.000000  celldm(5)=   0.000000  celldm(6)=   0.000000

     crystal axes: (cart. coord. in units of alat)
               a(1) = (   6.579727   0.000000   0.000000 )
               a(2) = (  -0.000775   5.961596   0.000000 )
               a(3) = (   0.000000   0.000000  25.155947 )

     reciprocal axes: (cart. coord. in units 2 pi/alat)
               b(1) = (  0.151982  0.000020  0.000000 )
               b(2) = (  0.000000  0.167740  0.000000 )
               b(3) = (  0.000000  0.000000  0.039752 )

     PseudoPot. # 1 for Ti read from file:
     /storage/coda1/p-amedford6/0/shared/rich_project_chbe-medford/medford-share/data/pseudos_module/espresso/nninc/pbe/van/Ti.UPF
     MD5 check sum: 8e4df49b7f0d34bbd5052bf3f5ea0213
     Pseudo is Ultrasoft, Zval = 12.0
     Generated by new atomic code, or converted to UPF format
     Using radial grid of  851 points,  6 beta functions with:
                l(1) =   0
                l(2) =   0
                l(3) =   1
                l(4) =   1
                l(5) =   2
                l(6) =   2
     Q(r) pseudized with  8 coefficients,  rinner =    1.000   1.000   1.000
                                                       1.000   1.000

     PseudoPot. # 2 for O  read from file:
     /storage/coda1/p-amedford6/0/shared/rich_project_chbe-medford/medford-share/data/pseudos_module/espresso/nninc/pbe/van/O.UPF
     MD5 check sum: 78c19812648e8988a0fe644b0f25305e
     Pseudo is Ultrasoft, Zval =  6.0
     Generated by new atomic code, or converted to UPF format
     Using radial grid of  737 points,  4 beta functions with:
                l(1) =   0
                l(2) =   0
                l(3) =   1
                l(4) =   1
     Q(r) pseudized with  8 coefficients,  rinner =    0.800   0.800   0.800

     PseudoPot. # 3 for C  read from file:
     /storage/coda1/p-amedford6/0/shared/rich_project_chbe-medford/medford-share/data/pseudos_module/espresso/nninc/pbe/van/C.UPF
     MD5 check sum: 1a69bf6b8db32088f5b2163dbdb77a27
     Pseudo is Ultrasoft, Zval =  4.0
     Generated by new atomic code, or converted to UPF format
     Using radial grid of  721 points,  4 beta functions with:
                l(1) =   0
                l(2) =   0
                l(3) =   1
                l(4) =   1
     Q(r) pseudized with  8 coefficients,  rinner =    0.800   0.800   0.800

     PseudoPot. # 4 for H  read from file:
     /storage/coda1/p-amedford6/0/shared/rich_project_chbe-medford/medford-share/data/pseudos_module/espresso/nninc/pbe/van/H.UPF
     MD5 check sum: b5ee9d7bfd3a09ee7748110bda690ff7
     Pseudo is Ultrasoft, Zval =  1.0
     Generated by new atomic code, or converted to UPF format
     Using radial grid of  615 points,  1 beta functions with:
                l(1) =   0
     Q(r) pseudized with  8 coefficients,  rinner =    0.800

     PseudoPot. # 5 for N  read from file:
     /storage/coda1/p-amedford6/0/shared/rich_project_chbe-medford/medford-share/data/pseudos_module/espresso/nninc/pbe/van/N.UPF
     MD5 check sum: 90d10febe142ad51ac9d5be1deb811c4
     Pseudo is Ultrasoft, Zval =  5.0
     Generated by new atomic code, or converted to UPF format
     Using radial grid of  729 points,  4 beta functions with:
                l(1) =   0
                l(2) =   0
                l(3) =   1
                l(4) =   1
     Q(r) pseudized with  8 coefficients,  rinner =    0.800   0.800   0.800

     atomic species   valence    mass     pseudopotential
        Ti1           12.00    47.86700     Ti( 1.00)
        O1             6.00    15.99900     O ( 1.00)
        C1             4.00    12.01100     C ( 1.00)
        H1             1.00     1.00800     H ( 1.00)
        N1             5.00    14.00700     N ( 1.00)

     No symmetry found

   Cartesian axes

     site n.     atom                  positions (alat units)
         1           Ti1 tau(   1) = (   0.0004258   2.9801865   6.0000000  )
         2           Ti1 tau(   2) = (   3.2906075   1.4906267   6.0002472  )
         3           O1  tau(   3) = (   0.0006271   0.0005054   7.9858123  )
         4           O1  tau(   4) = (   3.2906025   0.0005020   7.3038282  )
         5           O1  tau(   5) = (   4.5942328   1.4918067   9.2879030  )
         6           O1  tau(   6) = (   1.9868534   1.4903216   9.2879459  )
         7           Ti1 tau(   7) = (   3.3204934   3.0328528   9.1574130  )
         8           Ti1 tau(   8) = (   0.0292148   1.6159158   9.3632543  )
         9           O1  tau(   9) = (   3.3070435   0.0102262  11.3480939  )
        10           O1  tau(  10) = (   0.0088878   0.0096727  10.6115680  )
        11           O1  tau(  11) = (   1.3030819   1.4981340  12.6442205  )
        12           O1  tau(  12) = (   5.3040506   1.5010416  12.6455732  )
        13           Ti1 tau(  13) = (   0.0403577   3.0063940  12.8112948  )
        14           Ti1 tau(  14) = (   3.3464846   1.5065728  12.4912112  )
        15           O1  tau(  15) = (   0.0134291   0.0009660  14.7247257  )
        16           O1  tau(  16) = (   3.3093041   0.0058478  13.9373560  )
        17           O1  tau(  17) = (   4.5500255   1.4945122  16.1009386  )
        18           O1  tau(  18) = (   2.0583445   1.4942802  16.1012567  )
        19           Ti1 tau(  19) = (   3.3037885   2.9813703  15.7231771  )
        20           Ti1 tau(  20) = (   0.0263689   1.3683668  16.1009981  )
        21           O1  tau(  21) = (   3.2904802   0.0005063   4.7018136  )
        22           O1  tau(  22) = (   0.0160251   5.9515368  17.2504238  )
        23           O1  tau(  23) = (   1.3043587   1.4918075   6.0039043  )
        24           O1  tau(  24) = (   5.2767064   1.4903225   6.0039473  )
        25           Ti1 tau(  25) = (   0.0000382   5.9609847   6.0000000  )
        26           Ti1 tau(  26) = (   3.2902200   4.4714249   6.0002472  )
        27           O1  tau(  27) = (   0.0002396   2.9813036   7.9858123  )
        28           O1  tau(  28) = (   3.2902150   2.9813002   7.3038282  )
        29           O1  tau(  29) = (   4.5938453   4.4726049   9.2879030  )
        30           O1  tau(  30) = (   1.9864658   4.4711199   9.2879459  )
        31           Ti1 tau(  31) = (   3.3068128   0.0556959   9.1539818  )
        32           Ti1 tau(  32) = (   0.0329352   4.5395830   9.2719105  )
        33           O1  tau(  33) = (   3.3067668   2.9902038  11.3487497  )
        34           O1  tau(  34) = (   0.0086428   2.9933526  10.5732881  )
        35           O1  tau(  35) = (   1.3040514   4.4849883  12.6410176  )
        36           O1  tau(  36) = (   5.3019722   4.4792838  12.6433842  )
        37           Ti1 tau(  37) = (   0.0449501   0.0247790  12.5283380  )
        38           Ti1 tau(  38) = (   3.3452221   4.4882979  12.4886840  )
        39           O1  tau(  39) = (   0.0326844   3.0101588  14.7024583  )
        40           O1  tau(  40) = (   3.3056340   2.9839048  13.9300935  )
        41           O1  tau(  41) = (   4.5482541   4.4683137  16.0944903  )
        42           O1  tau(  42) = (   2.0564524   4.4684886  16.0889558  )
        43           Ti1 tau(  43) = (   3.3155465   0.0028818  15.7289974  )
        44           Ti1 tau(  44) = (   0.0293978   4.5260084  15.9878609  )
        45           O1  tau(  45) = (   3.2900926   2.9813045   4.7018136  )
        46           O1  tau(  46) = (   1.3039711   4.4726057   6.0039043  )
        47           O1  tau(  47) = (   5.2763189   4.4711207   6.0039473  )
        48           C1  tau(  48) = (   6.0941187   3.0165090  18.6783144  )
        49           O1  tau(  49) = (   6.5749259   2.9843894  17.3344459  )
        50           H1  tau(  50) = (   5.0084317   2.8724860  18.7083625  )
        51           H1  tau(  51) = (   6.5664557   2.2147430  19.2506469  )
        52           H1  tau(  52) = (   6.3318479   3.9831036  19.1258517  )
        53           N1  tau(  53) = (   6.0286935   3.0693532  22.8641725  )
        54           N1  tau(  54) = (   5.2900788   3.1330812  22.0463807  )

     number of k points=    10  Fermi-Dirac smearing, width (Ry)=  0.0073
                       cart. coord. in units 2pi/alat
        k(    1) = (   0.0000000   0.0000000   0.0000000), wk =   0.1250000
        k(    2) = (   0.0000000   0.0419351   0.0000000), wk =   0.2500000
        k(    3) = (   0.0000000  -0.0838702   0.0000000), wk =   0.1250000
        k(    4) = (   0.0379955   0.0000049   0.0000000), wk =   0.2500000
        k(    5) = (   0.0379955   0.0419400   0.0000000), wk =   0.2500000
        k(    6) = (   0.0379955  -0.0838652   0.0000000), wk =   0.2500000
        k(    7) = (   0.0379955  -0.0419301   0.0000000), wk =   0.2500000
        k(    8) = (  -0.0759910  -0.0000099   0.0000000), wk =   0.1250000
        k(    9) = (  -0.0759910   0.0419252   0.0000000), wk =   0.2500000
        k(   10) = (  -0.0759910  -0.0838800   0.0000000), wk =   0.1250000

     Initial potential from superposition of free atoms

     starting charge  384.99916, renormalised to  401.00000

     negative rho (up, down):  1.014E-02 0.000E+00

     %%%%%%%%%%%%%%%%%%%%%%%%%%%%%%%%%%%%%%%%%%%%%%%%%%%%%%%%%%%%%%%%%%%%%%%%
     %                                                                      %
     % You are using vdW-DF, which was implemented by the Thonhauser group. %
     % Please cite the following two papers that made this development      %
     % possible and the two reviews that describe the various versions:     %
     %                                                                      %
     %   T. Thonhauser et al., PRL 115, 136402 (2015).                      %
     %   T. Thonhauser et al., PRB 76, 125112 (2007).                       %
     %   K. Berland et al., Rep. Prog. Phys. 78, 066501 (2015).             %
     %   D.C. Langreth et al., J. Phys.: Condens. Matter 21, 084203 (2009). %
     %                                                                      %
     %                                                                      %
     % If you are calculating the stress with vdW-DF, please also cite:     %
     %                                                                      %
     %   R. Sabatini et al., J. Phys.: Condens. Matter 24, 424209 (2012).   %
     %                                                                      %
     %%%%%%%%%%%%%%%%%%%%%%%%%%%%%%%%%%%%%%%%%%%%%%%%%%%%%%%%%%%%%%%%%%%%%%%%

     Adding external electric field

     Computed dipole along edir(3) :
        Dipole              -14.4684 Ry au,        -36.7751 Debye
        Dipole field         -0.0273 Ry au,

        Potential amp.        2.5310 Ry
        Total length         46.3494 bohr

     Starting wfcs are  303 atomic wfcs
  @ DRIVER MODE: Message from server: STATUS
  @ DRIVER MODE: Message from server: POSDATA
  @ DRIVER MODE: Reading and sharing cell
  @ DRIVER MODE: Reading and sharing positions
  @ DRIVER MODE: Received positions

     Self-consistent Calculation

     iteration #  1     ecut=    29.40 Ry     beta= 0.05
     Davidson diagonalization with overlap
     c_bands:  3 eigenvalues not converged
     c_bands:  3 eigenvalues not converged
     c_bands:  4 eigenvalues not converged
     c_bands:  3 eigenvalues not converged
     c_bands:  5 eigenvalues not converged
     c_bands:  3 eigenvalues not converged
     c_bands:  5 eigenvalues not converged
     c_bands:  3 eigenvalues not converged
     c_bands:  3 eigenvalues not converged
     c_bands:  1 eigenvalues not converged
     ethr =  1.00E-05,  avg # of iterations = 24.0

[...]

     total energy              =   -2414.28427491 Ry
     estimated scf accuracy    <    6341.48826826 Ry

     iteration #  2     ecut=    29.40 Ry     beta= 0.05
     Davidson diagonalization with overlap
     ethr =  1.00E-02,  avg # of iterations = 24.5

[...]

     iteration # 70     ecut=    29.40 Ry     beta= 0.05
     Davidson diagonalization with overlap
     c_bands:  1 eigenvalues not converged
     ethr =  6.89E-10,  avg # of iterations = 11.2

[...]

     total energy              =   -2971.68369637 Ry
     estimated scf accuracy    <       0.00000009 Ry

     iteration # 77     ecut=    29.40 Ry     beta= 0.05
     Davidson diagonalization with overlap
     ethr =  2.26E-11,  avg # of iterations = 12.0

     negative rho (up, down):  1.202E-02 0.000E+00

     Adding external electric field

     Computed dipole along edir(3) :
        Dipole                0.7577 Ry au,          1.9258 Debye
        Dipole field          0.0014 Ry au,

        Potential amp.       -0.1325 Ry
        Total length         46.3494 bohr

     End of self-consistent calculation

          k = 0.0000 0.0000 0.0000 ( 18029 PWs)   bands (ev):

   -55.6073 -55.5923 -55.5707 -55.5561 -55.5014 -55.4911 -55.4677 -55.4396
   -55.4335 -55.3792 -55.3699 -55.3638 -55.3300 -55.2508 -54.6215 -54.5874
   -32.1584 -32.0753 -32.0099 -31.9561 -31.9264 -31.9068 -31.8985 -31.8758
   -31.8432 -31.8315 -31.8131 -31.8080 -31.8058 -31.7738 -31.7674 -31.7517
   -31.7451 -31.7378 -31.7262 -31.6976 -31.6960 -31.6722 -31.6694 -31.6565
   -31.6474 -31.6462 -31.6235 -31.6171 -31.6080 -31.5955 -31.5882 -31.5879
   -31.5823 -31.5655 -31.5449 -31.5378 -31.5333 -31.5080 -31.4747 -31.4675
   -31.4459 -31.4391 -31.0313 -30.9341 -30.9118 -30.8479 -30.7619 -30.6508
   -21.1890 -17.3240 -16.3445 -16.0520 -15.8893 -15.7556 -15.7252 -15.6210
   -15.4312 -15.2932 -15.2738 -15.2115 -15.1738 -15.1621 -15.1328 -15.1287
   -15.1159 -15.1140 -15.0630 -15.0317 -15.0279 -15.0104 -14.9866 -14.9247
   -14.8845 -14.8052 -14.7572 -14.7258 -14.6691 -14.6076 -14.5913 -13.1223
   -13.0040  -9.1837  -6.3560  -4.3299  -4.3118  -4.0554  -3.8113  -3.7042
    -3.5306  -3.5168  -3.4965  -3.4743  -3.4103  -3.1634  -3.1464  -3.0504
    -2.8288  -2.7705  -2.7468  -2.7319  -2.7265  -2.4835  -2.4645  -2.4343
    -2.4242  -2.4144  -2.3878  -2.3614  -2.3575  -2.3260  -2.3081  -2.2178
    -2.1348  -2.1236  -2.0190  -1.9825  -1.9559  -1.9086  -1.8778  -1.8629
    -1.8463  -1.8185  -1.8046  -1.7755  -1.7726  -1.6742  -1.5492  -1.4375
    -1.4078  -1.3704  -1.3071  -1.1017  -1.0525  -1.0213  -1.0084  -0.9504
    -0.9243  -0.9151  -0.8380  -0.8049  -0.7835  -0.6759  -0.6138  -0.5925
    -0.5645  -0.5016  -0.4690  -0.4235  -0.3460  -0.3307  -0.3176  -0.0995
    -0.0781  -0.0682  -0.0591   0.0553   0.1056   0.1637   0.1758   0.1844
     0.2149   0.2962   0.3477   0.3666   0.3870   0.4084   0.4462   0.5171
     0.5450   0.5734   0.5983   0.6262   0.7171   0.7674   0.9090   1.0388
     1.0590   1.1586   1.3061   1.4026   1.4771   1.5734   1.9918   2.0512
     3.5802   3.6080   3.6410   3.6705   3.7333   3.8475   3.9664   4.0158
     4.0388   4.0628

[...]

          k = 0.0380-0.0419 0.0000 ( 17876 PWs)   bands (ev):

[...]

          k =-0.0760-0.0000 0.0000 ( 17886 PWs)   bands (ev):

[...]

          k =-0.0760-0.0839 0.0000 ( 17948 PWs)   bands (ev):

   -55.5957 -55.5822 -55.5752 -55.5731 -55.4988 -55.4854 -55.4512 -55.4500
   -55.4453 -55.3764 -55.3721 -55.3492 -55.3449 -55.2531 -54.6050 -54.6038
   -31.9626 -31.9571 -31.9101 -31.8987 -31.8877 -31.8843 -31.8663 -31.8616
   -31.8581 -31.8164 -31.7938 -31.7881 -31.7867 -31.7484 -31.7379 -31.7320
   -31.7223 -31.7219 -31.7178 -31.7130 -31.7092 -31.6920 -31.6872 -31.6816
   -31.6773 -31.6713 -31.6647 -31.6535 -31.6534 -31.6487 -31.6246 -31.6016
   -31.6009 -31.5979 -31.5923 -31.5757 -31.5707 -31.5598 -31.5538 -31.5433
   -31.4831 -31.4474 -30.9251 -30.9237 -30.8447 -30.8439 -30.8055 -30.8045
   -21.1889 -17.2868 -15.7818 -15.7707 -15.5267 -15.5249 -15.5225 -15.4538
   -15.3623 -15.3452 -15.3271 -15.3227 -15.2647 -15.2574 -15.2430 -15.1829
   -15.1430 -15.1238 -15.1117 -15.1095 -15.0566 -15.0524 -14.9995 -14.9773
   -14.9623 -14.9550 -14.9379 -14.9313 -14.8417 -14.8380 -14.7659 -13.1064
   -13.1041  -9.1843  -6.3565  -4.3279  -4.3188  -3.9300  -3.7789  -3.5220
    -3.0741  -3.0600  -3.0414  -2.7683  -2.7438  -2.7421  -2.6481  -2.5610
    -2.5222  -2.4848  -2.4471  -2.4440  -2.4424  -2.4237  -2.4042  -2.3923
    -2.3700  -2.3562  -2.3438  -2.2852  -2.2487  -2.2402  -2.2355  -2.2275
    -2.1995  -2.1801  -2.1586  -2.1525  -2.1424  -2.1219  -2.0299  -1.8898
    -1.8556  -1.7463  -1.7364  -1.7063  -1.6921  -1.6606  -1.6533  -1.6339
    -1.5272  -1.4578  -1.3362  -1.3237  -1.3059  -1.2540  -1.1843  -1.1108
    -1.0548  -1.0228  -1.0045  -0.9146  -0.9016  -0.8233  -0.8116  -0.7596
    -0.7236  -0.7045  -0.6135  -0.5745  -0.5615  -0.5484  -0.4788  -0.4623
    -0.4376  -0.4038  -0.3448  -0.3350  -0.2606  -0.2291  -0.1808  -0.1200
    -0.0984  -0.0459   0.0417   0.2102   0.3035   0.4032   0.4393   0.4979
     0.5102   0.6070   0.6502   0.6681   0.6734   0.7557   0.8205   0.8512
     0.9186   0.9330   0.9556   1.0188   1.7626   1.7641   1.8544   1.8646
     3.7857   3.8138   3.8340   3.8806   4.0396   4.0443   4.0634   4.0670
     4.1422   4.2045

     the Fermi energy is     3.5480 ev

!    total energy              =   -2971.68370639 Ry
     estimated scf accuracy    <       0.00000007 Ry
     smearing contrib. (-TS)   =      -0.02321014 Ry
     internal energy E=F+TS    =   -2971.66049625 Ry

     The total energy is F=E-TS. E is the sum of the following terms:
     one-electron contribution =  -22785.40119648 Ry
     hartree contribution      =   11484.68435508 Ry
     xc contribution           =    -492.26606336 Ry
     ewald contribution        =    8821.32132516 Ry
     electric field correction =       0.00108334 Ry

     convergence has been achieved in  77 iterations

     Forces acting on atoms (cartesian axes, Ry/au):

     atom    1 type  1   force =    -0.00020933   -0.00154826    0.10612338
     atom    2 type  1   force =    -0.00045108    0.00047393   -0.17982533
     atom    3 type  2   force =     0.00026747   -0.00690524   -0.03318242
     atom    4 type  2   force =     0.00053910    0.00050793    0.04563423
     atom    5 type  2   force =    -0.01839530    0.00015934    0.00400487
     atom    6 type  2   force =     0.02061025   -0.00127748    0.00459957
     atom    7 type  1   force =    -0.00033649   -0.00019453    0.00008276
     atom    8 type  1   force =    -0.00018027   -0.00126173    0.00022116
     atom    9 type  2   force =     0.00001349    0.00011914   -0.00076583
     atom   10 type  2   force =    -0.00005548    0.00002274   -0.00045129
     atom   11 type  2   force =     0.00004566    0.00007857    0.00040238
     atom   12 type  2   force =    -0.00071535    0.00014805    0.00036854
     atom   13 type  1   force =     0.00000569    0.00043013    0.00055515
     atom   14 type  1   force =    -0.00014457    0.00088362    0.00019815
     atom   15 type  2   force =    -0.00034559   -0.00027732   -0.00010391
     atom   16 type  2   force =    -0.00017069    0.00013454   -0.00070868
     atom   17 type  2   force =     0.00003944    0.00033370    0.00040752
     atom   18 type  2   force =     0.00074574   -0.00031245   -0.00070940
     atom   19 type  1   force =    -0.00037593    0.00070062   -0.00056121
     atom   20 type  1   force =    -0.00004139    0.00002945   -0.00042764
     atom   21 type  2   force =    -0.00006671    0.00009787    0.10415824
     atom   22 type  2   force =    -0.00018758   -0.00046670   -0.00070605
     atom   23 type  2   force =    -0.06901366    0.00067584   -0.02955496
     atom   24 type  2   force =     0.06866977    0.00115254   -0.02961528
     atom   25 type  1   force =    -0.00012676    0.00147197    0.11711968
     atom   26 type  1   force =    -0.00022314    0.00000172   -0.17989394
     atom   27 type  2   force =     0.00042492    0.00389832   -0.02757040
     atom   28 type  2   force =     0.00072594    0.00078006    0.04708240
     atom   29 type  2   force =    -0.01717279    0.00151717    0.00338816
     atom   30 type  2   force =     0.01882147    0.00099466    0.00380781
     atom   31 type  1   force =    -0.00038466    0.00044061   -0.00028403
     atom   32 type  1   force =    -0.00023214    0.00075575    0.00042639
     atom   33 type  2   force =    -0.00028426   -0.00010575   -0.00017842
     atom   34 type  2   force =    -0.00003386    0.00048278    0.00025949
     atom   35 type  2   force =    -0.00005480    0.00005943    0.00052981
     atom   36 type  2   force =    -0.00067737   -0.00005413    0.00041231
     atom   37 type  1   force =    -0.00004103   -0.00016912    0.00011729
     atom   38 type  1   force =    -0.00007552   -0.00115620    0.00008648
     atom   39 type  2   force =    -0.00028523    0.00001553    0.00028919
     atom   40 type  2   force =    -0.00022079    0.00020026    0.00072084
     atom   41 type  2   force =    -0.00048205   -0.00067373    0.00007157
     atom   42 type  2   force =     0.00115753    0.00005193   -0.00028043
     atom   43 type  1   force =    -0.00007231   -0.00086495    0.00025892
     atom   44 type  1   force =     0.00028163    0.00123667   -0.00025023
     atom   45 type  2   force =    -0.00006377    0.00007467    0.10421903
     atom   46 type  2   force =    -0.06860104   -0.00128119   -0.02960151
     atom   47 type  2   force =     0.06835829   -0.00085812   -0.02968686
     atom   48 type  3   force =     0.00271147   -0.00073653   -0.00186391
     atom   49 type  2   force =    -0.00404280    0.00047660    0.00318617
     atom   50 type  4   force =     0.00047041   -0.00000492   -0.00175612
     atom   51 type  4   force =    -0.00026709    0.00008350   -0.00009728
     atom   52 type  4   force =     0.00028749   -0.00023684   -0.00030074
     atom   53 type  5   force =     0.00054072    0.00001901    0.00076072
     atom   54 type  5   force =    -0.00068565   -0.00012348   -0.00111632

     Total force =     0.376207     Total SCF correction =     0.000600
  @ DRIVER MODE: Message from server: STATUS
  @ DRIVER MODE: Message from server: GETFORCE
  @ DRIVER MODE: Returning v,forces,stress,ensemble

     Writing output data file ./calc.save/
  @ DRIVER MODE: Message from server: EXIT
  @ DRIVE MODE: Exiting

     General routines

     Parallel routines

   This run was terminated on:  14:52:25  21Sep2021

   JOB DONE.