     Program PWSCF v.6.7GPU starts on 15Jul2021 at 21:11:26

     R & G space division:  proc/nbgrp/npool/nimage =      16
     Reading input from /storage/home/hcoda1/3/ntian30/research/carbon/15Jul_vib/ads_slab/CH3NH_b/out_0009/pw.inp
Warning: card &CELL ignored
Warning: card   CELL_DYNAMICS='IPI', ignored
Warning: card / ignored

     Current dimensions of program PWSCF are:
     Max number of different atomic species (ntypx) = 10
     Max number of k-points (npk) =  40000
     Max angular momentum in pseudopotentials (lmaxx) =  3
     Presently no symmetry can be used with electric field

     Message from routine cell_base_init:
     DEPRECATED: use true lattice parameter, not A to a.u. conversion factor

     IMPORTANT: XC functional enforced from input :
     Exchange-correlation= BEEF-VDW
                           (   1   4  43  14   2   0   0)
     Any further DFT definition will be discarded
     Please, verify this is what you really want

  @ DRIVER MODE: Connecting to
 qe_1139763_2351649.sched-torque.pace.gatech.edumhe6xbvd_scratch
  using UNIX socket
  @ DRIVER MODE: Message from server: STATUS
  @ DRIVER MODE: Message from server: INIT
  @ DRIVER MODE: Receiving replica           0          -1
  @ DRIVER MODE: Receiving encoded integer          25
  @ DRIVER MODE:  SCF:  T  FORCE:  T  STRESS:  F  VC:  F  ENSEMBLE:  F
  @ DRIVER MODE:  SCF:  T  FORCE:  T  STRESS:  F  VC:  F  ENSEMBLE:  F

     Using Slab Decomposition

     bravais-lattice index     =            0
     lattice parameter (alat)  =       1.8897  a.u.
     unit-cell volume          =    6658.9804 (a.u.)^3
     number of atoms/cell      =           53
     number of atomic types    =            5
     number of electrons       =       391.00
     number of Kohn-Sham states=          205
     kinetic-energy cutoff     =      29.3995  Ry
     charge density cutoff     =     293.9946  Ry
     scf convergence threshold =      7.3E-08
     mixing beta               =       0.0500
     number of iterations used =            8  plain     mixing
     Exchange-correlation= BEEF-VDW
                           (   1   4  43  14   2   0   0)

     celldm(1)=   1.889726  celldm(2)=   0.000000  celldm(3)=   0.000000
     celldm(4)=   0.000000  celldm(5)=   0.000000  celldm(6)=   0.000000

     crystal axes: (cart. coord. in units of alat)
               a(1) = (   6.579727   0.000000   0.000000 )
               a(2) = (  -0.000775   5.961596   0.000000 )
               a(3) = (   0.000000   0.000000  25.155947 )

     reciprocal axes: (cart. coord. in units 2 pi/alat)
               b(1) = (  0.151982  0.000020  0.000000 )
               b(2) = (  0.000000  0.167740  0.000000 )
               b(3) = (  0.000000  0.000000  0.039752 )

     PseudoPot. # 1 for Ti read from file:
     /storage/coda1/p-amedford6/0/shared/rich_project_chbe-medford/medford-share/data/pseudos_module/espresso/nninc/pbe/van/Ti.UPF
     MD5 check sum: 8e4df49b7f0d34bbd5052bf3f5ea0213
     Pseudo is Ultrasoft, Zval = 12.0
     Generated by new atomic code, or converted to UPF format
     Using radial grid of  851 points,  6 beta functions with:
                l(1) =   0
                l(2) =   0
                l(3) =   1
                l(4) =   1
                l(5) =   2
                l(6) =   2
     Q(r) pseudized with  8 coefficients,  rinner =    1.000   1.000   1.000
                                                       1.000   1.000

     PseudoPot. # 2 for O  read from file:
     /storage/coda1/p-amedford6/0/shared/rich_project_chbe-medford/medford-share/data/pseudos_module/espresso/nninc/pbe/van/O.UPF
     MD5 check sum: 78c19812648e8988a0fe644b0f25305e
     Pseudo is Ultrasoft, Zval =  6.0
     Generated by new atomic code, or converted to UPF format
     Using radial grid of  737 points,  4 beta functions with:
                l(1) =   0
                l(2) =   0
                l(3) =   1
                l(4) =   1
     Q(r) pseudized with  8 coefficients,  rinner =    0.800   0.800   0.800

     PseudoPot. # 3 for H  read from file:
     /storage/coda1/p-amedford6/0/shared/rich_project_chbe-medford/medford-share/data/pseudos_module/espresso/nninc/pbe/van/H.UPF
     MD5 check sum: b5ee9d7bfd3a09ee7748110bda690ff7
     Pseudo is Ultrasoft, Zval =  1.0
     Generated by new atomic code, or converted to UPF format
     Using radial grid of  615 points,  1 beta functions with:
                l(1) =   0
     Q(r) pseudized with  8 coefficients,  rinner =    0.800

     PseudoPot. # 4 for N  read from file:
     /storage/coda1/p-amedford6/0/shared/rich_project_chbe-medford/medford-share/data/pseudos_module/espresso/nninc/pbe/van/N.UPF
     MD5 check sum: 90d10febe142ad51ac9d5be1deb811c4
     Pseudo is Ultrasoft, Zval =  5.0
     Generated by new atomic code, or converted to UPF format
     Using radial grid of  729 points,  4 beta functions with:
                l(1) =   0
                l(2) =   0
                l(3) =   1
                l(4) =   1
     Q(r) pseudized with  8 coefficients,  rinner =    0.800   0.800   0.800

     PseudoPot. # 5 for C  read from file:
     /storage/coda1/p-amedford6/0/shared/rich_project_chbe-medford/medford-share/data/pseudos_module/espresso/nninc/pbe/van/C.UPF
     MD5 check sum: 1a69bf6b8db32088f5b2163dbdb77a27
     Pseudo is Ultrasoft, Zval =  4.0
     Generated by new atomic code, or converted to UPF format
     Using radial grid of  721 points,  4 beta functions with:
                l(1) =   0
                l(2) =   0
                l(3) =   1
                l(4) =   1
     Q(r) pseudized with  8 coefficients,  rinner =    0.800   0.800   0.800

     atomic species   valence    mass     pseudopotential
        Ti1           12.00    47.86700     Ti( 1.00)
        O1             6.00    15.99900     O ( 1.00)
        H1             1.00     1.00800     H ( 1.00)
        N1             5.00    14.00700     N ( 1.00)
        C1             4.00    12.01100     C ( 1.00)

     Starting magnetic structure
     atomic species   magnetization
        Ti1          0.000
        O1           0.000
        H1           0.000
        N1           0.000
        C1           0.025

     No symmetry found

   Cartesian axes

     site n.     atom                  positions (alat units)
         1           Ti1 tau(   1) = (   0.0004258   2.9801865   6.0000000  )
         2           Ti1 tau(   2) = (   3.2906075   1.4906267   6.0002472  )
         3           O1  tau(   3) = (   0.0006271   0.0005054   7.9858123  )
         4           O1  tau(   4) = (   3.2906025   0.0005020   7.3038282  )
         5           O1  tau(   5) = (   4.5942328   1.4918067   9.2879030  )
         6           O1  tau(   6) = (   1.9868534   1.4903216   9.2879459  )
         7           Ti1 tau(   7) = (   3.2907910   2.8959150   9.1758416  )
         8           Ti1 tau(   8) = (   0.0015273   1.4827037   9.2680791  )
         9           O1  tau(   9) = (   3.2906183   5.9580730  11.3246990  )
        10           O1  tau(  10) = (   0.0116148   5.9584955  10.6183126  )
        11           O1  tau(  11) = (   1.3160896   1.4863360  12.6200149  )
        12           O1  tau(  12) = (   5.2947061   1.4800608  12.6053981  )
        13           Ti1 tau(  13) = (   6.5224157   2.9421717  12.6196007  )
        14           Ti1 tau(  14) = (   3.2076970   1.4879367  12.4696142  )
        15           O1  tau(  15) = (   6.5517659   0.0158556  14.6493665  )
        16           O1  tau(  16) = (   3.3109316   0.0069331  13.9179417  )
        17           O1  tau(  17) = (   4.5083530   1.5297238  16.0872293  )
        18           O1  tau(  18) = (   2.0274073   1.5273405  16.0409094  )
        19           Ti1 tau(  19) = (   3.2920608   3.0081397  15.6838061  )
        20           Ti1 tau(  20) = (   0.0536170   1.5416865  15.8648894  )
        21           O1  tau(  21) = (   3.2904802   0.0005063   4.7018136  )
        22           O1  tau(  22) = (   0.0122827   0.0301012  17.2134340  )
        23           O1  tau(  23) = (   1.3043587   1.4918075   6.0039043  )
        24           O1  tau(  24) = (   5.2767064   1.4903225   6.0039473  )
        25           Ti1 tau(  25) = (   0.0000382   5.9609847   6.0000000  )
        26           Ti1 tau(  26) = (   3.2902200   4.4714249   6.0002472  )
        27           O1  tau(  27) = (   0.0002396   2.9813036   7.9858123  )
        28           O1  tau(  28) = (   3.2902150   2.9813002   7.3038282  )
        29           O1  tau(  29) = (   4.5938453   4.4726049   9.2879030  )
        30           O1  tau(  30) = (   1.9864658   4.4711199   9.2879459  )
        31           Ti1 tau(  31) = (   3.2891106   5.8743827   9.1763621  )
        32           Ti1 tau(  32) = (   0.0006254   4.4649316   9.2693709  )
        33           O1  tau(  33) = (   3.2866862   2.9837957  11.3234553  )
        34           O1  tau(  34) = (   0.0092240   2.9805883  10.6323155  )
        35           O1  tau(  35) = (   1.3095649   4.4762946  12.6335636  )
        36           O1  tau(  36) = (   5.2963019   4.4650584  12.6194355  )
        37           Ti1 tau(  37) = (   6.5192018   5.9199268  12.5733442  )
        38           Ti1 tau(  38) = (   3.2055211   4.4685508  12.4747853  )
        39           O1  tau(  39) = (   6.5624772   2.9349094  14.6472044  )
        40           O1  tau(  40) = (   3.3065106   2.9879112  13.8942307  )
        41           O1  tau(  41) = (   4.5199725   4.4841037  16.0899424  )
        42           O1  tau(  42) = (   2.0389375   4.4882992  16.0664246  )
        43           Ti1 tau(  43) = (   3.3279474   0.0221627  15.7114356  )
        44           Ti1 tau(  44) = (   0.0314192   4.6578676  16.1055029  )
        45           O1  tau(  45) = (   3.2900926   2.9813045   4.7018136  )
        46           O1  tau(  46) = (   1.3039711   4.4726057   6.0039043  )
        47           O1  tau(  47) = (   5.2763189   4.4711207   6.0039473  )
        48           H1  tau(  48) = (   5.5751926   2.9245997  17.7795037  )
        49           N1  tau(  49) = (   6.5345126   2.9609300  17.4463781  )
        50           C1  tau(  50) = (   0.8205834   2.9192471  18.6315588  )
        51           H1  tau(  51) = (   0.6379014   3.7726647  19.2931901  )
        52           H1  tau(  52) = (   0.6616828   1.9903841  19.1881566  )
        53           H1  tau(  53) = (   1.8691752   2.9530840  18.3388921  )

     number of k points=    10  Fermi-Dirac smearing, width (Ry)=  0.0073
                       cart. coord. in units 2pi/alat
        k(    1) = (   0.0000000   0.0000000   0.0000000), wk =   0.0625000
        k(    2) = (   0.0000000   0.0419351   0.0000000), wk =   0.1250000
        k(    3) = (   0.0000000  -0.0838702   0.0000000), wk =   0.0625000
        k(    4) = (   0.0379955   0.0000049   0.0000000), wk =   0.1250000
        k(    5) = (   0.0379955   0.0419400   0.0000000), wk =   0.1250000
        k(    6) = (   0.0379955  -0.0838652   0.0000000), wk =   0.1250000
        k(    7) = (   0.0379955  -0.0419301   0.0000000), wk =   0.1250000
        k(    8) = (  -0.0759910  -0.0000099   0.0000000), wk =   0.0625000
[...]

     Initial potential from superposition of free atoms

     starting charge  374.99916, renormalised to  391.00000

     negative rho (up, down):  8.890E-03 8.898E-03

     %%%%%%%%%%%%%%%%%%%%%%%%%%%%%%%%%%%%%%%%%%%%%%%%%%%%%%%%%%%%%%%%%%%%%%%%
     %                                                                      %
     % You are using vdW-DF, which was implemented by the Thonhauser group. %
     % Please cite the following two papers that made this development      %
     % possible and the two reviews that describe the various versions:     %
     %                                                                      %
     %   T. Thonhauser et al., PRL 115, 136402 (2015).                      %
     %   T. Thonhauser et al., PRB 76, 125112 (2007).                       %
     %   K. Berland et al., Rep. Prog. Phys. 78, 066501 (2015).             %
     %   D.C. Langreth et al., J. Phys.: Condens. Matter 21, 084203 (2009). %
     %                                                                      %
     %                                                                      %
     % If you are calculating the stress with vdW-DF, please also cite:     %
     %                                                                      %
     %   R. Sabatini et al., J. Phys.: Condens. Matter 24, 424209 (2012).   %
     %                                                                      %
     %%%%%%%%%%%%%%%%%%%%%%%%%%%%%%%%%%%%%%%%%%%%%%%%%%%%%%%%%%%%%%%%%%%%%%%%

     Adding external electric field

     Computed dipole along edir(3) :
        Dipole               -5.8162 Ry au,        -14.7834 Debye
        Dipole field         -0.0110 Ry au,

        Potential amp.        1.0175 Ry
        Total length         46.3494 bohr

[...]

     Starting wfcs are  296 atomic wfcs
  @ DRIVER MODE: Message from server: STATUS
  @ DRIVER MODE: Message from server: POSDATA
  @ DRIVER MODE: Reading and sharing cell
  @ DRIVER MODE: Reading and sharing positions
  @ DRIVER MODE: Received positions

     Self-consistent Calculation

     iteration #  1     ecut=    29.40 Ry     beta= 0.05
     Davidson diagonalization with overlap
     c_bands:  3 eigenvalues not converged
     c_bands:  2 eigenvalues not converged
     c_bands:  1 eigenvalues not converged
     c_bands:  3 eigenvalues not converged
     c_bands:  4 eigenvalues not converged
     c_bands:  2 eigenvalues not converged
     c_bands:  1 eigenvalues not converged
     c_bands:  1 eigenvalues not converged
     c_bands:  2 eigenvalues not converged
     c_bands:  3 eigenvalues not converged
     c_bands:  1 eigenvalues not converged
     c_bands:  1 eigenvalues not converged
     c_bands:  3 eigenvalues not converged
     c_bands:  4 eigenvalues not converged
     c_bands:  3 eigenvalues not converged
     c_bands:  1 eigenvalues not converged
     c_bands:  1 eigenvalues not converged
     c_bands:  2 eigenvalues not converged
     ethr =  1.00E-05,  avg # of iterations = 19.6

[...]

     total energy              =   -2770.81117020 Ry
     estimated scf accuracy    <    1639.94092311 Ry

     total magnetization       =     0.01 Bohr mag/cell
     absolute magnetization    =     0.02 Bohr mag/cell

[...]

     iteration #  3     ecut=    29.40 Ry     beta= 0.05
     Davidson diagonalization with overlap
     ethr =  1.00E-02,  avg # of iterations = 15.2

[...]

     iteration # 51     ecut=    29.40 Ry     beta= 0.05
     Davidson diagonalization with overlap
     c_bands:  1 eigenvalues not converged
     ethr =  4.36E-10,  avg # of iterations = 10.9

[...]

     total energy              =   -2920.42459859 Ry
     estimated scf accuracy    <       0.00000010 Ry

[...]

     iteration # 68     ecut=    29.40 Ry     beta= 0.05
     Davidson diagonalization with overlap
     ethr =  1.98E-11,  avg # of iterations =  4.0

     negative rho (up, down):  9.092E-03 9.090E-03

[...]

     Adding external electric field

     Computed dipole along edir(3) :
        Dipole                0.6860 Ry au,          1.7437 Debye
        Dipole field          0.0013 Ry au,

        Potential amp.       -0.1200 Ry
        Total length         46.3494 bohr

     Magnetic moment per site  (integrated on atomic sphere of radius R)
     atom   1 (R=0.715)  charge=  7.8452  magn= -0.0126
     atom   2 (R=0.715)  charge=  7.8287  magn= -0.0005
     atom   3 (R=0.715)  charge=  4.8552  magn=  0.0010
     atom   4 (R=0.715)  charge=  4.8904  magn=  0.0001
     atom   5 (R=0.715)  charge=  4.8609  magn=  0.0001
     atom   6 (R=0.715)  charge=  4.8616  magn=  0.0001
     atom   7 (R=0.715)  charge=  7.8275  magn= -0.0005
     atom   8 (R=0.715)  charge=  7.8193  magn= -0.0035
     atom   9 (R=0.715)  charge=  4.8766  magn=  0.0000
     atom  10 (R=0.715)  charge=  4.8486  magn=  0.0003
     atom  11 (R=0.715)  charge=  4.8624  magn=  0.0001
     atom  12 (R=0.715)  charge=  4.8618  magn=  0.0001
     atom  13 (R=0.715)  charge=  7.8169  magn= -0.0006
     atom  14 (R=0.715)  charge=  7.8304  magn= -0.0002
     atom  15 (R=0.715)  charge=  4.8497  magn=  0.0000
     atom  16 (R=0.715)  charge=  4.8723  magn= -0.0000
     atom  17 (R=0.715)  charge=  4.8476  magn= -0.0000
     atom  18 (R=0.715)  charge=  4.8546  magn= -0.0000
     atom  19 (R=0.715)  charge=  7.8557  magn= -0.0000
     atom  20 (R=0.715)  charge=  7.8310  magn= -0.0001
     atom  21 (R=0.715)  charge=  4.7478  magn=  0.0004
     atom  22 (R=0.715)  charge=  4.8258  magn= -0.0000
     atom  23 (R=0.715)  charge=  4.8532  magn=  0.0015
     atom  24 (R=0.715)  charge=  4.8532  magn=  0.0015
     atom  25 (R=0.715)  charge=  7.8452  magn= -0.0125
     atom  26 (R=0.715)  charge=  7.8288  magn= -0.0005
     atom  27 (R=0.715)  charge=  4.8545  magn=  0.0010
     atom  28 (R=0.715)  charge=  4.8906  magn=  0.0001
     atom  29 (R=0.715)  charge=  4.8617  magn=  0.0001
     atom  30 (R=0.715)  charge=  4.8623  magn=  0.0001
     atom  31 (R=0.715)  charge=  7.8277  magn= -0.0005
     atom  32 (R=0.715)  charge=  7.8194  magn= -0.0034
     atom  33 (R=0.715)  charge=  4.8755  magn=  0.0000
     atom  34 (R=0.715)  charge=  4.8372  magn=  0.0003
     atom  35 (R=0.715)  charge=  4.8621  magn=  0.0001
     atom  36 (R=0.715)  charge=  4.8623  magn=  0.0001
     atom  37 (R=0.715)  charge=  7.8195  magn= -0.0007
     atom  38 (R=0.715)  charge=  7.8303  magn= -0.0002
     atom  39 (R=0.715)  charge=  4.8446  magn=  0.0000
     atom  40 (R=0.715)  charge=  4.8784  magn=  0.0000
     atom  41 (R=0.715)  charge=  4.8510  magn= -0.0000
     atom  42 (R=0.715)  charge=  4.8519  magn= -0.0000
     atom  43 (R=0.715)  charge=  7.8536  magn= -0.0000
     atom  44 (R=0.715)  charge=  7.8555  magn= -0.0000
     atom  45 (R=0.715)  charge=  4.7478  magn=  0.0003
     atom  46 (R=0.715)  charge=  4.8532  magn=  0.0015
     atom  47 (R=0.715)  charge=  4.8532  magn=  0.0015
     atom  48 (R=0.419)  charge=  0.4544  magn=  0.0000
     atom  49 (R=0.419)  charge=  1.3286  magn= -0.0000
     atom  50 (R=0.449)  charge=  0.8460  magn= -0.0000
     atom  51 (R=0.419)  charge=  0.4416  magn=  0.0000
     atom  52 (R=0.419)  charge=  0.4409  magn=  0.0000
     atom  53 (R=0.419)  charge=  0.4474  magn=  0.0000

     End of self-consistent calculation

 ------ SPIN UP ------------

          k = 0.0000 0.0000 0.0000 ( 18029 PWs)   bands (ev):

   -55.9866 -55.9820 -55.9505 -55.9479 -55.9018 -55.8372 -55.8361 -55.8017
   -55.7946 -55.7607 -55.7575 -55.7239 -55.5331 -55.2753 -54.9659 -54.9319
   -32.5455 -32.4703 -32.3489 -32.3381 -32.3142 -32.2910 -32.2733 -32.2486
   -32.2347 -32.2238 -32.2103 -32.2031 -32.1692 -32.1385 -32.1330 -32.1316
   -32.1290 -32.0921 -32.0744 -32.0465 -32.0376 -32.0363 -32.0246 -31.9964
   -31.9891 -31.9882 -31.9814 -31.9743 -31.9606 -31.9563 -31.9520 -31.9408
   -31.9328 -31.9246 -31.9105 -31.9017 -31.8700 -31.8034 -31.7042 -31.5477
   -31.5447 -31.4694 -31.3728 -31.2847 -31.2623 -31.1893 -31.1028 -30.9920
   -16.7547 -16.4717 -16.2923 -16.1491 -16.1167 -16.0313 -15.8305 -15.7040
   -15.6914 -15.5877 -15.5548 -15.5291 -15.5220 -15.4960 -15.4902 -15.4294
   -15.4273 -15.4143 -15.4050 -15.3474 -15.3230 -15.2694 -15.1907 -15.1575
   -15.1520 -15.1247 -15.0423 -15.0373 -14.5843 -14.1810 -13.4688 -13.3525
    -8.9327  -4.3641  -4.1257  -3.9513  -3.9126  -3.8957  -3.8464  -3.5919
    -3.5775  -3.3356  -3.2259  -3.1919  -3.1766  -3.1680  -3.1475  -3.1367
    -2.8901  -2.8235  -2.8077  -2.7865  -2.7784  -2.7725  -2.7602  -2.7595
    -2.7200  -2.6579  -2.5320  -2.4977  -2.4186  -2.3815  -2.3522  -2.3023
    -2.2600  -2.2530  -2.2417  -2.2228  -2.2104  -2.1862  -2.1697  -2.0358
    -1.9698  -1.8350  -1.8000  -1.7805  -1.5943  -1.5375  -1.4722  -1.4324
    -1.4193  -1.4120  -1.3799  -1.2985  -1.2071  -1.1511  -1.1409  -1.0847
    -1.0073  -0.9956  -0.8887  -0.8833  -0.8569  -0.7653  -0.7550  -0.7438
    -0.7237  -0.6579  -0.5555  -0.4794  -0.4342  -0.4045  -0.3731  -0.3034
    -0.2732  -0.1717  -0.1559  -0.1058  -0.1021  -0.0606  -0.0159  -0.0063
     0.0027   0.0107   0.0363   0.1784   0.2893   0.3437   0.3851   0.3914
     0.5450   0.5718   0.6696   0.7576   0.9831   1.0559   1.1486   1.2486
     1.3193   1.6262   1.6721   3.1562   3.2423   3.2859   3.2911   3.3957
     3.3987   3.6064   3.6097   3.6236   3.6891

[...]

          k =-0.0760-0.0000 0.0000 ( 17886 PWs)   bands (ev):

[...]

 ------ SPIN DOWN ----------

[...]

          k = 0.0380-0.0419 0.0000 ( 17876 PWs)   bands (ev):

[...]

          k =-0.0760-0.0839 0.0000 ( 17948 PWs)   bands (ev):

   -55.9889 -55.9883 -55.9701 -55.9674 -55.8967 -55.8421 -55.8211 -55.8191
   -55.7849 -55.7831 -55.7421 -55.7411 -55.5323 -55.2763 -54.9496 -54.9495
   -32.3507 -32.3470 -32.2957 -32.2952 -32.2857 -32.2851 -32.2802 -32.2593
   -32.1974 -32.1963 -32.1914 -32.1869 -32.1636 -32.1325 -32.1178 -32.1135
   -32.1106 -32.1100 -32.1016 -32.1003 -32.0963 -32.0821 -32.0798 -32.0480
   -32.0404 -32.0395 -32.0107 -31.9992 -31.9806 -31.9801 -31.9749 -31.9739
   -31.9571 -31.9569 -31.9564 -31.9536 -31.8737 -31.8060 -31.6998 -31.6121
   -31.5467 -31.4951 -31.2760 -31.2760 -31.1859 -31.1858 -31.1469 -31.1469
   -16.2085 -16.1733 -15.9365 -15.9247 -15.9185 -15.9021 -15.7571 -15.7098
   -15.6983 -15.6910 -15.6682 -15.6463 -15.5878 -15.5598 -15.5301 -15.5210
   -15.5147 -15.5131 -15.4511 -15.4460 -15.4225 -15.4157 -15.3024 -15.2986
   -15.2898 -15.2140 -15.1585 -15.0180 -14.7467 -14.2046 -13.4537 -13.4537
    -8.9376  -4.3761  -3.5026  -3.4624  -3.2804  -3.2517  -3.1772  -3.1606
    -3.1364  -3.0685  -2.9041  -2.8872  -2.8757  -2.8607  -2.8184  -2.8122
    -2.8019  -2.7892  -2.7824  -2.7636  -2.7301  -2.6975  -2.6591  -2.6517
    -2.6429  -2.6180  -2.6068  -2.5858  -2.5736  -2.5427  -2.5338  -2.5164
    -2.4865  -2.2262  -2.2052  -2.1941  -2.1228  -2.1162  -2.0827  -2.0644
    -2.0548  -2.0416  -1.9844  -1.8814  -1.7241  -1.6923  -1.6828  -1.6674
    -1.5844  -1.5754  -1.4213  -1.4003  -1.3801  -1.3428  -1.2887  -1.2665
    -1.2258  -1.1673  -1.1494  -1.0858  -1.0694  -1.0102  -0.9540  -0.9521
    -0.9314  -0.8566  -0.7753  -0.7596  -0.7463  -0.7069  -0.6966  -0.6099
    -0.5858  -0.4929  -0.4784  -0.4230  -0.3985  -0.2954  -0.1307  -0.0105
     0.0432   0.0703   0.1275   0.2256   0.2709   0.2806   0.3269   0.3330
     0.3944   0.4332   0.5474   0.5534   0.6280   0.7195   1.2607   1.4204
     1.4210   1.4919   1.4920   3.4116   3.4174   3.4644   3.4936   3.6418
     3.6464   3.6711   3.6723   3.7989   3.8157

     the Fermi energy is     3.1422 ev

!    total energy              =   -2920.42461710 Ry
     estimated scf accuracy    <       0.00000007 Ry
     smearing contrib. (-TS)   =      -0.02201807 Ry
     internal energy E=F+TS    =   -2920.40259903 Ry

     The total energy is F=E-TS. E is the sum of the following terms:
     one-electron contribution =  -24701.79273292 Ry
     hartree contribution      =   12435.52022135 Ry
     xc contribution           =    -480.87278727 Ry
     ewald contribution        =    9826.74181164 Ry
     electric field correction =       0.00088818 Ry

     total magnetization       =    -0.05 Bohr mag/cell
     absolute magnetization    =     0.07 Bohr mag/cell

     convergence has been achieved in  68 iterations

     Forces acting on atoms (cartesian axes, Ry/au):

     atom    1 type  1   force =     0.00010808   -0.00025935    0.09686416
     atom    2 type  1   force =     0.00002024   -0.00056470   -0.17509432
     atom    3 type  2   force =     0.00013572   -0.00007685   -0.02541554
     atom    4 type  2   force =    -0.00000565   -0.00137129    0.05232767
     atom    5 type  2   force =    -0.01236256   -0.00013711    0.00302966
     atom    6 type  2   force =     0.01378255    0.00022969    0.00239330
     atom    7 type  1   force =     0.00059897    0.00032935   -0.01267751
     atom    8 type  1   force =     0.00047324    0.00594732    0.03103443
     atom    9 type  2   force =    -0.00033311    0.00024121    0.00041029
     atom   10 type  2   force =    -0.00269500    0.00069181   -0.01623003
     atom   11 type  2   force =    -0.00040318    0.00010845    0.00017095
     atom   12 type  2   force =     0.00013306    0.00010687    0.00019990
     atom   13 type  1   force =    -0.00012987    0.00022832    0.00035546
     atom   14 type  1   force =    -0.00002630   -0.00020293   -0.00015485
     atom   15 type  2   force =     0.00023656   -0.00071076    0.00062530
     atom   16 type  2   force =    -0.00006242    0.00025779    0.00025364
     atom   17 type  2   force =    -0.00029149   -0.00028434   -0.00038330
     atom   18 type  2   force =     0.00051138   -0.00015210    0.00019236
     atom   19 type  1   force =    -0.00006049   -0.00001274   -0.00010600
     atom   20 type  1   force =    -0.00000982    0.00005983   -0.00041795
     atom   21 type  2   force =     0.00006613   -0.00005528    0.10311236
     atom   22 type  2   force =    -0.00014337   -0.00141743    0.00034655
     atom   23 type  2   force =    -0.07162745   -0.00016000   -0.02784323
     atom   24 type  2   force =     0.07155462    0.00032393   -0.02790509
     atom   25 type  1   force =     0.00011111   -0.00024112    0.09664427
     atom   26 type  1   force =     0.00012209   -0.00031829   -0.17526542
     atom   27 type  2   force =     0.00013540   -0.00023508   -0.02449407
     atom   28 type  2   force =     0.00002861   -0.00112986    0.05224705
     atom   29 type  2   force =    -0.01248459    0.00014448    0.00268353
     atom   30 type  2   force =     0.01379332    0.00069077    0.00202833
     atom   31 type  1   force =     0.00049495    0.00289191   -0.01339807
     atom   32 type  1   force =     0.00030684   -0.00822378    0.03145680
     atom   33 type  2   force =    -0.00005627   -0.00006519   -0.00009996
     atom   34 type  2   force =    -0.00183635    0.00056051   -0.02459270
     atom   35 type  2   force =    -0.00014200    0.00011334    0.00004819
     atom   36 type  2   force =    -0.00024632    0.00021873    0.00012149
     atom   37 type  1   force =    -0.00007710    0.00026383    0.00016895
     atom   38 type  1   force =    -0.00022417   -0.00003455   -0.00016708
     atom   39 type  2   force =     0.00004461    0.00041855   -0.00041363
     atom   40 type  2   force =    -0.00016628    0.00028339   -0.00012501
     atom   41 type  2   force =     0.00027405   -0.00000975    0.00044348
     atom   42 type  2   force =    -0.00024509   -0.00005270    0.00048019
     atom   43 type  1   force =    -0.00021155    0.00003397    0.00045762
     atom   44 type  1   force =     0.00026970   -0.00042622   -0.00000597
     atom   45 type  2   force =     0.00005027   -0.00006623    0.10310306
     atom   46 type  2   force =    -0.07163610   -0.00008518   -0.02784167
     atom   47 type  2   force =     0.07156983    0.00033727   -0.02791658
     atom   48 type  3   force =    -0.00105820   -0.00042119    0.00030058
     atom   49 type  4   force =     0.00090879    0.00446735   -0.00077891
     atom   50 type  5   force =     0.00146008   -0.00179305   -0.00008321
     atom   51 type  3   force =    -0.00114104   -0.00102946   -0.00107405
     atom   52 type  3   force =     0.00090999    0.00077219    0.00076352
     atom   53 type  3   force =    -0.00042442   -0.00018432    0.00022108

     Total force =     0.368420     Total SCF correction =     0.000532
  @ DRIVER MODE: Message from server: STATUS
  @ DRIVER MODE: Message from server: GETFORCE
  @ DRIVER MODE: Returning v,forces,stress,ensemble

     Writing output data file ./calc.save/
  @ DRIVER MODE: Message from server: EXIT
  @ DRIVE MODE: Exiting

     General routines

     Parallel routines

   This run was terminated on:  21:40:59  15Jul2021

   JOB DONE.