     Program PWSCF v.6.7GPU starts on 18Oct2021 at 14:56:29

     R & G space division:  proc/nbgrp/npool/nimage =       8
     Reading input from /storage/home/hcoda1/3/ntian30/research/carbon/CxH_vib/Thiel_calc/ads_slab/HH_perslab/out_0007/pw.inp
Warning: card &CELL ignored
Warning: card   CELL_DYNAMICS='IPI', ignored
Warning: card / ignored

     Current dimensions of program PWSCF are:
     Max number of different atomic species (ntypx) = 10
     Max number of k-points (npk) =  40000
     Max angular momentum in pseudopotentials (lmaxx) =  3
     Presently no symmetry can be used with electric field

     Message from routine cell_base_init:
     DEPRECATED: use true lattice parameter, not A to a.u. conversion factor

     IMPORTANT: XC functional enforced from input :
     Exchange-correlation= BEEF-VDW
                           (   1   4  43  14   2   0   0)
     Any further DFT definition will be discarded
     Please, verify this is what you really want

  @ DRIVER MODE: Connecting to
 qe_1139763_3255127.sched-torque.pace.gatech.eduw2crv3e9_scratch
  using UNIX socket
  @ DRIVER MODE: Message from server: STATUS
  @ DRIVER MODE: Message from server: INIT
  @ DRIVER MODE: Receiving replica           0          -1
  @ DRIVER MODE: Receiving encoded integer          25
  @ DRIVER MODE:  SCF:  T  FORCE:  T  STRESS:  F  VC:  F  ENSEMBLE:  F
  @ DRIVER MODE:  SCF:  T  FORCE:  T  STRESS:  F  VC:  F  ENSEMBLE:  F

     Using Slab Decomposition

     bravais-lattice index     =            0
     lattice parameter (alat)  =       1.8897  a.u.
     unit-cell volume          =    9988.4706 (a.u.)^3
     number of atoms/cell      =           55
     number of atomic types    =            3
     number of electrons       =       428.00
     number of Kohn-Sham states=          224
     kinetic-energy cutoff     =      29.3995  Ry
     charge density cutoff     =     293.9946  Ry
     scf convergence threshold =      7.3E-08
     mixing beta               =       0.0500
     number of iterations used =            8  plain     mixing
     Exchange-correlation= BEEF-VDW
                           (   1   4  43  14   2   0   0)

     celldm(1)=   1.889726  celldm(2)=   0.000000  celldm(3)=   0.000000
     celldm(4)=   0.000000  celldm(5)=   0.000000  celldm(6)=   0.000000

     crystal axes: (cart. coord. in units of alat)
               a(1) = (   6.579727   0.000000   0.000000 )
               a(2) = (  -0.001163   8.942395   0.000000 )
               a(3) = (   0.000000   0.000000  25.155947 )

     reciprocal axes: (cart. coord. in units 2 pi/alat)
               b(1) = (  0.151982  0.000020  0.000000 )
               b(2) = (  0.000000  0.111827  0.000000 )
               b(3) = (  0.000000  0.000000  0.039752 )

     PseudoPot. # 1 for O  read from file:
     /storage/coda1/p-amedford6/0/shared/rich_project_chbe-medford/medford-share/data/pseudos_module/espresso/nninc/pbe/van/O.UPF
     MD5 check sum: 78c19812648e8988a0fe644b0f25305e
     Pseudo is Ultrasoft, Zval =  6.0
     Generated by new atomic code, or converted to UPF format
     Using radial grid of  737 points,  4 beta functions with:
                l(1) =   0
                l(2) =   0
                l(3) =   1
                l(4) =   1
     Q(r) pseudized with  8 coefficients,  rinner =    0.800   0.800   0.800

     PseudoPot. # 2 for Ti read from file:
     /storage/coda1/p-amedford6/0/shared/rich_project_chbe-medford/medford-share/data/pseudos_module/espresso/nninc/pbe/van/Ti.UPF
     MD5 check sum: 8e4df49b7f0d34bbd5052bf3f5ea0213
     Pseudo is Ultrasoft, Zval = 12.0
     Generated by new atomic code, or converted to UPF format
     Using radial grid of  851 points,  6 beta functions with:
                l(1) =   0
                l(2) =   0
                l(3) =   1
                l(4) =   1
                l(5) =   2
                l(6) =   2
     Q(r) pseudized with  8 coefficients,  rinner =    1.000   1.000   1.000
                                                       1.000   1.000

     PseudoPot. # 3 for H  read from file:
     /storage/coda1/p-amedford6/0/shared/rich_project_chbe-medford/medford-share/data/pseudos_module/espresso/nninc/pbe/van/H.UPF
     MD5 check sum: b5ee9d7bfd3a09ee7748110bda690ff7
     Pseudo is Ultrasoft, Zval =  1.0
     Generated by new atomic code, or converted to UPF format
     Using radial grid of  615 points,  1 beta functions with:
                l(1) =   0
     Q(r) pseudized with  8 coefficients,  rinner =    0.800

     atomic species   valence    mass     pseudopotential
        O1             6.00    15.99900     O ( 1.00)
        Ti1           12.00    47.86700     Ti( 1.00)
        H1             1.00     1.00800     H ( 1.00)

     No symmetry found

   Cartesian axes

     site n.     atom                  positions (alat units)
         1           O1  tau(   1) = (   0.0007354   0.0005023  10.5931620  )
         2           O1  tau(   2) = (   3.2895597   8.9328148  13.9563037  )
         3           O1  tau(   3) = (   0.0005978   0.0985611  17.3913433  )
         4           O1  tau(   4) = (   0.0006271   0.0005054   7.9858123  )
         5           O1  tau(   5) = (   3.2896697   8.9342645  11.2049655  )
         6           O1  tau(   6) = (  -0.0003651   8.9329897  14.6433231  )
         7           O1  tau(   7) = (   1.9868534   1.4903216   9.2879459  )
         8           O1  tau(   8) = (   5.2447202   1.6209113  12.6144278  )
         9           O1  tau(   9) = (   1.9863342   1.5414685  16.1562942  )
        10           Ti1 tau(  10) = (   0.0007404   1.4906270   9.2895810  )
        11           Ti1 tau(  11) = (   3.2912862   1.3561633  12.5349423  )
        12           Ti1 tau(  12) = (   0.0004920   1.3470917  15.7786735  )
        13           O1  tau(  13) = (   4.5942328   1.4918067   9.2879030  )
        14           O1  tau(  14) = (   1.3364296   1.6200362  12.6141345  )
        15           O1  tau(  15) = (   4.5940299   1.5415597  16.1565144  )
        16           Ti1 tau(  16) = (   3.2902859   2.9801868   9.2893338  )
        17           Ti1 tau(  17) = (   0.0008425   2.8468918  12.4310082  )
        18           Ti1 tau(  18) = (   3.2897726   2.9778300  15.7754387  )
        19           O1  tau(  19) = (   0.0003479   2.9813005  10.5931620  )
        20           O1  tau(  20) = (   3.2899953   2.9760220  13.9593592  )
        21           O1  tau(  21) = (   0.0002396   2.9813036   7.9858123  )
        22           O1  tau(  22) = (   3.2902535   2.9702742  11.2034491  )
        23           O1  tau(  23) = (   0.0001996   3.0016115  14.8754889  )
        24           O1  tau(  24) = (   1.9864658   4.4711199   9.2879459  )
        25           O1  tau(  25) = (   5.2500601   4.5773527  12.6114266  )
        26           O1  tau(  26) = (   1.9844836   4.4355282  16.1532781  )
        27           Ti1 tau(  27) = (   0.0003529   4.4714252   9.2895810  )
        28           Ti1 tau(  28) = (   3.2906597   4.3244847  12.5371400  )
        29           Ti1 tau(  29) = (  -0.0002816   4.6581729  15.7718077  )
        30           O1  tau(  30) = (   4.5938453   4.4726049   9.2879030  )
        31           O1  tau(  31) = (   1.3301928   4.5768014  12.6113087  )
        32           O1  tau(  32) = (   4.5951179   4.4357094  16.1533535  )
        33           Ti1 tau(  33) = (   3.2898983   5.9609850   9.2893338  )
        34           Ti1 tau(  34) = (   0.0001782   5.8230774  12.4473142  )
        35           Ti1 tau(  35) = (   3.2897114   5.9733655  15.7593407  )
        36           O1  tau(  36) = (  -0.0000397   5.9620987  10.5931620  )
        37           O1  tau(  37) = (   3.2897659   5.9527282  13.9548452  )
        38           O1  tau(  38) = (  -0.0000778   5.8930771  17.3915974  )
        39           O1  tau(  39) = (  -0.0001480   5.9621018   7.9858123  )
        40           O1  tau(  40) = (   3.2899370   5.9442392  11.2047318  )
        41           O1  tau(  41) = (  -0.0000177   6.0388360  14.6471464  )
        42           O1  tau(  42) = (   1.9860782   7.4519181   9.2879459  )
        43           O1  tau(  43) = (   5.2406126   7.5613367  12.5866955  )
        44           O1  tau(  44) = (   1.9997133   7.4594595  16.1095921  )
        45           Ti1 tau(  45) = (  -0.0000347   7.4522234   9.2895810  )
        46           Ti1 tau(  46) = (   3.2905271   7.3121622  12.5249915  )
        47           Ti1 tau(  47) = (   0.0000546   7.4652353  16.1046789  )
        48           O1  tau(  48) = (   4.5934577   7.4534031   9.2879030  )
        49           O1  tau(  49) = (   1.3393442   7.5608695  12.5864666  )
        50           O1  tau(  50) = (   4.5795450   7.4594577  16.1094643  )
        51           Ti1 tau(  51) = (   3.2895107   8.9417832   9.2893338  )
        52           Ti1 tau(  52) = (   0.0001497   8.7881157  12.4544516  )
        53           Ti1 tau(  53) = (   3.2897860   8.9238688  15.7591263  )
        54           H1  tau(  54) = (   6.5785799   5.7919152  18.3498116  )
        55           H1  tau(  55) = (   6.5688772   0.1821499  18.3509732  )

     number of k points=    10  Fermi-Dirac smearing, width (Ry)=  0.0073
                       cart. coord. in units 2pi/alat
        k(    1) = (   0.0000000   0.0000000   0.0000000), wk =   0.1250000
        k(    2) = (   0.0000000   0.0279567   0.0000000), wk =   0.2500000
        k(    3) = (   0.0000000  -0.0559134   0.0000000), wk =   0.1250000
        k(    4) = (   0.0379955   0.0000049   0.0000000), wk =   0.2500000
        k(    5) = (   0.0379955   0.0279617   0.0000000), wk =   0.2500000
        k(    6) = (   0.0379955  -0.0559085   0.0000000), wk =   0.2500000
        k(    7) = (   0.0379955  -0.0279518   0.0000000), wk =   0.2500000
        k(    8) = (  -0.0759910  -0.0000099   0.0000000), wk =   0.1250000
        k(    9) = (  -0.0759910   0.0279468   0.0000000), wk =   0.2500000
        k(   10) = (  -0.0759910  -0.0559233   0.0000000), wk =   0.1250000

     Initial potential from superposition of free atoms

     starting charge  409.99914, renormalised to  428.00000

     negative rho (up, down):  4.037E-02 0.000E+00

     %%%%%%%%%%%%%%%%%%%%%%%%%%%%%%%%%%%%%%%%%%%%%%%%%%%%%%%%%%%%%%%%%%%%%%%%
     %                                                                      %
     % You are using vdW-DF, which was implemented by the Thonhauser group. %
     % Please cite the following two papers that made this development      %
     % possible and the two reviews that describe the various versions:     %
     %                                                                      %
     %   T. Thonhauser et al., PRL 115, 136402 (2015).                      %
     %   T. Thonhauser et al., PRB 76, 125112 (2007).                       %
     %   K. Berland et al., Rep. Prog. Phys. 78, 066501 (2015).             %
     %   D.C. Langreth et al., J. Phys.: Condens. Matter 21, 084203 (2009). %
     %                                                                      %
     %                                                                      %
     % If you are calculating the stress with vdW-DF, please also cite:     %
     %                                                                      %
     %   R. Sabatini et al., J. Phys.: Condens. Matter 24, 424209 (2012).   %
     %                                                                      %
     %%%%%%%%%%%%%%%%%%%%%%%%%%%%%%%%%%%%%%%%%%%%%%%%%%%%%%%%%%%%%%%%%%%%%%%%

     Adding external electric field

     Computed dipole along edir(3) :
        Dipole               -0.7971 Ry au,         -2.0260 Debye
        Dipole field         -0.0010 Ry au,

        Potential amp.        0.0930 Ry
        Total length         46.3494 bohr

     Starting wfcs are  322 atomic wfcs
  @ DRIVER MODE: Message from server: STATUS
  @ DRIVER MODE: Message from server: POSDATA
  @ DRIVER MODE: Reading and sharing cell
  @ DRIVER MODE: Reading and sharing positions
  @ DRIVER MODE: Received positions

     Self-consistent Calculation

     iteration #  1     ecut=    29.40 Ry     beta= 0.05
     Davidson diagonalization with overlap
     c_bands:  4 eigenvalues not converged
     c_bands:  4 eigenvalues not converged
     c_bands:  3 eigenvalues not converged
     c_bands:  2 eigenvalues not converged
     c_bands:  3 eigenvalues not converged
     c_bands:  3 eigenvalues not converged
     c_bands:  4 eigenvalues not converged
     c_bands:  2 eigenvalues not converged
     c_bands:  3 eigenvalues not converged
     ethr =  1.00E-05,  avg # of iterations = 19.7

[...]

     total energy              =   -3251.91303597 Ry
     estimated scf accuracy    <      13.90208507 Ry

     iteration #  2     ecut=    29.40 Ry     beta= 0.05
     Davidson diagonalization with overlap
     ethr =  3.25E-03,  avg # of iterations =  1.0

[...]

     iteration # 64     ecut=    29.40 Ry     beta= 0.05
     Davidson diagonalization with overlap
     ethr =  1.24E-10,  avg # of iterations =  3.8

[...]

     total energy              =   -3250.62459064 Ry
     estimated scf accuracy    <       0.00000038 Ry

     iteration # 65     ecut=    29.40 Ry     beta= 0.05
     Davidson diagonalization with overlap
     c_bands:  3 eigenvalues not converged
     ethr =  8.85E-11,  avg # of iterations = 14.8

     negative rho (up, down):  3.757E-02 0.000E+00

     Adding external electric field

     Computed dipole along edir(3) :
        Dipole                1.9727 Ry au,          5.0140 Debye
        Dipole field          0.0025 Ry au,

        Potential amp.       -0.2301 Ry
        Total length         46.3494 bohr

     End of self-consistent calculation

          k = 0.0000 0.0000 0.0000 ( 26871 PWs)   bands (ev):

   -57.5852 -57.5603 -57.5585 -57.5240 -57.5023 -57.4486 -57.4268 -57.4063
   -57.3764 -57.3753 -57.3744 -57.3658 -57.3517 -57.3449 -57.2001 -56.7059
   -56.6828 -56.6726 -33.9766 -33.9755 -33.9745 -33.9503 -33.9050 -33.8902
   -33.8831 -33.8820 -33.8723 -33.8635 -33.8598 -33.8553 -33.8523 -33.8222
   -33.7847 -33.7577 -33.7545 -33.7394 -33.7297 -33.7116 -33.7102 -33.7079
   -33.6867 -33.6830 -33.6818 -33.6719 -33.6654 -33.6646 -33.6554 -33.6332
   -33.6332 -33.6241 -33.6228 -33.6130 -33.6124 -33.6032 -33.5860 -33.5790
   -33.5752 -33.5706 -33.5281 -33.5190 -33.4777 -33.3680 -33.2472 -33.0274
   -33.0154 -33.0127 -32.9979 -32.9887 -32.9354 -32.8755 -32.8643 -32.7341
   -19.5868 -19.4894 -18.4601 -18.0789 -17.9188 -17.8803 -17.8719 -17.8374
   -17.6852 -17.6810 -17.5960 -17.5568 -17.5437 -17.4482 -17.4003 -17.3857
   -17.3804 -17.3593 -17.3465 -17.3279 -17.3140 -17.2990 -17.2727 -17.2286
   -17.1958 -17.1494 -17.1227 -17.1162 -17.0566 -17.0539 -17.0313 -16.7499
   -15.1700 -15.1110 -15.1047  -7.7565  -7.6052  -5.7851  -5.5891  -5.5459
    -5.4117  -5.0618  -5.0462  -5.0171  -4.9802  -4.9651  -4.9387  -4.8987
    -4.8689  -4.8585  -4.8260  -4.8257  -4.7571  -4.7445  -4.7402  -4.6564
    -4.6247  -4.6072  -4.5830  -4.5361  -4.4731  -4.4485  -4.4426  -4.4398
    -4.4191  -4.3881  -4.3673  -4.2566  -4.1607  -4.1308  -4.0256  -3.9627
    -3.9403  -3.9292  -3.9086  -3.8804  -3.8260  -3.7806  -3.7344  -3.7328
    -3.6528  -3.6118  -3.5745  -3.5354  -3.4796  -3.4413  -3.4401  -3.4150
    -3.3562  -3.3301  -3.3152  -3.2407  -3.1226  -3.0983  -3.0188  -2.9590
    -2.8957  -2.8812  -2.7583  -2.7232  -2.6397  -2.6155  -2.6036  -2.5072
    -2.4389  -2.4157  -2.4014  -2.3996  -2.3516  -2.3225  -2.2907  -2.2790
    -2.2656  -2.2218  -2.1511  -2.1509  -2.0613  -2.0253  -2.0192  -1.9905
    -1.9746  -1.9288  -1.9020  -1.8228  -1.6885  -1.6503  -1.5806  -1.5162
    -1.5155  -1.4380  -1.4036  -1.3774  -0.9913  -0.7812  -0.4807  -0.4150
    -0.4134  -0.1311  -0.1236   0.0131   1.3530   1.4270   1.5599   1.6186
     1.7994   1.8319   1.8688   1.9507   1.9776   2.0082   2.0247   2.0462

[...]

          k = 0.0380-0.0280 0.0000 ( 26873 PWs)   bands (ev):

[...]

          k =-0.0760-0.0000 0.0000 ( 26902 PWs)   bands (ev):

[...]

          k =-0.0760-0.0559 0.0000 ( 26868 PWs)   bands (ev):

   -57.5774 -57.5756 -57.5508 -57.5223 -57.5044 -57.4481 -57.4238 -57.4103
   -57.3743 -57.3727 -57.3713 -57.3679 -57.3614 -57.3399 -57.2000 -56.7010
   -56.6921 -56.6682 -34.0698 -33.9787 -33.9723 -33.9557 -33.9357 -33.9320
   -33.8983 -33.8973 -33.8901 -33.8606 -33.8034 -33.7849 -33.7828 -33.7782
   -33.7335 -33.7270 -33.7257 -33.7221 -33.7072 -33.7043 -33.7031 -33.6943
   -33.6940 -33.6753 -33.6750 -33.6659 -33.6609 -33.6598 -33.6579 -33.6511
   -33.6509 -33.6499 -33.6318 -33.6190 -33.6118 -33.6080 -33.6017 -33.5940
   -33.5721 -33.5688 -33.5564 -33.5529 -33.5052 -33.3915 -33.2469 -33.1130
   -33.0148 -33.0069 -32.9841 -32.9191 -32.9084 -32.8486 -32.8361 -32.8256
   -19.5707 -19.4986 -18.1193 -18.0849 -17.8968 -17.8502 -17.7833 -17.7359
   -17.6735 -17.6606 -17.6444 -17.5886 -17.5877 -17.5123 -17.5015 -17.4339
   -17.4035 -17.3835 -17.3826 -17.3760 -17.3719 -17.3437 -17.3066 -17.2477
   -17.2427 -17.2211 -17.1267 -17.0910 -17.0842 -17.0371 -17.0155 -16.7822
   -15.1685 -15.1610 -15.0465  -7.8090  -7.5402  -5.3807  -5.3344  -5.3115
    -5.2587  -5.2029  -5.0357  -4.9797  -4.9276  -4.9218  -4.8628  -4.8183
    -4.7989  -4.7679  -4.7489  -4.7445  -4.7257  -4.6500  -4.6369  -4.6208
    -4.6017  -4.5748  -4.5610  -4.5513  -4.5175  -4.4413  -4.3671  -4.2985
    -4.2924  -4.2763  -4.2211  -4.2106  -4.1777  -4.1275  -4.1020  -4.0601
    -3.9376  -3.8996  -3.8128  -3.7957  -3.7803  -3.7774  -3.7539  -3.6792
    -3.6728  -3.5780  -3.5405  -3.4511  -3.3691  -3.3611  -3.3471  -3.3095
    -3.3018  -3.2580  -3.2219  -3.1842  -3.1730  -3.1598  -3.0964  -3.0404
    -2.9814  -2.9229  -2.8460  -2.8249  -2.7886  -2.7447  -2.7370  -2.7106
    -2.7032  -2.6928  -2.6845  -2.6699  -2.6102  -2.5935  -2.4637  -2.4260
    -2.4094  -2.2903  -2.2746  -2.2309  -2.1993  -2.1508  -2.1468  -2.0347
    -2.0109  -1.9206  -1.8881  -1.8311  -1.8068  -1.7888  -1.7282  -1.4411
    -1.4271  -1.3912  -1.3519  -1.2764  -1.2641  -1.0190  -0.6169  -0.3612
    -0.3372  -0.2932  -0.1227  -0.1192   1.4386   1.5433   1.5799   1.5935
     1.6972   1.7291   1.7328   1.7433   1.7822   1.8115   1.9052   2.1158

     the Fermi energy is     1.4974 ev

!    total energy              =   -3250.62461291 Ry
     estimated scf accuracy    <       0.00000007 Ry
     smearing contrib. (-TS)   =      -0.05124046 Ry
     internal energy E=F+TS    =   -3250.57337245 Ry

     The total energy is F=E-TS. E is the sum of the following terms:
     one-electron contribution =  -33905.54341194 Ry
     hartree contribution      =   17014.57416458 Ry
     xc contribution           =    -530.16867292 Ry
     ewald contribution        =   14170.55965205 Ry
     electric field correction =       0.00489578 Ry

     convergence has been achieved in  65 iterations

     Forces acting on atoms (cartesian axes, Ry/au):

     atom    1 type  1   force =     0.00000114    0.00712200    0.05669494
     atom    2 type  1   force =     0.00004806    0.00335298    0.00111278
     atom    3 type  1   force =     0.00018675   -0.00276778   -0.00352253
     atom    4 type  1   force =     0.00005053    0.00104699    0.10791893
     atom    5 type  1   force =     0.00003991   -0.00021390    0.01009469
     atom    6 type  1   force =    -0.00004230   -0.00662148   -0.00382068
     atom    7 type  1   force =     0.06421680    0.00010647   -0.02836580
     atom    8 type  1   force =     0.00283959   -0.02999508    0.00401843
     atom    9 type  1   force =     0.01258538   -0.01284977   -0.00062893
     atom   10 type  2   force =    -0.00004673   -0.00847853   -0.19230727
     atom   11 type  2   force =    -0.00023829    0.02102702   -0.01102315
     atom   12 type  2   force =     0.00004946    0.02018819    0.01359775
     atom   13 type  1   force =    -0.06430662   -0.00033741   -0.02834454
     atom   14 type  1   force =    -0.00307075   -0.02970663    0.00398227
     atom   15 type  1   force =    -0.01255285   -0.01288029   -0.00053090
     atom   16 type  2   force =     0.00008120   -0.00104022    0.07102840
     atom   17 type  2   force =     0.00043516    0.03732115    0.00577837
     atom   18 type  2   force =    -0.00003833    0.00096124   -0.00818921
     atom   19 type  1   force =     0.00001141    0.00231946    0.05920790
     atom   20 type  1   force =     0.00004467    0.00210159   -0.00268056
     atom   21 type  1   force =     0.00005561    0.00077269    0.10938807
     atom   22 type  1   force =     0.00004535   -0.00072998    0.01034567
     atom   23 type  1   force =    -0.00003104   -0.00037186   -0.00312197
     atom   24 type  1   force =     0.06383354   -0.00070390   -0.02834977
     atom   25 type  1   force =     0.00324281   -0.02911004    0.00357396
     atom   26 type  1   force =     0.01266957    0.01312285   -0.00040958
     atom   27 type  2   force =    -0.00008329    0.00433732   -0.19447201
     atom   28 type  2   force =    -0.00023546    0.01849856   -0.00937850
     atom   29 type  2   force =    -0.00001087   -0.02040864    0.01269439
     atom   30 type  1   force =    -0.06393203   -0.00116320   -0.02832304
     atom   31 type  1   force =    -0.00347790   -0.02885725    0.00353785
     atom   32 type  1   force =    -0.01267916    0.01309550   -0.00041375
     atom   33 type  2   force =     0.00007827   -0.00085296    0.07219224
     atom   34 type  2   force =     0.00042729    0.03346741    0.00562826
     atom   35 type  2   force =    -0.00002224   -0.01675264   -0.00133202
     atom   36 type  1   force =    -0.00000050    0.00274451    0.05598858
     atom   37 type  1   force =     0.00004001    0.00193842    0.00181733
     atom   38 type  1   force =    -0.00000622    0.00312234   -0.00354206
     atom   39 type  1   force =     0.00005916   -0.00165520    0.10832054
     atom   40 type  1   force =     0.00004270   -0.00051329    0.00998714
     atom   41 type  1   force =    -0.00000436    0.00767529   -0.00380663
     atom   42 type  1   force =     0.06485012   -0.00061824   -0.02827619
     atom   43 type  1   force =     0.00326196   -0.02818703    0.00164372
     atom   44 type  1   force =     0.01685425   -0.00040362    0.00584894
     atom   45 type  2   force =    -0.00007068    0.00171663   -0.18726213
     atom   46 type  2   force =    -0.00023992    0.01864737   -0.01189806
     atom   47 type  2   force =     0.00008422    0.00131590   -0.00739649
     atom   48 type  1   force =    -0.06494137   -0.00108265   -0.02825764
     atom   49 type  1   force =    -0.00353410   -0.02790838    0.00161966
     atom   50 type  1   force =    -0.01686426   -0.00036621    0.00591617
     atom   51 type  2   force =     0.00011705   -0.00090068    0.07256405
     atom   52 type  2   force =     0.00045989    0.03356116    0.00542859
     atom   53 type  2   force =    -0.00009167    0.01525885   -0.00022617
     atom   54 type  3   force =    -0.00000135   -0.00042659   -0.00212528
     atom   55 type  3   force =    -0.00018960    0.00108161   -0.00192476

     Total force =     0.463777     Total SCF correction =     0.000837
  @ DRIVER MODE: Message from server: STATUS
  @ DRIVER MODE: Message from server: GETFORCE
  @ DRIVER MODE: Returning v,forces,stress,ensemble

     Writing output data file ./calc.save/
  @ DRIVER MODE: Message from server: EXIT
  @ DRIVE MODE: Exiting

     General routines

     Parallel routines

   This run was terminated on:  15:28:41  18Oct2021

   JOB DONE.