     Program PWSCF v.6.7GPU starts on 19Oct2021 at 11: 9:34

     R & G space division:  proc/nbgrp/npool/nimage =       8
     Reading input from /storage/home/hcoda1/3/ntian30/research/carbon/CxH_vib/Thiel_calc/ads_slab/NH2NH2HH_perslab/out_0048/pw.inp
Warning: card &CELL ignored
Warning: card   CELL_DYNAMICS='IPI', ignored
Warning: card / ignored

     Current dimensions of program PWSCF are:
     Max number of different atomic species (ntypx) = 10
     Max number of k-points (npk) =  40000
     Max angular momentum in pseudopotentials (lmaxx) =  3
     Presently no symmetry can be used with electric field

     Message from routine cell_base_init:
     DEPRECATED: use true lattice parameter, not A to a.u. conversion factor

     IMPORTANT: XC functional enforced from input :
     Exchange-correlation= BEEF-VDW
                           (   1   4  43  14   2   0   0)
     Any further DFT definition will be discarded
     Please, verify this is what you really want

  @ DRIVER MODE: Connecting to
 qe_1139763_3255137.sched-torque.pace.gatech.edug90rcd9y_scratch
  using UNIX socket
  @ DRIVER MODE: Message from server: STATUS
  @ DRIVER MODE: Message from server: INIT
  @ DRIVER MODE: Receiving replica           0          -1
  @ DRIVER MODE: Receiving encoded integer          25
  @ DRIVER MODE:  SCF:  T  FORCE:  T  STRESS:  F  VC:  F  ENSEMBLE:  F
  @ DRIVER MODE:  SCF:  T  FORCE:  T  STRESS:  F  VC:  F  ENSEMBLE:  F

     Using Slab Decomposition

     bravais-lattice index     =            0
     lattice parameter (alat)  =       1.8897  a.u.
     unit-cell volume          =    9988.4706 (a.u.)^3
     number of atoms/cell      =           61
     number of atomic types    =            4
     number of electrons       =       442.00
     number of Kohn-Sham states=          231
     kinetic-energy cutoff     =      29.3995  Ry
     charge density cutoff     =     293.9946  Ry
     scf convergence threshold =      7.3E-08
     mixing beta               =       0.0500
     number of iterations used =            8  plain     mixing
     Exchange-correlation= BEEF-VDW
                           (   1   4  43  14   2   0   0)

     celldm(1)=   1.889726  celldm(2)=   0.000000  celldm(3)=   0.000000
     celldm(4)=   0.000000  celldm(5)=   0.000000  celldm(6)=   0.000000

     crystal axes: (cart. coord. in units of alat)
               a(1) = (   6.579727   0.000000   0.000000 )
               a(2) = (  -0.001163   8.942395   0.000000 )
               a(3) = (   0.000000   0.000000  25.155947 )

     reciprocal axes: (cart. coord. in units 2 pi/alat)
               b(1) = (  0.151982  0.000020  0.000000 )
               b(2) = (  0.000000  0.111827  0.000000 )
               b(3) = (  0.000000  0.000000  0.039752 )

     PseudoPot. # 1 for O  read from file:
     /storage/coda1/p-amedford6/0/shared/rich_project_chbe-medford/medford-share/data/pseudos_module/espresso/nninc/pbe/van/O.UPF
     MD5 check sum: 78c19812648e8988a0fe644b0f25305e
     Pseudo is Ultrasoft, Zval =  6.0
     Generated by new atomic code, or converted to UPF format
     Using radial grid of  737 points,  4 beta functions with:
                l(1) =   0
                l(2) =   0
                l(3) =   1
                l(4) =   1
     Q(r) pseudized with  8 coefficients,  rinner =    0.800   0.800   0.800

     PseudoPot. # 2 for Ti read from file:
     /storage/coda1/p-amedford6/0/shared/rich_project_chbe-medford/medford-share/data/pseudos_module/espresso/nninc/pbe/van/Ti.UPF
     MD5 check sum: 8e4df49b7f0d34bbd5052bf3f5ea0213
     Pseudo is Ultrasoft, Zval = 12.0
     Generated by new atomic code, or converted to UPF format
     Using radial grid of  851 points,  6 beta functions with:
                l(1) =   0
                l(2) =   0
                l(3) =   1
                l(4) =   1
                l(5) =   2
                l(6) =   2
     Q(r) pseudized with  8 coefficients,  rinner =    1.000   1.000   1.000
                                                       1.000   1.000

     PseudoPot. # 3 for N  read from file:
     /storage/coda1/p-amedford6/0/shared/rich_project_chbe-medford/medford-share/data/pseudos_module/espresso/nninc/pbe/van/N.UPF
     MD5 check sum: 90d10febe142ad51ac9d5be1deb811c4
     Pseudo is Ultrasoft, Zval =  5.0
     Generated by new atomic code, or converted to UPF format
     Using radial grid of  729 points,  4 beta functions with:
                l(1) =   0
                l(2) =   0
                l(3) =   1
                l(4) =   1
     Q(r) pseudized with  8 coefficients,  rinner =    0.800   0.800   0.800

     PseudoPot. # 4 for H  read from file:
     /storage/coda1/p-amedford6/0/shared/rich_project_chbe-medford/medford-share/data/pseudos_module/espresso/nninc/pbe/van/H.UPF
     MD5 check sum: b5ee9d7bfd3a09ee7748110bda690ff7
     Pseudo is Ultrasoft, Zval =  1.0
     Generated by new atomic code, or converted to UPF format
     Using radial grid of  615 points,  1 beta functions with:
                l(1) =   0
     Q(r) pseudized with  8 coefficients,  rinner =    0.800

     atomic species   valence    mass     pseudopotential
        O1             6.00    15.99900     O ( 1.00)
        Ti1           12.00    47.86700     Ti( 1.00)
        N1             5.00    14.00700     N ( 1.00)
        H1             1.00     1.00800     H ( 1.00)

     No symmetry found

   Cartesian axes

     site n.     atom                  positions (alat units)
         1           O1  tau(   1) = (   0.0007354   0.0005023  10.5931620  )
         2           O1  tau(   2) = (   3.2456387   0.0208629  13.8623892  )
         3           O1  tau(   3) = (   6.5569189   0.0555649  17.3369326  )
         4           O1  tau(   4) = (   0.0006271   0.0005054   7.9858123  )
         5           O1  tau(   5) = (   3.2933513   8.9300833  11.1812556  )
         6           O1  tau(   6) = (   0.0337597   0.0712708  14.6279364  )
         7           O1  tau(   7) = (   1.9868534   1.4903216   9.2879459  )
         8           O1  tau(   8) = (   5.2215124   1.6184176  12.5791628  )
         9           O1  tau(   9) = (   1.9922958   1.5902288  16.0980526  )
        10           Ti1 tau(  10) = (   0.0007404   1.4906270   9.2895810  )
        11           Ti1 tau(  11) = (   3.2860490   1.3455809  12.4359399  )
        12           Ti1 tau(  12) = (   6.5618936   1.3602716  15.8812525  )
        13           O1  tau(  13) = (   4.5942328   1.4918067   9.2879030  )
        14           O1  tau(  14) = (   1.3307156   1.5887400  12.5381291  )
        15           O1  tau(  15) = (   4.5725103   1.6118788  16.0006659  )
        16           Ti1 tau(  16) = (   3.2902859   2.9801868   9.2893338  )
        17           Ti1 tau(  17) = (   0.0046584   2.8227806  12.4510757  )
        18           Ti1 tau(  18) = (   3.2555632   2.8898243  15.6661830  )
        19           O1  tau(  19) = (   0.0003479   2.9813005  10.5931620  )
        20           O1  tau(  20) = (   3.2279248   2.9553539  13.8813459  )
        21           O1  tau(  21) = (   0.0002396   2.9813036   7.9858123  )
        22           O1  tau(  22) = (   3.2889556   2.9859946  11.1941525  )
        23           O1  tau(  23) = (   0.0559812   2.9852445  14.6488683  )
        24           O1  tau(  24) = (   1.9864658   4.4711199   9.2879459  )
        25           O1  tau(  25) = (   5.2314886   4.5920767  12.6107679  )
        26           O1  tau(  26) = (   1.9969377   4.5324570  16.1535429  )
        27           Ti1 tau(  27) = (   0.0003529   4.4714252   9.2895810  )
        28           Ti1 tau(  28) = (   3.2845268   4.3564118  12.5295435  )
        29           Ti1 tau(  29) = (   6.5676402   4.3565080  15.8255799  )
        30           O1  tau(  30) = (   4.5938453   4.4726049   9.2879030  )
        31           O1  tau(  31) = (   1.3315080   4.5776727  12.5731030  )
        32           O1  tau(  32) = (   4.5871741   4.4544688  15.9274438  )
        33           Ti1 tau(  33) = (   3.2898983   5.9609850   9.2893338  )
        34           Ti1 tau(  34) = (   6.5783773   5.8108302  12.4536689  )
        35           Ti1 tau(  35) = (   3.3162440   5.8110762  16.0333210  )
        36           O1  tau(  36) = (  -0.0000397   5.9620987  10.5931620  )
        37           O1  tau(  37) = (   3.2636778   5.9869953  13.9790019  )
        38           O1  tau(  38) = (   6.4104969   6.0475349  17.2872242  )
        39           O1  tau(  39) = (  -0.0001480   5.9621018   7.9858123  )
        40           O1  tau(  40) = (   3.2905218   5.9516507  11.2202175  )
        41           O1  tau(  41) = (   0.0617018   5.9803669  14.6637187  )
        42           O1  tau(  42) = (   1.9860782   7.4519181   9.2879459  )
        43           O1  tau(  43) = (   5.2407037   7.5572870  12.6049163  )
        44           O1  tau(  44) = (   1.9881273   7.5959696  16.0809372  )
        45           Ti1 tau(  45) = (  -0.0000347   7.4522234   9.2895810  )
        46           Ti1 tau(  46) = (   3.2912638   7.2305267  12.6172466  )
        47           Ti1 tau(  47) = (   0.0232661   7.3094817  15.9177444  )
        48           O1  tau(  48) = (   4.5934577   7.4534031   9.2879030  )
        49           O1  tau(  49) = (   1.3287160   7.5404973  12.5734398  )
        50           O1  tau(  50) = (   4.6507959   7.6754627  15.9163669  )
        51           Ti1 tau(  51) = (   3.2895107   8.9417832   9.2893338  )
        52           Ti1 tau(  52) = (   0.0077981   8.7799231  12.4640552  )
        53           Ti1 tau(  53) = (   3.2910717   8.8534038  15.6608489  )
        54           N1  tau(  54) = (   3.7626148   6.0985185  18.0019073  )
        55           H1  tau(  55) = (   3.4663780   5.3841571  18.6619304  )
        56           H1  tau(  56) = (   3.5565419   6.9988739  18.4208443  )
        57           N1  tau(  57) = (   6.5319303   3.0529623  17.4095181  )
        58           H1  tau(  58) = (   5.7013393   3.0140474  17.9904383  )
        59           H1  tau(  59) = (   0.7603229   3.1006543  18.0203722  )
        60           H1  tau(  60) = (   5.4974376   6.0468821  17.7423635  )
        61           H1  tau(  61) = (   0.7324116   0.0679216  17.9502240  )

     number of k points=    10  Fermi-Dirac smearing, width (Ry)=  0.0073
                       cart. coord. in units 2pi/alat
        k(    1) = (   0.0000000   0.0000000   0.0000000), wk =   0.1250000
        k(    2) = (   0.0000000   0.0279567   0.0000000), wk =   0.2500000
        k(    3) = (   0.0000000  -0.0559134   0.0000000), wk =   0.1250000
        k(    4) = (   0.0379955   0.0000049   0.0000000), wk =   0.2500000
        k(    5) = (   0.0379955   0.0279617   0.0000000), wk =   0.2500000
        k(    6) = (   0.0379955  -0.0559085   0.0000000), wk =   0.2500000
        k(    7) = (   0.0379955  -0.0279518   0.0000000), wk =   0.2500000
        k(    8) = (  -0.0759910  -0.0000099   0.0000000), wk =   0.1250000
        k(    9) = (  -0.0759910   0.0279468   0.0000000), wk =   0.2500000
        k(   10) = (  -0.0759910  -0.0559233   0.0000000), wk =   0.1250000

     Initial potential from superposition of free atoms

     starting charge  423.99908, renormalised to  442.00000

     negative rho (up, down):  3.744E-02 0.000E+00

     %%%%%%%%%%%%%%%%%%%%%%%%%%%%%%%%%%%%%%%%%%%%%%%%%%%%%%%%%%%%%%%%%%%%%%%%
     %                                                                      %
     % You are using vdW-DF, which was implemented by the Thonhauser group. %
     % Please cite the following two papers that made this development      %
     % possible and the two reviews that describe the various versions:     %
     %                                                                      %
     %   T. Thonhauser et al., PRL 115, 136402 (2015).                      %
     %   T. Thonhauser et al., PRB 76, 125112 (2007).                       %
     %   K. Berland et al., Rep. Prog. Phys. 78, 066501 (2015).             %
     %   D.C. Langreth et al., J. Phys.: Condens. Matter 21, 084203 (2009). %
     %                                                                      %
     %                                                                      %
     % If you are calculating the stress with vdW-DF, please also cite:     %
     %                                                                      %
     %   R. Sabatini et al., J. Phys.: Condens. Matter 24, 424209 (2012).   %
     %                                                                      %
     %%%%%%%%%%%%%%%%%%%%%%%%%%%%%%%%%%%%%%%%%%%%%%%%%%%%%%%%%%%%%%%%%%%%%%%%

     Adding external electric field

     Computed dipole along edir(3) :
        Dipole               -5.9695 Ry au,        -15.1729 Debye
        Dipole field         -0.0075 Ry au,

        Potential amp.        0.6962 Ry
        Total length         46.3494 bohr

     Starting wfcs are  334 atomic wfcs
  @ DRIVER MODE: Message from server: STATUS
  @ DRIVER MODE: Message from server: POSDATA
  @ DRIVER MODE: Reading and sharing cell
  @ DRIVER MODE: Reading and sharing positions
  @ DRIVER MODE: Received positions

     Self-consistent Calculation

     iteration #  1     ecut=    29.40 Ry     beta= 0.05
     Davidson diagonalization with overlap
     c_bands:  2 eigenvalues not converged
     c_bands:  3 eigenvalues not converged
     c_bands:  5 eigenvalues not converged
     c_bands:  2 eigenvalues not converged
     c_bands:  5 eigenvalues not converged
     c_bands:  4 eigenvalues not converged
     c_bands:  3 eigenvalues not converged
     c_bands:  2 eigenvalues not converged
     c_bands:  4 eigenvalues not converged
     ethr =  1.00E-05,  avg # of iterations = 21.0

[...]

     total energy              =   -3277.93168183 Ry
     estimated scf accuracy    <     239.72323806 Ry

     iteration #  2     ecut=    29.40 Ry     beta= 0.05
     Davidson diagonalization with overlap
     ethr =  1.00E-02,  avg # of iterations = 16.4

[...]

     iteration # 51     ecut=    29.40 Ry     beta= 0.05
     Davidson diagonalization with overlap
     c_bands:  1 eigenvalues not converged
     ethr =  3.40E-10,  avg # of iterations = 12.8

[...]

     total energy              =   -3295.80748965 Ry
     estimated scf accuracy    <       0.00000009 Ry

     iteration # 57     ecut=    29.40 Ry     beta= 0.05
     Davidson diagonalization with overlap
     ethr =  2.14E-11,  avg # of iterations = 12.0

     negative rho (up, down):  3.606E-02 0.000E+00

     Adding external electric field

     Computed dipole along edir(3) :
        Dipole                1.5131 Ry au,          3.8460 Debye
        Dipole field          0.0019 Ry au,

        Potential amp.       -0.1765 Ry
        Total length         46.3494 bohr

     End of self-consistent calculation

          k = 0.0000 0.0000 0.0000 ( 26871 PWs)   bands (ev):

   -57.7227 -57.6971 -57.6868 -57.6604 -57.6514 -57.6184 -57.6046 -57.5966
   -57.5686 -57.5558 -57.5064 -57.4758 -57.4594 -57.4531 -57.4451 -56.7449
   -56.7208 -56.7162 -34.1043 -34.1013 -34.0924 -34.0834 -34.0717 -34.0548
   -34.0543 -34.0400 -34.0268 -34.0155 -33.9856 -33.9676 -33.9479 -33.9418
   -33.9340 -33.9157 -33.9104 -33.9088 -33.8905 -33.8853 -33.8634 -33.8612
   -33.8408 -33.8310 -33.8270 -33.8209 -33.8101 -33.8081 -33.8027 -33.7934
   -33.7817 -33.7798 -33.7655 -33.7303 -33.7209 -33.7167 -33.7021 -33.7012
   -33.6937 -33.6927 -33.6813 -33.6729 -33.6661 -33.6601 -33.6377 -33.0602
   -33.0590 -33.0546 -33.0430 -33.0388 -32.9710 -32.9089 -32.9036 -32.7708
   -19.2632 -18.7581 -18.5235 -18.2247 -18.0143 -17.9717 -17.9388 -17.8174
   -17.7819 -17.7578 -17.6604 -17.6490 -17.5855 -17.5319 -17.5038 -17.4551
   -17.4364 -17.3767 -17.3626 -17.3543 -17.3490 -17.3388 -17.3287 -17.2627
   -17.2360 -17.2079 -17.1690 -17.1532 -17.1466 -17.1391 -17.1168 -16.8440
   -15.5012 -15.2114 -15.1533 -15.1521 -15.0828  -6.9715  -6.8121  -6.6474
    -6.3415  -5.8582  -5.7844  -5.6354  -5.5114  -5.2191  -5.1917  -5.1401
    -5.1135  -5.0847  -5.0200  -4.9999  -4.9869  -4.9314  -4.9141  -4.8416
    -4.8187  -4.7770  -4.7534  -4.7277  -4.6828  -4.6428  -4.6156  -4.6036
    -4.5730  -4.5654  -4.5088  -4.4852  -4.4557  -4.4503  -4.4340  -4.3249
    -4.2924  -4.2361  -4.1672  -4.0896  -4.0373  -4.0290  -3.9725  -3.9535
    -3.9010  -3.8613  -3.8238  -3.8152  -3.7789  -3.7405  -3.6399  -3.6088
    -3.5856  -3.5201  -3.4984  -3.4294  -3.4120  -3.3785  -3.3372  -3.3312
    -3.2941  -3.1961  -3.1615  -3.0818  -3.0248  -2.9718  -2.9332  -2.8881
    -2.8417  -2.8081  -2.7833  -2.7013  -2.6254  -2.5415  -2.4913  -2.4785
    -2.4666  -2.4162  -2.4088  -2.4065  -2.3501  -2.3230  -2.3129  -2.2753
    -2.2237  -2.2010  -2.1389  -2.0927  -2.0587  -1.9902  -1.9756  -1.8947
    -1.8861  -1.8245  -1.7813  -1.7422  -1.6303  -1.5953  -1.5635  -1.5610
    -1.4420  -1.4057  -1.1435  -1.0026  -0.7857  -0.7525  -0.4984  -0.4496
    -0.4468  -0.1838  -0.1804  -0.0522   1.3242   1.5128   1.6464   1.7021
     1.7069   1.7404   1.8065   1.8930   1.9180   1.9655   1.9970

[...]

          k = 0.0380-0.0280 0.0000 ( 26873 PWs)   bands (ev):

[...]

          k =-0.0760-0.0000 0.0000 ( 26902 PWs)   bands (ev):

[...]

          k =-0.0760-0.0559 0.0000 ( 26868 PWs)   bands (ev):

   -57.7192 -57.7048 -57.6826 -57.6593 -57.6513 -57.6190 -57.6059 -57.5963
   -57.5680 -57.5555 -57.5066 -57.4707 -57.4632 -57.4589 -57.4403 -56.7387
   -56.7333 -56.7099 -34.1917 -34.1546 -34.1523 -34.0923 -34.0581 -34.0505
   -34.0398 -34.0372 -33.9997 -33.9658 -33.9322 -33.9185 -33.9127 -33.9113
   -33.9003 -33.8984 -33.8784 -33.8709 -33.8666 -33.8664 -33.8626 -33.8570
   -33.8518 -33.8438 -33.8294 -33.8245 -33.8219 -33.8167 -33.8125 -33.7916
   -33.7907 -33.7685 -33.7618 -33.7543 -33.7485 -33.7304 -33.7240 -33.7185
   -33.6988 -33.6987 -33.6966 -33.6933 -33.6841 -33.6659 -33.6490 -33.1490
   -33.0598 -33.0546 -33.0322 -32.9525 -32.9466 -32.8848 -32.8703 -32.8650
   -19.2484 -18.7338 -18.2697 -18.1330 -17.9614 -17.9200 -17.8456 -17.8327
   -17.8209 -17.7914 -17.6997 -17.6762 -17.6493 -17.5668 -17.5475 -17.4982
   -17.4544 -17.4412 -17.4230 -17.4120 -17.4039 -17.3872 -17.3532 -17.3212
   -17.2880 -17.2367 -17.1746 -17.1560 -17.1074 -17.0927 -17.0620 -16.8778
   -15.4958 -15.2094 -15.2074 -15.0906 -15.0841  -6.9766  -6.8431  -6.6396
    -6.3229  -5.5149  -5.4520  -5.3685  -5.3542  -5.2365  -5.2039  -5.0122
    -5.0023  -4.9874  -4.9555  -4.9234  -4.8873  -4.8606  -4.8365  -4.8229
    -4.8090  -4.7878  -4.7619  -4.7496  -4.7334  -4.6893  -4.6427  -4.6364
    -4.6254  -4.6029  -4.5484  -4.5035  -4.4759  -4.4231  -4.4197  -4.3396
    -4.3160  -4.2980  -4.2238  -4.2156  -4.0952  -3.9463  -3.8851  -3.8652
    -3.8411  -3.7927  -3.7831  -3.7289  -3.7081  -3.6892  -3.5543  -3.4723
    -3.4487  -3.4139  -3.3827  -3.3595  -3.3241  -3.2966  -3.2746  -3.2489
    -3.2328  -3.1800  -3.1636  -3.1202  -3.0784  -2.9966  -2.9524  -2.8948
    -2.8717  -2.8533  -2.8350  -2.8313  -2.8109  -2.7779  -2.7487  -2.6932
    -2.6840  -2.6539  -2.5822  -2.5273  -2.4997  -2.4748  -2.4326  -2.4258
    -2.2707  -2.2510  -2.2174  -2.2059  -2.1319  -2.0893  -1.9972  -1.9711
    -1.9486  -1.8770  -1.8049  -1.7619  -1.7055  -1.5091  -1.5004  -1.3814
    -1.3446  -1.2958  -1.2703  -1.2282  -1.0675  -0.7340  -0.6609  -0.3777
    -0.3665  -0.3404  -0.1850  -0.1787   1.4313   1.4550   1.5403   1.5964
     1.6151   1.6528   1.6657   1.7047   1.7252   1.7818   1.9171

     the Fermi energy is     1.3750 ev

!    total energy              =   -3295.80754617 Ry
     estimated scf accuracy    <       0.00000005 Ry
     smearing contrib. (-TS)   =      -0.03571967 Ry
     internal energy E=F+TS    =   -3295.77182649 Ry

     The total energy is F=E-TS. E is the sum of the following terms:
     one-electron contribution =  -34705.22960820 Ry
     hartree contribution      =   17418.55141220 Ry
     xc contribution           =    -543.85860220 Ry
     ewald contribution        =   14534.76209128 Ry
     electric field correction =       0.00288041 Ry

     convergence has been achieved in  57 iterations

     Forces acting on atoms (cartesian axes, Ry/au):

     atom    1 type  1   force =    -0.00168708    0.00376973    0.05474823
     atom    2 type  1   force =     0.00024334   -0.00250169   -0.00843381
     atom    3 type  1   force =     0.00945915   -0.00334587    0.00808458
     atom    4 type  1   force =     0.00004439   -0.00003001    0.10675962
     atom    5 type  1   force =    -0.00020427    0.00066293    0.00660626
     atom    6 type  1   force =     0.00000845   -0.00445932    0.00382520
     atom    7 type  1   force =     0.06647978    0.00079624   -0.02965234
     atom    8 type  1   force =     0.00659930   -0.02712951    0.00196243
     atom    9 type  1   force =     0.00672737   -0.02245048    0.00504068
     atom   10 type  2   force =    -0.00011572   -0.00450414   -0.18342789
     atom   11 type  2   force =     0.00067382    0.02087336   -0.00411438
     atom   12 type  2   force =    -0.00154376    0.02758836   -0.00633273
     atom   13 type  1   force =    -0.06653831    0.00045129   -0.02979683
     atom   14 type  1   force =    -0.00434202   -0.02770708    0.00254238
     atom   15 type  1   force =    -0.00659902   -0.02333480    0.00499678
     atom   16 type  2   force =     0.00008375    0.00069719    0.06699810
     atom   17 type  2   force =    -0.00237868    0.03352688    0.00351019
     atom   18 type  2   force =     0.00123319    0.02446680   -0.00368038
     atom   19 type  1   force =    -0.00169738    0.00675150    0.05330009
     atom   20 type  1   force =     0.00023729   -0.00116131   -0.00662604
     atom   21 type  1   force =     0.00003436    0.00110274    0.10723009
     atom   22 type  1   force =    -0.00025332   -0.00198383    0.00723866
     atom   23 type  1   force =     0.00071976   -0.00586188    0.00419203
     atom   24 type  1   force =     0.06751368    0.00137796   -0.02905567
     atom   25 type  1   force =     0.00529011   -0.03015922    0.00246290
     atom   26 type  1   force =     0.00672538   -0.02608887   -0.00415055
     atom   27 type  2   force =     0.00011175   -0.00120988   -0.18672197
     atom   28 type  2   force =     0.00007921    0.02385953   -0.00244714
     atom   29 type  2   force =    -0.00111972    0.02212305    0.00080738
     atom   30 type  1   force =    -0.06761913    0.00087439   -0.02890787
     atom   31 type  1   force =    -0.00538251   -0.02962274    0.00280280
     atom   32 type  1   force =    -0.00426180   -0.02246545    0.00258244
     atom   33 type  2   force =    -0.00004443    0.00131275    0.07475886
     atom   34 type  2   force =     0.00092756    0.03692521    0.00407625
     atom   35 type  2   force =    -0.00218679    0.03480760    0.00487465
     atom   36 type  1   force =    -0.00186570    0.00288546    0.05592841
     atom   37 type  1   force =     0.00132679    0.00401352   -0.01133613
     atom   38 type  1   force =     0.00016074   -0.00407495    0.00424143
     atom   39 type  1   force =     0.00002149   -0.00063706    0.10725220
     atom   40 type  1   force =     0.00015719   -0.00141130    0.00716960
     atom   41 type  1   force =    -0.00025576   -0.00396998    0.00185939
     atom   42 type  1   force =     0.06784551   -0.00221690   -0.02969170
     atom   43 type  1   force =     0.00369375   -0.02636631    0.00153491
     atom   44 type  1   force =     0.01008851   -0.01805642    0.00257763
     atom   45 type  2   force =     0.00003170    0.00217435   -0.18328653
     atom   46 type  2   force =    -0.00023699    0.01479234    0.00207501
     atom   47 type  2   force =     0.00314309    0.02650361   -0.00876528
     atom   48 type  1   force =    -0.06791042   -0.00284536   -0.02984871
     atom   49 type  1   force =    -0.00375847   -0.02550935    0.00183620
     atom   50 type  1   force =    -0.00788765   -0.02368269    0.00523944
     atom   51 type  2   force =     0.00044926   -0.00350288    0.06841759
     atom   52 type  2   force =    -0.00011406    0.03118637    0.00596389
     atom   53 type  2   force =    -0.00223243    0.02596346   -0.00056225
     atom   54 type  3   force =     0.00074010   -0.00195946   -0.00082588
     atom   55 type  4   force =    -0.00074019    0.00039336   -0.00050286
     atom   56 type  4   force =     0.00027416    0.00088574    0.00127497
     atom   57 type  3   force =     0.00130723   -0.00273269   -0.00025489
     atom   58 type  4   force =     0.00049303    0.00104413   -0.00007238
     atom   59 type  4   force =     0.00007036    0.00028698    0.00070202
     atom   60 type  4   force =    -0.00139084    0.00008268    0.00007745
     atom   61 type  4   force =    -0.01062809   -0.00119808   -0.00705656

     Total force =     0.459839     Total SCF correction =     0.000885
  @ DRIVER MODE: Message from server: STATUS
  @ DRIVER MODE: Message from server: GETFORCE
  @ DRIVER MODE: Returning v,forces,stress,ensemble

     Writing output data file ./calc.save/
  @ DRIVER MODE: Message from server: EXIT
  @ DRIVE MODE: Exiting

     General routines

     Parallel routines

   This run was terminated on:  11:40:13  19Oct2021

   JOB DONE.