     Program PWSCF v.6.7GPU starts on 23Aug2021 at 19:32:52

     R & G space division:  proc/nbgrp/npool/nimage =       6
     Reading input from /storage/home/hcoda1/3/ntian30/research/carbon/CH_vib/ads_slab/CHNHHH_a/out_0013/pw.inp
Warning: card &CELL ignored
Warning: card   CELL_DYNAMICS='IPI', ignored
Warning: card / ignored

     Current dimensions of program PWSCF are:
     Max number of different atomic species (ntypx) = 10
     Max number of k-points (npk) =  40000
     Max angular momentum in pseudopotentials (lmaxx) =  3
     Presently no symmetry can be used with electric field

     Message from routine cell_base_init:
     DEPRECATED: use true lattice parameter, not A to a.u. conversion factor

     IMPORTANT: XC functional enforced from input :
     Exchange-correlation= BEEF-VDW
                           (   1   4  43  14   2   0   0)
     Any further DFT definition will be discarded
     Please, verify this is what you really want

  @ DRIVER MODE: Connecting to
 qe_1139763_2632793.sched-torque.pace.gatech.edu_r1hlrl1_scratch
  using UNIX socket
  @ DRIVER MODE: Message from server: STATUS
  @ DRIVER MODE: Message from server: INIT
  @ DRIVER MODE: Receiving replica           0          -1
  @ DRIVER MODE: Receiving encoded integer          25
  @ DRIVER MODE:  SCF:  T  FORCE:  T  STRESS:  F  VC:  F  ENSEMBLE:  F
  @ DRIVER MODE:  SCF:  T  FORCE:  T  STRESS:  F  VC:  F  ENSEMBLE:  F

     Using Slab Decomposition

     bravais-lattice index     =            0
     lattice parameter (alat)  =       1.8897  a.u.
     unit-cell volume          =    6658.9804 (a.u.)^3
     number of atoms/cell      =           53
     number of atomic types    =            5
     number of electrons       =       391.00
     number of Kohn-Sham states=          205
     kinetic-energy cutoff     =      29.3995  Ry
     charge density cutoff     =     293.9946  Ry
     scf convergence threshold =      7.3E-08
     mixing beta               =       0.0500
     number of iterations used =            8  plain     mixing
     Exchange-correlation= BEEF-VDW
                           (   1   4  43  14   2   0   0)

     celldm(1)=   1.889726  celldm(2)=   0.000000  celldm(3)=   0.000000
     celldm(4)=   0.000000  celldm(5)=   0.000000  celldm(6)=   0.000000

     crystal axes: (cart. coord. in units of alat)
               a(1) = (   6.579727   0.000000   0.000000 )
               a(2) = (  -0.000775   5.961596   0.000000 )
               a(3) = (   0.000000   0.000000  25.155947 )

     reciprocal axes: (cart. coord. in units 2 pi/alat)
               b(1) = (  0.151982  0.000020  0.000000 )
               b(2) = (  0.000000  0.167740  0.000000 )
               b(3) = (  0.000000  0.000000  0.039752 )

     PseudoPot. # 1 for Ti read from file:
     /storage/coda1/p-amedford6/0/shared/rich_project_chbe-medford/medford-share/data/pseudos_module/espresso/nninc/pbe/van/Ti.UPF
     MD5 check sum: 8e4df49b7f0d34bbd5052bf3f5ea0213
     Pseudo is Ultrasoft, Zval = 12.0
     Generated by new atomic code, or converted to UPF format
     Using radial grid of  851 points,  6 beta functions with:
                l(1) =   0
                l(2) =   0
                l(3) =   1
                l(4) =   1
                l(5) =   2
                l(6) =   2
     Q(r) pseudized with  8 coefficients,  rinner =    1.000   1.000   1.000
                                                       1.000   1.000

     PseudoPot. # 2 for O  read from file:
     /storage/coda1/p-amedford6/0/shared/rich_project_chbe-medford/medford-share/data/pseudos_module/espresso/nninc/pbe/van/O.UPF
     MD5 check sum: 78c19812648e8988a0fe644b0f25305e
     Pseudo is Ultrasoft, Zval =  6.0
     Generated by new atomic code, or converted to UPF format
     Using radial grid of  737 points,  4 beta functions with:
                l(1) =   0
                l(2) =   0
                l(3) =   1
                l(4) =   1
     Q(r) pseudized with  8 coefficients,  rinner =    0.800   0.800   0.800

     PseudoPot. # 3 for N  read from file:
     /storage/coda1/p-amedford6/0/shared/rich_project_chbe-medford/medford-share/data/pseudos_module/espresso/nninc/pbe/van/N.UPF
     MD5 check sum: 90d10febe142ad51ac9d5be1deb811c4
     Pseudo is Ultrasoft, Zval =  5.0
     Generated by new atomic code, or converted to UPF format
     Using radial grid of  729 points,  4 beta functions with:
                l(1) =   0
                l(2) =   0
                l(3) =   1
                l(4) =   1
     Q(r) pseudized with  8 coefficients,  rinner =    0.800   0.800   0.800

     PseudoPot. # 4 for C  read from file:
     /storage/coda1/p-amedford6/0/shared/rich_project_chbe-medford/medford-share/data/pseudos_module/espresso/nninc/pbe/van/C.UPF
     MD5 check sum: 1a69bf6b8db32088f5b2163dbdb77a27
     Pseudo is Ultrasoft, Zval =  4.0
     Generated by new atomic code, or converted to UPF format
     Using radial grid of  721 points,  4 beta functions with:
                l(1) =   0
                l(2) =   0
                l(3) =   1
                l(4) =   1
     Q(r) pseudized with  8 coefficients,  rinner =    0.800   0.800   0.800

     PseudoPot. # 5 for H  read from file:
     /storage/coda1/p-amedford6/0/shared/rich_project_chbe-medford/medford-share/data/pseudos_module/espresso/nninc/pbe/van/H.UPF
     MD5 check sum: b5ee9d7bfd3a09ee7748110bda690ff7
     Pseudo is Ultrasoft, Zval =  1.0
     Generated by new atomic code, or converted to UPF format
     Using radial grid of  615 points,  1 beta functions with:
                l(1) =   0
     Q(r) pseudized with  8 coefficients,  rinner =    0.800

     atomic species   valence    mass     pseudopotential
        Ti1           12.00    47.86700     Ti( 1.00)
        O1             6.00    15.99900     O ( 1.00)
        N1             5.00    14.00700     N ( 1.00)
        C1             4.00    12.01100     C ( 1.00)
        H1             1.00     1.00800     H ( 1.00)

     No symmetry found

   Cartesian axes

     site n.     atom                  positions (alat units)
         1           Ti1 tau(   1) = (   0.0004258   2.9801865   6.0000000  )
         2           Ti1 tau(   2) = (   3.2906075   1.4906267   6.0002472  )
         3           O1  tau(   3) = (   0.0006271   0.0005054   7.9858123  )
         4           O1  tau(   4) = (   3.2906025   0.0005020   7.3038282  )
         5           O1  tau(   5) = (   4.5942328   1.4918067   9.2879030  )
         6           O1  tau(   6) = (   1.9868534   1.4903216   9.2879459  )
         7           Ti1 tau(   7) = (   3.2907910   2.8959150   9.1758416  )
         8           Ti1 tau(   8) = (   0.0015273   1.4827037   9.2680791  )
         9           O1  tau(   9) = (   3.3113122   5.9567026  11.3833813  )
        10           O1  tau(  10) = (   0.0116148   5.9584955  10.6183126  )
        11           O1  tau(  11) = (   1.3074368   1.4838846  12.6958875  )
        12           O1  tau(  12) = (   5.3165545   1.4905306  12.6890028  )
        13           Ti1 tau(  13) = (   0.0319163   2.9634337  12.5060949  )
        14           Ti1 tau(  14) = (   3.3348194   1.4676286  12.5406051  )
        15           O1  tau(  15) = (   6.5718004   5.8756060  14.7032446  )
        16           O1  tau(  16) = (   3.3285255   5.9545307  14.0046557  )
        17           O1  tau(  17) = (   4.5620449   1.5282301  16.1894795  )
        18           O1  tau(  18) = (   2.0507131   1.5111456  16.1254446  )
        19           Ti1 tau(  19) = (   3.3090684   3.0029381  15.7706148  )
        20           Ti1 tau(  20) = (   0.0350077   1.2886257  15.8758580  )
        21           O1  tau(  21) = (   3.2904802   0.0005063   4.7018136  )
        22           O1  tau(  22) = (   0.0240991   0.1326893  17.2553962  )
        23           O1  tau(  23) = (   1.3043587   1.4918075   6.0039043  )
        24           O1  tau(  24) = (   5.2767064   1.4903225   6.0039473  )
        25           Ti1 tau(  25) = (   0.0000382   5.9609847   6.0000000  )
        26           Ti1 tau(  26) = (   3.2902200   4.4714249   6.0002472  )
        27           O1  tau(  27) = (   0.0002396   2.9813036   7.9858123  )
        28           O1  tau(  28) = (   3.2902150   2.9813002   7.3038282  )
        29           O1  tau(  29) = (   4.5938453   4.4726049   9.2879030  )
        30           O1  tau(  30) = (   1.9864658   4.4711199   9.2879459  )
        31           Ti1 tau(  31) = (   3.2891106   5.8743827   9.1763621  )
        32           Ti1 tau(  32) = (   0.0006254   4.4649316   9.2693709  )
        33           O1  tau(  33) = (   3.3073171   2.9646269  11.3784001  )
        34           O1  tau(  34) = (   0.0092240   2.9805883  10.6323155  )
        35           O1  tau(  35) = (   1.3112202   4.4579144  12.6624112  )
        36           O1  tau(  36) = (   5.3138049   4.4530836  12.6532163  )
        37           Ti1 tau(  37) = (   0.0383750   5.9352221  12.5084026  )
        38           Ti1 tau(  38) = (   3.3346062   4.4465110  12.5317211  )
        39           O1  tau(  39) = (   0.0124192   3.0170750  14.9941726  )
        40           O1  tau(  40) = (   3.3221393   2.9969786  13.9787254  )
        41           O1  tau(  41) = (   4.5445774   4.4782521  16.2319081  )
        42           O1  tau(  42) = (   2.0501905   4.4790704  16.2078326  )
        43           Ti1 tau(  43) = (   3.3285819   0.0194352  15.8051934  )
        44           Ti1 tau(  44) = (   0.0611752   4.5099810  16.0683830  )
        45           O1  tau(  45) = (   3.2900926   2.9813045   4.7018136  )
        46           O1  tau(  46) = (   1.3039711   4.4726057   6.0039043  )
        47           O1  tau(  47) = (   5.2763189   4.4711207   6.0039473  )
        48           N1  tau(  48) = (   6.2166669   3.4226028  18.2351681  )
        49           C1  tau(  49) = (   0.7325778   3.1430902  19.0455235  )
        50           H1  tau(  50) = (   1.1588338   2.1628109  18.9760543  )
        51           H1  tau(  51) = (   5.7007151   4.2593073  18.4945226  )
        52           H1  tau(  52) = (   5.5741914   2.6425579  18.1107425  )
        53           H1  tau(  53) = (   1.2593429   3.9788434  19.4721980  )

     number of k points=    10  Fermi-Dirac smearing, width (Ry)=  0.0073
                       cart. coord. in units 2pi/alat
        k(    1) = (   0.0000000   0.0000000   0.0000000), wk =   0.1250000
        k(    2) = (   0.0000000   0.0419351   0.0000000), wk =   0.2500000
        k(    3) = (   0.0000000  -0.0838702   0.0000000), wk =   0.1250000
        k(    4) = (   0.0379955   0.0000049   0.0000000), wk =   0.2500000
        k(    5) = (   0.0379955   0.0419400   0.0000000), wk =   0.2500000
        k(    6) = (   0.0379955  -0.0838652   0.0000000), wk =   0.2500000
        k(    7) = (   0.0379955  -0.0419301   0.0000000), wk =   0.2500000
        k(    8) = (  -0.0759910  -0.0000099   0.0000000), wk =   0.1250000
        k(    9) = (  -0.0759910   0.0419252   0.0000000), wk =   0.2500000
        k(   10) = (  -0.0759910  -0.0838800   0.0000000), wk =   0.1250000

     Initial potential from superposition of free atoms

     starting charge  374.99916, renormalised to  391.00000

     negative rho (up, down):  1.698E-02 0.000E+00

     %%%%%%%%%%%%%%%%%%%%%%%%%%%%%%%%%%%%%%%%%%%%%%%%%%%%%%%%%%%%%%%%%%%%%%%%
     %                                                                      %
     % You are using vdW-DF, which was implemented by the Thonhauser group. %
     % Please cite the following two papers that made this development      %
     % possible and the two reviews that describe the various versions:     %
     %                                                                      %
     %   T. Thonhauser et al., PRL 115, 136402 (2015).                      %
     %   T. Thonhauser et al., PRB 76, 125112 (2007).                       %
     %   K. Berland et al., Rep. Prog. Phys. 78, 066501 (2015).             %
     %   D.C. Langreth et al., J. Phys.: Condens. Matter 21, 084203 (2009). %
     %                                                                      %
     %                                                                      %
     % If you are calculating the stress with vdW-DF, please also cite:     %
     %                                                                      %
     %   R. Sabatini et al., J. Phys.: Condens. Matter 24, 424209 (2012).   %
     %                                                                      %
     %%%%%%%%%%%%%%%%%%%%%%%%%%%%%%%%%%%%%%%%%%%%%%%%%%%%%%%%%%%%%%%%%%%%%%%%

     Adding external electric field

     Computed dipole along edir(3) :
        Dipole               -6.8871 Ry au,        -17.5052 Debye
        Dipole field         -0.0130 Ry au,

        Potential amp.        1.2048 Ry
        Total length         46.3494 bohr

     Starting wfcs are  296 atomic wfcs
  @ DRIVER MODE: Message from server: STATUS
  @ DRIVER MODE: Message from server: POSDATA
  @ DRIVER MODE: Reading and sharing cell
  @ DRIVER MODE: Reading and sharing positions
  @ DRIVER MODE: Received positions

     Self-consistent Calculation

     iteration #  1     ecut=    29.40 Ry     beta= 0.05
     Davidson diagonalization with overlap
     c_bands:  1 eigenvalues not converged
     c_bands:  2 eigenvalues not converged
     ethr =  1.00E-05,  avg # of iterations = 15.9

[...]

     total energy              =   -2713.95723797 Ry
     estimated scf accuracy    <    2275.99996347 Ry

     iteration #  2     ecut=    29.40 Ry     beta= 0.05
     Davidson diagonalization with overlap
     ethr =  1.00E-02,  avg # of iterations = 18.4

[...]

     iteration # 73     ecut=    29.40 Ry     beta= 0.05
     Davidson diagonalization with overlap
     c_bands:  2 eigenvalues not converged
     ethr =  3.73E-11,  avg # of iterations = 15.1

[...]

     total energy              =   -2920.25694822 Ry
     estimated scf accuracy    <       0.00000010 Ry

     iteration # 74     ecut=    29.40 Ry     beta= 0.05
     Davidson diagonalization with overlap
     ethr =  2.62E-11,  avg # of iterations = 12.7

     negative rho (up, down):  1.634E-02 0.000E+00

     Adding external electric field

     Computed dipole along edir(3) :
        Dipole                0.9030 Ry au,          2.2951 Debye
        Dipole field          0.0017 Ry au,

        Potential amp.       -0.1580 Ry
        Total length         46.3494 bohr

     End of self-consistent calculation

          k = 0.0000 0.0000 0.0000 ( 18029 PWs)   bands (ev):

   -55.7196 -55.6832 -55.6732 -55.6391 -55.6064 -55.6031 -55.5687 -55.5444
   -55.5367 -55.5100 -55.5051 -55.4714 -55.4507 -55.2883 -54.7049 -54.6709
   -32.2845 -32.1663 -32.0905 -32.0413 -32.0377 -32.0334 -32.0290 -32.0109
   -31.9622 -31.9522 -31.9320 -31.9270 -31.9182 -31.8884 -31.8735 -31.8728
   -31.8582 -31.8445 -31.8404 -31.8257 -31.8207 -31.7876 -31.7803 -31.7749
   -31.7467 -31.7348 -31.7346 -31.7303 -31.7242 -31.7173 -31.7050 -31.7031
   -31.6934 -31.6907 -31.6579 -31.6570 -31.6529 -31.6331 -31.6231 -31.6165
   -31.5079 -31.4610 -31.1144 -31.0199 -30.9979 -30.9307 -30.8440 -30.7331
   -16.6857 -16.5257 -16.2697 -16.1037 -16.0051 -15.9197 -15.7777 -15.7588
   -15.6427 -15.5660 -15.4235 -15.3867 -15.3738 -15.3572 -15.3345 -15.3222
   -15.2678 -15.2620 -15.2410 -15.2170 -15.2125 -15.1645 -15.1612 -15.1210
   -15.0978 -15.0357 -14.9656 -14.8820 -14.8100 -14.4796 -13.2078 -13.0903
    -9.5382  -6.8750  -4.9561  -3.8831  -3.7401  -3.6737  -3.6209  -3.6147
    -3.4702  -3.2990  -3.1594  -3.1322  -3.1063  -2.9889  -2.9248  -2.9103
    -2.8863  -2.7551  -2.7304  -2.6795  -2.6441  -2.5695  -2.5660  -2.5256
    -2.5119  -2.4671  -2.4611  -2.4350  -2.3023  -2.2880  -2.2509  -2.1870
    -2.1271  -2.1252  -2.0685  -2.0507  -2.0112  -2.0025  -1.9910  -1.9493
    -1.9437  -1.9088  -1.8065  -1.7442  -1.6118  -1.5777  -1.4321  -1.3618
    -1.3130  -1.2945  -1.2110  -1.1897  -1.1386  -1.1006  -1.0897  -1.0579
    -0.9443  -0.8584  -0.8075  -0.7530  -0.7203  -0.7043  -0.6152  -0.5224
    -0.5006  -0.4876  -0.4457  -0.3439  -0.3230  -0.2602  -0.2012  -0.1855
    -0.1763  -0.0805  -0.0493   0.0233   0.0738   0.0950   0.1665   0.1923
     0.2114   0.2167   0.2520   0.2631   0.3394   0.3561   0.3806   0.4675
     0.5934   0.8398   0.8884   0.9021   1.2187   1.2226   1.3176   1.5009
     1.8941   1.9424   3.3714   3.3891   3.4531   3.5221   3.5260   3.5902
     3.6130   3.8582   3.8794   3.8867   3.9034

[...]

          k = 0.0380-0.0419 0.0000 ( 17876 PWs)   bands (ev):

[...]

          k =-0.0760-0.0000 0.0000 ( 17886 PWs)   bands (ev):

[...]

          k =-0.0760-0.0839 0.0000 ( 17948 PWs)   bands (ev):

   -55.7044 -55.6981 -55.6563 -55.6560 -55.6019 -55.5865 -55.5852 -55.5410
   -55.5288 -55.5253 -55.4887 -55.4879 -55.4486 -55.2903 -54.6880 -54.6877
   -32.0913 -32.0865 -31.9953 -31.9814 -31.9813 -31.9773 -31.9502 -31.9475
   -31.9474 -31.9312 -31.9247 -31.9157 -31.9105 -31.8700 -31.8665 -31.8611
   -31.8571 -31.8527 -31.8472 -31.8439 -31.8280 -31.8078 -31.7997 -31.7990
   -31.7817 -31.7769 -31.7760 -31.7755 -31.7615 -31.7581 -31.7415 -31.7380
   -31.7378 -31.7233 -31.7212 -31.7184 -31.6714 -31.6689 -31.6679 -31.6292
   -31.5524 -31.5101 -31.0106 -31.0104 -30.9270 -30.9268 -30.8874 -30.8873
   -16.6542 -16.0092 -15.9440 -15.9060 -15.7578 -15.7167 -15.6820 -15.6703
   -15.5469 -15.5151 -15.4941 -15.4739 -15.4380 -15.4241 -15.4173 -15.3648
   -15.3387 -15.3187 -15.3144 -15.3004 -15.2381 -15.2317 -15.2268 -15.2195
   -15.1720 -15.1684 -15.0770 -15.0740 -15.0503 -14.7666 -13.1918 -13.1917
    -9.5401  -6.8568  -4.9355  -3.2170  -3.2017  -3.1608  -3.1388  -2.9779
    -2.9167  -2.9018  -2.8715  -2.7990  -2.7472  -2.7310  -2.6870  -2.6830
    -2.6296  -2.5965  -2.5717  -2.5579  -2.5517  -2.5379  -2.5162  -2.4802
    -2.4511  -2.4493  -2.4403  -2.3947  -2.3685  -2.3578  -2.3200  -2.3137
    -2.3057  -2.2782  -2.2148  -2.1139  -2.0846  -2.0564  -1.9603  -1.9291
    -1.9240  -1.8442  -1.8111  -1.7563  -1.7495  -1.7415  -1.5762  -1.5044
    -1.4681  -1.4648  -1.4425  -1.3151  -1.3005  -1.2221  -1.1983  -1.1858
    -1.0975  -1.0770  -1.0337  -1.0069  -0.9303  -0.9011  -0.8393  -0.7524
    -0.7139  -0.7067  -0.6778  -0.6739  -0.6247  -0.6136  -0.5285  -0.4900
    -0.4551  -0.4447  -0.3964  -0.2111  -0.1946  -0.1642  -0.0254   0.0251
     0.1505   0.1737   0.2347   0.3085   0.3490   0.3925   0.4292   0.5741
     0.5839   0.6162   0.6615   0.6727   0.7308   0.7396   1.6740   1.6745
     1.7622   1.7626   3.3857   3.6322   3.6347   3.6699   3.6927   3.8478
     3.8926   3.9363   3.9581   3.9615   3.9829

     the Fermi energy is     3.4396 ev

!    total energy              =   -2920.25696044 Ry
     estimated scf accuracy    <       0.00000006 Ry
     smearing contrib. (-TS)   =      -0.04246367 Ry
     internal energy E=F+TS    =   -2920.21449677 Ry

     The total energy is F=E-TS. E is the sum of the following terms:
     one-electron contribution =  -24059.36664885 Ry
     hartree contribution      =   12115.88099206 Ry
     xc contribution           =    -480.86129477 Ry
     ewald contribution        =    9504.13091610 Ry
     electric field correction =       0.00153868 Ry

     convergence has been achieved in  74 iterations

     Forces acting on atoms (cartesian axes, Ry/au):

     atom    1 type  1   force =    -0.00001706   -0.00019634    0.09319619
     atom    2 type  1   force =    -0.00011296   -0.00034749   -0.17839774
     atom    3 type  2   force =     0.00009165   -0.00039399   -0.02007198
     atom    4 type  2   force =     0.00004649   -0.00199989    0.05911073
     atom    5 type  2   force =    -0.01020997   -0.00081883    0.00742995
     atom    6 type  2   force =     0.01221791   -0.00042741    0.00774422
     atom    7 type  1   force =     0.00015275    0.00228537   -0.01368623
     atom    8 type  1   force =    -0.00035406   -0.00183451   -0.00451867
     atom    9 type  2   force =    -0.00034271    0.00036551   -0.00023678
     atom   10 type  2   force =    -0.00026766    0.00141461    0.00223297
     atom   11 type  2   force =    -0.00013923    0.00010709   -0.00011189
     atom   12 type  2   force =    -0.00026517   -0.00022643   -0.00062478
     atom   13 type  1   force =    -0.00048599    0.00090601   -0.00024941
     atom   14 type  1   force =    -0.00069819    0.00043280   -0.00049324
     atom   15 type  2   force =     0.00005001   -0.00018727    0.00016679
     atom   16 type  2   force =    -0.00041235   -0.00009835    0.00002118
     atom   17 type  2   force =    -0.00011386   -0.00031008   -0.00045313
     atom   18 type  2   force =    -0.00029784   -0.00016060    0.00046468
     atom   19 type  1   force =    -0.00060983   -0.00009726    0.00005758
     atom   20 type  1   force =    -0.00010651   -0.00022004   -0.00037243
     atom   21 type  2   force =     0.00002503   -0.00006085    0.10398910
     atom   22 type  2   force =    -0.00051148    0.00000772    0.00020243
     atom   23 type  2   force =    -0.07036198   -0.00016390   -0.02686824
     atom   24 type  2   force =     0.07024039    0.00027577   -0.02695402
     atom   25 type  1   force =     0.00002354   -0.00014911    0.09259270
     atom   26 type  1   force =    -0.00014598   -0.00045682   -0.17846464
     atom   27 type  2   force =     0.00015935   -0.00028095   -0.01914263
     atom   28 type  2   force =     0.00005831   -0.00176761    0.05849646
     atom   29 type  2   force =    -0.01069000   -0.00129826    0.00789951
     atom   30 type  2   force =     0.01256679   -0.00082944    0.00816709
     atom   31 type  1   force =     0.00028688    0.00600640   -0.01442252
     atom   32 type  1   force =    -0.00036589    0.00121896   -0.00498821
     atom   33 type  2   force =    -0.00004892   -0.00045586   -0.00008612
     atom   34 type  2   force =     0.00078336   -0.00258424    0.00063379
     atom   35 type  2   force =    -0.00060807   -0.00028934   -0.00013119
     atom   36 type  2   force =     0.00060076    0.00005016    0.00003896
     atom   37 type  1   force =    -0.00046874   -0.00043157    0.00004170
     atom   38 type  1   force =    -0.00026037    0.00035428   -0.00086194
     atom   39 type  2   force =    -0.00063187    0.00035326   -0.00011823
     atom   40 type  2   force =    -0.00015167   -0.00036221   -0.00055730
     atom   41 type  2   force =    -0.00104837    0.00010934    0.00000030
     atom   42 type  2   force =     0.00005684   -0.00012774    0.00027963
     atom   43 type  1   force =     0.00049969   -0.00001448   -0.00042810
     atom   44 type  1   force =     0.00042156    0.00059072   -0.00011446
     atom   45 type  2   force =     0.00003836   -0.00007558    0.10392643
     atom   46 type  2   force =    -0.07033186   -0.00007675   -0.02684753
     atom   47 type  2   force =     0.07023461    0.00036632   -0.02690500
     atom   48 type  3   force =    -0.00111119    0.00264575    0.00007950
     atom   49 type  4   force =    -0.00369779    0.00559018    0.00028976
     atom   50 type  5   force =     0.00399328   -0.00550199    0.00022063
     atom   51 type  5   force =     0.00142969   -0.00096845   -0.00052322
     atom   52 type  5   force =    -0.00003644    0.00063990   -0.00002732
     atom   53 type  5   force =     0.00092678   -0.00050648   -0.00062533

     Total force =     0.366455     Total SCF correction =     0.000900
  @ DRIVER MODE: Message from server: STATUS
  @ DRIVER MODE: Message from server: GETFORCE
  @ DRIVER MODE: Returning v,forces,stress,ensemble

     Writing output data file ./calc.save/
  @ DRIVER MODE: Message from server: EXIT
  @ DRIVE MODE: Exiting

     General routines

     Parallel routines

   This run was terminated on:  20: 5:20  23Aug2021

   JOB DONE.