     Program PWSCF v.6.7GPU starts on 15Sep2021 at 22:15:49

     R & G space division:  proc/nbgrp/npool/nimage =      10
     Reading input from /storage/home/hcoda1/3/ntian30/research/carbon/CxH_vib/H2O_calc/ads_slab/CH3NHNH2H2O_a/out_0019/pw.inp
Warning: card &CELL ignored
Warning: card   CELL_DYNAMICS='IPI', ignored
Warning: card / ignored

     Current dimensions of program PWSCF are:
     Max number of different atomic species (ntypx) = 10
     Max number of k-points (npk) =  40000
     Max angular momentum in pseudopotentials (lmaxx) =  3
     Presently no symmetry can be used with electric field

     Message from routine cell_base_init:
     DEPRECATED: use true lattice parameter, not A to a.u. conversion factor

     IMPORTANT: XC functional enforced from input :
     Exchange-correlation= BEEF-VDW
                           (   1   4  43  14   2   0   0)
     Any further DFT definition will be discarded
     Please, verify this is what you really want

  @ DRIVER MODE: Connecting to
 qe_1139763_2852619.sched-torque.pace.gatech.eduo3svgy6z_scratch
  using UNIX socket
  @ DRIVER MODE: Message from server: STATUS
  @ DRIVER MODE: Message from server: INIT
  @ DRIVER MODE: Receiving replica           0          -1
  @ DRIVER MODE: Receiving encoded integer          25
  @ DRIVER MODE:  SCF:  T  FORCE:  T  STRESS:  F  VC:  F  ENSEMBLE:  F
  @ DRIVER MODE:  SCF:  T  FORCE:  T  STRESS:  F  VC:  F  ENSEMBLE:  F

     Using Slab Decomposition

     bravais-lattice index     =            0
     lattice parameter (alat)  =       1.8897  a.u.
     unit-cell volume          =    6658.9804 (a.u.)^3
     number of atoms/cell      =           59
     number of atomic types    =            5
     number of electrons       =       406.00
     number of Kohn-Sham states=          213
     kinetic-energy cutoff     =      29.3995  Ry
     charge density cutoff     =     293.9946  Ry
     scf convergence threshold =      7.3E-08
     mixing beta               =       0.0500
     number of iterations used =            8  plain     mixing
     Exchange-correlation= BEEF-VDW
                           (   1   4  43  14   2   0   0)

     celldm(1)=   1.889726  celldm(2)=   0.000000  celldm(3)=   0.000000
     celldm(4)=   0.000000  celldm(5)=   0.000000  celldm(6)=   0.000000

     crystal axes: (cart. coord. in units of alat)
               a(1) = (   6.579727   0.000000   0.000000 )
               a(2) = (  -0.000775   5.961596   0.000000 )
               a(3) = (   0.000000   0.000000  25.155947 )

     reciprocal axes: (cart. coord. in units 2 pi/alat)
               b(1) = (  0.151982  0.000020  0.000000 )
               b(2) = (  0.000000  0.167740  0.000000 )
               b(3) = (  0.000000  0.000000  0.039752 )

     PseudoPot. # 1 for Ti read from file:
     /storage/coda1/p-amedford6/0/shared/rich_project_chbe-medford/medford-share/data/pseudos_module/espresso/nninc/pbe/van/Ti.UPF
     MD5 check sum: 8e4df49b7f0d34bbd5052bf3f5ea0213
     Pseudo is Ultrasoft, Zval = 12.0
     Generated by new atomic code, or converted to UPF format
     Using radial grid of  851 points,  6 beta functions with:
                l(1) =   0
                l(2) =   0
                l(3) =   1
                l(4) =   1
                l(5) =   2
                l(6) =   2
     Q(r) pseudized with  8 coefficients,  rinner =    1.000   1.000   1.000
                                                       1.000   1.000

     PseudoPot. # 2 for O  read from file:
     /storage/coda1/p-amedford6/0/shared/rich_project_chbe-medford/medford-share/data/pseudos_module/espresso/nninc/pbe/van/O.UPF
     MD5 check sum: 78c19812648e8988a0fe644b0f25305e
     Pseudo is Ultrasoft, Zval =  6.0
     Generated by new atomic code, or converted to UPF format
     Using radial grid of  737 points,  4 beta functions with:
                l(1) =   0
                l(2) =   0
                l(3) =   1
                l(4) =   1
     Q(r) pseudized with  8 coefficients,  rinner =    0.800   0.800   0.800

     PseudoPot. # 3 for N  read from file:
     /storage/coda1/p-amedford6/0/shared/rich_project_chbe-medford/medford-share/data/pseudos_module/espresso/nninc/pbe/van/N.UPF
     MD5 check sum: 90d10febe142ad51ac9d5be1deb811c4
     Pseudo is Ultrasoft, Zval =  5.0
     Generated by new atomic code, or converted to UPF format
     Using radial grid of  729 points,  4 beta functions with:
                l(1) =   0
                l(2) =   0
                l(3) =   1
                l(4) =   1
     Q(r) pseudized with  8 coefficients,  rinner =    0.800   0.800   0.800

     PseudoPot. # 4 for C  read from file:
     /storage/coda1/p-amedford6/0/shared/rich_project_chbe-medford/medford-share/data/pseudos_module/espresso/nninc/pbe/van/C.UPF
     MD5 check sum: 1a69bf6b8db32088f5b2163dbdb77a27
     Pseudo is Ultrasoft, Zval =  4.0
     Generated by new atomic code, or converted to UPF format
     Using radial grid of  721 points,  4 beta functions with:
                l(1) =   0
                l(2) =   0
                l(3) =   1
                l(4) =   1
     Q(r) pseudized with  8 coefficients,  rinner =    0.800   0.800   0.800

     PseudoPot. # 5 for H  read from file:
     /storage/coda1/p-amedford6/0/shared/rich_project_chbe-medford/medford-share/data/pseudos_module/espresso/nninc/pbe/van/H.UPF
     MD5 check sum: b5ee9d7bfd3a09ee7748110bda690ff7
     Pseudo is Ultrasoft, Zval =  1.0
     Generated by new atomic code, or converted to UPF format
     Using radial grid of  615 points,  1 beta functions with:
                l(1) =   0
     Q(r) pseudized with  8 coefficients,  rinner =    0.800

     atomic species   valence    mass     pseudopotential
        Ti1           12.00    47.86700     Ti( 1.00)
        O1             6.00    15.99900     O ( 1.00)
        N1             5.00    14.00700     N ( 1.00)
        C1             4.00    12.01100     C ( 1.00)
        H1             1.00     1.00800     H ( 1.00)

     No symmetry found

   Cartesian axes

     site n.     atom                  positions (alat units)
         1           Ti1 tau(   1) = (   0.0004258   2.9801865   6.0000000  )
         2           Ti1 tau(   2) = (   3.2906075   1.4906267   6.0002472  )
         3           O1  tau(   3) = (   0.0006271   0.0005054   7.9858123  )
         4           O1  tau(   4) = (   3.2906025   0.0005020   7.3038282  )
         5           O1  tau(   5) = (   4.5942328   1.4918067   9.2879030  )
         6           O1  tau(   6) = (   1.9868534   1.4903216   9.2879459  )
         7           Ti1 tau(   7) = (   3.2907910   2.8959150   9.1758416  )
         8           Ti1 tau(   8) = (   0.0015273   1.4827037   9.2680791  )
         9           O1  tau(   9) = (   3.2683845   0.0132936  11.3796717  )
        10           O1  tau(  10) = (   0.0116148   5.9584955  10.6183126  )
        11           O1  tau(  11) = (   1.2681313   1.5011218  12.7194972  )
        12           O1  tau(  12) = (   5.2787963   1.4993765  12.6897032  )
        13           Ti1 tau(  13) = (   6.5560253   2.9823375  12.4990790  )
        14           Ti1 tau(  14) = (   3.2673924   1.4925278  12.5394213  )
        15           O1  tau(  15) = (   6.5345332   5.8735037  14.6996474  )
        16           O1  tau(  16) = (   3.2898196   5.9462848  13.9939205  )
        17           O1  tau(  17) = (   4.4957945   1.5291507  16.1605787  )
        18           O1  tau(  18) = (   1.9883785   1.5110281  16.0762771  )
        19           Ti1 tau(  19) = (   3.2526948   3.0056396  15.7740191  )
        20           Ti1 tau(  20) = (   0.0000763   1.3299063  15.8143521  )
        21           O1  tau(  21) = (   3.2904802   0.0005063   4.7018136  )
        22           O1  tau(  22) = (   6.5205728   0.2065101  17.2442985  )
        23           O1  tau(  23) = (   1.3043587   1.4918075   6.0039043  )
        24           O1  tau(  24) = (   5.2767064   1.4903225   6.0039473  )
        25           Ti1 tau(  25) = (   0.0000382   5.9609847   6.0000000  )
        26           Ti1 tau(  26) = (   3.2902200   4.4714249   6.0002472  )
        27           O1  tau(  27) = (   0.0002396   2.9813036   7.9858123  )
        28           O1  tau(  28) = (   3.2902150   2.9813002   7.3038282  )
        29           O1  tau(  29) = (   4.5938453   4.4726049   9.2879030  )
        30           O1  tau(  30) = (   1.9864658   4.4711199   9.2879459  )
        31           Ti1 tau(  31) = (   3.2891106   5.8743827   9.1763621  )
        32           Ti1 tau(  32) = (   0.0006254   4.4649316   9.2693709  )
        33           O1  tau(  33) = (   3.2688559   2.9716192  11.3757022  )
        34           O1  tau(  34) = (   0.0092240   2.9805883  10.6323155  )
        35           O1  tau(  35) = (   1.2711362   4.4646907  12.6658965  )
        36           O1  tau(  36) = (   5.2748280   4.4660984  12.6332574  )
        37           Ti1 tau(  37) = (   6.5627654   5.9477838  12.5072267  )
        38           Ti1 tau(  38) = (   3.2667511   4.4702655  12.5260729  )
        39           O1  tau(  39) = (   6.5087961   3.0586107  15.0099536  )
        40           O1  tau(  40) = (   3.2849776   3.0149387  13.9815115  )
        41           O1  tau(  41) = (   4.4906635   4.4862850  16.2792570  )
        42           O1  tau(  42) = (   1.9756856   4.4939852  16.2100911  )
        43           Ti1 tau(  43) = (   3.2747729   0.0241646  15.7895078  )
        44           Ti1 tau(  44) = (   6.5697470   4.5456975  16.1185117  )
        45           O1  tau(  45) = (   3.2900926   2.9813045   4.7018136  )
        46           O1  tau(  46) = (   1.3039711   4.4726057   6.0039043  )
        47           O1  tau(  47) = (   5.2763189   4.4711207   6.0039473  )
        48           N1  tau(  48) = (   0.9980056   3.0961469  19.0053282  )
        49           N1  tau(  49) = (   6.4063515   3.4839273  18.2229180  )
        50           C1  tau(  50) = (   1.6570833   4.2684698  19.5811903  )
        51           H1  tau(  51) = (   0.9836588   4.8902639  20.1979557  )
        52           H1  tau(  52) = (   2.4789334   3.9063689  20.1993048  )
        53           H1  tau(  53) = (   2.0598354   4.8861676  18.7819781  )
        54           H1  tau(  54) = (   0.6510520   2.5058952  19.7602174  )
        55           H1  tau(  55) = (   5.8507131   4.1735594  18.7414995  )
        56           H1  tau(  56) = (   5.8147758   2.6545292  18.1916272  )
        57           O1  tau(  57) = (   5.1718451   0.7889162  19.5681371  )
        58           H1  tau(  58) = (   5.5516362   0.5215711  18.6954158  )
        59           H1  tau(  59) = (   4.2099197   0.7512590  19.4668632  )

     number of k points=    10  Fermi-Dirac smearing, width (Ry)=  0.0073
                       cart. coord. in units 2pi/alat
        k(    1) = (   0.0000000   0.0000000   0.0000000), wk =   0.1250000
        k(    2) = (   0.0000000   0.0419351   0.0000000), wk =   0.2500000
        k(    3) = (   0.0000000  -0.0838702   0.0000000), wk =   0.1250000
        k(    4) = (   0.0379955   0.0000049   0.0000000), wk =   0.2500000
        k(    5) = (   0.0379955   0.0419400   0.0000000), wk =   0.2500000
        k(    6) = (   0.0379955  -0.0838652   0.0000000), wk =   0.2500000
        k(    7) = (   0.0379955  -0.0419301   0.0000000), wk =   0.2500000
        k(    8) = (  -0.0759910  -0.0000099   0.0000000), wk =   0.1250000
        k(    9) = (  -0.0759910   0.0419252   0.0000000), wk =   0.2500000
        k(   10) = (  -0.0759910  -0.0838800   0.0000000), wk =   0.1250000

     Initial potential from superposition of free atoms

     starting charge  389.99912, renormalised to  406.00000

     negative rho (up, down):  1.389E-02 0.000E+00

     %%%%%%%%%%%%%%%%%%%%%%%%%%%%%%%%%%%%%%%%%%%%%%%%%%%%%%%%%%%%%%%%%%%%%%%%
     %                                                                      %
     % You are using vdW-DF, which was implemented by the Thonhauser group. %
     % Please cite the following two papers that made this development      %
     % possible and the two reviews that describe the various versions:     %
     %                                                                      %
     %   T. Thonhauser et al., PRL 115, 136402 (2015).                      %
     %   T. Thonhauser et al., PRB 76, 125112 (2007).                       %
     %   K. Berland et al., Rep. Prog. Phys. 78, 066501 (2015).             %
     %   D.C. Langreth et al., J. Phys.: Condens. Matter 21, 084203 (2009). %
     %                                                                      %
     %                                                                      %
     % If you are calculating the stress with vdW-DF, please also cite:     %
     %                                                                      %
     %   R. Sabatini et al., J. Phys.: Condens. Matter 24, 424209 (2012).   %
     %                                                                      %
     %%%%%%%%%%%%%%%%%%%%%%%%%%%%%%%%%%%%%%%%%%%%%%%%%%%%%%%%%%%%%%%%%%%%%%%%

     Adding external electric field

     Computed dipole along edir(3) :
        Dipole              -16.7176 Ry au,        -42.4920 Debye
        Dipole field         -0.0315 Ry au,

        Potential amp.        2.9245 Ry
        Total length         46.3494 bohr

     Starting wfcs are  308 atomic wfcs
  @ DRIVER MODE: Message from server: STATUS
  @ DRIVER MODE: Message from server: POSDATA
  @ DRIVER MODE: Reading and sharing cell
  @ DRIVER MODE: Reading and sharing positions
  @ DRIVER MODE: Received positions

     Self-consistent Calculation

     iteration #  1     ecut=    29.40 Ry     beta= 0.05
     Davidson diagonalization with overlap
     c_bands:  2 eigenvalues not converged
     c_bands:  3 eigenvalues not converged
     c_bands:  2 eigenvalues not converged
     c_bands:  4 eigenvalues not converged
     c_bands:  1 eigenvalues not converged
     c_bands:  4 eigenvalues not converged
     c_bands:  3 eigenvalues not converged
     c_bands:  5 eigenvalues not converged
     c_bands:  3 eigenvalues not converged
     ethr =  1.00E-05,  avg # of iterations = 24.9

[...]

     total energy              =   -2136.66268503 Ry
     estimated scf accuracy    <    9692.88117416 Ry

     iteration #  2     ecut=    29.40 Ry     beta= 0.05
     Davidson diagonalization with overlap
     ethr =  1.00E-02,  avg # of iterations = 31.9

[...]

     iteration # 80     ecut=    29.40 Ry     beta= 0.05
     Davidson diagonalization with overlap
     c_bands:  1 eigenvalues not converged
     ethr =  2.14E-10,  avg # of iterations = 10.3

[...]

     total energy              =   -2977.68379695 Ry
     estimated scf accuracy    <       0.00000008 Ry

     iteration # 85     ecut=    29.40 Ry     beta= 0.05
     Davidson diagonalization with overlap
     ethr =  2.04E-11,  avg # of iterations = 10.4

     negative rho (up, down):  1.438E-02 0.000E+00

     Adding external electric field

     Computed dipole along edir(3) :
        Dipole                1.0172 Ry au,          2.5855 Debye
        Dipole field          0.0019 Ry au,

        Potential amp.       -0.1779 Ry
        Total length         46.3494 bohr

     End of self-consistent calculation

          k = 0.0000 0.0000 0.0000 ( 18029 PWs)   bands (ev):

   -55.3604 -55.3231 -55.3109 -55.2932 -55.2768 -55.2412 -55.2392 -55.2047
   -55.1833 -55.1821 -55.1489 -55.1431 -55.1094 -55.0183 -54.3432 -54.3091
   -31.9267 -31.8088 -31.8038 -31.7281 -31.6764 -31.6725 -31.6725 -31.6495
   -31.5997 -31.5955 -31.5725 -31.5700 -31.5559 -31.5394 -31.5304 -31.5273
   -31.5148 -31.5076 -31.4973 -31.4796 -31.4648 -31.4637 -31.4354 -31.4252
   -31.4179 -31.4139 -31.3931 -31.3858 -31.3697 -31.3682 -31.3633 -31.3544
   -31.3422 -31.3413 -31.3323 -31.3300 -31.2969 -31.2936 -31.2714 -31.2543
   -31.2306 -31.2284 -30.7527 -30.6581 -30.6360 -30.5690 -30.4822 -30.3714
   -18.0036 -17.6359 -16.1939 -15.9331 -15.7877 -15.6592 -15.5617 -15.4334
   -15.4141 -15.2922 -15.2219 -15.1180 -15.0671 -15.0486 -15.0129 -15.0027
   -14.9794 -14.9089 -14.9027 -14.8888 -14.8648 -14.8560 -14.8099 -14.8021
   -14.7609 -14.7365 -14.7121 -14.6134 -14.5233 -14.4484 -14.3407 -13.1525
   -12.8457 -12.7282  -9.3977  -6.3142  -5.8764  -5.7431  -4.2339  -3.5324
    -3.3837  -3.3145  -3.2787  -3.2533  -3.1199  -2.9627  -2.9290  -2.8077
    -2.7891  -2.6896  -2.6452  -2.5739  -2.5572  -2.5421  -2.3958  -2.3734
    -2.3479  -2.2813  -2.2543  -2.1878  -2.1659  -2.1554  -2.1456  -2.1224
    -2.0946  -2.0508  -1.9926  -1.9339  -1.8407  -1.8149  -1.7647  -1.7347
    -1.7143  -1.6972  -1.6517  -1.6407  -1.6010  -1.5867  -1.5667  -1.5524
    -1.3892  -1.3661  -1.2650  -1.2033  -1.1042  -1.0006  -0.9648  -0.9503
    -0.8533  -0.8347  -0.7819  -0.7410  -0.7385  -0.7039  -0.5921  -0.5294
    -0.4771  -0.4136  -0.3907  -0.3507  -0.2828  -0.1996  -0.1437  -0.1297
    -0.1131  -0.0966   0.0128   0.0251   0.0769   0.1516   0.1611   0.1673
     0.2414   0.2976   0.3678   0.3928   0.4105   0.5155   0.5312   0.5634
     0.5692   0.5990   0.6198   0.6449   0.7050   0.7353   0.8184   0.9402
     1.1325   1.2213   1.2486   1.3640   1.5717   1.5841   1.6797   1.8629
     2.2561   2.3045   3.7366   3.8078   3.8826   3.8867   3.9092   3.9731
     4.2098   4.2271   4.2417   4.2454   4.2694

[...]

          k = 0.0380-0.0419 0.0000 ( 17876 PWs)   bands (ev):

[...]

          k =-0.0760-0.0000 0.0000 ( 17886 PWs)   bands (ev):

[...]

          k =-0.0760-0.0839 0.0000 ( 17948 PWs)   bands (ev):

   -55.3467 -55.3365 -55.2940 -55.2936 -55.2919 -55.2336 -55.2291 -55.2167
   -55.1876 -55.1673 -55.1645 -55.1265 -55.1261 -55.0194 -54.3263 -54.3259
   -31.7348 -31.7268 -31.7244 -31.6402 -31.6206 -31.6190 -31.6188 -31.5850
   -31.5849 -31.5739 -31.5597 -31.5585 -31.5517 -31.5316 -31.5199 -31.5067
   -31.5002 -31.4970 -31.4954 -31.4941 -31.4874 -31.4800 -31.4475 -31.4400
   -31.4369 -31.4365 -31.4228 -31.4178 -31.4139 -31.4134 -31.4078 -31.4000
   -31.3977 -31.3804 -31.3774 -31.3752 -31.3601 -31.3575 -31.3078 -31.3067
   -31.3008 -31.2344 -30.6488 -30.6485 -30.5653 -30.5651 -30.5257 -30.5255
   -17.9918 -17.6447 -15.6744 -15.5895 -15.5685 -15.4134 -15.3618 -15.3353
   -15.3243 -15.2089 -15.1663 -15.1474 -15.1327 -15.1109 -15.0727 -15.0631
   -15.0562 -14.9932 -14.9729 -14.9639 -14.9380 -14.8841 -14.8765 -14.8686
   -14.8608 -14.8108 -14.8070 -14.7673 -14.7163 -14.7128 -14.6369 -13.1587
   -12.8297 -12.8297  -9.4027  -6.3371  -5.9050  -5.6596  -4.2116  -2.9420
    -2.8476  -2.8366  -2.8300  -2.6984  -2.6267  -2.5514  -2.5292  -2.5077
    -2.4216  -2.4096  -2.3790  -2.3539  -2.3239  -2.2852  -2.2471  -2.2409
    -2.2049  -2.1964  -2.1805  -2.1639  -2.1421  -2.1268  -2.0930  -2.0824
    -2.0687  -2.0249  -1.9989  -1.9847  -1.9637  -1.9434  -1.9353  -1.9169
    -1.8419  -1.7518  -1.7274  -1.6419  -1.5725  -1.5710  -1.5647  -1.5031
    -1.4597  -1.4212  -1.3963  -1.3791  -1.2394  -1.1684  -1.1243  -1.1102
    -1.0955  -0.9647  -0.9584  -0.8823  -0.8599  -0.8534  -0.7593  -0.7153
    -0.6768  -0.6699  -0.5833  -0.5710  -0.4952  -0.3968  -0.3748  -0.3610
    -0.3159  -0.3141  -0.2766  -0.2637  -0.1673  -0.1318  -0.1086  -0.0979
    -0.0811  -0.0397   0.1113   0.1603   0.1668   0.3000   0.3316   0.4702
     0.5000   0.5643   0.6441   0.6928   0.7452   0.7780   0.8648   0.9393
     0.9425   1.0058   1.0214   1.0875   1.0997   1.3700   2.0359   2.0365
     2.1243   2.1246   3.8847   3.9998   4.0034   4.0326   4.1548   4.1781
     4.2545   4.2820   4.3213   4.3246   4.3829

     the Fermi energy is     3.8007 ev

!    total energy              =   -2977.68382512 Ry
     estimated scf accuracy    <       0.00000005 Ry
     smearing contrib. (-TS)   =      -0.03717052 Ry
     internal energy E=F+TS    =   -2977.64665460 Ry

     The total energy is F=E-TS. E is the sum of the following terms:
     one-electron contribution =  -22681.84109850 Ry
     hartree contribution      =   11438.28000683 Ry
     xc contribution           =    -496.61097551 Ry
     ewald contribution        =    8762.52345998 Ry
     electric field correction =       0.00195259 Ry

     convergence has been achieved in  85 iterations

     Forces acting on atoms (cartesian axes, Ry/au):

     atom    1 type  1   force =     0.00024109   -0.00036947    0.09322155
     atom    2 type  1   force =     0.00001358   -0.00038425   -0.17817124
     atom    3 type  2   force =     0.00004970   -0.00040389   -0.02002045
     atom    4 type  2   force =     0.00000959   -0.00190182    0.05912638
     atom    5 type  2   force =    -0.01035870   -0.00058876    0.00861069
     atom    6 type  2   force =     0.01130475    0.00010138    0.00628058
     atom    7 type  1   force =    -0.00096354    0.00198359   -0.01427570
     atom    8 type  1   force =     0.00097518   -0.00256420   -0.00598346
     atom    9 type  2   force =     0.00016594   -0.00001320    0.00006989
     atom   10 type  2   force =    -0.00231000    0.00310793    0.00262143
     atom   11 type  2   force =     0.00042087   -0.00043305   -0.00057869
     atom   12 type  2   force =     0.00003120   -0.00041298   -0.00058137
     atom   13 type  1   force =     0.00034076   -0.00027393   -0.00021751
     atom   14 type  1   force =     0.00004953   -0.00009035   -0.00005773
     atom   15 type  2   force =    -0.00000048    0.00059363   -0.00006782
     atom   16 type  2   force =     0.00030815    0.00027302   -0.00014907
     atom   17 type  2   force =     0.00040091    0.00023872    0.00036684
     atom   18 type  2   force =    -0.00051214    0.00019558   -0.00010916
     atom   19 type  1   force =    -0.00012858    0.00005389    0.00034822
     atom   20 type  1   force =    -0.00009233   -0.00014101    0.00061750
     atom   21 type  2   force =     0.00011805   -0.00011270    0.10402612
     atom   22 type  2   force =     0.00015460   -0.00028025    0.00053414
     atom   23 type  2   force =    -0.07030108   -0.00019744   -0.02687497
     atom   24 type  2   force =     0.07028308    0.00024616   -0.02687485
     atom   25 type  1   force =     0.00017565   -0.00030827    0.09240107
     atom   26 type  1   force =     0.00005664   -0.00054461   -0.17850032
     atom   27 type  2   force =     0.00008205   -0.00022227   -0.01907384
     atom   28 type  2   force =     0.00005892   -0.00173178    0.05855063
     atom   29 type  2   force =    -0.01103579   -0.00114264    0.00944479
     atom   30 type  2   force =     0.01188965   -0.00069776    0.00722852
     atom   31 type  1   force =    -0.00088126    0.00644861   -0.01492315
     atom   32 type  1   force =     0.00101602    0.00221217   -0.00637348
     atom   33 type  2   force =     0.00025962    0.00009601    0.00000053
     atom   34 type  2   force =    -0.00214513   -0.00244839   -0.00031768
     atom   35 type  2   force =     0.00028518    0.00012974   -0.00001782
     atom   36 type  2   force =     0.00024685    0.00003965    0.00049968
     atom   37 type  1   force =    -0.00010447    0.00002320   -0.00004340
     atom   38 type  1   force =     0.00014917   -0.00007156   -0.00000130
     atom   39 type  2   force =    -0.00011270   -0.00021197    0.00038802
     atom   40 type  2   force =    -0.00014089    0.00008775    0.00003521
     atom   41 type  2   force =    -0.00042120    0.00014817    0.00027694
     atom   42 type  2   force =     0.00025432   -0.00009016   -0.00013979
     atom   43 type  1   force =     0.00039794    0.00030628   -0.00005613
     atom   44 type  1   force =    -0.00004014   -0.00014572    0.00001438
     atom   45 type  2   force =     0.00012358   -0.00011015    0.10396273
     atom   46 type  2   force =    -0.07026410   -0.00012785   -0.02681322
     atom   47 type  2   force =     0.07025328    0.00028119   -0.02687611
     atom   48 type  3   force =     0.00010296   -0.00048425   -0.00083429
     atom   49 type  3   force =     0.00050628   -0.00005778   -0.00076382
     atom   50 type  4   force =    -0.00574760    0.00273869    0.00272514
     atom   51 type  5   force =     0.00493415   -0.00272527   -0.00286571
     atom   52 type  5   force =    -0.00010455    0.00038700    0.00089316
     atom   53 type  5   force =    -0.00030644    0.00045611   -0.00025691
     atom   54 type  5   force =     0.00013210   -0.00011548   -0.00005487
     atom   55 type  5   force =     0.00032984    0.00043844   -0.00019679
     atom   56 type  5   force =    -0.00033559   -0.00082551    0.00058410
     atom   57 type  2   force =    -0.00101129   -0.00061883    0.00083863
     atom   58 type  5   force =     0.00008661   -0.00026340   -0.00016443
     atom   59 type  5   force =     0.00111026    0.00052406   -0.00143182

     Total force =     0.366411     Total SCF correction =     0.000562
  @ DRIVER MODE: Message from server: STATUS
  @ DRIVER MODE: Message from server: GETFORCE
  @ DRIVER MODE: Returning v,forces,stress,ensemble

     Writing output data file ./calc.save/
  @ DRIVER MODE: Message from server: EXIT
  @ DRIVE MODE: Exiting

     General routines

     Parallel routines

   This run was terminated on:  22:39:16  15Sep2021

   JOB DONE.