     Program PWSCF v.6.7GPU starts on 22Sep2021 at 22:38:10

     R & G space division:  proc/nbgrp/npool/nimage =      10
     Reading input from /storage/home/hcoda1/3/ntian30/research/carbon/CxH_vib/CH_calc/ads_slab/CHN2OH_a/out_0036/pw.inp
Warning: card &CELL ignored
Warning: card   CELL_DYNAMICS='IPI', ignored
Warning: card / ignored

     Current dimensions of program PWSCF are:
     Max number of different atomic species (ntypx) = 10
     Max number of k-points (npk) =  40000
     Max angular momentum in pseudopotentials (lmaxx) =  3
     Presently no symmetry can be used with electric field

     Message from routine cell_base_init:
     DEPRECATED: use true lattice parameter, not A to a.u. conversion factor

     IMPORTANT: XC functional enforced from input :
     Exchange-correlation= BEEF-VDW
                           (   1   4  43  14   2   0   0)
     Any further DFT definition will be discarded
     Please, verify this is what you really want

  @ DRIVER MODE: Connecting to
 qe_1139763_2934093.sched-torque.pace.gatech.eduhfcqjrp3_scratch
  using UNIX socket
  @ DRIVER MODE: Message from server: STATUS
  @ DRIVER MODE: Message from server: INIT
  @ DRIVER MODE: Receiving replica           0          -1
  @ DRIVER MODE: Receiving encoded integer          25
  @ DRIVER MODE:  SCF:  T  FORCE:  T  STRESS:  F  VC:  F  ENSEMBLE:  F
  @ DRIVER MODE:  SCF:  T  FORCE:  T  STRESS:  F  VC:  F  ENSEMBLE:  F

     Using Slab Decomposition

     bravais-lattice index     =            0
     lattice parameter (alat)  =       1.8897  a.u.
     unit-cell volume          =    6658.9804 (a.u.)^3
     number of atoms/cell      =           53
     number of atomic types    =            5
     number of electrons       =       400.00
     number of Kohn-Sham states=          210
     kinetic-energy cutoff     =      29.3995  Ry
     charge density cutoff     =     293.9946  Ry
     scf convergence threshold =      7.3E-08
     mixing beta               =       0.0500
     number of iterations used =            8  plain     mixing
     Exchange-correlation= BEEF-VDW
                           (   1   4  43  14   2   0   0)

     celldm(1)=   1.889726  celldm(2)=   0.000000  celldm(3)=   0.000000
     celldm(4)=   0.000000  celldm(5)=   0.000000  celldm(6)=   0.000000

     crystal axes: (cart. coord. in units of alat)
               a(1) = (   6.579727   0.000000   0.000000 )
               a(2) = (  -0.000775   5.961596   0.000000 )
               a(3) = (   0.000000   0.000000  25.155947 )

     reciprocal axes: (cart. coord. in units 2 pi/alat)
               b(1) = (  0.151982  0.000020  0.000000 )
               b(2) = (  0.000000  0.167740  0.000000 )
               b(3) = (  0.000000  0.000000  0.039752 )

     PseudoPot. # 1 for Ti read from file:
     /storage/coda1/p-amedford6/0/shared/rich_project_chbe-medford/medford-share/data/pseudos_module/espresso/nninc/pbe/van/Ti.UPF
     MD5 check sum: 8e4df49b7f0d34bbd5052bf3f5ea0213
     Pseudo is Ultrasoft, Zval = 12.0
     Generated by new atomic code, or converted to UPF format
     Using radial grid of  851 points,  6 beta functions with:
                l(1) =   0
                l(2) =   0
                l(3) =   1
                l(4) =   1
                l(5) =   2
                l(6) =   2
     Q(r) pseudized with  8 coefficients,  rinner =    1.000   1.000   1.000
                                                       1.000   1.000

     PseudoPot. # 2 for O  read from file:
     /storage/coda1/p-amedford6/0/shared/rich_project_chbe-medford/medford-share/data/pseudos_module/espresso/nninc/pbe/van/O.UPF
     MD5 check sum: 78c19812648e8988a0fe644b0f25305e
     Pseudo is Ultrasoft, Zval =  6.0
     Generated by new atomic code, or converted to UPF format
     Using radial grid of  737 points,  4 beta functions with:
                l(1) =   0
                l(2) =   0
                l(3) =   1
                l(4) =   1
     Q(r) pseudized with  8 coefficients,  rinner =    0.800   0.800   0.800

     PseudoPot. # 3 for N  read from file:
     /storage/coda1/p-amedford6/0/shared/rich_project_chbe-medford/medford-share/data/pseudos_module/espresso/nninc/pbe/van/N.UPF
     MD5 check sum: 90d10febe142ad51ac9d5be1deb811c4
     Pseudo is Ultrasoft, Zval =  5.0
     Generated by new atomic code, or converted to UPF format
     Using radial grid of  729 points,  4 beta functions with:
                l(1) =   0
                l(2) =   0
                l(3) =   1
                l(4) =   1
     Q(r) pseudized with  8 coefficients,  rinner =    0.800   0.800   0.800

     PseudoPot. # 4 for C  read from file:
     /storage/coda1/p-amedford6/0/shared/rich_project_chbe-medford/medford-share/data/pseudos_module/espresso/nninc/pbe/van/C.UPF
     MD5 check sum: 1a69bf6b8db32088f5b2163dbdb77a27
     Pseudo is Ultrasoft, Zval =  4.0
     Generated by new atomic code, or converted to UPF format
     Using radial grid of  721 points,  4 beta functions with:
                l(1) =   0
                l(2) =   0
                l(3) =   1
                l(4) =   1
     Q(r) pseudized with  8 coefficients,  rinner =    0.800   0.800   0.800

     PseudoPot. # 5 for H  read from file:
     /storage/coda1/p-amedford6/0/shared/rich_project_chbe-medford/medford-share/data/pseudos_module/espresso/nninc/pbe/van/H.UPF
     MD5 check sum: b5ee9d7bfd3a09ee7748110bda690ff7
     Pseudo is Ultrasoft, Zval =  1.0
     Generated by new atomic code, or converted to UPF format
     Using radial grid of  615 points,  1 beta functions with:
                l(1) =   0
     Q(r) pseudized with  8 coefficients,  rinner =    0.800

     atomic species   valence    mass     pseudopotential
        Ti1           12.00    47.86700     Ti( 1.00)
        O1             6.00    15.99900     O ( 1.00)
        N1             5.00    14.00700     N ( 1.00)
        C1             4.00    12.01100     C ( 1.00)
        H1             1.00     1.00800     H ( 1.00)

     No symmetry found

   Cartesian axes

     site n.     atom                  positions (alat units)
         1           Ti1 tau(   1) = (   0.0004258   2.9801865   6.0000000  )
         2           Ti1 tau(   2) = (   3.2906075   1.4906267   6.0002472  )
         3           O1  tau(   3) = (   0.0006271   0.0005054   7.9858123  )
         4           O1  tau(   4) = (   3.2906025   0.0005020   7.3038282  )
         5           O1  tau(   5) = (   4.5942328   1.4918067   9.2879030  )
         6           O1  tau(   6) = (   1.9868534   1.4903216   9.2879459  )
         7           Ti1 tau(   7) = (   3.2907910   2.8959150   9.1758416  )
         8           Ti1 tau(   8) = (   0.0015273   1.4827037   9.2680791  )
         9           O1  tau(   9) = (   3.2947431   5.9554071  11.2675382  )
        10           O1  tau(  10) = (   0.0116148   5.9584955  10.6183126  )
        11           O1  tau(  11) = (   1.2939190   1.5012022  12.6324650  )
        12           O1  tau(  12) = (   5.3075194   1.4952059  12.6199201  )
        13           Ti1 tau(  13) = (   0.0106221   2.8553259  12.7114016  )
        14           Ti1 tau(  14) = (   3.3038960   1.3182849  12.6556579  )
        15           O1  tau(  15) = (   6.5780848   0.0092190  14.6493773  )
        16           O1  tau(  16) = (   3.3025004   0.0387551  13.8658611  )
        17           O1  tau(  17) = (   4.5583283   1.5306594  16.0644060  )
        18           O1  tau(  18) = (   2.0361898   1.5392772  16.0217891  )
        19           Ti1 tau(  19) = (   3.3091865   3.0111069  15.6373089  )
        20           Ti1 tau(  20) = (   0.0377650   1.3505479  16.0707495  )
        21           O1  tau(  21) = (   3.2904802   0.0005063   4.7018136  )
        22           O1  tau(  22) = (   0.0439016   5.9493915  17.1867805  )
        23           O1  tau(  23) = (   1.3043587   1.4918075   6.0039043  )
        24           O1  tau(  24) = (   5.2767064   1.4903225   6.0039473  )
        25           Ti1 tau(  25) = (   0.0000382   5.9609847   6.0000000  )
        26           Ti1 tau(  26) = (   3.2902200   4.4714249   6.0002472  )
        27           O1  tau(  27) = (   0.0002396   2.9813036   7.9858123  )
        28           O1  tau(  28) = (   3.2902150   2.9813002   7.3038282  )
        29           O1  tau(  29) = (   4.5938453   4.4726049   9.2879030  )
        30           O1  tau(  30) = (   1.9864658   4.4711199   9.2879459  )
        31           Ti1 tau(  31) = (   3.2891106   5.8743827   9.1763621  )
        32           Ti1 tau(  32) = (   0.0006254   4.4649316   9.2693709  )
        33           O1  tau(  33) = (   3.2958776   3.0336607  11.2353185  )
        34           O1  tau(  34) = (   0.0092240   2.9805883  10.6323155  )
        35           O1  tau(  35) = (   1.3000586   4.4853303  12.6229424  )
        36           O1  tau(  36) = (   5.2993189   4.4901910  12.6110906  )
        37           Ti1 tau(  37) = (   0.0093010   5.8444503  12.6145921  )
        38           Ti1 tau(  38) = (   3.2999333   4.4129019  12.4053696  )
        39           O1  tau(  39) = (   6.5685983   3.0141634  14.6646344  )
        40           O1  tau(  40) = (   3.3157979   2.9893391  13.8470085  )
        41           O1  tau(  41) = (   4.5469136   4.4558096  16.0384726  )
        42           O1  tau(  42) = (   2.0285042   4.4377151  15.9822253  )
        43           Ti1 tau(  43) = (   3.3362675   0.0317196  16.2890182  )
        44           Ti1 tau(  44) = (   0.0499865   4.4862307  15.8577502  )
        45           O1  tau(  45) = (   3.2900926   2.9813045   4.7018136  )
        46           O1  tau(  46) = (   1.3039711   4.4726057   6.0039043  )
        47           O1  tau(  47) = (   5.2763189   4.4711207   6.0039473  )
        48           N1  tau(  48) = (   0.0045878   3.1533891  18.5964175  )
        49           N1  tau(  49) = (   0.0147781   3.0160983  17.3860304  )
        50           C1  tau(  50) = (   0.1535999   3.3096653  19.7680592  )
        51           H1  tau(  51) = (   6.1193577   3.4501394  20.6313668  )
        52           O1  tau(  52) = (   3.1701150   5.9596689  18.1025665  )
        53           H1  tau(  53) = (   2.2867615   0.0439400  18.5118857  )

     number of k points=    10  Fermi-Dirac smearing, width (Ry)=  0.0073
                       cart. coord. in units 2pi/alat
        k(    1) = (   0.0000000   0.0000000   0.0000000), wk =   0.1250000
        k(    2) = (   0.0000000   0.0419351   0.0000000), wk =   0.2500000
        k(    3) = (   0.0000000  -0.0838702   0.0000000), wk =   0.1250000
        k(    4) = (   0.0379955   0.0000049   0.0000000), wk =   0.2500000
        k(    5) = (   0.0379955   0.0419400   0.0000000), wk =   0.2500000
        k(    6) = (   0.0379955  -0.0838652   0.0000000), wk =   0.2500000
        k(    7) = (   0.0379955  -0.0419301   0.0000000), wk =   0.2500000
        k(    8) = (  -0.0759910  -0.0000099   0.0000000), wk =   0.1250000
        k(    9) = (  -0.0759910   0.0419252   0.0000000), wk =   0.2500000
        k(   10) = (  -0.0759910  -0.0838800   0.0000000), wk =   0.1250000

     Initial potential from superposition of free atoms

     starting charge  383.99917, renormalised to  400.00000

     negative rho (up, down):  1.461E-02 0.000E+00

     %%%%%%%%%%%%%%%%%%%%%%%%%%%%%%%%%%%%%%%%%%%%%%%%%%%%%%%%%%%%%%%%%%%%%%%%
     %                                                                      %
     % You are using vdW-DF, which was implemented by the Thonhauser group. %
     % Please cite the following two papers that made this development      %
     % possible and the two reviews that describe the various versions:     %
     %                                                                      %
     %   T. Thonhauser et al., PRL 115, 136402 (2015).                      %
     %   T. Thonhauser et al., PRB 76, 125112 (2007).                       %
     %   K. Berland et al., Rep. Prog. Phys. 78, 066501 (2015).             %
     %   D.C. Langreth et al., J. Phys.: Condens. Matter 21, 084203 (2009). %
     %                                                                      %
     %                                                                      %
     % If you are calculating the stress with vdW-DF, please also cite:     %
     %                                                                      %
     %   R. Sabatini et al., J. Phys.: Condens. Matter 24, 424209 (2012).   %
     %                                                                      %
     %%%%%%%%%%%%%%%%%%%%%%%%%%%%%%%%%%%%%%%%%%%%%%%%%%%%%%%%%%%%%%%%%%%%%%%%

     Adding external electric field

     Computed dipole along edir(3) :
        Dipole              -10.4159 Ry au,        -26.4745 Debye
        Dipole field         -0.0197 Ry au,

        Potential amp.        1.8221 Ry
        Total length         46.3494 bohr

     Starting wfcs are  302 atomic wfcs
  @ DRIVER MODE: Message from server: STATUS
  @ DRIVER MODE: Message from server: POSDATA
  @ DRIVER MODE: Reading and sharing cell
  @ DRIVER MODE: Reading and sharing positions
  @ DRIVER MODE: Received positions

     Self-consistent Calculation

     iteration #  1     ecut=    29.40 Ry     beta= 0.05
     Davidson diagonalization with overlap
     c_bands:  1 eigenvalues not converged
     c_bands:  1 eigenvalues not converged
     c_bands:  1 eigenvalues not converged
     c_bands:  1 eigenvalues not converged
     c_bands:  3 eigenvalues not converged
     c_bands:  2 eigenvalues not converged
     c_bands:  3 eigenvalues not converged
     c_bands:  2 eigenvalues not converged
     c_bands:  4 eigenvalues not converged
     c_bands:  2 eigenvalues not converged
     ethr =  1.00E-05,  avg # of iterations = 20.0

[...]

     total energy              =   -2482.20540035 Ry
     estimated scf accuracy    <    5431.43914256 Ry

     iteration #  2     ecut=    29.40 Ry     beta= 0.05
     Davidson diagonalization with overlap
     ethr =  1.00E-02,  avg # of iterations = 22.9

[...]

     iteration # 40     ecut=    29.40 Ry     beta= 0.05
     Davidson diagonalization with overlap
     c_bands:  1 eigenvalues not converged
     ethr =  7.10E-07,  avg # of iterations =  3.1

[...]

     total energy              =   -2970.22398359 Ry
     estimated scf accuracy    <       0.00000012 Ry

     iteration # 64     ecut=    29.40 Ry     beta= 0.05
     Davidson diagonalization with overlap
     ethr =  2.97E-11,  avg # of iterations =  4.8

     negative rho (up, down):  1.522E-02 0.000E+00

     Adding external electric field

     Computed dipole along edir(3) :
        Dipole                0.3105 Ry au,          0.7893 Debye
        Dipole field          0.0006 Ry au,

        Potential amp.       -0.0543 Ry
        Total length         46.3494 bohr

     End of self-consistent calculation

          k = 0.0000 0.0000 0.0000 ( 18029 PWs)   bands (ev):

   -56.8410 -56.8074 -56.0003 -55.9652 -55.7409 -55.6765 -55.4102 -55.3857
   -55.3763 -55.3702 -55.3057 -55.2536 -55.2510 -55.2410 -55.0604 -55.0527
   -33.2625 -33.1163 -33.0883 -33.0167 -32.9262 -32.8892 -32.4847 -32.2210
   -32.2188 -32.1903 -32.1413 -32.1393 -32.1106 -31.9725 -31.9604 -31.9080
   -31.8815 -31.8664 -31.8408 -31.7914 -31.7563 -31.7393 -31.7341 -31.7319
   -31.7178 -31.6532 -31.6490 -31.6191 -31.6151 -31.6044 -31.5964 -31.5346
   -31.5224 -31.5044 -31.5022 -31.4775 -31.4730 -31.4560 -31.4445 -31.4229
   -31.4156 -31.3957 -31.3208 -31.3038 -31.3033 -31.2714 -31.2694 -31.2574
   -19.0023 -16.9621 -16.4381 -16.1687 -16.1586 -16.0750 -16.0463 -16.0348
   -15.9527 -15.7598 -15.6979 -15.6259 -15.6033 -15.5098 -15.3854 -15.2888
   -15.1591 -15.0840 -15.0206 -15.0114 -15.0010 -14.9810 -14.8672 -14.8626
   -14.8582 -14.8150 -14.7699 -14.6114 -14.5232 -14.3623 -14.3295 -13.9078
   -13.8004 -13.6269  -6.2847  -5.0462  -4.5316  -3.9448  -3.9106  -3.8377
    -3.7372  -3.5739  -3.5668  -3.4379  -3.3712  -3.2476  -3.2370  -3.2210
    -3.1528  -3.1353  -2.9886  -2.9399  -2.9243  -2.8195  -2.7887  -2.6354
    -2.6090  -2.5143  -2.4650  -2.4310  -2.3752  -2.3486  -2.2735  -2.2667
    -2.2476  -2.1607  -2.1600  -2.1271  -2.0486  -2.0358  -1.9672  -1.9196
    -1.8811  -1.8217  -1.7960  -1.7230  -1.7196  -1.5977  -1.5165  -1.4749
    -1.4315  -1.4227  -1.3625  -1.3070  -1.1972  -1.1713  -1.0815  -1.0360
    -1.0233  -0.9728  -0.8841  -0.8558  -0.7873  -0.7148  -0.6969  -0.6101
    -0.5811  -0.5586  -0.4524  -0.4329  -0.3787  -0.3528  -0.3220  -0.3094
    -0.2318  -0.1130  -0.1004  -0.0326   0.0142   0.0417   0.1341   0.2259
     0.2733   0.3235   0.3533   0.3713   0.4481   0.4750   0.4972   0.5491
     0.5786   0.6114   0.6170   0.7209   0.7519   0.8149   0.8743   0.8932
     1.0024   1.0410   1.0994   1.1484   1.1894   1.5323   1.6351   1.8786
     2.4467   2.6131   2.8892   3.0217   3.3464   3.4332   3.4415   3.4475
     3.6850   3.8218

[...]

          k = 0.0380-0.0419 0.0000 ( 17876 PWs)   bands (ev):

[...]

          k =-0.0760-0.0000 0.0000 ( 17886 PWs)   bands (ev):

[...]

          k =-0.0760-0.0839 0.0000 ( 17948 PWs)   bands (ev):

   -56.8247 -56.8236 -55.9880 -55.9774 -55.7360 -55.6812 -55.3938 -55.3925
   -55.3817 -55.3687 -55.3094 -55.2522 -55.2494 -55.2425 -55.0617 -55.0541
   -33.1026 -33.1015 -33.0802 -33.0790 -32.9704 -32.9697 -32.3094 -32.3009
   -32.1830 -32.1709 -32.1681 -32.1611 -32.0432 -31.9995 -31.9659 -31.9566
   -31.9090 -31.9038 -31.7453 -31.7445 -31.7132 -31.6603 -31.6576 -31.6497
   -31.6417 -31.6289 -31.6146 -31.6129 -31.6072 -31.6006 -31.5867 -31.5759
   -31.5751 -31.5740 -31.5452 -31.5192 -31.5053 -31.4935 -31.4587 -31.4518
   -31.4471 -31.4407 -31.4092 -31.3770 -31.3255 -31.2925 -31.2734 -31.2600
   -18.9997 -16.3283 -16.3256 -16.2703 -16.2687 -16.1360 -16.0290 -16.0234
   -15.7756 -15.7458 -15.5502 -15.5102 -15.4612 -15.4075 -15.3690 -15.3670
   -15.2283 -15.2169 -15.1128 -15.0337 -15.0119 -14.9796 -14.9683 -14.9473
   -14.9413 -14.8693 -14.7854 -14.7226 -14.7091 -14.5400 -14.4630 -13.9050
   -13.9042 -13.6314  -6.2833  -5.0144  -3.9454  -3.7648  -3.5976  -3.3934
    -3.3910  -3.3860  -3.3781  -3.1492  -3.1386  -2.9648  -2.9583  -2.9326
    -2.8716  -2.8599  -2.7535  -2.6851  -2.6798  -2.6705  -2.6454  -2.6195
    -2.6138  -2.5500  -2.4929  -2.3858  -2.3622  -2.3271  -2.3070  -2.2931
    -2.1737  -2.1471  -2.1360  -2.1068  -2.0916  -2.0783  -2.0414  -2.0170
    -1.8635  -1.8256  -1.7171  -1.7025  -1.6824  -1.6388  -1.6216  -1.6007
    -1.5745  -1.5401  -1.5356  -1.4493  -1.4255  -1.3684  -1.2854  -1.2079
    -1.1587  -1.1471  -1.0851  -1.0329  -0.9236  -0.8996  -0.8640  -0.8434
    -0.8156  -0.7571  -0.7266  -0.6208  -0.5362  -0.5051  -0.4841  -0.4787
    -0.4438  -0.4099  -0.3882  -0.2739  -0.2616  -0.2471  -0.1484  -0.0535
     0.0307   0.0909   0.1059   0.1845   0.2808   0.3250   0.3904   0.4552
     0.4979   0.5115   0.6843   0.7331   0.8562   0.8804   0.9119   0.9743
     0.9878   0.9923   1.0146   1.0239   1.0527   1.1319   1.5549   1.7939
     3.0339   3.0367   3.0929   3.0991   3.4027   3.4062   3.5115   3.5141
     3.7964   3.8079

     the Fermi energy is     2.2224 ev

!    total energy              =   -2970.22402678 Ry
     estimated scf accuracy    <       0.00000004 Ry
     smearing contrib. (-TS)   =      -0.00327414 Ry
     internal energy E=F+TS    =   -2970.22075264 Ry

     The total energy is F=E-TS. E is the sum of the following terms:
     one-electron contribution =  -23874.40389350 Ry
     hartree contribution      =   12028.40162591 Ry
     xc contribution           =    -491.45505933 Ry
     ewald contribution        =    9367.23639229 Ry
     electric field correction =       0.00018199 Ry

     convergence has been achieved in  64 iterations

     Forces acting on atoms (cartesian axes, Ry/au):

     atom    1 type  1   force =     0.00006156   -0.00041987    0.12340988
     atom    2 type  1   force =    -0.00004060    0.00025164   -0.15537498
     atom    3 type  2   force =     0.00000923   -0.00007130   -0.06316817
     atom    4 type  2   force =     0.00000831    0.00024082    0.01791431
     atom    5 type  2   force =    -0.00300875   -0.00167581   -0.01289071
     atom    6 type  2   force =     0.00469003   -0.00105643   -0.01336410
     atom    7 type  1   force =    -0.00007208   -0.00670841    0.05748626
     atom    8 type  1   force =     0.00033382    0.01201784    0.09290885
     atom    9 type  2   force =    -0.00005454   -0.00006857   -0.00011692
     atom   10 type  2   force =    -0.00146713    0.00206416   -0.05864908
     atom   11 type  2   force =    -0.00001237    0.00037009   -0.00011250
     atom   12 type  2   force =    -0.00008535    0.00059075   -0.00005002
     atom   13 type  1   force =    -0.00017552    0.00091432   -0.00015493
     atom   14 type  1   force =    -0.00006937    0.00068528   -0.00043835
     atom   15 type  2   force =     0.00000983   -0.00067058   -0.00055825
     atom   16 type  2   force =    -0.00013224    0.00008489   -0.00100964
     atom   17 type  2   force =    -0.00004429   -0.00047474   -0.00032062
     atom   18 type  2   force =    -0.00007152    0.00047661   -0.00048986
     atom   19 type  1   force =     0.00034180   -0.00025212    0.00121558
     atom   20 type  1   force =    -0.00033762    0.00060852    0.00031750
     atom   21 type  2   force =     0.00003141    0.00021222    0.09797967
     atom   22 type  2   force =     0.00036043   -0.00009719    0.00079664
     atom   23 type  2   force =    -0.08221357    0.00004286   -0.03276261
     atom   24 type  2   force =     0.08209649    0.00048136   -0.03283451
     atom   25 type  1   force =     0.00009396   -0.00060157    0.12342803
     atom   26 type  1   force =    -0.00015843   -0.00150578   -0.15594068
     atom   27 type  2   force =     0.00006959   -0.00069404   -0.06139035
     atom   28 type  2   force =     0.00001979    0.00205845    0.01317626
     atom   29 type  2   force =    -0.00129054    0.00546904   -0.01606608
     atom   30 type  2   force =     0.00296061    0.00580120   -0.01651365
     atom   31 type  1   force =    -0.00011191    0.00212083    0.04132226
     atom   32 type  1   force =     0.00053317   -0.01544960    0.09259750
     atom   33 type  2   force =    -0.00021129   -0.00073662   -0.00057521
     atom   34 type  2   force =    -0.00141064    0.00202756   -0.07250974
     atom   35 type  2   force =     0.00020001   -0.00080846    0.00004447
     atom   36 type  2   force =    -0.00024207   -0.00091988    0.00009227
     atom   37 type  1   force =    -0.00023225   -0.00111350   -0.00023149
     atom   38 type  1   force =    -0.00008210   -0.00152663    0.00070296
     atom   39 type  2   force =     0.00035192   -0.00049098    0.00001778
     atom   40 type  2   force =    -0.00003555   -0.00068885   -0.00134441
     atom   41 type  2   force =     0.00033524    0.00020283    0.00011869
     atom   42 type  2   force =    -0.00003087    0.00028762    0.00057416
     atom   43 type  1   force =    -0.00055585   -0.00001825    0.00138599
     atom   44 type  1   force =    -0.00021332    0.00027703   -0.00080272
     atom   45 type  2   force =     0.00002600    0.00002602    0.09775943
     atom   46 type  2   force =    -0.08228189   -0.00001271   -0.03279410
     atom   47 type  2   force =     0.08213395    0.00043520   -0.03281213
     atom   48 type  3   force =    -0.00049942   -0.00053359    0.00007121
     atom   49 type  3   force =     0.00031696    0.00055808    0.00067864
     atom   50 type  4   force =     0.00119781    0.00021876   -0.00118534
     atom   51 type  5   force =    -0.00124841   -0.00053940    0.00103321
     atom   52 type  2   force =    -0.00724500   -0.00006684    0.00334831
     atom   53 type  5   force =     0.00745256   -0.00132226   -0.00391868

     Total force =     0.412518     Total SCF correction =     0.000455
  @ DRIVER MODE: Message from server: STATUS
  @ DRIVER MODE: Message from server: GETFORCE
  @ DRIVER MODE: Returning v,forces,stress,ensemble

     Writing output data file ./calc.save/
  @ DRIVER MODE: Message from server: EXIT
  @ DRIVE MODE: Exiting

     General routines

     Parallel routines

   This run was terminated on:  22:56:47  22Sep2021

   JOB DONE.