     Program PWSCF v.6.7GPU starts on 15Sep2021 at 16:55:27

     R & G space division:  proc/nbgrp/npool/nimage =      10
     Reading input from /storage/home/hcoda1/3/ntian30/research/carbon/CxH_vib/H2O_calc/ads_slab/CH2NHHH2O_a/out_0004/pw.inp
Warning: card &CELL ignored
Warning: card   CELL_DYNAMICS='IPI', ignored
Warning: card / ignored

     Current dimensions of program PWSCF are:
     Max number of different atomic species (ntypx) = 10
     Max number of k-points (npk) =  40000
     Max angular momentum in pseudopotentials (lmaxx) =  3
     Presently no symmetry can be used with electric field

     Message from routine cell_base_init:
     DEPRECATED: use true lattice parameter, not A to a.u. conversion factor

     IMPORTANT: XC functional enforced from input :
     Exchange-correlation= BEEF-VDW
                           (   1   4  43  14   2   0   0)
     Any further DFT definition will be discarded
     Please, verify this is what you really want

  @ DRIVER MODE: Connecting to
 qe_1139763_2852609.sched-torque.pace.gatech.edum68wh67w_scratch
  using UNIX socket
  @ DRIVER MODE: Message from server: STATUS
  @ DRIVER MODE: Message from server: INIT
  @ DRIVER MODE: Receiving replica           0          -1
  @ DRIVER MODE: Receiving encoded integer          25
  @ DRIVER MODE:  SCF:  T  FORCE:  T  STRESS:  F  VC:  F  ENSEMBLE:  F
  @ DRIVER MODE:  SCF:  T  FORCE:  T  STRESS:  F  VC:  F  ENSEMBLE:  F

     Using Slab Decomposition

     bravais-lattice index     =            0
     lattice parameter (alat)  =       1.8897  a.u.
     unit-cell volume          =    6658.9804 (a.u.)^3
     number of atoms/cell      =           56
     number of atomic types    =            5
     number of electrons       =       399.00
     number of Kohn-Sham states=          209
     kinetic-energy cutoff     =      29.3995  Ry
     charge density cutoff     =     293.9946  Ry
     scf convergence threshold =      7.3E-08
     mixing beta               =       0.0500
     number of iterations used =            8  plain     mixing
     Exchange-correlation= BEEF-VDW
                           (   1   4  43  14   2   0   0)

     celldm(1)=   1.889726  celldm(2)=   0.000000  celldm(3)=   0.000000
     celldm(4)=   0.000000  celldm(5)=   0.000000  celldm(6)=   0.000000

     crystal axes: (cart. coord. in units of alat)
               a(1) = (   6.579727   0.000000   0.000000 )
               a(2) = (  -0.000775   5.961596   0.000000 )
               a(3) = (   0.000000   0.000000  25.155947 )

     reciprocal axes: (cart. coord. in units 2 pi/alat)
               b(1) = (  0.151982  0.000020  0.000000 )
               b(2) = (  0.000000  0.167740  0.000000 )
               b(3) = (  0.000000  0.000000  0.039752 )

     PseudoPot. # 1 for Ti read from file:
     /storage/coda1/p-amedford6/0/shared/rich_project_chbe-medford/medford-share/data/pseudos_module/espresso/nninc/pbe/van/Ti.UPF
     MD5 check sum: 8e4df49b7f0d34bbd5052bf3f5ea0213
     Pseudo is Ultrasoft, Zval = 12.0
     Generated by new atomic code, or converted to UPF format
     Using radial grid of  851 points,  6 beta functions with:
                l(1) =   0
                l(2) =   0
                l(3) =   1
                l(4) =   1
                l(5) =   2
                l(6) =   2
     Q(r) pseudized with  8 coefficients,  rinner =    1.000   1.000   1.000
                                                       1.000   1.000

     PseudoPot. # 2 for O  read from file:
     /storage/coda1/p-amedford6/0/shared/rich_project_chbe-medford/medford-share/data/pseudos_module/espresso/nninc/pbe/van/O.UPF
     MD5 check sum: 78c19812648e8988a0fe644b0f25305e
     Pseudo is Ultrasoft, Zval =  6.0
     Generated by new atomic code, or converted to UPF format
     Using radial grid of  737 points,  4 beta functions with:
                l(1) =   0
                l(2) =   0
                l(3) =   1
                l(4) =   1
     Q(r) pseudized with  8 coefficients,  rinner =    0.800   0.800   0.800

     PseudoPot. # 3 for N  read from file:
     /storage/coda1/p-amedford6/0/shared/rich_project_chbe-medford/medford-share/data/pseudos_module/espresso/nninc/pbe/van/N.UPF
     MD5 check sum: 90d10febe142ad51ac9d5be1deb811c4
     Pseudo is Ultrasoft, Zval =  5.0
     Generated by new atomic code, or converted to UPF format
     Using radial grid of  729 points,  4 beta functions with:
                l(1) =   0
                l(2) =   0
                l(3) =   1
                l(4) =   1
     Q(r) pseudized with  8 coefficients,  rinner =    0.800   0.800   0.800

     PseudoPot. # 4 for C  read from file:
     /storage/coda1/p-amedford6/0/shared/rich_project_chbe-medford/medford-share/data/pseudos_module/espresso/nninc/pbe/van/C.UPF
     MD5 check sum: 1a69bf6b8db32088f5b2163dbdb77a27
     Pseudo is Ultrasoft, Zval =  4.0
     Generated by new atomic code, or converted to UPF format
     Using radial grid of  721 points,  4 beta functions with:
                l(1) =   0
                l(2) =   0
                l(3) =   1
                l(4) =   1
     Q(r) pseudized with  8 coefficients,  rinner =    0.800   0.800   0.800

     PseudoPot. # 5 for H  read from file:
     /storage/coda1/p-amedford6/0/shared/rich_project_chbe-medford/medford-share/data/pseudos_module/espresso/nninc/pbe/van/H.UPF
     MD5 check sum: b5ee9d7bfd3a09ee7748110bda690ff7
     Pseudo is Ultrasoft, Zval =  1.0
     Generated by new atomic code, or converted to UPF format
     Using radial grid of  615 points,  1 beta functions with:
                l(1) =   0
     Q(r) pseudized with  8 coefficients,  rinner =    0.800

     atomic species   valence    mass     pseudopotential
        Ti1           12.00    47.86700     Ti( 1.00)
        O1             6.00    15.99900     O ( 1.00)
        N1             5.00    14.00700     N ( 1.00)
        C1             4.00    12.01100     C ( 1.00)
        H1             1.00     1.00800     H ( 1.00)

     No symmetry found

   Cartesian axes

     site n.     atom                  positions (alat units)
         1           Ti1 tau(   1) = (   0.0004258   2.9801865   6.0000000  )
         2           Ti1 tau(   2) = (   3.2906075   1.4906267   6.0002472  )
         3           O1  tau(   3) = (   0.0006271   0.0005054   7.9858123  )
         4           O1  tau(   4) = (   3.2906025   0.0005020   7.3038282  )
         5           O1  tau(   5) = (   4.5942328   1.4918067   9.2879030  )
         6           O1  tau(   6) = (   1.9868534   1.4903216   9.2879459  )
         7           Ti1 tau(   7) = (   3.2907910   2.8959150   9.1758416  )
         8           Ti1 tau(   8) = (   0.0015273   1.4827037   9.2680791  )
         9           O1  tau(   9) = (   3.2861202   0.0128588  11.3777969  )
        10           O1  tau(  10) = (   0.0116148   5.9584955  10.6183126  )
        11           O1  tau(  11) = (   1.2831632   1.4993340  12.6921085  )
        12           O1  tau(  12) = (   5.2921761   1.5015178  12.6679780  )
        13           Ti1 tau(  13) = (   0.0111066   2.9912061  12.5123142  )
        14           Ti1 tau(  14) = (   3.3187119   1.4875497  12.5412637  )
        15           O1  tau(  15) = (   6.5416963   5.9006142  14.6662030  )
        16           O1  tau(  16) = (   3.3066524   0.0016155  14.0179881  )
        17           O1  tau(  17) = (   4.5377470   1.5714702  16.1207712  )
        18           O1  tau(  18) = (   1.9925948   1.5577299  16.0387284  )
        19           Ti1 tau(  19) = (   3.2598466   3.0207798  15.7337896  )
        20           Ti1 tau(  20) = (   0.0086319   1.3133152  15.8444473  )
        21           O1  tau(  21) = (   3.2904802   0.0005063   4.7018136  )
        22           O1  tau(  22) = (   6.5660721   0.1678205  17.2271563  )
        23           O1  tau(  23) = (   1.3043587   1.4918075   6.0039043  )
        24           O1  tau(  24) = (   5.2767064   1.4903225   6.0039473  )
        25           Ti1 tau(  25) = (   0.0000382   5.9609847   6.0000000  )
        26           Ti1 tau(  26) = (   3.2902200   4.4714249   6.0002472  )
        27           O1  tau(  27) = (   0.0002396   2.9813036   7.9858123  )
        28           O1  tau(  28) = (   3.2902150   2.9813002   7.3038282  )
        29           O1  tau(  29) = (   4.5938453   4.4726049   9.2879030  )
        30           O1  tau(  30) = (   1.9864658   4.4711199   9.2879459  )
        31           Ti1 tau(  31) = (   3.2891106   5.8743827   9.1763621  )
        32           Ti1 tau(  32) = (   0.0006254   4.4649316   9.2693709  )
        33           O1  tau(  33) = (   3.2870289   2.9785969  11.3746142  )
        34           O1  tau(  34) = (   0.0092240   2.9805883  10.6323155  )
        35           O1  tau(  35) = (   1.2865429   4.4729593  12.6568099  )
        36           O1  tau(  36) = (   5.2907978   4.4713399  12.6331247  )
        37           Ti1 tau(  37) = (   0.0245089   0.0029545  12.5000319  )
        38           Ti1 tau(  38) = (   3.3192338   4.4773935  12.5310228  )
        39           O1  tau(  39) = (   6.5398775   3.0461246  14.9162120  )
        40           O1  tau(  40) = (   3.2968145   3.0151409  13.9465962  )
        41           O1  tau(  41) = (   4.5189833   4.4812017  16.2068643  )
        42           O1  tau(  42) = (   1.9905864   4.4756957  16.1679402  )
        43           Ti1 tau(  43) = (   3.3140030   0.0507474  15.8534526  )
        44           Ti1 tau(  44) = (   0.0184218   4.5194176  15.9927436  )
        45           O1  tau(  45) = (   3.2900926   2.9813045   4.7018136  )
        46           O1  tau(  46) = (   1.3039711   4.4726057   6.0039043  )
        47           O1  tau(  47) = (   5.2763189   4.4711207   6.0039473  )
        48           N1  tau(  48) = (   6.2908993   3.4394391  18.1752670  )
        49           C1  tau(  49) = (   0.7550536   3.1452864  19.0745941  )
        50           H1  tau(  50) = (   1.1396299   3.9643166  19.6610198  )
        51           H1  tau(  51) = (   1.3301158   2.2513941  18.9084762  )
        52           H1  tau(  52) = (   5.7550451   4.2450011  18.4501662  )
        53           H1  tau(  53) = (   5.6463078   2.6497838  18.0429669  )
        54           O1  tau(  54) = (   3.1180431   0.1968263  18.2683150  )
        55           H1  tau(  55) = (   3.8687171   5.7182160  18.6922429  )
        56           H1  tau(  56) = (   2.3371514   5.6040609  18.4451484  )

     number of k points=    10  Fermi-Dirac smearing, width (Ry)=  0.0073
                       cart. coord. in units 2pi/alat
        k(    1) = (   0.0000000   0.0000000   0.0000000), wk =   0.1250000
        k(    2) = (   0.0000000   0.0419351   0.0000000), wk =   0.2500000
        k(    3) = (   0.0000000  -0.0838702   0.0000000), wk =   0.1250000
        k(    4) = (   0.0379955   0.0000049   0.0000000), wk =   0.2500000
        k(    5) = (   0.0379955   0.0419400   0.0000000), wk =   0.2500000
        k(    6) = (   0.0379955  -0.0838652   0.0000000), wk =   0.2500000
        k(    7) = (   0.0379955  -0.0419301   0.0000000), wk =   0.2500000
        k(    8) = (  -0.0759910  -0.0000099   0.0000000), wk =   0.1250000
        k(    9) = (  -0.0759910   0.0419252   0.0000000), wk =   0.2500000
        k(   10) = (  -0.0759910  -0.0838800   0.0000000), wk =   0.1250000

     Initial potential from superposition of free atoms

     starting charge  382.99914, renormalised to  399.00000

     negative rho (up, down):  1.614E-02 0.000E+00

     %%%%%%%%%%%%%%%%%%%%%%%%%%%%%%%%%%%%%%%%%%%%%%%%%%%%%%%%%%%%%%%%%%%%%%%%
     %                                                                      %
     % You are using vdW-DF, which was implemented by the Thonhauser group. %
     % Please cite the following two papers that made this development      %
     % possible and the two reviews that describe the various versions:     %
     %                                                                      %
     %   T. Thonhauser et al., PRL 115, 136402 (2015).                      %
     %   T. Thonhauser et al., PRB 76, 125112 (2007).                       %
     %   K. Berland et al., Rep. Prog. Phys. 78, 066501 (2015).             %
     %   D.C. Langreth et al., J. Phys.: Condens. Matter 21, 084203 (2009). %
     %                                                                      %
     %                                                                      %
     % If you are calculating the stress with vdW-DF, please also cite:     %
     %                                                                      %
     %   R. Sabatini et al., J. Phys.: Condens. Matter 24, 424209 (2012).   %
     %                                                                      %
     %%%%%%%%%%%%%%%%%%%%%%%%%%%%%%%%%%%%%%%%%%%%%%%%%%%%%%%%%%%%%%%%%%%%%%%%

     Adding external electric field

     Computed dipole along edir(3) :
        Dipole              -11.3169 Ry au,        -28.7647 Debye
        Dipole field         -0.0214 Ry au,

        Potential amp.        1.9797 Ry
        Total length         46.3494 bohr

     Starting wfcs are  302 atomic wfcs
  @ DRIVER MODE: Message from server: STATUS
  @ DRIVER MODE: Message from server: POSDATA
  @ DRIVER MODE: Reading and sharing cell
  @ DRIVER MODE: Reading and sharing positions
  @ DRIVER MODE: Received positions

     Self-consistent Calculation

     iteration #  1     ecut=    29.40 Ry     beta= 0.05
     Davidson diagonalization with overlap
     c_bands:  3 eigenvalues not converged
     c_bands:  3 eigenvalues not converged
     c_bands:  1 eigenvalues not converged
     c_bands:  4 eigenvalues not converged
     c_bands:  1 eigenvalues not converged
     c_bands:  1 eigenvalues not converged
     c_bands:  1 eigenvalues not converged
     c_bands:  2 eigenvalues not converged
     c_bands:  3 eigenvalues not converged
     ethr =  1.00E-05,  avg # of iterations = 24.0

[...]

     total energy              =   -2437.56703668 Ry
     estimated scf accuracy    <    5825.84276673 Ry

     iteration #  2     ecut=    29.40 Ry     beta= 0.05
     Davidson diagonalization with overlap
     ethr =  1.00E-02,  avg # of iterations = 28.8

[...]

     iteration # 66     ecut=    29.40 Ry     beta= 0.05
     Davidson diagonalization with overlap
     ethr =  3.18E-11,  avg # of iterations =  6.7

[...]

     total energy              =   -2955.08658656 Ry
     estimated scf accuracy    <       0.00000009 Ry

     iteration # 67     ecut=    29.40 Ry     beta= 0.05
     Davidson diagonalization with overlap
     c_bands:  1 eigenvalues not converged
     ethr =  2.17E-11,  avg # of iterations = 14.6

     negative rho (up, down):  1.530E-02 0.000E+00

     Adding external electric field

     Computed dipole along edir(3) :
        Dipole                0.9555 Ry au,          2.4286 Debye
        Dipole field          0.0018 Ry au,

        Potential amp.       -0.1671 Ry
        Total length         46.3494 bohr

     End of self-consistent calculation

          k = 0.0000 0.0000 0.0000 ( 18029 PWs)   bands (ev):

   -55.5456 -55.5121 -55.5090 -55.4915 -55.4779 -55.4295 -55.3932 -55.3736
   -55.3570 -55.3441 -55.3388 -55.3106 -55.2947 -55.1133 -54.5378 -54.5038
   -32.1014 -32.0042 -31.9177 -31.9028 -31.8745 -31.8624 -31.8488 -31.8439
   -31.8010 -31.7659 -31.7602 -31.7568 -31.7470 -31.7227 -31.7173 -31.6964
   -31.6870 -31.6843 -31.6727 -31.6642 -31.6431 -31.6256 -31.6085 -31.6024
   -31.5733 -31.5691 -31.5622 -31.5618 -31.5598 -31.5462 -31.5368 -31.5311
   -31.5270 -31.5217 -31.5113 -31.4966 -31.4874 -31.4721 -31.4666 -31.4551
   -31.3391 -31.2936 -30.9470 -30.8532 -30.8311 -30.7634 -30.6767 -30.5657
   -19.2367 -16.3964 -16.3064 -16.0888 -15.9232 -15.8448 -15.7489 -15.6075
   -15.5368 -15.4261 -15.3901 -15.2309 -15.2053 -15.1987 -15.1650 -15.1470
   -15.1087 -15.0907 -15.0614 -15.0500 -15.0486 -15.0266 -14.9901 -14.9862
   -14.9437 -14.9308 -14.8703 -14.7753 -14.7075 -14.6435 -14.3268 -13.0403
   -12.9230  -9.2052  -7.0087  -6.5515  -4.5831  -3.7182  -3.5856  -3.5638
    -3.5027  -3.4502  -3.4075  -3.3017  -3.0713  -3.0231  -2.9789  -2.9329
    -2.8126  -2.7419  -2.7375  -2.6585  -2.5822  -2.5413  -2.4866  -2.4768
    -2.3992  -2.3658  -2.3479  -2.3247  -2.2800  -2.2526  -2.2120  -2.1209
    -2.0971  -2.0234  -1.9919  -1.9477  -1.9432  -1.8964  -1.8786  -1.8396
    -1.8387  -1.8281  -1.8070  -1.7704  -1.7278  -1.6712  -1.5813  -1.5508
    -1.3876  -1.2758  -1.2112  -1.1842  -1.1318  -1.1003  -1.0349  -0.9854
    -0.9705  -0.9363  -0.8694  -0.7662  -0.6996  -0.6867  -0.6278  -0.5371
    -0.4783  -0.4388  -0.3585  -0.3332  -0.3144  -0.3091  -0.2424  -0.1767
    -0.1310  -0.0559  -0.0401   0.0151   0.0376   0.0890   0.1190   0.1859
     0.2414   0.2826   0.3331   0.3877   0.3891   0.4040   0.4392   0.4409
     0.5414   0.5528   0.5753   0.6758   0.7750   0.9644   1.0606   1.0967
     1.3931   1.4088   1.4850   1.6694   2.0606   2.1086   3.5155   3.5455
     3.6296   3.6848   3.6938   3.7243   3.7803   4.0336   4.0450   4.0671
     4.0803

[...]

          k = 0.0380-0.0419 0.0000 ( 17876 PWs)   bands (ev):

[...]

          k =-0.0760-0.0000 0.0000 ( 17886 PWs)   bands (ev):

[...]

          k =-0.0760-0.0839 0.0000 ( 17948 PWs)   bands (ev):

   -55.5311 -55.5233 -55.4952 -55.4947 -55.4893 -55.4171 -55.4055 -55.3590
   -55.3590 -55.3529 -55.3276 -55.3273 -55.2928 -55.1151 -54.5209 -54.5206
   -31.9132 -31.9009 -31.8195 -31.8190 -31.8026 -31.8015 -31.7871 -31.7865
   -31.7862 -31.7702 -31.7588 -31.7517 -31.7342 -31.7166 -31.6975 -31.6914
   -31.6883 -31.6862 -31.6816 -31.6749 -31.6723 -31.6625 -31.6347 -31.6336
   -31.6147 -31.6142 -31.6116 -31.6022 -31.5910 -31.5827 -31.5723 -31.5665
   -31.5573 -31.5545 -31.5545 -31.5437 -31.5129 -31.5073 -31.5065 -31.4800
   -31.3773 -31.3421 -30.8439 -30.8437 -30.7596 -30.7594 -30.7201 -30.7200
   -19.2359 -16.3182 -15.8845 -15.7870 -15.6571 -15.5743 -15.5515 -15.4782
   -15.4196 -15.3859 -15.3293 -15.3069 -15.2929 -15.2774 -15.2430 -15.2162
   -15.1970 -15.1541 -15.1368 -15.1188 -15.0873 -15.0624 -15.0514 -15.0462
   -15.0405 -15.0060 -15.0016 -14.9145 -14.9068 -14.9034 -14.5682 -13.0245
   -13.0244  -9.2040  -7.0407  -6.4914  -4.5661  -3.5479  -3.0929  -3.0504
    -2.9950  -2.8564  -2.7968  -2.7307  -2.6947  -2.6524  -2.6016  -2.5685
    -2.5502  -2.4984  -2.4906  -2.4259  -2.4105  -2.3955  -2.3770  -2.3727
    -2.3650  -2.3279  -2.2918  -2.2793  -2.2719  -2.2632  -2.2497  -2.2026
    -2.1872  -2.1555  -2.1458  -2.1127  -2.0830  -2.0520  -1.9398  -1.9078
    -1.8830  -1.8179  -1.7553  -1.7495  -1.6680  -1.6462  -1.5900  -1.5860
    -1.5651  -1.5274  -1.3996  -1.2945  -1.2831  -1.2315  -1.1983  -1.1750
    -1.1127  -1.0613  -1.0069  -1.0042  -0.9089  -0.8665  -0.8389  -0.7391
    -0.7087  -0.7006  -0.5841  -0.5583  -0.5203  -0.5096  -0.5032  -0.4438
    -0.4364  -0.4112  -0.3297  -0.3113  -0.2843  -0.2727  -0.2098  -0.0488
    -0.0187   0.0262   0.1534   0.1949   0.3568   0.3879   0.4200   0.5259
     0.5702   0.6182   0.6225   0.7450   0.7549   0.8422   0.8560   0.8720
     0.9072   0.9189   1.8419   1.8432   1.9286   1.9287   3.5307   3.7755
     3.8407   3.8478   3.8847   4.0213   4.0648   4.1237   4.1271   4.1372
     4.1575

     the Fermi energy is     3.6019 ev

!    total energy              =   -2955.08662138 Ry
     estimated scf accuracy    <       0.00000004 Ry
     smearing contrib. (-TS)   =      -0.04066928 Ry
     internal energy E=F+TS    =   -2955.04595210 Ry

     The total energy is F=E-TS. E is the sum of the following terms:
     one-electron contribution =  -23873.30249439 Ry
     hartree contribution      =   12028.80867467 Ry
     xc contribution           =    -489.73213680 Ry
     ewald contribution        =    9379.17828157 Ry
     electric field correction =       0.00172285 Ry

     convergence has been achieved in  67 iterations

     Forces acting on atoms (cartesian axes, Ry/au):

     atom    1 type  1   force =     0.00000075   -0.00024513    0.09341192
     atom    2 type  1   force =    -0.00015281   -0.00040584   -0.17804853
     atom    3 type  2   force =     0.00001227   -0.00034570   -0.02031931
     atom    4 type  2   force =    -0.00003706   -0.00190335    0.05856181
     atom    5 type  2   force =    -0.01018066   -0.00085185    0.00745350
     atom    6 type  2   force =     0.01152050   -0.00017554    0.00625222
     atom    7 type  1   force =    -0.00077061    0.00203122   -0.01056334
     atom    8 type  1   force =     0.00031749    0.00074042   -0.00336175
     atom    9 type  2   force =     0.00024283    0.00042512    0.00015647
     atom   10 type  2   force =    -0.00108342    0.00267874   -0.00407791
     atom   11 type  2   force =    -0.00028411    0.00005194   -0.00000773
     atom   12 type  2   force =    -0.00003317   -0.00003127    0.00009955
     atom   13 type  1   force =     0.00075191    0.00072353    0.00044874
     atom   14 type  1   force =    -0.00093771   -0.00011677   -0.00007593
     atom   15 type  2   force =    -0.00009539   -0.00011277    0.00053056
     atom   16 type  2   force =     0.00031921    0.00055812   -0.00000058
     atom   17 type  2   force =     0.00007270   -0.00028486    0.00026409
     atom   18 type  2   force =     0.00069799    0.00023667    0.00004788
     atom   19 type  1   force =    -0.00077439   -0.00058613    0.00018334
     atom   20 type  1   force =     0.00018042   -0.00101620   -0.00044359
     atom   21 type  2   force =     0.00002280   -0.00011382    0.10390298
     atom   22 type  2   force =     0.00002873   -0.00068719    0.00037709
     atom   23 type  2   force =    -0.07054240   -0.00022316   -0.02693955
     atom   24 type  2   force =     0.07036037    0.00021352   -0.02698325
     atom   25 type  1   force =     0.00003680   -0.00022711    0.09303013
     atom   26 type  1   force =    -0.00023486   -0.00044051   -0.17800613
     atom   27 type  2   force =     0.00007104   -0.00024424   -0.01928974
     atom   28 type  2   force =     0.00002331   -0.00162249    0.05766038
     atom   29 type  2   force =    -0.01076599   -0.00046257    0.00808033
     atom   30 type  2   force =     0.01198639   -0.00007374    0.00684238
     atom   31 type  1   force =    -0.00063798    0.00609847   -0.01380845
     atom   32 type  1   force =     0.00028156   -0.00086036   -0.00339471
     atom   33 type  2   force =     0.00014521    0.00006819    0.00002052
     atom   34 type  2   force =    -0.00051249   -0.00107088   -0.00267657
     atom   35 type  2   force =    -0.00042227    0.00006536    0.00002334
     atom   36 type  2   force =     0.00005371    0.00001437    0.00024270
     atom   37 type  1   force =     0.00083323   -0.00082363    0.00028867
     atom   38 type  1   force =    -0.00088498    0.00034395   -0.00052770
     atom   39 type  2   force =    -0.00025247   -0.00024064   -0.00008155
     atom   40 type  2   force =     0.00033077    0.00014119    0.00040332
     atom   41 type  2   force =    -0.00011705   -0.00021652   -0.00017758
     atom   42 type  2   force =     0.00066508   -0.00012907   -0.00054480
     atom   43 type  1   force =    -0.00103586   -0.00000361    0.00049078
     atom   44 type  1   force =     0.00123358   -0.00034164    0.00004076
     atom   45 type  2   force =     0.00000880   -0.00012026    0.10389782
     atom   46 type  2   force =    -0.07053310   -0.00015444   -0.02692163
     atom   47 type  2   force =     0.07036298    0.00028435   -0.02698895
     atom   48 type  3   force =     0.00250814   -0.02492904   -0.00447540
     atom   49 type  4   force =    -0.00080716    0.00541117   -0.00012444
     atom   50 type  5   force =     0.00022838   -0.00121925   -0.00001079
     atom   51 type  5   force =    -0.00052025    0.00009844   -0.00061588
     atom   52 type  5   force =    -0.00608025    0.01060367    0.00423712
     atom   53 type  5   force =     0.00575121    0.00942444    0.00123037
     atom   54 type  2   force =    -0.00002117    0.00016729    0.00022680
     atom   55 type  5   force =    -0.00066760   -0.00018940   -0.00009783
     atom   56 type  5   force =    -0.00066297    0.00008879    0.00015804

     Total force =     0.367092     Total SCF correction =     0.000630
  @ DRIVER MODE: Message from server: STATUS
  @ DRIVER MODE: Message from server: GETFORCE
  @ DRIVER MODE: Returning v,forces,stress,ensemble

     Writing output data file ./calc.save/
  @ DRIVER MODE: Message from server: EXIT
  @ DRIVE MODE: Exiting

     General routines

     Parallel routines

   This run was terminated on:  17:13:28  15Sep2021

   JOB DONE.