     Program PWSCF v.6.7GPU starts on 15Sep2021 at 19:14:17

     R & G space division:  proc/nbgrp/npool/nimage =      10
     Reading input from /storage/home/hcoda1/3/ntian30/research/carbon/CxH_vib/H2O_calc/ads_slab/CH2NHH2O_a/out_0011/pw.inp
Warning: card &CELL ignored
Warning: card   CELL_DYNAMICS='IPI', ignored
Warning: card / ignored

     Current dimensions of program PWSCF are:
     Max number of different atomic species (ntypx) = 10
     Max number of k-points (npk) =  40000
     Max angular momentum in pseudopotentials (lmaxx) =  3
     Presently no symmetry can be used with electric field

     Message from routine cell_base_init:
     DEPRECATED: use true lattice parameter, not A to a.u. conversion factor

     IMPORTANT: XC functional enforced from input :
     Exchange-correlation= BEEF-VDW
                           (   1   4  43  14   2   0   0)
     Any further DFT definition will be discarded
     Please, verify this is what you really want

  @ DRIVER MODE: Connecting to
 qe_1139763_2852608.sched-torque.pace.gatech.eduut1lzu5l_scratch
  using UNIX socket
  @ DRIVER MODE: Message from server: STATUS
  @ DRIVER MODE: Message from server: INIT
  @ DRIVER MODE: Receiving replica           0          -1
  @ DRIVER MODE: Receiving encoded integer          25
  @ DRIVER MODE:  SCF:  T  FORCE:  T  STRESS:  F  VC:  F  ENSEMBLE:  F
  @ DRIVER MODE:  SCF:  T  FORCE:  T  STRESS:  F  VC:  F  ENSEMBLE:  F

     Using Slab Decomposition

     bravais-lattice index     =            0
     lattice parameter (alat)  =       1.8897  a.u.
     unit-cell volume          =    6658.9804 (a.u.)^3
     number of atoms/cell      =           55
     number of atomic types    =            5
     number of electrons       =       398.00
     number of Kohn-Sham states=          209
     kinetic-energy cutoff     =      29.3995  Ry
     charge density cutoff     =     293.9946  Ry
     scf convergence threshold =      7.3E-08
     mixing beta               =       0.0500
     number of iterations used =            8  plain     mixing
     Exchange-correlation= BEEF-VDW
                           (   1   4  43  14   2   0   0)

     celldm(1)=   1.889726  celldm(2)=   0.000000  celldm(3)=   0.000000
     celldm(4)=   0.000000  celldm(5)=   0.000000  celldm(6)=   0.000000

     crystal axes: (cart. coord. in units of alat)
               a(1) = (   6.579727   0.000000   0.000000 )
               a(2) = (  -0.000775   5.961596   0.000000 )
               a(3) = (   0.000000   0.000000  25.155947 )

     reciprocal axes: (cart. coord. in units 2 pi/alat)
               b(1) = (  0.151982  0.000020  0.000000 )
               b(2) = (  0.000000  0.167740  0.000000 )
               b(3) = (  0.000000  0.000000  0.039752 )

     PseudoPot. # 1 for Ti read from file:
     /storage/coda1/p-amedford6/0/shared/rich_project_chbe-medford/medford-share/data/pseudos_module/espresso/nninc/pbe/van/Ti.UPF
     MD5 check sum: 8e4df49b7f0d34bbd5052bf3f5ea0213
     Pseudo is Ultrasoft, Zval = 12.0
     Generated by new atomic code, or converted to UPF format
     Using radial grid of  851 points,  6 beta functions with:
                l(1) =   0
                l(2) =   0
                l(3) =   1
                l(4) =   1
                l(5) =   2
                l(6) =   2
     Q(r) pseudized with  8 coefficients,  rinner =    1.000   1.000   1.000
                                                       1.000   1.000

     PseudoPot. # 2 for O  read from file:
     /storage/coda1/p-amedford6/0/shared/rich_project_chbe-medford/medford-share/data/pseudos_module/espresso/nninc/pbe/van/O.UPF
     MD5 check sum: 78c19812648e8988a0fe644b0f25305e
     Pseudo is Ultrasoft, Zval =  6.0
     Generated by new atomic code, or converted to UPF format
     Using radial grid of  737 points,  4 beta functions with:
                l(1) =   0
                l(2) =   0
                l(3) =   1
                l(4) =   1
     Q(r) pseudized with  8 coefficients,  rinner =    0.800   0.800   0.800

     PseudoPot. # 3 for N  read from file:
     /storage/coda1/p-amedford6/0/shared/rich_project_chbe-medford/medford-share/data/pseudos_module/espresso/nninc/pbe/van/N.UPF
     MD5 check sum: 90d10febe142ad51ac9d5be1deb811c4
     Pseudo is Ultrasoft, Zval =  5.0
     Generated by new atomic code, or converted to UPF format
     Using radial grid of  729 points,  4 beta functions with:
                l(1) =   0
                l(2) =   0
                l(3) =   1
                l(4) =   1
     Q(r) pseudized with  8 coefficients,  rinner =    0.800   0.800   0.800

     PseudoPot. # 4 for C  read from file:
     /storage/coda1/p-amedford6/0/shared/rich_project_chbe-medford/medford-share/data/pseudos_module/espresso/nninc/pbe/van/C.UPF
     MD5 check sum: 1a69bf6b8db32088f5b2163dbdb77a27
     Pseudo is Ultrasoft, Zval =  4.0
     Generated by new atomic code, or converted to UPF format
     Using radial grid of  721 points,  4 beta functions with:
                l(1) =   0
                l(2) =   0
                l(3) =   1
                l(4) =   1
     Q(r) pseudized with  8 coefficients,  rinner =    0.800   0.800   0.800

     PseudoPot. # 5 for H  read from file:
     /storage/coda1/p-amedford6/0/shared/rich_project_chbe-medford/medford-share/data/pseudos_module/espresso/nninc/pbe/van/H.UPF
     MD5 check sum: b5ee9d7bfd3a09ee7748110bda690ff7
     Pseudo is Ultrasoft, Zval =  1.0
     Generated by new atomic code, or converted to UPF format
     Using radial grid of  615 points,  1 beta functions with:
                l(1) =   0
     Q(r) pseudized with  8 coefficients,  rinner =    0.800

     atomic species   valence    mass     pseudopotential
        Ti1           12.00    47.86700     Ti( 1.00)
        O1             6.00    15.99900     O ( 1.00)
        N1             5.00    14.00700     N ( 1.00)
        C1             4.00    12.01100     C ( 1.00)
        H1             1.00     1.00800     H ( 1.00)

     No symmetry found

   Cartesian axes

     site n.     atom                  positions (alat units)
         1           Ti1 tau(   1) = (   0.0004258   2.9801865   6.0000000  )
         2           Ti1 tau(   2) = (   3.2906075   1.4906267   6.0002472  )
         3           O1  tau(   3) = (   0.0006271   0.0005054   7.9858123  )
         4           O1  tau(   4) = (   3.2906025   0.0005020   7.3038282  )
         5           O1  tau(   5) = (   4.5942328   1.4918067   9.2879030  )
         6           O1  tau(   6) = (   1.9868534   1.4903216   9.2879459  )
         7           Ti1 tau(   7) = (   3.2907910   2.8959150   9.1758416  )
         8           Ti1 tau(   8) = (   0.0015273   1.4827037   9.2680791  )
         9           O1  tau(   9) = (   3.2898722   0.0008919  11.3582996  )
        10           O1  tau(  10) = (   0.0116148   5.9584955  10.6183126  )
        11           O1  tau(  11) = (   1.2941175   1.4997011  12.6415926  )
        12           O1  tau(  12) = (   5.2900041   1.4988670  12.6311679  )
        13           Ti1 tau(  13) = (   0.0286627   2.9677426  12.5549903  )
        14           Ti1 tau(  14) = (   3.3305619   1.4761135  12.5169476  )
        15           O1  tau(  15) = (   0.0011522   0.0488603  14.6479508  )
        16           O1  tau(  16) = (   3.3026717   0.0283160  13.9913086  )
        17           O1  tau(  17) = (   4.5493611   1.5432082  16.1208237  )
        18           O1  tau(  18) = (   2.0202358   1.5417912  16.1150647  )
        19           Ti1 tau(  19) = (   3.2887705   3.0075965  15.7001020  )
        20           Ti1 tau(  20) = (   0.0091052   1.4341126  16.0176487  )
        21           O1  tau(  21) = (   3.2904802   0.0005063   4.7018136  )
        22           O1  tau(  22) = (   6.5755782   5.8726442  17.1894482  )
        23           O1  tau(  23) = (   1.3043587   1.4918075   6.0039043  )
        24           O1  tau(  24) = (   5.2767064   1.4903225   6.0039473  )
        25           Ti1 tau(  25) = (   0.0000382   5.9609847   6.0000000  )
        26           Ti1 tau(  26) = (   3.2902200   4.4714249   6.0002472  )
        27           O1  tau(  27) = (   0.0002396   2.9813036   7.9858123  )
        28           O1  tau(  28) = (   3.2902150   2.9813002   7.3038282  )
        29           O1  tau(  29) = (   4.5938453   4.4726049   9.2879030  )
        30           O1  tau(  30) = (   1.9864658   4.4711199   9.2879459  )
        31           Ti1 tau(  31) = (   3.2891106   5.8743827   9.1763621  )
        32           Ti1 tau(  32) = (   0.0006254   4.4649316   9.2693709  )
        33           O1  tau(  33) = (   3.2934734   2.9861727  11.3537610  )
        34           O1  tau(  34) = (   0.0092240   2.9805883  10.6323155  )
        35           O1  tau(  35) = (   1.2909626   4.4766429  12.6619247  )
        36           O1  tau(  36) = (   5.2900193   4.4803912  12.6490267  )
        37           Ti1 tau(  37) = (   0.0281377   5.9553508  12.5047683  )
        38           Ti1 tau(  38) = (   3.3302429   4.4653876  12.5079491  )
        39           O1  tau(  39) = (   6.5693844   2.9599090  14.8264494  )
        40           O1  tau(  40) = (   3.2969629   2.9925989  13.9157470  )
        41           O1  tau(  41) = (   4.5484520   4.4472025  16.1223275  )
        42           O1  tau(  42) = (   2.0280084   4.4594140  16.0867804  )
        43           Ti1 tau(  43) = (   3.2969344   0.0408593  15.8189202  )
        44           Ti1 tau(  44) = (   0.0203989   4.6198729  15.8219907  )
        45           O1  tau(  45) = (   3.2900926   2.9813045   4.7018136  )
        46           O1  tau(  46) = (   1.3039711   4.4726057   6.0039043  )
        47           O1  tau(  47) = (   5.2763189   4.4711207   6.0039473  )
        48           N1  tau(  48) = (   6.4956655   2.7544209  17.8339637  )
        49           C1  tau(  49) = (   0.7364952   2.7663736  18.8266375  )
        50           H1  tau(  50) = (   0.4484493   3.1383336  19.8159577  )
        51           H1  tau(  51) = (   1.7396475   2.3816028  18.7013769  )
        52           H1  tau(  52) = (   5.5670006   3.0916272  18.0761613  )
        53           O1  tau(  53) = (   3.3072362   0.1002980  18.2711691  )
        54           H1  tau(  54) = (   4.1501014   5.6086691  18.4387546  )
        55           H1  tau(  55) = (   2.5909652   5.4478326  18.5068232  )

     number of k points=    10  Fermi-Dirac smearing, width (Ry)=  0.0073
                       cart. coord. in units 2pi/alat
        k(    1) = (   0.0000000   0.0000000   0.0000000), wk =   0.1250000
        k(    2) = (   0.0000000   0.0419351   0.0000000), wk =   0.2500000
        k(    3) = (   0.0000000  -0.0838702   0.0000000), wk =   0.1250000
        k(    4) = (   0.0379955   0.0000049   0.0000000), wk =   0.2500000
        k(    5) = (   0.0379955   0.0419400   0.0000000), wk =   0.2500000
        k(    6) = (   0.0379955  -0.0838652   0.0000000), wk =   0.2500000
        k(    7) = (   0.0379955  -0.0419301   0.0000000), wk =   0.2500000
        k(    8) = (  -0.0759910  -0.0000099   0.0000000), wk =   0.1250000
        k(    9) = (  -0.0759910   0.0419252   0.0000000), wk =   0.2500000
        k(   10) = (  -0.0759910  -0.0838800   0.0000000), wk =   0.1250000

     Initial potential from superposition of free atoms

     starting charge  381.99915, renormalised to  398.00000

     negative rho (up, down):  1.644E-02 0.000E+00

     %%%%%%%%%%%%%%%%%%%%%%%%%%%%%%%%%%%%%%%%%%%%%%%%%%%%%%%%%%%%%%%%%%%%%%%%
     %                                                                      %
     % You are using vdW-DF, which was implemented by the Thonhauser group. %
     % Please cite the following two papers that made this development      %
     % possible and the two reviews that describe the various versions:     %
     %                                                                      %
     %   T. Thonhauser et al., PRL 115, 136402 (2015).                      %
     %   T. Thonhauser et al., PRB 76, 125112 (2007).                       %
     %   K. Berland et al., Rep. Prog. Phys. 78, 066501 (2015).             %
     %   D.C. Langreth et al., J. Phys.: Condens. Matter 21, 084203 (2009). %
     %                                                                      %
     %                                                                      %
     % If you are calculating the stress with vdW-DF, please also cite:     %
     %                                                                      %
     %   R. Sabatini et al., J. Phys.: Condens. Matter 24, 424209 (2012).   %
     %                                                                      %
     %%%%%%%%%%%%%%%%%%%%%%%%%%%%%%%%%%%%%%%%%%%%%%%%%%%%%%%%%%%%%%%%%%%%%%%%

     Adding external electric field

     Computed dipole along edir(3) :
        Dipole              -10.3976 Ry au,        -26.4279 Debye
        Dipole field         -0.0196 Ry au,

        Potential amp.        1.8189 Ry
        Total length         46.3494 bohr

     Starting wfcs are  301 atomic wfcs
  @ DRIVER MODE: Message from server: STATUS
  @ DRIVER MODE: Message from server: POSDATA
  @ DRIVER MODE: Reading and sharing cell
  @ DRIVER MODE: Reading and sharing positions
  @ DRIVER MODE: Received positions

     Self-consistent Calculation

     iteration #  1     ecut=    29.40 Ry     beta= 0.05
     Davidson diagonalization with overlap
     c_bands:  3 eigenvalues not converged
     c_bands:  3 eigenvalues not converged
     c_bands:  1 eigenvalues not converged
     c_bands:  4 eigenvalues not converged
     c_bands:  4 eigenvalues not converged
     c_bands:  4 eigenvalues not converged
     c_bands:  2 eigenvalues not converged
     c_bands:  3 eigenvalues not converged
     c_bands:  2 eigenvalues not converged
     ethr =  1.00E-05,  avg # of iterations = 19.9

[...]

     total energy              =   -2485.32364650 Ry
     estimated scf accuracy    <    5245.50693226 Ry

     iteration #  2     ecut=    29.40 Ry     beta= 0.05
     Davidson diagonalization with overlap
     ethr =  1.00E-02,  avg # of iterations = 24.9

[...]

     iteration # 54     ecut=    29.40 Ry     beta= 0.05
     Davidson diagonalization with overlap
     c_bands:  1 eigenvalues not converged
     ethr =  7.97E-07,  avg # of iterations = 15.7

[...]

     total energy              =   -2953.94939692 Ry
     estimated scf accuracy    <       0.00000008 Ry

     iteration # 78     ecut=    29.40 Ry     beta= 0.05
     Davidson diagonalization with overlap
     ethr =  1.99E-11,  avg # of iterations = 11.4

     negative rho (up, down):  1.568E-02 0.000E+00

     Adding external electric field

     Computed dipole along edir(3) :
        Dipole                1.2888 Ry au,          3.2757 Debye
        Dipole field          0.0024 Ry au,

        Potential amp.       -0.2254 Ry
        Total length         46.3494 bohr

     End of self-consistent calculation

          k = 0.0000 0.0000 0.0000 ( 18029 PWs)   bands (ev):

   -55.3850 -55.3654 -55.3489 -55.3325 -55.3313 -55.2653 -55.2205 -55.2002
   -55.1904 -55.1819 -55.1646 -55.1579 -55.1184 -54.9919 -54.3752 -54.3412
   -31.9454 -31.8545 -31.7531 -31.7390 -31.6932 -31.6908 -31.6887 -31.6554
   -31.6532 -31.6162 -31.6099 -31.5988 -31.5798 -31.5621 -31.5619 -31.5271
   -31.5244 -31.5181 -31.5035 -31.5009 -31.4761 -31.4487 -31.4458 -31.4283
   -31.4224 -31.3993 -31.3982 -31.3952 -31.3949 -31.3869 -31.3673 -31.3606
   -31.3565 -31.3500 -31.3411 -31.3278 -31.3215 -31.3150 -31.2977 -31.2912
   -31.2181 -31.1055 -30.7836 -30.6918 -30.6696 -30.6002 -30.5135 -30.4025
   -19.1730 -16.3230 -16.1671 -15.9103 -15.7346 -15.6393 -15.5763 -15.3872
   -15.3478 -15.2550 -15.1717 -15.0805 -15.0296 -14.9838 -14.9754 -14.9518
   -14.9251 -14.9156 -14.8773 -14.8658 -14.8618 -14.8146 -14.8132 -14.7732
   -14.7643 -14.7209 -14.7030 -14.5902 -14.5337 -14.4794 -14.0594 -12.8773
   -12.7603  -9.1028  -6.9895  -6.0051  -4.5180  -3.5450  -3.4036  -3.3822
    -3.2959  -3.2897  -3.2281  -3.1110  -2.9233  -2.7706  -2.6845  -2.6388
    -2.5898  -2.5628  -2.5049  -2.4680  -2.3552  -2.2864  -2.2556  -2.2216
    -2.2038  -2.1885  -2.1603  -2.1437  -2.1067  -2.0750  -2.0395  -1.9357
    -1.8494  -1.7945  -1.7788  -1.7081  -1.6862  -1.6794  -1.6728  -1.6625
    -1.6592  -1.6515  -1.6037  -1.5765  -1.5315  -1.4035  -1.3409  -1.2287
    -1.1184  -1.0676  -1.0243  -1.0061  -0.9185  -0.9131  -0.8574  -0.7809
    -0.7506  -0.7074  -0.6984  -0.5681  -0.4869  -0.4804  -0.4261  -0.3504
    -0.2942  -0.2534  -0.1975  -0.1703  -0.1481  -0.1325   0.0030   0.0399
     0.0852   0.1122   0.1380   0.2165   0.2535   0.3146   0.3616   0.3688
     0.4185   0.5049   0.5166   0.5684   0.5730   0.6174   0.6355   0.7292
     0.7667   0.7758   0.8411   0.8703   1.0171   1.2346   1.2363   1.2872
     1.5625   1.6235   1.6478   1.8346   2.2217   2.2689   3.7084   3.7992
     3.8384   3.8569   3.8684   3.9442   4.0867   4.1989   4.2033   4.2332
     4.2460

[...]

          k = 0.0380-0.0419 0.0000 ( 17876 PWs)   bands (ev):

[...]

          k =-0.0760-0.0000 0.0000 ( 17886 PWs)   bands (ev):

[...]

          k =-0.0760-0.0839 0.0000 ( 17948 PWs)   bands (ev):

   -55.3688 -55.3649 -55.3483 -55.3481 -55.3304 -55.2573 -55.2285 -55.1843
   -55.1837 -55.1791 -55.1750 -55.1745 -55.1160 -54.9942 -54.3582 -54.3581
   -31.7552 -31.7442 -31.6697 -31.6696 -31.6532 -31.6423 -31.6408 -31.6407
   -31.6135 -31.6017 -31.5833 -31.5793 -31.5754 -31.5534 -31.5339 -31.5188
   -31.5175 -31.5144 -31.5101 -31.5052 -31.4995 -31.4875 -31.4679 -31.4675
   -31.4613 -31.4598 -31.4581 -31.4275 -31.4167 -31.4089 -31.3986 -31.3948
   -31.3939 -31.3935 -31.3837 -31.3784 -31.3546 -31.3529 -31.3365 -31.2871
   -31.2216 -31.1915 -30.6824 -30.6823 -30.5963 -30.5961 -30.5569 -30.5569
   -19.1722 -16.2870 -15.6453 -15.5882 -15.5151 -15.3602 -15.3538 -15.3293
   -15.2686 -15.1706 -15.1583 -15.1243 -15.1164 -15.0810 -15.0724 -15.0506
   -15.0312 -14.9551 -14.9472 -14.9426 -14.9201 -14.8880 -14.8732 -14.8644
   -14.8423 -14.8377 -14.7824 -14.7351 -14.7321 -14.5455 -14.3560 -12.8620
   -12.8618  -9.1081  -6.9879  -6.0027  -4.5013  -3.3385  -2.9203  -2.7906
    -2.7390  -2.5884  -2.5612  -2.5134  -2.4575  -2.3988  -2.3793  -2.3527
    -2.3172  -2.2997  -2.2485  -2.2351  -2.2165  -2.2138  -2.2058  -2.1600
    -2.1451  -2.1361  -2.1163  -2.0987  -2.0877  -2.0752  -2.0413  -2.0317
    -1.9981  -1.9665  -1.9546  -1.9324  -1.8876  -1.7634  -1.7358  -1.6881
    -1.5763  -1.5688  -1.5676  -1.5211  -1.4753  -1.4728  -1.4411  -1.4115
    -1.3455  -1.3215  -1.1237  -1.1112  -1.0998  -1.0341  -1.0077  -0.9096
    -0.8896  -0.8238  -0.8095  -0.7917  -0.7054  -0.6765  -0.5680  -0.5597
    -0.5430  -0.5086  -0.4035  -0.3532  -0.3451  -0.3407  -0.3210  -0.2391
    -0.2211  -0.2036  -0.1694  -0.1412  -0.1074  -0.0939  -0.0114   0.1592
     0.1671   0.2550   0.3561   0.4456   0.5693   0.6383   0.6509   0.7051
     0.7496   0.8279   0.8733   0.9127   0.9315   1.0422   1.0692   1.0914
     1.0978   1.1524   2.0069   2.0082   2.0889   2.0891   3.7905   3.9369
     4.0074   4.0245   4.0648   4.1896   4.2298   4.2815   4.2835   4.2873
     4.3755

     the Fermi energy is     3.7543 ev

!    total energy              =   -2953.94940554 Ry
     estimated scf accuracy    <       0.00000005 Ry
     smearing contrib. (-TS)   =      -0.03636243 Ry
     internal energy E=F+TS    =   -2953.91304311 Ry

     The total energy is F=E-TS. E is the sum of the following terms:
     one-electron contribution =  -24167.85433606 Ry
     hartree contribution      =   12177.37251843 Ry
     xc contribution           =    -488.89994460 Ry
     ewald contribution        =    9525.46558480 Ry
     electric field correction =       0.00313432 Ry

     convergence has been achieved in  78 iterations

     Forces acting on atoms (cartesian axes, Ry/au):

     atom    1 type  1   force =     0.00005722   -0.00021684    0.09430623
     atom    2 type  1   force =    -0.00028983   -0.00032740   -0.17717951
     atom    3 type  2   force =     0.00001461   -0.00013834   -0.02177764
     atom    4 type  2   force =    -0.00002224   -0.00175152    0.05664145
     atom    5 type  2   force =    -0.01065466   -0.00110903    0.00626342
     atom    6 type  2   force =     0.01215293   -0.00036227    0.00530933
     atom    7 type  1   force =    -0.00069806    0.00164285   -0.01077028
     atom    8 type  1   force =     0.00018764    0.00657790    0.00668932
     atom    9 type  2   force =     0.00024882   -0.00039310   -0.00053009
     atom   10 type  2   force =    -0.00109403    0.00064121   -0.01007217
     atom   11 type  2   force =    -0.00027151   -0.00016523   -0.00017317
     atom   12 type  2   force =     0.00039632   -0.00023547    0.00006239
     atom   13 type  1   force =     0.00019364   -0.00050658    0.00105212
     atom   14 type  1   force =    -0.00008456    0.00039503    0.00033465
     atom   15 type  2   force =     0.00009674    0.00013006    0.00139508
     atom   16 type  2   force =    -0.00017873   -0.00066725    0.00036175
     atom   17 type  2   force =     0.00014749   -0.00000008    0.00003893
     atom   18 type  2   force =    -0.00125391    0.00008553    0.00067263
     atom   19 type  1   force =     0.00111956   -0.00046622   -0.00090342
     atom   20 type  1   force =    -0.00148950    0.00025149   -0.00180594
     atom   21 type  2   force =     0.00000573   -0.00004401    0.10368947
     atom   22 type  2   force =    -0.00002971    0.00057827    0.00118705
     atom   23 type  2   force =    -0.07088794   -0.00014171   -0.02717223
     atom   24 type  2   force =     0.07073140    0.00029614   -0.02724107
     atom   25 type  1   force =     0.00000957   -0.00013893    0.09407050
     atom   26 type  1   force =    -0.00022613   -0.00036593   -0.17733043
     atom   27 type  2   force =     0.00005471   -0.00031580   -0.02069192
     atom   28 type  2   force =     0.00005053   -0.00136373    0.05588272
     atom   29 type  2   force =    -0.01087972    0.00029098    0.00604633
     atom   30 type  2   force =     0.01228227    0.00054914    0.00508385
     atom   31 type  1   force =    -0.00057006    0.00495763   -0.01404350
     atom   32 type  1   force =     0.00030763   -0.00741491    0.00636468
     atom   33 type  2   force =     0.00025195    0.00012658   -0.00019921
     atom   34 type  2   force =    -0.00066549    0.00182841   -0.00590975
     atom   35 type  2   force =    -0.00002793   -0.00024801    0.00007545
     atom   36 type  2   force =     0.00026644   -0.00032131    0.00023600
     atom   37 type  1   force =     0.00021725    0.00091258    0.00037910
     atom   38 type  1   force =    -0.00009511    0.00005813    0.00061484
     atom   39 type  2   force =     0.00035724    0.00031298    0.00035403
     atom   40 type  2   force =    -0.00012137   -0.00037129    0.00068181
     atom   41 type  2   force =    -0.00033937   -0.00034765   -0.00013649
     atom   42 type  2   force =    -0.00050858    0.00003860    0.00059750
     atom   43 type  1   force =     0.00076040   -0.00139227   -0.00099339
     atom   44 type  1   force =    -0.00110845    0.00061720   -0.00241479
     atom   45 type  2   force =     0.00000572   -0.00009596    0.10366661
     atom   46 type  2   force =    -0.07091290   -0.00009727   -0.02717519
     atom   47 type  2   force =     0.07075503    0.00032905   -0.02722632
     atom   48 type  3   force =    -0.00677709   -0.00093113   -0.01180453
     atom   49 type  4   force =     0.00408404    0.00412983    0.02471972
     atom   50 type  5   force =     0.00254197   -0.00332332   -0.00949052
     atom   51 type  5   force =     0.00172340   -0.00106911   -0.00258577
     atom   52 type  5   force =    -0.00103213    0.00101301    0.00044488
     atom   53 type  2   force =     0.00085551   -0.00115822    0.00093823
     atom   54 type  5   force =    -0.00035890    0.00046450   -0.00007845
     atom   55 type  5   force =     0.00070212   -0.00074718   -0.00045428

     Total force =     0.366958     Total SCF correction =     0.000524
  @ DRIVER MODE: Message from server: STATUS
  @ DRIVER MODE: Message from server: GETFORCE
  @ DRIVER MODE: Returning v,forces,stress,ensemble

     Writing output data file ./calc.save/
  @ DRIVER MODE: Message from server: EXIT
  @ DRIVE MODE: Exiting

     General routines

     Parallel routines

   This run was terminated on:  19:35:39  15Sep2021

   JOB DONE.