     Program PWSCF v.6.7GPU starts on 16Jul2021 at 11:24:23

     R & G space division:  proc/nbgrp/npool/nimage =      16
     Reading input from /storage/home/hcoda1/3/ntian30/research/carbon/15Jul_vib/ads_slab/CH3NNHH_a/out_0028/pw.inp
Warning: card &CELL ignored
Warning: card   CELL_DYNAMICS='IPI', ignored
Warning: card / ignored

     Current dimensions of program PWSCF are:
     Max number of different atomic species (ntypx) = 10
     Max number of k-points (npk) =  40000
     Max angular momentum in pseudopotentials (lmaxx) =  3
     Presently no symmetry can be used with electric field

     Message from routine cell_base_init:
     DEPRECATED: use true lattice parameter, not A to a.u. conversion factor

     IMPORTANT: XC functional enforced from input :
     Exchange-correlation= BEEF-VDW
                           (   1   4  43  14   2   0   0)
     Any further DFT definition will be discarded
     Please, verify this is what you really want

  @ DRIVER MODE: Connecting to
 qe_1139763_2351651.sched-torque.pace.gatech.eduui9230ij_scratch
  using UNIX socket
  @ DRIVER MODE: Message from server: STATUS
  @ DRIVER MODE: Message from server: INIT
  @ DRIVER MODE: Receiving replica           0          -1
  @ DRIVER MODE: Receiving encoded integer          25
  @ DRIVER MODE:  SCF:  T  FORCE:  T  STRESS:  F  VC:  F  ENSEMBLE:  F
  @ DRIVER MODE:  SCF:  T  FORCE:  T  STRESS:  F  VC:  F  ENSEMBLE:  F

     Using Slab Decomposition

     bravais-lattice index     =            0
     lattice parameter (alat)  =       1.8897  a.u.
     unit-cell volume          =    6658.9804 (a.u.)^3
     number of atoms/cell      =           55
     number of atomic types    =            5
     number of electrons       =       397.00
     number of Kohn-Sham states=          208
     kinetic-energy cutoff     =      29.3995  Ry
     charge density cutoff     =     293.9946  Ry
     scf convergence threshold =      7.3E-08
     mixing beta               =       0.0500
     number of iterations used =            8  plain     mixing
     Exchange-correlation= BEEF-VDW
                           (   1   4  43  14   2   0   0)

     celldm(1)=   1.889726  celldm(2)=   0.000000  celldm(3)=   0.000000
     celldm(4)=   0.000000  celldm(5)=   0.000000  celldm(6)=   0.000000

     crystal axes: (cart. coord. in units of alat)
               a(1) = (   6.579727   0.000000   0.000000 )
               a(2) = (  -0.000775   5.961596   0.000000 )
               a(3) = (   0.000000   0.000000  25.155947 )

     reciprocal axes: (cart. coord. in units 2 pi/alat)
               b(1) = (  0.151982  0.000020  0.000000 )
               b(2) = (  0.000000  0.167740  0.000000 )
               b(3) = (  0.000000  0.000000  0.039752 )

     PseudoPot. # 1 for Ti read from file:
     /storage/coda1/p-amedford6/0/shared/rich_project_chbe-medford/medford-share/data/pseudos_module/espresso/nninc/pbe/van/Ti.UPF
     MD5 check sum: 8e4df49b7f0d34bbd5052bf3f5ea0213
     Pseudo is Ultrasoft, Zval = 12.0
     Generated by new atomic code, or converted to UPF format
     Using radial grid of  851 points,  6 beta functions with:
                l(1) =   0
                l(2) =   0
                l(3) =   1
                l(4) =   1
                l(5) =   2
                l(6) =   2
     Q(r) pseudized with  8 coefficients,  rinner =    1.000   1.000   1.000
                                                       1.000   1.000

     PseudoPot. # 2 for O  read from file:
     /storage/coda1/p-amedford6/0/shared/rich_project_chbe-medford/medford-share/data/pseudos_module/espresso/nninc/pbe/van/O.UPF
     MD5 check sum: 78c19812648e8988a0fe644b0f25305e
     Pseudo is Ultrasoft, Zval =  6.0
     Generated by new atomic code, or converted to UPF format
     Using radial grid of  737 points,  4 beta functions with:
                l(1) =   0
                l(2) =   0
                l(3) =   1
                l(4) =   1
     Q(r) pseudized with  8 coefficients,  rinner =    0.800   0.800   0.800

     PseudoPot. # 3 for N  read from file:
     /storage/coda1/p-amedford6/0/shared/rich_project_chbe-medford/medford-share/data/pseudos_module/espresso/nninc/pbe/van/N.UPF
     MD5 check sum: 90d10febe142ad51ac9d5be1deb811c4
     Pseudo is Ultrasoft, Zval =  5.0
     Generated by new atomic code, or converted to UPF format
     Using radial grid of  729 points,  4 beta functions with:
                l(1) =   0
                l(2) =   0
                l(3) =   1
                l(4) =   1
     Q(r) pseudized with  8 coefficients,  rinner =    0.800   0.800   0.800

     PseudoPot. # 4 for C  read from file:
     /storage/coda1/p-amedford6/0/shared/rich_project_chbe-medford/medford-share/data/pseudos_module/espresso/nninc/pbe/van/C.UPF
     MD5 check sum: 1a69bf6b8db32088f5b2163dbdb77a27
     Pseudo is Ultrasoft, Zval =  4.0
     Generated by new atomic code, or converted to UPF format
     Using radial grid of  721 points,  4 beta functions with:
                l(1) =   0
                l(2) =   0
                l(3) =   1
                l(4) =   1
     Q(r) pseudized with  8 coefficients,  rinner =    0.800   0.800   0.800

     PseudoPot. # 5 for H  read from file:
     /storage/coda1/p-amedford6/0/shared/rich_project_chbe-medford/medford-share/data/pseudos_module/espresso/nninc/pbe/van/H.UPF
     MD5 check sum: b5ee9d7bfd3a09ee7748110bda690ff7
     Pseudo is Ultrasoft, Zval =  1.0
     Generated by new atomic code, or converted to UPF format
     Using radial grid of  615 points,  1 beta functions with:
                l(1) =   0
     Q(r) pseudized with  8 coefficients,  rinner =    0.800

     atomic species   valence    mass     pseudopotential
        Ti1           12.00    47.86700     Ti( 1.00)
        O1             6.00    15.99900     O ( 1.00)
        N1             5.00    14.00700     N ( 1.00)
        C1             4.00    12.01100     C ( 1.00)
        H1             1.00     1.00800     H ( 1.00)

     Starting magnetic structure
     atomic species   magnetization
        Ti1          0.000
        O1           0.000
        N1           0.000
        C1           0.025
        H1           0.000

     No symmetry found

   Cartesian axes

     site n.     atom                  positions (alat units)
         1           Ti1 tau(   1) = (   0.0004258   2.9801865   6.0000000  )
         2           Ti1 tau(   2) = (   3.2906075   1.4906267   6.0002472  )
         3           O1  tau(   3) = (   0.0006271   0.0005054   7.9858123  )
         4           O1  tau(   4) = (   3.2906025   0.0005020   7.3038282  )
         5           O1  tau(   5) = (   4.5942328   1.4918067   9.2879030  )
         6           O1  tau(   6) = (   1.9868534   1.4903216   9.2879459  )
         7           Ti1 tau(   7) = (   3.2907910   2.8959150   9.1758416  )
         8           Ti1 tau(   8) = (   0.0015273   1.4827037   9.2680791  )
         9           O1  tau(   9) = (   3.3020592   5.9599881  11.3075072  )
        10           O1  tau(  10) = (   0.0116148   5.9584955  10.6183126  )
        11           O1  tau(  11) = (   1.3218652   1.4872367  12.6142461  )
        12           O1  tau(  12) = (   5.3149618   1.4866655  12.6283206  )
        13           Ti1 tau(  13) = (   6.5343381   3.0098038  12.6530281  )
        14           Ti1 tau(  14) = (   3.2132235   1.4912063  12.4551521  )
        15           O1  tau(  15) = (   0.0515422   5.9562953  14.6829507  )
        16           O1  tau(  16) = (   3.3088797   0.0214154  13.8770011  )
        17           O1  tau(  17) = (   4.5726725   1.5412406  16.1224456  )
        18           O1  tau(  18) = (   2.0900022   1.5114086  15.9969863  )
        19           Ti1 tau(  19) = (   3.3311046   3.0200058  15.6476981  )
        20           Ti1 tau(  20) = (   0.0790784   1.4105808  15.8036947  )
        21           O1  tau(  21) = (   3.2904802   0.0005063   4.7018136  )
        22           O1  tau(  22) = (   0.0613336   0.0214447  17.2555488  )
        23           O1  tau(  23) = (   1.3043587   1.4918075   6.0039043  )
        24           O1  tau(  24) = (   5.2767064   1.4903225   6.0039473  )
        25           Ti1 tau(  25) = (   0.0000382   5.9609847   6.0000000  )
        26           Ti1 tau(  26) = (   3.2902200   4.4714249   6.0002472  )
        27           O1  tau(  27) = (   0.0002396   2.9813036   7.9858123  )
        28           O1  tau(  28) = (   3.2902150   2.9813002   7.3038282  )
        29           O1  tau(  29) = (   4.5938453   4.4726049   9.2879030  )
        30           O1  tau(  30) = (   1.9864658   4.4711199   9.2879459  )
        31           Ti1 tau(  31) = (   3.2891106   5.8743827   9.1763621  )
        32           Ti1 tau(  32) = (   0.0006254   4.4649316   9.2693709  )
        33           O1  tau(  33) = (   3.3026341   2.9893090  11.3092672  )
        34           O1  tau(  34) = (   0.0092240   2.9805883  10.6323155  )
        35           O1  tau(  35) = (   1.3182942   4.4670451  12.6271195  )
        36           O1  tau(  36) = (   5.3124783   4.4780259  12.6376329  )
        37           Ti1 tau(  37) = (   6.5365500   0.0194685  12.5464133  )
        38           Ti1 tau(  38) = (   3.2155898   4.4753301  12.4613306  )
        39           O1  tau(  39) = (   0.0167368   2.9407051  14.7244952  )
        40           O1  tau(  40) = (   3.3149560   2.9822459  13.8616979  )
        41           O1  tau(  41) = (   4.5706274   4.5128733  15.9228735  )
        42           O1  tau(  42) = (   2.1262058   4.4922812  16.0793225  )
        43           Ti1 tau(  43) = (   3.3222298   0.0210159  15.6751784  )
        44           Ti1 tau(  44) = (   6.5499002   4.5104744  16.2959303  )
        45           O1  tau(  45) = (   3.2900926   2.9813045   4.7018136  )
        46           O1  tau(  46) = (   1.3039711   4.4726057   6.0039043  )
        47           O1  tau(  47) = (   5.2763189   4.4711207   6.0039473  )
        48           N1  tau(  48) = (   0.3735289   2.9861087  17.6038306  )
        49           C1  tau(  49) = (   1.3580301   2.7301661  18.6431808  )
        50           H1  tau(  50) = (   1.5128655   3.6233449  19.2641712  )
        51           H1  tau(  51) = (   1.0354786   1.8978442  19.2795547  )
        52           H1  tau(  52) = (   2.3065860   2.4573273  18.1987077  )
        53           N1  tau(  53) = (   5.7326324   3.4596218  18.1373629  )
        54           H1  tau(  54) = (   5.8436824   4.0267099  18.9748678  )
        55           H1  tau(  55) = (   5.0375616   2.7244768  18.2555579  )

     number of k points=    10  Fermi-Dirac smearing, width (Ry)=  0.0073
                       cart. coord. in units 2pi/alat
        k(    1) = (   0.0000000   0.0000000   0.0000000), wk =   0.0625000
        k(    2) = (   0.0000000   0.0419351   0.0000000), wk =   0.1250000
        k(    3) = (   0.0000000  -0.0838702   0.0000000), wk =   0.0625000
        k(    4) = (   0.0379955   0.0000049   0.0000000), wk =   0.1250000
        k(    5) = (   0.0379955   0.0419400   0.0000000), wk =   0.1250000
        k(    6) = (   0.0379955  -0.0838652   0.0000000), wk =   0.1250000
[...]
     %                                                                      %
     % You are using vdW-DF, which was implemented by the Thonhauser group. %
     % Please cite the following two papers that made this development      %
     % possible and the two reviews that describe the various versions:     %
     %                                                                      %
     %   T. Thonhauser et al., PRL 115, 136402 (2015).                      %
     %   T. Thonhauser et al., PRB 76, 125112 (2007).                       %
     %   K. Berland et al., Rep. Prog. Phys. 78, 066501 (2015).             %
     %   D.C. Langreth et al., J. Phys.: Condens. Matter 21, 084203 (2009). %
     %                                                                      %
     %                                                                      %
     % If you are calculating the stress with vdW-DF, please also cite:     %
     %                                                                      %
     %   R. Sabatini et al., J. Phys.: Condens. Matter 24, 424209 (2012).   %
     %                                                                      %
     %%%%%%%%%%%%%%%%%%%%%%%%%%%%%%%%%%%%%%%%%%%%%%%%%%%%%%%%%%%%%%%%%%%%%%%%

     Adding external electric field

     Computed dipole along edir(3) :
        Dipole               -9.2582 Ry au,        -23.5319 Debye
        Dipole field         -0.0175 Ry au,

        Potential amp.        1.6196 Ry
        Total length         46.3494 bohr

[...]

     Starting wfcs are  301 atomic wfcs
  @ DRIVER MODE: Message from server: STATUS
  @ DRIVER MODE: Message from server: POSDATA
  @ DRIVER MODE: Reading and sharing cell
  @ DRIVER MODE: Reading and sharing positions
  @ DRIVER MODE: Received positions

     Self-consistent Calculation

     iteration #  1     ecut=    29.40 Ry     beta= 0.05
     Davidson diagonalization with overlap
     c_bands:  1 eigenvalues not converged
     c_bands:  2 eigenvalues not converged
     c_bands:  1 eigenvalues not converged
     c_bands:  2 eigenvalues not converged
     c_bands:  2 eigenvalues not converged
     c_bands:  2 eigenvalues not converged
     c_bands:  2 eigenvalues not converged
     c_bands:  1 eigenvalues not converged
     c_bands:  4 eigenvalues not converged
     c_bands:  1 eigenvalues not converged
     c_bands:  2 eigenvalues not converged
     c_bands:  1 eigenvalues not converged
     c_bands:  2 eigenvalues not converged
     c_bands:  2 eigenvalues not converged
     c_bands:  2 eigenvalues not converged
     c_bands:  2 eigenvalues not converged
     c_bands:  1 eigenvalues not converged
     c_bands:  4 eigenvalues not converged
     ethr =  1.00E-05,  avg # of iterations = 19.8

[...]

     total energy              =   -2525.30165599 Ry
     estimated scf accuracy    <    4616.10802465 Ry

     total magnetization       =     0.00 Bohr mag/cell
     absolute magnetization    =     0.03 Bohr mag/cell

     iteration #  2     ecut=    29.40 Ry     beta= 0.05
     Davidson diagonalization with overlap
     ethr =  1.00E-02,  avg # of iterations = 23.6

[...]

     iteration # 58     ecut=    29.40 Ry     beta= 0.05
     Davidson diagonalization with overlap
     c_bands:  1 eigenvalues not converged
     ethr =  5.27E-10,  avg # of iterations = 11.3

[...]

     total energy              =   -2941.63806070 Ry
     estimated scf accuracy    <       0.00000032 Ry

[...]

     iteration # 67     ecut=    29.40 Ry     beta= 0.05
     Davidson diagonalization with overlap
     ethr =  5.25E-11,  avg # of iterations = 10.2

     negative rho (up, down):  8.394E-03 8.394E-03

[...]

     Adding external electric field

     Computed dipole along edir(3) :
        Dipole                1.1481 Ry au,          2.9182 Debye
        Dipole field          0.0022 Ry au,

        Potential amp.       -0.2008 Ry
        Total length         46.3494 bohr

     Magnetic moment per site  (integrated on atomic sphere of radius R)
     atom   1 (R=0.726)  charge=  7.9408  magn=  0.0084
     atom   2 (R=0.726)  charge=  7.9244  magn=  0.0001
     atom   3 (R=0.726)  charge=  4.9319  magn= -0.0007
     atom   4 (R=0.726)  charge=  4.9681  magn= -0.0000
     atom   5 (R=0.726)  charge=  4.9368  magn= -0.0001
     atom   6 (R=0.726)  charge=  4.9376  magn= -0.0001
     atom   7 (R=0.726)  charge=  7.9229  magn=  0.0002
     atom   8 (R=0.726)  charge=  7.9151  magn=  0.0026
     atom   9 (R=0.726)  charge=  4.9562  magn=  0.0000
     atom  10 (R=0.726)  charge=  4.9311  magn= -0.0002
     atom  11 (R=0.726)  charge=  4.9387  magn= -0.0000
     atom  12 (R=0.726)  charge=  4.9369  magn= -0.0000
     atom  13 (R=0.726)  charge=  7.9088  magn=  0.0005
     atom  14 (R=0.726)  charge=  7.9273  magn=  0.0001
     atom  15 (R=0.726)  charge=  4.9165  magn= -0.0000
     atom  16 (R=0.726)  charge=  4.9542  magn=  0.0000
     atom  17 (R=0.726)  charge=  4.9068  magn= -0.0000
     atom  18 (R=0.726)  charge=  4.9387  magn= -0.0000
     atom  19 (R=0.726)  charge=  7.9528  magn= -0.0000
     atom  20 (R=0.726)  charge=  7.9411  magn=  0.0001
     atom  21 (R=0.726)  charge=  4.8212  magn=  0.0002
     atom  22 (R=0.726)  charge=  4.9007  magn= -0.0000
     atom  23 (R=0.726)  charge=  4.9281  magn= -0.0009
     atom  24 (R=0.726)  charge=  4.9282  magn= -0.0009
     atom  25 (R=0.726)  charge=  7.9408  magn=  0.0083
     atom  26 (R=0.726)  charge=  7.9244  magn=  0.0001
     atom  27 (R=0.726)  charge=  4.9306  magn= -0.0007
     atom  28 (R=0.726)  charge=  4.9683  magn= -0.0000
     atom  29 (R=0.726)  charge=  4.9375  magn= -0.0001
     atom  30 (R=0.726)  charge=  4.9383  magn= -0.0001
     atom  31 (R=0.726)  charge=  7.9236  magn=  0.0002
     atom  32 (R=0.726)  charge=  7.9153  magn=  0.0026
     atom  33 (R=0.726)  charge=  4.9540  magn=  0.0000
     atom  34 (R=0.726)  charge=  4.9049  magn= -0.0002
     atom  35 (R=0.726)  charge=  4.9378  magn= -0.0000
     atom  36 (R=0.726)  charge=  4.9369  magn= -0.0000
     atom  37 (R=0.726)  charge=  7.9160  magn=  0.0005
     atom  38 (R=0.726)  charge=  7.9271  magn=  0.0001
     atom  39 (R=0.726)  charge=  4.9089  magn= -0.0000
     atom  40 (R=0.726)  charge=  4.9620  magn=  0.0000
     atom  41 (R=0.726)  charge=  4.9464  magn= -0.0000
     atom  42 (R=0.726)  charge=  4.9157  magn= -0.0000
     atom  43 (R=0.726)  charge=  7.9490  magn=  0.0000
     atom  44 (R=0.726)  charge=  7.9600  magn=  0.0000
     atom  45 (R=0.726)  charge=  4.8212  magn=  0.0001
     atom  46 (R=0.726)  charge=  4.9281  magn= -0.0009
     atom  47 (R=0.726)  charge=  4.9282  magn= -0.0009
     atom  48 (R=0.420)  charge=  1.3151  magn= -0.0000
     atom  49 (R=0.447)  charge=  0.8356  magn=  0.0000
     atom  50 (R=0.420)  charge=  0.4417  magn= -0.0000
     atom  51 (R=0.420)  charge=  0.4405  magn= -0.0000
     atom  52 (R=0.420)  charge=  0.4502  magn= -0.0000
     atom  53 (R=0.420)  charge=  1.3378  magn=  0.0000
     atom  54 (R=0.420)  charge=  0.4533  magn= -0.0000
     atom  55 (R=0.420)  charge=  0.4498  magn= -0.0000

     End of self-consistent calculation

 ------ SPIN UP ------------

          k = 0.0000 0.0000 0.0000 ( 18029 PWs)   bands (ev):

   -55.5778 -55.5738 -55.5437 -55.5360 -55.4608 -55.4236 -55.4227 -55.3872
   -55.3726 -55.3385 -55.3268 -55.2929 -55.0308 -54.8744 -54.5372 -54.5032
   -32.1358 -32.0542 -31.9583 -31.8912 -31.8874 -31.8768 -31.8712 -31.8190
   -31.8172 -31.8053 -31.7837 -31.7584 -31.7540 -31.7313 -31.7257 -31.7149
   -31.6763 -31.6596 -31.6580 -31.6494 -31.6485 -31.6366 -31.6134 -31.5962
   -31.5701 -31.5677 -31.5669 -31.5596 -31.5570 -31.5304 -31.5069 -31.5064
   -31.4943 -31.4913 -31.4810 -31.4759 -31.4401 -31.3050 -31.2557 -31.1544
   -31.1270 -31.0354 -30.9432 -30.8569 -30.8343 -30.7604 -30.6740 -30.5625
   -17.5817 -16.3611 -16.0481 -15.8339 -15.7251 -15.7219 -15.6378 -15.4162
   -15.2949 -15.2800 -15.1654 -15.1615 -15.1008 -15.0603 -15.0530 -15.0460
   -15.0132 -15.0020 -14.9829 -14.9480 -14.9155 -14.8971 -14.8736 -14.7720
   -14.7051 -14.6984 -14.6814 -14.6166 -14.5686 -14.2088 -13.0395 -12.9233
   -12.5391  -9.2056  -6.3459  -5.0893  -4.2062  -3.7395  -3.5499  -3.4738
    -3.4382  -3.3708  -3.3402  -3.1800  -3.1731  -2.7938  -2.7744  -2.7564
    -2.7352  -2.7317  -2.4628  -2.4103  -2.3948  -2.3919  -2.3742  -2.3570
    -2.3361  -2.3255  -2.2979  -2.2878  -2.1533  -2.1096  -2.0311  -2.0047
    -1.9896  -1.8790  -1.8529  -1.8328  -1.8210  -1.8078  -1.7785  -1.7716
    -1.7498  -1.6418  -1.5325  -1.4528  -1.4139  -1.3600  -1.3416  -1.1631
    -1.1101  -1.0505  -1.0268  -1.0022  -0.9878  -0.9542  -0.8796  -0.8551
    -0.7130  -0.6745  -0.6201  -0.5939  -0.5652  -0.5093  -0.4757  -0.4456
    -0.3508  -0.3372  -0.3257  -0.3136  -0.2578  -0.0652  -0.0176   0.0015
     0.0165   0.1156   0.1550   0.1797   0.2140   0.2708   0.2988   0.3635
     0.3922   0.4133   0.4232   0.4516   0.4683   0.6004   0.6254   0.6562
     0.7179   0.7712   0.8471   0.9594   1.0420   1.0984   1.2003   1.4177
     1.4850   1.5699   1.6788   1.7105   2.0547   2.0995   3.5613   3.6460
     3.6934   3.7059   3.8133   3.8678   4.0111   4.0236   4.0624   4.0952

[...]

          k =-0.0760-0.0000 0.0000 ( 17886 PWs)   bands (ev):

[...]

 ------ SPIN DOWN ----------

[...]

          k = 0.0380-0.0419 0.0000 ( 17876 PWs)   bands (ev):

[...]

          k =-0.0760-0.0839 0.0000 ( 17948 PWs)   bands (ev):

   -55.5602 -55.5494 -55.5458 -55.5446 -55.4486 -55.4340 -55.4086 -55.4011
   -55.3520 -55.3487 -55.3113 -55.3077 -55.0293 -54.8756 -54.5205 -54.5204
   -31.9416 -31.9311 -31.8636 -31.8629 -31.8434 -31.8396 -31.8386 -31.8268
   -31.8017 -31.7879 -31.7675 -31.7479 -31.7224 -31.7117 -31.7064 -31.6806
   -31.6769 -31.6650 -31.6641 -31.6637 -31.6622 -31.6519 -31.6484 -31.6459
   -31.6244 -31.6126 -31.6022 -31.6005 -31.5504 -31.5483 -31.5439 -31.5416
   -31.5316 -31.5285 -31.5259 -31.5242 -31.4106 -31.3160 -31.2574 -31.2155
   -31.1325 -31.0466 -30.8472 -30.8471 -30.7567 -30.7565 -30.7175 -30.7174
   -17.5698 -15.8210 -15.7811 -15.5261 -15.5176 -15.5145 -15.4753 -15.3510
   -15.3021 -15.2764 -15.2655 -15.2471 -15.2381 -15.1368 -15.1232 -15.1066
   -15.0968 -15.0696 -15.0267 -15.0215 -15.0126 -15.0035 -14.9918 -14.9248
   -14.8727 -14.8688 -14.7545 -14.6630 -14.5224 -14.4338 -13.0241 -13.0240
   -12.5584  -9.1664  -6.3047  -5.1190  -4.1391  -3.4107  -3.1215  -3.0740
    -2.7861  -2.7666  -2.7510  -2.6376  -2.5188  -2.5092  -2.4833  -2.4617
    -2.4272  -2.4147  -2.4044  -2.3966  -2.3783  -2.3602  -2.3494  -2.3097
    -2.2408  -2.2329  -2.2254  -2.2165  -2.1998  -2.1762  -2.1654  -2.1383
    -2.1138  -2.0793  -2.0201  -1.9890  -1.8393  -1.7955  -1.7343  -1.6954
    -1.6868  -1.6579  -1.6243  -1.6169  -1.5061  -1.4916  -1.4581  -1.3281
    -1.2676  -1.2596  -1.2269  -1.1391  -1.1007  -0.9714  -0.9583  -0.9210
    -0.8659  -0.8579  -0.8208  -0.7827  -0.7319  -0.6798  -0.6362  -0.6134
    -0.5951  -0.5239  -0.5234  -0.4761  -0.4196  -0.3496  -0.3260  -0.3187
    -0.2867  -0.2433  -0.1956  -0.1324  -0.0569  -0.0382  -0.0227   0.0763
     0.1497   0.3685   0.4156   0.5125   0.5346   0.5620   0.6222   0.6718
     0.7404   0.7551   0.7833   0.8575   0.8795   0.9712   0.9827   0.9998
     1.1775   1.6463   1.8513   1.8523   1.9204   1.9209   3.8584   3.8744
     3.8986   3.9225   4.0888   4.0932   4.1035   4.1063   4.2267   4.2567

     the Fermi energy is     3.5641 ev

!    total energy              =   -2941.63808390 Ry
     estimated scf accuracy    <       0.00000007 Ry
     smearing contrib. (-TS)   =      -0.02170998 Ry
     internal energy E=F+TS    =   -2941.61637392 Ry

     The total energy is F=E-TS. E is the sum of the following terms:
     one-electron contribution =  -24388.11789325 Ry
     hartree contribution      =   12286.02100033 Ry
     xc contribution           =    -486.94318649 Ry
     ewald contribution        =    9647.42121797 Ry
     electric field correction =       0.00248752 Ry

     total magnetization       =     0.03 Bohr mag/cell
     absolute magnetization    =     0.05 Bohr mag/cell

     convergence has been achieved in  67 iterations

     Forces acting on atoms (cartesian axes, Ry/au):

     atom    1 type  1   force =    -0.00001225   -0.00019557    0.09686070
     atom    2 type  1   force =     0.00009109   -0.00068762   -0.17461768
     atom    3 type  2   force =     0.00018292   -0.00006263   -0.02511629
     atom    4 type  2   force =     0.00000758   -0.00124934    0.05118242
     atom    5 type  2   force =    -0.01126779   -0.00079789    0.00228043
     atom    6 type  2   force =     0.01310919   -0.00034791    0.00272482
     atom    7 type  1   force =     0.00100444    0.00021836   -0.01337915
     atom    8 type  1   force =    -0.00009987    0.01533186    0.02827989
     atom    9 type  2   force =    -0.00007172   -0.00001241    0.00009610
     atom   10 type  2   force =    -0.00234240    0.00080434   -0.01060173
     atom   11 type  2   force =     0.00036049    0.00006036   -0.00002158
     atom   12 type  2   force =    -0.00042835   -0.00006104    0.00024809
     atom   13 type  1   force =     0.00014750   -0.00018651   -0.00006332
     atom   14 type  1   force =     0.00010226   -0.00021955    0.00002422
     atom   15 type  2   force =    -0.00004975    0.00020385   -0.00009608
     atom   16 type  2   force =    -0.00019974    0.00003337   -0.00018665
     atom   17 type  2   force =    -0.00012643    0.00007670   -0.00005937
     atom   18 type  2   force =    -0.00014949    0.00004919   -0.00013691
     atom   19 type  1   force =    -0.00029284    0.00016399   -0.00000744
     atom   20 type  1   force =     0.00005778   -0.00049050    0.00019014
     atom   21 type  2   force =     0.00003743   -0.00009123    0.10300745
     atom   22 type  2   force =    -0.00008572    0.00034077    0.00045160
     atom   23 type  2   force =    -0.07181950   -0.00020974   -0.02780659
     atom   24 type  2   force =     0.07177756    0.00024583   -0.02786815
     atom   25 type  1   force =     0.00002811   -0.00025982    0.09646660
     atom   26 type  1   force =    -0.00000180   -0.00029399   -0.17488726
     atom   27 type  2   force =     0.00019246   -0.00025389   -0.02397780
     atom   28 type  2   force =     0.00005282   -0.00100658    0.05145350
     atom   29 type  2   force =    -0.01129452    0.00078904    0.00169373
     atom   30 type  2   force =     0.01298505    0.00111669    0.00208969
     atom   31 type  1   force =     0.00103506    0.00257407   -0.01540480
     atom   32 type  1   force =     0.00005515   -0.01663900    0.02915846
     atom   33 type  2   force =     0.00011704    0.00002695   -0.00011255
     atom   34 type  2   force =    -0.00271244    0.00093618   -0.01870375
     atom   35 type  2   force =     0.00017851   -0.00008005   -0.00009395
     atom   36 type  2   force =    -0.00037248   -0.00008034    0.00012580
     atom   37 type  1   force =    -0.00010924   -0.00019801    0.00014054
     atom   38 type  1   force =     0.00007513    0.00008470   -0.00006614
     atom   39 type  2   force =    -0.00003471    0.00043771   -0.00000091
     atom   40 type  2   force =    -0.00038074    0.00014830   -0.00013636
     atom   41 type  2   force =     0.00008581   -0.00001386   -0.00010709
     atom   42 type  2   force =     0.00002845    0.00019485    0.00003249
     atom   43 type  1   force =     0.00016112    0.00004687   -0.00008443
     atom   44 type  1   force =    -0.00028552   -0.00045098   -0.00034038
     atom   45 type  2   force =     0.00005327   -0.00011062    0.10301671
     atom   46 type  2   force =    -0.07184388   -0.00016127   -0.02782705
     atom   47 type  2   force =     0.07178600    0.00022567   -0.02787162
     atom   48 type  3   force =    -0.00108666   -0.00004849    0.00064176
     atom   49 type  4   force =    -0.00205546    0.00205387    0.00107302
     atom   50 type  5   force =    -0.00117003    0.00035696    0.00053725
     atom   51 type  5   force =     0.00036387   -0.00032001   -0.00063937
     atom   52 type  5   force =     0.00326882   -0.00257431   -0.00098878
     atom   53 type  3   force =     0.00079833    0.00040642   -0.00009847
     atom   54 type  5   force =     0.00038310   -0.00012078    0.00108926
     atom   55 type  5   force =    -0.00023300    0.00029702   -0.00156304

     Total force =     0.367301     Total SCF correction =     0.000582
  @ DRIVER MODE: Message from server: STATUS
  @ DRIVER MODE: Message from server: GETFORCE
  @ DRIVER MODE: Returning v,forces,stress,ensemble

     Writing output data file ./calc.save/
  @ DRIVER MODE: Message from server: EXIT
  @ DRIVE MODE: Exiting

     General routines

     Parallel routines

   This run was terminated on:  11:58:17  16Jul2021

   JOB DONE.