     Program PWSCF v.6.7GPU starts on 15Sep2021 at 17:11:37

     R & G space division:  proc/nbgrp/npool/nimage =      10
     Reading input from /storage/home/hcoda1/3/ntian30/research/carbon/CxH_vib/H2O_calc/ads_slab/CH3OHH2O_e/out_0005/pw.inp
Warning: card &CELL ignored
Warning: card   CELL_DYNAMICS='IPI', ignored
Warning: card / ignored

     Current dimensions of program PWSCF are:
     Max number of different atomic species (ntypx) = 10
     Max number of k-points (npk) =  40000
     Max angular momentum in pseudopotentials (lmaxx) =  3
     Presently no symmetry can be used with electric field

     Message from routine cell_base_init:
     DEPRECATED: use true lattice parameter, not A to a.u. conversion factor

     IMPORTANT: XC functional enforced from input :
     Exchange-correlation= BEEF-VDW
                           (   1   4  43  14   2   0   0)
     Any further DFT definition will be discarded
     Please, verify this is what you really want

  @ DRIVER MODE: Connecting to
 qe_1139763_2852623.sched-torque.pace.gatech.eduqvpk17l8_scratch
  using UNIX socket
  @ DRIVER MODE: Message from server: STATUS
  @ DRIVER MODE: Message from server: INIT
  @ DRIVER MODE: Receiving replica           0          -1
  @ DRIVER MODE: Receiving encoded integer          25
  @ DRIVER MODE:  SCF:  T  FORCE:  T  STRESS:  F  VC:  F  ENSEMBLE:  F
  @ DRIVER MODE:  SCF:  T  FORCE:  T  STRESS:  F  VC:  F  ENSEMBLE:  F

     Using Slab Decomposition

     bravais-lattice index     =            0
     lattice parameter (alat)  =       1.8897  a.u.
     unit-cell volume          =    6658.9804 (a.u.)^3
     number of atoms/cell      =           56
     number of atomic types    =            4
     number of electrons       =       400.00
     number of Kohn-Sham states=          210
     kinetic-energy cutoff     =      29.3995  Ry
     charge density cutoff     =     293.9946  Ry
     scf convergence threshold =      7.3E-08
     mixing beta               =       0.0500
     number of iterations used =            8  plain     mixing
     Exchange-correlation= BEEF-VDW
                           (   1   4  43  14   2   0   0)

     celldm(1)=   1.889726  celldm(2)=   0.000000  celldm(3)=   0.000000
     celldm(4)=   0.000000  celldm(5)=   0.000000  celldm(6)=   0.000000

     crystal axes: (cart. coord. in units of alat)
               a(1) = (   6.579727   0.000000   0.000000 )
               a(2) = (  -0.000775   5.961596   0.000000 )
               a(3) = (   0.000000   0.000000  25.155947 )

     reciprocal axes: (cart. coord. in units 2 pi/alat)
               b(1) = (  0.151982  0.000020  0.000000 )
               b(2) = (  0.000000  0.167740  0.000000 )
               b(3) = (  0.000000  0.000000  0.039752 )

     PseudoPot. # 1 for Ti read from file:
     /storage/coda1/p-amedford6/0/shared/rich_project_chbe-medford/medford-share/data/pseudos_module/espresso/nninc/pbe/van/Ti.UPF
     MD5 check sum: 8e4df49b7f0d34bbd5052bf3f5ea0213
     Pseudo is Ultrasoft, Zval = 12.0
     Generated by new atomic code, or converted to UPF format
     Using radial grid of  851 points,  6 beta functions with:
                l(1) =   0
                l(2) =   0
                l(3) =   1
                l(4) =   1
                l(5) =   2
                l(6) =   2
     Q(r) pseudized with  8 coefficients,  rinner =    1.000   1.000   1.000
                                                       1.000   1.000

     PseudoPot. # 2 for O  read from file:
     /storage/coda1/p-amedford6/0/shared/rich_project_chbe-medford/medford-share/data/pseudos_module/espresso/nninc/pbe/van/O.UPF
     MD5 check sum: 78c19812648e8988a0fe644b0f25305e
     Pseudo is Ultrasoft, Zval =  6.0
     Generated by new atomic code, or converted to UPF format
     Using radial grid of  737 points,  4 beta functions with:
                l(1) =   0
                l(2) =   0
                l(3) =   1
                l(4) =   1
     Q(r) pseudized with  8 coefficients,  rinner =    0.800   0.800   0.800

     PseudoPot. # 3 for C  read from file:
     /storage/coda1/p-amedford6/0/shared/rich_project_chbe-medford/medford-share/data/pseudos_module/espresso/nninc/pbe/van/C.UPF
     MD5 check sum: 1a69bf6b8db32088f5b2163dbdb77a27
     Pseudo is Ultrasoft, Zval =  4.0
     Generated by new atomic code, or converted to UPF format
     Using radial grid of  721 points,  4 beta functions with:
                l(1) =   0
                l(2) =   0
                l(3) =   1
                l(4) =   1
     Q(r) pseudized with  8 coefficients,  rinner =    0.800   0.800   0.800

     PseudoPot. # 4 for H  read from file:
     /storage/coda1/p-amedford6/0/shared/rich_project_chbe-medford/medford-share/data/pseudos_module/espresso/nninc/pbe/van/H.UPF
     MD5 check sum: b5ee9d7bfd3a09ee7748110bda690ff7
     Pseudo is Ultrasoft, Zval =  1.0
     Generated by new atomic code, or converted to UPF format
     Using radial grid of  615 points,  1 beta functions with:
                l(1) =   0
     Q(r) pseudized with  8 coefficients,  rinner =    0.800

     atomic species   valence    mass     pseudopotential
        Ti1           12.00    47.86700     Ti( 1.00)
        O1             6.00    15.99900     O ( 1.00)
        C1             4.00    12.01100     C ( 1.00)
        H1             1.00     1.00800     H ( 1.00)

     No symmetry found

   Cartesian axes

     site n.     atom                  positions (alat units)
         1           Ti1 tau(   1) = (   0.0004258   2.9801865   6.0000000  )
         2           Ti1 tau(   2) = (   3.2906075   1.4906267   6.0002472  )
         3           O1  tau(   3) = (   0.0006271   0.0005054   7.9858123  )
         4           O1  tau(   4) = (   3.2906025   0.0005020   7.3038282  )
         5           O1  tau(   5) = (   4.5942328   1.4918067   9.2879030  )
         6           O1  tau(   6) = (   1.9868534   1.4903216   9.2879459  )
         7           Ti1 tau(   7) = (   3.3179988   2.9667087   9.1587561  )
         8           Ti1 tau(   8) = (   0.0368451   1.4888401   9.2646154  )
         9           O1  tau(   9) = (   3.2981896   5.9413050  11.3756853  )
        10           O1  tau(  10) = (   0.0022081   5.9550161  10.6068466  )
        11           O1  tau(  11) = (   1.2930414   1.4711740  12.6526869  )
        12           O1  tau(  12) = (   5.2963464   1.4745835  12.6500758  )
        13           Ti1 tau(  13) = (   0.0229324   2.9590759  12.5385950  )
        14           Ti1 tau(  14) = (   3.3157970   1.4644123  12.5194148  )
        15           O1  tau(  15) = (   6.5691168   5.9481840  14.6869282  )
        16           O1  tau(  16) = (   3.2964787   5.9455965  14.0277316  )
        17           O1  tau(  17) = (   4.5665908   1.5027878  16.2081754  )
        18           O1  tau(  18) = (   2.0283028   1.5092035  16.1774433  )
        19           Ti1 tau(  19) = (   3.2999954   2.9453206  15.7178785  )
        20           Ti1 tau(  20) = (   6.5724188   1.3235339  15.9896992  )
        21           O1  tau(  21) = (   3.2904802   0.0005063   4.7018136  )
        22           O1  tau(  22) = (   0.0286320   5.9425150  17.2304330  )
        23           O1  tau(  23) = (   1.3043587   1.4918075   6.0039043  )
        24           O1  tau(  24) = (   5.2767064   1.4903225   6.0039473  )
        25           Ti1 tau(  25) = (   0.0000382   5.9609847   6.0000000  )
        26           Ti1 tau(  26) = (   3.2902200   4.4714249   6.0002472  )
        27           O1  tau(  27) = (   0.0002396   2.9813036   7.9858123  )
        28           O1  tau(  28) = (   3.2902150   2.9813002   7.3038282  )
        29           O1  tau(  29) = (   4.5938453   4.4726049   9.2879030  )
        30           O1  tau(  30) = (   1.9864658   4.4711199   9.2879459  )
        31           Ti1 tau(  31) = (   3.3176359   5.9492212   9.1540102  )
        32           Ti1 tau(  32) = (   0.0367062   4.4560090   9.2708352  )
        33           O1  tau(  33) = (   3.2951800   2.9650663  11.3684769  )
        34           O1  tau(  34) = (   0.0080098   2.9764013  10.6279654  )
        35           O1  tau(  35) = (   1.2931912   4.4560454  12.6592269  )
        36           O1  tau(  36) = (   5.2946864   4.4524020  12.6579832  )
        37           Ti1 tau(  37) = (   0.0159028   5.9413441  12.4831893  )
        38           Ti1 tau(  38) = (   3.3151975   4.4500431  12.5204281  )
        39           O1  tau(  39) = (   0.0034497   2.9621527  14.8596962  )
        40           O1  tau(  40) = (   3.2989893   2.9535984  13.9376031  )
        41           O1  tau(  41) = (   4.5724332   4.4114593  16.1445292  )
        42           O1  tau(  42) = (   2.0255208   4.3883007  16.1585022  )
        43           Ti1 tau(  43) = (   3.2821299   5.9114753  15.8432964  )
        44           Ti1 tau(  44) = (   6.5414858   4.5242847  15.8739915  )
        45           O1  tau(  45) = (   3.2900926   2.9813045   4.7018136  )
        46           O1  tau(  46) = (   1.3039711   4.4726057   6.0039043  )
        47           O1  tau(  47) = (   5.2763189   4.4711207   6.0039473  )
        48           C1  tau(  48) = (   5.9754720   3.1749164  18.9178073  )
        49           O1  tau(  49) = (   0.1533887   3.0270296  17.7012840  )
        50           H1  tau(  50) = (   4.9293134   3.0706859  18.6584277  )
        51           H1  tau(  51) = (   1.0910173   3.2466920  17.8500278  )
        52           H1  tau(  52) = (   6.2690755   2.3937635  19.6305738  )
        53           H1  tau(  53) = (   6.1431946   4.1694627  19.3379575  )
        54           O1  tau(  54) = (   3.1723115   5.9428592  18.3689464  )
        55           H1  tau(  55) = (   3.8852673   0.6353712  18.4582360  )
        56           H1  tau(  56) = (   2.3406934   0.4831942  18.3201771  )

     number of k points=    10  Fermi-Dirac smearing, width (Ry)=  0.0073
                       cart. coord. in units 2pi/alat
        k(    1) = (   0.0000000   0.0000000   0.0000000), wk =   0.1250000
        k(    2) = (   0.0000000   0.0419351   0.0000000), wk =   0.2500000
        k(    3) = (   0.0000000  -0.0838702   0.0000000), wk =   0.1250000
        k(    4) = (   0.0379955   0.0000049   0.0000000), wk =   0.2500000
        k(    5) = (   0.0379955   0.0419400   0.0000000), wk =   0.2500000
        k(    6) = (   0.0379955  -0.0838652   0.0000000), wk =   0.2500000
        k(    7) = (   0.0379955  -0.0419301   0.0000000), wk =   0.2500000
        k(    8) = (  -0.0759910  -0.0000099   0.0000000), wk =   0.1250000
        k(    9) = (  -0.0759910   0.0419252   0.0000000), wk =   0.2500000
        k(   10) = (  -0.0759910  -0.0838800   0.0000000), wk =   0.1250000

     Initial potential from superposition of free atoms

     starting charge  383.99915, renormalised to  400.00000

     negative rho (up, down):  1.600E-02 0.000E+00

     %%%%%%%%%%%%%%%%%%%%%%%%%%%%%%%%%%%%%%%%%%%%%%%%%%%%%%%%%%%%%%%%%%%%%%%%
     %                                                                      %
     % You are using vdW-DF, which was implemented by the Thonhauser group. %
     % Please cite the following two papers that made this development      %
     % possible and the two reviews that describe the various versions:     %
     %                                                                      %
     %   T. Thonhauser et al., PRL 115, 136402 (2015).                      %
     %   T. Thonhauser et al., PRB 76, 125112 (2007).                       %
     %   K. Berland et al., Rep. Prog. Phys. 78, 066501 (2015).             %
     %   D.C. Langreth et al., J. Phys.: Condens. Matter 21, 084203 (2009). %
     %                                                                      %
     %                                                                      %
     % If you are calculating the stress with vdW-DF, please also cite:     %
     %                                                                      %
     %   R. Sabatini et al., J. Phys.: Condens. Matter 24, 424209 (2012).   %
     %                                                                      %
     %%%%%%%%%%%%%%%%%%%%%%%%%%%%%%%%%%%%%%%%%%%%%%%%%%%%%%%%%%%%%%%%%%%%%%%%

     Adding external electric field

     Computed dipole along edir(3) :
        Dipole              -11.7369 Ry au,        -29.8322 Debye
        Dipole field         -0.0221 Ry au,

        Potential amp.        2.0532 Ry
        Total length         46.3494 bohr

     Starting wfcs are  302 atomic wfcs
  @ DRIVER MODE: Message from server: STATUS
  @ DRIVER MODE: Message from server: POSDATA
  @ DRIVER MODE: Reading and sharing cell
  @ DRIVER MODE: Reading and sharing positions
  @ DRIVER MODE: Received positions

     Self-consistent Calculation

     iteration #  1     ecut=    29.40 Ry     beta= 0.05
     Davidson diagonalization with overlap
     c_bands:  2 eigenvalues not converged
     c_bands:  2 eigenvalues not converged
     c_bands:  4 eigenvalues not converged
     c_bands:  3 eigenvalues not converged
     c_bands:  4 eigenvalues not converged
     c_bands:  4 eigenvalues not converged
     c_bands:  3 eigenvalues not converged
     c_bands:  2 eigenvalues not converged
     ethr =  1.00E-05,  avg # of iterations = 21.3

[...]

     total energy              =   -2420.23106413 Ry
     estimated scf accuracy    <    6188.98050942 Ry

     iteration #  2     ecut=    29.40 Ry     beta= 0.05
     Davidson diagonalization with overlap
     ethr =  1.00E-02,  avg # of iterations = 28.9

[...]

     iteration # 86     ecut=    29.40 Ry     beta= 0.05
     Davidson diagonalization with overlap
     ethr =  8.29E-11,  avg # of iterations =  4.5

[...]

     total energy              =   -2967.47584864 Ry
     estimated scf accuracy    <       0.00000011 Ry

     iteration # 88     ecut=    29.40 Ry     beta= 0.05
     Davidson diagonalization with overlap
     c_bands:  1 eigenvalues not converged
     ethr =  2.87E-11,  avg # of iterations = 14.4

     negative rho (up, down):  1.588E-02 0.000E+00

     Adding external electric field

     Computed dipole along edir(3) :
        Dipole                1.3710 Ry au,          3.4847 Debye
        Dipole field          0.0026 Ry au,

        Potential amp.       -0.2398 Ry
        Total length         46.3494 bohr

     End of self-consistent calculation

          k = 0.0000 0.0000 0.0000 ( 18029 PWs)   bands (ev):

   -55.2553 -55.2277 -55.2193 -55.1933 -55.1614 -55.1532 -55.1481 -55.1012
   -55.1003 -55.0948 -55.0605 -55.0426 -55.0127 -55.0086 -54.3168 -54.2827
   -31.8220 -31.7710 -31.7228 -31.6325 -31.5702 -31.5600 -31.5551 -31.5528
   -31.5164 -31.4869 -31.4708 -31.4686 -31.4570 -31.4473 -31.4334 -31.4186
   -31.4018 -31.3953 -31.3924 -31.3877 -31.3817 -31.3729 -31.3502 -31.3454
   -31.3437 -31.3237 -31.3211 -31.3187 -31.2979 -31.2849 -31.2691 -31.2485
   -31.2471 -31.2463 -31.2351 -31.2259 -31.2070 -31.1941 -31.1819 -31.1775
   -31.1643 -31.1538 -30.7289 -30.6263 -30.6047 -30.5450 -30.4587 -30.3477
   -20.2343 -19.0839 -16.0846 -15.8375 -15.6977 -15.5991 -15.4783 -15.3447
   -15.2846 -15.1698 -15.0787 -14.9884 -14.9738 -14.9555 -14.9256 -14.9033
   -14.8785 -14.8402 -14.8141 -14.7703 -14.7615 -14.7451 -14.7383 -14.7016
   -14.6985 -14.6534 -14.6451 -14.4881 -14.4179 -14.3578 -14.1350 -12.8177
   -12.6983 -11.1765  -6.9604  -6.8534  -5.1821  -4.9966  -3.4235  -3.2673
    -3.2268  -3.2046  -3.1879  -3.1447  -3.0566  -2.9588  -2.7930  -2.6830
    -2.5435  -2.5394  -2.4925  -2.4661  -2.4087  -2.3234  -2.2388  -2.2122
    -2.1762  -2.1439  -2.1404  -2.1246  -2.1144  -2.0572  -2.0229  -1.9651
    -1.8651  -1.8173  -1.7733  -1.7548  -1.6993  -1.6563  -1.6202  -1.5936
    -1.5870  -1.5808  -1.5218  -1.5189  -1.5111  -1.5008  -1.4828  -1.2942
    -1.2527  -1.1223  -1.0312  -0.9863  -0.9762  -0.8226  -0.8158  -0.7714
    -0.7377  -0.7041  -0.6636  -0.6060  -0.5086  -0.4758  -0.4267  -0.3882
    -0.2802  -0.2481  -0.2164  -0.1619  -0.0551  -0.0467  -0.0209  -0.0020
     0.0726   0.1682   0.1974   0.2188   0.2956   0.3008   0.3624   0.4029
     0.4366   0.5113   0.5563   0.5677   0.6594   0.6764   0.6899   0.7165
     0.7202   0.8186   0.8548   0.8992   0.9177   1.0694   1.1642   1.3031
     1.3319   1.5983   1.6937   1.7090   1.8694   2.2949   2.3497   3.8360
     3.9044   3.9427   3.9506   3.9638   4.0434   4.3270   4.3423   4.3542
     4.3639   4.3820

[...]

          k = 0.0380-0.0419 0.0000 ( 17876 PWs)   bands (ev):

[...]

          k =-0.0760-0.0000 0.0000 ( 17886 PWs)   bands (ev):

[...]

          k =-0.0760-0.0839 0.0000 ( 17948 PWs)   bands (ev):

   -55.2382 -55.2361 -55.2123 -55.2085 -55.1584 -55.1473 -55.1407 -55.1086
   -55.1070 -55.0790 -55.0760 -55.0275 -55.0239 -55.0145 -54.2997 -54.2996
   -31.6880 -31.6291 -31.6221 -31.5395 -31.5359 -31.5219 -31.5105 -31.5054
   -31.4981 -31.4773 -31.4591 -31.4536 -31.4495 -31.4357 -31.4100 -31.4074
   -31.3962 -31.3937 -31.3866 -31.3856 -31.3821 -31.3789 -31.3658 -31.3521
   -31.3443 -31.3395 -31.3385 -31.3321 -31.3290 -31.3290 -31.3283 -31.3097
   -31.3023 -31.3002 -31.2814 -31.2772 -31.2766 -31.2525 -31.2488 -31.2137
   -31.2094 -31.1963 -30.6173 -30.6172 -30.5417 -30.5414 -30.5020 -30.5018
   -20.2310 -19.0832 -15.6426 -15.5441 -15.3939 -15.2707 -15.2584 -15.2457
   -15.1936 -15.1291 -15.1158 -15.0652 -15.0526 -15.0217 -15.0058 -14.9997
   -14.9638 -14.8554 -14.8513 -14.8410 -14.8203 -14.7753 -14.7643 -14.7572
   -14.7450 -14.7089 -14.7004 -14.6862 -14.6757 -14.5837 -14.4441 -12.7996
   -12.7989 -11.1785  -6.9578  -6.8519  -5.1830  -4.9747  -3.1779  -2.9693
    -2.8122  -2.7330  -2.6356  -2.4886  -2.4738  -2.3927  -2.3805  -2.3299
    -2.2594  -2.2566  -2.2529  -2.1716  -2.1596  -2.1594  -2.1382  -2.1184
    -2.0775  -2.0688  -2.0452  -2.0356  -1.9944  -1.9637  -1.9506  -1.9330
    -1.9230  -1.9192  -1.8879  -1.8733  -1.8576  -1.8152  -1.7906  -1.7318
    -1.6384  -1.6076  -1.4850  -1.4824  -1.4392  -1.4156  -1.3922  -1.3511
    -1.3318  -1.2838  -1.2619  -1.2383  -1.0549  -1.0388  -0.9836  -0.9436
    -0.9244  -0.9110  -0.8493  -0.7773  -0.7500  -0.7190  -0.6534  -0.5801
    -0.4840  -0.4599  -0.4516  -0.3446  -0.2934  -0.2539  -0.2495  -0.2401
    -0.2162  -0.1677  -0.1479  -0.0859  -0.0471  -0.0034   0.0220   0.0390
     0.2199   0.2585   0.3170   0.4082   0.4370   0.5823   0.6310   0.6826
     0.7431   0.8194   0.8303   0.8966   1.0107   1.0231   1.0534   1.1298
     1.1731   1.1789   1.2040   2.0603   2.0624   2.1639   2.1669   3.9658
     4.0733   4.0919   4.1708   4.2369   4.3451   4.3582   4.3875   4.3979
     4.4432   4.4748

     the Fermi energy is     3.8924 ev

!    total energy              =   -2967.47585615 Ry
     estimated scf accuracy    <       0.00000007 Ry
     smearing contrib. (-TS)   =      -0.03654134 Ry
     internal energy E=F+TS    =   -2967.43931481 Ry

     The total energy is F=E-TS. E is the sum of the following terms:
     one-electron contribution =  -23964.69400595 Ry
     hartree contribution      =   12077.88868980 Ry
     xc contribution           =    -491.86103242 Ry
     ewald contribution        =    9411.22348668 Ry
     electric field correction =       0.00354707 Ry

     convergence has been achieved in  88 iterations

     Forces acting on atoms (cartesian axes, Ry/au):

     atom    1 type  1   force =    -0.00026050    0.00020386    0.09243386
     atom    2 type  1   force =    -0.00035833    0.00104829   -0.18341420
     atom    3 type  2   force =     0.00050243   -0.00071919   -0.02347212
     atom    4 type  2   force =     0.00072342   -0.00019312    0.05069925
     atom    5 type  2   force =    -0.01403156   -0.00132094    0.00496300
     atom    6 type  2   force =     0.01520330   -0.00065771    0.00510604
     atom    7 type  1   force =    -0.00047595    0.00106019   -0.00011706
     atom    8 type  1   force =     0.00015799   -0.00053315    0.00041243
     atom    9 type  2   force =    -0.00044024    0.00017275    0.00039677
     atom   10 type  2   force =     0.00040844    0.00016734    0.00048538
     atom   11 type  2   force =     0.00035022    0.00043608    0.00034359
     atom   12 type  2   force =     0.00006415    0.00013750    0.00027158
     atom   13 type  1   force =    -0.00087484   -0.00119463   -0.00010053
     atom   14 type  1   force =     0.00058691   -0.00005132    0.00020805
     atom   15 type  2   force =     0.00050614    0.00075540    0.00007958
     atom   16 type  2   force =    -0.00062034   -0.00036853    0.00004309
     atom   17 type  2   force =     0.00008750    0.00024032   -0.00043485
     atom   18 type  2   force =    -0.00020124    0.00035485   -0.00013414
     atom   19 type  1   force =     0.00068450   -0.00006765   -0.00030956
     atom   20 type  1   force =    -0.00004330   -0.00004931   -0.00034169
     atom   21 type  2   force =    -0.00004359    0.00015085    0.10494359
     atom   22 type  2   force =    -0.00031296    0.00058016   -0.00109289
     atom   23 type  2   force =    -0.06797289    0.00014487   -0.02678747
     atom   24 type  2   force =     0.06768632    0.00053991   -0.02684757
     atom   25 type  1   force =    -0.00038840   -0.00008836    0.09621097
     atom   26 type  1   force =    -0.00035330   -0.00099537   -0.18319972
     atom   27 type  2   force =     0.00041551   -0.00125882   -0.02225016
     atom   28 type  2   force =     0.00070219   -0.00032704    0.05101607
     atom   29 type  2   force =    -0.01422574   -0.00105422    0.00467185
     atom   30 type  2   force =     0.01517697    0.00021697    0.00485442
     atom   31 type  1   force =    -0.00049238   -0.00146527    0.00016908
     atom   32 type  1   force =     0.00013035    0.00071648   -0.00025324
     atom   33 type  2   force =     0.00001950   -0.00020410    0.00006964
     atom   34 type  2   force =     0.00002389   -0.00007235   -0.00007525
     atom   35 type  2   force =     0.00020740    0.00008762    0.00031108
     atom   36 type  2   force =     0.00040020    0.00045375    0.00005469
     atom   37 type  1   force =    -0.00105857    0.00124780   -0.00004963
     atom   38 type  1   force =     0.00037247    0.00010447   -0.00043939
     atom   39 type  2   force =     0.00039475    0.00022881   -0.00033948
     atom   40 type  2   force =    -0.00008352    0.00019630    0.00007508
     atom   41 type  2   force =    -0.00016584    0.00016288   -0.00054457
     atom   42 type  2   force =     0.00006070   -0.00009400    0.00025855
     atom   43 type  1   force =    -0.00054245    0.00013836    0.00034208
     atom   44 type  1   force =    -0.00003288    0.00027763   -0.00117465
     atom   45 type  2   force =    -0.00005649    0.00015999    0.10488397
     atom   46 type  2   force =    -0.06801145   -0.00039251   -0.02679098
     atom   47 type  2   force =     0.06773324    0.00003297   -0.02687783
     atom   48 type  3   force =     0.00289936    0.00016437    0.01691103
     atom   49 type  2   force =     0.00112433   -0.00006777   -0.00513516
     atom   50 type  4   force =    -0.00203483    0.00031811   -0.00244969
     atom   51 type  4   force =     0.00067330    0.00090527    0.00002197
     atom   52 type  4   force =    -0.00233788    0.00479786   -0.00542635
     atom   53 type  4   force =    -0.00098400   -0.00346053   -0.00279988
     atom   54 type  2   force =     0.00083694   -0.00017269    0.00089578
     atom   55 type  4   force =    -0.00082058   -0.00039824   -0.00050330
     atom   56 type  4   force =    -0.00090836   -0.00099516    0.00022888

     Total force =     0.368691     Total SCF correction =     0.000713
  @ DRIVER MODE: Message from server: STATUS
  @ DRIVER MODE: Message from server: GETFORCE
  @ DRIVER MODE: Returning v,forces,stress,ensemble

     Writing output data file ./calc.save/
  @ DRIVER MODE: Message from server: EXIT
  @ DRIVE MODE: Exiting

     General routines

     Parallel routines

   This run was terminated on:  17:33:20  15Sep2021

   JOB DONE.