     Program PWSCF v.6.7GPU starts on 16Sep2021 at  7:51:35

     R & G space division:  proc/nbgrp/npool/nimage =      10
     Reading input from /storage/home/hcoda1/3/ntian30/research/carbon/CxH_vib/H2O_calc/ads_slab/CH2NNHHH2O_a/out_0048/pw.inp
Warning: card &CELL ignored
Warning: card   CELL_DYNAMICS='IPI', ignored
Warning: card / ignored

     Current dimensions of program PWSCF are:
     Max number of different atomic species (ntypx) = 10
     Max number of k-points (npk) =  40000
     Max angular momentum in pseudopotentials (lmaxx) =  3
     Presently no symmetry can be used with electric field

     Message from routine cell_base_init:
     DEPRECATED: use true lattice parameter, not A to a.u. conversion factor

     IMPORTANT: XC functional enforced from input :
     Exchange-correlation= BEEF-VDW
                           (   1   4  43  14   2   0   0)
     Any further DFT definition will be discarded
     Please, verify this is what you really want

  @ DRIVER MODE: Connecting to
 qe_1139763_2852611.sched-torque.pace.gatech.eduqw6r3cx4_scratch
  using UNIX socket
  @ DRIVER MODE: Message from server: STATUS
  @ DRIVER MODE: Message from server: INIT
  @ DRIVER MODE: Receiving replica           0          -1
  @ DRIVER MODE: Receiving encoded integer          25
  @ DRIVER MODE:  SCF:  T  FORCE:  T  STRESS:  F  VC:  F  ENSEMBLE:  F
  @ DRIVER MODE:  SCF:  T  FORCE:  T  STRESS:  F  VC:  F  ENSEMBLE:  F

     Using Slab Decomposition

     bravais-lattice index     =            0
     lattice parameter (alat)  =       1.8897  a.u.
     unit-cell volume          =    6658.9804 (a.u.)^3
     number of atoms/cell      =           57
     number of atomic types    =            5
     number of electrons       =       404.00
     number of Kohn-Sham states=          212
     kinetic-energy cutoff     =      29.3995  Ry
     charge density cutoff     =     293.9946  Ry
     scf convergence threshold =      7.3E-08
     mixing beta               =       0.0500
     number of iterations used =            8  plain     mixing
     Exchange-correlation= BEEF-VDW
                           (   1   4  43  14   2   0   0)

     celldm(1)=   1.889726  celldm(2)=   0.000000  celldm(3)=   0.000000
     celldm(4)=   0.000000  celldm(5)=   0.000000  celldm(6)=   0.000000

     crystal axes: (cart. coord. in units of alat)
               a(1) = (   6.579727   0.000000   0.000000 )
               a(2) = (  -0.000775   5.961596   0.000000 )
               a(3) = (   0.000000   0.000000  25.155947 )

     reciprocal axes: (cart. coord. in units 2 pi/alat)
               b(1) = (  0.151982  0.000020  0.000000 )
               b(2) = (  0.000000  0.167740  0.000000 )
               b(3) = (  0.000000  0.000000  0.039752 )

     PseudoPot. # 1 for Ti read from file:
     /storage/coda1/p-amedford6/0/shared/rich_project_chbe-medford/medford-share/data/pseudos_module/espresso/nninc/pbe/van/Ti.UPF
     MD5 check sum: 8e4df49b7f0d34bbd5052bf3f5ea0213
     Pseudo is Ultrasoft, Zval = 12.0
     Generated by new atomic code, or converted to UPF format
     Using radial grid of  851 points,  6 beta functions with:
                l(1) =   0
                l(2) =   0
                l(3) =   1
                l(4) =   1
                l(5) =   2
                l(6) =   2
     Q(r) pseudized with  8 coefficients,  rinner =    1.000   1.000   1.000
                                                       1.000   1.000

     PseudoPot. # 2 for O  read from file:
     /storage/coda1/p-amedford6/0/shared/rich_project_chbe-medford/medford-share/data/pseudos_module/espresso/nninc/pbe/van/O.UPF
     MD5 check sum: 78c19812648e8988a0fe644b0f25305e
     Pseudo is Ultrasoft, Zval =  6.0
     Generated by new atomic code, or converted to UPF format
     Using radial grid of  737 points,  4 beta functions with:
                l(1) =   0
                l(2) =   0
                l(3) =   1
                l(4) =   1
     Q(r) pseudized with  8 coefficients,  rinner =    0.800   0.800   0.800

     PseudoPot. # 3 for N  read from file:
     /storage/coda1/p-amedford6/0/shared/rich_project_chbe-medford/medford-share/data/pseudos_module/espresso/nninc/pbe/van/N.UPF
     MD5 check sum: 90d10febe142ad51ac9d5be1deb811c4
     Pseudo is Ultrasoft, Zval =  5.0
     Generated by new atomic code, or converted to UPF format
     Using radial grid of  729 points,  4 beta functions with:
                l(1) =   0
                l(2) =   0
                l(3) =   1
                l(4) =   1
     Q(r) pseudized with  8 coefficients,  rinner =    0.800   0.800   0.800

     PseudoPot. # 4 for C  read from file:
     /storage/coda1/p-amedford6/0/shared/rich_project_chbe-medford/medford-share/data/pseudos_module/espresso/nninc/pbe/van/C.UPF
     MD5 check sum: 1a69bf6b8db32088f5b2163dbdb77a27
     Pseudo is Ultrasoft, Zval =  4.0
     Generated by new atomic code, or converted to UPF format
     Using radial grid of  721 points,  4 beta functions with:
                l(1) =   0
                l(2) =   0
                l(3) =   1
                l(4) =   1
     Q(r) pseudized with  8 coefficients,  rinner =    0.800   0.800   0.800

     PseudoPot. # 5 for H  read from file:
     /storage/coda1/p-amedford6/0/shared/rich_project_chbe-medford/medford-share/data/pseudos_module/espresso/nninc/pbe/van/H.UPF
     MD5 check sum: b5ee9d7bfd3a09ee7748110bda690ff7
     Pseudo is Ultrasoft, Zval =  1.0
     Generated by new atomic code, or converted to UPF format
     Using radial grid of  615 points,  1 beta functions with:
                l(1) =   0
     Q(r) pseudized with  8 coefficients,  rinner =    0.800

     atomic species   valence    mass     pseudopotential
        Ti1           12.00    47.86700     Ti( 1.00)
        O1             6.00    15.99900     O ( 1.00)
        N1             5.00    14.00700     N ( 1.00)
        C1             4.00    12.01100     C ( 1.00)
        H1             1.00     1.00800     H ( 1.00)

     No symmetry found

   Cartesian axes

     site n.     atom                  positions (alat units)
         1           Ti1 tau(   1) = (   0.0004258   2.9801865   6.0000000  )
         2           Ti1 tau(   2) = (   3.2906075   1.4906267   6.0002472  )
         3           O1  tau(   3) = (   0.0006271   0.0005054   7.9858123  )
         4           O1  tau(   4) = (   3.2906025   0.0005020   7.3038282  )
         5           O1  tau(   5) = (   4.5942328   1.4918067   9.2879030  )
         6           O1  tau(   6) = (   1.9868534   1.4903216   9.2879459  )
         7           Ti1 tau(   7) = (   3.2907910   2.8959150   9.1758416  )
         8           Ti1 tau(   8) = (   0.0015273   1.4827037   9.2680791  )
         9           O1  tau(   9) = (   3.3121314   5.9338840  11.3691909  )
        10           O1  tau(  10) = (   0.0116148   5.9584955  10.6183126  )
        11           O1  tau(  11) = (   1.3134021   1.4784130  12.6451072  )
        12           O1  tau(  12) = (   5.3172625   1.4801399  12.6491864  )
        13           Ti1 tau(  13) = (   0.0380378   2.9573341  12.5222382  )
        14           Ti1 tau(  14) = (   3.3404755   1.4532591  12.5245293  )
        15           O1  tau(  15) = (   0.0239237   0.0366503  14.6894071  )
        16           O1  tau(  16) = (   3.3255740   5.9570089  14.0129324  )
        17           O1  tau(  17) = (   4.5846449   1.4795273  16.1858442  )
        18           O1  tau(  18) = (   2.0539891   1.4908220  16.1938258  )
        19           Ti1 tau(  19) = (   3.3028508   2.9322526  15.7076921  )
        20           Ti1 tau(  20) = (   0.0088316   1.3655950  16.0522487  )
        21           O1  tau(  21) = (   3.2904802   0.0005063   4.7018136  )
        22           O1  tau(  22) = (   0.0586005   5.8320325  17.2288864  )
        23           O1  tau(  23) = (   1.3043587   1.4918075   6.0039043  )
        24           O1  tau(  24) = (   5.2767064   1.4903225   6.0039473  )
        25           Ti1 tau(  25) = (   0.0000382   5.9609847   6.0000000  )
        26           Ti1 tau(  26) = (   3.2902200   4.4714249   6.0002472  )
        27           O1  tau(  27) = (   0.0002396   2.9813036   7.9858123  )
        28           O1  tau(  28) = (   3.2902150   2.9813002   7.3038282  )
        29           O1  tau(  29) = (   4.5938453   4.4726049   9.2879030  )
        30           O1  tau(  30) = (   1.9864658   4.4711199   9.2879459  )
        31           Ti1 tau(  31) = (   3.2891106   5.8743827   9.1763621  )
        32           Ti1 tau(  32) = (   0.0006254   4.4649316   9.2693709  )
        33           O1  tau(  33) = (   3.3142679   2.9660735  11.3641874  )
        34           O1  tau(  34) = (   0.0092240   2.9805883  10.6323155  )
        35           O1  tau(  35) = (   1.3108675   4.4558178  12.6782323  )
        36           O1  tau(  36) = (   5.3175068   4.4537340  12.6790822  )
        37           Ti1 tau(  37) = (   0.0418451   5.9490355  12.4996082  )
        38           Ti1 tau(  38) = (   3.3402151   4.4429940  12.5219265  )
        39           O1  tau(  39) = (   0.0332256   2.9148708  14.9327709  )
        40           O1  tau(  40) = (   3.3156017   2.9437717  13.9283311  )
        41           O1  tau(  41) = (   4.5915719   4.3868214  16.1197993  )
        42           O1  tau(  42) = (   2.0539401   4.4017640  16.0846163  )
        43           Ti1 tau(  43) = (   3.3369130   5.9116756  15.8392261  )
        44           Ti1 tau(  44) = (   0.0533093   4.5818758  15.8415549  )
        45           O1  tau(  45) = (   3.2900926   2.9813045   4.7018136  )
        46           O1  tau(  46) = (   1.3039711   4.4726057   6.0039043  )
        47           O1  tau(  47) = (   5.2763189   4.4711207   6.0039473  )
        48           N1  tau(  48) = (   6.5287229   2.7802708  18.1865785  )
        49           C1  tau(  49) = (   0.9724842   2.7744648  18.9576868  )
        50           H1  tau(  50) = (   0.9153086   3.0669255  20.0057840  )
        51           H1  tau(  51) = (   1.9225290   2.4867234  18.5393133  )
        52           N1  tau(  52) = (   5.2958906   3.1014149  18.7352402  )
        53           H1  tau(  53) = (   5.3913054   3.6367428  19.5974321  )
        54           H1  tau(  54) = (   4.7863746   3.6605970  18.0522289  )
        55           O1  tau(  55) = (   3.2511457   5.8152340  18.3497965  )
        56           H1  tau(  56) = (   3.7467739   0.6636339  18.5518981  )
        57           H1  tau(  57) = (   2.3053106   0.0674530  18.4201010  )

     number of k points=    10  Fermi-Dirac smearing, width (Ry)=  0.0073
                       cart. coord. in units 2pi/alat
        k(    1) = (   0.0000000   0.0000000   0.0000000), wk =   0.1250000
        k(    2) = (   0.0000000   0.0419351   0.0000000), wk =   0.2500000
        k(    3) = (   0.0000000  -0.0838702   0.0000000), wk =   0.1250000
        k(    4) = (   0.0379955   0.0000049   0.0000000), wk =   0.2500000
        k(    5) = (   0.0379955   0.0419400   0.0000000), wk =   0.2500000
        k(    6) = (   0.0379955  -0.0838652   0.0000000), wk =   0.2500000
        k(    7) = (   0.0379955  -0.0419301   0.0000000), wk =   0.2500000
        k(    8) = (  -0.0759910  -0.0000099   0.0000000), wk =   0.1250000
        k(    9) = (  -0.0759910   0.0419252   0.0000000), wk =   0.2500000
        k(   10) = (  -0.0759910  -0.0838800   0.0000000), wk =   0.1250000

     Initial potential from superposition of free atoms

     starting charge  387.99913, renormalised to  404.00000

     negative rho (up, down):  1.527E-02 0.000E+00

     %%%%%%%%%%%%%%%%%%%%%%%%%%%%%%%%%%%%%%%%%%%%%%%%%%%%%%%%%%%%%%%%%%%%%%%%
     %                                                                      %
     % You are using vdW-DF, which was implemented by the Thonhauser group. %
     % Please cite the following two papers that made this development      %
     % possible and the two reviews that describe the various versions:     %
     %                                                                      %
     %   T. Thonhauser et al., PRL 115, 136402 (2015).                      %
     %   T. Thonhauser et al., PRB 76, 125112 (2007).                       %
     %   K. Berland et al., Rep. Prog. Phys. 78, 066501 (2015).             %
     %   D.C. Langreth et al., J. Phys.: Condens. Matter 21, 084203 (2009). %
     %                                                                      %
     %                                                                      %
     % If you are calculating the stress with vdW-DF, please also cite:     %
     %                                                                      %
     %   R. Sabatini et al., J. Phys.: Condens. Matter 24, 424209 (2012).   %
     %                                                                      %
     %%%%%%%%%%%%%%%%%%%%%%%%%%%%%%%%%%%%%%%%%%%%%%%%%%%%%%%%%%%%%%%%%%%%%%%%

     Adding external electric field

     Computed dipole along edir(3) :
        Dipole              -14.3291 Ry au,        -36.4209 Debye
        Dipole field         -0.0270 Ry au,

        Potential amp.        2.5067 Ry
        Total length         46.3494 bohr

     Starting wfcs are  306 atomic wfcs
  @ DRIVER MODE: Message from server: STATUS
  @ DRIVER MODE: Message from server: POSDATA
  @ DRIVER MODE: Reading and sharing cell
  @ DRIVER MODE: Reading and sharing positions
  @ DRIVER MODE: Received positions

     Self-consistent Calculation

     iteration #  1     ecut=    29.40 Ry     beta= 0.05
     Davidson diagonalization with overlap
     c_bands:  4 eigenvalues not converged
     c_bands:  3 eigenvalues not converged
     c_bands:  5 eigenvalues not converged
     c_bands:  1 eigenvalues not converged
     c_bands:  2 eigenvalues not converged
     c_bands:  1 eigenvalues not converged
     c_bands:  2 eigenvalues not converged
     c_bands:  5 eigenvalues not converged
     c_bands:  5 eigenvalues not converged
     ethr =  1.00E-05,  avg # of iterations = 24.6

[...]

     total energy              =   -2233.93004931 Ry
     estimated scf accuracy    <    8445.60518014 Ry

     iteration #  2     ecut=    29.40 Ry     beta= 0.05
     Davidson diagonalization with overlap
     ethr =  1.00E-02,  avg # of iterations = 25.3

[...]

     iteration # 67     ecut=    29.40 Ry     beta= 0.05
     Davidson diagonalization with overlap
     c_bands:  1 eigenvalues not converged
     c_bands:  2 eigenvalues not converged
     ethr =  2.59E-11,  avg # of iterations = 17.8

[...]

     total energy              =   -2975.20595137 Ry
     estimated scf accuracy    <       0.00000016 Ry

     iteration # 68     ecut=    29.40 Ry     beta= 0.05
     Davidson diagonalization with overlap
     ethr =  2.59E-11,  avg # of iterations = 10.4

     negative rho (up, down):  1.521E-02 0.000E+00

     Adding external electric field

     Computed dipole along edir(3) :
        Dipole                1.3966 Ry au,          3.5498 Debye
        Dipole field          0.0026 Ry au,

        Potential amp.       -0.2443 Ry
        Total length         46.3494 bohr

     End of self-consistent calculation

          k = 0.0000 0.0000 0.0000 ( 18029 PWs)   bands (ev):

   -55.1918 -55.1558 -55.1521 -55.1180 -55.1046 -55.0725 -55.0392 -55.0345
   -55.0106 -54.9812 -54.9757 -54.9723 -54.9476 -54.8778 -54.1752 -54.1411
   -31.7571 -31.6438 -31.6030 -31.5611 -31.5105 -31.5000 -31.4933 -31.4858
   -31.4411 -31.4078 -31.4033 -31.3967 -31.3947 -31.3683 -31.3459 -31.3367
   -31.3359 -31.3294 -31.3099 -31.3040 -31.2852 -31.2803 -31.2652 -31.2515
   -31.2405 -31.2387 -31.2181 -31.2111 -31.2092 -31.2027 -31.1967 -31.1789
   -31.1743 -31.1637 -31.1589 -31.1460 -31.1248 -31.1209 -31.1093 -31.0931
   -31.0916 -31.0076 -30.5841 -30.4908 -30.4687 -30.4006 -30.3139 -30.2029
   -18.9179 -18.5446 -16.0179 -15.7526 -15.6169 -15.5068 -15.3906 -15.2612
   -15.2135 -15.0823 -15.0225 -14.9092 -14.8819 -14.8400 -14.8202 -14.8148
   -14.7570 -14.7291 -14.7225 -14.6971 -14.6867 -14.6653 -14.6259 -14.6197
   -14.5837 -14.5739 -14.5689 -14.4241 -14.3463 -14.2820 -13.9712 -13.6688
   -12.6775 -12.5602  -8.7997  -6.7199  -6.4623  -6.0610  -4.1431  -3.3601
    -3.2051  -3.1889  -3.1256  -3.0886  -3.0714  -2.9927  -2.9426  -2.7358
    -2.6046  -2.5776  -2.4585  -2.3924  -2.3872  -2.3353  -2.1919  -2.1874
    -2.1318  -2.0912  -2.0428  -2.0229  -1.9989  -1.9751  -1.9421  -1.9217
    -1.8952  -1.7603  -1.7405  -1.6664  -1.6043  -1.5937  -1.5353  -1.5116
    -1.4926  -1.4859  -1.4787  -1.4652  -1.4283  -1.4136  -1.3708  -1.3131
    -1.2106  -1.1216  -1.0300  -0.9514  -0.8882  -0.8262  -0.7647  -0.7557
    -0.6788  -0.6665  -0.5750  -0.5517  -0.5213  -0.4086  -0.3451  -0.3419
    -0.2787  -0.1766  -0.1483  -0.1339  -0.0606   0.0177   0.0365   0.0439
     0.0524   0.1758   0.2292   0.2612   0.2943   0.3654   0.3870   0.4372
     0.4834   0.4901   0.5692   0.6287   0.6834   0.7331   0.7498   0.7747
     0.7925   0.8022   0.8187   0.8999   0.9228   0.9553   1.0088   1.1642
     1.3233   1.4234   1.4390   1.7575   1.7706   1.8478   2.0322   2.4230
     2.4709   3.9043   3.9811   4.0398   4.0463   4.0555   4.1415   4.3858
     4.4016   4.4143   4.4263   4.4699

[...]

          k = 0.0380-0.0419 0.0000 ( 17876 PWs)   bands (ev):

[...]

          k =-0.0760-0.0000 0.0000 ( 17886 PWs)   bands (ev):

[...]

          k =-0.0760-0.0839 0.0000 ( 17948 PWs)   bands (ev):

   -55.1746 -55.1727 -55.1351 -55.1349 -55.1023 -55.0615 -55.0454 -55.0372
   -54.9961 -54.9896 -54.9744 -54.9647 -54.9643 -54.8797 -54.1581 -54.1580
   -31.5665 -31.5563 -31.5279 -31.4590 -31.4587 -31.4525 -31.4444 -31.4266
   -31.4263 -31.4053 -31.3947 -31.3919 -31.3799 -31.3536 -31.3292 -31.3237
   -31.3235 -31.3232 -31.3208 -31.3115 -31.3060 -31.2875 -31.2742 -31.2713
   -31.2575 -31.2546 -31.2545 -31.2544 -31.2445 -31.2397 -31.2297 -31.2285
   -31.2203 -31.2093 -31.2035 -31.1934 -31.1922 -31.1556 -31.1448 -31.1444
   -31.1013 -31.0939 -30.4814 -30.4813 -30.3968 -30.3965 -30.3573 -30.3573
   -18.9155 -18.5439 -15.5350 -15.4883 -15.3330 -15.1982 -15.1950 -15.1550
   -15.1001 -15.0281 -15.0073 -14.9638 -14.9532 -14.9345 -14.8982 -14.8902
   -14.8646 -14.7932 -14.7837 -14.7753 -14.7417 -14.7022 -14.6916 -14.6902
   -14.6734 -14.6435 -14.6403 -14.5428 -14.5407 -14.4493 -14.3107 -13.6839
   -12.6618 -12.6617  -8.7638  -6.7196  -6.4120  -6.0891  -4.1858  -3.2048
    -2.9105  -2.7523  -2.6470  -2.5455  -2.4180  -2.4120  -2.3266  -2.3184
    -2.2375  -2.2031  -2.1908  -2.1751  -2.0841  -2.0706  -2.0593  -2.0384
    -2.0219  -2.0040  -1.9723  -1.9659  -1.9428  -1.9157  -1.9054  -1.9042
    -1.8843  -1.8516  -1.8201  -1.8012  -1.7807  -1.7502  -1.7381  -1.6730
    -1.6315  -1.5431  -1.5083  -1.3932  -1.3912  -1.3692  -1.3127  -1.2944
    -1.2731  -1.2242  -1.2150  -1.1698  -1.0266  -0.9399  -0.9292  -0.8916
    -0.8411  -0.7939  -0.7466  -0.7315  -0.6645  -0.6446  -0.5511  -0.5362
    -0.4336  -0.3930  -0.3808  -0.3653  -0.2819  -0.2181  -0.1717  -0.1513
    -0.1468  -0.0973  -0.0819  -0.0686   0.0029   0.0503   0.0742   0.0888
     0.1300   0.2982   0.3587   0.3722   0.4919   0.5412   0.6460   0.7054
     0.7813   0.8004   0.8369   0.9273   0.9332   1.0100   1.1053   1.1193
     1.1544   1.1999   1.2486   1.2717   1.2766   2.2052   2.2065   2.2909
     2.2910   4.0476   4.1247   4.1819   4.2305   4.2396   4.3596   4.4215
     4.4640   4.4865   4.4885   4.5628

     the Fermi energy is     3.9623 ev

!    total energy              =   -2975.20597330 Ry
     estimated scf accuracy    <       0.00000002 Ry
     smearing contrib. (-TS)   =      -0.03732269 Ry
     internal energy E=F+TS    =   -2975.16865061 Ry

     The total energy is F=E-TS. E is the sum of the following terms:
     one-electron contribution =  -23535.11465772 Ry
     hartree contribution      =   11865.54161688 Ry
     xc contribution           =    -494.97406304 Ry
     ewald contribution        =    9189.37477234 Ry
     electric field correction =       0.00368093 Ry

     convergence has been achieved in  68 iterations

     Forces acting on atoms (cartesian axes, Ry/au):

     atom    1 type  1   force =     0.00005877   -0.00019588    0.09357227
     atom    2 type  1   force =    -0.00020782   -0.00021388   -0.17801748
     atom    3 type  2   force =     0.00011016   -0.00020526   -0.02066652
     atom    4 type  2   force =     0.00004870   -0.00197859    0.05805631
     atom    5 type  2   force =    -0.01002625   -0.00166808    0.00693271
     atom    6 type  2   force =     0.01217163   -0.00103541    0.00744542
     atom    7 type  1   force =     0.00022777    0.00248676   -0.01211803
     atom    8 type  1   force =    -0.00049494    0.00201580   -0.00195477
     atom    9 type  2   force =     0.00006773    0.00006651   -0.00003723
     atom   10 type  2   force =    -0.00044330   -0.00135096   -0.00315802
     atom   11 type  2   force =     0.00016157   -0.00008220   -0.00006864
     atom   12 type  2   force =    -0.00066772   -0.00012293    0.00009079
     atom   13 type  1   force =     0.00051004    0.00098521    0.00022936
     atom   14 type  1   force =    -0.00140135    0.00032245    0.00012179
     atom   15 type  2   force =    -0.00018593    0.00093069    0.00023989
     atom   16 type  2   force =    -0.00000923   -0.00044518    0.00041551
     atom   17 type  2   force =     0.00061055   -0.00009111   -0.00010651
     atom   18 type  2   force =     0.00065533   -0.00007284   -0.00013360
     atom   19 type  1   force =    -0.00114598    0.00098297    0.00047779
     atom   20 type  1   force =     0.00059728   -0.00007812   -0.00079173
     atom   21 type  2   force =     0.00001494   -0.00002055    0.10385884
     atom   22 type  2   force =     0.00008346    0.00090068   -0.00025472
     atom   23 type  2   force =    -0.07051075   -0.00012401   -0.02696137
     atom   24 type  2   force =     0.07045004    0.00030564   -0.02702175
     atom   25 type  1   force =     0.00002089   -0.00018554    0.09304192
     atom   26 type  1   force =    -0.00010211   -0.00048365   -0.17794853
     atom   27 type  2   force =     0.00017189   -0.00036575   -0.01954319
     atom   28 type  2   force =     0.00010993   -0.00160360    0.05713684
     atom   29 type  2   force =    -0.01007294   -0.00086324    0.00631033
     atom   30 type  2   force =     0.01213269   -0.00061695    0.00686766
     atom   31 type  1   force =     0.00031514    0.00503552   -0.01528267
     atom   32 type  1   force =    -0.00039183   -0.00266878   -0.00237264
     atom   33 type  2   force =    -0.00003065   -0.00026175   -0.00003820
     atom   34 type  2   force =     0.00046212    0.00031408   -0.00054754
     atom   35 type  2   force =    -0.00011540   -0.00037004   -0.00006602
     atom   36 type  2   force =    -0.00044648   -0.00036211    0.00025204
     atom   37 type  1   force =     0.00027282   -0.00103718    0.00048694
     atom   38 type  1   force =    -0.00122125    0.00020735    0.00124601
     atom   39 type  2   force =    -0.00011760   -0.00050373    0.00026413
     atom   40 type  2   force =     0.00002928   -0.00042023    0.00046404
     atom   41 type  2   force =    -0.00023752    0.00008179    0.00018201
     atom   42 type  2   force =     0.00134156   -0.00013407    0.00017493
     atom   43 type  1   force =    -0.00118443   -0.00078966   -0.00050628
     atom   44 type  1   force =     0.00095344    0.00066222    0.00006243
     atom   45 type  2   force =     0.00004084   -0.00002122    0.10379694
     atom   46 type  2   force =    -0.07054134   -0.00007294   -0.02696867
     atom   47 type  2   force =     0.07044773    0.00039541   -0.02700096
     atom   48 type  3   force =    -0.00050928    0.00009359    0.00108668
     atom   49 type  4   force =     0.00047832    0.00058013   -0.00038959
     atom   50 type  5   force =    -0.00043903    0.00004851   -0.00057961
     atom   51 type  5   force =    -0.00041211   -0.00009782   -0.00000019
     atom   52 type  3   force =    -0.00021242    0.00064593   -0.00008323
     atom   53 type  5   force =     0.00016099    0.00049487   -0.00031286
     atom   54 type  5   force =    -0.00057748    0.00074160    0.00022576
     atom   55 type  2   force =    -0.00105209   -0.00342839   -0.00204306
     atom   56 type  5   force =     0.00108111    0.00310436    0.00194099
     atom   57 type  5   force =    -0.00102946    0.00056958   -0.00000673

     Total force =     0.365740     Total SCF correction =     0.000278
  @ DRIVER MODE: Message from server: STATUS
  @ DRIVER MODE: Message from server: GETFORCE
  @ DRIVER MODE: Returning v,forces,stress,ensemble

     Writing output data file ./calc.save/
  @ DRIVER MODE: Message from server: EXIT
  @ DRIVE MODE: Exiting

     General routines

     Parallel routines

   This run was terminated on:   8:11:11  16Sep2021

   JOB DONE.