     Program PWSCF v.6.7GPU starts on 25Sep2021 at 17:21:17

     R & G space division:  proc/nbgrp/npool/nimage =       8
     Reading input from /storage/home/hcoda1/3/ntian30/research/carbon/CxH_vib/H2O_calc/ads_slab/CH3N2OHHO_l/out_0006/pw.inp
Warning: card &CELL ignored
Warning: card   CELL_DYNAMICS='IPI', ignored
Warning: card / ignored

     Current dimensions of program PWSCF are:
     Max number of different atomic species (ntypx) = 10
     Max number of k-points (npk) =  40000
     Max angular momentum in pseudopotentials (lmaxx) =  3
     Presently no symmetry can be used with electric field

     Message from routine cell_base_init:
     DEPRECATED: use true lattice parameter, not A to a.u. conversion factor

     IMPORTANT: XC functional enforced from input :
     Exchange-correlation= BEEF-VDW
                           (   1   4  43  14   2   0   0)
     Any further DFT definition will be discarded
     Please, verify this is what you really want

  @ DRIVER MODE: Connecting to
 qe_1139763_2971669.sched-torque.pace.gatech.edu_eekx2_k_scratch
  using UNIX socket
  @ DRIVER MODE: Message from server: STATUS
  @ DRIVER MODE: Message from server: INIT
  @ DRIVER MODE: Receiving replica           0          -1
  @ DRIVER MODE: Receiving encoded integer          25
  @ DRIVER MODE:  SCF:  T  FORCE:  T  STRESS:  F  VC:  F  ENSEMBLE:  F
  @ DRIVER MODE:  SCF:  T  FORCE:  T  STRESS:  F  VC:  F  ENSEMBLE:  F

     Using Slab Decomposition

     bravais-lattice index     =            0
     lattice parameter (alat)  =       1.8897  a.u.
     unit-cell volume          =    6658.9804 (a.u.)^3
     number of atoms/cell      =           57
     number of atomic types    =            5
     number of electrons       =       409.00
     number of Kohn-Sham states=          214
     kinetic-energy cutoff     =      29.3995  Ry
     charge density cutoff     =     293.9946  Ry
     scf convergence threshold =      7.3E-08
     mixing beta               =       0.0500
     number of iterations used =            8  plain     mixing
     Exchange-correlation= BEEF-VDW
                           (   1   4  43  14   2   0   0)

     celldm(1)=   1.889726  celldm(2)=   0.000000  celldm(3)=   0.000000
     celldm(4)=   0.000000  celldm(5)=   0.000000  celldm(6)=   0.000000

     crystal axes: (cart. coord. in units of alat)
               a(1) = (   6.579727   0.000000   0.000000 )
               a(2) = (  -0.000775   5.961596   0.000000 )
               a(3) = (   0.000000   0.000000  25.155947 )

     reciprocal axes: (cart. coord. in units 2 pi/alat)
               b(1) = (  0.151982  0.000020  0.000000 )
               b(2) = (  0.000000  0.167740  0.000000 )
               b(3) = (  0.000000  0.000000  0.039752 )

     PseudoPot. # 1 for Ti read from file:
     /storage/coda1/p-amedford6/0/shared/rich_project_chbe-medford/medford-share/data/pseudos_module/espresso/nninc/pbe/van/Ti.UPF
     MD5 check sum: 8e4df49b7f0d34bbd5052bf3f5ea0213
     Pseudo is Ultrasoft, Zval = 12.0
     Generated by new atomic code, or converted to UPF format
     Using radial grid of  851 points,  6 beta functions with:
                l(1) =   0
                l(2) =   0
                l(3) =   1
                l(4) =   1
                l(5) =   2
                l(6) =   2
     Q(r) pseudized with  8 coefficients,  rinner =    1.000   1.000   1.000
                                                       1.000   1.000

     PseudoPot. # 2 for O  read from file:
     /storage/coda1/p-amedford6/0/shared/rich_project_chbe-medford/medford-share/data/pseudos_module/espresso/nninc/pbe/van/O.UPF
     MD5 check sum: 78c19812648e8988a0fe644b0f25305e
     Pseudo is Ultrasoft, Zval =  6.0
     Generated by new atomic code, or converted to UPF format
     Using radial grid of  737 points,  4 beta functions with:
                l(1) =   0
                l(2) =   0
                l(3) =   1
                l(4) =   1
     Q(r) pseudized with  8 coefficients,  rinner =    0.800   0.800   0.800

     PseudoPot. # 3 for N  read from file:
     /storage/coda1/p-amedford6/0/shared/rich_project_chbe-medford/medford-share/data/pseudos_module/espresso/nninc/pbe/van/N.UPF
     MD5 check sum: 90d10febe142ad51ac9d5be1deb811c4
     Pseudo is Ultrasoft, Zval =  5.0
     Generated by new atomic code, or converted to UPF format
     Using radial grid of  729 points,  4 beta functions with:
                l(1) =   0
                l(2) =   0
                l(3) =   1
                l(4) =   1
     Q(r) pseudized with  8 coefficients,  rinner =    0.800   0.800   0.800

     PseudoPot. # 4 for C  read from file:
     /storage/coda1/p-amedford6/0/shared/rich_project_chbe-medford/medford-share/data/pseudos_module/espresso/nninc/pbe/van/C.UPF
     MD5 check sum: 1a69bf6b8db32088f5b2163dbdb77a27
     Pseudo is Ultrasoft, Zval =  4.0
     Generated by new atomic code, or converted to UPF format
     Using radial grid of  721 points,  4 beta functions with:
                l(1) =   0
                l(2) =   0
                l(3) =   1
                l(4) =   1
     Q(r) pseudized with  8 coefficients,  rinner =    0.800   0.800   0.800

     PseudoPot. # 5 for H  read from file:
     /storage/coda1/p-amedford6/0/shared/rich_project_chbe-medford/medford-share/data/pseudos_module/espresso/nninc/pbe/van/H.UPF
     MD5 check sum: b5ee9d7bfd3a09ee7748110bda690ff7
     Pseudo is Ultrasoft, Zval =  1.0
     Generated by new atomic code, or converted to UPF format
     Using radial grid of  615 points,  1 beta functions with:
                l(1) =   0
     Q(r) pseudized with  8 coefficients,  rinner =    0.800

     atomic species   valence    mass     pseudopotential
        Ti1           12.00    47.86700     Ti( 1.00)
        O1             6.00    15.99900     O ( 1.00)
        N1             5.00    14.00700     N ( 1.00)
        C1             4.00    12.01100     C ( 1.00)
        H1             1.00     1.00800     H ( 1.00)

     No symmetry found

   Cartesian axes

     site n.     atom                  positions (alat units)
         1           Ti1 tau(   1) = (   0.0004258   2.9801865   6.0000000  )
         2           Ti1 tau(   2) = (   3.2906075   1.4906267   6.0002472  )
         3           O1  tau(   3) = (   0.0006271   0.0005054   7.9858123  )
         4           O1  tau(   4) = (   3.2906025   0.0005020   7.3038282  )
         5           O1  tau(   5) = (   4.5942328   1.4918067   9.2879030  )
         6           O1  tau(   6) = (   1.9868534   1.4903216   9.2879459  )
         7           Ti1 tau(   7) = (   3.2907910   2.8959150   9.1758416  )
         8           Ti1 tau(   8) = (   0.0015273   1.4827037   9.2680791  )
         9           O1  tau(   9) = (   3.2779673   5.9607700  11.3423085  )
        10           O1  tau(  10) = (   0.0116148   5.9584955  10.6183126  )
        11           O1  tau(  11) = (   1.2787083   1.4818767  12.6451794  )
        12           O1  tau(  12) = (   5.2707140   1.4872516  12.6060838  )
        13           Ti1 tau(  13) = (   0.0520196   2.9452147  12.6012095  )
        14           Ti1 tau(  14) = (   3.3669591   1.4706787  12.5087448  )
        15           O1  tau(  15) = (   6.5166736   5.9505275  14.6414754  )
        16           O1  tau(  16) = (   3.3002175   0.0041348  13.9548274  )
        17           O1  tau(  17) = (   4.5235890   1.5203341  16.0633414  )
        18           O1  tau(  18) = (   1.9992342   1.5602939  15.9747780  )
        19           Ti1 tau(  19) = (   3.2541499   3.0080313  15.6961896  )
        20           Ti1 tau(  20) = (   6.5591015   1.5323982  15.7823192  )
        21           O1  tau(  21) = (   3.2904802   0.0005063   4.7018136  )
        22           O1  tau(  22) = (   0.0960927   0.0099221  17.2178370  )
        23           O1  tau(  23) = (   1.3043587   1.4918075   6.0039043  )
        24           O1  tau(  24) = (   5.2767064   1.4903225   6.0039473  )
        25           Ti1 tau(  25) = (   0.0000382   5.9609847   6.0000000  )
        26           Ti1 tau(  26) = (   3.2902200   4.4714249   6.0002472  )
        27           O1  tau(  27) = (   0.0002396   2.9813036   7.9858123  )
        28           O1  tau(  28) = (   3.2902150   2.9813002   7.3038282  )
        29           O1  tau(  29) = (   4.5938453   4.4726049   9.2879030  )
        30           O1  tau(  30) = (   1.9864658   4.4711199   9.2879459  )
        31           Ti1 tau(  31) = (   3.2891106   5.8743827   9.1763621  )
        32           Ti1 tau(  32) = (   0.0006254   4.4649316   9.2693709  )
        33           O1  tau(  33) = (   3.2807211   2.9768430  11.3440791  )
        34           O1  tau(  34) = (   0.0092240   2.9805883  10.6323155  )
        35           O1  tau(  35) = (   1.2789702   4.4681595  12.6395138  )
        36           O1  tau(  36) = (   5.2737968   4.4775610  12.6008310  )
        37           Ti1 tau(  37) = (   0.0460201   5.9176504  12.5434570  )
        38           Ti1 tau(  38) = (   3.3658678   4.4646095  12.4976877  )
        39           O1  tau(  39) = (   6.5297297   2.9761478  14.6509524  )
        40           O1  tau(  40) = (   3.3085871   2.9961499  13.9017917  )
        41           O1  tau(  41) = (   4.5138497   4.4896837  16.1272785  )
        42           O1  tau(  42) = (   1.9961282   4.4344792  16.0060688  )
        43           Ti1 tau(  43) = (   3.3116018   0.0224549  15.7990204  )
        44           Ti1 tau(  44) = (   6.5775847   4.6577750  16.0638065  )
        45           O1  tau(  45) = (   3.2900926   2.9813045   4.7018136  )
        46           O1  tau(  46) = (   1.3039711   4.4726057   6.0039043  )
        47           O1  tau(  47) = (   5.2763189   4.4711207   6.0039473  )
        48           N1  tau(  48) = (   6.5065777   2.6139801  18.6403060  )
        49           N1  tau(  49) = (   6.5364102   2.8728423  17.4370429  )
        50           C1  tau(  50) = (   6.4341180   3.7235584  19.6105657  )
        51           H1  tau(  51) = (   6.3066687   4.7022679  19.1488110  )
        52           H1  tau(  52) = (   5.6164842   3.4805663  20.2913871  )
        53           H1  tau(  53) = (   0.7823074   3.6964598  20.1845303  )
        54           O1  tau(  54) = (   3.0314481   5.0835218  18.9911038  )
        55           H1  tau(  55) = (   1.7414717   0.2044793  18.0242669  )
        56           O1  tau(  56) = (   2.7372941   0.2572207  18.0778760  )
        57           H1  tau(  57) = (   3.9343361   5.3466317  19.2487757  )

     number of k points=    10  Fermi-Dirac smearing, width (Ry)=  0.0073
                       cart. coord. in units 2pi/alat
        k(    1) = (   0.0000000   0.0000000   0.0000000), wk =   0.1250000
        k(    2) = (   0.0000000   0.0419351   0.0000000), wk =   0.2500000
        k(    3) = (   0.0000000  -0.0838702   0.0000000), wk =   0.1250000
        k(    4) = (   0.0379955   0.0000049   0.0000000), wk =   0.2500000
        k(    5) = (   0.0379955   0.0419400   0.0000000), wk =   0.2500000
        k(    6) = (   0.0379955  -0.0838652   0.0000000), wk =   0.2500000
        k(    7) = (   0.0379955  -0.0419301   0.0000000), wk =   0.2500000
        k(    8) = (  -0.0759910  -0.0000099   0.0000000), wk =   0.1250000
        k(    9) = (  -0.0759910   0.0419252   0.0000000), wk =   0.2500000
        k(   10) = (  -0.0759910  -0.0838800   0.0000000), wk =   0.1250000

     Initial potential from superposition of free atoms

     starting charge  392.99914, renormalised to  409.00000

     negative rho (up, down):  1.422E-02 0.000E+00

     %%%%%%%%%%%%%%%%%%%%%%%%%%%%%%%%%%%%%%%%%%%%%%%%%%%%%%%%%%%%%%%%%%%%%%%%
     %                                                                      %
     % You are using vdW-DF, which was implemented by the Thonhauser group. %
     % Please cite the following two papers that made this development      %
     % possible and the two reviews that describe the various versions:     %
     %                                                                      %
     %   T. Thonhauser et al., PRL 115, 136402 (2015).                      %
     %   T. Thonhauser et al., PRB 76, 125112 (2007).                       %
     %   K. Berland et al., Rep. Prog. Phys. 78, 066501 (2015).             %
     %   D.C. Langreth et al., J. Phys.: Condens. Matter 21, 084203 (2009). %
     %                                                                      %
     %                                                                      %
     % If you are calculating the stress with vdW-DF, please also cite:     %
     %                                                                      %
     %   R. Sabatini et al., J. Phys.: Condens. Matter 24, 424209 (2012).   %
     %                                                                      %
     %%%%%%%%%%%%%%%%%%%%%%%%%%%%%%%%%%%%%%%%%%%%%%%%%%%%%%%%%%%%%%%%%%%%%%%%

     Adding external electric field

     Computed dipole along edir(3) :
        Dipole              -16.7543 Ry au,        -42.5852 Debye
        Dipole field         -0.0316 Ry au,

        Potential amp.        2.9309 Ry
        Total length         46.3494 bohr

     Starting wfcs are  309 atomic wfcs
  @ DRIVER MODE: Message from server: STATUS
  @ DRIVER MODE: Message from server: POSDATA
  @ DRIVER MODE: Reading and sharing cell
  @ DRIVER MODE: Reading and sharing positions
  @ DRIVER MODE: Received positions

     Self-consistent Calculation

     iteration #  1     ecut=    29.40 Ry     beta= 0.05
     Davidson diagonalization with overlap
     c_bands:  5 eigenvalues not converged
     c_bands:  5 eigenvalues not converged
     c_bands:  2 eigenvalues not converged
     c_bands:  1 eigenvalues not converged
     c_bands:  4 eigenvalues not converged
     c_bands:  2 eigenvalues not converged
     c_bands:  5 eigenvalues not converged
     ethr =  1.00E-05,  avg # of iterations = 26.6

[...]

     total energy              =   -2110.50049847 Ry
     estimated scf accuracy    <   10326.79855984 Ry

     iteration #  2     ecut=    29.40 Ry     beta= 0.05
     Davidson diagonalization with overlap
     ethr =  1.00E-02,  avg # of iterations = 32.2

[...]

     iteration # 62     ecut=    29.40 Ry     beta= 0.05
     Davidson diagonalization with overlap
     c_bands:  1 eigenvalues not converged
     ethr =  3.68E-10,  avg # of iterations = 13.8

[...]

     total energy              =   -3006.13701015 Ry
     estimated scf accuracy    <       0.00000017 Ry

     iteration # 69     ecut=    29.40 Ry     beta= 0.05
     Davidson diagonalization with overlap
     ethr =  3.38E-11,  avg # of iterations = 11.8

     negative rho (up, down):  1.471E-02 0.000E+00

     Adding external electric field

     Computed dipole along edir(3) :
        Dipole                0.8051 Ry au,          2.0464 Debye
        Dipole field          0.0015 Ry au,

        Potential amp.       -0.1408 Ry
        Total length         46.3494 bohr

     End of self-consistent calculation

          k = 0.0000 0.0000 0.0000 ( 18029 PWs)   bands (ev):

   -55.6092 -55.5751 -55.5669 -55.5362 -55.5307 -55.4450 -55.4237 -55.4082
   -55.3898 -55.3875 -55.3678 -55.3538 -54.9934 -54.9188 -54.5899 -54.5558
   -32.1076 -32.0923 -31.9506 -31.9449 -31.9222 -31.9018 -31.8774 -31.8635
   -31.8531 -31.7985 -31.7819 -31.7660 -31.7614 -31.7445 -31.7312 -31.7230
   -31.7142 -31.7056 -31.6937 -31.6670 -31.6663 -31.6462 -31.6145 -31.6133
   -31.6037 -31.5992 -31.5968 -31.5862 -31.5656 -31.5639 -31.5581 -31.5532
   -31.5408 -31.5400 -31.5315 -31.5180 -31.4997 -31.2706 -31.2116 -31.1789
   -31.1284 -31.1048 -30.9970 -30.9084 -30.8860 -30.8137 -30.7272 -30.6162
   -20.7336 -18.1544 -16.3086 -16.0824 -15.8958 -15.7692 -15.7142 -15.5520
   -15.4983 -15.4135 -15.3434 -15.2060 -15.1536 -15.1452 -15.1379 -15.1206
   -15.1117 -15.0547 -15.0423 -15.0407 -15.0302 -15.0019 -14.9634 -14.9505
   -14.9461 -14.8627 -14.7686 -14.7464 -14.7259 -14.7219 -14.6659 -14.2756
   -13.0919 -12.9754 -11.2964  -6.8219  -5.7485  -5.3597  -4.1651  -3.7770
    -3.7502  -3.6760  -3.5540  -3.5153  -3.4345  -3.3848  -3.2346  -3.0819
    -3.0241  -2.8555  -2.7864  -2.7590  -2.7155  -2.6316  -2.5244  -2.4710
    -2.4166  -2.4104  -2.3980  -2.3798  -2.3650  -2.3486  -2.2384  -2.2223
    -2.1663  -2.1487  -2.1169  -1.9882  -1.9601  -1.9284  -1.9225  -1.8909
    -1.8807  -1.8659  -1.8410  -1.8226  -1.7737  -1.7567  -1.6174  -1.5798
    -1.5217  -1.4404  -1.3854  -1.3131  -1.2366  -1.2044  -1.1224  -1.0641
    -1.0564  -1.0394  -1.0059  -0.9978  -0.8725  -0.7668  -0.7565  -0.6816
    -0.6223  -0.5674  -0.5304  -0.4643  -0.3826  -0.3653  -0.3578  -0.3354
    -0.2808  -0.2535  -0.1006  -0.0589  -0.0143   0.0134   0.0699   0.1019
     0.1444   0.1857   0.2260   0.2744   0.3085   0.3417   0.3598   0.3748
     0.3895   0.4208   0.4422   0.6086   0.6442   0.6662   0.7272   0.7575
     0.8463   0.9023   0.9660   1.0464   1.1565   1.3598   1.4327   1.5245
     1.6246   2.0040   2.0498   2.8013   3.5200   3.6120   3.6530   3.6837
     3.7650   3.7793   3.9779   3.9990   4.0299   4.1049

[...]

          k = 0.0380-0.0419 0.0000 ( 17876 PWs)   bands (ev):

[...]

          k =-0.0760-0.0000 0.0000 ( 17886 PWs)   bands (ev):

[...]

          k =-0.0760-0.0839 0.0000 ( 17948 PWs)   bands (ev):

   -55.5926 -55.5917 -55.5518 -55.5457 -55.5344 -55.4331 -55.4201 -55.4069
   -55.4060 -55.3721 -55.3695 -55.3694 -54.9897 -54.9224 -54.5729 -54.5726
   -31.9217 -31.9079 -31.9073 -31.9043 -31.8877 -31.8868 -31.8284 -31.8203
   -31.8089 -31.7896 -31.7813 -31.7567 -31.7508 -31.7270 -31.7210 -31.7189
   -31.7122 -31.7115 -31.7113 -31.7097 -31.7075 -31.7053 -31.6762 -31.6502
   -31.6366 -31.6328 -31.6238 -31.6078 -31.6067 -31.6017 -31.5964 -31.5875
   -31.5844 -31.5770 -31.5751 -31.5727 -31.4203 -31.2723 -31.2498 -31.1871
   -31.1662 -31.1295 -30.8988 -30.8986 -30.8099 -30.8097 -30.7706 -30.7705
   -20.7330 -18.1500 -15.7453 -15.6953 -15.6328 -15.5680 -15.5330 -15.4623
   -15.4182 -15.3764 -15.3247 -15.2867 -15.2774 -15.2161 -15.1962 -15.1640
   -15.1549 -15.1254 -15.1163 -15.1135 -15.0611 -15.0548 -15.0495 -15.0427
   -15.0364 -14.9762 -14.9370 -14.9297 -14.9247 -14.8261 -14.7029 -14.4432
   -13.0772 -13.0771 -11.2948  -6.8449  -5.7458  -5.3360  -4.0914  -3.7898
    -3.7241  -3.1121  -3.0243  -2.8308  -2.7996  -2.7184  -2.7137  -2.6713
    -2.5486  -2.5162  -2.4685  -2.4518  -2.4307  -2.4221  -2.4166  -2.3948
    -2.3875  -2.3712  -2.3406  -2.3210  -2.2884  -2.2777  -2.2645  -2.2538
    -2.2409  -2.2186  -2.2159  -2.1683  -2.1474  -2.1279  -2.0642  -2.0269
    -1.8453  -1.7971  -1.7525  -1.7457  -1.7210  -1.6892  -1.6787  -1.6610
    -1.6140  -1.5846  -1.5054  -1.4364  -1.3167  -1.3055  -1.2952  -1.2714
    -1.2072  -1.1499  -1.1006  -1.0132  -1.0104  -0.9601  -0.8666  -0.8071
    -0.7988  -0.7643  -0.7148  -0.7035  -0.6632  -0.5714  -0.5658  -0.5439
    -0.5382  -0.4590  -0.4197  -0.3597  -0.3515  -0.3319  -0.3008  -0.2723
    -0.2396  -0.1906  -0.1044  -0.0715   0.0236   0.1286   0.2076   0.3406
     0.4587   0.4722   0.5579   0.5810   0.6833   0.6933   0.7051   0.7475
     0.7836   0.8099   0.9262   0.9406   0.9650   0.9957   1.0780   1.7961
     1.7970   1.8695   1.8697   2.7895   3.7605   3.8764   3.9087   3.9186
     4.0026   4.0404   4.0588   4.0607   4.1244   4.1990

     the Fermi energy is     3.5228 ev

!    total energy              =   -3006.13703021 Ry
     estimated scf accuracy    <       0.00000006 Ry
     smearing contrib. (-TS)   =      -0.02164089 Ry
     internal energy E=F+TS    =   -3006.11538932 Ry

     The total energy is F=E-TS. E is the sum of the following terms:
     one-electron contribution =  -23511.34489849 Ry
     hartree contribution      =   11853.62402408 Ry
     xc contribution           =    -501.15696382 Ry
     ewald contribution        =    9152.76122562 Ry
     electric field correction =       0.00122328 Ry

     convergence has been achieved in  69 iterations

     Forces acting on atoms (cartesian axes, Ry/au):

     atom    1 type  1   force =     0.00020915   -0.00033137    0.09614399
     atom    2 type  1   force =    -0.00012885   -0.00050603   -0.17558814
     atom    3 type  2   force =    -0.00002930   -0.00015809   -0.02417263
     atom    4 type  2   force =     0.00000662   -0.00155696    0.05345123
     atom    5 type  2   force =    -0.01165253   -0.00075738    0.00385708
     atom    6 type  2   force =     0.01284372   -0.00002032    0.00197057
     atom    7 type  1   force =    -0.00132648    0.00026474   -0.00661480
     atom    8 type  1   force =     0.00074534    0.00793826    0.02424729
     atom    9 type  2   force =     0.00000744    0.00003295    0.00001750
     atom   10 type  2   force =    -0.00082647    0.00166768   -0.01690105
     atom   11 type  2   force =    -0.00004807    0.00003115   -0.00003337
     atom   12 type  2   force =    -0.00000099    0.00001659   -0.00003438
     atom   13 type  1   force =     0.00001068   -0.00000031    0.00009966
     atom   14 type  1   force =     0.00001946    0.00003177    0.00009128
     atom   15 type  2   force =     0.00001008    0.00013905   -0.00015654
     atom   16 type  2   force =    -0.00000939   -0.00003096   -0.00022000
     atom   17 type  2   force =    -0.00017683   -0.00011982   -0.00018272
     atom   18 type  2   force =     0.00011093   -0.00007458   -0.00024406
     atom   19 type  1   force =     0.00000614   -0.00006831    0.00034059
     atom   20 type  1   force =     0.00002745    0.00043990    0.00151364
     atom   21 type  2   force =     0.00005895   -0.00004613    0.10322069
     atom   22 type  2   force =    -0.00005407   -0.00031701   -0.00040699
     atom   23 type  2   force =    -0.07146771   -0.00012059   -0.02769776
     atom   24 type  2   force =     0.07137185    0.00028885   -0.02770570
     atom   25 type  1   force =    -0.00002948   -0.00028530    0.09577467
     atom   26 type  1   force =    -0.00022552   -0.00034298   -0.17584351
     atom   27 type  2   force =     0.00004805   -0.00017203   -0.02321964
     atom   28 type  2   force =     0.00007210   -0.00125762    0.05305299
     atom   29 type  2   force =    -0.01200014    0.00042539    0.00403246
     atom   30 type  2   force =     0.01308767    0.00076904    0.00211875
     atom   31 type  1   force =    -0.00119233    0.00400257   -0.00991701
     atom   32 type  1   force =     0.00066777   -0.01005828    0.02472403
     atom   33 type  2   force =     0.00001512   -0.00001262    0.00000124
     atom   34 type  2   force =    -0.00025094    0.00013103   -0.02261001
     atom   35 type  2   force =    -0.00004257    0.00000636   -0.00004422
     atom   36 type  2   force =    -0.00000487    0.00002120   -0.00004902
     atom   37 type  1   force =     0.00000588   -0.00004404    0.00007748
     atom   38 type  1   force =     0.00003245    0.00007395    0.00014607
     atom   39 type  2   force =    -0.00005616   -0.00016457   -0.00016195
     atom   40 type  2   force =    -0.00000149   -0.00003173   -0.00017140
     atom   41 type  2   force =    -0.00018613    0.00010975   -0.00020902
     atom   42 type  2   force =     0.00015364    0.00004217   -0.00018726
     atom   43 type  1   force =     0.00009313   -0.00003874    0.00021137
     atom   44 type  1   force =     0.00000374   -0.00049828    0.00111782
     atom   45 type  2   force =     0.00004699   -0.00008612    0.10323012
     atom   46 type  2   force =    -0.07148340   -0.00008024   -0.02771916
     atom   47 type  2   force =     0.07139680    0.00036032   -0.02770992
     atom   48 type  3   force =     0.00081904    0.00236926   -0.02661840
     atom   49 type  3   force =    -0.00051222   -0.00446342    0.02142599
     atom   50 type  4   force =    -0.00018313    0.00133487    0.00195655
     atom   51 type  5   force =     0.00002932   -0.00009480   -0.00015050
     atom   52 type  5   force =     0.00002009    0.00065947    0.00090555
     atom   53 type  5   force =    -0.00009018    0.00055447    0.00077936
     atom   54 type  2   force =     0.00100536   -0.00001172   -0.00132891
     atom   55 type  5   force =    -0.00009654    0.00003513   -0.00000057
     atom   56 type  2   force =    -0.00111783   -0.00008497    0.00134111
     atom   57 type  5   force =     0.00026868    0.00008935    0.00004953

     Total force =     0.368721     Total SCF correction =     0.000783
  @ DRIVER MODE: Message from server: STATUS
  @ DRIVER MODE: Message from server: GETFORCE
  @ DRIVER MODE: Returning v,forces,stress,ensemble

     Writing output data file ./calc.save/
  @ DRIVER MODE: Message from server: EXIT
  @ DRIVE MODE: Exiting

     General routines

     Parallel routines

   This run was terminated on:  17:56:55  25Sep2021

   JOB DONE.