     Program PWSCF v.6.7GPU starts on 16Sep2021 at  5:31: 1

     R & G space division:  proc/nbgrp/npool/nimage =      10
     Reading input from /storage/home/hcoda1/3/ntian30/research/carbon/CxH_vib/H2O_calc/ads_slab/CH2NHNH2O_a/out_0044/pw.inp
Warning: card &CELL ignored
Warning: card   CELL_DYNAMICS='IPI', ignored
Warning: card / ignored

     Current dimensions of program PWSCF are:
     Max number of different atomic species (ntypx) = 10
     Max number of k-points (npk) =  40000
     Max angular momentum in pseudopotentials (lmaxx) =  3
     Presently no symmetry can be used with electric field

     Message from routine cell_base_init:
     DEPRECATED: use true lattice parameter, not A to a.u. conversion factor

     IMPORTANT: XC functional enforced from input :
     Exchange-correlation= BEEF-VDW
                           (   1   4  43  14   2   0   0)
     Any further DFT definition will be discarded
     Please, verify this is what you really want

  @ DRIVER MODE: Connecting to
 qe_1139763_2852610.sched-torque.pace.gatech.edurta0_gjv_scratch
  using UNIX socket
  @ DRIVER MODE: Message from server: STATUS
  @ DRIVER MODE: Message from server: INIT
  @ DRIVER MODE: Receiving replica           0          -1
  @ DRIVER MODE: Receiving encoded integer          25
  @ DRIVER MODE:  SCF:  T  FORCE:  T  STRESS:  F  VC:  F  ENSEMBLE:  F
  @ DRIVER MODE:  SCF:  T  FORCE:  T  STRESS:  F  VC:  F  ENSEMBLE:  F

     Using Slab Decomposition

     bravais-lattice index     =            0
     lattice parameter (alat)  =       1.8897  a.u.
     unit-cell volume          =    6658.9804 (a.u.)^3
     number of atoms/cell      =           56
     number of atomic types    =            5
     number of electrons       =       403.00
     number of Kohn-Sham states=          211
     kinetic-energy cutoff     =      29.3995  Ry
     charge density cutoff     =     293.9946  Ry
     scf convergence threshold =      7.3E-08
     mixing beta               =       0.0500
     number of iterations used =            8  plain     mixing
     Exchange-correlation= BEEF-VDW
                           (   1   4  43  14   2   0   0)

     celldm(1)=   1.889726  celldm(2)=   0.000000  celldm(3)=   0.000000
     celldm(4)=   0.000000  celldm(5)=   0.000000  celldm(6)=   0.000000

     crystal axes: (cart. coord. in units of alat)
               a(1) = (   6.579727   0.000000   0.000000 )
               a(2) = (  -0.000775   5.961596   0.000000 )
               a(3) = (   0.000000   0.000000  25.155947 )

     reciprocal axes: (cart. coord. in units 2 pi/alat)
               b(1) = (  0.151982  0.000020  0.000000 )
               b(2) = (  0.000000  0.167740  0.000000 )
               b(3) = (  0.000000  0.000000  0.039752 )

     PseudoPot. # 1 for Ti read from file:
     /storage/coda1/p-amedford6/0/shared/rich_project_chbe-medford/medford-share/data/pseudos_module/espresso/nninc/pbe/van/Ti.UPF
     MD5 check sum: 8e4df49b7f0d34bbd5052bf3f5ea0213
     Pseudo is Ultrasoft, Zval = 12.0
     Generated by new atomic code, or converted to UPF format
     Using radial grid of  851 points,  6 beta functions with:
                l(1) =   0
                l(2) =   0
                l(3) =   1
                l(4) =   1
                l(5) =   2
                l(6) =   2
     Q(r) pseudized with  8 coefficients,  rinner =    1.000   1.000   1.000
                                                       1.000   1.000

     PseudoPot. # 2 for O  read from file:
     /storage/coda1/p-amedford6/0/shared/rich_project_chbe-medford/medford-share/data/pseudos_module/espresso/nninc/pbe/van/O.UPF
     MD5 check sum: 78c19812648e8988a0fe644b0f25305e
     Pseudo is Ultrasoft, Zval =  6.0
     Generated by new atomic code, or converted to UPF format
     Using radial grid of  737 points,  4 beta functions with:
                l(1) =   0
                l(2) =   0
                l(3) =   1
                l(4) =   1
     Q(r) pseudized with  8 coefficients,  rinner =    0.800   0.800   0.800

     PseudoPot. # 3 for H  read from file:
     /storage/coda1/p-amedford6/0/shared/rich_project_chbe-medford/medford-share/data/pseudos_module/espresso/nninc/pbe/van/H.UPF
     MD5 check sum: b5ee9d7bfd3a09ee7748110bda690ff7
     Pseudo is Ultrasoft, Zval =  1.0
     Generated by new atomic code, or converted to UPF format
     Using radial grid of  615 points,  1 beta functions with:
                l(1) =   0
     Q(r) pseudized with  8 coefficients,  rinner =    0.800

     PseudoPot. # 4 for N  read from file:
     /storage/coda1/p-amedford6/0/shared/rich_project_chbe-medford/medford-share/data/pseudos_module/espresso/nninc/pbe/van/N.UPF
     MD5 check sum: 90d10febe142ad51ac9d5be1deb811c4
     Pseudo is Ultrasoft, Zval =  5.0
     Generated by new atomic code, or converted to UPF format
     Using radial grid of  729 points,  4 beta functions with:
                l(1) =   0
                l(2) =   0
                l(3) =   1
                l(4) =   1
     Q(r) pseudized with  8 coefficients,  rinner =    0.800   0.800   0.800

     PseudoPot. # 5 for C  read from file:
     /storage/coda1/p-amedford6/0/shared/rich_project_chbe-medford/medford-share/data/pseudos_module/espresso/nninc/pbe/van/C.UPF
     MD5 check sum: 1a69bf6b8db32088f5b2163dbdb77a27
     Pseudo is Ultrasoft, Zval =  4.0
     Generated by new atomic code, or converted to UPF format
     Using radial grid of  721 points,  4 beta functions with:
                l(1) =   0
                l(2) =   0
                l(3) =   1
                l(4) =   1
     Q(r) pseudized with  8 coefficients,  rinner =    0.800   0.800   0.800

     atomic species   valence    mass     pseudopotential
        Ti1           12.00    47.86700     Ti( 1.00)
        O1             6.00    15.99900     O ( 1.00)
        H1             1.00     1.00800     H ( 1.00)
        N1             5.00    14.00700     N ( 1.00)
        C1             4.00    12.01100     C ( 1.00)

     No symmetry found

   Cartesian axes

     site n.     atom                  positions (alat units)
         1           Ti1 tau(   1) = (   0.0004258   2.9801865   6.0000000  )
         2           Ti1 tau(   2) = (   3.2906075   1.4906267   6.0002472  )
         3           O1  tau(   3) = (   0.0006271   0.0005054   7.9858123  )
         4           O1  tau(   4) = (   3.2906025   0.0005020   7.3038282  )
         5           O1  tau(   5) = (   4.5942328   1.4918067   9.2879030  )
         6           O1  tau(   6) = (   1.9868534   1.4903216   9.2879459  )
         7           Ti1 tau(   7) = (   3.2907910   2.8959150   9.1758416  )
         8           Ti1 tau(   8) = (   0.0015273   1.4827037   9.2680791  )
         9           O1  tau(   9) = (   3.2960012   0.0062018  11.3595187  )
        10           O1  tau(  10) = (   0.0116148   5.9584955  10.6183126  )
        11           O1  tau(  11) = (   1.2731109   1.5057875  12.6314550  )
        12           O1  tau(  12) = (   5.2959999   1.4755877  12.6679080  )
        13           Ti1 tau(  13) = (   0.0553992   2.9538365  12.5526742  )
        14           Ti1 tau(  14) = (   3.3268292   1.5427496  12.5634199  )
        15           O1  tau(  15) = (   0.1371361   5.9015051  14.6217027  )
        16           O1  tau(  16) = (   3.1880369   0.0098958  13.9252199  )
        17           O1  tau(  17) = (   4.6462182   1.4014471  15.8552565  )
        18           O1  tau(  18) = (   2.0822703   1.5558083  16.1249119  )
        19           Ti1 tau(  19) = (   3.3548958   3.0525267  15.8597497  )
        20           Ti1 tau(  20) = (   0.0948755   1.3182250  15.7908873  )
        21           O1  tau(  21) = (   3.2904802   0.0005063   4.7018136  )
        22           O1  tau(  22) = (   0.0722171   0.0319689  17.1393915  )
        23           O1  tau(  23) = (   1.3043587   1.4918075   6.0039043  )
        24           O1  tau(  24) = (   5.2767064   1.4903225   6.0039473  )
        25           Ti1 tau(  25) = (   0.0000382   5.9609847   6.0000000  )
        26           Ti1 tau(  26) = (   3.2902200   4.4714249   6.0002472  )
        27           O1  tau(  27) = (   0.0002396   2.9813036   7.9858123  )
        28           O1  tau(  28) = (   3.2902150   2.9813002   7.3038282  )
        29           O1  tau(  29) = (   4.5938453   4.4726049   9.2879030  )
        30           O1  tau(  30) = (   1.9864658   4.4711199   9.2879459  )
        31           Ti1 tau(  31) = (   3.2891106   5.8743827   9.1763621  )
        32           Ti1 tau(  32) = (   0.0006254   4.4649316   9.2693709  )
        33           O1  tau(  33) = (   3.2982667   2.9897935  11.3544942  )
        34           O1  tau(  34) = (   0.0092240   2.9805883  10.6323155  )
        35           O1  tau(  35) = (   1.2737041   4.4504026  12.6113924  )
        36           O1  tau(  36) = (   5.2903739   4.4874249  12.6576873  )
        37           Ti1 tau(  37) = (   6.5697415   5.9260651  12.4959683  )
        38           Ti1 tau(  38) = (   3.3125242   4.5024033  12.5372123  )
        39           O1  tau(  39) = (   0.0674008   2.9793056  14.8363759  )
        40           O1  tau(  40) = (   3.2999477   2.9756493  13.9369993  )
        41           O1  tau(  41) = (   4.6108370   4.5787535  15.7719701  )
        42           O1  tau(  42) = (   2.0428421   4.3627697  16.1441833  )
        43           Ti1 tau(  43) = (   3.3552955   0.0804576  15.7648105  )
        44           Ti1 tau(  44) = (   6.5672415   4.5273692  15.9765751  )
        45           O1  tau(  45) = (   3.2900926   2.9813045   4.7018136  )
        46           O1  tau(  46) = (   1.3039711   4.4726057   6.0039043  )
        47           O1  tau(  47) = (   5.2763189   4.4711207   6.0039473  )
        48           H1  tau(  48) = (   4.1035413   2.4672077  18.5646977  )
        49           N1  tau(  49) = (   5.6961598   3.2907635  17.7856741  )
        50           C1  tau(  50) = (   6.4968133   2.7471819  18.6454045  )
        51           H1  tau(  51) = (   6.1325458   2.1374441  19.4677963  )
        52           H1  tau(  52) = (   0.9799315   2.9096255  18.5325614  )
        53           N1  tau(  53) = (   4.3409097   3.1788467  17.8642182  )
        54           O1  tau(  54) = (   3.3174094   5.8609012  18.0981057  )
        55           H1  tau(  55) = (   3.6836973   4.9388346  18.2201127  )
        56           H1  tau(  56) = (   2.3597147   5.7972335  18.2603650  )

     number of k points=    10  Fermi-Dirac smearing, width (Ry)=  0.0073
                       cart. coord. in units 2pi/alat
        k(    1) = (   0.0000000   0.0000000   0.0000000), wk =   0.1250000
        k(    2) = (   0.0000000   0.0419351   0.0000000), wk =   0.2500000
        k(    3) = (   0.0000000  -0.0838702   0.0000000), wk =   0.1250000
        k(    4) = (   0.0379955   0.0000049   0.0000000), wk =   0.2500000
        k(    5) = (   0.0379955   0.0419400   0.0000000), wk =   0.2500000
        k(    6) = (   0.0379955  -0.0838652   0.0000000), wk =   0.2500000
        k(    7) = (   0.0379955  -0.0419301   0.0000000), wk =   0.2500000
        k(    8) = (  -0.0759910  -0.0000099   0.0000000), wk =   0.1250000
        k(    9) = (  -0.0759910   0.0419252   0.0000000), wk =   0.2500000
        k(   10) = (  -0.0759910  -0.0838800   0.0000000), wk =   0.1250000

     Initial potential from superposition of free atoms

     starting charge  386.99914, renormalised to  403.00000

     negative rho (up, down):  1.703E-02 0.000E+00

     %%%%%%%%%%%%%%%%%%%%%%%%%%%%%%%%%%%%%%%%%%%%%%%%%%%%%%%%%%%%%%%%%%%%%%%%
     %                                                                      %
     % You are using vdW-DF, which was implemented by the Thonhauser group. %
     % Please cite the following two papers that made this development      %
     % possible and the two reviews that describe the various versions:     %
     %                                                                      %
     %   T. Thonhauser et al., PRL 115, 136402 (2015).                      %
     %   T. Thonhauser et al., PRB 76, 125112 (2007).                       %
     %   K. Berland et al., Rep. Prog. Phys. 78, 066501 (2015).             %
     %   D.C. Langreth et al., J. Phys.: Condens. Matter 21, 084203 (2009). %
     %                                                                      %
     %                                                                      %
     % If you are calculating the stress with vdW-DF, please also cite:     %
     %                                                                      %
     %   R. Sabatini et al., J. Phys.: Condens. Matter 24, 424209 (2012).   %
     %                                                                      %
     %%%%%%%%%%%%%%%%%%%%%%%%%%%%%%%%%%%%%%%%%%%%%%%%%%%%%%%%%%%%%%%%%%%%%%%%

     Adding external electric field

     Computed dipole along edir(3) :
        Dipole              -12.3736 Ry au,        -31.4507 Debye
        Dipole field         -0.0234 Ry au,

        Potential amp.        2.1646 Ry
        Total length         46.3494 bohr

     Starting wfcs are  305 atomic wfcs
  @ DRIVER MODE: Message from server: STATUS
  @ DRIVER MODE: Message from server: POSDATA
  @ DRIVER MODE: Reading and sharing cell
  @ DRIVER MODE: Reading and sharing positions
  @ DRIVER MODE: Received positions

     Self-consistent Calculation

     iteration #  1     ecut=    29.40 Ry     beta= 0.05
     Davidson diagonalization with overlap
     c_bands:  4 eigenvalues not converged
     c_bands:  3 eigenvalues not converged
     c_bands:  5 eigenvalues not converged
     c_bands:  1 eigenvalues not converged
     c_bands:  1 eigenvalues not converged
     c_bands:  4 eigenvalues not converged
     c_bands:  3 eigenvalues not converged
     ethr =  1.00E-05,  avg # of iterations = 27.4

[...]

     total energy              =   -2355.30117255 Ry
     estimated scf accuracy    <    7011.05452724 Ry

     iteration #  2     ecut=    29.40 Ry     beta= 0.05
     Davidson diagonalization with overlap
     ethr =  1.00E-02,  avg # of iterations = 25.4

[...]

     iteration # 53     ecut=    29.40 Ry     beta= 0.05
     Davidson diagonalization with overlap
     c_bands:  1 eigenvalues not converged
     ethr =  2.25E-11,  avg # of iterations = 14.8

[...]

     total energy              =   -2973.97641366 Ry
     estimated scf accuracy    <       0.00000015 Ry

     iteration # 54     ecut=    29.40 Ry     beta= 0.05
     Davidson diagonalization with overlap
     ethr =  2.25E-11,  avg # of iterations = 11.7

     negative rho (up, down):  1.700E-02 0.000E+00

     Adding external electric field

     Computed dipole along edir(3) :
        Dipole                0.9084 Ry au,          2.3089 Debye
        Dipole field          0.0017 Ry au,

        Potential amp.       -0.1589 Ry
        Total length         46.3494 bohr

     End of self-consistent calculation

          k = 0.0000 0.0000 0.0000 ( 18029 PWs)   bands (ev):

   -55.6370 -55.6029 -55.5185 -55.4827 -55.4763 -55.4634 -55.4415 -55.4295
   -55.4245 -55.4073 -55.3904 -55.3893 -55.3557 -55.2391 -54.6232 -54.5892
   -32.1227 -32.0243 -31.9708 -31.9654 -31.9578 -31.9282 -31.9142 -31.8956
   -31.8827 -31.7896 -31.7834 -31.7774 -31.7498 -31.7445 -31.7392 -31.7046
   -31.6944 -31.6811 -31.6761 -31.6682 -31.6616 -31.6600 -31.6442 -31.6411
   -31.6350 -31.6248 -31.6231 -31.6186 -31.6131 -31.6074 -31.6025 -31.5931
   -31.5833 -31.5808 -31.5803 -31.5780 -31.5725 -31.5373 -31.5290 -31.5133
   -31.4398 -31.3676 -31.0302 -30.9417 -30.9193 -30.8472 -30.7607 -30.6494
   -18.4074 -17.7413 -16.3002 -16.1096 -15.8843 -15.7824 -15.7425 -15.5693
   -15.4386 -15.3958 -15.2693 -15.2040 -15.1801 -15.1613 -15.1474 -15.1149
   -15.0916 -15.0678 -15.0660 -15.0466 -15.0219 -14.9993 -14.9714 -14.9536
   -14.9111 -14.7856 -14.7773 -14.7660 -14.7283 -14.6909 -14.2923 -13.1236
   -13.0070 -12.3765  -7.9280  -6.2108  -5.4284  -4.8404  -3.6715  -3.5796
    -3.5471  -3.5235  -3.4448  -3.3246  -3.2299  -3.0346  -2.9247  -2.8953
    -2.8662  -2.7884  -2.7046  -2.6639  -2.5629  -2.5308  -2.5199  -2.4756
    -2.4210  -2.4061  -2.3760  -2.3626  -2.3264  -2.1938  -2.1745  -2.1359
    -2.0251  -2.0086  -2.0002  -1.9581  -1.9547  -1.9244  -1.9140  -1.8959
    -1.8790  -1.8667  -1.8000  -1.7177  -1.6854  -1.6366  -1.5819  -1.5741
    -1.2742  -1.2576  -1.1902  -1.1586  -1.0882  -1.0540  -1.0403  -1.0255
    -0.9925  -0.8930  -0.8044  -0.7854  -0.7219  -0.6609  -0.5616  -0.5474
    -0.4466  -0.3975  -0.3921  -0.3791  -0.3471  -0.2874  -0.2313  -0.1746
    -0.1250  -0.0419   0.0120   0.0216   0.0633   0.1066   0.1363   0.1945
     0.2571   0.2843   0.3174   0.3327   0.3738   0.4341   0.4554   0.4683
     0.5468   0.5868   0.6122   0.7101   0.7193   0.7584   0.8300   1.0145
     1.0603   1.1996   1.3381   1.4013   1.4674   1.5935   1.8650   1.9715
     2.0177   3.4530   3.5871   3.6079   3.6436   3.7153   3.7619   3.9348
     4.0305   4.0525   4.1134

[...]

          k = 0.0380-0.0419 0.0000 ( 17876 PWs)   bands (ev):

[...]

          k =-0.0760-0.0000 0.0000 ( 17886 PWs)   bands (ev):

[...]

          k =-0.0760-0.0839 0.0000 ( 17948 PWs)   bands (ev):

   -55.6199 -55.6198 -55.5037 -55.4971 -55.4610 -55.4570 -55.4464 -55.4460
   -55.4104 -55.4050 -55.4046 -55.3736 -55.3717 -55.2410 -54.6063 -54.6060
   -31.9380 -31.9379 -31.9137 -31.9136 -31.8837 -31.8475 -31.8187 -31.8001
   -31.7895 -31.7745 -31.7653 -31.7529 -31.7485 -31.7397 -31.7394 -31.7320
   -31.7314 -31.7192 -31.7163 -31.7098 -31.6837 -31.6814 -31.6763 -31.6702
   -31.6556 -31.6533 -31.6524 -31.6389 -31.6331 -31.6309 -31.6272 -31.6270
   -31.6232 -31.6203 -31.6199 -31.6154 -31.6138 -31.6020 -31.5872 -31.5365
   -31.4499 -31.4467 -30.9321 -30.9319 -30.8431 -30.8429 -30.8040 -30.8039
   -18.3996 -17.7422 -15.8511 -15.6072 -15.5935 -15.5568 -15.5380 -15.4189
   -15.3738 -15.3697 -15.3489 -15.2940 -15.2580 -15.2211 -15.1898 -15.1720
   -15.1486 -15.1374 -15.0953 -15.0926 -15.0856 -15.0637 -15.0218 -15.0116
   -14.9873 -14.9669 -14.9624 -14.9499 -14.9172 -14.7494 -14.6404 -13.1088
   -13.1087 -12.3924  -7.8878  -6.1960  -5.4868  -4.7623  -3.1485  -3.0637
    -3.0034  -2.8001  -2.7553  -2.7331  -2.7015  -2.6415  -2.5885  -2.5709
    -2.5525  -2.5237  -2.5138  -2.4621  -2.4364  -2.4102  -2.3856  -2.3698
    -2.3603  -2.3473  -2.3212  -2.3020  -2.2785  -2.2697  -2.2462  -2.2354
    -2.2137  -2.2055  -2.1914  -2.1688  -2.0804  -1.9981  -1.8963  -1.8374
    -1.7940  -1.7936  -1.7632  -1.7339  -1.7060  -1.7017  -1.6624  -1.6330
    -1.5604  -1.5023  -1.3189  -1.3054  -1.2606  -1.1753  -1.1746  -1.1280
    -1.1175  -1.0658  -1.0398  -0.9934  -0.9439  -0.9095  -0.8229  -0.6696
    -0.6212  -0.6012  -0.5953  -0.5797  -0.5391  -0.5249  -0.4724  -0.4552
    -0.4385  -0.3722  -0.3421  -0.3376  -0.2869  -0.2687  -0.1570  -0.0583
    -0.0316   0.0224   0.0617   0.1813   0.2932   0.3622   0.4641   0.4784
     0.4969   0.5505   0.6586   0.6685   0.7136   0.7765   0.8414   0.8470
     0.8774   0.9416   0.9534   0.9904   1.7642   1.7659   1.8139   1.8376
     1.8378   3.8618   3.9025   3.9530   3.9591   3.9830   4.0331   4.0404
     4.0715   4.1215   4.1372

     the Fermi energy is     3.4855 ev

!    total energy              =   -2973.97649725 Ry
     estimated scf accuracy    <       0.00000004 Ry
     smearing contrib. (-TS)   =      -0.01978154 Ry
     internal energy E=F+TS    =   -2973.95671571 Ry

     The total energy is F=E-TS. E is the sum of the following terms:
     one-electron contribution =  -24367.64324995 Ry
     hartree contribution      =   12278.38151436 Ry
     xc contribution           =    -494.12901437 Ry
     ewald contribution        =    9609.43247706 Ry
     electric field correction =       0.00155719 Ry

     convergence has been achieved in  54 iterations

     Forces acting on atoms (cartesian axes, Ry/au):

     atom    1 type  1   force =     0.00015894   -0.00031478    0.09443337
     atom    2 type  1   force =    -0.00007464   -0.00076923   -0.17585958
     atom    3 type  2   force =     0.00005921   -0.00019483   -0.02182487
     atom    4 type  2   force =     0.00003957   -0.00134282    0.05333075
     atom    5 type  2   force =    -0.00870361   -0.00018315    0.00366725
     atom    6 type  2   force =     0.01037180    0.00046908    0.00301911
     atom    7 type  1   force =    -0.00044793    0.00082383   -0.00103836
     atom    8 type  1   force =     0.00044680    0.00750352    0.00862310
     atom    9 type  2   force =     0.00047056    0.00015572    0.00005417
     atom   10 type  2   force =    -0.00262972    0.00131743   -0.01722913
     atom   11 type  2   force =    -0.00010499    0.00009349   -0.00040789
     atom   12 type  2   force =     0.00031873    0.00007282   -0.00008701
     atom   13 type  1   force =    -0.00042113   -0.00037602   -0.00022789
     atom   14 type  1   force =     0.00036941    0.00006956    0.00022862
     atom   15 type  2   force =     0.00013021   -0.00006837   -0.00026753
     atom   16 type  2   force =     0.00020651    0.00017986    0.00000791
     atom   17 type  2   force =    -0.00002455   -0.00001719    0.00008836
     atom   18 type  2   force =    -0.00000242   -0.00004486   -0.00011157
     atom   19 type  1   force =    -0.00062561    0.00028771   -0.00076289
     atom   20 type  1   force =     0.00017741   -0.00014348   -0.00000127
     atom   21 type  2   force =     0.00006664   -0.00000368    0.10323790
     atom   22 type  2   force =    -0.00030169   -0.00043771   -0.00000745
     atom   23 type  2   force =    -0.07155921   -0.00010955   -0.02735414
     atom   24 type  2   force =     0.07149656    0.00037685   -0.02736841
     atom   25 type  1   force =     0.00004581   -0.00021291    0.09441485
     atom   26 type  1   force =    -0.00013187   -0.00029967   -0.17599041
     atom   27 type  2   force =     0.00003856   -0.00018978   -0.02072809
     atom   28 type  2   force =     0.00009466   -0.00112695    0.05371816
     atom   29 type  2   force =    -0.00878462   -0.00002165    0.00343443
     atom   30 type  2   force =     0.01029952    0.00036482    0.00286433
     atom   31 type  1   force =    -0.00032869    0.00466998    0.00189814
     atom   32 type  1   force =     0.00042672   -0.00852507    0.00857522
     atom   33 type  2   force =    -0.00003648    0.00002320   -0.00000906
     atom   34 type  2   force =    -0.00403388   -0.00112145   -0.01182616
     atom   35 type  2   force =     0.00012068    0.00007557    0.00033041
     atom   36 type  2   force =     0.00054882    0.00006084   -0.00022789
     atom   37 type  1   force =     0.00061914   -0.00018930   -0.00001586
     atom   38 type  1   force =     0.00022675   -0.00014453   -0.00010801
     atom   39 type  2   force =    -0.00014710   -0.00003039   -0.00019745
     atom   40 type  2   force =     0.00046173    0.00000376    0.00039970
     atom   41 type  2   force =    -0.00009168    0.00042962    0.00009845
     atom   42 type  2   force =     0.00014394    0.00010937   -0.00020560
     atom   43 type  1   force =    -0.00036544   -0.00014812    0.00017694
     atom   44 type  1   force =     0.00039200    0.00052165    0.00083485
     atom   45 type  2   force =     0.00005451   -0.00000034    0.10331515
     atom   46 type  2   force =    -0.07155384   -0.00004748   -0.02734515
     atom   47 type  2   force =     0.07149538    0.00034756   -0.02737002
     atom   48 type  3   force =     0.00037247   -0.00048351   -0.00066644
     atom   49 type  4   force =     0.00062562   -0.00001210   -0.00038375
     atom   50 type  5   force =    -0.00004962   -0.00156400   -0.00108755
     atom   51 type  3   force =    -0.00043639    0.00042800    0.00099958
     atom   52 type  3   force =    -0.00005208   -0.00024582    0.00002934
     atom   53 type  4   force =    -0.00002274    0.00055035    0.00112226
     atom   54 type  2   force =     0.00363790   -0.00356574    0.00079568
     atom   55 type  3   force =    -0.00445681    0.00451618   -0.00090045
     atom   56 type  3   force =     0.00147013   -0.00151630   -0.00008816

     Total force =     0.363902     Total SCF correction =     0.000543
  @ DRIVER MODE: Message from server: STATUS
  @ DRIVER MODE: Message from server: GETFORCE
  @ DRIVER MODE: Returning v,forces,stress,ensemble

     Writing output data file ./calc.save/
  @ DRIVER MODE: Message from server: EXIT
  @ DRIVE MODE: Exiting

     General routines

     Parallel routines

   This run was terminated on:   5:46:50  16Sep2021

   JOB DONE.