     Program PWSCF v.6.7GPU starts on 24Sep2021 at  7:17:19

     R & G space division:  proc/nbgrp/npool/nimage =       8
     Reading input from /storage/home/hcoda1/3/ntian30/research/carbon/CxH_vib/H2O_calc/ads_slab/CH3NH2NHHO_c/out_0047/pw.inp
Warning: card &CELL ignored
Warning: card   CELL_DYNAMICS='IPI', ignored
Warning: card / ignored

     Current dimensions of program PWSCF are:
     Max number of different atomic species (ntypx) = 10
     Max number of k-points (npk) =  40000
     Max angular momentum in pseudopotentials (lmaxx) =  3
     Presently no symmetry can be used with electric field

     Message from routine cell_base_init:
     DEPRECATED: use true lattice parameter, not A to a.u. conversion factor

     IMPORTANT: XC functional enforced from input :
     Exchange-correlation= BEEF-VDW
                           (   1   4  43  14   2   0   0)
     Any further DFT definition will be discarded
     Please, verify this is what you really want

  @ DRIVER MODE: Connecting to
 qe_1139763_2947310.sched-torque.pace.gatech.eduhkay2e2r_scratch
  using UNIX socket
  @ DRIVER MODE: Message from server: STATUS
  @ DRIVER MODE: Message from server: INIT
  @ DRIVER MODE: Receiving replica           0          -1
  @ DRIVER MODE: Receiving encoded integer          25
  @ DRIVER MODE:  SCF:  T  FORCE:  T  STRESS:  F  VC:  F  ENSEMBLE:  F
  @ DRIVER MODE:  SCF:  T  FORCE:  T  STRESS:  F  VC:  F  ENSEMBLE:  F

     Using Slab Decomposition

     bravais-lattice index     =            0
     lattice parameter (alat)  =       1.8897  a.u.
     unit-cell volume          =    6658.9804 (a.u.)^3
     number of atoms/cell      =           58
     number of atomic types    =            5
     number of electrons       =       405.00
     number of Kohn-Sham states=          212
     kinetic-energy cutoff     =      29.3995  Ry
     charge density cutoff     =     293.9946  Ry
     scf convergence threshold =      7.3E-08
     mixing beta               =       0.0500
     number of iterations used =            8  plain     mixing
     Exchange-correlation= BEEF-VDW
                           (   1   4  43  14   2   0   0)

     celldm(1)=   1.889726  celldm(2)=   0.000000  celldm(3)=   0.000000
     celldm(4)=   0.000000  celldm(5)=   0.000000  celldm(6)=   0.000000

     crystal axes: (cart. coord. in units of alat)
               a(1) = (   6.579727   0.000000   0.000000 )
               a(2) = (  -0.000775   5.961596   0.000000 )
               a(3) = (   0.000000   0.000000  25.155947 )

     reciprocal axes: (cart. coord. in units 2 pi/alat)
               b(1) = (  0.151982  0.000020  0.000000 )
               b(2) = (  0.000000  0.167740  0.000000 )
               b(3) = (  0.000000  0.000000  0.039752 )

     PseudoPot. # 1 for Ti read from file:
     /storage/coda1/p-amedford6/0/shared/rich_project_chbe-medford/medford-share/data/pseudos_module/espresso/nninc/pbe/van/Ti.UPF
     MD5 check sum: 8e4df49b7f0d34bbd5052bf3f5ea0213
     Pseudo is Ultrasoft, Zval = 12.0
     Generated by new atomic code, or converted to UPF format
     Using radial grid of  851 points,  6 beta functions with:
                l(1) =   0
                l(2) =   0
                l(3) =   1
                l(4) =   1
                l(5) =   2
                l(6) =   2
     Q(r) pseudized with  8 coefficients,  rinner =    1.000   1.000   1.000
                                                       1.000   1.000

     PseudoPot. # 2 for O  read from file:
     /storage/coda1/p-amedford6/0/shared/rich_project_chbe-medford/medford-share/data/pseudos_module/espresso/nninc/pbe/van/O.UPF
     MD5 check sum: 78c19812648e8988a0fe644b0f25305e
     Pseudo is Ultrasoft, Zval =  6.0
     Generated by new atomic code, or converted to UPF format
     Using radial grid of  737 points,  4 beta functions with:
                l(1) =   0
                l(2) =   0
                l(3) =   1
                l(4) =   1
     Q(r) pseudized with  8 coefficients,  rinner =    0.800   0.800   0.800

     PseudoPot. # 3 for N  read from file:
     /storage/coda1/p-amedford6/0/shared/rich_project_chbe-medford/medford-share/data/pseudos_module/espresso/nninc/pbe/van/N.UPF
     MD5 check sum: 90d10febe142ad51ac9d5be1deb811c4
     Pseudo is Ultrasoft, Zval =  5.0
     Generated by new atomic code, or converted to UPF format
     Using radial grid of  729 points,  4 beta functions with:
                l(1) =   0
                l(2) =   0
                l(3) =   1
                l(4) =   1
     Q(r) pseudized with  8 coefficients,  rinner =    0.800   0.800   0.800

     PseudoPot. # 4 for C  read from file:
     /storage/coda1/p-amedford6/0/shared/rich_project_chbe-medford/medford-share/data/pseudos_module/espresso/nninc/pbe/van/C.UPF
     MD5 check sum: 1a69bf6b8db32088f5b2163dbdb77a27
     Pseudo is Ultrasoft, Zval =  4.0
     Generated by new atomic code, or converted to UPF format
     Using radial grid of  721 points,  4 beta functions with:
                l(1) =   0
                l(2) =   0
                l(3) =   1
                l(4) =   1
     Q(r) pseudized with  8 coefficients,  rinner =    0.800   0.800   0.800

     PseudoPot. # 5 for H  read from file:
     /storage/coda1/p-amedford6/0/shared/rich_project_chbe-medford/medford-share/data/pseudos_module/espresso/nninc/pbe/van/H.UPF
     MD5 check sum: b5ee9d7bfd3a09ee7748110bda690ff7
     Pseudo is Ultrasoft, Zval =  1.0
     Generated by new atomic code, or converted to UPF format
     Using radial grid of  615 points,  1 beta functions with:
                l(1) =   0
     Q(r) pseudized with  8 coefficients,  rinner =    0.800

     atomic species   valence    mass     pseudopotential
        Ti1           12.00    47.86700     Ti( 1.00)
        O1             6.00    15.99900     O ( 1.00)
        N1             5.00    14.00700     N ( 1.00)
        C1             4.00    12.01100     C ( 1.00)
        H1             1.00     1.00800     H ( 1.00)

     No symmetry found

   Cartesian axes

     site n.     atom                  positions (alat units)
         1           Ti1 tau(   1) = (   0.0004258   2.9801865   6.0000000  )
         2           Ti1 tau(   2) = (   3.2906075   1.4906267   6.0002472  )
         3           O1  tau(   3) = (   0.0006271   0.0005054   7.9858123  )
         4           O1  tau(   4) = (   3.2906025   0.0005020   7.3038282  )
         5           O1  tau(   5) = (   4.5942328   1.4918067   9.2879030  )
         6           O1  tau(   6) = (   1.9868534   1.4903216   9.2879459  )
         7           Ti1 tau(   7) = (   3.2907910   2.8959150   9.1758416  )
         8           Ti1 tau(   8) = (   0.0015273   1.4827037   9.2680791  )
         9           O1  tau(   9) = (   3.2766908   5.9368450  11.3531397  )
        10           O1  tau(  10) = (   0.0116148   5.9584955  10.6183126  )
        11           O1  tau(  11) = (   1.2656210   1.4746568  12.6519442  )
        12           O1  tau(  12) = (   5.2821112   1.4671822  12.6528637  )
        13           Ti1 tau(  13) = (   0.0097886   3.0246942  12.5604876  )
        14           Ti1 tau(  14) = (   3.2716845   1.2919425  12.6923688  )
        15           O1  tau(  15) = (   6.5701288   5.9533353  14.7096902  )
        16           O1  tau(  16) = (   3.2612835   0.0684280  14.0222998  )
        17           O1  tau(  17) = (   4.5366247   1.5847279  16.0182572  )
        18           O1  tau(  18) = (   1.9973522   1.5932486  16.1410213  )
        19           Ti1 tau(  19) = (   3.3011230   3.0369928  15.6528835  )
        20           Ti1 tau(  20) = (   6.4616919   1.5442775  15.7581475  )
        21           O1  tau(  21) = (   3.2904802   0.0005063   4.7018136  )
        22           O1  tau(  22) = (   6.5264998   0.0144113  17.2942622  )
        23           O1  tau(  23) = (   1.3043587   1.4918075   6.0039043  )
        24           O1  tau(  24) = (   5.2767064   1.4903225   6.0039473  )
        25           Ti1 tau(  25) = (   0.0000382   5.9609847   6.0000000  )
        26           Ti1 tau(  26) = (   3.2902200   4.4714249   6.0002472  )
        27           O1  tau(  27) = (   0.0002396   2.9813036   7.9858123  )
        28           O1  tau(  28) = (   3.2902150   2.9813002   7.3038282  )
        29           O1  tau(  29) = (   4.5938453   4.4726049   9.2879030  )
        30           O1  tau(  30) = (   1.9864658   4.4711199   9.2879459  )
        31           Ti1 tau(  31) = (   3.2891106   5.8743827   9.1763621  )
        32           Ti1 tau(  32) = (   0.0006254   4.4649316   9.2693709  )
        33           O1  tau(  33) = (   3.2807216   2.9716845  11.3098041  )
        34           O1  tau(  34) = (   0.0092240   2.9805883  10.6323155  )
        35           O1  tau(  35) = (   1.2724369   4.4570745  12.6376724  )
        36           O1  tau(  36) = (   5.2808598   4.4590940  12.6336130  )
        37           Ti1 tau(  37) = (   6.5522345   0.0346224  12.5198063  )
        38           Ti1 tau(  38) = (   3.2841791   4.3624788  12.4156291  )
        39           O1  tau(  39) = (   6.5678423   2.9906399  14.7075790  )
        40           O1  tau(  40) = (   3.2630306   2.9991211  13.8878987  )
        41           O1  tau(  41) = (   4.5399391   4.4365880  16.1202346  )
        42           O1  tau(  42) = (   1.9952260   4.4486394  16.1468368  )
        43           Ti1 tau(  43) = (   3.1909378   0.0332154  16.1742435  )
        44           Ti1 tau(  44) = (   6.5525253   4.6749982  16.1158565  )
        45           O1  tau(  45) = (   3.2900926   2.9813045   4.7018136  )
        46           O1  tau(  46) = (   1.3039711   4.4726057   6.0039043  )
        47           O1  tau(  47) = (   5.2763189   4.4711207   6.0039473  )
        48           N1  tau(  48) = (   0.9351815   2.3805788  18.4294677  )
        49           N1  tau(  49) = (   6.5001775   2.8750743  17.5309975  )
        50           C1  tau(  50) = (   1.3386797   3.2909482  19.5301671  )
        51           H1  tau(  51) = (   0.4734699   3.4817333  20.1622224  )
        52           H1  tau(  52) = (   2.1262835   2.8019037  20.1042238  )
        53           H1  tau(  53) = (   1.7016266   4.2178517  19.0939426  )
        54           H1  tau(  54) = (   0.6429753   1.4474929  18.7566963  )
        55           H1  tau(  55) = (   5.6191021   2.8022447  18.0251622  )
        56           H1  tau(  56) = (   1.7303324   2.1440475  17.7969061  )
        57           O1  tau(  57) = (   3.3671931   0.1367260  18.0860582  )
        58           H1  tau(  58) = (   4.3009782   5.9598238  18.3144400  )

     number of k points=    10  Fermi-Dirac smearing, width (Ry)=  0.0073
                       cart. coord. in units 2pi/alat
        k(    1) = (   0.0000000   0.0000000   0.0000000), wk =   0.1250000
        k(    2) = (   0.0000000   0.0419351   0.0000000), wk =   0.2500000
        k(    3) = (   0.0000000  -0.0838702   0.0000000), wk =   0.1250000
        k(    4) = (   0.0379955   0.0000049   0.0000000), wk =   0.2500000
        k(    5) = (   0.0379955   0.0419400   0.0000000), wk =   0.2500000
        k(    6) = (   0.0379955  -0.0838652   0.0000000), wk =   0.2500000
        k(    7) = (   0.0379955  -0.0419301   0.0000000), wk =   0.2500000
        k(    8) = (  -0.0759910  -0.0000099   0.0000000), wk =   0.1250000
        k(    9) = (  -0.0759910   0.0419252   0.0000000), wk =   0.2500000
        k(   10) = (  -0.0759910  -0.0838800   0.0000000), wk =   0.1250000

     Initial potential from superposition of free atoms

     starting charge  388.99913, renormalised to  405.00000

     negative rho (up, down):  1.469E-02 0.000E+00

     %%%%%%%%%%%%%%%%%%%%%%%%%%%%%%%%%%%%%%%%%%%%%%%%%%%%%%%%%%%%%%%%%%%%%%%%
     %                                                                      %
     % You are using vdW-DF, which was implemented by the Thonhauser group. %
     % Please cite the following two papers that made this development      %
     % possible and the two reviews that describe the various versions:     %
     %                                                                      %
     %   T. Thonhauser et al., PRL 115, 136402 (2015).                      %
     %   T. Thonhauser et al., PRB 76, 125112 (2007).                       %
     %   K. Berland et al., Rep. Prog. Phys. 78, 066501 (2015).             %
     %   D.C. Langreth et al., J. Phys.: Condens. Matter 21, 084203 (2009). %
     %                                                                      %
     %                                                                      %
     % If you are calculating the stress with vdW-DF, please also cite:     %
     %                                                                      %
     %   R. Sabatini et al., J. Phys.: Condens. Matter 24, 424209 (2012).   %
     %                                                                      %
     %%%%%%%%%%%%%%%%%%%%%%%%%%%%%%%%%%%%%%%%%%%%%%%%%%%%%%%%%%%%%%%%%%%%%%%%

     Adding external electric field

     Computed dipole along edir(3) :
        Dipole              -13.9950 Ry au,        -35.5717 Debye
        Dipole field         -0.0264 Ry au,

        Potential amp.        2.4482 Ry
        Total length         46.3494 bohr

     Starting wfcs are  307 atomic wfcs
  @ DRIVER MODE: Message from server: STATUS
  @ DRIVER MODE: Message from server: POSDATA
  @ DRIVER MODE: Reading and sharing cell
  @ DRIVER MODE: Reading and sharing positions
  @ DRIVER MODE: Received positions

     Self-consistent Calculation

     iteration #  1     ecut=    29.40 Ry     beta= 0.05
     Davidson diagonalization with overlap
     c_bands:  5 eigenvalues not converged
     c_bands:  5 eigenvalues not converged
     c_bands:  1 eigenvalues not converged
     c_bands:  1 eigenvalues not converged
     c_bands:  2 eigenvalues not converged
     c_bands:  3 eigenvalues not converged
     ethr =  1.00E-05,  avg # of iterations = 28.8

[...]

     total energy              =   -2225.12119056 Ry
     estimated scf accuracy    <    8520.60447318 Ry

     iteration #  2     ecut=    29.40 Ry     beta= 0.05
     Davidson diagonalization with overlap
     ethr =  1.00E-02,  avg # of iterations = 26.4

[...]

     iteration # 58     ecut=    29.40 Ry     beta= 0.05
     Davidson diagonalization with overlap
     c_bands:  1 eigenvalues not converged
     ethr =  1.61E-08,  avg # of iterations = 12.3

[...]

     total energy              =   -2976.49317797 Ry
     estimated scf accuracy    <       0.00000018 Ry

     iteration # 73     ecut=    29.40 Ry     beta= 0.05
     Davidson diagonalization with overlap
     ethr =  3.48E-11,  avg # of iterations =  5.7

     negative rho (up, down):  1.567E-02 0.000E+00

     Adding external electric field

     Computed dipole along edir(3) :
        Dipole                1.5008 Ry au,          3.8147 Debye
        Dipole field          0.0028 Ry au,

        Potential amp.       -0.2625 Ry
        Total length         46.3494 bohr

     End of self-consistent calculation

          k = 0.0000 0.0000 0.0000 ( 18029 PWs)   bands (ev):

   -55.2989 -55.1746 -55.1406 -55.0046 -54.9953 -54.9918 -54.9698 -54.9616
   -54.9317 -54.8830 -54.8508 -54.8145 -54.7927 -54.7520 -54.1383 -54.1042
   -31.6573 -31.6266 -31.5453 -31.4966 -31.4941 -31.4898 -31.4668 -31.4481
   -31.4202 -31.4157 -31.3712 -31.3353 -31.3269 -31.2793 -31.2665 -31.2590
   -31.2523 -31.2320 -31.2171 -31.2001 -31.1856 -31.1832 -31.1729 -31.1693
   -31.1503 -31.1276 -31.1251 -31.1216 -31.1117 -31.1038 -31.0980 -31.0776
   -31.0693 -31.0558 -31.0384 -31.0256 -31.0242 -31.0123 -31.0091 -31.0078
   -30.9814 -30.9418 -30.5440 -30.4587 -30.4361 -30.3616 -30.2752 -30.1634
   -18.8713 -16.0455 -15.8071 -15.6562 -15.4881 -15.3423 -15.2559 -15.0563
   -14.9404 -14.9016 -14.8828 -14.8099 -14.7063 -14.7057 -14.6618 -14.6346
   -14.6304 -14.6017 -14.5901 -14.5882 -14.5708 -14.5214 -14.5064 -14.4615
   -14.4554 -14.4161 -14.3038 -14.2344 -14.1898 -14.1175 -13.9999 -13.1001
   -12.6375 -12.5214 -10.7940  -7.5777  -6.2493  -5.5969  -3.7439  -3.6298
    -3.4443  -3.1668  -3.1006  -3.0724  -3.0454  -2.8920  -2.7669  -2.5857
    -2.4741  -2.4312  -2.3139  -2.2964  -2.2149  -2.1662  -2.1221  -2.0738
    -2.0441  -1.9787  -1.9613  -1.9568  -1.9286  -1.8618  -1.8341  -1.7189
    -1.6899  -1.6264  -1.5684  -1.4956  -1.4825  -1.4751  -1.4680  -1.4579
    -1.4288  -1.4138  -1.3819  -1.3411  -1.2617  -1.2079  -1.2008  -1.1603
    -1.0776  -0.8921  -0.7690  -0.7453  -0.6870  -0.6433  -0.5920  -0.5800
    -0.5565  -0.5183  -0.4115  -0.3986  -0.3353  -0.3064  -0.2430  -0.1928
    -0.1652  -0.1020  -0.0401   0.0473   0.0678   0.0858   0.1272   0.1739
     0.2447   0.2815   0.3205   0.3509   0.4394   0.4927   0.5528   0.5598
     0.5921   0.6650   0.7209   0.7683   0.7888   0.8080   0.8592   0.8750
     0.9183   0.9735   1.0144   1.0296   1.1004   1.1590   1.2062   1.2393
     1.3373   1.3524   1.5121   1.5674   1.8350   1.8873   1.9553   2.0810
     2.4539   2.4987   3.9339   4.0544   4.0656   4.0882   4.1671   4.2300
     4.3975   4.4041   4.5162   4.6168

[...]

          k = 0.0380-0.0419 0.0000 ( 17876 PWs)   bands (ev):

[...]

          k =-0.0760-0.0000 0.0000 ( 17886 PWs)   bands (ev):

[...]

          k =-0.0760-0.0839 0.0000 ( 17948 PWs)   bands (ev):

   -55.2982 -55.1580 -55.1571 -54.9924 -54.9885 -54.9857 -54.9793 -54.9772
   -54.9249 -54.8898 -54.8407 -54.8246 -54.7856 -54.7590 -54.1217 -54.1207
   -31.5598 -31.5367 -31.4911 -31.4729 -31.4724 -31.4526 -31.4518 -31.4150
   -31.3149 -31.3082 -31.3032 -31.3011 -31.2959 -31.2777 -31.2767 -31.2676
   -31.2675 -31.2464 -31.2445 -31.2155 -31.2025 -31.1987 -31.1982 -31.1915
   -31.1771 -31.1669 -31.1587 -31.1535 -31.1508 -31.1459 -31.1417 -31.1224
   -31.1111 -31.0892 -31.0741 -31.0682 -31.0334 -31.0313 -31.0192 -31.0166
   -31.0114 -30.9940 -30.4492 -30.4485 -30.3575 -30.3563 -30.3188 -30.3180
   -18.8671 -16.0110 -15.3750 -15.1706 -15.1080 -15.0845 -15.0704 -15.0335
   -15.0073 -14.9532 -14.9339 -14.8763 -14.8452 -14.8324 -14.7607 -14.7450
   -14.6895 -14.6601 -14.6476 -14.6079 -14.6032 -14.5809 -14.5486 -14.5400
   -14.4747 -14.4608 -14.4573 -14.3651 -14.3557 -14.2351 -14.1865 -13.1111
   -12.6236 -12.6230 -10.7961  -7.5886  -6.2352  -5.5867  -3.6872  -3.6462
    -3.3998  -2.5868  -2.4484  -2.4354  -2.3030  -2.2893  -2.1941  -2.1472
    -2.0938  -2.0761  -2.0540  -2.0348  -2.0043  -1.9710  -1.9546  -1.9475
    -1.9196  -1.8972  -1.8719  -1.8661  -1.8304  -1.8256  -1.8043  -1.7811
    -1.7709  -1.7357  -1.7225  -1.7184  -1.7041  -1.6497  -1.6320  -1.4688
    -1.4386  -1.3477  -1.3141  -1.2908  -1.2815  -1.2559  -1.2386  -1.2179
    -1.1627  -1.1103  -1.0489  -0.9222  -0.8773  -0.8126  -0.7768  -0.6982
    -0.6581  -0.6245  -0.5963  -0.5719  -0.5396  -0.4825  -0.4051  -0.3497
    -0.3042  -0.2634  -0.1659  -0.1464  -0.1240  -0.1127  -0.0789  -0.0200
    -0.0134   0.0427   0.0615   0.1246   0.1396   0.1554   0.1734   0.2562
     0.3511   0.4315   0.4553   0.5465   0.5646   0.6542   0.7010   0.8010
     0.9133   0.9587   0.9987   1.0085   1.0917   1.0976   1.1538   1.1766
     1.2595   1.3477   1.4123   1.4205   1.4403   1.4943   2.2503   2.2588
     2.3188   2.3192   4.1851   4.3472   4.4271   4.4387   4.4707   4.4817
     4.5141   4.5165   4.6032   4.6127

     the Fermi energy is     3.9531 ev

!    total energy              =   -2976.49319760 Ry
     estimated scf accuracy    <       0.00000006 Ry
     smearing contrib. (-TS)   =      -0.02056752 Ry
     internal energy E=F+TS    =   -2976.47263008 Ry

     The total energy is F=E-TS. E is the sum of the following terms:
     one-electron contribution =  -23617.60089004 Ry
     hartree contribution      =   11908.52331479 Ry
     xc contribution           =    -495.77087391 Ry
     ewald contribution        =    9228.37156847 Ry
     electric field correction =       0.00425061 Ry

     convergence has been achieved in  73 iterations

     Forces acting on atoms (cartesian axes, Ry/au):

     atom    1 type  1   force =     0.00014269   -0.00013077    0.09534099
     atom    2 type  1   force =    -0.00002785    0.00039584   -0.17473450
     atom    3 type  2   force =     0.00004137   -0.00018272   -0.02256980
     atom    4 type  2   force =     0.00001458   -0.00200510    0.05319571
     atom    5 type  2   force =    -0.00813931   -0.00302359    0.00227423
     atom    6 type  2   force =     0.00923674   -0.00231948    0.00056911
     atom    7 type  1   force =    -0.00079117   -0.00509140    0.00572173
     atom    8 type  1   force =     0.00083845    0.00657015    0.01469713
     atom    9 type  2   force =     0.00011507    0.00042590    0.00072797
     atom   10 type  2   force =    -0.00346420    0.00091582   -0.01235690
     atom   11 type  2   force =    -0.00000698   -0.00055371    0.00028663
     atom   12 type  2   force =     0.00006848   -0.00042889    0.00023562
     atom   13 type  1   force =     0.00092997    0.00088451    0.00012645
     atom   14 type  1   force =    -0.00019076    0.00011729   -0.00045045
     atom   15 type  2   force =     0.00015749   -0.00081008   -0.00076257
     atom   16 type  2   force =     0.00012381   -0.00014072    0.00094838
     atom   17 type  2   force =     0.00001842    0.00018536    0.00002932
     atom   18 type  2   force =    -0.00000421    0.00025378   -0.00000174
     atom   19 type  1   force =     0.00006741   -0.00001363   -0.00014880
     atom   20 type  1   force =     0.00033652    0.00017684   -0.00036740
     atom   21 type  2   force =     0.00009213    0.00000061    0.10300488
     atom   22 type  2   force =     0.00009332    0.00029175    0.00067719
     atom   23 type  2   force =    -0.07211957   -0.00022108   -0.02756357
     atom   24 type  2   force =     0.07207628    0.00026515   -0.02758213
     atom   25 type  1   force =     0.00016226   -0.00029121    0.09517794
     atom   26 type  1   force =     0.00001395   -0.00123643   -0.17521765
     atom   27 type  2   force =    -0.00000426    0.00008515   -0.02153429
     atom   28 type  2   force =     0.00005375   -0.00043514    0.04877587
     atom   29 type  2   force =    -0.00786113    0.00198452    0.00251983
     atom   30 type  2   force =     0.00888780    0.00234290    0.00069821
     atom   31 type  1   force =    -0.00069561    0.00833792   -0.00444402
     atom   32 type  1   force =     0.00106231   -0.00750989    0.01447900
     atom   33 type  2   force =     0.00012611    0.00022026   -0.00001909
     atom   34 type  2   force =    -0.00269920   -0.00027365   -0.01824080
     atom   35 type  2   force =    -0.00055214    0.00026770    0.00008461
     atom   36 type  2   force =     0.00071835    0.00039788    0.00024212
     atom   37 type  1   force =     0.00018079   -0.00038338    0.00025359
     atom   38 type  1   force =    -0.00006606   -0.00005092   -0.00075648
     atom   39 type  2   force =     0.00026604    0.00031829   -0.00019057
     atom   40 type  2   force =     0.00023194    0.00001618    0.00070531
     atom   41 type  2   force =    -0.00014438   -0.00039967    0.00004814
     atom   42 type  2   force =     0.00047682   -0.00012963    0.00047018
     atom   43 type  1   force =    -0.00008314    0.00017370   -0.00039587
     atom   44 type  1   force =     0.00045789   -0.00032187   -0.00007078
     atom   45 type  2   force =     0.00009035   -0.00009713    0.10281179
     atom   46 type  2   force =    -0.07216383   -0.00003752   -0.02759195
     atom   47 type  2   force =     0.07211039    0.00035966   -0.02759795
     atom   48 type  3   force =    -0.00118581    0.00023242    0.00023708
     atom   49 type  3   force =     0.00644176    0.00145243   -0.00586596
     atom   50 type  4   force =     0.00005267    0.00075776    0.00044639
     atom   51 type  5   force =     0.00026711    0.00042974   -0.00026562
     atom   52 type  5   force =    -0.00026582   -0.00021769   -0.00054897
     atom   53 type  5   force =     0.00042681    0.00014137   -0.00025427
     atom   54 type  5   force =    -0.00017031   -0.00041313    0.00005469
     atom   55 type  5   force =    -0.00612779   -0.00144112    0.00538687
     atom   56 type  5   force =    -0.00016406    0.00013587   -0.00062923
     atom   57 type  2   force =     0.00019567   -0.00052094   -0.00020554
     atom   58 type  5   force =     0.00035210    0.00054375    0.00013994

     Total force =     0.363690     Total SCF correction =     0.000809
  @ DRIVER MODE: Message from server: STATUS
  @ DRIVER MODE: Message from server: GETFORCE
  @ DRIVER MODE: Returning v,forces,stress,ensemble

     Writing output data file ./calc.save/
  @ DRIVER MODE: Message from server: EXIT
  @ DRIVE MODE: Exiting

     General routines

     Parallel routines

   This run was terminated on:   7:42:59  24Sep2021

   JOB DONE.