     Program PWSCF v.6.7GPU starts on 27Sep2021 at  0:51: 0

     R & G space division:  proc/nbgrp/npool/nimage =       8
     Reading input from /storage/home/hcoda1/3/ntian30/research/carbon/CxH_vib/CH_calc/ads_slab/CHONHNH_a/out_0024/pw.inp
Warning: card &CELL ignored
Warning: card   CELL_DYNAMICS='IPI', ignored
Warning: card / ignored

     Current dimensions of program PWSCF are:
     Max number of different atomic species (ntypx) = 10
     Max number of k-points (npk) =  40000
     Max angular momentum in pseudopotentials (lmaxx) =  3
     Presently no symmetry can be used with electric field

     Message from routine cell_base_init:
     DEPRECATED: use true lattice parameter, not A to a.u. conversion factor

     IMPORTANT: XC functional enforced from input :
     Exchange-correlation= BEEF-VDW
                           (   1   4  43  14   2   0   0)
     Any further DFT definition will be discarded
     Please, verify this is what you really want

  @ DRIVER MODE: Connecting to
 qe_1139763_2982671.sched-torque.pace.gatech.eduog6rerxp_scratch
  using UNIX socket
  @ DRIVER MODE: Message from server: STATUS
  @ DRIVER MODE: Message from server: INIT
  @ DRIVER MODE: Receiving replica           0          -1
  @ DRIVER MODE: Receiving encoded integer          25
  @ DRIVER MODE:  SCF:  T  FORCE:  T  STRESS:  F  VC:  F  ENSEMBLE:  F
  @ DRIVER MODE:  SCF:  T  FORCE:  T  STRESS:  F  VC:  F  ENSEMBLE:  F

     Using Slab Decomposition

     bravais-lattice index     =            0
     lattice parameter (alat)  =       1.8897  a.u.
     unit-cell volume          =    6658.9804 (a.u.)^3
     number of atoms/cell      =           54
     number of atomic types    =            5
     number of electrons       =       401.00
     number of Kohn-Sham states=          210
     kinetic-energy cutoff     =      29.3995  Ry
     charge density cutoff     =     293.9946  Ry
     scf convergence threshold =      7.3E-08
     mixing beta               =       0.0500
     number of iterations used =            8  plain     mixing
     Exchange-correlation= BEEF-VDW
                           (   1   4  43  14   2   0   0)

     celldm(1)=   1.889726  celldm(2)=   0.000000  celldm(3)=   0.000000
     celldm(4)=   0.000000  celldm(5)=   0.000000  celldm(6)=   0.000000

     crystal axes: (cart. coord. in units of alat)
               a(1) = (   6.579727   0.000000   0.000000 )
               a(2) = (  -0.000775   5.961596   0.000000 )
               a(3) = (   0.000000   0.000000  25.155947 )

     reciprocal axes: (cart. coord. in units 2 pi/alat)
               b(1) = (  0.151982  0.000020  0.000000 )
               b(2) = (  0.000000  0.167740  0.000000 )
               b(3) = (  0.000000  0.000000  0.039752 )

     PseudoPot. # 1 for O  read from file:
     /storage/coda1/p-amedford6/0/shared/rich_project_chbe-medford/medford-share/data/pseudos_module/espresso/nninc/pbe/van/O.UPF
     MD5 check sum: 78c19812648e8988a0fe644b0f25305e
     Pseudo is Ultrasoft, Zval =  6.0
     Generated by new atomic code, or converted to UPF format
     Using radial grid of  737 points,  4 beta functions with:
                l(1) =   0
                l(2) =   0
                l(3) =   1
                l(4) =   1
     Q(r) pseudized with  8 coefficients,  rinner =    0.800   0.800   0.800

     PseudoPot. # 2 for Ti read from file:
     /storage/coda1/p-amedford6/0/shared/rich_project_chbe-medford/medford-share/data/pseudos_module/espresso/nninc/pbe/van/Ti.UPF
     MD5 check sum: 8e4df49b7f0d34bbd5052bf3f5ea0213
     Pseudo is Ultrasoft, Zval = 12.0
     Generated by new atomic code, or converted to UPF format
     Using radial grid of  851 points,  6 beta functions with:
                l(1) =   0
                l(2) =   0
                l(3) =   1
                l(4) =   1
                l(5) =   2
                l(6) =   2
     Q(r) pseudized with  8 coefficients,  rinner =    1.000   1.000   1.000
                                                       1.000   1.000

     PseudoPot. # 3 for N  read from file:
     /storage/coda1/p-amedford6/0/shared/rich_project_chbe-medford/medford-share/data/pseudos_module/espresso/nninc/pbe/van/N.UPF
     MD5 check sum: 90d10febe142ad51ac9d5be1deb811c4
     Pseudo is Ultrasoft, Zval =  5.0
     Generated by new atomic code, or converted to UPF format
     Using radial grid of  729 points,  4 beta functions with:
                l(1) =   0
                l(2) =   0
                l(3) =   1
                l(4) =   1
     Q(r) pseudized with  8 coefficients,  rinner =    0.800   0.800   0.800

     PseudoPot. # 4 for C  read from file:
     /storage/coda1/p-amedford6/0/shared/rich_project_chbe-medford/medford-share/data/pseudos_module/espresso/nninc/pbe/van/C.UPF
     MD5 check sum: 1a69bf6b8db32088f5b2163dbdb77a27
     Pseudo is Ultrasoft, Zval =  4.0
     Generated by new atomic code, or converted to UPF format
     Using radial grid of  721 points,  4 beta functions with:
                l(1) =   0
                l(2) =   0
                l(3) =   1
                l(4) =   1
     Q(r) pseudized with  8 coefficients,  rinner =    0.800   0.800   0.800

     PseudoPot. # 5 for H  read from file:
     /storage/coda1/p-amedford6/0/shared/rich_project_chbe-medford/medford-share/data/pseudos_module/espresso/nninc/pbe/van/H.UPF
     MD5 check sum: b5ee9d7bfd3a09ee7748110bda690ff7
     Pseudo is Ultrasoft, Zval =  1.0
     Generated by new atomic code, or converted to UPF format
     Using radial grid of  615 points,  1 beta functions with:
                l(1) =   0
     Q(r) pseudized with  8 coefficients,  rinner =    0.800

     atomic species   valence    mass     pseudopotential
        O1             6.00    15.99900     O ( 1.00)
        Ti1           12.00    47.86700     Ti( 1.00)
        N1             5.00    14.00700     N ( 1.00)
        C1             4.00    12.01100     C ( 1.00)
        H1             1.00     1.00800     H ( 1.00)

     No symmetry found

   Cartesian axes

     site n.     atom                  positions (alat units)
         1           O1  tau(   1) = (   3.2904802   0.0005063   4.7018136  )
         2           O1  tau(   2) = (   3.2900926   2.9813045   4.7018136  )
         3           Ti1 tau(   3) = (   0.0004258   2.9801865   6.0000000  )
         4           Ti1 tau(   4) = (   0.0000382   5.9609847   6.0000000  )
         5           Ti1 tau(   5) = (   3.2906075   1.4906267   6.0002472  )
         6           Ti1 tau(   6) = (   3.2902200   4.4714249   6.0002472  )
         7           O1  tau(   7) = (   1.3043587   1.4918075   6.0039043  )
         8           O1  tau(   8) = (   1.3039711   4.4726057   6.0039043  )
         9           O1  tau(   9) = (   5.2767064   1.4903225   6.0039473  )
        10           O1  tau(  10) = (   5.2763189   4.4711207   6.0039473  )
        11           O1  tau(  11) = (   3.2906025   0.0005020   7.3038282  )
        12           O1  tau(  12) = (   3.2902150   2.9813002   7.3038282  )
        13           O1  tau(  13) = (   0.0006271   0.0005054   7.9858123  )
        14           O1  tau(  14) = (   0.0002396   2.9813036   7.9858123  )
        15           Ti1 tau(  15) = (   3.2907910   2.8959150   9.1758416  )
        16           Ti1 tau(  16) = (   3.2891106   5.8743827   9.1763621  )
        17           Ti1 tau(  17) = (   0.0015273   1.4827037   9.2680791  )
        18           Ti1 tau(  18) = (   0.0006254   4.4649316   9.2693709  )
        19           O1  tau(  19) = (   4.5942328   1.4918067   9.2879030  )
        20           O1  tau(  20) = (   4.5938453   4.4726049   9.2879030  )
        21           O1  tau(  21) = (   1.9868534   1.4903216   9.2879459  )
        22           O1  tau(  22) = (   1.9864658   4.4711199   9.2879459  )
        23           O1  tau(  23) = (   0.0116148   5.9584955  10.6183126  )
        24           O1  tau(  24) = (   0.0092240   2.9805883  10.6323155  )
        25           O1  tau(  25) = (   3.2531556   2.9620241  11.3322950  )
        26           O1  tau(  26) = (   3.2474763   5.9435521  11.3438280  )
        27           Ti1 tau(  27) = (   3.3237694   4.3814390  12.5572636  )
        28           Ti1 tau(  28) = (   0.0094504   0.0092305  12.5172013  )
        29           Ti1 tau(  29) = (   3.3224445   1.4452456  12.4745429  )
        30           Ti1 tau(  30) = (   0.0090234   2.9988230  12.5821063  )
        31           O1  tau(  31) = (   5.2496676   1.4726344  12.6006421  )
        32           O1  tau(  32) = (   5.2531746   4.4496067  12.6010712  )
        33           O1  tau(  33) = (   1.2410339   1.4659728  12.6671891  )
        34           O1  tau(  34) = (   1.2387123   4.4686174  12.6665250  )
        35           O1  tau(  35) = (   3.3067986   5.9564546  13.9007842  )
        36           O1  tau(  36) = (   3.2420318   3.0005841  13.9279729  )
        37           O1  tau(  37) = (   6.4209026   5.9439257  14.7021623  )
        38           O1  tau(  38) = (   6.4587925   2.9577525  14.6988961  )
        39           Ti1 tau(  39) = (   3.2423495   0.0283394  15.6829305  )
        40           Ti1 tau(  40) = (   6.4236859   1.5154006  15.7784978  )
        41           Ti1 tau(  41) = (   3.0799157   3.0146384  15.8599260  )
        42           O1  tau(  42) = (   1.9357555   1.4358950  15.9107064  )
        43           O1  tau(  43) = (   1.9271111   4.5447382  15.9660097  )
        44           Ti1 tau(  44) = (   6.4519450   4.6669281  16.1370820  )
        45           O1  tau(  45) = (   4.4443926   1.5071054  16.1134243  )
        46           O1  tau(  46) = (   4.4397279   4.4733020  16.1527106  )
        47           O1  tau(  47) = (   6.5167551   0.0277669  17.2715591  )
        48           N1  tau(  48) = (   0.3759035   2.6095042  18.6336219  )
        49           C1  tau(  49) = (   2.8136782   2.9081565  18.1516972  )
        50           H1  tau(  50) = (   0.1656462   1.5987175  18.7006542  )
        51           N1  tau(  51) = (   1.8163940   2.6652851  18.9393397  )
        52           H1  tau(  52) = (   3.7261332   2.9868749  18.7514029  )
        53           H1  tau(  53) = (   1.8928842   2.5952305  19.9427491  )
        54           O1  tau(  54) = (   0.0982553   2.9165792  17.3165359  )

     number of k points=    10  Fermi-Dirac smearing, width (Ry)=  0.0073
                       cart. coord. in units 2pi/alat
        k(    1) = (   0.0000000   0.0000000   0.0000000), wk =   0.1250000
        k(    2) = (   0.0000000   0.0419351   0.0000000), wk =   0.2500000
        k(    3) = (   0.0000000  -0.0838702   0.0000000), wk =   0.1250000
        k(    4) = (   0.0379955   0.0000049   0.0000000), wk =   0.2500000
        k(    5) = (   0.0379955   0.0419400   0.0000000), wk =   0.2500000
        k(    6) = (   0.0379955  -0.0838652   0.0000000), wk =   0.2500000
        k(    7) = (   0.0379955  -0.0419301   0.0000000), wk =   0.2500000
        k(    8) = (  -0.0759910  -0.0000099   0.0000000), wk =   0.1250000
        k(    9) = (  -0.0759910   0.0419252   0.0000000), wk =   0.2500000
        k(   10) = (  -0.0759910  -0.0838800   0.0000000), wk =   0.1250000

     Initial potential from superposition of free atoms

     starting charge  384.99916, renormalised to  401.00000

     negative rho (up, down):  1.631E-02 0.000E+00

     %%%%%%%%%%%%%%%%%%%%%%%%%%%%%%%%%%%%%%%%%%%%%%%%%%%%%%%%%%%%%%%%%%%%%%%%
     %                                                                      %
     % You are using vdW-DF, which was implemented by the Thonhauser group. %
     % Please cite the following two papers that made this development      %
     % possible and the two reviews that describe the various versions:     %
     %                                                                      %
     %   T. Thonhauser et al., PRL 115, 136402 (2015).                      %
     %   T. Thonhauser et al., PRB 76, 125112 (2007).                       %
     %   K. Berland et al., Rep. Prog. Phys. 78, 066501 (2015).             %
     %   D.C. Langreth et al., J. Phys.: Condens. Matter 21, 084203 (2009). %
     %                                                                      %
     %                                                                      %
     % If you are calculating the stress with vdW-DF, please also cite:     %
     %                                                                      %
     %   R. Sabatini et al., J. Phys.: Condens. Matter 24, 424209 (2012).   %
     %                                                                      %
     %%%%%%%%%%%%%%%%%%%%%%%%%%%%%%%%%%%%%%%%%%%%%%%%%%%%%%%%%%%%%%%%%%%%%%%%

     Adding external electric field

     Computed dipole along edir(3) :
        Dipole              -11.6354 Ry au,        -29.5742 Debye
        Dipole field         -0.0220 Ry au,

        Potential amp.        2.0354 Ry
        Total length         46.3494 bohr

     Starting wfcs are  303 atomic wfcs
  @ DRIVER MODE: Message from server: STATUS
  @ DRIVER MODE: Message from server: POSDATA
  @ DRIVER MODE: Reading and sharing cell
  @ DRIVER MODE: Reading and sharing positions
  @ DRIVER MODE: Received positions

     Self-consistent Calculation

     iteration #  1     ecut=    29.40 Ry     beta= 0.05
     Davidson diagonalization with overlap
     c_bands:  3 eigenvalues not converged
     c_bands:  3 eigenvalues not converged
     c_bands:  4 eigenvalues not converged
     c_bands:  4 eigenvalues not converged
     c_bands:  3 eigenvalues not converged
     c_bands:  1 eigenvalues not converged
     c_bands:  3 eigenvalues not converged
     ethr =  1.00E-05,  avg # of iterations = 24.0

[...]

     total energy              =   -2394.11424394 Ry
     estimated scf accuracy    <    6497.20121473 Ry

     iteration #  2     ecut=    29.40 Ry     beta= 0.05
     Davidson diagonalization with overlap
     ethr =  1.00E-02,  avg # of iterations = 24.7

[...]

     iteration # 66     ecut=    29.40 Ry     beta= 0.05
     Davidson diagonalization with overlap
     c_bands:  2 eigenvalues not converged
     ethr =  1.46E-10,  avg # of iterations = 17.5

[...]

     total energy              =   -2971.36008140 Ry
     estimated scf accuracy    <       0.00000008 Ry

     iteration # 70     ecut=    29.40 Ry     beta= 0.05
     Davidson diagonalization with overlap
     ethr =  1.88E-11,  avg # of iterations = 10.7

     negative rho (up, down):  1.696E-02 0.000E+00

     Adding external electric field

     Computed dipole along edir(3) :
        Dipole                1.3744 Ry au,          3.4933 Debye
        Dipole field          0.0026 Ry au,

        Potential amp.       -0.2404 Ry
        Total length         46.3494 bohr

     End of self-consistent calculation

          k = 0.0000 0.0000 0.0000 ( 18029 PWs)   bands (ev):

   -55.3661 -55.3320 -55.2861 -55.2417 -55.2360 -55.2260 -55.1983 -55.1870
   -55.1530 -55.1448 -55.1312 -55.1096 -55.0343 -54.9944 -54.3455 -54.3115
   -31.8505 -31.8107 -31.7343 -31.6873 -31.6813 -31.6579 -31.6351 -31.6113
   -31.5994 -31.5708 -31.5429 -31.5184 -31.5044 -31.4974 -31.4724 -31.4690
   -31.4648 -31.4511 -31.4394 -31.4233 -31.4045 -31.4011 -31.3959 -31.3845
   -31.3805 -31.3795 -31.3754 -31.3665 -31.3430 -31.3428 -31.3362 -31.3267
   -31.3227 -31.3175 -31.2992 -31.2961 -31.2878 -31.2577 -31.2352 -31.2241
   -31.2088 -31.1790 -30.7523 -30.6646 -30.6422 -30.5695 -30.4830 -30.3715
   -20.1756 -17.3347 -16.0564 -15.8444 -15.6391 -15.5314 -15.4828 -15.2506
   -15.1334 -15.1029 -15.0158 -14.9456 -14.9290 -14.9058 -14.8938 -14.8759
   -14.8172 -14.8036 -14.7926 -14.7901 -14.7615 -14.7404 -14.7174 -14.7051
   -14.5839 -14.5707 -14.5407 -14.5097 -14.4872 -14.4268 -14.1655 -12.8464
   -12.7299 -12.6984  -9.1096  -7.2244  -5.7082  -4.9435  -3.4281  -3.3155
    -3.2784  -3.2726  -3.1768  -3.1455  -3.0235  -2.8073  -2.6595  -2.5584
    -2.5331  -2.4546  -2.3828  -2.3558  -2.3156  -2.2607  -2.2074  -2.1617
    -2.1357  -2.1112  -2.1041  -2.0979  -2.0017  -1.9855  -1.9455  -1.8910
    -1.8588  -1.7621  -1.7452  -1.6886  -1.6809  -1.6391  -1.6288  -1.6196
    -1.6100  -1.5922  -1.5090  -1.4923  -1.4445  -1.3688  -1.1764  -1.1256
    -1.0295  -0.9742  -0.8698  -0.8451  -0.8037  -0.7732  -0.7672  -0.7588
    -0.7122  -0.6173  -0.5759  -0.5234  -0.4623  -0.3845  -0.3143  -0.2742
    -0.1646  -0.1512  -0.1250  -0.1170  -0.0839   0.0581   0.1162   0.1667
     0.1907   0.2279   0.2943   0.3551   0.3696   0.4153   0.4391   0.5044
     0.5414   0.5607   0.5805   0.6077   0.6213   0.6499   0.6659   0.7140
     0.8405   0.8517   0.8985   0.9425   0.9981   1.1193   1.1268   1.2875
     1.3763   1.5702   1.6164   1.6784   1.7410   1.8700   2.2481   2.2938
     3.7398   3.8547   3.8869   3.9153   3.9987   4.0389   4.2081   4.2734
     4.2963   4.3341

[...]

          k = 0.0380-0.0419 0.0000 ( 17876 PWs)   bands (ev):

[...]

          k =-0.0760-0.0000 0.0000 ( 17886 PWs)   bands (ev):

[...]

          k =-0.0760-0.0839 0.0000 ( 17948 PWs)   bands (ev):

   -55.3492 -55.3487 -55.2801 -55.2333 -55.2332 -55.2316 -55.2068 -55.1701
   -55.1695 -55.1338 -55.1325 -55.1221 -55.0265 -55.0021 -54.3285 -54.3284
   -31.6660 -31.6656 -31.6520 -31.6435 -31.6431 -31.5928 -31.5702 -31.5511
   -31.5438 -31.5277 -31.5058 -31.4974 -31.4941 -31.4879 -31.4819 -31.4744
   -31.4686 -31.4684 -31.4656 -31.4618 -31.4578 -31.4416 -31.4392 -31.4325
   -31.4236 -31.4180 -31.4062 -31.3868 -31.3737 -31.3717 -31.3594 -31.3486
   -31.3484 -31.3457 -31.3429 -31.3425 -31.3398 -31.3314 -31.2628 -31.2492
   -31.2310 -31.2105 -30.6549 -30.6549 -30.5652 -30.5650 -30.5263 -30.5262
   -20.1706 -17.3320 -15.4879 -15.3761 -15.3722 -15.3058 -15.2509 -15.1800
   -15.1300 -15.0999 -15.0604 -15.0422 -15.0157 -14.9743 -14.9341 -14.9230
   -14.8983 -14.8892 -14.8680 -14.8243 -14.8157 -14.8071 -14.8011 -14.7747
   -14.7343 -14.7077 -14.6860 -14.6814 -14.6517 -14.5129 -14.3650 -12.8318
   -12.8317 -12.7031  -9.1036  -7.1665  -5.7191  -4.9623  -3.3035  -2.7530
    -2.6613  -2.5763  -2.5057  -2.4334  -2.3899  -2.3724  -2.3141  -2.3085
    -2.2748  -2.2192  -2.2005  -2.1846  -2.1692  -2.1383  -2.1310  -2.1085
    -2.0974  -2.0889  -2.0497  -2.0474  -2.0224  -2.0195  -1.9913  -1.9874
    -1.9573  -1.9291  -1.9079  -1.8688  -1.8233  -1.7238  -1.6388  -1.5680
    -1.5143  -1.5032  -1.4933  -1.4391  -1.4219  -1.3897  -1.3612  -1.3258
    -1.1914  -1.0539  -1.0435  -1.0082  -0.9446  -0.9119  -0.8737  -0.8512
    -0.7774  -0.7599  -0.7266  -0.6985  -0.6288  -0.5380  -0.4944  -0.4535
    -0.4224  -0.3672  -0.3400  -0.3204  -0.3031  -0.2889  -0.2536  -0.1878
    -0.1435  -0.1198  -0.0876  -0.0615  -0.0394  -0.0136   0.1578   0.1756
     0.2747   0.3425   0.4023   0.5364   0.6368   0.6766   0.7193   0.7786
     0.8441   0.8976   0.9311   0.9473   0.9661   1.0281   1.0875   1.1525
     1.1681   1.2007   1.2794   1.4564   2.0420   2.0444   2.1138   2.1140
     4.1103   4.1593   4.1841   4.1938   4.2611   4.2862   4.3029   4.3067
     4.4111   4.4282

     the Fermi energy is     3.7600 ev

!    total energy              =   -2971.36010391 Ry
     estimated scf accuracy    <       0.00000003 Ry
     smearing contrib. (-TS)   =      -0.02057788 Ry
     internal energy E=F+TS    =   -2971.33952603 Ry

     The total energy is F=E-TS. E is the sum of the following terms:
     one-electron contribution =  -24166.32043367 Ry
     hartree contribution      =   12178.78915009 Ry
     xc contribution           =    -492.42790925 Ry
     ewald contribution        =    9508.61610220 Ry
     electric field correction =       0.00356459 Ry

     convergence has been achieved in  70 iterations

     Forces acting on atoms (cartesian axes, Ry/au):

     atom    1 type  1   force =     0.00007419   -0.00012003    0.10310953
     atom    2 type  1   force =     0.00007661   -0.00010223    0.10314553
     atom    3 type  2   force =     0.00002687   -0.00019199    0.09529461
     atom    4 type  2   force =     0.00007959   -0.00049412    0.09488257
     atom    5 type  2   force =    -0.00021608   -0.00071182   -0.17562061
     atom    6 type  2   force =    -0.00004826   -0.00023276   -0.17575150
     atom    7 type  1   force =    -0.07169579   -0.00018704   -0.02756753
     atom    8 type  1   force =    -0.07167633   -0.00020969   -0.02750090
     atom    9 type  1   force =     0.07156371    0.00025656   -0.02756954
     atom   10 type  1   force =     0.07152917    0.00026389   -0.02755099
     atom   11 type  1   force =    -0.00007844   -0.00143780    0.05242677
     atom   12 type  1   force =    -0.00000219   -0.00150116    0.05289051
     atom   13 type  1   force =    -0.00013202   -0.00017923   -0.02267349
     atom   14 type  1   force =    -0.00005830   -0.00029007   -0.02179437
     atom   15 type  2   force =    -0.00221205    0.00206137   -0.00872456
     atom   16 type  2   force =    -0.00226563    0.00207204   -0.00150598
     atom   17 type  2   force =     0.00139677    0.00933445    0.01493906
     atom   18 type  2   force =     0.00154563   -0.01043201    0.01571341
     atom   19 type  1   force =    -0.01011899   -0.00094200    0.00484918
     atom   20 type  1   force =    -0.01049728   -0.00075561    0.00459416
     atom   21 type  1   force =     0.01029044   -0.00000964    0.00094347
     atom   22 type  1   force =     0.01056853   -0.00053595    0.00075986
     atom   23 type  1   force =    -0.00214268    0.00036752   -0.01188155
     atom   24 type  1   force =    -0.00061513   -0.00078176   -0.01489109
     atom   25 type  1   force =     0.00002179    0.00040579   -0.00001226
     atom   26 type  1   force =     0.00010447   -0.00026356   -0.00046197
     atom   27 type  2   force =     0.00053989   -0.00009423   -0.00069504
     atom   28 type  2   force =    -0.00021550   -0.00020600    0.00001758
     atom   29 type  2   force =     0.00020667    0.00072046    0.00015457
     atom   30 type  2   force =    -0.00030910   -0.00026924    0.00007061
     atom   31 type  1   force =     0.00022847    0.00056708    0.00023469
     atom   32 type  1   force =    -0.00064933    0.00046968    0.00002741
     atom   33 type  1   force =     0.00044380    0.00052092    0.00009757
     atom   34 type  1   force =     0.00071792    0.00023276   -0.00017308
     atom   35 type  1   force =    -0.00009694   -0.00034956   -0.00007952
     atom   36 type  1   force =     0.00079957    0.00058382   -0.00062444
     atom   37 type  1   force =     0.00039633    0.00025178    0.00017221
     atom   38 type  1   force =     0.00055817    0.00068907    0.00061008
     atom   39 type  2   force =     0.00036942   -0.00018662   -0.00020063
     atom   40 type  2   force =    -0.00017774   -0.00035706    0.00007521
     atom   41 type  2   force =     0.00039362    0.00009279    0.00022955
     atom   42 type  1   force =     0.00042742    0.00011820   -0.00001694
     atom   43 type  1   force =     0.00042450    0.00014892    0.00016290
     atom   44 type  2   force =    -0.00018230    0.00078623   -0.00022472
     atom   45 type  1   force =     0.00005993   -0.00001809   -0.00054763
     atom   46 type  1   force =     0.00007663    0.00063476    0.00018499
     atom   47 type  1   force =    -0.00034415    0.00028529   -0.00018418
     atom   48 type  3   force =    -0.00168837   -0.00190527    0.00426921
     atom   49 type  4   force =    -0.00721031   -0.00277169    0.00971437
     atom   50 type  5   force =     0.00044990    0.00121833   -0.00061867
     atom   51 type  3   force =     0.00426228    0.00386931   -0.03065545
     atom   52 type  5   force =     0.00202407    0.00018102    0.00086044
     atom   53 type  5   force =     0.00086901   -0.00078164    0.01615824
     atom   54 type  1   force =     0.00210752    0.00018586    0.00093833

     Total force =     0.366371     Total SCF correction =     0.000463
  @ DRIVER MODE: Message from server: STATUS
  @ DRIVER MODE: Message from server: GETFORCE
  @ DRIVER MODE: Returning v,forces,stress,ensemble

     Writing output data file ./calc.save/
  @ DRIVER MODE: Message from server: EXIT
  @ DRIVE MODE: Exiting

     General routines

     Parallel routines

   This run was terminated on:   3:47:31  27Sep2021

   JOB DONE.