     Program PWSCF v.6.7GPU starts on 19Oct2021 at  7:36:47

     R & G space division:  proc/nbgrp/npool/nimage =       8
     Reading input from /storage/home/hcoda1/3/ntian30/research/carbon/CxH_vib/Thiel_calc/ads_slab/NH3NH3_perslab/out_0042/pw.inp
Warning: card &CELL ignored
Warning: card   CELL_DYNAMICS='IPI', ignored
Warning: card / ignored

     Current dimensions of program PWSCF are:
     Max number of different atomic species (ntypx) = 10
     Max number of k-points (npk) =  40000
     Max angular momentum in pseudopotentials (lmaxx) =  3
     Presently no symmetry can be used with electric field

     Message from routine cell_base_init:
     DEPRECATED: use true lattice parameter, not A to a.u. conversion factor

     IMPORTANT: XC functional enforced from input :
     Exchange-correlation= BEEF-VDW
                           (   1   4  43  14   2   0   0)
     Any further DFT definition will be discarded
     Please, verify this is what you really want

  @ DRIVER MODE: Connecting to
 qe_1139763_3255140.sched-torque.pace.gatech.edugoyrmkyd_scratch
  using UNIX socket
  @ DRIVER MODE: Message from server: STATUS
  @ DRIVER MODE: Message from server: INIT
  @ DRIVER MODE: Receiving replica           0          -1
  @ DRIVER MODE: Receiving encoded integer          25
  @ DRIVER MODE:  SCF:  T  FORCE:  T  STRESS:  F  VC:  F  ENSEMBLE:  F
  @ DRIVER MODE:  SCF:  T  FORCE:  T  STRESS:  F  VC:  F  ENSEMBLE:  F

     Using Slab Decomposition

     bravais-lattice index     =            0
     lattice parameter (alat)  =       1.8897  a.u.
     unit-cell volume          =    9988.4706 (a.u.)^3
     number of atoms/cell      =           61
     number of atomic types    =            4
     number of electrons       =       442.00
     number of Kohn-Sham states=          231
     kinetic-energy cutoff     =      29.3995  Ry
     charge density cutoff     =     293.9946  Ry
     scf convergence threshold =      7.3E-08
     mixing beta               =       0.0500
     number of iterations used =            8  plain     mixing
     Exchange-correlation= BEEF-VDW
                           (   1   4  43  14   2   0   0)

     celldm(1)=   1.889726  celldm(2)=   0.000000  celldm(3)=   0.000000
     celldm(4)=   0.000000  celldm(5)=   0.000000  celldm(6)=   0.000000

     crystal axes: (cart. coord. in units of alat)
               a(1) = (   6.579727   0.000000   0.000000 )
               a(2) = (  -0.001163   8.942395   0.000000 )
               a(3) = (   0.000000   0.000000  25.155947 )

     reciprocal axes: (cart. coord. in units 2 pi/alat)
               b(1) = (  0.151982  0.000020  0.000000 )
               b(2) = (  0.000000  0.111827  0.000000 )
               b(3) = (  0.000000  0.000000  0.039752 )

     PseudoPot. # 1 for O  read from file:
     /storage/coda1/p-amedford6/0/shared/rich_project_chbe-medford/medford-share/data/pseudos_module/espresso/nninc/pbe/van/O.UPF
     MD5 check sum: 78c19812648e8988a0fe644b0f25305e
     Pseudo is Ultrasoft, Zval =  6.0
     Generated by new atomic code, or converted to UPF format
     Using radial grid of  737 points,  4 beta functions with:
                l(1) =   0
                l(2) =   0
                l(3) =   1
                l(4) =   1
     Q(r) pseudized with  8 coefficients,  rinner =    0.800   0.800   0.800

     PseudoPot. # 2 for Ti read from file:
     /storage/coda1/p-amedford6/0/shared/rich_project_chbe-medford/medford-share/data/pseudos_module/espresso/nninc/pbe/van/Ti.UPF
     MD5 check sum: 8e4df49b7f0d34bbd5052bf3f5ea0213
     Pseudo is Ultrasoft, Zval = 12.0
     Generated by new atomic code, or converted to UPF format
     Using radial grid of  851 points,  6 beta functions with:
                l(1) =   0
                l(2) =   0
                l(3) =   1
                l(4) =   1
                l(5) =   2
                l(6) =   2
     Q(r) pseudized with  8 coefficients,  rinner =    1.000   1.000   1.000
                                                       1.000   1.000

     PseudoPot. # 3 for N  read from file:
     /storage/coda1/p-amedford6/0/shared/rich_project_chbe-medford/medford-share/data/pseudos_module/espresso/nninc/pbe/van/N.UPF
     MD5 check sum: 90d10febe142ad51ac9d5be1deb811c4
     Pseudo is Ultrasoft, Zval =  5.0
     Generated by new atomic code, or converted to UPF format
     Using radial grid of  729 points,  4 beta functions with:
                l(1) =   0
                l(2) =   0
                l(3) =   1
                l(4) =   1
     Q(r) pseudized with  8 coefficients,  rinner =    0.800   0.800   0.800

     PseudoPot. # 4 for H  read from file:
     /storage/coda1/p-amedford6/0/shared/rich_project_chbe-medford/medford-share/data/pseudos_module/espresso/nninc/pbe/van/H.UPF
     MD5 check sum: b5ee9d7bfd3a09ee7748110bda690ff7
     Pseudo is Ultrasoft, Zval =  1.0
     Generated by new atomic code, or converted to UPF format
     Using radial grid of  615 points,  1 beta functions with:
                l(1) =   0
     Q(r) pseudized with  8 coefficients,  rinner =    0.800

     atomic species   valence    mass     pseudopotential
        O1             6.00    15.99900     O ( 1.00)
        Ti1           12.00    47.86700     Ti( 1.00)
        N1             5.00    14.00700     N ( 1.00)
        H1             1.00     1.00800     H ( 1.00)

     No symmetry found

   Cartesian axes

     site n.     atom                  positions (alat units)
         1           O1  tau(   1) = (   0.0007354   0.0005023  10.5931620  )
         2           O1  tau(   2) = (   3.2905679   0.0262843  13.8966672  )
         3           O1  tau(   3) = (   0.0007290   0.0579300  17.2579193  )
         4           O1  tau(   4) = (   0.0006271   0.0005054   7.9858123  )
         5           O1  tau(   5) = (   3.2893100   8.9214726  11.1892856  )
         6           O1  tau(   6) = (   0.0005199   0.0455907  14.6396817  )
         7           O1  tau(   7) = (   1.9868534   1.4903216   9.2879459  )
         8           O1  tau(   8) = (   5.2380180   1.6024468  12.5713634  )
         9           O1  tau(   9) = (   2.0277759   1.4975965  16.1012153  )
        10           Ti1 tau(  10) = (   0.0007404   1.4906270   9.2895810  )
        11           Ti1 tau(  11) = (   3.2903786   1.3551844  12.4711573  )
        12           Ti1 tau(  12) = (   0.0003174   1.4440192  15.7330511  )
        13           O1  tau(  13) = (   4.5942328   1.4918067   9.2879030  )
        14           O1  tau(  14) = (   1.3426987   1.6023923  12.5713351  )
        15           O1  tau(  15) = (   4.5529958   1.4977110  16.1013444  )
        16           Ti1 tau(  16) = (   3.2902859   2.9801868   9.2893338  )
        17           Ti1 tau(  17) = (   0.0005333   2.8255407  12.4640987  )
        18           Ti1 tau(  18) = (   3.2895849   3.0341113  15.6952405  )
        19           O1  tau(  19) = (   0.0003479   2.9813005  10.5931620  )
        20           O1  tau(  20) = (   3.2900438   2.9627632  13.8881152  )
        21           O1  tau(  21) = (   0.0002396   2.9813036   7.9858123  )
        22           O1  tau(  22) = (   3.2902621   2.9759438  11.1922459  )
        23           O1  tau(  23) = (   0.0002943   2.9805036  14.7119039  )
        24           O1  tau(  24) = (   1.9864658   4.4711199   9.2879459  )
        25           O1  tau(  25) = (   5.2407125   4.5787950  12.5855407  )
        26           O1  tau(  26) = (   1.9842138   4.3634165  16.0604883  )
        27           Ti1 tau(  27) = (   0.0003529   4.4714252   9.2895810  )
        28           Ti1 tau(  28) = (   3.2904166   4.3402611  12.5252975  )
        29           Ti1 tau(  29) = (  -0.0003584   4.7219071  15.7914592  )
        30           O1  tau(  30) = (   4.5938453   4.4726049   9.2879030  )
        31           O1  tau(  31) = (   1.3394863   4.5787101  12.5854501  )
        32           O1  tau(  32) = (   4.5953883   4.3633133  16.0606172  )
        33           Ti1 tau(  33) = (   3.2898983   5.9609850   9.2893338  )
        34           Ti1 tau(  34) = (   0.0004309   5.8055675  12.4642027  )
        35           Ti1 tau(  35) = (   3.2895961   6.0676247  15.8182862  )
        36           O1  tau(  36) = (  -0.0000397   5.9620987  10.5931620  )
        37           O1  tau(  37) = (   3.2897974   5.9491097  13.9522666  )
        38           O1  tau(  38) = (  -0.0001005   5.9419674  17.2168411  )
        39           O1  tau(  39) = (  -0.0001480   5.9621018   7.9858123  )
        40           O1  tau(  40) = (   3.2898294   5.9516608  11.2068290  )
        41           O1  tau(  41) = (  -0.0002620   6.0093330  14.6024556  )
        42           O1  tau(  42) = (   1.9860782   7.4519181   9.2879459  )
        43           O1  tau(  43) = (   5.2335766   7.5615516  12.5803788  )
        44           O1  tau(  44) = (   2.0229086   7.4656171  16.0362607  )
        45           Ti1 tau(  45) = (  -0.0000347   7.4522234   9.2895810  )
        46           Ti1 tau(  46) = (   3.2895523   7.2794780  12.5477951  )
        47           Ti1 tau(  47) = (  -0.0001499   7.5569733  16.2601047  )
        48           O1  tau(  48) = (   4.5934577   7.4534031   9.2879030  )
        49           O1  tau(  49) = (   1.3453152   7.5613653  12.5804751  )
        50           O1  tau(  50) = (   4.5562564   7.4656138  16.0364310  )
        51           Ti1 tau(  51) = (   3.2895107   8.9417832   9.2893338  )
        52           Ti1 tau(  52) = (  -0.0004710   8.7769229  12.4586551  )
        53           Ti1 tau(  53) = (   3.2909234   0.0582169  15.6986445  )
        54           N1  tau(  54) = (   3.2892347   5.9685454  18.1810142  )
        55           H1  tau(  55) = (   3.2893406   5.0219839  18.5418895  )
        56           H1  tau(  56) = (   2.4590131   6.4368771  18.5304692  )
        57           H1  tau(  57) = (   4.1190552   6.4372901  18.5310312  )
        58           N1  tau(  58) = (  -0.0003436   2.9015831  17.9177722  )
        59           H1  tau(  59) = (   6.5794260   1.9611702  18.3102355  )
        60           H1  tau(  60) = (   5.7593157   3.3919262  18.2700543  )
        61           H1  tau(  61) = (   0.8192290   3.3923488  18.2608005  )

     number of k points=    10  Fermi-Dirac smearing, width (Ry)=  0.0073
                       cart. coord. in units 2pi/alat
        k(    1) = (   0.0000000   0.0000000   0.0000000), wk =   0.1250000
        k(    2) = (   0.0000000   0.0279567   0.0000000), wk =   0.2500000
        k(    3) = (   0.0000000  -0.0559134   0.0000000), wk =   0.1250000
        k(    4) = (   0.0379955   0.0000049   0.0000000), wk =   0.2500000
        k(    5) = (   0.0379955   0.0279617   0.0000000), wk =   0.2500000
        k(    6) = (   0.0379955  -0.0559085   0.0000000), wk =   0.2500000
        k(    7) = (   0.0379955  -0.0279518   0.0000000), wk =   0.2500000
        k(    8) = (  -0.0759910  -0.0000099   0.0000000), wk =   0.1250000
        k(    9) = (  -0.0759910   0.0279468   0.0000000), wk =   0.2500000
        k(   10) = (  -0.0759910  -0.0559233   0.0000000), wk =   0.1250000

     Initial potential from superposition of free atoms

     starting charge  423.99908, renormalised to  442.00000

     negative rho (up, down):  3.645E-02 0.000E+00

     %%%%%%%%%%%%%%%%%%%%%%%%%%%%%%%%%%%%%%%%%%%%%%%%%%%%%%%%%%%%%%%%%%%%%%%%
     %                                                                      %
     % You are using vdW-DF, which was implemented by the Thonhauser group. %
     % Please cite the following two papers that made this development      %
     % possible and the two reviews that describe the various versions:     %
     %                                                                      %
     %   T. Thonhauser et al., PRL 115, 136402 (2015).                      %
     %   T. Thonhauser et al., PRB 76, 125112 (2007).                       %
     %   K. Berland et al., Rep. Prog. Phys. 78, 066501 (2015).             %
     %   D.C. Langreth et al., J. Phys.: Condens. Matter 21, 084203 (2009). %
     %                                                                      %
     %                                                                      %
     % If you are calculating the stress with vdW-DF, please also cite:     %
     %                                                                      %
     %   R. Sabatini et al., J. Phys.: Condens. Matter 24, 424209 (2012).   %
     %                                                                      %
     %%%%%%%%%%%%%%%%%%%%%%%%%%%%%%%%%%%%%%%%%%%%%%%%%%%%%%%%%%%%%%%%%%%%%%%%

     Adding external electric field

     Computed dipole along edir(3) :
        Dipole               -6.4279 Ry au,        -16.3380 Debye
        Dipole field         -0.0081 Ry au,

        Potential amp.        0.7496 Ry
        Total length         46.3494 bohr

     Starting wfcs are  334 atomic wfcs
  @ DRIVER MODE: Message from server: STATUS
  @ DRIVER MODE: Message from server: POSDATA
  @ DRIVER MODE: Reading and sharing cell
  @ DRIVER MODE: Reading and sharing positions
  @ DRIVER MODE: Received positions

     Self-consistent Calculation

     iteration #  1     ecut=    29.40 Ry     beta= 0.05
     Davidson diagonalization with overlap
     c_bands:  1 eigenvalues not converged
     c_bands:  2 eigenvalues not converged
     c_bands:  2 eigenvalues not converged
     c_bands:  1 eigenvalues not converged
     c_bands:  3 eigenvalues not converged
     c_bands:  5 eigenvalues not converged
     c_bands:  3 eigenvalues not converged
     c_bands:  2 eigenvalues not converged
     c_bands:  3 eigenvalues not converged
     ethr =  1.00E-05,  avg # of iterations = 19.8

[...]

     total energy              =   -3273.09355762 Ry
     estimated scf accuracy    <     292.53103401 Ry

     iteration #  2     ecut=    29.40 Ry     beta= 0.05
     Davidson diagonalization with overlap
     ethr =  1.00E-02,  avg # of iterations = 15.9

[...]

     iteration # 43     ecut=    29.40 Ry     beta= 0.05
     Davidson diagonalization with overlap
     c_bands:  2 eigenvalues not converged
     ethr =  1.09E-06,  avg # of iterations =  8.8

[...]

     total energy              =   -3295.91280425 Ry
     estimated scf accuracy    <       0.00000014 Ry

     iteration # 64     ecut=    29.40 Ry     beta= 0.05
     Davidson diagonalization with overlap
     ethr =  3.11E-11,  avg # of iterations =  8.2

     negative rho (up, down):  3.469E-02 0.000E+00

     Adding external electric field

     Computed dipole along edir(3) :
        Dipole                1.8720 Ry au,          4.7582 Debye
        Dipole field          0.0024 Ry au,

        Potential amp.       -0.2183 Ry
        Total length         46.3494 bohr

     End of self-consistent calculation

          k = 0.0000 0.0000 0.0000 ( 26871 PWs)   bands (ev):

   -57.5931 -57.5528 -57.5292 -57.5232 -57.4932 -57.3939 -57.3862 -57.3655
   -57.3508 -57.3256 -57.2993 -57.2802 -57.2175 -57.1571 -57.0605 -56.5648
   -56.5397 -56.5387 -33.9739 -33.9343 -33.9298 -33.9038 -33.8855 -33.8671
   -33.8650 -33.8556 -33.8289 -33.8186 -33.8078 -33.7925 -33.7760 -33.7581
   -33.7479 -33.7342 -33.7199 -33.6872 -33.6794 -33.6765 -33.6662 -33.6514
   -33.6461 -33.6433 -33.6371 -33.6061 -33.5873 -33.5840 -33.5738 -33.5597
   -33.5566 -33.5506 -33.5368 -33.5351 -33.5320 -33.5179 -33.5136 -33.5000
   -33.4982 -33.4695 -33.4113 -33.3651 -33.3373 -33.3316 -33.2379 -32.8802
   -32.8778 -32.8763 -32.8635 -32.8625 -32.7907 -32.7267 -32.7257 -32.5905
   -18.3884 -18.0502 -17.8377 -17.7833 -17.7603 -17.6875 -17.6379 -17.6209
   -17.5540 -17.4875 -17.3638 -17.3260 -17.3206 -17.3073 -17.2962 -17.2352
   -17.2217 -17.2039 -17.2021 -17.1853 -17.1810 -17.1379 -17.0648 -17.0559
   -17.0151 -17.0010 -16.9804 -16.9777 -16.9298 -16.8769 -16.8672 -16.6731
   -16.6338 -16.4808 -15.0317 -14.9746 -14.9723  -7.7453  -7.7255  -7.5100
    -7.4268  -5.7122  -5.5297  -5.4647  -5.3702  -4.9979  -4.9403  -4.9260
    -4.8998  -4.8581  -4.8170  -4.8021  -4.7770  -4.7758  -4.7324  -4.6887
    -4.6632  -4.6437  -4.5441  -4.5070  -4.4688  -4.4387  -4.4322  -4.3808
    -4.3654  -4.3254  -4.3251  -4.2766  -4.2366  -4.2256  -4.2048  -4.1375
    -4.1195  -4.0152  -3.9271  -3.8690  -3.8618  -3.8212  -3.8078  -3.7623
    -3.7393  -3.7022  -3.6801  -3.6337  -3.6098  -3.5417  -3.4896  -3.3895
    -3.2931  -3.2664  -3.2402  -3.2181  -3.1732  -3.1203  -3.0004  -2.9601
    -2.9275  -2.9060  -2.8175  -2.8161  -2.7256  -2.7119  -2.6949  -2.6511
    -2.5998  -2.5849  -2.5510  -2.4345  -2.4135  -2.3230  -2.3117  -2.3098
    -2.2803  -2.2185  -2.2070  -2.1830  -2.1615  -2.1335  -2.1192  -2.0806
    -2.0772  -1.9784  -1.9569  -1.9006  -1.8782  -1.8779  -1.7796  -1.7619
    -1.7363  -1.7239  -1.6561  -1.5724  -1.4624  -1.4113  -1.3863  -1.3833
    -1.2839  -1.2556  -1.2125  -1.1322  -0.7963  -0.5998  -0.3127  -0.2685
    -0.2682  -0.0056  -0.0040   0.1246   1.4473   1.6625   1.6839   1.8758
     1.8982   1.9420   2.0286   2.0365   2.0987   2.1982   2.2344

[...]

          k = 0.0380-0.0280 0.0000 ( 26873 PWs)   bands (ev):

[...]

          k =-0.0760-0.0000 0.0000 ( 26902 PWs)   bands (ev):

[...]

          k =-0.0760-0.0559 0.0000 ( 26868 PWs)   bands (ev):

   -57.5929 -57.5466 -57.5412 -57.5173 -57.4934 -57.3916 -57.3861 -57.3704
   -57.3480 -57.3236 -57.3037 -57.2781 -57.2173 -57.1574 -57.0604 -56.5568
   -56.5557 -56.5307 -34.0253 -34.0134 -33.9169 -33.8916 -33.8817 -33.8769
   -33.8754 -33.8539 -33.8253 -33.8122 -33.7771 -33.7428 -33.7374 -33.7344
   -33.7233 -33.6955 -33.6920 -33.6873 -33.6819 -33.6789 -33.6413 -33.6353
   -33.6324 -33.6252 -33.6068 -33.6065 -33.6039 -33.6018 -33.5981 -33.5852
   -33.5778 -33.5700 -33.5685 -33.5593 -33.5385 -33.5266 -33.5222 -33.5143
   -33.4984 -33.4240 -33.4178 -33.3705 -33.3378 -33.3334 -33.2708 -32.9687
   -32.8793 -32.8783 -32.8544 -32.7698 -32.7687 -32.7046 -32.6881 -32.6868
   -18.0782 -18.0149 -17.7595 -17.7047 -17.6883 -17.6520 -17.6373 -17.5599
   -17.5399 -17.5250 -17.5033 -17.4365 -17.3848 -17.3359 -17.3336 -17.3272
   -17.2570 -17.2518 -17.2444 -17.2399 -17.1938 -17.1795 -17.1559 -17.1133
   -17.0358 -16.9661 -16.9529 -16.9464 -16.9076 -16.8926 -16.8414 -16.7069
   -16.6985 -16.4079 -15.0302 -15.0277 -14.9111  -7.7536  -7.7098  -7.5185
    -7.4278  -5.3350  -5.3049  -5.2753  -5.2109  -5.0201  -4.8606  -4.8296
    -4.8231  -4.7855  -4.7360  -4.7088  -4.7022  -4.6932  -4.6759  -4.6611
    -4.6127  -4.6089  -4.5833  -4.5105  -4.4695  -4.4647  -4.4458  -4.4316
    -4.4257  -4.3575  -4.2829  -4.2159  -4.1696  -4.1549  -4.1386  -4.0907
    -4.0542  -4.0243  -3.9815  -3.9709  -3.9025  -3.7959  -3.7108  -3.6709
    -3.6706  -3.6298  -3.5808  -3.5797  -3.4794  -3.4172  -3.3424  -3.2105
    -3.2042  -3.1917  -3.1670  -3.1528  -3.1144  -3.1031  -3.0787  -3.0275
    -3.0174  -2.9959  -2.9353  -2.8689  -2.7838  -2.7561  -2.7222  -2.7162
    -2.6922  -2.6804  -2.6527  -2.6500  -2.6157  -2.6067  -2.5531  -2.5256
    -2.4746  -2.4468  -2.4035  -2.3181  -2.3022  -2.2800  -2.1906  -2.1262
    -2.1095  -2.1042  -2.0751  -2.0290  -1.9310  -1.8372  -1.8014  -1.7569
    -1.6452  -1.6448  -1.6412  -1.6253  -1.5516  -1.5372  -1.3336  -1.3215
    -1.2622  -1.1868  -1.1473  -1.1116  -1.1092  -0.8919  -0.4815  -0.1981
    -0.1849  -0.1613  -0.0086  -0.0036   1.5934   1.6754   1.7102   1.7598
     1.7955   1.7988   1.8049   1.8686   1.9323   1.9421   2.1829

     the Fermi energy is     1.5315 ev

!    total energy              =   -3295.91283493 Ry
     estimated scf accuracy    <       0.00000006 Ry
     smearing contrib. (-TS)   =      -0.03397332 Ry
     internal energy E=F+TS    =   -3295.87886162 Ry

     The total energy is F=E-TS. E is the sum of the following terms:
     one-electron contribution =  -34426.98140889 Ry
     hartree contribution      =   17282.01803687 Ry
     xc contribution           =    -543.75428658 Ry
     ewald contribution        =   14392.83438806 Ry
     electric field correction =       0.00440892 Ry

     convergence has been achieved in  64 iterations

     Forces acting on atoms (cartesian axes, Ry/au):

     atom    1 type  1   force =     0.00001615    0.00450773    0.05616554
     atom    2 type  1   force =    -0.00000133   -0.00095683   -0.00073362
     atom    3 type  1   force =    -0.00000648    0.00154906   -0.00020329
     atom    4 type  1   force =     0.00005779    0.00031202    0.10697910
     atom    5 type  1   force =     0.00000200    0.00080660    0.00981659
     atom    6 type  1   force =     0.00000681   -0.00259684    0.00108268
     atom    7 type  1   force =     0.06727496   -0.00023361   -0.02909575
     atom    8 type  1   force =     0.00475533   -0.02828096    0.00257720
     atom    9 type  1   force =     0.00725167   -0.00157015   -0.00299073
     atom   10 type  2   force =    -0.00005143   -0.00148293   -0.18423509
     atom   11 type  2   force =     0.00003884    0.02164472   -0.00780757
     atom   12 type  2   force =    -0.00007988   -0.00252888    0.01213968
     atom   13 type  1   force =    -0.06737658   -0.00069506   -0.02905986
     atom   14 type  1   force =    -0.00478055   -0.02828268    0.00257717
     atom   15 type  1   force =    -0.00738590   -0.00164874   -0.00308480
     atom   16 type  2   force =     0.00009445    0.00012552    0.06630594
     atom   17 type  2   force =    -0.00001248    0.03586376    0.00369484
     atom   18 type  2   force =     0.00016308   -0.01047222   -0.00428746
     atom   19 type  1   force =     0.00001967    0.00444060    0.05988182
     atom   20 type  1   force =    -0.00000474    0.00082689   -0.00598272
     atom   21 type  1   force =     0.00005858    0.00018581    0.10720757
     atom   22 type  1   force =    -0.00000087   -0.00066221    0.00887422
     atom   23 type  1   force =     0.00001010    0.00496342    0.00314567
     atom   24 type  1   force =     0.06802301    0.00051362   -0.02899336
     atom   25 type  1   force =     0.00341745   -0.02997460    0.00209013
     atom   26 type  1   force =     0.01007710    0.02029725    0.00205879
     atom   27 type  2   force =    -0.00005955    0.00002870   -0.18364405
     atom   28 type  2   force =     0.00003565    0.02157458   -0.00595906
     atom   29 type  2   force =    -0.00013443   -0.02184153   -0.00575349
     atom   30 type  1   force =    -0.06812188    0.00006597   -0.02896163
     atom   31 type  1   force =    -0.00344870   -0.02996157    0.00209892
     atom   32 type  1   force =    -0.01024222    0.02035850    0.00192081
     atom   33 type  2   force =     0.00010186   -0.00026104    0.06933142
     atom   34 type  2   force =    -0.00001644    0.03685941    0.00371294
     atom   35 type  2   force =     0.00004603   -0.02934180    0.01036961
     atom   36 type  1   force =     0.00002573    0.00482072    0.05628775
     atom   37 type  1   force =    -0.00001445    0.00205362   -0.00519471
     atom   38 type  1   force =     0.00001410    0.00433803   -0.00011221
     atom   39 type  1   force =     0.00005606    0.00003007    0.10680485
     atom   40 type  1   force =    -0.00000499   -0.00061208    0.00813644
     atom   41 type  1   force =     0.00000555    0.00073682    0.00247680
     atom   42 type  1   force =     0.06804923   -0.00120825   -0.02958880
     atom   43 type  1   force =     0.00353517   -0.02804731    0.00205941
     atom   44 type  1   force =     0.01051589    0.01133965    0.00283077
     atom   45 type  2   force =    -0.00005986   -0.00196433   -0.18353013
     atom   46 type  2   force =     0.00003493    0.01958769   -0.00655248
     atom   47 type  2   force =    -0.00000770   -0.01038008   -0.01268494
     atom   48 type  1   force =    -0.06814304   -0.00164851   -0.02955196
     atom   49 type  1   force =    -0.00355037   -0.02804895    0.00205787
     atom   50 type  1   force =    -0.01055021    0.01134347    0.00281533
     atom   51 type  2   force =     0.00009654   -0.00307612    0.06759965
     atom   52 type  2   force =    -0.00002120    0.03494766    0.00624565
     atom   53 type  2   force =     0.00003632    0.00511265    0.00130916
     atom   54 type  3   force =     0.00007700    0.00065156   -0.00244397
     atom   55 type  4   force =    -0.00000881   -0.00142809   -0.00041151
     atom   56 type  4   force =    -0.00129473    0.00057073    0.00022037
     atom   57 type  4   force =     0.00119673    0.00053159    0.00017669
     atom   58 type  3   force =    -0.00466939    0.00109220    0.00385316
     atom   59 type  4   force =     0.00054507   -0.00040351    0.00010758
     atom   60 type  4   force =     0.00468729   -0.00324779   -0.00332804
     atom   61 type  4   force =    -0.00027787   -0.00122391   -0.00082087

     Total force =     0.454835     Total SCF correction =     0.000693
  @ DRIVER MODE: Message from server: STATUS
  @ DRIVER MODE: Message from server: GETFORCE
  @ DRIVER MODE: Returning v,forces,stress,ensemble

     Writing output data file ./calc.save/
  @ DRIVER MODE: Message from server: EXIT
  @ DRIVE MODE: Exiting

     General routines

     Parallel routines

   This run was terminated on:   8: 9:40  19Oct2021

   JOB DONE.