     Program PWSCF v.6.7GPU starts on 23Sep2021 at 22:39:46

     R & G space division:  proc/nbgrp/npool/nimage =       8
     Reading input from /storage/home/hcoda1/3/ntian30/research/carbon/CxH_vib/H2O_calc/ads_slab/CH3NHHHO_a/out_0029/pw.inp
Warning: card &CELL ignored
Warning: card   CELL_DYNAMICS='IPI', ignored
Warning: card / ignored

     Current dimensions of program PWSCF are:
     Max number of different atomic species (ntypx) = 10
     Max number of k-points (npk) =  40000
     Max angular momentum in pseudopotentials (lmaxx) =  3
     Presently no symmetry can be used with electric field

     Message from routine cell_base_init:
     DEPRECATED: use true lattice parameter, not A to a.u. conversion factor

     IMPORTANT: XC functional enforced from input :
     Exchange-correlation= BEEF-VDW
                           (   1   4  43  14   2   0   0)
     Any further DFT definition will be discarded
     Please, verify this is what you really want

  @ DRIVER MODE: Connecting to
 qe_1139763_2947311.sched-torque.pace.gatech.edumkhgvh6w_scratch
  using UNIX socket
  @ DRIVER MODE: Message from server: STATUS
  @ DRIVER MODE: Message from server: INIT
  @ DRIVER MODE: Receiving replica           0          -1
  @ DRIVER MODE: Receiving encoded integer          25
  @ DRIVER MODE:  SCF:  T  FORCE:  T  STRESS:  F  VC:  F  ENSEMBLE:  F
  @ DRIVER MODE:  SCF:  T  FORCE:  T  STRESS:  F  VC:  F  ENSEMBLE:  F

     Using Slab Decomposition

     bravais-lattice index     =            0
     lattice parameter (alat)  =       1.8897  a.u.
     unit-cell volume          =    6658.9804 (a.u.)^3
     number of atoms/cell      =           56
     number of atomic types    =            5
     number of electrons       =       399.00
     number of Kohn-Sham states=          209
     kinetic-energy cutoff     =      29.3995  Ry
     charge density cutoff     =     293.9946  Ry
     scf convergence threshold =      7.3E-08
     mixing beta               =       0.0500
     number of iterations used =            8  plain     mixing
     Exchange-correlation= BEEF-VDW
                           (   1   4  43  14   2   0   0)

     celldm(1)=   1.889726  celldm(2)=   0.000000  celldm(3)=   0.000000
     celldm(4)=   0.000000  celldm(5)=   0.000000  celldm(6)=   0.000000

     crystal axes: (cart. coord. in units of alat)
               a(1) = (   6.579727   0.000000   0.000000 )
               a(2) = (  -0.000775   5.961596   0.000000 )
               a(3) = (   0.000000   0.000000  25.155947 )

     reciprocal axes: (cart. coord. in units 2 pi/alat)
               b(1) = (  0.151982  0.000020  0.000000 )
               b(2) = (  0.000000  0.167740  0.000000 )
               b(3) = (  0.000000  0.000000  0.039752 )

     PseudoPot. # 1 for Ti read from file:
     /storage/coda1/p-amedford6/0/shared/rich_project_chbe-medford/medford-share/data/pseudos_module/espresso/nninc/pbe/van/Ti.UPF
     MD5 check sum: 8e4df49b7f0d34bbd5052bf3f5ea0213
     Pseudo is Ultrasoft, Zval = 12.0
     Generated by new atomic code, or converted to UPF format
     Using radial grid of  851 points,  6 beta functions with:
                l(1) =   0
                l(2) =   0
                l(3) =   1
                l(4) =   1
                l(5) =   2
                l(6) =   2
     Q(r) pseudized with  8 coefficients,  rinner =    1.000   1.000   1.000
                                                       1.000   1.000

     PseudoPot. # 2 for O  read from file:
     /storage/coda1/p-amedford6/0/shared/rich_project_chbe-medford/medford-share/data/pseudos_module/espresso/nninc/pbe/van/O.UPF
     MD5 check sum: 78c19812648e8988a0fe644b0f25305e
     Pseudo is Ultrasoft, Zval =  6.0
     Generated by new atomic code, or converted to UPF format
     Using radial grid of  737 points,  4 beta functions with:
                l(1) =   0
                l(2) =   0
                l(3) =   1
                l(4) =   1
     Q(r) pseudized with  8 coefficients,  rinner =    0.800   0.800   0.800

     PseudoPot. # 3 for N  read from file:
     /storage/coda1/p-amedford6/0/shared/rich_project_chbe-medford/medford-share/data/pseudos_module/espresso/nninc/pbe/van/N.UPF
     MD5 check sum: 90d10febe142ad51ac9d5be1deb811c4
     Pseudo is Ultrasoft, Zval =  5.0
     Generated by new atomic code, or converted to UPF format
     Using radial grid of  729 points,  4 beta functions with:
                l(1) =   0
                l(2) =   0
                l(3) =   1
                l(4) =   1
     Q(r) pseudized with  8 coefficients,  rinner =    0.800   0.800   0.800

     PseudoPot. # 4 for C  read from file:
     /storage/coda1/p-amedford6/0/shared/rich_project_chbe-medford/medford-share/data/pseudos_module/espresso/nninc/pbe/van/C.UPF
     MD5 check sum: 1a69bf6b8db32088f5b2163dbdb77a27
     Pseudo is Ultrasoft, Zval =  4.0
     Generated by new atomic code, or converted to UPF format
     Using radial grid of  721 points,  4 beta functions with:
                l(1) =   0
                l(2) =   0
                l(3) =   1
                l(4) =   1
     Q(r) pseudized with  8 coefficients,  rinner =    0.800   0.800   0.800

     PseudoPot. # 5 for H  read from file:
     /storage/coda1/p-amedford6/0/shared/rich_project_chbe-medford/medford-share/data/pseudos_module/espresso/nninc/pbe/van/H.UPF
     MD5 check sum: b5ee9d7bfd3a09ee7748110bda690ff7
     Pseudo is Ultrasoft, Zval =  1.0
     Generated by new atomic code, or converted to UPF format
     Using radial grid of  615 points,  1 beta functions with:
                l(1) =   0
     Q(r) pseudized with  8 coefficients,  rinner =    0.800

     atomic species   valence    mass     pseudopotential
        Ti1           12.00    47.86700     Ti( 1.00)
        O1             6.00    15.99900     O ( 1.00)
        N1             5.00    14.00700     N ( 1.00)
        C1             4.00    12.01100     C ( 1.00)
        H1             1.00     1.00800     H ( 1.00)

     No symmetry found

   Cartesian axes

     site n.     atom                  positions (alat units)
         1           Ti1 tau(   1) = (   0.0004258   2.9801865   6.0000000  )
         2           Ti1 tau(   2) = (   3.2906075   1.4906267   6.0002472  )
         3           O1  tau(   3) = (   0.0006271   0.0005054   7.9858123  )
         4           O1  tau(   4) = (   3.2906025   0.0005020   7.3038282  )
         5           O1  tau(   5) = (   4.5942328   1.4918067   9.2879030  )
         6           O1  tau(   6) = (   1.9868534   1.4903216   9.2879459  )
         7           Ti1 tau(   7) = (   3.2907910   2.8959150   9.1758416  )
         8           Ti1 tau(   8) = (   0.0015273   1.4827037   9.2680791  )
         9           O1  tau(   9) = (   3.2949530   5.9481847  11.3666340  )
        10           O1  tau(  10) = (   0.0116148   5.9584955  10.6183126  )
        11           O1  tau(  11) = (   1.2732546   1.4916747  12.6876809  )
        12           O1  tau(  12) = (   5.3119445   1.4892451  12.6851550  )
        13           Ti1 tau(  13) = (   6.5688325   2.9465269  12.5174317  )
        14           Ti1 tau(  14) = (   3.2996026   1.2975375  12.7241829  )
        15           O1  tau(  15) = (   0.0172205   5.8793003  14.6619373  )
        16           O1  tau(  16) = (   3.2917661   0.0702926  14.0149596  )
        17           O1  tau(  17) = (   4.5643074   1.5920826  16.1346482  )
        18           O1  tau(  18) = (   2.0131957   1.5841813  16.0575481  )
        19           Ti1 tau(  19) = (   3.2662748   3.0407108  15.6947786  )
        20           Ti1 tau(  20) = (   0.0618610   1.3206105  15.7998127  )
        21           O1  tau(  21) = (   3.2904802   0.0005063   4.7018136  )
        22           O1  tau(  22) = (   0.0233933   0.1570098  17.1842078  )
        23           O1  tau(  23) = (   1.3043587   1.4918075   6.0039043  )
        24           O1  tau(  24) = (   5.2767064   1.4903225   6.0039473  )
        25           Ti1 tau(  25) = (   0.0000382   5.9609847   6.0000000  )
        26           Ti1 tau(  26) = (   3.2902200   4.4714249   6.0002472  )
        27           O1  tau(  27) = (   0.0002396   2.9813036   7.9858123  )
        28           O1  tau(  28) = (   3.2902150   2.9813002   7.3038282  )
        29           O1  tau(  29) = (   4.5938453   4.4726049   9.2879030  )
        30           O1  tau(  30) = (   1.9864658   4.4711199   9.2879459  )
        31           Ti1 tau(  31) = (   3.2891106   5.8743827   9.1763621  )
        32           Ti1 tau(  32) = (   0.0006254   4.4649316   9.2693709  )
        33           O1  tau(  33) = (   3.2948289   2.9949798  11.3176834  )
        34           O1  tau(  34) = (   0.0092240   2.9805883  10.6323155  )
        35           O1  tau(  35) = (   1.2828652   4.4571597  12.6432593  )
        36           O1  tau(  36) = (   5.3079144   4.4605214  12.6419564  )
        37           Ti1 tau(  37) = (   0.0266940   5.9154698  12.5044250  )
        38           Ti1 tau(  38) = (   3.3008436   4.3760658  12.4353554  )
        39           O1  tau(  39) = (   6.5507285   3.0461080  14.9005035  )
        40           O1  tau(  40) = (   3.2938476   3.0131494  13.9233183  )
        41           O1  tau(  41) = (   4.5350990   4.4864192  16.1518712  )
        42           O1  tau(  42) = (   1.9883536   4.4285065  16.1690201  )
        43           Ti1 tau(  43) = (   3.3916644   0.0784854  16.2809578  )
        44           Ti1 tau(  44) = (   0.0590441   4.5159846  16.0209683  )
        45           O1  tau(  45) = (   3.2900926   2.9813045   4.7018136  )
        46           O1  tau(  46) = (   1.3039711   4.4726057   6.0039043  )
        47           O1  tau(  47) = (   5.2763189   4.4711207   6.0039473  )
        48           N1  tau(  48) = (   6.2706434   3.3837210  18.0754458  )
        49           C1  tau(  49) = (   0.7642246   3.1223808  19.0622891  )
        50           H1  tau(  50) = (   1.3158356   4.0410886  19.2409436  )
        51           H1  tau(  51) = (   0.3597117   2.7583523  20.0089400  )
        52           H1  tau(  52) = (   1.4517744   2.3810259  18.6568870  )
        53           H1  tau(  53) = (   5.6745199   4.1349376  18.4206214  )
        54           H1  tau(  54) = (   5.6587021   2.5696541  18.0151127  )
        55           O1  tau(  55) = (   3.1972372   0.0910451  18.1323504  )
        56           H1  tau(  56) = (   2.2767176   0.1080423  18.4377142  )

     number of k points=    10  Fermi-Dirac smearing, width (Ry)=  0.0073
                       cart. coord. in units 2pi/alat
        k(    1) = (   0.0000000   0.0000000   0.0000000), wk =   0.1250000
        k(    2) = (   0.0000000   0.0419351   0.0000000), wk =   0.2500000
        k(    3) = (   0.0000000  -0.0838702   0.0000000), wk =   0.1250000
        k(    4) = (   0.0379955   0.0000049   0.0000000), wk =   0.2500000
        k(    5) = (   0.0379955   0.0419400   0.0000000), wk =   0.2500000
        k(    6) = (   0.0379955  -0.0838652   0.0000000), wk =   0.2500000
        k(    7) = (   0.0379955  -0.0419301   0.0000000), wk =   0.2500000
        k(    8) = (  -0.0759910  -0.0000099   0.0000000), wk =   0.1250000
        k(    9) = (  -0.0759910   0.0419252   0.0000000), wk =   0.2500000
        k(   10) = (  -0.0759910  -0.0838800   0.0000000), wk =   0.1250000

     Initial potential from superposition of free atoms

     starting charge  382.99914, renormalised to  399.00000

     negative rho (up, down):  1.588E-02 0.000E+00

     %%%%%%%%%%%%%%%%%%%%%%%%%%%%%%%%%%%%%%%%%%%%%%%%%%%%%%%%%%%%%%%%%%%%%%%%
     %                                                                      %
     % You are using vdW-DF, which was implemented by the Thonhauser group. %
     % Please cite the following two papers that made this development      %
     % possible and the two reviews that describe the various versions:     %
     %                                                                      %
     %   T. Thonhauser et al., PRL 115, 136402 (2015).                      %
     %   T. Thonhauser et al., PRB 76, 125112 (2007).                       %
     %   K. Berland et al., Rep. Prog. Phys. 78, 066501 (2015).             %
     %   D.C. Langreth et al., J. Phys.: Condens. Matter 21, 084203 (2009). %
     %                                                                      %
     %                                                                      %
     % If you are calculating the stress with vdW-DF, please also cite:     %
     %                                                                      %
     %   R. Sabatini et al., J. Phys.: Condens. Matter 24, 424209 (2012).   %
     %                                                                      %
     %%%%%%%%%%%%%%%%%%%%%%%%%%%%%%%%%%%%%%%%%%%%%%%%%%%%%%%%%%%%%%%%%%%%%%%%

     Adding external electric field

     Computed dipole along edir(3) :
        Dipole              -10.6954 Ry au,        -27.1850 Debye
        Dipole field         -0.0202 Ry au,

        Potential amp.        1.8710 Ry
        Total length         46.3494 bohr

     Starting wfcs are  302 atomic wfcs
  @ DRIVER MODE: Message from server: STATUS
  @ DRIVER MODE: Message from server: POSDATA
  @ DRIVER MODE: Reading and sharing cell
  @ DRIVER MODE: Reading and sharing positions
  @ DRIVER MODE: Received positions

     Self-consistent Calculation

     iteration #  1     ecut=    29.40 Ry     beta= 0.05
     Davidson diagonalization with overlap
     c_bands:  3 eigenvalues not converged
     c_bands:  2 eigenvalues not converged
     c_bands:  2 eigenvalues not converged
     c_bands:  5 eigenvalues not converged
     c_bands:  2 eigenvalues not converged
     c_bands:  5 eigenvalues not converged
     c_bands:  4 eigenvalues not converged
     c_bands:  3 eigenvalues not converged
     ethr =  1.00E-05,  avg # of iterations = 21.6

[...]

     total energy              =   -2438.25946004 Ry
     estimated scf accuracy    <    5770.40995480 Ry

     iteration #  2     ecut=    29.40 Ry     beta= 0.05
     Davidson diagonalization with overlap
     ethr =  1.00E-02,  avg # of iterations = 24.5

[...]

     iteration # 51     ecut=    29.40 Ry     beta= 0.05
     Davidson diagonalization with overlap
     c_bands:  1 eigenvalues not converged
     ethr =  1.51E-07,  avg # of iterations = 16.7

[...]

     total energy              =   -2955.26290723 Ry
     estimated scf accuracy    <       0.00000010 Ry

     iteration # 71     ecut=    29.40 Ry     beta= 0.05
     Davidson diagonalization with overlap
     ethr =  2.56E-11,  avg # of iterations =  5.9

     negative rho (up, down):  1.647E-02 0.000E+00

     Adding external electric field

     Computed dipole along edir(3) :
        Dipole                0.9752 Ry au,          2.4786 Debye
        Dipole field          0.0018 Ry au,

        Potential amp.       -0.1706 Ry
        Total length         46.3494 bohr

     End of self-consistent calculation

          k = 0.0000 0.0000 0.0000 ( 18029 PWs)   bands (ev):

   -55.6833 -55.6371 -55.6030 -55.5127 -55.5025 -55.4671 -55.4663 -55.4643
   -55.4322 -55.4187 -55.3681 -55.2732 -55.2272 -55.2130 -54.6129 -54.5789
   -32.1225 -32.0202 -32.0124 -31.9886 -31.9691 -31.9567 -31.9277 -31.9019
   -31.8946 -31.8833 -31.8829 -31.7905 -31.7897 -31.7749 -31.7495 -31.7458
   -31.7444 -31.7432 -31.7424 -31.7062 -31.6946 -31.6652 -31.6625 -31.6563
   -31.6508 -31.6447 -31.6366 -31.6063 -31.6044 -31.5987 -31.5933 -31.5901
   -31.5791 -31.5640 -31.5496 -31.5242 -31.4646 -31.4559 -31.4463 -31.4229
   -31.4196 -31.4149 -31.0190 -30.9325 -30.9100 -30.8365 -30.7501 -30.6383
   -16.5114 -16.2967 -16.1499 -15.9788 -15.8395 -15.8106 -15.7693 -15.5994
   -15.5067 -15.4429 -15.2426 -15.2217 -15.1758 -15.1647 -15.1592 -15.1363
   -15.1267 -15.0816 -15.0632 -15.0597 -15.0498 -15.0323 -14.9958 -14.9536
   -14.9105 -14.8895 -14.7768 -14.7205 -14.6799 -14.4688 -14.4003 -13.1115
   -12.9951  -9.9769  -6.0164  -4.5878  -4.0619  -3.7616  -3.6447  -3.5472
    -3.5359  -3.4153  -3.4060  -3.1663  -3.0426  -2.9837  -2.9053  -2.7827
    -2.7507  -2.6762  -2.6353  -2.5877  -2.5691  -2.5318  -2.4917  -2.4487
    -2.4236  -2.3959  -2.3624  -2.3065  -2.2949  -2.1966  -2.1823  -2.1594
    -2.0540  -2.0128  -1.9728  -1.9546  -1.9496  -1.9306  -1.8919  -1.8856
    -1.8659  -1.7878  -1.7187  -1.6725  -1.6378  -1.6100  -1.3323  -1.2468
    -1.2032  -1.1886  -1.0847  -1.0610  -1.0326  -1.0189  -0.9822  -0.9660
    -0.8539  -0.8374  -0.7689  -0.7191  -0.7048  -0.6673  -0.5484  -0.5117
    -0.4608  -0.4208  -0.3706  -0.3530  -0.3482  -0.2536  -0.2269  -0.1920
    -0.0837  -0.0669  -0.0045   0.0808   0.0905   0.1418   0.1656   0.2257
     0.2302   0.2847   0.3144   0.3367   0.3901   0.4225   0.4588   0.4918
     0.5089   0.6112   0.6864   0.6992   0.7964   0.8709   0.9244   1.0284
     1.0961   1.3600   1.4136   1.4374   1.6056   1.9808   2.0262   3.4445
     3.5934   3.6090   3.6838   3.6963   3.7734   3.9340   3.9591   4.0940
     4.1328

[...]

          k = 0.0380-0.0419 0.0000 ( 17876 PWs)   bands (ev):

[...]

          k =-0.0760-0.0000 0.0000 ( 17886 PWs)   bands (ev):

[...]

          k =-0.0760-0.0839 0.0000 ( 17948 PWs)   bands (ev):

   -55.6823 -55.6201 -55.6198 -55.5114 -55.4913 -55.4754 -55.4679 -55.4498
   -55.4482 -55.4124 -55.3745 -55.2684 -55.2283 -55.2177 -54.5964 -54.5952
   -31.9532 -31.9454 -31.9379 -31.9376 -31.9305 -31.9134 -31.9130 -31.8970
   -31.8528 -31.8115 -31.7934 -31.7806 -31.7767 -31.7750 -31.7533 -31.7436
   -31.7401 -31.7396 -31.7292 -31.7254 -31.7178 -31.7169 -31.7022 -31.6783
   -31.6721 -31.6678 -31.6582 -31.6479 -31.6328 -31.6317 -31.6295 -31.6241
   -31.6225 -31.5972 -31.5967 -31.5557 -31.5311 -31.4958 -31.4689 -31.4641
   -31.4487 -31.4190 -30.9232 -30.9223 -30.8325 -30.8311 -30.7938 -30.7929
   -16.4813 -15.9381 -15.8579 -15.7452 -15.6220 -15.6087 -15.4977 -15.4147
   -15.4111 -15.3807 -15.3499 -15.3221 -15.3127 -15.2956 -15.2489 -15.2051
   -15.1699 -15.1422 -15.1402 -15.0943 -15.0873 -15.0759 -15.0633 -15.0410
   -15.0073 -14.9574 -14.9430 -14.9043 -14.7665 -14.6901 -14.5910 -13.0972
   -13.0966  -9.9790  -5.9962  -4.5854  -4.0266  -3.7167  -3.0566  -2.9605
    -2.8484  -2.7232  -2.7139  -2.6979  -2.6428  -2.6118  -2.5859  -2.5446
    -2.4873  -2.4671  -2.4472  -2.4305  -2.4087  -2.3909  -2.3822  -2.3770
    -2.3405  -2.3227  -2.3144  -2.2733  -2.2657  -2.2490  -2.2291  -2.2117
    -2.1810  -2.1765  -2.1474  -2.0957  -2.0465  -1.9726  -1.8797  -1.7983
    -1.7872  -1.7688  -1.7192  -1.7126  -1.6671  -1.6594  -1.6347  -1.5486
    -1.4370  -1.3864  -1.2758  -1.2562  -1.2292  -1.1894  -1.1367  -1.1224
    -1.0770  -1.0464  -0.9865  -0.8856  -0.8556  -0.8003  -0.6870  -0.6495
    -0.6110  -0.5910  -0.5788  -0.5539  -0.5371  -0.4974  -0.4693  -0.4215
    -0.3817  -0.3476  -0.3207  -0.2952  -0.2489  -0.1466  -0.0524  -0.0150
     0.0864   0.1328   0.1749   0.2066   0.2687   0.4033   0.4301   0.5262
     0.5408   0.5698   0.6715   0.6817   0.7828   0.8069   0.8450   0.8860
     0.9108   0.9319   0.9516   1.7752   1.7837   1.8466   1.8468   3.7374
     3.9299   3.9450   3.9612   4.0059   4.0131   4.0401   4.0458   4.1123
     4.1232

     the Fermi energy is     3.4834 ev

!    total energy              =   -2955.26293107 Ry
     estimated scf accuracy    <       0.00000005 Ry
     smearing contrib. (-TS)   =      -0.01952887 Ry
     internal energy E=F+TS    =   -2955.24340220 Ry

     The total energy is F=E-TS. E is the sum of the following terms:
     one-electron contribution =  -23742.02011447 Ry
     hartree contribution      =   11963.11786336 Ry
     xc contribution           =    -489.73509331 Ry
     ewald contribution        =    9313.39214766 Ry
     electric field correction =       0.00179456 Ry

     convergence has been achieved in  71 iterations

     Forces acting on atoms (cartesian axes, Ry/au):

     atom    1 type  1   force =     0.00009042   -0.00029022    0.09414439
     atom    2 type  1   force =    -0.00004240    0.00044044   -0.17541004
     atom    3 type  2   force =     0.00003974   -0.00033554   -0.02109017
     atom    4 type  2   force =     0.00002390   -0.00198012    0.05461861
     atom    5 type  2   force =    -0.00674337   -0.00245039    0.00301230
     atom    6 type  2   force =     0.00834986   -0.00187327    0.00243313
     atom    7 type  1   force =    -0.00017701   -0.00404491    0.00896062
     atom    8 type  1   force =     0.00031789    0.00082185    0.00311968
     atom    9 type  2   force =    -0.00057970    0.00058455   -0.00018636
     atom   10 type  2   force =    -0.00139153    0.00173102   -0.00927817
     atom   11 type  2   force =     0.00003681   -0.00015882    0.00037464
     atom   12 type  2   force =    -0.00005294   -0.00011259   -0.00031124
     atom   13 type  1   force =    -0.00049024   -0.00025154    0.00004526
     atom   14 type  1   force =     0.00001431   -0.00033604   -0.00006515
     atom   15 type  2   force =    -0.00031117   -0.00002362   -0.00016600
     atom   16 type  2   force =     0.00031993   -0.00054297   -0.00040852
     atom   17 type  2   force =     0.00044051   -0.00014268   -0.00077868
     atom   18 type  2   force =    -0.00048471    0.00016021   -0.00011630
     atom   19 type  1   force =     0.00052883   -0.00059190    0.00069891
     atom   20 type  1   force =     0.00045052    0.00024748    0.00039119
     atom   21 type  2   force =     0.00007553    0.00004730    0.10323756
     atom   22 type  2   force =    -0.00047995    0.00039714    0.00016058
     atom   23 type  2   force =    -0.07190154   -0.00018809   -0.02719410
     atom   24 type  2   force =     0.07183149    0.00025150   -0.02724112
     atom   25 type  1   force =     0.00002755   -0.00024509    0.09382931
     atom   26 type  1   force =    -0.00005947   -0.00133541   -0.17559645
     atom   27 type  2   force =     0.00015613   -0.00011446   -0.01985364
     atom   28 type  2   force =     0.00006929   -0.00031923    0.04989366
     atom   29 type  2   force =    -0.00613374    0.00232135    0.00251679
     atom   30 type  2   force =     0.00762802    0.00268700    0.00196704
     atom   31 type  1   force =     0.00002443    0.00839611   -0.00275714
     atom   32 type  1   force =     0.00011906   -0.00235489    0.00259679
     atom   33 type  2   force =     0.00005211   -0.00000761   -0.00005377
     atom   34 type  2   force =    -0.00211656   -0.00248933   -0.01005176
     atom   35 type  2   force =    -0.00014703   -0.00001979    0.00052688
     atom   36 type  2   force =    -0.00006864    0.00007024   -0.00008183
     atom   37 type  1   force =     0.00016721   -0.00009170   -0.00024601
     atom   38 type  1   force =     0.00005472   -0.00017065    0.00024709
     atom   39 type  2   force =    -0.00012906    0.00009590   -0.00029256
     atom   40 type  2   force =     0.00016970   -0.00025109   -0.00010399
     atom   41 type  2   force =    -0.00038057   -0.00073653    0.00061408
     atom   42 type  2   force =     0.00050304    0.00004147   -0.00018895
     atom   43 type  1   force =    -0.00075790   -0.00065214    0.00031614
     atom   44 type  1   force =     0.00039112    0.00046007   -0.00019760
     atom   45 type  2   force =     0.00006979   -0.00007133    0.10304670
     atom   46 type  2   force =    -0.07191757   -0.00004540   -0.02722799
     atom   47 type  2   force =     0.07187904    0.00039417   -0.02727572
     atom   48 type  3   force =    -0.00082524    0.00112555    0.00059199
     atom   49 type  4   force =     0.00319478   -0.00242228   -0.00287925
     atom   50 type  5   force =     0.00061693    0.00080978   -0.00024451
     atom   51 type  5   force =     0.00050958   -0.00000993   -0.00021325
     atom   52 type  5   force =    -0.00206391    0.00257482    0.00293753
     atom   53 type  5   force =    -0.00052617    0.00056583   -0.00080574
     atom   54 type  5   force =     0.00035248   -0.00001758    0.00003592
     atom   55 type  2   force =    -0.00047351    0.00035891    0.00040303
     atom   56 type  5   force =    -0.00025084    0.00009444   -0.00040379

     Total force =     0.362239     Total SCF correction =     0.000711
  @ DRIVER MODE: Message from server: STATUS
  @ DRIVER MODE: Message from server: GETFORCE
  @ DRIVER MODE: Returning v,forces,stress,ensemble

     Writing output data file ./calc.save/
  @ DRIVER MODE: Message from server: EXIT
  @ DRIVE MODE: Exiting

     General routines

     Parallel routines

   This run was terminated on:  23: 3:41  23Sep2021

   JOB DONE.