     Program PWSCF v.6.7GPU starts on 23Sep2021 at 17:41:31

     R & G space division:  proc/nbgrp/npool/nimage =       8
     Reading input from /storage/home/hcoda1/3/ntian30/research/carbon/CxH_vib/H2O_calc/ads_slab/CH3NHHHO_a/out_0017/pw.inp
Warning: card &CELL ignored
Warning: card   CELL_DYNAMICS='IPI', ignored
Warning: card / ignored

     Current dimensions of program PWSCF are:
     Max number of different atomic species (ntypx) = 10
     Max number of k-points (npk) =  40000
     Max angular momentum in pseudopotentials (lmaxx) =  3
     Presently no symmetry can be used with electric field

     Message from routine cell_base_init:
     DEPRECATED: use true lattice parameter, not A to a.u. conversion factor

     IMPORTANT: XC functional enforced from input :
     Exchange-correlation= BEEF-VDW
                           (   1   4  43  14   2   0   0)
     Any further DFT definition will be discarded
     Please, verify this is what you really want

  @ DRIVER MODE: Connecting to
 qe_1139763_2947311.sched-torque.pace.gatech.edu2y8yf6rx_scratch
  using UNIX socket
  @ DRIVER MODE: Message from server: STATUS
  @ DRIVER MODE: Message from server: INIT
  @ DRIVER MODE: Receiving replica           0          -1
  @ DRIVER MODE: Receiving encoded integer          25
  @ DRIVER MODE:  SCF:  T  FORCE:  T  STRESS:  F  VC:  F  ENSEMBLE:  F
  @ DRIVER MODE:  SCF:  T  FORCE:  T  STRESS:  F  VC:  F  ENSEMBLE:  F

     Using Slab Decomposition

     bravais-lattice index     =            0
     lattice parameter (alat)  =       1.8897  a.u.
     unit-cell volume          =    6658.9804 (a.u.)^3
     number of atoms/cell      =           56
     number of atomic types    =            5
     number of electrons       =       399.00
     number of Kohn-Sham states=          209
     kinetic-energy cutoff     =      29.3995  Ry
     charge density cutoff     =     293.9946  Ry
     scf convergence threshold =      7.3E-08
     mixing beta               =       0.0500
     number of iterations used =            8  plain     mixing
     Exchange-correlation= BEEF-VDW
                           (   1   4  43  14   2   0   0)

     celldm(1)=   1.889726  celldm(2)=   0.000000  celldm(3)=   0.000000
     celldm(4)=   0.000000  celldm(5)=   0.000000  celldm(6)=   0.000000

     crystal axes: (cart. coord. in units of alat)
               a(1) = (   6.579727   0.000000   0.000000 )
               a(2) = (  -0.000775   5.961596   0.000000 )
               a(3) = (   0.000000   0.000000  25.155947 )

     reciprocal axes: (cart. coord. in units 2 pi/alat)
               b(1) = (  0.151982  0.000020  0.000000 )
               b(2) = (  0.000000  0.167740  0.000000 )
               b(3) = (  0.000000  0.000000  0.039752 )

     PseudoPot. # 1 for Ti read from file:
     /storage/coda1/p-amedford6/0/shared/rich_project_chbe-medford/medford-share/data/pseudos_module/espresso/nninc/pbe/van/Ti.UPF
     MD5 check sum: 8e4df49b7f0d34bbd5052bf3f5ea0213
     Pseudo is Ultrasoft, Zval = 12.0
     Generated by new atomic code, or converted to UPF format
     Using radial grid of  851 points,  6 beta functions with:
                l(1) =   0
                l(2) =   0
                l(3) =   1
                l(4) =   1
                l(5) =   2
                l(6) =   2
     Q(r) pseudized with  8 coefficients,  rinner =    1.000   1.000   1.000
                                                       1.000   1.000

     PseudoPot. # 2 for O  read from file:
     /storage/coda1/p-amedford6/0/shared/rich_project_chbe-medford/medford-share/data/pseudos_module/espresso/nninc/pbe/van/O.UPF
     MD5 check sum: 78c19812648e8988a0fe644b0f25305e
     Pseudo is Ultrasoft, Zval =  6.0
     Generated by new atomic code, or converted to UPF format
     Using radial grid of  737 points,  4 beta functions with:
                l(1) =   0
                l(2) =   0
                l(3) =   1
                l(4) =   1
     Q(r) pseudized with  8 coefficients,  rinner =    0.800   0.800   0.800

     PseudoPot. # 3 for N  read from file:
     /storage/coda1/p-amedford6/0/shared/rich_project_chbe-medford/medford-share/data/pseudos_module/espresso/nninc/pbe/van/N.UPF
     MD5 check sum: 90d10febe142ad51ac9d5be1deb811c4
     Pseudo is Ultrasoft, Zval =  5.0
     Generated by new atomic code, or converted to UPF format
     Using radial grid of  729 points,  4 beta functions with:
                l(1) =   0
                l(2) =   0
                l(3) =   1
                l(4) =   1
     Q(r) pseudized with  8 coefficients,  rinner =    0.800   0.800   0.800

     PseudoPot. # 4 for C  read from file:
     /storage/coda1/p-amedford6/0/shared/rich_project_chbe-medford/medford-share/data/pseudos_module/espresso/nninc/pbe/van/C.UPF
     MD5 check sum: 1a69bf6b8db32088f5b2163dbdb77a27
     Pseudo is Ultrasoft, Zval =  4.0
     Generated by new atomic code, or converted to UPF format
     Using radial grid of  721 points,  4 beta functions with:
                l(1) =   0
                l(2) =   0
                l(3) =   1
                l(4) =   1
     Q(r) pseudized with  8 coefficients,  rinner =    0.800   0.800   0.800

     PseudoPot. # 5 for H  read from file:
     /storage/coda1/p-amedford6/0/shared/rich_project_chbe-medford/medford-share/data/pseudos_module/espresso/nninc/pbe/van/H.UPF
     MD5 check sum: b5ee9d7bfd3a09ee7748110bda690ff7
     Pseudo is Ultrasoft, Zval =  1.0
     Generated by new atomic code, or converted to UPF format
     Using radial grid of  615 points,  1 beta functions with:
                l(1) =   0
     Q(r) pseudized with  8 coefficients,  rinner =    0.800

     atomic species   valence    mass     pseudopotential
        Ti1           12.00    47.86700     Ti( 1.00)
        O1             6.00    15.99900     O ( 1.00)
        N1             5.00    14.00700     N ( 1.00)
        C1             4.00    12.01100     C ( 1.00)
        H1             1.00     1.00800     H ( 1.00)

     No symmetry found

   Cartesian axes

     site n.     atom                  positions (alat units)
         1           Ti1 tau(   1) = (   0.0004258   2.9801865   6.0000000  )
         2           Ti1 tau(   2) = (   3.2906075   1.4906267   6.0002472  )
         3           O1  tau(   3) = (   0.0006271   0.0005054   7.9858123  )
         4           O1  tau(   4) = (   3.2906025   0.0005020   7.3038282  )
         5           O1  tau(   5) = (   4.5942328   1.4918067   9.2879030  )
         6           O1  tau(   6) = (   1.9868534   1.4903216   9.2879459  )
         7           Ti1 tau(   7) = (   3.2907910   2.8959150   9.1758416  )
         8           Ti1 tau(   8) = (   0.0015273   1.4827037   9.2680791  )
         9           O1  tau(   9) = (   3.2949530   5.9481847  11.3666340  )
        10           O1  tau(  10) = (   0.0116148   5.9584955  10.6183126  )
        11           O1  tau(  11) = (   1.2732546   1.4916747  12.6876809  )
        12           O1  tau(  12) = (   5.3119445   1.4892451  12.6851550  )
        13           Ti1 tau(  13) = (   6.5688325   2.9465269  12.5174317  )
        14           Ti1 tau(  14) = (   3.2996026   1.2975375  12.7241829  )
        15           O1  tau(  15) = (   0.0172205   5.8793003  14.6619373  )
        16           O1  tau(  16) = (   3.2917661   0.0702926  14.0149596  )
        17           O1  tau(  17) = (   4.5643074   1.5920826  16.1346482  )
        18           O1  tau(  18) = (   2.0131957   1.5841813  16.0575481  )
        19           Ti1 tau(  19) = (   3.2662748   3.0407108  15.6947786  )
        20           Ti1 tau(  20) = (   0.0618610   1.3206105  15.7998127  )
        21           O1  tau(  21) = (   3.2904802   0.0005063   4.7018136  )
        22           O1  tau(  22) = (   0.0233933   0.1570098  17.1842078  )
        23           O1  tau(  23) = (   1.3043587   1.4918075   6.0039043  )
        24           O1  tau(  24) = (   5.2767064   1.4903225   6.0039473  )
        25           Ti1 tau(  25) = (   0.0000382   5.9609847   6.0000000  )
        26           Ti1 tau(  26) = (   3.2902200   4.4714249   6.0002472  )
        27           O1  tau(  27) = (   0.0002396   2.9813036   7.9858123  )
        28           O1  tau(  28) = (   3.2902150   2.9813002   7.3038282  )
        29           O1  tau(  29) = (   4.5938453   4.4726049   9.2879030  )
        30           O1  tau(  30) = (   1.9864658   4.4711199   9.2879459  )
        31           Ti1 tau(  31) = (   3.2891106   5.8743827   9.1763621  )
        32           Ti1 tau(  32) = (   0.0006254   4.4649316   9.2693709  )
        33           O1  tau(  33) = (   3.2948289   2.9949798  11.3176834  )
        34           O1  tau(  34) = (   0.0092240   2.9805883  10.6323155  )
        35           O1  tau(  35) = (   1.2828652   4.4571597  12.6432593  )
        36           O1  tau(  36) = (   5.3079144   4.4605214  12.6419564  )
        37           Ti1 tau(  37) = (   0.0266940   5.9154698  12.5044250  )
        38           Ti1 tau(  38) = (   3.3008436   4.3760658  12.4353554  )
        39           O1  tau(  39) = (   6.5507285   3.0461080  14.9005035  )
        40           O1  tau(  40) = (   3.2938476   3.0131494  13.9233183  )
        41           O1  tau(  41) = (   4.5350990   4.4864192  16.1518712  )
        42           O1  tau(  42) = (   1.9883536   4.4285065  16.1690201  )
        43           Ti1 tau(  43) = (   3.3916644   0.0784854  16.2809578  )
        44           Ti1 tau(  44) = (   0.0590441   4.5159846  16.0209683  )
        45           O1  tau(  45) = (   3.2900926   2.9813045   4.7018136  )
        46           O1  tau(  46) = (   1.3039711   4.4726057   6.0039043  )
        47           O1  tau(  47) = (   5.2763189   4.4711207   6.0039473  )
        48           N1  tau(  48) = (   6.2706434   3.3837210  18.0754458  )
        49           C1  tau(  49) = (   0.7642246   3.1223808  19.0622891  )
        50           H1  tau(  50) = (   1.3158356   4.0410886  19.2309436  )
        51           H1  tau(  51) = (   0.3597117   2.7583523  20.0089400  )
        52           H1  tau(  52) = (   1.4517744   2.3810259  18.6668870  )
        53           H1  tau(  53) = (   5.6745199   4.1349376  18.4206214  )
        54           H1  tau(  54) = (   5.6587021   2.5696541  18.0151127  )
        55           O1  tau(  55) = (   3.1972372   0.0910451  18.1323504  )
        56           H1  tau(  56) = (   2.2767176   0.1080423  18.4377142  )

     number of k points=    10  Fermi-Dirac smearing, width (Ry)=  0.0073
                       cart. coord. in units 2pi/alat
        k(    1) = (   0.0000000   0.0000000   0.0000000), wk =   0.1250000
        k(    2) = (   0.0000000   0.0419351   0.0000000), wk =   0.2500000
        k(    3) = (   0.0000000  -0.0838702   0.0000000), wk =   0.1250000
        k(    4) = (   0.0379955   0.0000049   0.0000000), wk =   0.2500000
        k(    5) = (   0.0379955   0.0419400   0.0000000), wk =   0.2500000
        k(    6) = (   0.0379955  -0.0838652   0.0000000), wk =   0.2500000
        k(    7) = (   0.0379955  -0.0419301   0.0000000), wk =   0.2500000
        k(    8) = (  -0.0759910  -0.0000099   0.0000000), wk =   0.1250000
        k(    9) = (  -0.0759910   0.0419252   0.0000000), wk =   0.2500000
        k(   10) = (  -0.0759910  -0.0838800   0.0000000), wk =   0.1250000

     Initial potential from superposition of free atoms

     starting charge  382.99914, renormalised to  399.00000

     negative rho (up, down):  1.588E-02 0.000E+00

     %%%%%%%%%%%%%%%%%%%%%%%%%%%%%%%%%%%%%%%%%%%%%%%%%%%%%%%%%%%%%%%%%%%%%%%%
     %                                                                      %
     % You are using vdW-DF, which was implemented by the Thonhauser group. %
     % Please cite the following two papers that made this development      %
     % possible and the two reviews that describe the various versions:     %
     %                                                                      %
     %   T. Thonhauser et al., PRL 115, 136402 (2015).                      %
     %   T. Thonhauser et al., PRB 76, 125112 (2007).                       %
     %   K. Berland et al., Rep. Prog. Phys. 78, 066501 (2015).             %
     %   D.C. Langreth et al., J. Phys.: Condens. Matter 21, 084203 (2009). %
     %                                                                      %
     %                                                                      %
     % If you are calculating the stress with vdW-DF, please also cite:     %
     %                                                                      %
     %   R. Sabatini et al., J. Phys.: Condens. Matter 24, 424209 (2012).   %
     %                                                                      %
     %%%%%%%%%%%%%%%%%%%%%%%%%%%%%%%%%%%%%%%%%%%%%%%%%%%%%%%%%%%%%%%%%%%%%%%%

     Adding external electric field

     Computed dipole along edir(3) :
        Dipole              -10.6954 Ry au,        -27.1850 Debye
        Dipole field         -0.0202 Ry au,

        Potential amp.        1.8710 Ry
        Total length         46.3494 bohr

     Starting wfcs are  302 atomic wfcs
  @ DRIVER MODE: Message from server: STATUS
  @ DRIVER MODE: Message from server: POSDATA
  @ DRIVER MODE: Reading and sharing cell
  @ DRIVER MODE: Reading and sharing positions
  @ DRIVER MODE: Received positions

     Self-consistent Calculation

     iteration #  1     ecut=    29.40 Ry     beta= 0.05
     Davidson diagonalization with overlap
     c_bands:  3 eigenvalues not converged
     c_bands:  2 eigenvalues not converged
     c_bands:  2 eigenvalues not converged
     c_bands:  5 eigenvalues not converged
     c_bands:  2 eigenvalues not converged
     c_bands:  5 eigenvalues not converged
     c_bands:  4 eigenvalues not converged
     c_bands:  3 eigenvalues not converged
     ethr =  1.00E-05,  avg # of iterations = 21.6

[...]

     total energy              =   -2438.24763895 Ry
     estimated scf accuracy    <    5770.42993972 Ry

     iteration #  2     ecut=    29.40 Ry     beta= 0.05
     Davidson diagonalization with overlap
     ethr =  1.00E-02,  avg # of iterations = 23.1

[...]

     iteration # 70     ecut=    29.40 Ry     beta= 0.05
     Davidson diagonalization with overlap
     c_bands:  1 eigenvalues not converged
     ethr =  6.15E-11,  avg # of iterations = 17.8

[...]

     total energy              =   -2955.26291398 Ry
     estimated scf accuracy    <       0.00000010 Ry

     iteration # 73     ecut=    29.40 Ry     beta= 0.05
     Davidson diagonalization with overlap
     ethr =  2.49E-11,  avg # of iterations =  6.2

     negative rho (up, down):  1.647E-02 0.000E+00

     Adding external electric field

     Computed dipole along edir(3) :
        Dipole                0.9739 Ry au,          2.4755 Debye
        Dipole field          0.0018 Ry au,

        Potential amp.       -0.1704 Ry
        Total length         46.3494 bohr

     End of self-consistent calculation

          k = 0.0000 0.0000 0.0000 ( 18029 PWs)   bands (ev):

   -55.6838 -55.6374 -55.6033 -55.5131 -55.5029 -55.4674 -55.4666 -55.4646
   -55.4325 -55.4191 -55.3683 -55.2734 -55.2275 -55.2132 -54.6132 -54.5792
   -32.1228 -32.0206 -32.0127 -31.9889 -31.9694 -31.9572 -31.9282 -31.9022
   -31.8951 -31.8836 -31.8834 -31.7907 -31.7901 -31.7753 -31.7498 -31.7462
   -31.7447 -31.7435 -31.7428 -31.7065 -31.6950 -31.6656 -31.6628 -31.6567
   -31.6511 -31.6450 -31.6369 -31.6066 -31.6046 -31.5990 -31.5936 -31.5903
   -31.5794 -31.5643 -31.5498 -31.5245 -31.4648 -31.4560 -31.4465 -31.4232
   -31.4198 -31.4150 -31.0193 -30.9328 -30.9103 -30.8368 -30.7504 -30.6386
   -16.5124 -16.2970 -16.1503 -15.9792 -15.8399 -15.8109 -15.7697 -15.5997
   -15.5069 -15.4432 -15.2429 -15.2220 -15.1761 -15.1649 -15.1595 -15.1366
   -15.1270 -15.0820 -15.0635 -15.0600 -15.0502 -15.0326 -14.9962 -14.9539
   -14.9108 -14.8897 -14.7771 -14.7208 -14.6802 -14.4691 -14.4008 -13.1117
   -12.9953  -9.9889  -6.0184  -4.5843  -4.0638  -3.7694  -3.6456  -3.5475
    -3.5362  -3.4170  -3.4075  -3.1665  -3.0429  -2.9840  -2.9056  -2.7834
    -2.7517  -2.6788  -2.6385  -2.5886  -2.5694  -2.5327  -2.4921  -2.4493
    -2.4239  -2.3961  -2.3630  -2.3067  -2.2954  -2.1970  -2.1826  -2.1599
    -2.0543  -2.0133  -1.9731  -1.9550  -1.9500  -1.9309  -1.8922  -1.8859
    -1.8662  -1.7881  -1.7190  -1.6729  -1.6381  -1.6102  -1.3325  -1.2471
    -1.2035  -1.1889  -1.0850  -1.0613  -1.0330  -1.0194  -0.9827  -0.9663
    -0.8543  -0.8380  -0.7694  -0.7195  -0.7055  -0.6676  -0.5487  -0.5120
    -0.4612  -0.4210  -0.3708  -0.3533  -0.3485  -0.2539  -0.2273  -0.1924
    -0.0840  -0.0672  -0.0048   0.0805   0.0901   0.1415   0.1652   0.2253
     0.2297   0.2844   0.3141   0.3364   0.3897   0.4221   0.4585   0.4914
     0.5086   0.6109   0.6861   0.6989   0.7957   0.8705   0.9240   1.0281
     1.0958   1.3598   1.4134   1.4370   1.6053   1.9806   2.0260   3.4443
     3.5932   3.6088   3.6834   3.6960   3.7731   3.9338   3.9586   4.0936
     4.1332

[...]

          k = 0.0380-0.0419 0.0000 ( 17876 PWs)   bands (ev):

[...]

          k =-0.0760-0.0000 0.0000 ( 17886 PWs)   bands (ev):

[...]

          k =-0.0760-0.0839 0.0000 ( 17948 PWs)   bands (ev):

   -55.6828 -55.6205 -55.6201 -55.5119 -55.4918 -55.4757 -55.4682 -55.4501
   -55.4484 -55.4127 -55.3747 -55.2687 -55.2286 -55.2178 -54.5966 -54.5956
   -31.9536 -31.9458 -31.9382 -31.9379 -31.9309 -31.9139 -31.9134 -31.8975
   -31.8531 -31.8118 -31.7937 -31.7810 -31.7770 -31.7753 -31.7536 -31.7439
   -31.7405 -31.7399 -31.7295 -31.7258 -31.7182 -31.7172 -31.7025 -31.6786
   -31.6724 -31.6681 -31.6586 -31.6482 -31.6331 -31.6320 -31.6299 -31.6245
   -31.6229 -31.5975 -31.5969 -31.5559 -31.5314 -31.4961 -31.4691 -31.4642
   -31.4489 -31.4191 -30.9234 -30.9227 -30.8328 -30.8315 -30.7940 -30.7933
   -16.4824 -15.9387 -15.8583 -15.7454 -15.6223 -15.6090 -15.4979 -15.4150
   -15.4114 -15.3809 -15.3502 -15.3225 -15.3129 -15.2959 -15.2491 -15.2054
   -15.1702 -15.1425 -15.1405 -15.0947 -15.0876 -15.0762 -15.0636 -15.0413
   -15.0075 -14.9578 -14.9433 -14.9047 -14.7666 -14.6906 -14.5915 -13.0974
   -13.0969  -9.9910  -5.9983  -4.5819  -4.0278  -3.7282  -3.0571  -2.9606
    -2.8488  -2.7244  -2.7170  -2.7002  -2.6432  -2.6123  -2.5862  -2.5450
    -2.4876  -2.4674  -2.4475  -2.4309  -2.4090  -2.3912  -2.3825  -2.3773
    -2.3408  -2.3231  -2.3147  -2.2736  -2.2660  -2.2500  -2.2296  -2.2121
    -2.1814  -2.1771  -2.1477  -2.0961  -2.0468  -1.9730  -1.8800  -1.7987
    -1.7876  -1.7691  -1.7195  -1.7129  -1.6675  -1.6598  -1.6350  -1.5491
    -1.4374  -1.3869  -1.2761  -1.2563  -1.2295  -1.1901  -1.1371  -1.1228
    -1.0773  -1.0469  -0.9871  -0.8860  -0.8559  -0.8007  -0.6873  -0.6499
    -0.6113  -0.5913  -0.5791  -0.5542  -0.5374  -0.4978  -0.4696  -0.4219
    -0.3820  -0.3479  -0.3210  -0.2955  -0.2495  -0.1470  -0.0528  -0.0153
     0.0861   0.1324   0.1744   0.2063   0.2682   0.4030   0.4299   0.5258
     0.5405   0.5696   0.6712   0.6814   0.7823   0.8065   0.8446   0.8857
     0.9104   0.9315   0.9512   1.7750   1.7835   1.8464   1.8465   3.7370
     3.9296   3.9447   3.9609   4.0057   4.0129   4.0398   4.0457   4.1122
     4.1227

     the Fermi energy is     3.4831 ev

!    total energy              =   -2955.26293511 Ry
     estimated scf accuracy    <       0.00000003 Ry
     smearing contrib. (-TS)   =      -0.01953146 Ry
     internal energy E=F+TS    =   -2955.24340365 Ry

     The total energy is F=E-TS. E is the sum of the following terms:
     one-electron contribution =  -23742.02233808 Ry
     hartree contribution      =   11963.11803394 Ry
     xc contribution           =    -489.73884102 Ry
     ewald contribution        =    9313.39795143 Ry
     electric field correction =       0.00179008 Ry

     convergence has been achieved in  73 iterations

     Forces acting on atoms (cartesian axes, Ry/au):

     atom    1 type  1   force =     0.00009394   -0.00029474    0.09414432
     atom    2 type  1   force =    -0.00003846    0.00043296   -0.17542182
     atom    3 type  2   force =     0.00003999   -0.00033367   -0.02109197
     atom    4 type  2   force =     0.00002347   -0.00197666    0.05461865
     atom    5 type  2   force =    -0.00673402   -0.00245321    0.00301335
     atom    6 type  2   force =     0.00833932   -0.00187692    0.00243339
     atom    7 type  1   force =    -0.00017714   -0.00404911    0.00898112
     atom    8 type  1   force =     0.00031764    0.00082011    0.00311906
     atom    9 type  2   force =    -0.00058129    0.00059118   -0.00018723
     atom   10 type  2   force =    -0.00139114    0.00173323   -0.00928607
     atom   11 type  2   force =     0.00004727   -0.00015760    0.00037423
     atom   12 type  2   force =    -0.00006382   -0.00011234   -0.00030916
     atom   13 type  1   force =    -0.00048817   -0.00025025    0.00005101
     atom   14 type  1   force =     0.00000977   -0.00032407   -0.00007450
     atom   15 type  2   force =    -0.00031183   -0.00002963   -0.00016483
     atom   16 type  2   force =     0.00032156   -0.00055152   -0.00038709
     atom   17 type  2   force =     0.00043875   -0.00016641   -0.00078670
     atom   18 type  2   force =    -0.00047814    0.00014854   -0.00012872
     atom   19 type  1   force =     0.00050544   -0.00063367    0.00069504
     atom   20 type  1   force =     0.00049321    0.00030946    0.00044221
     atom   21 type  2   force =     0.00007621    0.00004720    0.10325411
     atom   22 type  2   force =    -0.00047034    0.00035614    0.00021572
     atom   23 type  2   force =    -0.07191022   -0.00018743   -0.02720968
     atom   24 type  2   force =     0.07183912    0.00025273   -0.02725284
     atom   25 type  1   force =     0.00002625   -0.00023879    0.09380665
     atom   26 type  1   force =    -0.00006220   -0.00132706   -0.17560868
     atom   27 type  2   force =     0.00015631   -0.00011470   -0.01985791
     atom   28 type  2   force =     0.00006952   -0.00032369    0.04989708
     atom   29 type  2   force =    -0.00612665    0.00232098    0.00251785
     atom   30 type  2   force =     0.00761953    0.00268533    0.00196813
     atom   31 type  1   force =     0.00002483    0.00840372   -0.00275062
     atom   32 type  1   force =     0.00011835   -0.00235685    0.00259352
     atom   33 type  2   force =     0.00005102   -0.00002400   -0.00006182
     atom   34 type  2   force =    -0.00211690   -0.00248979   -0.01005555
     atom   35 type  2   force =    -0.00014217   -0.00002034    0.00052928
     atom   36 type  2   force =    -0.00007392    0.00006952   -0.00008052
     atom   37 type  1   force =     0.00016470   -0.00008470   -0.00023352
     atom   38 type  1   force =     0.00005512   -0.00018373    0.00023611
     atom   39 type  2   force =    -0.00013015    0.00009688   -0.00030285
     atom   40 type  2   force =     0.00017047   -0.00025895   -0.00010567
     atom   41 type  2   force =    -0.00036518   -0.00072509    0.00063273
     atom   42 type  2   force =     0.00049084    0.00005407   -0.00016001
     atom   43 type  1   force =    -0.00075785   -0.00059694    0.00027527
     atom   44 type  1   force =     0.00037515    0.00043049   -0.00023459
     atom   45 type  2   force =     0.00006897   -0.00007247    0.10305278
     atom   46 type  2   force =    -0.07192901   -0.00004450   -0.02724177
     atom   47 type  2   force =     0.07189235    0.00039369   -0.02729138
     atom   48 type  3   force =    -0.00067756   -0.00047339    0.00003605
     atom   49 type  4   force =     0.00000530   -0.00068078   -0.00149491
     atom   50 type  5   force =     0.00153583    0.00219952    0.00199057
     atom   51 type  5   force =     0.00042055    0.00160109    0.00035547
     atom   52 type  5   force =     0.00007524   -0.00060671   -0.00075105
     atom   53 type  5   force =    -0.00031967    0.00053864   -0.00066039
     atom   54 type  5   force =     0.00021411    0.00005387   -0.00008795
     atom   55 type  2   force =    -0.00049169    0.00034877    0.00046925
     atom   56 type  5   force =    -0.00024260    0.00013160   -0.00042315

     Total force =     0.362224     Total SCF correction =     0.000493
  @ DRIVER MODE: Message from server: STATUS
  @ DRIVER MODE: Message from server: GETFORCE
  @ DRIVER MODE: Returning v,forces,stress,ensemble

     Writing output data file ./calc.save/
  @ DRIVER MODE: Message from server: EXIT
  @ DRIVE MODE: Exiting

     General routines

     Parallel routines

   This run was terminated on:  18: 5:53  23Sep2021

   JOB DONE.