     Program PWSCF v.6.7GPU starts on  2Aug2021 at 13:11:50

     R & G space division:  proc/nbgrp/npool/nimage =      16
     Reading input from /storage/home/hcoda1/3/ntian30/research/carbon/02Aug_vib_paired/ads_slab/CH3NNHHH_a/out_0004/pw.inp
Warning: card &CELL ignored
Warning: card   CELL_DYNAMICS='IPI', ignored
Warning: card / ignored

     Current dimensions of program PWSCF are:
     Max number of different atomic species (ntypx) = 10
     Max number of k-points (npk) =  40000
     Max angular momentum in pseudopotentials (lmaxx) =  3
     Presently no symmetry can be used with electric field

     Message from routine cell_base_init:
     DEPRECATED: use true lattice parameter, not A to a.u. conversion factor

     IMPORTANT: XC functional enforced from input :
     Exchange-correlation= BEEF-VDW
                           (   1   4  43  14   2   0   0)
     Any further DFT definition will be discarded
     Please, verify this is what you really want

  @ DRIVER MODE: Connecting to
 qe_1139763_2482545.sched-torque.pace.gatech.edugnu1kn02_scratch
  using UNIX socket
  @ DRIVER MODE: Message from server: STATUS
  @ DRIVER MODE: Message from server: INIT
  @ DRIVER MODE: Receiving replica           0          -1
  @ DRIVER MODE: Receiving encoded integer          25
  @ DRIVER MODE:  SCF:  T  FORCE:  T  STRESS:  F  VC:  F  ENSEMBLE:  F
  @ DRIVER MODE:  SCF:  T  FORCE:  T  STRESS:  F  VC:  F  ENSEMBLE:  F

     Using Slab Decomposition

     bravais-lattice index     =            0
     lattice parameter (alat)  =       1.8897  a.u.
     unit-cell volume          =    6658.9804 (a.u.)^3
     number of atoms/cell      =           56
     number of atomic types    =            5
     number of electrons       =       398.00
     number of Kohn-Sham states=          209
     kinetic-energy cutoff     =      29.3995  Ry
     charge density cutoff     =     293.9946  Ry
     scf convergence threshold =      7.3E-08
     mixing beta               =       0.0500
     number of iterations used =            8  plain     mixing
     Exchange-correlation= BEEF-VDW
                           (   1   4  43  14   2   0   0)

     celldm(1)=   1.889726  celldm(2)=   0.000000  celldm(3)=   0.000000
     celldm(4)=   0.000000  celldm(5)=   0.000000  celldm(6)=   0.000000

     crystal axes: (cart. coord. in units of alat)
               a(1) = (   6.579727   0.000000   0.000000 )
               a(2) = (  -0.000775   5.961596   0.000000 )
               a(3) = (   0.000000   0.000000  25.155947 )

     reciprocal axes: (cart. coord. in units 2 pi/alat)
               b(1) = (  0.151982  0.000020  0.000000 )
               b(2) = (  0.000000  0.167740  0.000000 )
               b(3) = (  0.000000  0.000000  0.039752 )

     PseudoPot. # 1 for Ti read from file:
     /storage/coda1/p-amedford6/0/shared/rich_project_chbe-medford/medford-share/data/pseudos_module/espresso/nninc/pbe/van/Ti.UPF
     MD5 check sum: 8e4df49b7f0d34bbd5052bf3f5ea0213
     Pseudo is Ultrasoft, Zval = 12.0
     Generated by new atomic code, or converted to UPF format
     Using radial grid of  851 points,  6 beta functions with:
                l(1) =   0
                l(2) =   0
                l(3) =   1
                l(4) =   1
                l(5) =   2
                l(6) =   2
     Q(r) pseudized with  8 coefficients,  rinner =    1.000   1.000   1.000
                                                       1.000   1.000

     PseudoPot. # 2 for O  read from file:
     /storage/coda1/p-amedford6/0/shared/rich_project_chbe-medford/medford-share/data/pseudos_module/espresso/nninc/pbe/van/O.UPF
     MD5 check sum: 78c19812648e8988a0fe644b0f25305e
     Pseudo is Ultrasoft, Zval =  6.0
     Generated by new atomic code, or converted to UPF format
     Using radial grid of  737 points,  4 beta functions with:
                l(1) =   0
                l(2) =   0
                l(3) =   1
                l(4) =   1
     Q(r) pseudized with  8 coefficients,  rinner =    0.800   0.800   0.800

     PseudoPot. # 3 for N  read from file:
     /storage/coda1/p-amedford6/0/shared/rich_project_chbe-medford/medford-share/data/pseudos_module/espresso/nninc/pbe/van/N.UPF
     MD5 check sum: 90d10febe142ad51ac9d5be1deb811c4
     Pseudo is Ultrasoft, Zval =  5.0
     Generated by new atomic code, or converted to UPF format
     Using radial grid of  729 points,  4 beta functions with:
                l(1) =   0
                l(2) =   0
                l(3) =   1
                l(4) =   1
     Q(r) pseudized with  8 coefficients,  rinner =    0.800   0.800   0.800

     PseudoPot. # 4 for C  read from file:
     /storage/coda1/p-amedford6/0/shared/rich_project_chbe-medford/medford-share/data/pseudos_module/espresso/nninc/pbe/van/C.UPF
     MD5 check sum: 1a69bf6b8db32088f5b2163dbdb77a27
     Pseudo is Ultrasoft, Zval =  4.0
     Generated by new atomic code, or converted to UPF format
     Using radial grid of  721 points,  4 beta functions with:
                l(1) =   0
                l(2) =   0
                l(3) =   1
                l(4) =   1
     Q(r) pseudized with  8 coefficients,  rinner =    0.800   0.800   0.800

     PseudoPot. # 5 for H  read from file:
     /storage/coda1/p-amedford6/0/shared/rich_project_chbe-medford/medford-share/data/pseudos_module/espresso/nninc/pbe/van/H.UPF
     MD5 check sum: b5ee9d7bfd3a09ee7748110bda690ff7
     Pseudo is Ultrasoft, Zval =  1.0
     Generated by new atomic code, or converted to UPF format
     Using radial grid of  615 points,  1 beta functions with:
                l(1) =   0
     Q(r) pseudized with  8 coefficients,  rinner =    0.800

     atomic species   valence    mass     pseudopotential
        Ti1           12.00    47.86700     Ti( 1.00)
        O1             6.00    15.99900     O ( 1.00)
        N1             5.00    14.00700     N ( 1.00)
        C1             4.00    12.01100     C ( 1.00)
        H1             1.00     1.00800     H ( 1.00)

     No symmetry found

   Cartesian axes

     site n.     atom                  positions (alat units)
         1           Ti1 tau(   1) = (   0.0004258   2.9801865   6.0000000  )
         2           Ti1 tau(   2) = (   3.2906075   1.4906267   6.0002472  )
         3           O1  tau(   3) = (   0.0006271   0.0005054   7.9858123  )
         4           O1  tau(   4) = (   3.2906025   0.0005020   7.3038282  )
         5           O1  tau(   5) = (   4.5942328   1.4918067   9.2879030  )
         6           O1  tau(   6) = (   1.9868534   1.4903216   9.2879459  )
         7           Ti1 tau(   7) = (   3.2907910   2.8959150   9.1758416  )
         8           Ti1 tau(   8) = (   0.0015273   1.4827037   9.2680791  )
         9           O1  tau(   9) = (   3.2969863   5.9453513  11.3493076  )
        10           O1  tau(  10) = (   0.0116148   5.9584955  10.6183126  )
        11           O1  tau(  11) = (   1.3059050   1.4736943  12.6642453  )
        12           O1  tau(  12) = (   5.3003793   1.4775083  12.6459419  )
        13           Ti1 tau(  13) = (   0.0167275   2.9625105  12.5508078  )
        14           Ti1 tau(  14) = (   3.3131340   1.4712512  12.4909780  )
        15           O1  tau(  15) = (   6.5517612   5.9325698  14.7566896  )
        16           O1  tau(  16) = (   3.3302114   5.9429442  13.9823395  )
        17           O1  tau(  17) = (   4.5243935   1.5056208  16.2316672  )
        18           O1  tau(  18) = (   2.0170937   1.4633510  16.1378485  )
        19           Ti1 tau(  19) = (   3.2500237   2.9242626  15.6920970  )
        20           Ti1 tau(  20) = (   6.5441017   1.2779805  16.1516014  )
        21           O1  tau(  21) = (   3.2904802   0.0005063   4.7018136  )
        22           O1  tau(  22) = (   6.5540411   5.9581837  17.3465722  )
        23           O1  tau(  23) = (   1.3043587   1.4918075   6.0039043  )
        24           O1  tau(  24) = (   5.2767064   1.4903225   6.0039473  )
        25           Ti1 tau(  25) = (   0.0000382   5.9609847   6.0000000  )
        26           Ti1 tau(  26) = (   3.2902200   4.4714249   6.0002472  )
        27           O1  tau(  27) = (   0.0002396   2.9813036   7.9858123  )
        28           O1  tau(  28) = (   3.2902150   2.9813002   7.3038282  )
        29           O1  tau(  29) = (   4.5938453   4.4726049   9.2879030  )
        30           O1  tau(  30) = (   1.9864658   4.4711199   9.2879459  )
        31           Ti1 tau(  31) = (   3.2891106   5.8743827   9.1763621  )
        32           Ti1 tau(  32) = (   0.0006254   4.4649316   9.2693709  )
        33           O1  tau(  33) = (   3.2962403   2.9651072  11.3429128  )
        34           O1  tau(  34) = (   0.0092240   2.9805883  10.6323155  )
        35           O1  tau(  35) = (   1.3076126   4.4641214  12.6643835  )
        36           O1  tau(  36) = (   5.2981430   4.4591552  12.6429889  )
        37           Ti1 tau(  37) = (   0.0194730   5.9489450  12.5196332  )
        38           Ti1 tau(  38) = (   3.3150505   4.4522436  12.4946186  )
        39           O1  tau(  39) = (   6.5702761   2.9869041  14.8038460  )
        40           O1  tau(  40) = (   3.3119818   2.9576719  13.9204832  )
        41           O1  tau(  41) = (   4.5223198   4.3950437  16.2490866  )
        42           O1  tau(  42) = (   2.0356696   4.4339808  16.1311045  )
        43           Ti1 tau(  43) = (   3.3057863   5.9493229  15.7677403  )
        44           Ti1 tau(  44) = (   0.0958844   4.4293496  15.8701971  )
        45           O1  tau(  45) = (   3.2900926   2.9813045   4.7018136  )
        46           O1  tau(  46) = (   1.3039711   4.4726057   6.0039043  )
        47           O1  tau(  47) = (   5.2763189   4.4711207   6.0039473  )
        48           N1  tau(  48) = (   0.0620580   3.0475546  17.6897758  )
        49           C1  tau(  49) = (   1.1116374   2.9693208  18.6984743  )
        50           H1  tau(  50) = (   1.2951007   3.9532040  19.1583453  )
        51           H1  tau(  51) = (   0.8627774   2.2426413  19.4871689  )
        52           H1  tau(  52) = (   2.0263963   2.6228967  18.2308865  )
        53           N1  tau(  53) = (   5.4279256   3.3744730  18.4033390  )
        54           H1  tau(  54) = (   5.6103604   4.1199394  19.0852601  )
        55           H1  tau(  55) = (   4.7934260   3.8076565  17.6395878  )
        56           H1  tau(  56) = (   5.0090149   2.5598412  18.8678436  )

     number of k points=    10  Fermi-Dirac smearing, width (Ry)=  0.0073
                       cart. coord. in units 2pi/alat
        k(    1) = (   0.0000000   0.0000000   0.0000000), wk =   0.1250000
        k(    2) = (   0.0000000   0.0419351   0.0000000), wk =   0.2500000
        k(    3) = (   0.0000000  -0.0838702   0.0000000), wk =   0.1250000
        k(    4) = (   0.0379955   0.0000049   0.0000000), wk =   0.2500000
        k(    5) = (   0.0379955   0.0419400   0.0000000), wk =   0.2500000
        k(    6) = (   0.0379955  -0.0838652   0.0000000), wk =   0.2500000
        k(    7) = (   0.0379955  -0.0419301   0.0000000), wk =   0.2500000
        k(    8) = (  -0.0759910  -0.0000099   0.0000000), wk =   0.1250000
        k(    9) = (  -0.0759910   0.0419252   0.0000000), wk =   0.2500000
        k(   10) = (  -0.0759910  -0.0838800   0.0000000), wk =   0.1250000

     Initial potential from superposition of free atoms

     starting charge  381.99914, renormalised to  398.00000

     negative rho (up, down):  1.617E-02 0.000E+00

     %%%%%%%%%%%%%%%%%%%%%%%%%%%%%%%%%%%%%%%%%%%%%%%%%%%%%%%%%%%%%%%%%%%%%%%%
     %                                                                      %
     % You are using vdW-DF, which was implemented by the Thonhauser group. %
     % Please cite the following two papers that made this development      %
     % possible and the two reviews that describe the various versions:     %
     %                                                                      %
     %   T. Thonhauser et al., PRL 115, 136402 (2015).                      %
     %   T. Thonhauser et al., PRB 76, 125112 (2007).                       %
     %   K. Berland et al., Rep. Prog. Phys. 78, 066501 (2015).             %
     %   D.C. Langreth et al., J. Phys.: Condens. Matter 21, 084203 (2009). %
     %                                                                      %
     %                                                                      %
     % If you are calculating the stress with vdW-DF, please also cite:     %
     %                                                                      %
     %   R. Sabatini et al., J. Phys.: Condens. Matter 24, 424209 (2012).   %
     %                                                                      %
     %%%%%%%%%%%%%%%%%%%%%%%%%%%%%%%%%%%%%%%%%%%%%%%%%%%%%%%%%%%%%%%%%%%%%%%%

     Adding external electric field

     Computed dipole along edir(3) :
        Dipole              -10.5729 Ry au,        -26.8736 Debye
        Dipole field         -0.0200 Ry au,

        Potential amp.        1.8496 Ry
        Total length         46.3494 bohr

     Starting wfcs are  302 atomic wfcs
  @ DRIVER MODE: Message from server: STATUS
  @ DRIVER MODE: Message from server: POSDATA
  @ DRIVER MODE: Reading and sharing cell
  @ DRIVER MODE: Reading and sharing positions
  @ DRIVER MODE: Received positions

     Self-consistent Calculation

     iteration #  1     ecut=    29.40 Ry     beta= 0.05
     Davidson diagonalization with overlap
     c_bands:  3 eigenvalues not converged
     c_bands:  3 eigenvalues not converged
     c_bands:  1 eigenvalues not converged
     c_bands:  5 eigenvalues not converged
     c_bands:  5 eigenvalues not converged
     c_bands:  5 eigenvalues not converged
     c_bands:  1 eigenvalues not converged
     c_bands:  4 eigenvalues not converged
     c_bands:  3 eigenvalues not converged
     ethr =  1.00E-05,  avg # of iterations = 20.0

[...]

     total energy              =   -2442.74262619 Ry
     estimated scf accuracy    <    5591.61222594 Ry

     iteration #  2     ecut=    29.40 Ry     beta= 0.05
     Davidson diagonalization with overlap
     ethr =  1.00E-02,  avg # of iterations = 24.4

[...]

     iteration # 84     ecut=    29.40 Ry     beta= 0.05
     Davidson diagonalization with overlap
     ethr =  4.83E-11,  avg # of iterations =  7.1

[...]

     total energy              =   -2942.82504442 Ry
     estimated scf accuracy    <       0.00000008 Ry

     iteration # 85     ecut=    29.40 Ry     beta= 0.05
     Davidson diagonalization with overlap
     c_bands:  1 eigenvalues not converged
     c_bands:  1 eigenvalues not converged
     ethr =  1.99E-11,  avg # of iterations = 14.0

     negative rho (up, down):  1.410E-02 0.000E+00

     Adding external electric field

     Computed dipole along edir(3) :
        Dipole                1.6033 Ry au,          4.0752 Debye
        Dipole field          0.0030 Ry au,

        Potential amp.       -0.2805 Ry
        Total length         46.3494 bohr

     End of self-consistent calculation

          k = 0.0000 0.0000 0.0000 ( 18029 PWs)   bands (ev):

   -55.1443 -55.1076 -55.1056 -55.0715 -55.0268 -55.0116 -54.9887 -54.9457
   -54.9334 -54.9251 -54.9106 -54.9004 -54.8634 -54.7942 -54.1176 -54.0836
   -31.7241 -31.5954 -31.5131 -31.4812 -31.4366 -31.4357 -31.4334 -31.4030
   -31.3990 -31.3955 -31.3688 -31.3540 -31.3505 -31.3218 -31.3041 -31.2789
   -31.2624 -31.2584 -31.2482 -31.2429 -31.2169 -31.2109 -31.2039 -31.1771
   -31.1625 -31.1560 -31.1488 -31.1413 -31.1408 -31.1301 -31.1276 -31.1212
   -31.1047 -31.0959 -31.0896 -31.0638 -31.0611 -31.0490 -31.0421 -31.0364
   -31.0259 -30.9828 -30.5262 -30.4342 -30.4120 -30.3428 -30.2560 -30.1450
   -18.9527 -16.0081 -15.7530 -15.6180 -15.3834 -15.3315 -15.2750 -15.0675
   -15.0660 -14.9938 -14.9791 -14.9308 -14.9113 -14.8440 -14.7594 -14.7385
   -14.6708 -14.6693 -14.6391 -14.6278 -14.6273 -14.5647 -14.5547 -14.5254
   -14.5124 -14.4871 -14.3689 -14.2847 -14.2261 -13.9736 -13.5900 -12.6203
   -12.5032  -9.7544  -7.7221  -7.2186  -5.4585  -3.8127  -3.3456  -3.2806
    -3.1697  -3.1418  -3.0650  -3.0355  -2.8506  -2.8294  -2.4880  -2.4487
    -2.4020  -2.3836  -2.3621  -2.3451  -2.1766  -2.1505  -2.0783  -2.0446
    -2.0265  -1.9862  -1.9697  -1.9595  -1.9258  -1.9202  -1.9111  -1.7038
    -1.6473  -1.5521  -1.5299  -1.5051  -1.4710  -1.4359  -1.4263  -1.4233
    -1.4173  -1.4038  -1.3912  -1.3110  -1.2499  -1.1712  -1.1617  -1.1237
    -1.0225  -0.9763  -0.7746  -0.7611  -0.7157  -0.6736  -0.6109  -0.5895
    -0.5230  -0.4923  -0.4718  -0.3512  -0.3224  -0.2825  -0.2542  -0.1875
    -0.1566  -0.1118  -0.0268   0.0450   0.0790   0.0976   0.1570   0.2878
     0.2985   0.3274   0.3887   0.4520   0.4930   0.5130   0.5315   0.5697
     0.6179   0.7435   0.7886   0.8080   0.8123   0.8462   0.8688   0.9214
     0.9456   1.0050   1.0106   1.1296   1.1987   1.4285   1.4615   1.4849
     1.8171   1.8407   1.9048   2.0908   2.4789   2.5261   3.9603   4.0209
     4.0778   4.0944   4.1134   4.2021   4.2196   4.4232   4.4504   4.4542
     4.4572

[...]

          k = 0.0380-0.0419 0.0000 ( 17876 PWs)   bands (ev):

[...]

          k =-0.0760-0.0000 0.0000 ( 17886 PWs)   bands (ev):

[...]

          k =-0.0760-0.0839 0.0000 ( 17948 PWs)   bands (ev):

   -55.1287 -55.1230 -55.0885 -55.0885 -55.0162 -55.0080 -54.9993 -54.9296
   -54.9284 -54.9256 -54.9181 -54.9166 -54.8596 -54.7980 -54.1006 -54.1004
   -31.5278 -31.5249 -31.4480 -31.4262 -31.4105 -31.4105 -31.3810 -31.3809
   -31.3553 -31.3495 -31.3466 -31.3461 -31.3111 -31.2772 -31.2706 -31.2662
   -31.2648 -31.2609 -31.2590 -31.2527 -31.2214 -31.2179 -31.2154 -31.2127
   -31.2079 -31.2078 -31.1941 -31.1920 -31.1643 -31.1596 -31.1441 -31.1402
   -31.1378 -31.1372 -31.1351 -31.1270 -31.1019 -31.0991 -31.0962 -31.0727
   -31.0484 -31.0313 -30.4247 -30.4246 -30.3388 -30.3386 -30.2994 -30.2994
   -18.9479 -15.5149 -15.4051 -15.2966 -15.2313 -15.1893 -15.1375 -15.1203
   -15.1100 -15.0643 -15.0345 -14.9655 -14.9016 -14.8488 -14.8478 -14.8130
   -14.7346 -14.7208 -14.7138 -14.7032 -14.6467 -14.6400 -14.6085 -14.5876
   -14.5845 -14.5547 -14.4809 -14.4785 -14.3901 -14.1823 -13.6258 -12.6049
   -12.6047  -9.7232  -7.7191  -7.1648  -5.4616  -3.8347  -3.4348  -2.7638
    -2.6527  -2.4423  -2.4161  -2.3563  -2.3353  -2.2495  -2.1895  -2.1682
    -2.1451  -2.1110  -2.1082  -2.0836  -2.0622  -2.0079  -1.9801  -1.9687
    -1.9626  -1.9478  -1.9352  -1.9147  -1.8580  -1.8480  -1.8408  -1.7986
    -1.7873  -1.7559  -1.7495  -1.7107  -1.6941  -1.6175  -1.5253  -1.5008
    -1.4410  -1.3400  -1.3267  -1.3211  -1.2276  -1.2193  -1.1898  -1.1589
    -1.1033  -1.0041  -0.9493  -0.8739  -0.8707  -0.8390  -0.7523  -0.6901
    -0.6557  -0.6458  -0.6084  -0.5492  -0.5251  -0.4933  -0.4106  -0.3690
    -0.3422  -0.3075  -0.2123  -0.1516  -0.1288  -0.0971  -0.0936  -0.0044
     0.0287   0.0656   0.0863   0.1246   0.1511   0.2165   0.2388   0.3485
     0.4196   0.4489   0.5681   0.5916   0.6555   0.7884   0.8594   0.8999
     0.9538   1.0109   1.0381   1.1682   1.1754   1.2043   1.2939   1.3341
     1.3411   1.3542   2.2636   2.2647   2.3462   2.3464   4.0925   4.1790
     4.2222   4.2598   4.3678   4.4767   4.4954   4.5382   4.5387   4.6174
     4.6218

     the Fermi energy is     4.0126 ev

!    total energy              =   -2942.82505028 Ry
     estimated scf accuracy    <       0.00000004 Ry
     smearing contrib. (-TS)   =      -0.03687150 Ry
     internal energy E=F+TS    =   -2942.78817878 Ry

     The total energy is F=E-TS. E is the sum of the following terms:
     one-electron contribution =  -23972.11669568 Ry
     hartree contribution      =   12081.53806639 Ry
     xc contribution           =    -487.77212994 Ry
     ewald contribution        =    9435.55772938 Ry
     electric field correction =       0.00485107 Ry

     convergence has been achieved in  85 iterations

     Forces acting on atoms (cartesian axes, Ry/au):

     atom    1 type  1   force =     0.00015034   -0.00023606    0.09426032
     atom    2 type  1   force =    -0.00009507   -0.00032416   -0.17740794
     atom    3 type  2   force =     0.00005843   -0.00016406   -0.02134976
     atom    4 type  2   force =    -0.00001492   -0.00172424    0.05656847
     atom    5 type  2   force =    -0.01054634   -0.00127552    0.00624201
     atom    6 type  2   force =     0.01221326   -0.00074015    0.00571358
     atom    7 type  1   force =    -0.00033837    0.00173167   -0.01622205
     atom    8 type  1   force =    -0.00010500    0.00438172    0.00559507
     atom    9 type  2   force =     0.00000763   -0.00004088   -0.00004669
     atom   10 type  2   force =    -0.00074533   -0.00022028   -0.00044771
     atom   11 type  2   force =     0.00034558    0.00012043   -0.00020038
     atom   12 type  2   force =    -0.00052502    0.00000099   -0.00013668
     atom   13 type  1   force =     0.00002867   -0.00034311    0.00024249
     atom   14 type  1   force =     0.00057313    0.00010835   -0.00029014
     atom   15 type  2   force =    -0.00043105    0.00066051   -0.00015429
     atom   16 type  2   force =    -0.00033179    0.00020240   -0.00006693
     atom   17 type  2   force =    -0.00017328    0.00008329    0.00040696
     atom   18 type  2   force =     0.00016783    0.00031907   -0.00015715
     atom   19 type  1   force =     0.00016543    0.00015006    0.00013797
     atom   20 type  1   force =     0.00019268    0.00049534   -0.00042361
     atom   21 type  2   force =     0.00003336    0.00003901    0.10359695
     atom   22 type  2   force =    -0.00008594    0.00044479   -0.00049027
     atom   23 type  2   force =    -0.07082008   -0.00009674   -0.02719839
     atom   24 type  2   force =     0.07067498    0.00034230   -0.02722694
     atom   25 type  1   force =    -0.00009027   -0.00020514    0.09373564
     atom   26 type  1   force =    -0.00013978   -0.00032260   -0.17730454
     atom   27 type  2   force =     0.00008894   -0.00035345   -0.02046170
     atom   28 type  2   force =     0.00003214   -0.00143936    0.05587895
     atom   29 type  2   force =    -0.01091025   -0.00073674    0.00609294
     atom   30 type  2   force =     0.01246028   -0.00029453    0.00557013
     atom   31 type  1   force =    -0.00016014    0.00465040   -0.01718808
     atom   32 type  1   force =    -0.00002900   -0.00482277    0.00558975
     atom   33 type  2   force =     0.00005714    0.00012251    0.00027140
     atom   34 type  2   force =     0.00005827   -0.00085156   -0.00298726
     atom   35 type  2   force =     0.00023621    0.00003530    0.00007138
     atom   36 type  2   force =    -0.00043419    0.00015862   -0.00007169
     atom   37 type  1   force =    -0.00013320   -0.00010820   -0.00009952
     atom   38 type  1   force =     0.00043914   -0.00027655    0.00040129
     atom   39 type  2   force =    -0.00043616    0.00006047    0.00055382
     atom   40 type  2   force =    -0.00011975    0.00018442   -0.00020619
     atom   41 type  2   force =    -0.00002068    0.00033222    0.00004976
     atom   42 type  2   force =     0.00008001    0.00021955   -0.00019769
     atom   43 type  1   force =    -0.00042749    0.00049612    0.00013600
     atom   44 type  1   force =    -0.00021280    0.00030874    0.00015689
     atom   45 type  2   force =     0.00002561    0.00000665    0.10361032
     atom   46 type  2   force =    -0.07081842   -0.00004418   -0.02719709
     atom   47 type  2   force =     0.07067950    0.00037118   -0.02720131
     atom   48 type  3   force =     0.00139399   -0.00686982   -0.00069189
     atom   49 type  4   force =    -0.00045837    0.00242857   -0.00063855
     atom   50 type  5   force =     0.00073382   -0.00022260    0.00085498
     atom   51 type  5   force =    -0.00088156   -0.00032200   -0.00066496
     atom   52 type  5   force =    -0.00056953    0.00003489   -0.00009052
     atom   53 type  3   force =     0.00009293    0.00357420    0.00148893
     atom   54 type  5   force =    -0.00081254    0.00027299    0.00042346
     atom   55 type  5   force =    -0.00041478    0.00015756   -0.00043395
     atom   56 type  5   force =     0.00029177   -0.00045958   -0.00039562

     Total force =     0.365638     Total SCF correction =     0.000509
  @ DRIVER MODE: Message from server: STATUS
  @ DRIVER MODE: Message from server: GETFORCE
  @ DRIVER MODE: Returning v,forces,stress,ensemble

     Writing output data file ./calc.save/
  @ DRIVER MODE: Message from server: EXIT
  @ DRIVE MODE: Exiting

     General routines

     Parallel routines

   This run was terminated on:  13:30: 1   2Aug2021

   JOB DONE.