     Program PWSCF v.6.7GPU starts on 27Sep2021 at 16:29:48

     R & G space division:  proc/nbgrp/npool/nimage =       8
     Reading input from /storage/home/hcoda1/3/ntian30/research/carbon/CxH_vib/H2O_calc/ads_slab/CHOHO_b/out_0002/pw.inp
Warning: card &CELL ignored
Warning: card   CELL_DYNAMICS='IPI', ignored
Warning: card / ignored

     Current dimensions of program PWSCF are:
     Max number of different atomic species (ntypx) = 10
     Max number of k-points (npk) =  40000
     Max angular momentum in pseudopotentials (lmaxx) =  3
     Presently no symmetry can be used with electric field

     Message from routine cell_base_init:
     DEPRECATED: use true lattice parameter, not A to a.u. conversion factor

     IMPORTANT: XC functional enforced from input :
     Exchange-correlation= BEEF-VDW
                           (   1   4  43  14   2   0   0)
     Any further DFT definition will be discarded
     Please, verify this is what you really want

  @ DRIVER MODE: Connecting to
 qe_1139763_3000314.sched-torque.pace.gatech.edu0k7ht491_scratch
  using UNIX socket
  @ DRIVER MODE: Message from server: STATUS
  @ DRIVER MODE: Message from server: INIT
  @ DRIVER MODE: Receiving replica           0          -1
  @ DRIVER MODE: Receiving encoded integer          25
  @ DRIVER MODE:  SCF:  T  FORCE:  T  STRESS:  F  VC:  F  ENSEMBLE:  F
  @ DRIVER MODE:  SCF:  T  FORCE:  T  STRESS:  F  VC:  F  ENSEMBLE:  F

     Using Slab Decomposition

     bravais-lattice index     =            0
     lattice parameter (alat)  =       1.8897  a.u.
     unit-cell volume          =    6658.9804 (a.u.)^3
     number of atoms/cell      =           52
     number of atomic types    =            4
     number of electrons       =       396.00
     number of Kohn-Sham states=          208
     kinetic-energy cutoff     =      29.3995  Ry
     charge density cutoff     =     293.9946  Ry
     scf convergence threshold =      7.3E-08
     mixing beta               =       0.0500
     number of iterations used =            8  plain     mixing
     Exchange-correlation= BEEF-VDW
                           (   1   4  43  14   2   0   0)

     celldm(1)=   1.889726  celldm(2)=   0.000000  celldm(3)=   0.000000
     celldm(4)=   0.000000  celldm(5)=   0.000000  celldm(6)=   0.000000

     crystal axes: (cart. coord. in units of alat)
               a(1) = (   6.579727   0.000000   0.000000 )
               a(2) = (  -0.000775   5.961596   0.000000 )
               a(3) = (   0.000000   0.000000  25.155947 )

     reciprocal axes: (cart. coord. in units 2 pi/alat)
               b(1) = (  0.151982  0.000020  0.000000 )
               b(2) = (  0.000000  0.167740  0.000000 )
               b(3) = (  0.000000  0.000000  0.039752 )

     PseudoPot. # 1 for C  read from file:
     /storage/coda1/p-amedford6/0/shared/rich_project_chbe-medford/medford-share/data/pseudos_module/espresso/nninc/pbe/van/C.UPF
     MD5 check sum: 1a69bf6b8db32088f5b2163dbdb77a27
     Pseudo is Ultrasoft, Zval =  4.0
     Generated by new atomic code, or converted to UPF format
     Using radial grid of  721 points,  4 beta functions with:
                l(1) =   0
                l(2) =   0
                l(3) =   1
                l(4) =   1
     Q(r) pseudized with  8 coefficients,  rinner =    0.800   0.800   0.800

     PseudoPot. # 2 for H  read from file:
     /storage/coda1/p-amedford6/0/shared/rich_project_chbe-medford/medford-share/data/pseudos_module/espresso/nninc/pbe/van/H.UPF
     MD5 check sum: b5ee9d7bfd3a09ee7748110bda690ff7
     Pseudo is Ultrasoft, Zval =  1.0
     Generated by new atomic code, or converted to UPF format
     Using radial grid of  615 points,  1 beta functions with:
                l(1) =   0
     Q(r) pseudized with  8 coefficients,  rinner =    0.800

     PseudoPot. # 3 for O  read from file:
     /storage/coda1/p-amedford6/0/shared/rich_project_chbe-medford/medford-share/data/pseudos_module/espresso/nninc/pbe/van/O.UPF
     MD5 check sum: 78c19812648e8988a0fe644b0f25305e
     Pseudo is Ultrasoft, Zval =  6.0
     Generated by new atomic code, or converted to UPF format
     Using radial grid of  737 points,  4 beta functions with:
                l(1) =   0
                l(2) =   0
                l(3) =   1
                l(4) =   1
     Q(r) pseudized with  8 coefficients,  rinner =    0.800   0.800   0.800

     PseudoPot. # 4 for Ti read from file:
     /storage/coda1/p-amedford6/0/shared/rich_project_chbe-medford/medford-share/data/pseudos_module/espresso/nninc/pbe/van/Ti.UPF
     MD5 check sum: 8e4df49b7f0d34bbd5052bf3f5ea0213
     Pseudo is Ultrasoft, Zval = 12.0
     Generated by new atomic code, or converted to UPF format
     Using radial grid of  851 points,  6 beta functions with:
                l(1) =   0
                l(2) =   0
                l(3) =   1
                l(4) =   1
                l(5) =   2
                l(6) =   2
     Q(r) pseudized with  8 coefficients,  rinner =    1.000   1.000   1.000
                                                       1.000   1.000

     atomic species   valence    mass     pseudopotential
        C1             4.00    12.01100     C ( 1.00)
        H1             1.00     1.00800     H ( 1.00)
        O1             6.00    15.99900     O ( 1.00)
        Ti1           12.00    47.86700     Ti( 1.00)

     No symmetry found

   Cartesian axes

     site n.     atom                  positions (alat units)
         1           C1  tau(   1) = (   6.4174581   3.0630250  18.7433229  )
         2           H1  tau(   2) = (   6.4111689   4.1212957  19.1161716  )
         3           O1  tau(   3) = (   3.2904802   0.0005063   4.7018136  )
         4           O1  tau(   4) = (   3.2900926   2.9813045   4.7018136  )
         5           O1  tau(   5) = (   1.3043587   1.4918075   6.0039043  )
         6           O1  tau(   6) = (   1.3039711   4.4726057   6.0039043  )
         7           O1  tau(   7) = (   5.2767064   1.4903225   6.0039473  )
         8           O1  tau(   8) = (   5.2763189   4.4711207   6.0039473  )
         9           O1  tau(   9) = (   3.2906025   0.0005020   7.3038282  )
        10           O1  tau(  10) = (   3.2902150   2.9813002   7.3038282  )
        11           O1  tau(  11) = (   0.0006271   0.0005054   7.9858123  )
        12           O1  tau(  12) = (   0.0002396   2.9813036   7.9858123  )
        13           O1  tau(  13) = (   4.5942328   1.4918067   9.2879030  )
        14           O1  tau(  14) = (   4.5938453   4.4726049   9.2879030  )
        15           O1  tau(  15) = (   1.9868534   1.4903216   9.2879459  )
        16           O1  tau(  16) = (   1.9864658   4.4711199   9.2879459  )
        17           O1  tau(  17) = (   0.0063547   0.0038039  10.5886533  )
        18           O1  tau(  18) = (   0.0036009   2.9935247  10.5534957  )
        19           O1  tau(  19) = (   3.2887833   2.9558164  11.3026950  )
        20           O1  tau(  20) = (   3.2889155   0.0180965  11.3284547  )
        21           O1  tau(  21) = (   1.2693144   4.4854729  12.6486175  )
        22           O1  tau(  22) = (   1.2682469   1.5082983  12.6349555  )
        23           O1  tau(  23) = (   5.3117200   4.4832310  12.6447022  )
        24           O1  tau(  24) = (   5.3022439   1.5078309  12.6340177  )
        25           O1  tau(  25) = (   3.2906411   2.9682164  13.9081918  )
        26           O1  tau(  26) = (   3.2897682   5.9313675  13.9192633  )
        27           O1  tau(  27) = (   0.0102991   0.0146890  14.6966064  )
        28           O1  tau(  28) = (   6.5585574   2.9631049  14.7216645  )
        29           O1  tau(  29) = (   4.5396285   4.4015509  16.0671556  )
        30           O1  tau(  30) = (   4.5390945   1.4941059  16.1279003  )
        31           O1  tau(  31) = (   2.0082845   1.5156796  16.1272261  )
        32           O1  tau(  32) = (   2.0064512   4.3952525  16.0627866  )
        33           O1  tau(  33) = (   6.5747792   5.9015977  17.1979186  )
        34           O1  tau(  34) = (   6.5364340   3.0300823  17.4955599  )
        35           Ti1 tau(  35) = (   0.0004258   2.9801865   6.0000000  )
        36           Ti1 tau(  36) = (   0.0000382   5.9609847   6.0000000  )
        37           Ti1 tau(  37) = (   3.2906075   1.4906267   6.0002472  )
        38           Ti1 tau(  38) = (   3.2902200   4.4714249   6.0002472  )
        39           Ti1 tau(  39) = (   3.3327010   0.0642822   9.1729847  )
        40           Ti1 tau(  40) = (   3.3370945   3.0443960   9.2119432  )
        41           Ti1 tau(  41) = (   0.0627859   4.5109727   9.2698030  )
        42           Ti1 tau(  42) = (   0.0576648   1.5917673   9.3593984  )
        43           Ti1 tau(  43) = (   0.0253163   5.9063241  12.4905130  )
        44           Ti1 tau(  44) = (   3.2927504   4.6587819  12.6908054  )
        45           Ti1 tau(  45) = (   3.2752962   1.5585801  12.4345831  )
        46           Ti1 tau(  46) = (   6.5429176   2.9239390  12.8034251  )
        47           Ti1 tau(  47) = (   3.2945171   2.9475426  15.6852994  )
        48           Ti1 tau(  48) = (   3.3639256   5.9263172  16.3551506  )
        49           Ti1 tau(  49) = (   0.0620310   4.5244698  15.8688857  )
        50           Ti1 tau(  50) = (   0.0504038   1.3137671  16.0740927  )
        51           O1  tau(  51) = (   3.3002437   5.8605330  18.1582223  )
        52           H1  tau(  52) = (   3.3828385   0.6075072  18.8126307  )

     number of k points=    10  Fermi-Dirac smearing, width (Ry)=  0.0073
                       cart. coord. in units 2pi/alat
        k(    1) = (   0.0000000   0.0000000   0.0000000), wk =   0.1250000
        k(    2) = (   0.0000000   0.0419351   0.0000000), wk =   0.2500000
        k(    3) = (   0.0000000  -0.0838702   0.0000000), wk =   0.1250000
        k(    4) = (   0.0379955   0.0000049   0.0000000), wk =   0.2500000
        k(    5) = (   0.0379955   0.0419400   0.0000000), wk =   0.2500000
        k(    6) = (   0.0379955  -0.0838652   0.0000000), wk =   0.2500000
        k(    7) = (   0.0379955  -0.0419301   0.0000000), wk =   0.2500000
        k(    8) = (  -0.0759910  -0.0000099   0.0000000), wk =   0.1250000
        k(    9) = (  -0.0759910   0.0419252   0.0000000), wk =   0.2500000
        k(   10) = (  -0.0759910  -0.0838800   0.0000000), wk =   0.1250000

     Initial potential from superposition of free atoms

     starting charge  379.99919, renormalised to  396.00000

     negative rho (up, down):  1.744E-02 0.000E+00

     %%%%%%%%%%%%%%%%%%%%%%%%%%%%%%%%%%%%%%%%%%%%%%%%%%%%%%%%%%%%%%%%%%%%%%%%
     %                                                                      %
     % You are using vdW-DF, which was implemented by the Thonhauser group. %
     % Please cite the following two papers that made this development      %
     % possible and the two reviews that describe the various versions:     %
     %                                                                      %
     %   T. Thonhauser et al., PRL 115, 136402 (2015).                      %
     %   T. Thonhauser et al., PRB 76, 125112 (2007).                       %
     %   K. Berland et al., Rep. Prog. Phys. 78, 066501 (2015).             %
     %   D.C. Langreth et al., J. Phys.: Condens. Matter 21, 084203 (2009). %
     %                                                                      %
     %                                                                      %
     % If you are calculating the stress with vdW-DF, please also cite:     %
     %                                                                      %
     %   R. Sabatini et al., J. Phys.: Condens. Matter 24, 424209 (2012).   %
     %                                                                      %
     %%%%%%%%%%%%%%%%%%%%%%%%%%%%%%%%%%%%%%%%%%%%%%%%%%%%%%%%%%%%%%%%%%%%%%%%

     Adding external electric field

     Computed dipole along edir(3) :
        Dipole               -7.6492 Ry au,        -19.4423 Debye
        Dipole field         -0.0144 Ry au,

        Potential amp.        1.3381 Ry
        Total length         46.3494 bohr

     Starting wfcs are  298 atomic wfcs
  @ DRIVER MODE: Message from server: STATUS
  @ DRIVER MODE: Message from server: POSDATA
  @ DRIVER MODE: Reading and sharing cell
  @ DRIVER MODE: Reading and sharing positions
  @ DRIVER MODE: Received positions

     Self-consistent Calculation

     iteration #  1     ecut=    29.40 Ry     beta= 0.05
     Davidson diagonalization with overlap
     c_bands:  1 eigenvalues not converged
     c_bands:  2 eigenvalues not converged
     c_bands:  1 eigenvalues not converged
     c_bands:  1 eigenvalues not converged
     c_bands:  3 eigenvalues not converged
     c_bands:  1 eigenvalues not converged
     c_bands:  3 eigenvalues not converged
     c_bands:  1 eigenvalues not converged
     c_bands:  2 eigenvalues not converged
     c_bands:  1 eigenvalues not converged
     ethr =  1.00E-05,  avg # of iterations = 20.0

[...]

     total energy              =   -2670.43106812 Ry
     estimated scf accuracy    <    3232.44764387 Ry

[...]

     iteration #  3     ecut=    29.40 Ry     beta= 0.05
     Davidson diagonalization with overlap
     ethr =  1.00E-02,  avg # of iterations = 14.0

[...]

     iteration # 47     ecut=    29.40 Ry     beta= 0.05
     Davidson diagonalization with overlap
     c_bands:  1 eigenvalues not converged
     ethr =  3.39E-07,  avg # of iterations = 12.0

[...]

     total energy              =   -2962.43525459 Ry
     estimated scf accuracy    <       0.00000007 Ry

     iteration # 85     ecut=    29.40 Ry     beta= 0.05
     Davidson diagonalization with overlap
     ethr =  1.89E-11,  avg # of iterations =  5.9

     negative rho (up, down):  1.658E-02 0.000E+00

     Adding external electric field

     Computed dipole along edir(3) :
        Dipole                0.3229 Ry au,          0.8207 Debye
        Dipole field          0.0006 Ry au,

        Potential amp.       -0.0565 Ry
        Total length         46.3494 bohr

     End of self-consistent calculation

          k = 0.0000 0.0000 0.0000 ( 18029 PWs)   bands (ev):

   -56.3717 -56.3260 -56.1681 -56.0695 -56.0380 -56.0264 -55.9680 -55.9474
   -55.9142 -55.9084 -55.8893 -55.8768 -55.7939 -55.6662 -55.1526 -55.1186
   -32.8110 -32.6614 -32.6118 -32.5590 -32.5351 -32.5329 -32.5251 -32.5137
   -32.4377 -32.4346 -32.4167 -32.3996 -32.3844 -32.3504 -32.3208 -32.3193
   -32.2755 -32.2599 -32.2564 -32.2488 -32.2187 -32.2036 -32.1982 -32.1626
   -32.1536 -32.1504 -32.1388 -32.1384 -32.1354 -32.1102 -32.1014 -32.0980
   -32.0818 -32.0741 -32.0704 -32.0494 -32.0450 -32.0217 -31.9956 -31.9211
   -31.8783 -31.8760 -31.5534 -31.4830 -31.4593 -31.3700 -31.2842 -31.1730
   -19.9958 -16.9764 -16.7681 -16.6068 -16.4156 -16.3005 -16.2198 -16.0269
   -15.9185 -15.8648 -15.7880 -15.7478 -15.6676 -15.6628 -15.6527 -15.6283
   -15.5979 -15.5800 -15.5426 -15.5409 -15.5047 -15.4922 -15.4309 -15.3818
   -15.3397 -15.3111 -15.2388 -15.2269 -15.1568 -15.1493 -14.8712 -13.6545
   -13.5421  -8.1639  -5.0474  -4.8200  -4.1676  -4.1039  -4.0122  -3.9342
    -3.8528  -3.6609  -3.5653  -3.4913  -3.4061  -3.3068  -3.2548  -3.2183
    -3.1196  -3.1073  -3.0534  -3.0113  -2.9766  -2.9459  -2.9018  -2.8662
    -2.8173  -2.7890  -2.7752  -2.7313  -2.6902  -2.6756  -2.5873  -2.5689
    -2.5603  -2.5206  -2.4862  -2.4397  -2.4227  -2.3780  -2.3525  -2.3413
    -2.2240  -2.1526  -2.1404  -2.0682  -1.9426  -1.7377  -1.7008  -1.6720
    -1.6652  -1.5460  -1.5108  -1.4930  -1.4640  -1.4314  -1.3958  -1.2876
    -1.2811  -1.2214  -1.1812  -1.1679  -1.0206  -1.0033  -0.9723  -0.9007
    -0.8762  -0.8154  -0.8031  -0.6869  -0.6425  -0.6039  -0.5068  -0.4633
    -0.4453  -0.4305  -0.3861  -0.3592  -0.3579  -0.3066  -0.2298  -0.2204
    -0.1847  -0.1612  -0.1446  -0.1090  -0.0325   0.0058   0.0732   0.1500
     0.1806   0.1973   0.2628   0.3254   0.4391   0.5372   0.6654   0.8669
     0.8674   0.9888   1.0942   1.4247   1.4700   2.6450   2.8742   2.9796
     3.1339   3.1960   3.2098   3.2950   3.3319   3.4174   3.6262   3.6625

[...]

          k = 0.0380-0.0419 0.0000 ( 17876 PWs)   bands (ev):

[...]

          k =-0.0760-0.0000 0.0000 ( 17886 PWs)   bands (ev):

[...]

          k =-0.0760-0.0839 0.0000 ( 17948 PWs)   bands (ev):

   -56.3642 -56.3334 -56.1672 -56.0619 -56.0356 -56.0338 -55.9641 -55.9482
   -55.9113 -55.9021 -55.8929 -55.8881 -55.7917 -55.6683 -55.1362 -55.1349
   -32.6567 -32.6401 -32.6133 -32.6128 -32.4951 -32.4785 -32.4719 -32.4717
   -32.4132 -32.3841 -32.3711 -32.3651 -32.3538 -32.3196 -32.3100 -32.2772
   -32.2584 -32.2568 -32.2509 -32.2441 -32.2423 -32.2330 -32.2272 -32.2101
   -32.1861 -32.1809 -32.1733 -32.1621 -32.1409 -32.1402 -32.1239 -32.1161
   -32.1113 -32.1050 -32.0990 -32.0907 -32.0869 -32.0425 -31.9996 -31.9935
   -31.9226 -31.8809 -31.4728 -31.4716 -31.3682 -31.3661 -31.3271 -31.3256
   -19.9895 -16.9641 -16.2117 -16.1816 -16.0846 -16.0271 -16.0136 -15.9520
   -15.9255 -15.8787 -15.8728 -15.7928 -15.7712 -15.7614 -15.7168 -15.6961
   -15.6784 -15.6522 -15.6250 -15.5929 -15.5809 -15.5609 -15.5313 -15.4988
   -15.4487 -15.4427 -15.3791 -15.3532 -15.3284 -15.2165 -15.0276 -13.6458
   -13.6441  -8.1648  -5.0264  -4.8282  -3.6206  -3.4807  -3.4007  -3.2989
    -3.2116  -3.1612  -3.1373  -3.0994  -3.0775  -3.0270  -3.0247  -2.9809
    -2.9701  -2.9280  -2.9146  -2.8758  -2.8410  -2.8243  -2.8224  -2.8116
    -2.8105  -2.7950  -2.7632  -2.7520  -2.7352  -2.7319  -2.6809  -2.6521
    -2.6321  -2.5395  -2.4793  -2.4452  -2.3900  -2.3369  -2.3085  -2.2916
    -2.2761  -2.2284  -2.2112  -2.1830  -2.0726  -2.0311  -1.8675  -1.8073
    -1.7699  -1.7210  -1.6921  -1.6473  -1.5972  -1.5765  -1.5546  -1.5027
    -1.4924  -1.3575  -1.3534  -1.2994  -1.2160  -1.1879  -1.1801  -1.1696
    -1.1038  -1.0467  -1.0327  -1.0293  -0.9872  -0.8928  -0.8855  -0.8396
    -0.8283  -0.7923  -0.7219  -0.6529  -0.5559  -0.5221  -0.4686  -0.4391
    -0.3081  -0.2700  -0.1295  -0.1144  -0.0290   0.0113   0.0396   0.1213
     0.1431   0.1772   0.2563   0.2831   0.3659   0.4144   0.4584   0.4679
     0.5311   1.2441   1.2598   1.2768   1.2885   2.5479   3.2711   3.3736
     3.3787   3.4065   3.4193   3.5215   3.5337   3.6042   3.6402   3.6837

     the Fermi energy is     2.7863 ev

!    total energy              =   -2962.43525922 Ry
     estimated scf accuracy    <       0.00000003 Ry
     smearing contrib. (-TS)   =      -0.01288948 Ry
     internal energy E=F+TS    =   -2962.42236973 Ry

     The total energy is F=E-TS. E is the sum of the following terms:
     one-electron contribution =  -24149.93459346 Ry
     hartree contribution      =   12160.90514422 Ry
     xc contribution           =    -488.27622515 Ry
     ewald contribution        =    9514.88310789 Ry
     electric field correction =       0.00019676 Ry

     convergence has been achieved in  85 iterations

     Forces acting on atoms (cartesian axes, Ry/au):

     atom    1 type  1   force =    -0.00025378   -0.00010577    0.00026416
     atom    2 type  2   force =     0.00013459   -0.00044170   -0.00030619
     atom    3 type  3   force =    -0.00000445    0.00007876    0.10096566
     atom    4 type  3   force =    -0.00000142    0.00013952    0.10053432
     atom    5 type  3   force =    -0.07612187    0.00087235   -0.03116499
     atom    6 type  3   force =    -0.07557070   -0.00154926   -0.03117112
     atom    7 type  3   force =     0.07595354    0.00141113   -0.03123118
     atom    8 type  3   force =     0.07556591   -0.00104990   -0.03119183
     atom    9 type  3   force =     0.00102170    0.00071156    0.04692442
     atom   10 type  3   force =     0.00093826    0.00022925    0.04953304
     atom   11 type  3   force =     0.00038014   -0.00605954   -0.04130404
     atom   12 type  3   force =     0.00101472    0.00275076   -0.03527525
     atom   13 type  3   force =    -0.01263838   -0.00287450    0.00044514
     atom   14 type  3   force =    -0.01410906    0.00448253    0.00144201
     atom   15 type  3   force =     0.01210249   -0.00536712    0.00103522
     atom   16 type  3   force =     0.01170209    0.00182275    0.00133847
     atom   17 type  3   force =     0.00007268    0.00034356    0.00076558
     atom   18 type  3   force =     0.00012545   -0.00026478    0.00019969
     atom   19 type  3   force =    -0.00011227   -0.00001189    0.00023856
     atom   20 type  3   force =    -0.00006766    0.00052851   -0.00042025
     atom   21 type  3   force =     0.00031616    0.00005696   -0.00007669
     atom   22 type  3   force =    -0.00002703    0.00001485   -0.00000440
     atom   23 type  3   force =    -0.00017525    0.00003504    0.00003257
     atom   24 type  3   force =    -0.00005014    0.00000122   -0.00017547
     atom   25 type  3   force =     0.00002128    0.00020319   -0.00019984
     atom   26 type  3   force =     0.00023789    0.00059118    0.00040151
     atom   27 type  3   force =    -0.00036421   -0.00009633   -0.00059984
     atom   28 type  3   force =    -0.00036583    0.00003897   -0.00016847
     atom   29 type  3   force =     0.00091350   -0.00067587   -0.00012690
     atom   30 type  3   force =     0.00053729    0.00078385   -0.00031609
     atom   31 type  3   force =     0.00040206    0.00071298   -0.00054922
     atom   32 type  3   force =     0.00011886   -0.00034278   -0.00033057
     atom   33 type  3   force =    -0.00046597   -0.00013492    0.00085273
     atom   34 type  3   force =    -0.00012078    0.00015741   -0.00021571
     atom   35 type  4   force =    -0.00009455   -0.00132662    0.10980310
     atom   36 type  4   force =    -0.00019108    0.00142490    0.12388553
     atom   37 type  4   force =    -0.00029327    0.00759065   -0.16584658
     atom   38 type  4   force =    -0.00000499   -0.00692618   -0.16568802
     atom   39 type  4   force =     0.00075700   -0.00133036   -0.00025626
     atom   40 type  4   force =     0.00082770    0.00161432   -0.00035808
     atom   41 type  4   force =    -0.00062531   -0.00000350   -0.00007876
     atom   42 type  4   force =    -0.00071517    0.00002594   -0.00031571
     atom   43 type  4   force =     0.00017781   -0.00016373    0.00002699
     atom   44 type  4   force =     0.00025806    0.00015343   -0.00030110
     atom   45 type  4   force =     0.00008714    0.00092843   -0.00024236
     atom   46 type  4   force =     0.00007145   -0.00003267   -0.00043946
     atom   47 type  4   force =    -0.00282225    0.00021674    0.00010546
     atom   48 type  4   force =    -0.00365749   -0.00005594    0.00032285
     atom   49 type  4   force =     0.00190812    0.00071375    0.00010784
     atom   50 type  4   force =     0.00199957    0.00001887   -0.00053670
     atom   51 type  3   force =     0.00058800    0.00019047    0.00020875
     atom   52 type  2   force =     0.00061943   -0.00003050   -0.00054252

     Total force =     0.371569     Total SCF correction =     0.000411
  @ DRIVER MODE: Message from server: STATUS
  @ DRIVER MODE: Message from server: GETFORCE
  @ DRIVER MODE: Returning v,forces,stress,ensemble

     Writing output data file ./calc.save/
  @ DRIVER MODE: Message from server: EXIT
  @ DRIVE MODE: Exiting

     General routines

     Parallel routines

   This run was terminated on:  16:57:12  27Sep2021

   JOB DONE.