     Program PWSCF v.6.7GPU starts on 30Sep2021 at 13:11:56

     R & G space division:  proc/nbgrp/npool/nimage =       8
     Reading input from /storage/home/hcoda1/3/ntian30/research/carbon/CxH_vib/pristine/ads_slab/CH2N2_h/out_0004/pw.inp
Warning: card &CELL ignored
Warning: card   CELL_DYNAMICS='IPI', ignored
Warning: card / ignored

     Current dimensions of program PWSCF are:
     Max number of different atomic species (ntypx) = 10
     Max number of k-points (npk) =  40000
     Max angular momentum in pseudopotentials (lmaxx) =  3
     Presently no symmetry can be used with electric field

     Message from routine cell_base_init:
     DEPRECATED: use true lattice parameter, not A to a.u. conversion factor

     IMPORTANT: XC functional enforced from input :
     Exchange-correlation= BEEF-VDW
                           (   1   4  43  14   2   0   0)
     Any further DFT definition will be discarded
     Please, verify this is what you really want

  @ DRIVER MODE: Connecting to
 qe_1139763_3035237.sched-torque.pace.gatech.eduakgywikj_scratch
  using UNIX socket
  @ DRIVER MODE: Message from server: STATUS
  @ DRIVER MODE: Message from server: INIT
  @ DRIVER MODE: Receiving replica           0          -1
  @ DRIVER MODE: Receiving encoded integer          25
  @ DRIVER MODE:  SCF:  T  FORCE:  T  STRESS:  F  VC:  F  ENSEMBLE:  F
  @ DRIVER MODE:  SCF:  T  FORCE:  T  STRESS:  F  VC:  F  ENSEMBLE:  F

     Using Slab Decomposition

     bravais-lattice index     =            0
     lattice parameter (alat)  =       1.8897  a.u.
     unit-cell volume          =    6658.9804 (a.u.)^3
     number of atoms/cell      =           53
     number of atomic types    =            5
     number of electrons       =       400.00
     number of Kohn-Sham states=          210
     kinetic-energy cutoff     =      29.3995  Ry
     charge density cutoff     =     293.9946  Ry
     scf convergence threshold =      7.3E-08
     mixing beta               =       0.0500
     number of iterations used =            8  plain     mixing
     Exchange-correlation= BEEF-VDW
                           (   1   4  43  14   2   0   0)

     celldm(1)=   1.889726  celldm(2)=   0.000000  celldm(3)=   0.000000
     celldm(4)=   0.000000  celldm(5)=   0.000000  celldm(6)=   0.000000

     crystal axes: (cart. coord. in units of alat)
               a(1) = (   6.579727   0.000000   0.000000 )
               a(2) = (  -0.000775   5.961596   0.000000 )
               a(3) = (   0.000000   0.000000  25.155947 )

     reciprocal axes: (cart. coord. in units 2 pi/alat)
               b(1) = (  0.151982  0.000020  0.000000 )
               b(2) = (  0.000000  0.167740  0.000000 )
               b(3) = (  0.000000  0.000000  0.039752 )

     PseudoPot. # 1 for Ti read from file:
     /storage/coda1/p-amedford6/0/shared/rich_project_chbe-medford/medford-share/data/pseudos_module/espresso/nninc/pbe/van/Ti.UPF
     MD5 check sum: 8e4df49b7f0d34bbd5052bf3f5ea0213
     Pseudo is Ultrasoft, Zval = 12.0
     Generated by new atomic code, or converted to UPF format
     Using radial grid of  851 points,  6 beta functions with:
                l(1) =   0
                l(2) =   0
                l(3) =   1
                l(4) =   1
                l(5) =   2
                l(6) =   2
     Q(r) pseudized with  8 coefficients,  rinner =    1.000   1.000   1.000
                                                       1.000   1.000

     PseudoPot. # 2 for O  read from file:
     /storage/coda1/p-amedford6/0/shared/rich_project_chbe-medford/medford-share/data/pseudos_module/espresso/nninc/pbe/van/O.UPF
     MD5 check sum: 78c19812648e8988a0fe644b0f25305e
     Pseudo is Ultrasoft, Zval =  6.0
     Generated by new atomic code, or converted to UPF format
     Using radial grid of  737 points,  4 beta functions with:
                l(1) =   0
                l(2) =   0
                l(3) =   1
                l(4) =   1
     Q(r) pseudized with  8 coefficients,  rinner =    0.800   0.800   0.800

     PseudoPot. # 3 for N  read from file:
     /storage/coda1/p-amedford6/0/shared/rich_project_chbe-medford/medford-share/data/pseudos_module/espresso/nninc/pbe/van/N.UPF
     MD5 check sum: 90d10febe142ad51ac9d5be1deb811c4
     Pseudo is Ultrasoft, Zval =  5.0
     Generated by new atomic code, or converted to UPF format
     Using radial grid of  729 points,  4 beta functions with:
                l(1) =   0
                l(2) =   0
                l(3) =   1
                l(4) =   1
     Q(r) pseudized with  8 coefficients,  rinner =    0.800   0.800   0.800

     PseudoPot. # 4 for C  read from file:
     /storage/coda1/p-amedford6/0/shared/rich_project_chbe-medford/medford-share/data/pseudos_module/espresso/nninc/pbe/van/C.UPF
     MD5 check sum: 1a69bf6b8db32088f5b2163dbdb77a27
     Pseudo is Ultrasoft, Zval =  4.0
     Generated by new atomic code, or converted to UPF format
     Using radial grid of  721 points,  4 beta functions with:
                l(1) =   0
                l(2) =   0
                l(3) =   1
                l(4) =   1
     Q(r) pseudized with  8 coefficients,  rinner =    0.800   0.800   0.800

     PseudoPot. # 5 for H  read from file:
     /storage/coda1/p-amedford6/0/shared/rich_project_chbe-medford/medford-share/data/pseudos_module/espresso/nninc/pbe/van/H.UPF
     MD5 check sum: b5ee9d7bfd3a09ee7748110bda690ff7
     Pseudo is Ultrasoft, Zval =  1.0
     Generated by new atomic code, or converted to UPF format
     Using radial grid of  615 points,  1 beta functions with:
                l(1) =   0
     Q(r) pseudized with  8 coefficients,  rinner =    0.800

     atomic species   valence    mass     pseudopotential
        Ti1           12.00    47.86700     Ti( 1.00)
        O1             6.00    15.99900     O ( 1.00)
        N1             5.00    14.00700     N ( 1.00)
        C1             4.00    12.01100     C ( 1.00)
        H1             1.00     1.00800     H ( 1.00)

     No symmetry found

   Cartesian axes

     site n.     atom                  positions (alat units)
         1           Ti1 tau(   1) = (   0.0004258   2.9801865   6.0000000  )
         2           Ti1 tau(   2) = (   3.2906075   1.4906267   6.0002472  )
         3           O1  tau(   3) = (   0.0006271   0.0005054   7.9858123  )
         4           O1  tau(   4) = (   3.2906025   0.0005020   7.3038282  )
         5           O1  tau(   5) = (   4.5942328   1.4918067   9.2879030  )
         6           O1  tau(   6) = (   1.9868534   1.4903216   9.2879459  )
         7           Ti1 tau(   7) = (   3.2940346   2.8698074   9.1684565  )
         8           Ti1 tau(   8) = (   0.0030225   1.4329613   9.3767462  )
         9           O1  tau(   9) = (   3.2994152   5.9581457  11.3549906  )
        10           O1  tau(  10) = (   6.5730281   5.9481945  10.5612412  )
        11           O1  tau(  11) = (   1.2782729   1.4799297  12.6138410  )
        12           O1  tau(  12) = (   5.2754995   1.4800591  12.6632238  )
        13           Ti1 tau(  13) = (   0.0766946   2.9556037  12.8068061  )
        14           Ti1 tau(  14) = (   3.3903493   1.4788161  12.4952579  )
        15           O1  tau(  15) = (   0.0876507   5.9454885  14.6519752  )
        16           O1  tau(  16) = (   3.2436869   5.9606251  13.9358461  )
        17           O1  tau(  17) = (   4.5879952   1.4894255  15.9985222  )
        18           O1  tau(  18) = (   2.0927145   1.4923104  16.0778241  )
        19           Ti1 tau(  19) = (   3.3818532   2.9747944  15.7863222  )
        20           Ti1 tau(  20) = (   0.1331232   1.5076923  16.1442520  )
        21           O1  tau(  21) = (   3.2904802   0.0005063   4.7018136  )
        22           O1  tau(  22) = (   6.5571263   5.9613239  17.2084283  )
        23           O1  tau(  23) = (   1.3043587   1.4918075   6.0039043  )
        24           O1  tau(  24) = (   5.2767064   1.4903225   6.0039473  )
        25           Ti1 tau(  25) = (   0.0000382   5.9609847   6.0000000  )
        26           Ti1 tau(  26) = (   3.2902200   4.4714249   6.0002472  )
        27           O1  tau(  27) = (   0.0002396   2.9813036   7.9858123  )
        28           O1  tau(  28) = (   3.2902150   2.9813002   7.3038282  )
        29           O1  tau(  29) = (   4.5938453   4.4726049   9.2879030  )
        30           O1  tau(  30) = (   1.9864658   4.4711199   9.2879459  )
        31           Ti1 tau(  31) = (   3.2881238   5.8488574   9.1742270  )
        32           Ti1 tau(  32) = (   0.0015652   4.4122313   9.3797820  )
        33           O1  tau(  33) = (   3.3067820   2.9727102  11.3461643  )
        34           O1  tau(  34) = (   6.5709248   2.9657579  10.5611975  )
        35           O1  tau(  35) = (   1.2701395   4.4574477  12.6080355  )
        36           O1  tau(  36) = (   5.2774107   4.4662555  12.6593532  )
        37           Ti1 tau(  37) = (   0.0866433   5.9395267  12.8007823  )
        38           Ti1 tau(  38) = (   3.3983582   4.4424157  12.5219168  )
        39           O1  tau(  39) = (   0.0671811   2.9517497  14.6463865  )
        40           O1  tau(  40) = (   3.2450650   3.0047677  13.9292835  )
        41           O1  tau(  41) = (   4.5850435   4.4841338  15.8299482  )
        42           O1  tau(  42) = (   2.0023688   4.4342503  16.0865826  )
        43           Ti1 tau(  43) = (   3.3875004   0.1080243  15.7411054  )
        44           Ti1 tau(  44) = (   6.4704293   4.4893485  16.1236300  )
        45           O1  tau(  45) = (   3.2900926   2.9813045   4.7018136  )
        46           O1  tau(  46) = (   6.5000697   2.9773305  17.2009514  )
        47           O1  tau(  47) = (   1.3039711   4.4726057   6.0039043  )
        48           O1  tau(  48) = (   5.2763189   4.4711207   6.0039473  )
        49           N1  tau(  49) = (   3.1734193   5.1994584  17.8228359  )
        50           N1  tau(  50) = (   2.5368264   4.0434087  17.4457212  )
        51           C1  tau(  51) = (   3.6285828   5.3156434  19.0144592  )
        52           H1  tau(  52) = (   3.4938138   4.5389551  19.7603617  )
        53           H1  tau(  53) = (   4.1761532   0.2557294  19.2464809  )

     number of k points=    10  Fermi-Dirac smearing, width (Ry)=  0.0073
                       cart. coord. in units 2pi/alat
        k(    1) = (   0.0000000   0.0000000   0.0000000), wk =   0.1250000
        k(    2) = (   0.0000000   0.0419351   0.0000000), wk =   0.2500000
        k(    3) = (   0.0000000  -0.0838702   0.0000000), wk =   0.1250000
        k(    4) = (   0.0379955   0.0000049   0.0000000), wk =   0.2500000
        k(    5) = (   0.0379955   0.0419400   0.0000000), wk =   0.2500000
        k(    6) = (   0.0379955  -0.0838652   0.0000000), wk =   0.2500000
        k(    7) = (   0.0379955  -0.0419301   0.0000000), wk =   0.2500000
        k(    8) = (  -0.0759910  -0.0000099   0.0000000), wk =   0.1250000
        k(    9) = (  -0.0759910   0.0419252   0.0000000), wk =   0.2500000
        k(   10) = (  -0.0759910  -0.0838800   0.0000000), wk =   0.1250000

     Initial potential from superposition of free atoms

     starting charge  383.99917, renormalised to  400.00000

     negative rho (up, down):  1.732E-02 0.000E+00

     %%%%%%%%%%%%%%%%%%%%%%%%%%%%%%%%%%%%%%%%%%%%%%%%%%%%%%%%%%%%%%%%%%%%%%%%
     %                                                                      %
     % You are using vdW-DF, which was implemented by the Thonhauser group. %
     % Please cite the following two papers that made this development      %
     % possible and the two reviews that describe the various versions:     %
     %                                                                      %
     %   T. Thonhauser et al., PRL 115, 136402 (2015).                      %
     %   T. Thonhauser et al., PRB 76, 125112 (2007).                       %
     %   K. Berland et al., Rep. Prog. Phys. 78, 066501 (2015).             %
     %   D.C. Langreth et al., J. Phys.: Condens. Matter 21, 084203 (2009). %
     %                                                                      %
     %                                                                      %
     % If you are calculating the stress with vdW-DF, please also cite:     %
     %                                                                      %
     %   R. Sabatini et al., J. Phys.: Condens. Matter 24, 424209 (2012).   %
     %                                                                      %
     %%%%%%%%%%%%%%%%%%%%%%%%%%%%%%%%%%%%%%%%%%%%%%%%%%%%%%%%%%%%%%%%%%%%%%%%

     Adding external electric field

     Computed dipole along edir(3) :
        Dipole               -9.1452 Ry au,        -23.2449 Debye
        Dipole field         -0.0173 Ry au,

        Potential amp.        1.5998 Ry
        Total length         46.3494 bohr

     Starting wfcs are  302 atomic wfcs
  @ DRIVER MODE: Message from server: STATUS
  @ DRIVER MODE: Message from server: POSDATA
  @ DRIVER MODE: Reading and sharing cell
  @ DRIVER MODE: Reading and sharing positions
  @ DRIVER MODE: Received positions

     Self-consistent Calculation

     iteration #  1     ecut=    29.40 Ry     beta= 0.05
     Davidson diagonalization with overlap
     c_bands:  1 eigenvalues not converged
     c_bands:  1 eigenvalues not converged
     c_bands:  2 eigenvalues not converged
     c_bands:  2 eigenvalues not converged
     c_bands:  1 eigenvalues not converged
     c_bands:  2 eigenvalues not converged
     c_bands:  1 eigenvalues not converged
     c_bands:  2 eigenvalues not converged
     ethr =  1.00E-05,  avg # of iterations = 20.0

[...]

     total energy              =   -2546.78342624 Ry
     estimated scf accuracy    <    4699.55741879 Ry

     iteration #  2     ecut=    29.40 Ry     beta= 0.05
     Davidson diagonalization with overlap
     ethr =  1.00E-02,  avg # of iterations = 22.8

[...]

     iteration # 56     ecut=    29.40 Ry     beta= 0.05
     Davidson diagonalization with overlap
     c_bands:  1 eigenvalues not converged
     ethr =  8.30E-07,  avg # of iterations =  9.7

[...]

     total energy              =   -2970.21529192 Ry
     estimated scf accuracy    <       0.00000014 Ry

     iteration # 94     ecut=    29.40 Ry     beta= 0.05
     Davidson diagonalization with overlap
     ethr =  2.47E-11,  avg # of iterations =  5.0

     negative rho (up, down):  1.738E-02 0.000E+00

     Adding external electric field

     Computed dipole along edir(3) :
        Dipole                0.6310 Ry au,          1.6039 Debye
        Dipole field          0.0012 Ry au,

        Potential amp.       -0.1104 Ry
        Total length         46.3494 bohr

     End of self-consistent calculation

          k = 0.0000 0.0000 0.0000 ( 18029 PWs)   bands (ev):

   -56.1773 -56.1437 -55.8518 -55.7902 -55.7518 -55.7257 -55.5796 -55.5520
   -55.5441 -55.5179 -55.4809 -55.4652 -55.4456 -55.4067 -54.9427 -54.9087
   -32.6039 -32.4259 -32.3988 -32.3979 -32.3682 -32.3152 -32.2772 -32.2309
   -32.1520 -32.1196 -32.0813 -32.0481 -32.0407 -32.0139 -32.0096 -31.9857
   -31.9688 -31.9566 -31.9509 -31.9485 -31.9130 -31.9036 -31.8276 -31.8169
   -31.8073 -31.7904 -31.7617 -31.7605 -31.7478 -31.7469 -31.7317 -31.7249
   -31.7094 -31.7025 -31.6893 -31.6666 -31.6583 -31.6530 -31.6380 -31.6181
   -31.5847 -31.5201 -31.3421 -31.2705 -31.2467 -31.1601 -31.0751 -30.9635
   -19.5161 -16.7129 -16.4660 -16.3413 -16.2300 -15.9670 -15.8488 -15.8201
   -15.6504 -15.5395 -15.5181 -15.5033 -15.4676 -15.4187 -15.3752 -15.3187
   -15.3012 -15.2612 -15.2280 -15.1996 -15.1792 -15.1569 -15.1340 -15.0772
   -15.0726 -14.9355 -14.8172 -14.8026 -14.7866 -14.7089 -14.7019 -13.4373
   -13.3241 -11.7379  -7.3231  -5.5296  -4.9929  -4.4787  -3.9174  -3.8256
    -3.7167  -3.6568  -3.5415  -3.3091  -3.2595  -3.1697  -3.0031  -2.9763
    -2.8981  -2.8651  -2.8322  -2.8109  -2.7545  -2.7101  -2.6765  -2.6466
    -2.6109  -2.5865  -2.5701  -2.5371  -2.4885  -2.4267  -2.3982  -2.3581
    -2.3238  -2.2501  -2.1724  -2.1310  -2.1158  -2.0881  -2.0489  -1.9929
    -1.9666  -1.9576  -1.8802  -1.8603  -1.7403  -1.7136  -1.6142  -1.6082
    -1.5115  -1.4580  -1.4305  -1.3827  -1.2259  -1.1804  -1.1372  -1.1071
    -1.0914  -1.0102  -0.9876  -0.9546  -0.7884  -0.7724  -0.7357  -0.7139
    -0.6683  -0.6282  -0.5863  -0.5587  -0.5072  -0.4473  -0.3759  -0.3291
    -0.2170  -0.1652  -0.0943  -0.0699  -0.0536  -0.0175   0.0408   0.0516
     0.0823   0.0830   0.1165   0.1639   0.1769   0.2412   0.2549   0.3290
     0.3580   0.3882   0.4600   0.5979   0.6362   0.6856   0.7843   0.7977
     0.9432   1.0424   1.0839   1.3007   1.3056   1.6678   1.7398   1.8594
     3.0959   3.2767   3.3339   3.5800   3.6028   3.6785   3.7133   3.8445
     3.9100   3.9651

[...]

          k = 0.0380-0.0419 0.0000 ( 17876 PWs)   bands (ev):

[...]

          k =-0.0760-0.0000 0.0000 ( 17886 PWs)   bands (ev):

[...]

          k =-0.0760-0.0839 0.0000 ( 17948 PWs)   bands (ev):

   -56.1610 -56.1599 -55.8491 -55.7785 -55.7634 -55.7282 -55.5657 -55.5579
   -55.5360 -55.5336 -55.4653 -55.4612 -55.4590 -55.4128 -54.9257 -54.9256
   -32.4218 -32.4210 -32.4121 -32.4107 -32.3215 -32.3205 -32.2775 -32.1361
   -32.1334 -32.1065 -32.0929 -32.0804 -32.0374 -32.0188 -31.9985 -31.9902
   -31.9740 -31.9142 -31.8810 -31.8739 -31.8652 -31.8614 -31.8065 -31.8050
   -31.7939 -31.7852 -31.7842 -31.7792 -31.7771 -31.7725 -31.7699 -31.7650
   -31.7468 -31.7440 -31.7256 -31.7211 -31.6805 -31.6774 -31.6696 -31.6649
   -31.6617 -31.6303 -31.2596 -31.2596 -31.1563 -31.1561 -31.1178 -31.1176
   -19.4870 -16.6839 -16.0180 -15.9364 -15.8841 -15.8094 -15.7886 -15.6808
   -15.6686 -15.6422 -15.6409 -15.5343 -15.5238 -15.5124 -15.4800 -15.3458
   -15.3380 -15.3036 -15.2945 -15.2398 -15.2291 -15.1215 -15.1192 -15.1111
   -15.1100 -15.0186 -15.0143 -14.9554 -14.9507 -14.8667 -14.8653 -13.4269
   -13.4263 -11.7371  -7.3165  -5.5226  -4.9043  -4.1120  -3.2386  -3.1523
    -3.0783  -3.0332  -2.9842  -2.9106  -2.8827  -2.8529  -2.7877  -2.7745
    -2.7569  -2.7485  -2.6675  -2.6607  -2.6331  -2.6220  -2.5906  -2.5789
    -2.5469  -2.5422  -2.5395  -2.5039  -2.4919  -2.4895  -2.4762  -2.4668
    -2.3963  -2.3930  -2.3645  -2.3516  -2.3221  -2.0885  -2.0581  -2.0558
    -1.9784  -1.9300  -1.8726  -1.8705  -1.8589  -1.8415  -1.6600  -1.5925
    -1.5601  -1.5362  -1.5052  -1.4770  -1.4454  -1.3310  -1.2930  -1.2215
    -1.2175  -1.1491  -1.0841  -1.0357  -1.0192  -0.9590  -0.9539  -0.9367
    -0.9161  -0.8879  -0.8644  -0.7949  -0.7691  -0.7064  -0.6426  -0.6288
    -0.5245  -0.4762  -0.4633  -0.4507  -0.4327  -0.4029  -0.2923  -0.2862
    -0.0672  -0.0103   0.0612   0.1223   0.1300   0.1692   0.2069   0.3069
     0.3438   0.5110   0.5184   0.5544   0.5893   0.7128   0.7163   0.7475
     0.7608   0.8334   0.8404   1.4707   1.4727   1.5217   1.5223   1.7773
     3.6036   3.6390   3.6429   3.6565   3.6926   3.6967   3.7389   3.7644
     3.9749   4.0193

     the Fermi energy is     2.5505 ev

!    total energy              =   -2970.21529434 Ry
     estimated scf accuracy    <       0.00000002 Ry
     smearing contrib. (-TS)   =      -0.00021861 Ry
     internal energy E=F+TS    =   -2970.21507573 Ry

     The total energy is F=E-TS. E is the sum of the following terms:
     one-electron contribution =  -24504.48210353 Ry
     hartree contribution      =   12342.83563152 Ry
     xc contribution           =    -491.69364466 Ry
     ewald contribution        =    9683.12428952 Ry
     electric field correction =       0.00075143 Ry

     convergence has been achieved in  94 iterations

     Forces acting on atoms (cartesian axes, Ry/au):

     atom    1 type  1   force =     0.00006841   -0.00005012    0.14749314
     atom    2 type  1   force =    -0.00007536   -0.00169225   -0.16799772
     atom    3 type  2   force =    -0.00002734    0.00212240   -0.05939149
     atom    4 type  2   force =    -0.00002432   -0.00154228    0.04198919
     atom    5 type  2   force =    -0.02138128    0.00023034    0.00301225
     atom    6 type  2   force =     0.02080010    0.00096852    0.00408569
     atom    7 type  1   force =    -0.00000937   -0.00126232    0.00045884
     atom    8 type  1   force =     0.00008103   -0.00083496   -0.00049956
     atom    9 type  2   force =     0.00001573   -0.00051188   -0.00026800
     atom   10 type  2   force =     0.00011661   -0.00020101    0.00036178
     atom   11 type  2   force =    -0.00081801   -0.00064484   -0.00053603
     atom   12 type  2   force =    -0.00005211   -0.00027984   -0.00078861
     atom   13 type  1   force =     0.00030803    0.00042706   -0.00055866
     atom   14 type  1   force =    -0.00072507   -0.00047046    0.00024113
     atom   15 type  2   force =    -0.00047521    0.00032813   -0.00100660
     atom   16 type  2   force =     0.00032845    0.00049176   -0.00090427
     atom   17 type  2   force =     0.00019115    0.00011724   -0.00009294
     atom   18 type  2   force =    -0.00078992    0.00007274   -0.00009107
     atom   19 type  1   force =     0.00125759    0.00020419   -0.00068543
     atom   20 type  1   force =    -0.00051311   -0.00047973    0.00000167
     atom   21 type  2   force =     0.00004813   -0.00007102    0.10183939
     atom   22 type  2   force =     0.00039177    0.00072238    0.00073787
     atom   23 type  2   force =    -0.07552481    0.00024116   -0.03470424
     atom   24 type  2   force =     0.07549130    0.00069498   -0.03476463
     atom   25 type  1   force =     0.00007913   -0.00019543    0.14780337
     atom   26 type  1   force =    -0.00002018    0.00034034   -0.16804509
     atom   27 type  2   force =     0.00003263    0.00240571   -0.05906225
     atom   28 type  2   force =     0.00011410   -0.00132782    0.04064022
     atom   29 type  2   force =    -0.02166048    0.00009803    0.00330450
     atom   30 type  2   force =     0.02040628    0.00022912    0.00436147
     atom   31 type  1   force =     0.00003219    0.00074083    0.00048660
     atom   32 type  1   force =    -0.00017128    0.00039253   -0.00038430
     atom   33 type  2   force =    -0.00004319    0.00040390   -0.00035701
     atom   34 type  2   force =     0.00021272    0.00005234   -0.00002372
     atom   35 type  2   force =     0.00009184    0.00080391    0.00033626
     atom   36 type  2   force =    -0.00057221   -0.00004710   -0.00047596
     atom   37 type  1   force =     0.00028021   -0.00057133    0.00046385
     atom   38 type  1   force =    -0.00056605   -0.00051924    0.00011367
     atom   39 type  2   force =     0.00023175   -0.00038928    0.00096099
     atom   40 type  2   force =     0.00020298    0.00011628   -0.00000401
     atom   41 type  2   force =     0.00055992   -0.00036071    0.00001864
     atom   42 type  2   force =     0.00069942   -0.00020794    0.00214543
     atom   43 type  1   force =     0.00158339   -0.00027202   -0.00111038
     atom   44 type  1   force =     0.00030423    0.00060043   -0.00036312
     atom   45 type  2   force =     0.00004234   -0.00007860    0.10190672
     atom   46 type  2   force =     0.00006631   -0.00062361    0.00008169
     atom   47 type  2   force =    -0.07554855    0.00003640   -0.03468547
     atom   48 type  2   force =     0.07549858    0.00045533   -0.03479242
     atom   49 type  3   force =    -0.00445901   -0.01122268   -0.00164044
     atom   50 type  3   force =     0.00222374    0.00772785   -0.00009698
     atom   51 type  4   force =     0.00121598    0.00360131   -0.00091512
     atom   52 type  5   force =     0.00024769   -0.00092664   -0.00081876
     atom   53 type  5   force =     0.00023311    0.00015790    0.00221990

     Total force =     0.401249     Total SCF correction =     0.000335
  @ DRIVER MODE: Message from server: STATUS
  @ DRIVER MODE: Message from server: GETFORCE
  @ DRIVER MODE: Returning v,forces,stress,ensemble

     Writing output data file ./calc.save/
  @ DRIVER MODE: Message from server: EXIT
  @ DRIVE MODE: Exiting

     General routines

     Parallel routines

   This run was terminated on:  13:41: 3  30Sep2021

   JOB DONE.