     Program PWSCF v.6.7GPU starts on  9Sep2021 at  0:39: 2

     R & G space division:  proc/nbgrp/npool/nimage =      10
     Reading input from /storage/home/hcoda1/3/ntian30/research/carbon/CxH_vib/CH3_calc/ads_slab/CH3NNHHH_a/out_0008/pw.inp
Warning: card &CELL ignored
Warning: card   CELL_DYNAMICS='IPI', ignored
Warning: card / ignored

     Current dimensions of program PWSCF are:
     Max number of different atomic species (ntypx) = 10
     Max number of k-points (npk) =  40000
     Max angular momentum in pseudopotentials (lmaxx) =  3
     Presently no symmetry can be used with electric field

     Message from routine cell_base_init:
     DEPRECATED: use true lattice parameter, not A to a.u. conversion factor

     IMPORTANT: XC functional enforced from input :
     Exchange-correlation= BEEF-VDW
                           (   1   4  43  14   2   0   0)
     Any further DFT definition will be discarded
     Please, verify this is what you really want

  @ DRIVER MODE: Connecting to
 qe_1139763_2767399.sched-torque.pace.gatech.edufq5bm43d_scratch
  using UNIX socket
  @ DRIVER MODE: Message from server: STATUS
  @ DRIVER MODE: Message from server: INIT
  @ DRIVER MODE: Receiving replica           0          -1
  @ DRIVER MODE: Receiving encoded integer          25
  @ DRIVER MODE:  SCF:  T  FORCE:  T  STRESS:  F  VC:  F  ENSEMBLE:  F
  @ DRIVER MODE:  SCF:  T  FORCE:  T  STRESS:  F  VC:  F  ENSEMBLE:  F

     Using Slab Decomposition

     bravais-lattice index     =            0
     lattice parameter (alat)  =       1.8897  a.u.
     unit-cell volume          =    6658.9804 (a.u.)^3
     number of atoms/cell      =           56
     number of atomic types    =            5
     number of electrons       =       398.00
     number of Kohn-Sham states=          209
     kinetic-energy cutoff     =      29.3995  Ry
     charge density cutoff     =     293.9946  Ry
     scf convergence threshold =      7.3E-08
     mixing beta               =       0.0500
     number of iterations used =            8  plain     mixing
     Exchange-correlation= BEEF-VDW
                           (   1   4  43  14   2   0   0)

     celldm(1)=   1.889726  celldm(2)=   0.000000  celldm(3)=   0.000000
     celldm(4)=   0.000000  celldm(5)=   0.000000  celldm(6)=   0.000000

     crystal axes: (cart. coord. in units of alat)
               a(1) = (   6.579727   0.000000   0.000000 )
               a(2) = (  -0.000775   5.961596   0.000000 )
               a(3) = (   0.000000   0.000000  25.155947 )

     reciprocal axes: (cart. coord. in units 2 pi/alat)
               b(1) = (  0.151982  0.000020  0.000000 )
               b(2) = (  0.000000  0.167740  0.000000 )
               b(3) = (  0.000000  0.000000  0.039752 )

     PseudoPot. # 1 for Ti read from file:
     /storage/coda1/p-amedford6/0/shared/rich_project_chbe-medford/medford-share/data/pseudos_module/espresso/nninc/pbe/van/Ti.UPF
     MD5 check sum: 8e4df49b7f0d34bbd5052bf3f5ea0213
     Pseudo is Ultrasoft, Zval = 12.0
     Generated by new atomic code, or converted to UPF format
     Using radial grid of  851 points,  6 beta functions with:
                l(1) =   0
                l(2) =   0
                l(3) =   1
                l(4) =   1
                l(5) =   2
                l(6) =   2
     Q(r) pseudized with  8 coefficients,  rinner =    1.000   1.000   1.000
                                                       1.000   1.000

     PseudoPot. # 2 for O  read from file:
     /storage/coda1/p-amedford6/0/shared/rich_project_chbe-medford/medford-share/data/pseudos_module/espresso/nninc/pbe/van/O.UPF
     MD5 check sum: 78c19812648e8988a0fe644b0f25305e
     Pseudo is Ultrasoft, Zval =  6.0
     Generated by new atomic code, or converted to UPF format
     Using radial grid of  737 points,  4 beta functions with:
                l(1) =   0
                l(2) =   0
                l(3) =   1
                l(4) =   1
     Q(r) pseudized with  8 coefficients,  rinner =    0.800   0.800   0.800

     PseudoPot. # 3 for N  read from file:
     /storage/coda1/p-amedford6/0/shared/rich_project_chbe-medford/medford-share/data/pseudos_module/espresso/nninc/pbe/van/N.UPF
     MD5 check sum: 90d10febe142ad51ac9d5be1deb811c4
     Pseudo is Ultrasoft, Zval =  5.0
     Generated by new atomic code, or converted to UPF format
     Using radial grid of  729 points,  4 beta functions with:
                l(1) =   0
                l(2) =   0
                l(3) =   1
                l(4) =   1
     Q(r) pseudized with  8 coefficients,  rinner =    0.800   0.800   0.800

     PseudoPot. # 4 for C  read from file:
     /storage/coda1/p-amedford6/0/shared/rich_project_chbe-medford/medford-share/data/pseudos_module/espresso/nninc/pbe/van/C.UPF
     MD5 check sum: 1a69bf6b8db32088f5b2163dbdb77a27
     Pseudo is Ultrasoft, Zval =  4.0
     Generated by new atomic code, or converted to UPF format
     Using radial grid of  721 points,  4 beta functions with:
                l(1) =   0
                l(2) =   0
                l(3) =   1
                l(4) =   1
     Q(r) pseudized with  8 coefficients,  rinner =    0.800   0.800   0.800

     PseudoPot. # 5 for H  read from file:
     /storage/coda1/p-amedford6/0/shared/rich_project_chbe-medford/medford-share/data/pseudos_module/espresso/nninc/pbe/van/H.UPF
     MD5 check sum: b5ee9d7bfd3a09ee7748110bda690ff7
     Pseudo is Ultrasoft, Zval =  1.0
     Generated by new atomic code, or converted to UPF format
     Using radial grid of  615 points,  1 beta functions with:
                l(1) =   0
     Q(r) pseudized with  8 coefficients,  rinner =    0.800

     atomic species   valence    mass     pseudopotential
        Ti1           12.00    47.86700     Ti( 1.00)
        O1             6.00    15.99900     O ( 1.00)
        N1             5.00    14.00700     N ( 1.00)
        C1             4.00    12.01100     C ( 1.00)
        H1             1.00     1.00800     H ( 1.00)

     No symmetry found

   Cartesian axes

     site n.     atom                  positions (alat units)
         1           Ti1 tau(   1) = (   0.0004258   2.9801865   6.0000000  )
         2           Ti1 tau(   2) = (   3.2906075   1.4906267   6.0002472  )
         3           O1  tau(   3) = (   0.0006271   0.0005054   7.9858123  )
         4           O1  tau(   4) = (   3.2906025   0.0005020   7.3038282  )
         5           O1  tau(   5) = (   4.5942328   1.4918067   9.2879030  )
         6           O1  tau(   6) = (   1.9868534   1.4903216   9.2879459  )
         7           Ti1 tau(   7) = (   3.2907910   2.8959150   9.1758416  )
         8           Ti1 tau(   8) = (   0.0015273   1.4827037   9.2680791  )
         9           O1  tau(   9) = (   3.3120675   0.0079458  11.3762204  )
        10           O1  tau(  10) = (   0.0116148   5.9584955  10.6183126  )
        11           O1  tau(  11) = (   1.3148726   1.5133626  12.6447579  )
        12           O1  tau(  12) = (   5.3140862   1.5122126  12.6508301  )
        13           Ti1 tau(  13) = (   0.0289753   2.9995974  12.5105963  )
        14           Ti1 tau(  14) = (   3.3300932   1.5144954  12.5190352  )
        15           O1  tau(  15) = (   0.0303621   0.0967028  14.6836000  )
        16           O1  tau(  16) = (   3.3188409   0.0235386  14.0025835  )
        17           O1  tau(  17) = (   4.5661268   1.5053193  16.2317874  )
        18           O1  tau(  18) = (   2.0488868   1.5039614  16.2002260  )
        19           Ti1 tau(  19) = (   3.3211226   2.9745325  15.7560014  )
        20           Ti1 tau(  20) = (   0.0641794   1.4487855  16.0607878  )
        21           O1  tau(  21) = (   3.2904802   0.0005063   4.7018136  )
        22           O1  tau(  22) = (   0.0207051   5.8381987  17.2232637  )
        23           O1  tau(  23) = (   1.3043587   1.4918075   6.0039043  )
        24           O1  tau(  24) = (   5.2767064   1.4903225   6.0039473  )
        25           Ti1 tau(  25) = (   0.0000382   5.9609847   6.0000000  )
        26           Ti1 tau(  26) = (   3.2902200   4.4714249   6.0002472  )
        27           O1  tau(  27) = (   0.0002396   2.9813036   7.9858123  )
        28           O1  tau(  28) = (   3.2902150   2.9813002   7.3038282  )
        29           O1  tau(  29) = (   4.5938453   4.4726049   9.2879030  )
        30           O1  tau(  30) = (   1.9864658   4.4711199   9.2879459  )
        31           Ti1 tau(  31) = (   3.2891106   5.8743827   9.1763621  )
        32           Ti1 tau(  32) = (   0.0006254   4.4649316   9.2693709  )
        33           O1  tau(  33) = (   3.3137607   3.0039157  11.3695003  )
        34           O1  tau(  34) = (   0.0092240   2.9805883  10.6323155  )
        35           O1  tau(  35) = (   1.3103219   4.4840529  12.6837359  )
        36           O1  tau(  36) = (   5.3166572   4.4842854  12.6901167  )
        37           Ti1 tau(  37) = (   0.0376818   0.0300362  12.4998423  )
        38           Ti1 tau(  38) = (   3.3279277   4.4933691  12.5326681  )
        39           O1  tau(  39) = (   0.0236785   2.9473731  14.9547601  )
        40           O1  tau(  40) = (   3.3158584   2.9778716  13.9675922  )
        41           O1  tau(  41) = (   4.5769684   4.4551829  16.1482216  )
        42           O1  tau(  42) = (   2.0574928   4.4544973  16.1629196  )
        43           Ti1 tau(  43) = (   3.3270828   0.0048838  15.7999907  )
        44           Ti1 tau(  44) = (   0.0216784   4.6657176  15.8371636  )
        45           O1  tau(  45) = (   3.2900926   2.9813045   4.7018136  )
        46           O1  tau(  46) = (   1.3039711   4.4726057   6.0039043  )
        47           O1  tau(  47) = (   5.2763189   4.4711207   6.0039473  )
        48           N1  tau(  48) = (   1.0300599   3.1028741  18.8625222  )
        49           N1  tau(  49) = (   6.4629598   2.6395754  18.1308714  )
        50           C1  tau(  50) = (   0.6566364   3.8075245  20.0867497  )
        51           H1  tau(  51) = (   6.5334193   4.6337433  19.9095685  )
        52           H1  tau(  52) = (   0.2127083   3.1054723  20.7945791  )
        53           H1  tau(  53) = (   1.5644534   4.2160081  20.5287796  )
        54           H1  tau(  54) = (   5.6912064   3.3271340  18.1715891  )
        55           H1  tau(  55) = (   6.1153184   1.7991689  18.5966666  )
        56           H1  tau(  56) = (   1.4989484   3.7555826  18.2384742  )

     number of k points=    10  Fermi-Dirac smearing, width (Ry)=  0.0073
                       cart. coord. in units 2pi/alat
        k(    1) = (   0.0000000   0.0000000   0.0000000), wk =   0.1250000
        k(    2) = (   0.0000000   0.0419351   0.0000000), wk =   0.2500000
        k(    3) = (   0.0000000  -0.0838702   0.0000000), wk =   0.1250000
        k(    4) = (   0.0379955   0.0000049   0.0000000), wk =   0.2500000
        k(    5) = (   0.0379955   0.0419400   0.0000000), wk =   0.2500000
        k(    6) = (   0.0379955  -0.0838652   0.0000000), wk =   0.2500000
        k(    7) = (   0.0379955  -0.0419301   0.0000000), wk =   0.2500000
        k(    8) = (  -0.0759910  -0.0000099   0.0000000), wk =   0.1250000
        k(    9) = (  -0.0759910   0.0419252   0.0000000), wk =   0.2500000
        k(   10) = (  -0.0759910  -0.0838800   0.0000000), wk =   0.1250000

     Initial potential from superposition of free atoms

     starting charge  381.99914, renormalised to  398.00000

     negative rho (up, down):  1.340E-02 0.000E+00

     %%%%%%%%%%%%%%%%%%%%%%%%%%%%%%%%%%%%%%%%%%%%%%%%%%%%%%%%%%%%%%%%%%%%%%%%
     %                                                                      %
     % You are using vdW-DF, which was implemented by the Thonhauser group. %
     % Please cite the following two papers that made this development      %
     % possible and the two reviews that describe the various versions:     %
     %                                                                      %
     %   T. Thonhauser et al., PRL 115, 136402 (2015).                      %
     %   T. Thonhauser et al., PRB 76, 125112 (2007).                       %
     %   K. Berland et al., Rep. Prog. Phys. 78, 066501 (2015).             %
     %   D.C. Langreth et al., J. Phys.: Condens. Matter 21, 084203 (2009). %
     %                                                                      %
     %                                                                      %
     % If you are calculating the stress with vdW-DF, please also cite:     %
     %                                                                      %
     %   R. Sabatini et al., J. Phys.: Condens. Matter 24, 424209 (2012).   %
     %                                                                      %
     %%%%%%%%%%%%%%%%%%%%%%%%%%%%%%%%%%%%%%%%%%%%%%%%%%%%%%%%%%%%%%%%%%%%%%%%

     Adding external electric field

     Computed dipole along edir(3) :
        Dipole              -11.7464 Ry au,        -29.8564 Debye
        Dipole field         -0.0222 Ry au,

        Potential amp.        2.0549 Ry
        Total length         46.3494 bohr

     Starting wfcs are  302 atomic wfcs
  @ DRIVER MODE: Message from server: STATUS
  @ DRIVER MODE: Message from server: POSDATA
  @ DRIVER MODE: Reading and sharing cell
  @ DRIVER MODE: Reading and sharing positions
  @ DRIVER MODE: Received positions

     Self-consistent Calculation

     iteration #  1     ecut=    29.40 Ry     beta= 0.05
     Davidson diagonalization with overlap
     c_bands:  1 eigenvalues not converged
     c_bands:  1 eigenvalues not converged
     c_bands:  1 eigenvalues not converged
     c_bands:  3 eigenvalues not converged
     c_bands:  3 eigenvalues not converged
     c_bands:  3 eigenvalues not converged
     c_bands:  4 eigenvalues not converged
     c_bands:  2 eigenvalues not converged
     ethr =  1.00E-05,  avg # of iterations = 21.6

[...]

     total energy              =   -2428.11005456 Ry
     estimated scf accuracy    <    5789.66720636 Ry

     iteration #  2     ecut=    29.40 Ry     beta= 0.05
     Davidson diagonalization with overlap
     ethr =  1.00E-02,  avg # of iterations = 22.0

[...]

     iteration # 71     ecut=    29.40 Ry     beta= 0.05
     Davidson diagonalization with overlap
     c_bands:  2 eigenvalues not converged
     c_bands:  1 eigenvalues not converged
     ethr =  7.03E-11,  avg # of iterations = 17.9

[...]

     total energy              =   -2942.85960990 Ry
     estimated scf accuracy    <       0.00000019 Ry

     iteration # 74     ecut=    29.40 Ry     beta= 0.05
     Davidson diagonalization with overlap
     ethr =  4.79E-11,  avg # of iterations =  3.2

     negative rho (up, down):  1.465E-02 0.000E+00

     Adding external electric field

     Computed dipole along edir(3) :
        Dipole                1.2222 Ry au,          3.1065 Debye
        Dipole field          0.0023 Ry au,

        Potential amp.       -0.2138 Ry
        Total length         46.3494 bohr

     End of self-consistent calculation

          k = 0.0000 0.0000 0.0000 ( 18029 PWs)   bands (ev):

   -55.3484 -55.3114 -55.3005 -55.2690 -55.2664 -55.2322 -55.2249 -55.1896
   -55.1687 -55.1447 -55.1342 -55.1322 -55.0985 -55.0258 -54.3303 -54.2963
   -31.9168 -31.8007 -31.7930 -31.7135 -31.6640 -31.6580 -31.6512 -31.6378
   -31.5897 -31.5891 -31.5578 -31.5524 -31.5455 -31.5292 -31.5182 -31.5105
   -31.5036 -31.4882 -31.4858 -31.4659 -31.4530 -31.4450 -31.4181 -31.4144
   -31.4030 -31.4004 -31.3996 -31.3714 -31.3577 -31.3554 -31.3506 -31.3310
   -31.3278 -31.3196 -31.3186 -31.3165 -31.2823 -31.2682 -31.2605 -31.2435
   -31.2322 -31.2076 -30.7397 -30.6454 -30.6234 -30.5561 -30.4693 -30.3584
   -17.8502 -16.1845 -15.9169 -15.7769 -15.6669 -15.5481 -15.4294 -15.4100
   -15.2780 -15.1951 -15.0750 -15.0519 -15.0255 -15.0066 -14.9941 -14.9793
   -14.8937 -14.8878 -14.8703 -14.8430 -14.8366 -14.7940 -14.7865 -14.7469
   -14.7253 -14.7241 -14.5955 -14.5079 -14.4361 -14.1991 -13.1476 -12.8330
   -12.7156  -9.7435  -6.3392  -5.4033  -4.9098  -3.5357  -3.4930  -3.3683
    -3.2780  -3.2630  -3.2413  -3.1051  -2.9517  -2.7816  -2.7697  -2.7592
    -2.6382  -2.5605  -2.5543  -2.5295  -2.3779  -2.3565  -2.3053  -2.2399
    -2.2123  -2.1642  -2.1535  -2.1323  -2.1128  -2.0928  -2.0847  -1.9702
    -1.9199  -1.8272  -1.7712  -1.7439  -1.7083  -1.6805  -1.6652  -1.6381
    -1.6300  -1.5875  -1.5604  -1.5386  -1.4873  -1.3754  -1.2665  -1.2363
    -1.1395  -0.9868  -0.9496  -0.9406  -0.9287  -0.8518  -0.8356  -0.7897
    -0.7344  -0.7268  -0.6959  -0.5857  -0.5276  -0.4615  -0.3952  -0.3826
    -0.3365  -0.2747  -0.1620  -0.1381  -0.1156  -0.0904   0.0033   0.0428
     0.0879   0.1625   0.1817   0.1953   0.3021   0.3099   0.3899   0.4020
     0.4479   0.5342   0.5684   0.5907   0.5947   0.6081   0.6380   0.7053
     0.7294   0.7557   0.8308   0.9547   1.0304   1.1870   1.2500   1.2633
     1.5931   1.5972   1.6923   1.8762   2.2685   2.3168   3.7491   3.8186
     3.8935   3.9001   3.9123   3.9858   4.2231   4.2391   4.2518   4.2579
     4.2928

[...]

          k = 0.0380-0.0419 0.0000 ( 17876 PWs)   bands (ev):

[...]

          k =-0.0760-0.0000 0.0000 ( 17886 PWs)   bands (ev):

[...]

          k =-0.0760-0.0839 0.0000 ( 17948 PWs)   bands (ev):

   -55.3341 -55.3254 -55.2835 -55.2833 -55.2675 -55.2288 -55.2114 -55.2031
   -55.1531 -55.1493 -55.1480 -55.1156 -55.1153 -55.0271 -54.3133 -54.3132
   -31.7240 -31.7208 -31.7175 -31.6338 -31.6082 -31.6080 -31.6053 -31.5749
   -31.5748 -31.5566 -31.5493 -31.5469 -31.5408 -31.5106 -31.5039 -31.4860
   -31.4856 -31.4817 -31.4783 -31.4731 -31.4699 -31.4692 -31.4319 -31.4271
   -31.4249 -31.4200 -31.4159 -31.4046 -31.4032 -31.4029 -31.3959 -31.3867
   -31.3825 -31.3662 -31.3627 -31.3467 -31.3459 -31.3365 -31.2964 -31.2963
   -31.2855 -31.2369 -30.6360 -30.6360 -30.5523 -30.5522 -30.5127 -30.5126
   -17.8457 -15.7076 -15.5959 -15.5497 -15.3765 -15.3542 -15.3317 -15.3169
   -15.1888 -15.1702 -15.1423 -15.1162 -15.0912 -15.0636 -15.0524 -15.0476
   -14.9649 -14.9530 -14.9455 -14.9294 -14.8616 -14.8586 -14.8543 -14.8484
   -14.7977 -14.7952 -14.7142 -14.7013 -14.6998 -14.5012 -13.1486 -12.8171
   -12.8170  -9.7399  -6.3273  -5.4033  -4.9148  -3.4636  -2.8645  -2.8291
    -2.8056  -2.7898  -2.5921  -2.5540  -2.5171  -2.5044  -2.4054  -2.3633
    -2.3455  -2.3383  -2.2678  -2.2643  -2.2336  -2.2038  -2.1827  -2.1656
    -2.1518  -2.1301  -2.1048  -2.0758  -2.0697  -2.0542  -2.0007  -1.9976
    -1.9814  -1.9601  -1.9422  -1.9214  -1.9049  -1.8481  -1.7261  -1.7158
    -1.6612  -1.5554  -1.5509  -1.4707  -1.4655  -1.4217  -1.3935  -1.3816
    -1.3543  -1.1742  -1.1205  -1.0944  -1.0869  -1.0731  -0.9661  -0.9324
    -0.8747  -0.8584  -0.8325  -0.7344  -0.6842  -0.6800  -0.5980  -0.5666
    -0.5288  -0.4845  -0.3845  -0.3552  -0.3362  -0.3063  -0.3029  -0.2493
    -0.2439  -0.1671  -0.1194  -0.0833  -0.0689  -0.0377   0.1619   0.1713
     0.1896   0.3365   0.3594   0.4996   0.5434   0.5855   0.6461   0.6979
     0.7636   0.8043   0.9316   0.9590   0.9600   1.0302   1.0509   1.0605
     1.1082   1.1101   2.0488   2.0494   2.1366   2.1369   3.8920   3.9967
     4.0116   4.0569   4.1666   4.2410   4.2637   4.2906   4.3334   4.3363
     4.4005

     the Fermi energy is     3.8119 ev

!    total energy              =   -2942.85962202 Ry
     estimated scf accuracy    <       0.00000006 Ry
     smearing contrib. (-TS)   =      -0.03701458 Ry
     internal energy E=F+TS    =   -2942.82260743 Ry

     The total energy is F=E-TS. E is the sum of the following terms:
     one-electron contribution =  -23389.62242171 Ry
     hartree contribution      =   11787.35577448 Ry
     xc contribution           =    -487.75490177 Ry
     ewald contribution        =    9147.19612260 Ry
     electric field correction =       0.00281896 Ry

     convergence has been achieved in  74 iterations

     Forces acting on atoms (cartesian axes, Ry/au):

     atom    1 type  1   force =     0.00000313   -0.00025963    0.09309338
     atom    2 type  1   force =    -0.00014453   -0.00043598   -0.17826230
     atom    3 type  2   force =     0.00007413   -0.00009334   -0.02025357
     atom    4 type  2   force =     0.00001534   -0.00186778    0.05881367
     atom    5 type  2   force =    -0.01021081   -0.00053985    0.00773598
     atom    6 type  2   force =     0.01225704    0.00007739    0.00819525
     atom    7 type  1   force =     0.00038131    0.00328175   -0.01424673
     atom    8 type  1   force =    -0.00046076    0.00046139   -0.00454989
     atom    9 type  2   force =    -0.00002734   -0.00061289   -0.00036947
     atom   10 type  2   force =    -0.00059680    0.00091093   -0.00142443
     atom   11 type  2   force =    -0.00037044   -0.00011939    0.00023005
     atom   12 type  2   force =     0.00005663   -0.00006651    0.00003718
     atom   13 type  1   force =     0.00005103   -0.00031862    0.00019170
     atom   14 type  1   force =    -0.00037633    0.00013340    0.00041600
     atom   15 type  2   force =    -0.00012637    0.00079043    0.00021358
     atom   16 type  2   force =    -0.00008584   -0.00018217    0.00031736
     atom   17 type  2   force =    -0.00020987    0.00017567    0.00062052
     atom   18 type  2   force =     0.00028866   -0.00025363   -0.00016156
     atom   19 type  1   force =     0.00029416    0.00031456    0.00093272
     atom   20 type  1   force =    -0.00031598   -0.00080179    0.00022744
     atom   21 type  2   force =    -0.00000024   -0.00010298    0.10396458
     atom   22 type  2   force =    -0.00017276   -0.00004878   -0.00068637
     atom   23 type  2   force =    -0.07035929   -0.00022830   -0.02687312
     atom   24 type  2   force =     0.07025607    0.00019821   -0.02695494
     atom   25 type  1   force =     0.00002649   -0.00027065    0.09275179
     atom   26 type  1   force =    -0.00012768   -0.00044261   -0.17829190
     atom   27 type  2   force =     0.00013934   -0.00032667   -0.01927865
     atom   28 type  2   force =     0.00008170   -0.00155067    0.05821319
     atom   29 type  2   force =    -0.01021022   -0.00032686    0.00695236
     atom   30 type  2   force =     0.01216026   -0.00008463    0.00748901
     atom   31 type  1   force =     0.00039122    0.00495973   -0.01539762
     atom   32 type  1   force =    -0.00037498   -0.00033262   -0.00465448
     atom   33 type  2   force =    -0.00022046   -0.00048181    0.00015600
     atom   34 type  2   force =    -0.00014398    0.00364395   -0.00060850
     atom   35 type  2   force =     0.00003610   -0.00056473    0.00031665
     atom   36 type  2   force =    -0.00019570   -0.00053042   -0.00003293
     atom   37 type  1   force =    -0.00025204   -0.00048612    0.00050240
     atom   38 type  1   force =    -0.00019570   -0.00090631    0.00046450
     atom   39 type  2   force =    -0.00050331   -0.00053418    0.00050406
     atom   40 type  2   force =     0.00001475   -0.00049197   -0.00042752
     atom   41 type  2   force =    -0.00081984   -0.00012131   -0.00016670
     atom   42 type  2   force =     0.00031289   -0.00025740   -0.00029768
     atom   43 type  1   force =    -0.00000197   -0.00035080   -0.00004246
     atom   44 type  1   force =    -0.00009442   -0.00064688    0.00077795
     atom   45 type  2   force =     0.00000562   -0.00014538    0.10392708
     atom   46 type  2   force =    -0.07040671   -0.00017871   -0.02688708
     atom   47 type  2   force =     0.07026801    0.00026142   -0.02695613
     atom   48 type  3   force =     0.00625764    0.00424940    0.00163213
     atom   49 type  3   force =    -0.01786665    0.00106227    0.00017119
     atom   50 type  4   force =    -0.00157059   -0.00020229    0.00024625
     atom   51 type  5   force =    -0.00067980   -0.00001430   -0.00013660
     atom   52 type  5   force =     0.00024604   -0.00015291    0.00032209
     atom   53 type  5   force =     0.00093185    0.00020890    0.00091787
     atom   54 type  5   force =     0.00780459   -0.00592522   -0.00161702
     atom   55 type  5   force =     0.00369232    0.00134538   -0.00235154
     atom   56 type  5   force =     0.00107510   -0.00081769    0.00059531

     Total force =     0.366814     Total SCF correction =     0.000452
  @ DRIVER MODE: Message from server: STATUS
  @ DRIVER MODE: Message from server: GETFORCE
  @ DRIVER MODE: Returning v,forces,stress,ensemble

     Writing output data file ./calc.save/
  @ DRIVER MODE: Message from server: EXIT
  @ DRIVE MODE: Exiting

     General routines

     Parallel routines

   This run was terminated on:   0:58:32   9Sep2021

   JOB DONE.