     Program PWSCF v.6.7GPU starts on 22Sep2021 at 16:43:39

     R & G space division:  proc/nbgrp/npool/nimage =      10
     Reading input from /storage/home/hcoda1/3/ntian30/research/carbon/CxH_vib/H2O_calc/ads_slab/CH2HO_a/out_0001/pw.inp
Warning: card &CELL ignored
Warning: card   CELL_DYNAMICS='IPI', ignored
Warning: card / ignored

     Current dimensions of program PWSCF are:
     Max number of different atomic species (ntypx) = 10
     Max number of k-points (npk) =  40000
     Max angular momentum in pseudopotentials (lmaxx) =  3
     Presently no symmetry can be used with electric field

     Message from routine cell_base_init:
     DEPRECATED: use true lattice parameter, not A to a.u. conversion factor

     IMPORTANT: XC functional enforced from input :
     Exchange-correlation= BEEF-VDW
                           (   1   4  43  14   2   0   0)
     Any further DFT definition will be discarded
     Please, verify this is what you really want

  @ DRIVER MODE: Connecting to
 qe_1139763_2937324.sched-torque.pace.gatech.eduwcv6qkfp_scratch
  using UNIX socket
  @ DRIVER MODE: Message from server: STATUS
  @ DRIVER MODE: Message from server: INIT
  @ DRIVER MODE: Receiving replica           0          -1
  @ DRIVER MODE: Receiving encoded integer          25
  @ DRIVER MODE:  SCF:  T  FORCE:  T  STRESS:  F  VC:  F  ENSEMBLE:  F
  @ DRIVER MODE:  SCF:  T  FORCE:  T  STRESS:  F  VC:  F  ENSEMBLE:  F

     Using Slab Decomposition

     bravais-lattice index     =            0
     lattice parameter (alat)  =       1.8897  a.u.
     unit-cell volume          =    6658.9804 (a.u.)^3
     number of atoms/cell      =           52
     number of atomic types    =            4
     number of electrons       =       391.00
     number of Kohn-Sham states=          205
     kinetic-energy cutoff     =      29.3995  Ry
     charge density cutoff     =     293.9946  Ry
     scf convergence threshold =      7.3E-08
     mixing beta               =       0.0500
     number of iterations used =            8  plain     mixing
     Exchange-correlation= BEEF-VDW
                           (   1   4  43  14   2   0   0)

     celldm(1)=   1.889726  celldm(2)=   0.000000  celldm(3)=   0.000000
     celldm(4)=   0.000000  celldm(5)=   0.000000  celldm(6)=   0.000000

     crystal axes: (cart. coord. in units of alat)
               a(1) = (   6.579727   0.000000   0.000000 )
               a(2) = (  -0.000775   5.961596   0.000000 )
               a(3) = (   0.000000   0.000000  25.155947 )

     reciprocal axes: (cart. coord. in units 2 pi/alat)
               b(1) = (  0.151982  0.000020  0.000000 )
               b(2) = (  0.000000  0.167740  0.000000 )
               b(3) = (  0.000000  0.000000  0.039752 )

     PseudoPot. # 1 for Ti read from file:
     /storage/coda1/p-amedford6/0/shared/rich_project_chbe-medford/medford-share/data/pseudos_module/espresso/nninc/pbe/van/Ti.UPF
     MD5 check sum: 8e4df49b7f0d34bbd5052bf3f5ea0213
     Pseudo is Ultrasoft, Zval = 12.0
     Generated by new atomic code, or converted to UPF format
     Using radial grid of  851 points,  6 beta functions with:
                l(1) =   0
                l(2) =   0
                l(3) =   1
                l(4) =   1
                l(5) =   2
                l(6) =   2
     Q(r) pseudized with  8 coefficients,  rinner =    1.000   1.000   1.000
                                                       1.000   1.000

     PseudoPot. # 2 for O  read from file:
     /storage/coda1/p-amedford6/0/shared/rich_project_chbe-medford/medford-share/data/pseudos_module/espresso/nninc/pbe/van/O.UPF
     MD5 check sum: 78c19812648e8988a0fe644b0f25305e
     Pseudo is Ultrasoft, Zval =  6.0
     Generated by new atomic code, or converted to UPF format
     Using radial grid of  737 points,  4 beta functions with:
                l(1) =   0
                l(2) =   0
                l(3) =   1
                l(4) =   1
     Q(r) pseudized with  8 coefficients,  rinner =    0.800   0.800   0.800

     PseudoPot. # 3 for C  read from file:
     /storage/coda1/p-amedford6/0/shared/rich_project_chbe-medford/medford-share/data/pseudos_module/espresso/nninc/pbe/van/C.UPF
     MD5 check sum: 1a69bf6b8db32088f5b2163dbdb77a27
     Pseudo is Ultrasoft, Zval =  4.0
     Generated by new atomic code, or converted to UPF format
     Using radial grid of  721 points,  4 beta functions with:
                l(1) =   0
                l(2) =   0
                l(3) =   1
                l(4) =   1
     Q(r) pseudized with  8 coefficients,  rinner =    0.800   0.800   0.800

     PseudoPot. # 4 for H  read from file:
     /storage/coda1/p-amedford6/0/shared/rich_project_chbe-medford/medford-share/data/pseudos_module/espresso/nninc/pbe/van/H.UPF
     MD5 check sum: b5ee9d7bfd3a09ee7748110bda690ff7
     Pseudo is Ultrasoft, Zval =  1.0
     Generated by new atomic code, or converted to UPF format
     Using radial grid of  615 points,  1 beta functions with:
                l(1) =   0
     Q(r) pseudized with  8 coefficients,  rinner =    0.800

     atomic species   valence    mass     pseudopotential
        Ti1           12.00    47.86700     Ti( 1.00)
        O1             6.00    15.99900     O ( 1.00)
        C1             4.00    12.01100     C ( 1.00)
        H1             1.00     1.00800     H ( 1.00)

     No symmetry found

   Cartesian axes

     site n.     atom                  positions (alat units)
         1           Ti1 tau(   1) = (   0.0004258   2.9801865   6.0000000  )
         2           Ti1 tau(   2) = (   3.2906075   1.4906267   6.0002472  )
         3           O1  tau(   3) = (   0.0006271   0.0005054   7.9858123  )
         4           O1  tau(   4) = (   3.2906025   0.0005020   7.3038282  )
         5           O1  tau(   5) = (   4.5942328   1.4918067   9.2879030  )
         6           O1  tau(   6) = (   1.9868534   1.4903216   9.2879459  )
         7           Ti1 tau(   7) = (   3.2576197   2.8654215   9.2214558  )
         8           Ti1 tau(   8) = (   6.5344909   1.4429808   9.3601258  )
         9           O1  tau(   9) = (   3.2692782   5.9266415  11.3199434  )
        10           O1  tau(  10) = (   6.5685443   5.9434748  10.5851361  )
        11           O1  tau(  11) = (   1.2543606   1.4786140  12.6270584  )
        12           O1  tau(  12) = (   5.2804994   1.4734118  12.6291387  )
        13           Ti1 tau(  13) = (   6.5561640   2.8465321  12.8092297  )
        14           Ti1 tau(  14) = (   3.2590950   1.2910582  12.6820668  )
        15           O1  tau(  15) = (   6.5637791   5.9505241  14.6246090  )
        16           O1  tau(  16) = (   3.2632455   0.0300109  13.9168947  )
        17           O1  tau(  17) = (   4.5093043   1.5331652  16.1230905  )
        18           O1  tau(  18) = (   1.9844652   1.5452522  16.1286669  )
        19           Ti1 tau(  19) = (   3.2766647   3.0056044  15.6806532  )
        20           Ti1 tau(  20) = (   0.0376264   1.5104518  16.1289793  )
        21           O1  tau(  21) = (   3.2904802   0.0005063   4.7018136  )
        22           O1  tau(  22) = (   6.5370995   5.9187843  17.1758003  )
        23           O1  tau(  23) = (   1.3043587   1.4918075   6.0039043  )
        24           O1  tau(  24) = (   5.2767064   1.4903225   6.0039473  )
        25           Ti1 tau(  25) = (   0.0000382   5.9609847   6.0000000  )
        26           Ti1 tau(  26) = (   3.2902200   4.4714249   6.0002472  )
        27           O1  tau(  27) = (   0.0002396   2.9813036   7.9858123  )
        28           O1  tau(  28) = (   3.2902150   2.9813002   7.3038282  )
        29           O1  tau(  29) = (   4.5938453   4.4726049   9.2879030  )
        30           O1  tau(  30) = (   1.9864658   4.4711199   9.2879459  )
        31           Ti1 tau(  31) = (   3.2565375   5.8496818   9.1814359  )
        32           Ti1 tau(  32) = (   6.5349656   4.3900073   9.3400910  )
        33           O1  tau(  33) = (   3.2728704   3.0037829  11.2907943  )
        34           O1  tau(  34) = (   6.5689136   2.9626257  10.5472476  )
        35           O1  tau(  35) = (   1.2549189   4.4436098  12.6280720  )
        36           O1  tau(  36) = (   5.2752285   4.4450423  12.6314263  )
        37           Ti1 tau(  37) = (   6.5445616   5.8332433  12.5976854  )
        38           Ti1 tau(  38) = (   3.2543598   4.3897341  12.4334224  )
        39           O1  tau(  39) = (   6.5579435   2.9355163  14.7117218  )
        40           O1  tau(  40) = (   3.2602875   2.9656724  13.9017019  )
        41           O1  tau(  41) = (   4.5395605   4.4315404  16.0360363  )
        42           O1  tau(  42) = (   2.0063696   4.4444213  16.0824092  )
        43           Ti1 tau(  43) = (   3.2990179   0.0081159  16.3450624  )
        44           Ti1 tau(  44) = (   6.5722952   4.6241161  15.8901152  )
        45           O1  tau(  45) = (   3.2900926   2.9813045   4.7018136  )
        46           O1  tau(  46) = (   1.3039711   4.4726057   6.0039043  )
        47           O1  tau(  47) = (   5.2763189   4.4711207   6.0039473  )
        48           C1  tau(  48) = (   6.5266691   2.9215611  17.7332970  )
        49           H1  tau(  49) = (   0.8393079   3.1163452  18.3454380  )
        50           H1  tau(  50) = (   5.6239513   3.1093896  18.3013171  )
        51           O1  tau(  51) = (   3.3457726   5.9061862  18.1608053  )
        52           H1  tau(  52) = (   4.0847859   0.3069366  18.6733355  )

     number of k points=    10  Fermi-Dirac smearing, width (Ry)=  0.0073
                       cart. coord. in units 2pi/alat
        k(    1) = (   0.0000000   0.0000000   0.0000000), wk =   0.1250000
        k(    2) = (   0.0000000   0.0419351   0.0000000), wk =   0.2500000
        k(    3) = (   0.0000000  -0.0838702   0.0000000), wk =   0.1250000
        k(    4) = (   0.0379955   0.0000049   0.0000000), wk =   0.2500000
        k(    5) = (   0.0379955   0.0419400   0.0000000), wk =   0.2500000
        k(    6) = (   0.0379955  -0.0838652   0.0000000), wk =   0.2500000
        k(    7) = (   0.0379955  -0.0419301   0.0000000), wk =   0.2500000
        k(    8) = (  -0.0759910  -0.0000099   0.0000000), wk =   0.1250000
        k(    9) = (  -0.0759910   0.0419252   0.0000000), wk =   0.2500000
        k(   10) = (  -0.0759910  -0.0838800   0.0000000), wk =   0.1250000

     Initial potential from superposition of free atoms

     starting charge  374.99918, renormalised to  391.00000

     negative rho (up, down):  1.929E-02 0.000E+00

     %%%%%%%%%%%%%%%%%%%%%%%%%%%%%%%%%%%%%%%%%%%%%%%%%%%%%%%%%%%%%%%%%%%%%%%%
     %                                                                      %
     % You are using vdW-DF, which was implemented by the Thonhauser group. %
     % Please cite the following two papers that made this development      %
     % possible and the two reviews that describe the various versions:     %
     %                                                                      %
     %   T. Thonhauser et al., PRL 115, 136402 (2015).                      %
     %   T. Thonhauser et al., PRB 76, 125112 (2007).                       %
     %   K. Berland et al., Rep. Prog. Phys. 78, 066501 (2015).             %
     %   D.C. Langreth et al., J. Phys.: Condens. Matter 21, 084203 (2009). %
     %                                                                      %
     %                                                                      %
     % If you are calculating the stress with vdW-DF, please also cite:     %
     %                                                                      %
     %   R. Sabatini et al., J. Phys.: Condens. Matter 24, 424209 (2012).   %
     %                                                                      %
     %%%%%%%%%%%%%%%%%%%%%%%%%%%%%%%%%%%%%%%%%%%%%%%%%%%%%%%%%%%%%%%%%%%%%%%%

     Adding external electric field

     Computed dipole along edir(3) :
        Dipole               -4.4316 Ry au,        -11.2641 Debye
        Dipole field         -0.0084 Ry au,

        Potential amp.        0.7752 Ry
        Total length         46.3494 bohr

     Starting wfcs are  295 atomic wfcs
  @ DRIVER MODE: Message from server: STATUS
  @ DRIVER MODE: Message from server: POSDATA
  @ DRIVER MODE: Reading and sharing cell
  @ DRIVER MODE: Reading and sharing positions
  @ DRIVER MODE: Received positions

     Self-consistent Calculation

     iteration #  1     ecut=    29.40 Ry     beta= 0.05
     Davidson diagonalization with overlap
     c_bands:  4 eigenvalues not converged
     c_bands:  2 eigenvalues not converged
     c_bands:  2 eigenvalues not converged
     c_bands:  2 eigenvalues not converged
     c_bands:  2 eigenvalues not converged
     c_bands:  1 eigenvalues not converged
     c_bands:  3 eigenvalues not converged
     c_bands:  1 eigenvalues not converged
     c_bands:  3 eigenvalues not converged
     ethr =  1.00E-05,  avg # of iterations = 19.9

[...]

     total energy              =   -2883.46609508 Ry
     estimated scf accuracy    <     546.85135772 Ry

     iteration #  2     ecut=    29.40 Ry     beta= 0.05
     Davidson diagonalization with overlap
     ethr =  1.00E-02,  avg # of iterations = 14.2

[...]

     iteration # 32     ecut=    29.40 Ry     beta= 0.05
     Davidson diagonalization with overlap
     c_bands:  2 eigenvalues not converged
     ethr =  4.05E-07,  avg # of iterations =  2.9

[...]

     total energy              =   -2931.27734080 Ry
     estimated scf accuracy    <       0.00000016 Ry

     iteration # 63     ecut=    29.40 Ry     beta= 0.05
     Davidson diagonalization with overlap
     ethr =  2.38E-11,  avg # of iterations =  5.1

     negative rho (up, down):  1.858E-02 0.000E+00

     Adding external electric field

     Computed dipole along edir(3) :
        Dipole                0.4338 Ry au,          1.1026 Debye
        Dipole field          0.0008 Ry au,

        Potential amp.       -0.0759 Ry
        Total length         46.3494 bohr

     End of self-consistent calculation

          k = 0.0000 0.0000 0.0000 ( 18029 PWs)   bands (ev):

   -56.6095 -56.5594 -56.1472 -56.0379 -55.9958 -55.9389 -55.9122 -55.8966
   -55.8543 -55.8128 -55.7830 -55.7262 -55.6791 -55.6100 -55.2190 -55.1850
   -33.0213 -32.8744 -32.8201 -32.7883 -32.6926 -32.6474 -32.4987 -32.4860
   -32.4657 -32.4026 -32.3719 -32.3508 -32.3074 -32.2851 -32.2666 -32.2426
   -32.2388 -32.2238 -32.2098 -32.1441 -32.1414 -32.1280 -32.1254 -32.1116
   -32.0995 -32.0938 -32.0895 -32.0864 -32.0609 -32.0404 -32.0171 -31.9996
   -31.9940 -31.9841 -31.9830 -31.9737 -31.9266 -31.8707 -31.8442 -31.8387
   -31.8219 -31.7891 -31.6135 -31.5594 -31.5350 -31.4301 -31.3452 -31.2344
   -16.9541 -16.7671 -16.6234 -16.4000 -16.2555 -16.1514 -15.9355 -15.9252
   -15.8034 -15.7858 -15.7614 -15.6300 -15.6167 -15.6003 -15.5604 -15.5386
   -15.5312 -15.5293 -15.5179 -15.4914 -15.4592 -15.4384 -15.3984 -15.3168
   -15.2412 -15.2342 -15.1988 -15.1434 -15.0797 -14.8603 -13.7217 -13.6134
    -8.9142  -4.6505  -4.2917  -4.0788  -3.9705  -3.8924  -3.7864  -3.6329
    -3.4339  -3.2953  -3.2462  -3.2092  -3.1614  -3.1461  -3.1226  -3.0793
    -3.0325  -2.9809  -2.9514  -2.8897  -2.8650  -2.8258  -2.7889  -2.7639
    -2.7488  -2.7306  -2.7239  -2.5894  -2.5244  -2.5141  -2.4671  -2.4652
    -2.4068  -2.3906  -2.3666  -2.3173  -2.2830  -2.1878  -2.1296  -2.0960
    -2.0511  -1.8293  -1.8111  -1.7453  -1.6709  -1.6183  -1.5598  -1.5172
    -1.4633  -1.4342  -1.3757  -1.3352  -1.2862  -1.2620  -1.2232  -1.1555
    -1.1355  -1.0994  -1.0390  -0.9632  -0.9176  -0.8473  -0.7827  -0.7436
    -0.6909  -0.6820  -0.6531  -0.5626  -0.4776  -0.4572  -0.4240  -0.3841
    -0.3645  -0.2946  -0.2813  -0.2387  -0.2214  -0.1460  -0.1307  -0.1012
    -0.0685  -0.0474  -0.0241   0.0421   0.1638   0.2316   0.2748   0.3111
     0.3299   0.4157   0.4342   0.5221   0.6775   0.7974   0.8366   1.0071
     1.0596   1.3483   1.3942   1.9252   2.6921   2.8566   3.1422   3.2454
     3.2809   3.3576   3.4021   3.4334   3.6313

[...]

          k = 0.0380-0.0419 0.0000 ( 17876 PWs)   bands (ev):

[...]

          k =-0.0760-0.0000 0.0000 ( 17886 PWs)   bands (ev):

[...]

          k =-0.0760-0.0839 0.0000 ( 17948 PWs)   bands (ev):

   -56.6030 -56.5657 -56.1464 -56.0355 -55.9897 -55.9447 -55.9144 -55.8971
   -55.8456 -55.8216 -55.7813 -55.7200 -55.6852 -55.6115 -55.2022 -55.2016
   -32.8702 -32.8538 -32.8240 -32.8219 -32.7548 -32.7231 -32.4232 -32.3798
   -32.3672 -32.3514 -32.3344 -32.2912 -32.2680 -32.2612 -32.2505 -32.2307
   -32.2153 -32.2028 -32.1921 -32.1827 -32.1635 -32.1628 -32.1403 -32.1367
   -32.1356 -32.1243 -32.1096 -32.1053 -32.0727 -32.0682 -32.0550 -32.0421
   -32.0032 -31.9955 -31.9875 -31.9872 -31.9542 -31.9303 -31.9108 -31.8724
   -31.8251 -31.8124 -31.5482 -31.5479 -31.4290 -31.4272 -31.3874 -31.3864
   -16.9421 -16.1452 -16.0839 -16.0744 -16.0612 -16.0313 -15.9898 -15.9182
   -15.9162 -15.8188 -15.7918 -15.7478 -15.7098 -15.6978 -15.6517 -15.6387
   -15.6259 -15.5634 -15.5214 -15.5025 -15.4869 -15.4744 -15.4533 -15.4288
   -15.4172 -15.3970 -15.3296 -15.2476 -15.2173 -15.0023 -13.7177 -13.7165
    -8.9220  -4.6418  -3.3823  -3.3280  -3.2490  -3.2304  -3.2192  -3.1504
    -3.0940  -3.0891  -3.0313  -3.0177  -2.9746  -2.9450  -2.9152  -2.9094
    -2.9023  -2.8924  -2.8789  -2.8550  -2.8011  -2.7983  -2.7805  -2.7713
    -2.7550  -2.7390  -2.7065  -2.6656  -2.6339  -2.6107  -2.5313  -2.4258
    -2.4203  -2.3886  -2.3553  -2.3220  -2.2807  -2.2594  -2.1830  -2.1756
    -2.1595  -2.1094  -2.0116  -1.7775  -1.7694  -1.7180  -1.6837  -1.6739
    -1.6125  -1.5427  -1.5361  -1.4512  -1.4479  -1.4344  -1.3342  -1.3167
    -1.2838  -1.2648  -1.2389  -1.2097  -1.1072  -1.0858  -1.0774  -1.0462
    -1.0006  -0.9797  -0.8882  -0.8698  -0.8515  -0.8236  -0.7416  -0.6892
    -0.6503  -0.6318  -0.4939  -0.4469  -0.4355  -0.2809  -0.2326  -0.1970
    -0.1749  -0.0887   0.0156   0.0558   0.1130   0.1602   0.2194   0.3255
     0.3388   0.3612   0.4263   0.4655   0.4720   0.4876   0.5647   1.1916
     1.1924   1.2005   1.2074   2.0841   3.2334   3.2588   3.2709   3.3044
     3.5179   3.5413   3.5515   3.6092   3.6504

     the Fermi energy is     2.0049 ev

!    total energy              =   -2931.27736785 Ry
     estimated scf accuracy    <       0.00000001 Ry
     smearing contrib. (-TS)   =      -0.01004530 Ry
     internal energy E=F+TS    =   -2931.26732256 Ry

     The total energy is F=E-TS. E is the sum of the following terms:
     one-electron contribution =  -24332.05672437 Ry
     hartree contribution      =   12249.81587857 Ry
     xc contribution           =    -481.70027893 Ry
     ewald contribution        =    9632.67344706 Ry
     electric field correction =       0.00035511 Ry

     convergence has been achieved in  63 iterations

     Forces acting on atoms (cartesian axes, Ry/au):

     atom    1 type  1   force =     0.00036184   -0.00077612    0.13234575
     atom    2 type  1   force =     0.00014238    0.00690510   -0.15728713
     atom    3 type  2   force =    -0.00018536    0.00281797   -0.05348579
     atom    4 type  2   force =    -0.00072880   -0.00116568    0.04119441
     atom    5 type  2   force =    -0.01140464   -0.00238563    0.00284954
     atom    6 type  2   force =     0.00918189   -0.00643970    0.00177946
     atom    7 type  1   force =     0.00044519    0.00029407   -0.00038152
     atom    8 type  1   force =     0.00019986   -0.00002038    0.00094038
     atom    9 type  2   force =    -0.00002479    0.00043642    0.00039657
     atom   10 type  2   force =     0.00025220    0.00023009   -0.00009892
     atom   11 type  2   force =     0.00050405    0.00033085    0.00027167
     atom   12 type  2   force =    -0.00014485    0.00027506   -0.00024776
     atom   13 type  1   force =    -0.00026862   -0.00047216   -0.00090803
     atom   14 type  1   force =     0.00021385    0.00048672   -0.00022182
     atom   15 type  2   force =    -0.00011293   -0.00009878    0.00153586
     atom   16 type  2   force =     0.00047419   -0.00018933    0.00007068
     atom   17 type  2   force =    -0.00000076   -0.00043939   -0.00053159
     atom   18 type  2   force =    -0.00127112   -0.00013472   -0.00009742
     atom   19 type  1   force =     0.00119568   -0.00005346   -0.00022610
     atom   20 type  1   force =    -0.00050376    0.00032926   -0.00007353
     atom   21 type  2   force =     0.00020934    0.00008772    0.09898544
     atom   22 type  2   force =     0.00011187    0.00088434   -0.00109611
     atom   23 type  2   force =    -0.08050320    0.00137210   -0.03417727
     atom   24 type  2   force =     0.08057957    0.00190229   -0.03418643
     atom   25 type  1   force =     0.00030758   -0.00010490    0.14244088
     atom   26 type  1   force =     0.00016922   -0.00836626   -0.15756583
     atom   27 type  2   force =    -0.00039126   -0.00117201   -0.05198490
     atom   28 type  2   force =    -0.00064079   -0.00038143    0.04299606
     atom   29 type  2   force =    -0.01011305    0.00503581    0.00017764
     atom   30 type  2   force =     0.00778425    0.00127886   -0.00110410
     atom   31 type  1   force =     0.00010020    0.00000818   -0.00026134
     atom   32 type  1   force =     0.00009444   -0.00043326    0.00097108
     atom   33 type  2   force =     0.00003350   -0.00034440   -0.00007588
     atom   34 type  2   force =     0.00024711    0.00012626   -0.00023616
     atom   35 type  2   force =    -0.00050787    0.00034987    0.00020120
     atom   36 type  2   force =     0.00130812    0.00030924   -0.00024571
     atom   37 type  1   force =     0.00000669   -0.00020189   -0.00043924
     atom   38 type  1   force =     0.00030460   -0.00007940   -0.00015648
     atom   39 type  2   force =     0.00012570    0.00009028    0.00011307
     atom   40 type  2   force =     0.00040022    0.00011220   -0.00036596
     atom   41 type  2   force =    -0.00115070    0.00017498   -0.00013583
     atom   42 type  2   force =     0.00019777    0.00020457   -0.00017675
     atom   43 type  1   force =     0.00122750    0.00048790    0.00027712
     atom   44 type  1   force =    -0.00038635    0.00037993   -0.00021177
     atom   45 type  2   force =     0.00020150   -0.00000097    0.09854669
     atom   46 type  2   force =    -0.08049012   -0.00109704   -0.03416061
     atom   47 type  2   force =     0.08058080   -0.00055834   -0.03424211
     atom   48 type  3   force =     0.01760026    0.00009025   -0.00043615
     atom   49 type  4   force =    -0.00821273   -0.00185410   -0.00499743
     atom   50 type  4   force =    -0.00859684    0.00195585    0.00502323
     atom   51 type  2   force =    -0.00001884    0.00053528   -0.00131798
     atom   52 type  4   force =     0.00109601   -0.00072214    0.00001694

     Total force =     0.384378     Total SCF correction =     0.000388
  @ DRIVER MODE: Message from server: STATUS
  @ DRIVER MODE: Message from server: GETFORCE
  @ DRIVER MODE: Returning v,forces,stress,ensemble

     Writing output data file ./calc.save/
  @ DRIVER MODE: Message from server: EXIT
  @ DRIVE MODE: Exiting

     General routines

     Parallel routines

   This run was terminated on:  16:59:23  22Sep2021

   JOB DONE.