     Program PWSCF v.6.7GPU starts on 21Sep2021 at 17:54:48

     R & G space division:  proc/nbgrp/npool/nimage =      10
     Reading input from /storage/home/hcoda1/3/ntian30/research/carbon/CxH_vib/CH3_calc/ads_slab/CH3ON2_a/out_0018/pw.inp
Warning: card &CELL ignored
Warning: card   CELL_DYNAMICS='IPI', ignored
Warning: card / ignored

     Current dimensions of program PWSCF are:
     Max number of different atomic species (ntypx) = 10
     Max number of k-points (npk) =  40000
     Max angular momentum in pseudopotentials (lmaxx) =  3
     Presently no symmetry can be used with electric field

     Message from routine cell_base_init:
     DEPRECATED: use true lattice parameter, not A to a.u. conversion factor

     IMPORTANT: XC functional enforced from input :
     Exchange-correlation= BEEF-VDW
                           (   1   4  43  14   2   0   0)
     Any further DFT definition will be discarded
     Please, verify this is what you really want

  @ DRIVER MODE: Connecting to
 qe_1139763_2922197.sched-torque.pace.gatech.edu2yt4_gi7_scratch
  using UNIX socket
  @ DRIVER MODE: Message from server: STATUS
  @ DRIVER MODE: Message from server: INIT
  @ DRIVER MODE: Receiving replica           0          -1
  @ DRIVER MODE: Receiving encoded integer          25
  @ DRIVER MODE:  SCF:  T  FORCE:  T  STRESS:  F  VC:  F  ENSEMBLE:  F
  @ DRIVER MODE:  SCF:  T  FORCE:  T  STRESS:  F  VC:  F  ENSEMBLE:  F

     Using Slab Decomposition

     bravais-lattice index     =            0
     lattice parameter (alat)  =       1.8897  a.u.
     unit-cell volume          =    6658.9804 (a.u.)^3
     number of atoms/cell      =           54
     number of atomic types    =            5
     number of electrons       =       401.00
     number of Kohn-Sham states=          210
     kinetic-energy cutoff     =      29.3995  Ry
     charge density cutoff     =     293.9946  Ry
     scf convergence threshold =      7.3E-08
     mixing beta               =       0.0500
     number of iterations used =            8  plain     mixing
     Exchange-correlation= BEEF-VDW
                           (   1   4  43  14   2   0   0)

     celldm(1)=   1.889726  celldm(2)=   0.000000  celldm(3)=   0.000000
     celldm(4)=   0.000000  celldm(5)=   0.000000  celldm(6)=   0.000000

     crystal axes: (cart. coord. in units of alat)
               a(1) = (   6.579727   0.000000   0.000000 )
               a(2) = (  -0.000775   5.961596   0.000000 )
               a(3) = (   0.000000   0.000000  25.155947 )

     reciprocal axes: (cart. coord. in units 2 pi/alat)
               b(1) = (  0.151982  0.000020  0.000000 )
               b(2) = (  0.000000  0.167740  0.000000 )
               b(3) = (  0.000000  0.000000  0.039752 )

     PseudoPot. # 1 for Ti read from file:
     /storage/coda1/p-amedford6/0/shared/rich_project_chbe-medford/medford-share/data/pseudos_module/espresso/nninc/pbe/van/Ti.UPF
     MD5 check sum: 8e4df49b7f0d34bbd5052bf3f5ea0213
     Pseudo is Ultrasoft, Zval = 12.0
     Generated by new atomic code, or converted to UPF format
     Using radial grid of  851 points,  6 beta functions with:
                l(1) =   0
                l(2) =   0
                l(3) =   1
                l(4) =   1
                l(5) =   2
                l(6) =   2
     Q(r) pseudized with  8 coefficients,  rinner =    1.000   1.000   1.000
                                                       1.000   1.000

     PseudoPot. # 2 for O  read from file:
     /storage/coda1/p-amedford6/0/shared/rich_project_chbe-medford/medford-share/data/pseudos_module/espresso/nninc/pbe/van/O.UPF
     MD5 check sum: 78c19812648e8988a0fe644b0f25305e
     Pseudo is Ultrasoft, Zval =  6.0
     Generated by new atomic code, or converted to UPF format
     Using radial grid of  737 points,  4 beta functions with:
                l(1) =   0
                l(2) =   0
                l(3) =   1
                l(4) =   1
     Q(r) pseudized with  8 coefficients,  rinner =    0.800   0.800   0.800

     PseudoPot. # 3 for C  read from file:
     /storage/coda1/p-amedford6/0/shared/rich_project_chbe-medford/medford-share/data/pseudos_module/espresso/nninc/pbe/van/C.UPF
     MD5 check sum: 1a69bf6b8db32088f5b2163dbdb77a27
     Pseudo is Ultrasoft, Zval =  4.0
     Generated by new atomic code, or converted to UPF format
     Using radial grid of  721 points,  4 beta functions with:
                l(1) =   0
                l(2) =   0
                l(3) =   1
                l(4) =   1
     Q(r) pseudized with  8 coefficients,  rinner =    0.800   0.800   0.800

     PseudoPot. # 4 for H  read from file:
     /storage/coda1/p-amedford6/0/shared/rich_project_chbe-medford/medford-share/data/pseudos_module/espresso/nninc/pbe/van/H.UPF
     MD5 check sum: b5ee9d7bfd3a09ee7748110bda690ff7
     Pseudo is Ultrasoft, Zval =  1.0
     Generated by new atomic code, or converted to UPF format
     Using radial grid of  615 points,  1 beta functions with:
                l(1) =   0
     Q(r) pseudized with  8 coefficients,  rinner =    0.800

     PseudoPot. # 5 for N  read from file:
     /storage/coda1/p-amedford6/0/shared/rich_project_chbe-medford/medford-share/data/pseudos_module/espresso/nninc/pbe/van/N.UPF
     MD5 check sum: 90d10febe142ad51ac9d5be1deb811c4
     Pseudo is Ultrasoft, Zval =  5.0
     Generated by new atomic code, or converted to UPF format
     Using radial grid of  729 points,  4 beta functions with:
                l(1) =   0
                l(2) =   0
                l(3) =   1
                l(4) =   1
     Q(r) pseudized with  8 coefficients,  rinner =    0.800   0.800   0.800

     atomic species   valence    mass     pseudopotential
        Ti1           12.00    47.86700     Ti( 1.00)
        O1             6.00    15.99900     O ( 1.00)
        C1             4.00    12.01100     C ( 1.00)
        H1             1.00     1.00800     H ( 1.00)
        N1             5.00    14.00700     N ( 1.00)

     No symmetry found

   Cartesian axes

     site n.     atom                  positions (alat units)
         1           Ti1 tau(   1) = (   0.0004258   2.9801865   6.0000000  )
         2           Ti1 tau(   2) = (   3.2906075   1.4906267   6.0002472  )
         3           O1  tau(   3) = (   0.0006271   0.0005054   7.9858123  )
         4           O1  tau(   4) = (   3.2906025   0.0005020   7.3038282  )
         5           O1  tau(   5) = (   4.5942328   1.4918067   9.2879030  )
         6           O1  tau(   6) = (   1.9868534   1.4903216   9.2879459  )
         7           Ti1 tau(   7) = (   3.3204934   3.0328528   9.1574130  )
         8           Ti1 tau(   8) = (   0.0292148   1.6159158   9.3632543  )
         9           O1  tau(   9) = (   3.3070435   0.0102262  11.3480939  )
        10           O1  tau(  10) = (   0.0088878   0.0096727  10.6115680  )
        11           O1  tau(  11) = (   1.3030819   1.4981340  12.6442205  )
        12           O1  tau(  12) = (   5.3040506   1.5010416  12.6455732  )
        13           Ti1 tau(  13) = (   0.0403577   3.0063940  12.8112948  )
        14           Ti1 tau(  14) = (   3.3464846   1.5065728  12.4912112  )
        15           O1  tau(  15) = (   0.0134291   0.0009660  14.7247257  )
        16           O1  tau(  16) = (   3.3093041   0.0058478  13.9373560  )
        17           O1  tau(  17) = (   4.5500255   1.4945122  16.1009386  )
        18           O1  tau(  18) = (   2.0583445   1.4942802  16.1012567  )
        19           Ti1 tau(  19) = (   3.3037885   2.9813703  15.7231771  )
        20           Ti1 tau(  20) = (   0.0263689   1.3683668  16.1009981  )
        21           O1  tau(  21) = (   3.2904802   0.0005063   4.7018136  )
        22           O1  tau(  22) = (   0.0160251   5.9515368  17.2504238  )
        23           O1  tau(  23) = (   1.3043587   1.4918075   6.0039043  )
        24           O1  tau(  24) = (   5.2767064   1.4903225   6.0039473  )
        25           Ti1 tau(  25) = (   0.0000382   5.9609847   6.0000000  )
        26           Ti1 tau(  26) = (   3.2902200   4.4714249   6.0002472  )
        27           O1  tau(  27) = (   0.0002396   2.9813036   7.9858123  )
        28           O1  tau(  28) = (   3.2902150   2.9813002   7.3038282  )
        29           O1  tau(  29) = (   4.5938453   4.4726049   9.2879030  )
        30           O1  tau(  30) = (   1.9864658   4.4711199   9.2879459  )
        31           Ti1 tau(  31) = (   3.3068128   0.0556959   9.1539818  )
        32           Ti1 tau(  32) = (   0.0329352   4.5395830   9.2719105  )
        33           O1  tau(  33) = (   3.3067668   2.9902038  11.3487497  )
        34           O1  tau(  34) = (   0.0086428   2.9933526  10.5732881  )
        35           O1  tau(  35) = (   1.3040514   4.4849883  12.6410176  )
        36           O1  tau(  36) = (   5.3019722   4.4792838  12.6433842  )
        37           Ti1 tau(  37) = (   0.0449501   0.0247790  12.5283380  )
        38           Ti1 tau(  38) = (   3.3452221   4.4882979  12.4886840  )
        39           O1  tau(  39) = (   0.0326844   3.0101588  14.7024583  )
        40           O1  tau(  40) = (   3.3056340   2.9839048  13.9300935  )
        41           O1  tau(  41) = (   4.5482541   4.4683137  16.0944903  )
        42           O1  tau(  42) = (   2.0564524   4.4684886  16.0889558  )
        43           Ti1 tau(  43) = (   3.3155465   0.0028818  15.7289974  )
        44           Ti1 tau(  44) = (   0.0293978   4.5260084  15.9878609  )
        45           O1  tau(  45) = (   3.2900926   2.9813045   4.7018136  )
        46           O1  tau(  46) = (   1.3039711   4.4726057   6.0039043  )
        47           O1  tau(  47) = (   5.2763189   4.4711207   6.0039473  )
        48           C1  tau(  48) = (   6.0941187   3.0165090  18.6783144  )
        49           O1  tau(  49) = (   6.5649259   2.9843894  17.3344459  )
        50           H1  tau(  50) = (   5.0084317   2.8724860  18.7183625  )
        51           H1  tau(  51) = (   6.5664557   2.2147430  19.2506469  )
        52           H1  tau(  52) = (   6.3318479   3.9831036  19.1258517  )
        53           N1  tau(  53) = (   6.0286935   3.0693532  22.8641725  )
        54           N1  tau(  54) = (   5.2900788   3.1330812  22.0463807  )

     number of k points=    10  Fermi-Dirac smearing, width (Ry)=  0.0073
                       cart. coord. in units 2pi/alat
        k(    1) = (   0.0000000   0.0000000   0.0000000), wk =   0.1250000
        k(    2) = (   0.0000000   0.0419351   0.0000000), wk =   0.2500000
        k(    3) = (   0.0000000  -0.0838702   0.0000000), wk =   0.1250000
        k(    4) = (   0.0379955   0.0000049   0.0000000), wk =   0.2500000
        k(    5) = (   0.0379955   0.0419400   0.0000000), wk =   0.2500000
        k(    6) = (   0.0379955  -0.0838652   0.0000000), wk =   0.2500000
        k(    7) = (   0.0379955  -0.0419301   0.0000000), wk =   0.2500000
        k(    8) = (  -0.0759910  -0.0000099   0.0000000), wk =   0.1250000
        k(    9) = (  -0.0759910   0.0419252   0.0000000), wk =   0.2500000
        k(   10) = (  -0.0759910  -0.0838800   0.0000000), wk =   0.1250000

     Initial potential from superposition of free atoms

     starting charge  384.99916, renormalised to  401.00000

     negative rho (up, down):  1.014E-02 0.000E+00

     %%%%%%%%%%%%%%%%%%%%%%%%%%%%%%%%%%%%%%%%%%%%%%%%%%%%%%%%%%%%%%%%%%%%%%%%
     %                                                                      %
     % You are using vdW-DF, which was implemented by the Thonhauser group. %
     % Please cite the following two papers that made this development      %
     % possible and the two reviews that describe the various versions:     %
     %                                                                      %
     %   T. Thonhauser et al., PRL 115, 136402 (2015).                      %
     %   T. Thonhauser et al., PRB 76, 125112 (2007).                       %
     %   K. Berland et al., Rep. Prog. Phys. 78, 066501 (2015).             %
     %   D.C. Langreth et al., J. Phys.: Condens. Matter 21, 084203 (2009). %
     %                                                                      %
     %                                                                      %
     % If you are calculating the stress with vdW-DF, please also cite:     %
     %                                                                      %
     %   R. Sabatini et al., J. Phys.: Condens. Matter 24, 424209 (2012).   %
     %                                                                      %
     %%%%%%%%%%%%%%%%%%%%%%%%%%%%%%%%%%%%%%%%%%%%%%%%%%%%%%%%%%%%%%%%%%%%%%%%

     Adding external electric field

     Computed dipole along edir(3) :
        Dipole              -14.4692 Ry au,        -36.7771 Debye
        Dipole field         -0.0273 Ry au,

        Potential amp.        2.5312 Ry
        Total length         46.3494 bohr

     Starting wfcs are  303 atomic wfcs
  @ DRIVER MODE: Message from server: STATUS
  @ DRIVER MODE: Message from server: POSDATA
  @ DRIVER MODE: Reading and sharing cell
  @ DRIVER MODE: Reading and sharing positions
  @ DRIVER MODE: Received positions

     Self-consistent Calculation

     iteration #  1     ecut=    29.40 Ry     beta= 0.05
     Davidson diagonalization with overlap
     c_bands:  3 eigenvalues not converged
     c_bands:  3 eigenvalues not converged
     c_bands:  4 eigenvalues not converged
     c_bands:  3 eigenvalues not converged
     c_bands:  5 eigenvalues not converged
     c_bands:  3 eigenvalues not converged
     c_bands:  5 eigenvalues not converged
     c_bands:  3 eigenvalues not converged
     c_bands:  3 eigenvalues not converged
     c_bands:  1 eigenvalues not converged
     ethr =  1.00E-05,  avg # of iterations = 24.0

[...]

     total energy              =   -2414.27978923 Ry
     estimated scf accuracy    <    6341.53582228 Ry

     iteration #  2     ecut=    29.40 Ry     beta= 0.05
     Davidson diagonalization with overlap
     ethr =  1.00E-02,  avg # of iterations = 24.1

[...]

     iteration # 45     ecut=    29.40 Ry     beta= 0.05
     Davidson diagonalization with overlap
     c_bands:  3 eigenvalues not converged
     c_bands:  2 eigenvalues not converged
     c_bands:  2 eigenvalues not converged
     ethr =  4.06E-07,  avg # of iterations = 17.5

[...]

     total energy              =   -2971.68368399 Ry
     estimated scf accuracy    <       0.00000010 Ry

     iteration # 63     ecut=    29.40 Ry     beta= 0.05
     Davidson diagonalization with overlap
     ethr =  2.46E-11,  avg # of iterations =  8.2

     negative rho (up, down):  1.202E-02 0.000E+00

     Adding external electric field

     Computed dipole along edir(3) :
        Dipole                0.7549 Ry au,          1.9188 Debye
        Dipole field          0.0014 Ry au,

        Potential amp.       -0.1321 Ry
        Total length         46.3494 bohr

     End of self-consistent calculation

          k = 0.0000 0.0000 0.0000 ( 18029 PWs)   bands (ev):

   -55.6086 -55.5937 -55.5721 -55.5575 -55.5033 -55.4926 -55.4690 -55.4412
   -55.4348 -55.3806 -55.3719 -55.3651 -55.3313 -55.2522 -54.6227 -54.5886
   -32.1597 -32.0766 -32.0120 -31.9576 -31.9277 -31.9082 -31.8999 -31.8771
   -31.8445 -31.8329 -31.8145 -31.8092 -31.8072 -31.7751 -31.7688 -31.7531
   -31.7470 -31.7392 -31.7275 -31.6990 -31.6976 -31.6736 -31.6708 -31.6579
   -31.6491 -31.6476 -31.6250 -31.6184 -31.6093 -31.5970 -31.5897 -31.5896
   -31.5840 -31.5673 -31.5466 -31.5392 -31.5350 -31.5093 -31.4761 -31.4688
   -31.4472 -31.4405 -31.0325 -30.9353 -30.9130 -30.8492 -30.7631 -30.6520
   -21.1871 -17.3491 -16.3460 -16.0534 -15.8909 -15.7570 -15.7266 -15.6224
   -15.4326 -15.2946 -15.2757 -15.2129 -15.1751 -15.1636 -15.1346 -15.1301
   -15.1174 -15.1141 -15.0649 -15.0332 -15.0295 -15.0118 -14.9879 -14.9263
   -14.8858 -14.8062 -14.7586 -14.7271 -14.6708 -14.6089 -14.5928 -13.1233
   -13.0051  -9.1785  -6.3541  -4.3290  -4.3098  -4.0701  -3.8181  -3.7056
    -3.5318  -3.5166  -3.4975  -3.4722  -3.4117  -3.1647  -3.1479  -3.0487
    -2.8302  -2.7719  -2.7481  -2.7332  -2.7279  -2.4850  -2.4658  -2.4356
    -2.4255  -2.4157  -2.3890  -2.3624  -2.3588  -2.3274  -2.3093  -2.2174
    -2.1383  -2.1268  -2.0203  -1.9840  -1.9578  -1.9100  -1.8795  -1.8641
    -1.8474  -1.8199  -1.8061  -1.7768  -1.7739  -1.6755  -1.5506  -1.4387
    -1.4089  -1.3711  -1.3084  -1.1028  -1.0540  -1.0225  -1.0097  -0.9516
    -0.9255  -0.9163  -0.8389  -0.8062  -0.7848  -0.6772  -0.6151  -0.5917
    -0.5657  -0.5027  -0.4702  -0.4246  -0.3474  -0.3320  -0.3189  -0.1005
    -0.0792  -0.0697  -0.0603   0.0539   0.1044   0.1627   0.1744   0.1832
     0.2136   0.2947   0.3463   0.3655   0.3857   0.4071   0.4449   0.5175
     0.5443   0.5718   0.5970   0.6249   0.7157   0.7665   0.9076   1.0376
     1.0610   1.1589   1.3050   1.4016   1.4758   1.5723   1.9906   2.0500
     3.5787   3.6065   3.6396   3.6692   3.7320   3.8458   3.9651   4.0144
     4.0373   4.0614

[...]

          k = 0.0380-0.0419 0.0000 ( 17876 PWs)   bands (ev):

[...]

          k =-0.0760-0.0000 0.0000 ( 17886 PWs)   bands (ev):

[...]

          k =-0.0760-0.0839 0.0000 ( 17948 PWs)   bands (ev):

   -55.5971 -55.5835 -55.5765 -55.5745 -55.5007 -55.4869 -55.4526 -55.4513
   -55.4469 -55.3778 -55.3741 -55.3506 -55.3462 -55.2545 -54.6062 -54.6050
   -31.9640 -31.9585 -31.9122 -31.9001 -31.8890 -31.8856 -31.8675 -31.8630
   -31.8594 -31.8179 -31.7951 -31.7895 -31.7881 -31.7498 -31.7392 -31.7336
   -31.7237 -31.7233 -31.7193 -31.7144 -31.7108 -31.6936 -31.6887 -31.6833
   -31.6789 -31.6726 -31.6660 -31.6550 -31.6547 -31.6502 -31.6265 -31.6029
   -31.6022 -31.5994 -31.5942 -31.5771 -31.5724 -31.5612 -31.5551 -31.5445
   -31.4845 -31.4488 -30.9263 -30.9250 -30.8459 -30.8451 -30.8067 -30.8057
   -21.1870 -17.3127 -15.7831 -15.7721 -15.5283 -15.5261 -15.5238 -15.4553
   -15.3639 -15.3468 -15.3284 -15.3240 -15.2659 -15.2586 -15.2441 -15.1840
   -15.1444 -15.1252 -15.1131 -15.1108 -15.0580 -15.0538 -15.0010 -14.9788
   -14.9638 -14.9567 -14.9392 -14.9326 -14.8431 -14.8395 -14.7674 -13.1075
   -13.1052  -9.1792  -6.3545  -4.3266  -4.3168  -3.9474  -3.7860  -3.5179
    -3.0754  -3.0613  -3.0397  -2.7697  -2.7451  -2.7434  -2.6497  -2.5624
    -2.5235  -2.4863  -2.4485  -2.4454  -2.4439  -2.4249  -2.4057  -2.3937
    -2.3714  -2.3576  -2.3460  -2.2863  -2.2498  -2.2416  -2.2369  -2.2286
    -2.2007  -2.1814  -2.1599  -2.1538  -2.1436  -2.1233  -2.0304  -1.8911
    -1.8572  -1.7477  -1.7377  -1.7077  -1.6935  -1.6619  -1.6547  -1.6353
    -1.5284  -1.4592  -1.3375  -1.3250  -1.3071  -1.2552  -1.1856  -1.1123
    -1.0552  -1.0240  -1.0058  -0.9154  -0.9031  -0.8249  -0.8129  -0.7606
    -0.7241  -0.7064  -0.6142  -0.5759  -0.5627  -0.5490  -0.4796  -0.4635
    -0.4376  -0.4052  -0.3461  -0.3364  -0.2620  -0.2304  -0.1822  -0.1213
    -0.0997  -0.0474   0.0404   0.2087   0.3023   0.4020   0.4379   0.4965
     0.5092   0.6056   0.6492   0.6674   0.6725   0.7563   0.8227   0.8502
     0.9172   0.9317   0.9543   1.0174   1.7615   1.7630   1.8532   1.8634
     3.7843   3.8125   3.8326   3.8791   4.0382   4.0428   4.0620   4.0654
     4.1408   4.2030

     the Fermi energy is     3.5465 ev

!    total energy              =   -2971.68371681 Ry
     estimated scf accuracy    <       0.00000002 Ry
     smearing contrib. (-TS)   =      -0.02320980 Ry
     internal energy E=F+TS    =   -2971.66050701 Ry

     The total energy is F=E-TS. E is the sum of the following terms:
     one-electron contribution =  -22784.99314893 Ry
     hartree contribution      =   11484.46271736 Ry
     xc contribution           =    -492.26831750 Ry
     ewald contribution        =    8821.13716656 Ry
     electric field correction =       0.00107549 Ry

     convergence has been achieved in  63 iterations

     Forces acting on atoms (cartesian axes, Ry/au):

     atom    1 type  1   force =    -0.00021138   -0.00154361    0.10613586
     atom    2 type  1   force =    -0.00044891    0.00047922   -0.17982803
     atom    3 type  2   force =     0.00026823   -0.00690461   -0.03318881
     atom    4 type  2   force =     0.00054077    0.00050875    0.04562124
     atom    5 type  2   force =    -0.01840174    0.00015816    0.00400164
     atom    6 type  2   force =     0.02061612   -0.00128006    0.00459536
     atom    7 type  1   force =    -0.00033744   -0.00020236    0.00006984
     atom    8 type  1   force =    -0.00018193   -0.00126527    0.00020977
     atom    9 type  2   force =     0.00001269    0.00011705   -0.00076170
     atom   10 type  2   force =    -0.00005598    0.00002506   -0.00043727
     atom   11 type  2   force =     0.00004057    0.00007623    0.00040410
     atom   12 type  2   force =    -0.00071013    0.00015216    0.00036599
     atom   13 type  1   force =    -0.00000475    0.00042795    0.00050456
     atom   14 type  1   force =    -0.00014166    0.00088046    0.00019066
     atom   15 type  2   force =    -0.00045795   -0.00030246    0.00004458
     atom   16 type  2   force =    -0.00019223    0.00013381   -0.00073668
     atom   17 type  2   force =    -0.00041127    0.00003691    0.00011291
     atom   18 type  2   force =     0.00034947   -0.00008108   -0.00044826
     atom   19 type  1   force =     0.00001183    0.00069904   -0.00045102
     atom   20 type  1   force =    -0.00031858    0.00001128   -0.00039844
     atom   21 type  2   force =    -0.00006547    0.00009799    0.10417462
     atom   22 type  2   force =    -0.00008172   -0.00045026   -0.00076283
     atom   23 type  2   force =    -0.06902750    0.00068042   -0.02956171
     atom   24 type  2   force =     0.06868360    0.00115512   -0.02962610
     atom   25 type  1   force =    -0.00013008    0.00147241    0.11714636
     atom   26 type  1   force =    -0.00021677   -0.00000325   -0.17990454
     atom   27 type  2   force =     0.00042649    0.00389727   -0.02757870
     atom   28 type  2   force =     0.00072646    0.00077881    0.04706887
     atom   29 type  2   force =    -0.01718088    0.00151821    0.00338586
     atom   30 type  2   force =     0.01882846    0.00099719    0.00380504
     atom   31 type  1   force =    -0.00038996    0.00043175   -0.00029043
     atom   32 type  1   force =    -0.00022539    0.00076178    0.00041667
     atom   33 type  2   force =    -0.00028618   -0.00010551   -0.00016747
     atom   34 type  2   force =    -0.00003187    0.00047973    0.00027370
     atom   35 type  2   force =    -0.00005954    0.00005859    0.00053231
     atom   36 type  2   force =    -0.00067162   -0.00006081    0.00041019
     atom   37 type  1   force =    -0.00006236   -0.00017551    0.00006863
     atom   38 type  1   force =    -0.00007248   -0.00114773    0.00008433
     atom   39 type  2   force =    -0.00020636    0.00002019    0.00047465
     atom   40 type  2   force =    -0.00022503    0.00020103    0.00069523
     atom   41 type  2   force =    -0.00093158   -0.00037660   -0.00022346
     atom   42 type  2   force =     0.00076156   -0.00017859   -0.00002240
     atom   43 type  1   force =     0.00024943   -0.00086368    0.00033596
     atom   44 type  1   force =     0.00002280    0.00125744   -0.00025382
     atom   45 type  2   force =    -0.00006052    0.00007550    0.10423489
     atom   46 type  2   force =    -0.06861087   -0.00128434   -0.02960871
     atom   47 type  2   force =     0.06836933   -0.00086132   -0.02969113
     atom   48 type  3   force =     0.00050198   -0.00063045    0.00134579
     atom   49 type  2   force =    -0.00152646    0.00027872    0.00079307
     atom   50 type  4   force =     0.00026825    0.00002197   -0.00251728
     atom   51 type  4   force =     0.00055502    0.00004025   -0.00034656
     atom   52 type  4   force =     0.00083539   -0.00010790   -0.00034112
     atom   53 type  5   force =     0.00058051    0.00001679    0.00079564
     atom   54 type  5   force =    -0.00071237   -0.00012185   -0.00115187

     Total force =     0.376205     Total SCF correction =     0.000444
  @ DRIVER MODE: Message from server: STATUS
  @ DRIVER MODE: Message from server: GETFORCE
  @ DRIVER MODE: Returning v,forces,stress,ensemble

     Writing output data file ./calc.save/
  @ DRIVER MODE: Message from server: EXIT
  @ DRIVE MODE: Exiting

     General routines

     Parallel routines

   This run was terminated on:  18:12:50  21Sep2021

   JOB DONE.