     Program PWSCF v.6.7GPU starts on  2Aug2021 at 13:38:43

     R & G space division:  proc/nbgrp/npool/nimage =      16
     Reading input from /storage/home/hcoda1/3/ntian30/research/carbon/02Aug_vib_paired/ads_slab/CH3NNHH_a/out_0006/pw.inp
Warning: card &CELL ignored
Warning: card   CELL_DYNAMICS='IPI', ignored
Warning: card / ignored

     Current dimensions of program PWSCF are:
     Max number of different atomic species (ntypx) = 10
     Max number of k-points (npk) =  40000
     Max angular momentum in pseudopotentials (lmaxx) =  3
     Presently no symmetry can be used with electric field

     Message from routine cell_base_init:
     DEPRECATED: use true lattice parameter, not A to a.u. conversion factor

     IMPORTANT: XC functional enforced from input :
     Exchange-correlation= BEEF-VDW
                           (   1   4  43  14   2   0   0)
     Any further DFT definition will be discarded
     Please, verify this is what you really want

  @ DRIVER MODE: Connecting to
 qe_1139763_2482543.sched-torque.pace.gatech.eduzp4kzyfb_scratch
  using UNIX socket
  @ DRIVER MODE: Message from server: STATUS
  @ DRIVER MODE: Message from server: INIT
  @ DRIVER MODE: Receiving replica           0          -1
  @ DRIVER MODE: Receiving encoded integer          25
  @ DRIVER MODE:  SCF:  T  FORCE:  T  STRESS:  F  VC:  F  ENSEMBLE:  F
  @ DRIVER MODE:  SCF:  T  FORCE:  T  STRESS:  F  VC:  F  ENSEMBLE:  F

     Using Slab Decomposition

     bravais-lattice index     =            0
     lattice parameter (alat)  =       1.8897  a.u.
     unit-cell volume          =    6658.9804 (a.u.)^3
     number of atoms/cell      =           55
     number of atomic types    =            5
     number of electrons       =       397.00
     number of Kohn-Sham states=          208
     kinetic-energy cutoff     =      29.3995  Ry
     charge density cutoff     =     293.9946  Ry
     scf convergence threshold =      7.3E-08
     mixing beta               =       0.0500
     number of iterations used =            8  plain     mixing
     Exchange-correlation= BEEF-VDW
                           (   1   4  43  14   2   0   0)

     celldm(1)=   1.889726  celldm(2)=   0.000000  celldm(3)=   0.000000
     celldm(4)=   0.000000  celldm(5)=   0.000000  celldm(6)=   0.000000

     crystal axes: (cart. coord. in units of alat)
               a(1) = (   6.579727   0.000000   0.000000 )
               a(2) = (  -0.000775   5.961596   0.000000 )
               a(3) = (   0.000000   0.000000  25.155947 )

     reciprocal axes: (cart. coord. in units 2 pi/alat)
               b(1) = (  0.151982  0.000020  0.000000 )
               b(2) = (  0.000000  0.167740  0.000000 )
               b(3) = (  0.000000  0.000000  0.039752 )

     PseudoPot. # 1 for Ti read from file:
     /storage/coda1/p-amedford6/0/shared/rich_project_chbe-medford/medford-share/data/pseudos_module/espresso/nninc/pbe/van/Ti.UPF
     MD5 check sum: 8e4df49b7f0d34bbd5052bf3f5ea0213
     Pseudo is Ultrasoft, Zval = 12.0
     Generated by new atomic code, or converted to UPF format
     Using radial grid of  851 points,  6 beta functions with:
                l(1) =   0
                l(2) =   0
                l(3) =   1
                l(4) =   1
                l(5) =   2
                l(6) =   2
     Q(r) pseudized with  8 coefficients,  rinner =    1.000   1.000   1.000
                                                       1.000   1.000

     PseudoPot. # 2 for O  read from file:
     /storage/coda1/p-amedford6/0/shared/rich_project_chbe-medford/medford-share/data/pseudos_module/espresso/nninc/pbe/van/O.UPF
     MD5 check sum: 78c19812648e8988a0fe644b0f25305e
     Pseudo is Ultrasoft, Zval =  6.0
     Generated by new atomic code, or converted to UPF format
     Using radial grid of  737 points,  4 beta functions with:
                l(1) =   0
                l(2) =   0
                l(3) =   1
                l(4) =   1
     Q(r) pseudized with  8 coefficients,  rinner =    0.800   0.800   0.800

     PseudoPot. # 3 for N  read from file:
     /storage/coda1/p-amedford6/0/shared/rich_project_chbe-medford/medford-share/data/pseudos_module/espresso/nninc/pbe/van/N.UPF
     MD5 check sum: 90d10febe142ad51ac9d5be1deb811c4
     Pseudo is Ultrasoft, Zval =  5.0
     Generated by new atomic code, or converted to UPF format
     Using radial grid of  729 points,  4 beta functions with:
                l(1) =   0
                l(2) =   0
                l(3) =   1
                l(4) =   1
     Q(r) pseudized with  8 coefficients,  rinner =    0.800   0.800   0.800

     PseudoPot. # 4 for C  read from file:
     /storage/coda1/p-amedford6/0/shared/rich_project_chbe-medford/medford-share/data/pseudos_module/espresso/nninc/pbe/van/C.UPF
     MD5 check sum: 1a69bf6b8db32088f5b2163dbdb77a27
     Pseudo is Ultrasoft, Zval =  4.0
     Generated by new atomic code, or converted to UPF format
     Using radial grid of  721 points,  4 beta functions with:
                l(1) =   0
                l(2) =   0
                l(3) =   1
                l(4) =   1
     Q(r) pseudized with  8 coefficients,  rinner =    0.800   0.800   0.800

     PseudoPot. # 5 for H  read from file:
     /storage/coda1/p-amedford6/0/shared/rich_project_chbe-medford/medford-share/data/pseudos_module/espresso/nninc/pbe/van/H.UPF
     MD5 check sum: b5ee9d7bfd3a09ee7748110bda690ff7
     Pseudo is Ultrasoft, Zval =  1.0
     Generated by new atomic code, or converted to UPF format
     Using radial grid of  615 points,  1 beta functions with:
                l(1) =   0
     Q(r) pseudized with  8 coefficients,  rinner =    0.800

     atomic species   valence    mass     pseudopotential
        Ti1           12.00    47.86700     Ti( 1.00)
        O1             6.00    15.99900     O ( 1.00)
        N1             5.00    14.00700     N ( 1.00)
        C1             4.00    12.01100     C ( 1.00)
        H1             1.00     1.00800     H ( 1.00)

     No symmetry found

   Cartesian axes

     site n.     atom                  positions (alat units)
         1           Ti1 tau(   1) = (   0.0004258   2.9801865   6.0000000  )
         2           Ti1 tau(   2) = (   3.2906075   1.4906267   6.0002472  )
         3           O1  tau(   3) = (   0.0006271   0.0005054   7.9858123  )
         4           O1  tau(   4) = (   3.2906025   0.0005020   7.3038282  )
         5           O1  tau(   5) = (   4.5942328   1.4918067   9.2879030  )
         6           O1  tau(   6) = (   1.9868534   1.4903216   9.2879459  )
         7           Ti1 tau(   7) = (   3.2907910   2.8959150   9.1758416  )
         8           Ti1 tau(   8) = (   0.0015273   1.4827037   9.2680791  )
         9           O1  tau(   9) = (   3.3049802   0.0007868  11.3057318  )
        10           O1  tau(  10) = (   0.0116148   5.9584955  10.6183126  )
        11           O1  tau(  11) = (   1.3244024   1.4905818  12.6109357  )
        12           O1  tau(  12) = (   5.3168099   1.4893704  12.6271843  )
        13           Ti1 tau(  13) = (   6.5373159   3.0114403  12.6515439  )
        14           Ti1 tau(  14) = (   3.2156784   1.4952808  12.4541107  )
        15           O1  tau(  15) = (   0.0550716   5.9579553  14.6769760  )
        16           O1  tau(  16) = (   3.3119233   0.0240268  13.8744051  )
        17           O1  tau(  17) = (   4.5754650   1.5399768  16.1198157  )
        18           O1  tau(  18) = (   2.0928293   1.5118261  15.9950610  )
        19           Ti1 tau(  19) = (   3.3312717   3.0210965  15.6459898  )
        20           Ti1 tau(  20) = (   0.0837956   1.4057146  15.8023643  )
        21           O1  tau(  21) = (   3.2904802   0.0005063   4.7018136  )
        22           O1  tau(  22) = (   0.0662678   0.0194342  17.2484716  )
        23           O1  tau(  23) = (   1.3043587   1.4918075   6.0039043  )
        24           O1  tau(  24) = (   5.2767064   1.4903225   6.0039473  )
        25           Ti1 tau(  25) = (   0.0000382   5.9609847   6.0000000  )
        26           Ti1 tau(  26) = (   3.2902200   4.4714249   6.0002472  )
        27           O1  tau(  27) = (   0.0002396   2.9813036   7.9858123  )
        28           O1  tau(  28) = (   3.2902150   2.9813002   7.3038282  )
        29           O1  tau(  29) = (   4.5938453   4.4726049   9.2879030  )
        30           O1  tau(  30) = (   1.9864658   4.4711199   9.2879459  )
        31           Ti1 tau(  31) = (   3.2891106   5.8743827   9.1763621  )
        32           Ti1 tau(  32) = (   0.0006254   4.4649316   9.2693709  )
        33           O1  tau(  33) = (   3.3066024   2.9928613  11.3071500  )
        34           O1  tau(  34) = (   0.0092240   2.9805883  10.6323155  )
        35           O1  tau(  35) = (   1.3207996   4.4694119  12.6241097  )
        36           O1  tau(  36) = (   5.3140488   4.4801720  12.6365454  )
        37           Ti1 tau(  37) = (   6.5381296   0.0208815  12.5444857  )
        38           Ti1 tau(  38) = (   3.2183512   4.4801350  12.4586296  )
        39           O1  tau(  39) = (   0.0202472   2.9427232  14.7250097  )
        40           O1  tau(  40) = (   3.3152672   2.9848540  13.8607131  )
        41           O1  tau(  41) = (   4.5737023   4.5140360  15.9163038  )
        42           O1  tau(  42) = (   2.1295162   4.4918226  16.0779194  )
        43           Ti1 tau(  43) = (   3.3279662   0.0229233  15.6733299  )
        44           Ti1 tau(  44) = (   6.5520288   4.5036137  16.2892914  )
        45           O1  tau(  45) = (   3.2900926   2.9813045   4.7018136  )
        46           O1  tau(  46) = (   1.3039711   4.4726057   6.0039043  )
        47           O1  tau(  47) = (   5.2763189   4.4711207   6.0039473  )
        48           N1  tau(  48) = (   0.3708600   2.9881754  17.6130774  )
        49           C1  tau(  49) = (   1.3543844   2.7351176  18.6431602  )
        50           H1  tau(  50) = (   1.5086739   3.6319226  19.2591966  )
        51           H1  tau(  51) = (   1.0320479   1.9069190  19.2840631  )
        52           H1  tau(  52) = (   2.3019873   2.4496563  18.1994378  )
        53           N1  tau(  53) = (   5.7269228   3.4566738  18.1314761  )
        54           H1  tau(  54) = (   5.8315057   4.0292447  18.9662490  )
        55           H1  tau(  55) = (   5.0361168   2.7172796  18.2515220  )

     number of k points=    10  Fermi-Dirac smearing, width (Ry)=  0.0073
                       cart. coord. in units 2pi/alat
        k(    1) = (   0.0000000   0.0000000   0.0000000), wk =   0.1250000
        k(    2) = (   0.0000000   0.0419351   0.0000000), wk =   0.2500000
        k(    3) = (   0.0000000  -0.0838702   0.0000000), wk =   0.1250000
        k(    4) = (   0.0379955   0.0000049   0.0000000), wk =   0.2500000
        k(    5) = (   0.0379955   0.0419400   0.0000000), wk =   0.2500000
        k(    6) = (   0.0379955  -0.0838652   0.0000000), wk =   0.2500000
        k(    7) = (   0.0379955  -0.0419301   0.0000000), wk =   0.2500000
        k(    8) = (  -0.0759910  -0.0000099   0.0000000), wk =   0.1250000
        k(    9) = (  -0.0759910   0.0419252   0.0000000), wk =   0.2500000
        k(   10) = (  -0.0759910  -0.0838800   0.0000000), wk =   0.1250000

     Initial potential from superposition of free atoms

     starting charge  380.99914, renormalised to  397.00000

     negative rho (up, down):  1.666E-02 0.000E+00

     %%%%%%%%%%%%%%%%%%%%%%%%%%%%%%%%%%%%%%%%%%%%%%%%%%%%%%%%%%%%%%%%%%%%%%%%
     %                                                                      %
     % You are using vdW-DF, which was implemented by the Thonhauser group. %
     % Please cite the following two papers that made this development      %
     % possible and the two reviews that describe the various versions:     %
     %                                                                      %
     %   T. Thonhauser et al., PRL 115, 136402 (2015).                      %
     %   T. Thonhauser et al., PRB 76, 125112 (2007).                       %
     %   K. Berland et al., Rep. Prog. Phys. 78, 066501 (2015).             %
     %   D.C. Langreth et al., J. Phys.: Condens. Matter 21, 084203 (2009). %
     %                                                                      %
     %                                                                      %
     % If you are calculating the stress with vdW-DF, please also cite:     %
     %                                                                      %
     %   R. Sabatini et al., J. Phys.: Condens. Matter 24, 424209 (2012).   %
     %                                                                      %
     %%%%%%%%%%%%%%%%%%%%%%%%%%%%%%%%%%%%%%%%%%%%%%%%%%%%%%%%%%%%%%%%%%%%%%%%

     Adding external electric field

     Computed dipole along edir(3) :
        Dipole               -9.2580 Ry au,        -23.5314 Debye
        Dipole field         -0.0175 Ry au,

        Potential amp.        1.6195 Ry
        Total length         46.3494 bohr

     Starting wfcs are  301 atomic wfcs
  @ DRIVER MODE: Message from server: STATUS
  @ DRIVER MODE: Message from server: POSDATA
  @ DRIVER MODE: Reading and sharing cell
  @ DRIVER MODE: Reading and sharing positions
  @ DRIVER MODE: Received positions

     Self-consistent Calculation

     iteration #  1     ecut=    29.40 Ry     beta= 0.05
     Davidson diagonalization with overlap
     c_bands:  1 eigenvalues not converged
     c_bands:  2 eigenvalues not converged
     c_bands:  1 eigenvalues not converged
     c_bands:  2 eigenvalues not converged
     c_bands:  2 eigenvalues not converged
     c_bands:  1 eigenvalues not converged
     c_bands:  2 eigenvalues not converged
     c_bands:  2 eigenvalues not converged
     c_bands:  4 eigenvalues not converged
     ethr =  1.00E-05,  avg # of iterations = 19.7

[...]

     total energy              =   -2525.58125903 Ry
     estimated scf accuracy    <    4612.92988404 Ry

     iteration #  2     ecut=    29.40 Ry     beta= 0.05
     Davidson diagonalization with overlap
     ethr =  1.00E-02,  avg # of iterations = 22.8

[...]

     iteration # 73     ecut=    29.40 Ry     beta= 0.05
     Davidson diagonalization with overlap
     c_bands:  2 eigenvalues not converged
     ethr =  2.60E-11,  avg # of iterations = 14.9

[...]

     total energy              =   -2941.63738663 Ry
     estimated scf accuracy    <       0.00000013 Ry

     iteration # 75     ecut=    29.40 Ry     beta= 0.05
     Davidson diagonalization with overlap
     ethr =  2.60E-11,  avg # of iterations = 10.6

     negative rho (up, down):  1.673E-02 0.000E+00

     Adding external electric field

     Computed dipole along edir(3) :
        Dipole                1.1443 Ry au,          2.9084 Debye
        Dipole field          0.0022 Ry au,

        Potential amp.       -0.2002 Ry
        Total length         46.3494 bohr

     End of self-consistent calculation

          k = 0.0000 0.0000 0.0000 ( 18029 PWs)   bands (ev):

   -55.5759 -55.5728 -55.5391 -55.5388 -55.4626 -55.4257 -55.4246 -55.3906
   -55.3736 -55.3395 -55.3287 -55.2948 -55.0368 -54.8900 -54.5394 -54.5054
   -32.1387 -32.0539 -31.9598 -31.8950 -31.8902 -31.8756 -31.8656 -31.8213
   -31.8136 -31.8073 -31.7866 -31.7616 -31.7579 -31.7285 -31.7250 -31.7178
   -31.6759 -31.6628 -31.6603 -31.6514 -31.6506 -31.6301 -31.6143 -31.5988
   -31.5719 -31.5705 -31.5692 -31.5613 -31.5589 -31.5325 -31.5089 -31.5077
   -31.5023 -31.4949 -31.4832 -31.4770 -31.4423 -31.3128 -31.2615 -31.1619
   -31.1419 -31.0498 -30.9457 -30.8592 -30.8367 -30.7628 -30.6764 -30.5650
   -17.6354 -16.3647 -16.0513 -15.8401 -15.7291 -15.7247 -15.6406 -15.4196
   -15.2996 -15.2841 -15.1679 -15.1631 -15.1040 -15.0635 -15.0570 -15.0510
   -15.0167 -15.0048 -14.9860 -14.9567 -14.9175 -14.8999 -14.8801 -14.7739
   -14.7127 -14.7018 -14.6856 -14.6193 -14.5755 -14.2112 -13.0414 -12.9253
   -12.5757  -9.1918  -6.3632  -5.1175  -4.2168  -3.7429  -3.5521  -3.4760
    -3.4415  -3.3772  -3.3641  -3.1854  -3.1777  -2.8000  -2.7790  -2.7599
    -2.7382  -2.7357  -2.4677  -2.4142  -2.3975  -2.3945  -2.3765  -2.3607
    -2.3382  -2.3277  -2.3001  -2.2910  -2.1572  -2.1135  -2.0348  -2.0047
    -1.9934  -1.8809  -1.8576  -1.8364  -1.8254  -1.8114  -1.7819  -1.7749
    -1.7543  -1.6468  -1.5374  -1.4632  -1.4171  -1.3639  -1.3416  -1.1650
    -1.1157  -1.0554  -1.0308  -1.0047  -0.9904  -0.9567  -0.8814  -0.8524
    -0.7166  -0.6783  -0.6249  -0.5996  -0.5687  -0.5113  -0.4774  -0.4497
    -0.3499  -0.3409  -0.3290  -0.3162  -0.2553  -0.0682  -0.0204  -0.0026
     0.0128   0.1129   0.1529   0.1767   0.2124   0.2690   0.2940   0.3610
     0.3908   0.4105   0.4205   0.4440   0.4665   0.5984   0.6268   0.6554
     0.7147   0.7686   0.8457   0.9591   1.0441   1.0964   1.1978   1.4159
     1.4831   1.5675   1.6769   1.7242   2.0526   2.0976   3.5621   3.6526
     3.6907   3.7046   3.8115   3.8638   4.0110   4.0209   4.0635   4.0924

[...]

          k = 0.0380-0.0419 0.0000 ( 17876 PWs)   bands (ev):

[...]

          k =-0.0760-0.0000 0.0000 ( 17886 PWs)   bands (ev):

[...]

          k =-0.0760-0.0839 0.0000 ( 17948 PWs)   bands (ev):

   -55.5607 -55.5563 -55.5551 -55.5541 -55.4518 -55.4354 -55.4106 -55.4056
   -55.3580 -55.3547 -55.3133 -55.3103 -55.0354 -54.8913 -54.5224 -54.5222
   -31.9437 -31.9349 -31.8696 -31.8689 -31.8515 -31.8505 -31.8456 -31.8305
   -31.8039 -31.7902 -31.7704 -31.7517 -31.7237 -31.7152 -31.7097 -31.6847
   -31.6828 -31.6759 -31.6746 -31.6705 -31.6676 -31.6548 -31.6516 -31.6475
   -31.6285 -31.6159 -31.6058 -31.6043 -31.5554 -31.5533 -31.5462 -31.5445
   -31.5373 -31.5338 -31.5287 -31.5272 -31.4181 -31.3245 -31.2633 -31.2234
   -31.1473 -31.0615 -30.8494 -30.8493 -30.7586 -30.7584 -30.7197 -30.7196
   -17.6241 -15.8222 -15.7866 -15.5289 -15.5215 -15.5196 -15.4780 -15.3556
   -15.3067 -15.2799 -15.2686 -15.2496 -15.2431 -15.1387 -15.1260 -15.1088
   -15.0988 -15.0726 -15.0293 -15.0235 -15.0159 -15.0060 -14.9942 -14.9299
   -14.8748 -14.8710 -14.7636 -14.6682 -14.5260 -14.4409 -13.0273 -13.0270
   -12.5947  -9.1520  -6.3228  -5.1490  -4.1505  -3.4345  -3.1233  -3.0795
    -2.7910  -2.7717  -2.7580  -2.6414  -2.5214  -2.5127  -2.4878  -2.4638
    -2.4320  -2.4168  -2.4085  -2.4000  -2.3821  -2.3634  -2.3526  -2.3138
    -2.2444  -2.2366  -2.2269  -2.2200  -2.2034  -2.1793  -2.1691  -2.1411
    -2.1165  -2.0834  -2.0233  -1.9940  -1.8417  -1.7970  -1.7362  -1.6985
    -1.6896  -1.6605  -1.6270  -1.6195  -1.5111  -1.4943  -1.4620  -1.3340
    -1.2719  -1.2638  -1.2306  -1.1452  -1.1070  -0.9756  -0.9623  -0.9262
    -0.8707  -0.8596  -0.8236  -0.7858  -0.7358  -0.6833  -0.6394  -0.6148
    -0.5979  -0.5265  -0.5258  -0.4779  -0.4227  -0.3524  -0.3291  -0.3210
    -0.2901  -0.2454  -0.2001  -0.1352  -0.0599  -0.0367  -0.0247   0.0739
     0.1498   0.3669   0.4109   0.5132   0.5323   0.5589   0.6208   0.6704
     0.7393   0.7530   0.7825   0.8562   0.8784   0.9691   0.9796   0.9962
     1.1745   1.6551   1.8485   1.8494   1.9172   1.9178   3.8562   3.8699
     3.8959   3.9201   4.0814   4.0853   4.0974   4.1001   4.2204   4.2509

     the Fermi energy is     3.5610 ev

!    total energy              =   -2941.63740172 Ry
     estimated scf accuracy    <       0.00000005 Ry
     smearing contrib. (-TS)   =      -0.02170459 Ry
     internal energy E=F+TS    =   -2941.61569713 Ry

     The total energy is F=E-TS. E is the sum of the following terms:
     one-electron contribution =  -24402.74146084 Ry
     hartree contribution      =   12293.28010560 Ry
     xc contribution           =    -486.95007958 Ry
     ewald contribution        =    9654.79326676 Ry
     electric field correction =       0.00247092 Ry

     convergence has been achieved in  75 iterations

     Forces acting on atoms (cartesian axes, Ry/au):

     atom    1 type  1   force =     0.00002516   -0.00018196    0.09685996
     atom    2 type  1   force =     0.00010466   -0.00066502   -0.17456591
     atom    3 type  2   force =     0.00019873   -0.00005185   -0.02506393
     atom    4 type  2   force =     0.00001505   -0.00122405    0.05111098
     atom    5 type  2   force =    -0.01108881   -0.00078814    0.00212880
     atom    6 type  2   force =     0.01304086   -0.00028774    0.00280626
     atom    7 type  1   force =     0.00114108    0.00019626   -0.01338696
     atom    8 type  1   force =    -0.00017966    0.01541453    0.02794644
     atom    9 type  2   force =    -0.00011502    0.00045416    0.00002491
     atom   10 type  2   force =    -0.00221842    0.00097605   -0.01124902
     atom   11 type  2   force =     0.00028505   -0.00011300    0.00017149
     atom   12 type  2   force =    -0.00026420   -0.00011679    0.00039631
     atom   13 type  1   force =    -0.00007486   -0.00027478    0.00004326
     atom   14 type  1   force =     0.00013033    0.00013034   -0.00004795
     atom   15 type  2   force =     0.00008289   -0.00041564   -0.00015056
     atom   16 type  2   force =    -0.00043919    0.00017073    0.00024552
     atom   17 type  2   force =    -0.00012213   -0.00000155   -0.00006480
     atom   18 type  2   force =    -0.00046967    0.00000865    0.00020175
     atom   19 type  1   force =    -0.00009005    0.00040976   -0.00021506
     atom   20 type  1   force =    -0.00017247   -0.00008723    0.00062024
     atom   21 type  2   force =     0.00004973   -0.00009603    0.10295836
     atom   22 type  2   force =    -0.00081550   -0.00047967    0.00020173
     atom   23 type  2   force =    -0.07178806   -0.00022049   -0.02777955
     atom   24 type  2   force =     0.07175907    0.00023515   -0.02783784
     atom   25 type  1   force =     0.00004536   -0.00023052    0.09638764
     atom   26 type  1   force =    -0.00001580   -0.00031129   -0.17482251
     atom   27 type  2   force =     0.00020213   -0.00025562   -0.02390567
     atom   28 type  2   force =     0.00007540   -0.00096290    0.05132926
     atom   29 type  2   force =    -0.01108942    0.00095482    0.00149164
     atom   30 type  2   force =     0.01289474    0.00119925    0.00212050
     atom   31 type  1   force =     0.00114945    0.00256636   -0.01567535
     atom   32 type  1   force =    -0.00001853   -0.01667145    0.02886327
     atom   33 type  2   force =    -0.00017992   -0.00045211    0.00044935
     atom   34 type  2   force =    -0.00258465    0.00114481   -0.01888360
     atom   35 type  2   force =    -0.00012164   -0.00011034    0.00004127
     atom   36 type  2   force =    -0.00003147   -0.00019200    0.00022942
     atom   37 type  1   force =    -0.00025354   -0.00016571    0.00039765
     atom   38 type  1   force =     0.00010941   -0.00053635    0.00035305
     atom   39 type  2   force =     0.00008937    0.00046128    0.00059083
     atom   40 type  2   force =    -0.00031432   -0.00012871   -0.00074258
     atom   41 type  2   force =     0.00011462   -0.00000792    0.00008035
     atom   42 type  2   force =    -0.00021071    0.00012388    0.00022891
     atom   43 type  1   force =     0.00001285   -0.00050942   -0.00071885
     atom   44 type  1   force =     0.00012631   -0.00032832    0.00170102
     atom   45 type  2   force =     0.00006056   -0.00011415    0.10296106
     atom   46 type  2   force =    -0.07180653   -0.00016820   -0.02779930
     atom   47 type  2   force =     0.07176583    0.00021621   -0.02784269
     atom   48 type  3   force =    -0.00160432   -0.00034366   -0.01423828
     atom   49 type  4   force =     0.00151353    0.00064615    0.00633719
     atom   50 type  5   force =     0.00089959   -0.00014358    0.00137560
     atom   51 type  5   force =    -0.00003609   -0.00102168    0.00093951
     atom   52 type  5   force =     0.00101919   -0.00021600   -0.00044202
     atom   53 type  3   force =     0.00029194    0.00148505    0.00362554
     atom   54 type  5   force =    -0.00064581    0.00035017    0.00167258
     atom   55 type  5   force =    -0.00045210    0.00073024   -0.00145925

     Total force =     0.367444     Total SCF correction =     0.000673
  @ DRIVER MODE: Message from server: STATUS
  @ DRIVER MODE: Message from server: GETFORCE
  @ DRIVER MODE: Returning v,forces,stress,ensemble

     Writing output data file ./calc.save/
  @ DRIVER MODE: Message from server: EXIT
  @ DRIVE MODE: Exiting

     General routines

     Parallel routines

   This run was terminated on:  13:56:12   2Aug2021

   JOB DONE.