     Program PWSCF v.6.7GPU starts on 14Sep2021 at 20:30: 6

     R & G space division:  proc/nbgrp/npool/nimage =      10
     Reading input from /storage/home/hcoda1/3/ntian30/research/carbon/CxH_vib/CH_calc/ads_slab/CHON2_d/out_0021/pw.inp
Warning: card &CELL ignored
Warning: card   CELL_DYNAMICS='IPI', ignored
Warning: card / ignored

     Current dimensions of program PWSCF are:
     Max number of different atomic species (ntypx) = 10
     Max number of k-points (npk) =  40000
     Max angular momentum in pseudopotentials (lmaxx) =  3
     Presently no symmetry can be used with electric field

     Message from routine cell_base_init:
     DEPRECATED: use true lattice parameter, not A to a.u. conversion factor

     IMPORTANT: XC functional enforced from input :
     Exchange-correlation= BEEF-VDW
                           (   1   4  43  14   2   0   0)
     Any further DFT definition will be discarded
     Please, verify this is what you really want

  @ DRIVER MODE: Connecting to
 qe_1139763_2840438.sched-torque.pace.gatech.edumqxgpq8s_scratch
  using UNIX socket
  @ DRIVER MODE: Message from server: STATUS
  @ DRIVER MODE: Message from server: INIT
  @ DRIVER MODE: Receiving replica           0          -1
  @ DRIVER MODE: Receiving encoded integer          25
  @ DRIVER MODE:  SCF:  T  FORCE:  T  STRESS:  F  VC:  F  ENSEMBLE:  F
  @ DRIVER MODE:  SCF:  T  FORCE:  T  STRESS:  F  VC:  F  ENSEMBLE:  F

     Using Slab Decomposition

     bravais-lattice index     =            0
     lattice parameter (alat)  =       1.8897  a.u.
     unit-cell volume          =    6658.9804 (a.u.)^3
     number of atoms/cell      =           52
     number of atomic types    =            5
     number of electrons       =       399.00
     number of Kohn-Sham states=          209
     kinetic-energy cutoff     =      29.3995  Ry
     charge density cutoff     =     293.9946  Ry
     scf convergence threshold =      7.3E-08
     mixing beta               =       0.0500
     number of iterations used =            8  plain     mixing
     Exchange-correlation= BEEF-VDW
                           (   1   4  43  14   2   0   0)

     celldm(1)=   1.889726  celldm(2)=   0.000000  celldm(3)=   0.000000
     celldm(4)=   0.000000  celldm(5)=   0.000000  celldm(6)=   0.000000

     crystal axes: (cart. coord. in units of alat)
               a(1) = (   6.579727   0.000000   0.000000 )
               a(2) = (  -0.000775   5.961596   0.000000 )
               a(3) = (   0.000000   0.000000  25.155947 )

     reciprocal axes: (cart. coord. in units 2 pi/alat)
               b(1) = (  0.151982  0.000020  0.000000 )
               b(2) = (  0.000000  0.167740  0.000000 )
               b(3) = (  0.000000  0.000000  0.039752 )

     PseudoPot. # 1 for O  read from file:
     /storage/coda1/p-amedford6/0/shared/rich_project_chbe-medford/medford-share/data/pseudos_module/espresso/nninc/pbe/van/O.UPF
     MD5 check sum: 78c19812648e8988a0fe644b0f25305e
     Pseudo is Ultrasoft, Zval =  6.0
     Generated by new atomic code, or converted to UPF format
     Using radial grid of  737 points,  4 beta functions with:
                l(1) =   0
                l(2) =   0
                l(3) =   1
                l(4) =   1
     Q(r) pseudized with  8 coefficients,  rinner =    0.800   0.800   0.800

     PseudoPot. # 2 for Ti read from file:
     /storage/coda1/p-amedford6/0/shared/rich_project_chbe-medford/medford-share/data/pseudos_module/espresso/nninc/pbe/van/Ti.UPF
     MD5 check sum: 8e4df49b7f0d34bbd5052bf3f5ea0213
     Pseudo is Ultrasoft, Zval = 12.0
     Generated by new atomic code, or converted to UPF format
     Using radial grid of  851 points,  6 beta functions with:
                l(1) =   0
                l(2) =   0
                l(3) =   1
                l(4) =   1
                l(5) =   2
                l(6) =   2
     Q(r) pseudized with  8 coefficients,  rinner =    1.000   1.000   1.000
                                                       1.000   1.000

     PseudoPot. # 3 for C  read from file:
     /storage/coda1/p-amedford6/0/shared/rich_project_chbe-medford/medford-share/data/pseudos_module/espresso/nninc/pbe/van/C.UPF
     MD5 check sum: 1a69bf6b8db32088f5b2163dbdb77a27
     Pseudo is Ultrasoft, Zval =  4.0
     Generated by new atomic code, or converted to UPF format
     Using radial grid of  721 points,  4 beta functions with:
                l(1) =   0
                l(2) =   0
                l(3) =   1
                l(4) =   1
     Q(r) pseudized with  8 coefficients,  rinner =    0.800   0.800   0.800

     PseudoPot. # 4 for H  read from file:
     /storage/coda1/p-amedford6/0/shared/rich_project_chbe-medford/medford-share/data/pseudos_module/espresso/nninc/pbe/van/H.UPF
     MD5 check sum: b5ee9d7bfd3a09ee7748110bda690ff7
     Pseudo is Ultrasoft, Zval =  1.0
     Generated by new atomic code, or converted to UPF format
     Using radial grid of  615 points,  1 beta functions with:
                l(1) =   0
     Q(r) pseudized with  8 coefficients,  rinner =    0.800

     PseudoPot. # 5 for N  read from file:
     /storage/coda1/p-amedford6/0/shared/rich_project_chbe-medford/medford-share/data/pseudos_module/espresso/nninc/pbe/van/N.UPF
     MD5 check sum: 90d10febe142ad51ac9d5be1deb811c4
     Pseudo is Ultrasoft, Zval =  5.0
     Generated by new atomic code, or converted to UPF format
     Using radial grid of  729 points,  4 beta functions with:
                l(1) =   0
                l(2) =   0
                l(3) =   1
                l(4) =   1
     Q(r) pseudized with  8 coefficients,  rinner =    0.800   0.800   0.800

     atomic species   valence    mass     pseudopotential
        O1             6.00    15.99900     O ( 1.00)
        Ti1           12.00    47.86700     Ti( 1.00)
        C1             4.00    12.01100     C ( 1.00)
        H1             1.00     1.00800     H ( 1.00)
        N1             5.00    14.00700     N ( 1.00)

     No symmetry found

   Cartesian axes

     site n.     atom                  positions (alat units)
         1           O1  tau(   1) = (   3.2904802   0.0005063   4.7018136  )
         2           O1  tau(   2) = (   3.2900926   2.9813045   4.7018136  )
         3           Ti1 tau(   3) = (   0.0004258   2.9801865   6.0000000  )
         4           Ti1 tau(   4) = (   0.0000382   5.9609847   6.0000000  )
         5           Ti1 tau(   5) = (   3.2906075   1.4906267   6.0002472  )
         6           Ti1 tau(   6) = (   3.2902200   4.4714249   6.0002472  )
         7           O1  tau(   7) = (   1.3043587   1.4918075   6.0039043  )
         8           O1  tau(   8) = (   1.3039711   4.4726057   6.0039043  )
         9           O1  tau(   9) = (   5.2767064   1.4903225   6.0039473  )
        10           O1  tau(  10) = (   5.2763189   4.4711207   6.0039473  )
        11           O1  tau(  11) = (   3.2906025   0.0005020   7.3038282  )
        12           O1  tau(  12) = (   3.2902150   2.9813002   7.3038282  )
        13           O1  tau(  13) = (   0.0006271   0.0005054   7.9858123  )
        14           O1  tau(  14) = (   0.0002396   2.9813036   7.9858123  )
        15           Ti1 tau(  15) = (   3.2818399   0.0632074   9.1536190  )
        16           Ti1 tau(  16) = (   3.2594741   3.0397892   9.1577678  )
        17           Ti1 tau(  17) = (   6.5510804   4.5344316   9.2678866  )
        18           O1  tau(  18) = (   4.5942328   1.4918067   9.2879030  )
        19           O1  tau(  19) = (   4.5938453   4.4726049   9.2879030  )
        20           O1  tau(  20) = (   1.9868534   1.4903216   9.2879459  )
        21           O1  tau(  21) = (   1.9864658   4.4711199   9.2879459  )
        22           Ti1 tau(  22) = (   6.5572888   1.6134915   9.3644180  )
        23           O1  tau(  23) = (   0.0036999   2.9964159  10.5720758  )
        24           O1  tau(  24) = (   0.0032988   0.0129995  10.6087427  )
        25           O1  tau(  25) = (   3.3025789   3.0011443  11.3496891  )
        26           O1  tau(  26) = (   3.3069272   0.0203573  11.3499924  )
        27           Ti1 tau(  27) = (   3.3485197   1.5170776  12.4945998  )
        28           Ti1 tau(  28) = (   0.0476823   0.0282983  12.5166062  )
        29           Ti1 tau(  29) = (   3.3474104   4.4962924  12.4903914  )
        30           O1  tau(  30) = (   1.2998870   1.5091839  12.6411902  )
        31           O1  tau(  31) = (   5.2998363   1.5142331  12.6477699  )
        32           O1  tau(  32) = (   1.2995728   4.4957929  12.6443136  )
        33           O1  tau(  33) = (   5.3001588   4.4888893  12.6515721  )
        34           Ti1 tau(  34) = (   0.0405098   3.0100001  12.8178096  )
        35           O1  tau(  35) = (   3.3017622   3.0020563  13.9311684  )
        36           O1  tau(  36) = (   3.3043745   0.0240830  13.9418183  )
        37           O1  tau(  37) = (   0.0425158   3.0055145  14.7122960  )
        38           O1  tau(  38) = (   0.0212564   0.0294349  14.7090242  )
        39           Ti1 tau(  39) = (   3.3143756   3.0090542  15.7253892  )
        40           Ti1 tau(  40) = (   3.3278308   0.0282705  15.7347533  )
        41           Ti1 tau(  41) = (   0.0474550   4.6028283  15.9859659  )
        42           O1  tau(  42) = (   4.5544755   4.4960427  16.0754871  )
        43           O1  tau(  43) = (   2.0560418   4.4875074  16.0954883  )
        44           O1  tau(  44) = (   4.5513302   1.5206081  16.0934294  )
        45           O1  tau(  45) = (   2.0557237   1.5274495  16.1011513  )
        46           Ti1 tau(  46) = (   0.0476892   1.4302431  16.0559646  )
        47           O1  tau(  47) = (   0.0145416   0.0172736  17.2235231  )
        48           O1  tau(  48) = (   6.5187403   2.9994048  17.3870116  )
        49           C1  tau(  49) = (   5.9068627   3.1321688  18.5844627  )
        50           H1  tau(  50) = (   5.7866629   4.0998533  19.0461414  )
        51           N1  tau(  51) = (   5.4444810   2.0786009  19.2066540  )
        52           N1  tau(  52) = (   5.0309896   1.1542324  19.7398597  )

     number of k points=    10  Fermi-Dirac smearing, width (Ry)=  0.0073
                       cart. coord. in units 2pi/alat
        k(    1) = (   0.0000000   0.0000000   0.0000000), wk =   0.1250000
        k(    2) = (   0.0000000   0.0419351   0.0000000), wk =   0.2500000
        k(    3) = (   0.0000000  -0.0838702   0.0000000), wk =   0.1250000
        k(    4) = (   0.0379955   0.0000049   0.0000000), wk =   0.2500000
        k(    5) = (   0.0379955   0.0419400   0.0000000), wk =   0.2500000
        k(    6) = (   0.0379955  -0.0838652   0.0000000), wk =   0.2500000
        k(    7) = (   0.0379955  -0.0419301   0.0000000), wk =   0.2500000
        k(    8) = (  -0.0759910  -0.0000099   0.0000000), wk =   0.1250000
        k(    9) = (  -0.0759910   0.0419252   0.0000000), wk =   0.2500000
        k(   10) = (  -0.0759910  -0.0838800   0.0000000), wk =   0.1250000

     Initial potential from superposition of free atoms

     starting charge  382.99918, renormalised to  399.00000

     negative rho (up, down):  1.729E-02 0.000E+00

     %%%%%%%%%%%%%%%%%%%%%%%%%%%%%%%%%%%%%%%%%%%%%%%%%%%%%%%%%%%%%%%%%%%%%%%%
     %                                                                      %
     % You are using vdW-DF, which was implemented by the Thonhauser group. %
     % Please cite the following two papers that made this development      %
     % possible and the two reviews that describe the various versions:     %
     %                                                                      %
     %   T. Thonhauser et al., PRL 115, 136402 (2015).                      %
     %   T. Thonhauser et al., PRB 76, 125112 (2007).                       %
     %   K. Berland et al., Rep. Prog. Phys. 78, 066501 (2015).             %
     %   D.C. Langreth et al., J. Phys.: Condens. Matter 21, 084203 (2009). %
     %                                                                      %
     %                                                                      %
     % If you are calculating the stress with vdW-DF, please also cite:     %
     %                                                                      %
     %   R. Sabatini et al., J. Phys.: Condens. Matter 24, 424209 (2012).   %
     %                                                                      %
     %%%%%%%%%%%%%%%%%%%%%%%%%%%%%%%%%%%%%%%%%%%%%%%%%%%%%%%%%%%%%%%%%%%%%%%%

     Adding external electric field

     Computed dipole along edir(3) :
        Dipole              -10.9256 Ry au,        -27.7701 Debye
        Dipole field         -0.0206 Ry au,

        Potential amp.        1.9113 Ry
        Total length         46.3494 bohr

     Starting wfcs are  301 atomic wfcs
  @ DRIVER MODE: Message from server: STATUS
  @ DRIVER MODE: Message from server: POSDATA
  @ DRIVER MODE: Reading and sharing cell
  @ DRIVER MODE: Reading and sharing positions
  @ DRIVER MODE: Received positions

     Self-consistent Calculation

     iteration #  1     ecut=    29.40 Ry     beta= 0.05
     Davidson diagonalization with overlap
     c_bands:  1 eigenvalues not converged
     c_bands:  3 eigenvalues not converged
     c_bands:  2 eigenvalues not converged
     c_bands:  3 eigenvalues not converged
     c_bands:  2 eigenvalues not converged
     c_bands:  2 eigenvalues not converged
     c_bands:  4 eigenvalues not converged
     c_bands:  3 eigenvalues not converged
     ethr =  1.00E-05,  avg # of iterations = 19.6

[...]

     total energy              =   -2496.09469065 Ry
     estimated scf accuracy    <    5311.75399478 Ry

     iteration #  2     ecut=    29.40 Ry     beta= 0.05
     Davidson diagonalization with overlap
     ethr =  1.00E-02,  avg # of iterations = 23.1

[...]

     iteration # 61     ecut=    29.40 Ry     beta= 0.05
     Davidson diagonalization with overlap
     c_bands:  3 eigenvalues not converged
     c_bands:  1 eigenvalues not converged
     ethr =  1.35E-10,  avg # of iterations = 13.6

[...]

     total energy              =   -2969.03703432 Ry
     estimated scf accuracy    <       0.00000009 Ry

     iteration # 65     ecut=    29.40 Ry     beta= 0.05
     Davidson diagonalization with overlap
     ethr =  2.31E-11,  avg # of iterations = 10.9

     negative rho (up, down):  1.694E-02 0.000E+00

     Adding external electric field

     Computed dipole along edir(3) :
        Dipole                0.4586 Ry au,          1.1657 Debye
        Dipole field          0.0009 Ry au,

        Potential amp.       -0.0802 Ry
        Total length         46.3494 bohr

     End of self-consistent calculation

          k = 0.0000 0.0000 0.0000 ( 18029 PWs)   bands (ev):

   -55.9312 -55.9173 -55.8942 -55.8810 -55.8192 -55.7987 -55.7747 -55.7587
   -55.7518 -55.7077 -55.7038 -55.6870 -55.6531 -55.5841 -54.9455 -54.9114
   -32.4816 -32.3998 -32.3149 -32.2874 -32.2553 -32.2313 -32.2239 -32.2018
   -32.1675 -32.1589 -32.1410 -32.1342 -32.1297 -32.0980 -32.0910 -32.0618
   -32.0606 -32.0563 -32.0527 -32.0219 -32.0158 -31.9962 -31.9957 -31.9793
   -31.9727 -31.9561 -31.9400 -31.9347 -31.9247 -31.9213 -31.9171 -31.9109
   -31.9091 -31.9019 -31.8681 -31.8654 -31.8347 -31.8322 -31.8072 -31.7931
   -31.7744 -31.7714 -31.3553 -31.2582 -31.2359 -31.1720 -31.0860 -30.9747
   -20.6334 -18.6716 -16.6766 -16.3861 -16.2378 -16.0934 -16.0587 -15.9413
   -15.7728 -15.6527 -15.6166 -15.5513 -15.5020 -15.4988 -15.4812 -15.4697
   -15.4544 -15.4464 -15.4245 -15.3672 -15.3598 -15.3361 -15.3158 -15.2781
   -15.2154 -15.1431 -15.0923 -15.0513 -15.0064 -14.9376 -14.9196 -13.4463
   -13.4046 -13.3281  -6.9370  -5.8757  -4.6429  -4.0303  -3.8673  -3.8568
    -3.8223  -3.7428  -3.6422  -3.5022  -3.4863  -3.3841  -3.1815  -3.1124
    -3.0834  -3.0677  -3.0592  -2.8787  -2.8721  -2.8100  -2.7591  -2.7485
    -2.7444  -2.7170  -2.7023  -2.6750  -2.6534  -2.6437  -2.5932  -2.4704
    -2.3495  -2.3367  -2.3161  -2.2338  -2.2279  -2.2161  -2.2107  -2.1852
    -2.1560  -2.1441  -2.1370  -2.0544  -1.9700  -1.8851  -1.8568  -1.7554
    -1.7179  -1.6312  -1.4478  -1.3995  -1.3483  -1.3347  -1.3258  -1.2826
    -1.2485  -1.2010  -1.1524  -1.1287  -1.0515  -0.9531  -0.9347  -0.8452
    -0.7876  -0.7477  -0.6769  -0.6585  -0.6508  -0.6382  -0.5163  -0.4118
    -0.3989  -0.3747  -0.2730  -0.2240  -0.2147  -0.1615  -0.1468  -0.1112
    -0.0624  -0.0082   0.0259   0.0321   0.0653   0.0746   0.1175   0.2355
     0.2580   0.2633   0.3488   0.3773   0.5366   0.5804   0.7120   0.7993
     0.9819   1.0787   1.1439   1.2496   1.6672   1.7265   2.6187   3.2544
     3.2842   3.3161   3.3536   3.4088   3.5168   3.6633   3.6927   3.7115
     3.7358

[...]

          k = 0.0380-0.0419 0.0000 ( 17876 PWs)   bands (ev):

[...]

          k =-0.0760-0.0000 0.0000 ( 17886 PWs)   bands (ev):

[...]

          k =-0.0760-0.0839 0.0000 ( 17948 PWs)   bands (ev):

   -55.9199 -55.9054 -55.9003 -55.8977 -55.8123 -55.7887 -55.7815 -55.7684
   -55.7448 -55.7109 -55.7049 -55.6723 -55.6679 -55.5864 -54.9290 -54.9278
   -32.2849 -32.2819 -32.2238 -32.2169 -32.2125 -32.2083 -32.1894 -32.1882
   -32.1815 -32.1447 -32.1207 -32.1158 -32.1139 -32.0718 -32.0607 -32.0579
   -32.0496 -32.0457 -32.0423 -32.0362 -32.0290 -32.0129 -32.0087 -31.9996
   -31.9962 -31.9908 -31.9896 -31.9883 -31.9711 -31.9409 -31.9311 -31.9285
   -31.9243 -31.9235 -31.9228 -31.9038 -31.8931 -31.8875 -31.8786 -31.8680
   -31.8150 -31.7806 -31.2493 -31.2478 -31.1687 -31.1678 -31.1295 -31.1285
   -20.6321 -18.6576 -16.1077 -16.0892 -15.8944 -15.8496 -15.8440 -15.7901
   -15.7165 -15.6976 -15.6529 -15.6497 -15.5963 -15.5845 -15.5764 -15.5254
   -15.4832 -15.4535 -15.4444 -15.4388 -15.3830 -15.3793 -15.3784 -15.3238
   -15.3094 -15.2940 -15.2645 -15.2603 -15.1974 -15.1680 -15.0923 -13.4305
   -13.4281 -13.4126  -6.9090  -5.8841  -4.6419  -3.6183  -3.3980  -3.3756
    -3.3666  -3.1393  -3.0678  -3.0656  -2.9866  -2.9113  -2.8921  -2.8638
    -2.8275  -2.7792  -2.7731  -2.7662  -2.7510  -2.7381  -2.7165  -2.7083
    -2.6729  -2.6528  -2.6173  -2.5923  -2.5732  -2.5568  -2.5485  -2.5111
    -2.4920  -2.4793  -2.4695  -2.4643  -2.4025  -2.2354  -2.1854  -2.1055
    -2.0811  -2.0708  -2.0334  -2.0234  -1.9968  -1.9835  -1.9672  -1.8640
    -1.7735  -1.6867  -1.6693  -1.6516  -1.6310  -1.5938  -1.4790  -1.4507
    -1.3724  -1.3512  -1.3366  -1.2355  -1.2131  -1.1459  -1.1417  -1.0594
    -1.0167  -1.0046  -0.9401  -0.8992  -0.8844  -0.8276  -0.8015  -0.7350
    -0.6815  -0.6620  -0.5982  -0.5813  -0.5564  -0.5026  -0.4598  -0.4443
    -0.3770  -0.2863  -0.2418  -0.0499   0.0782   0.0946   0.1129   0.1856
     0.2659   0.3048   0.3277   0.3635   0.4504   0.5095   0.5837   0.6011
     0.6242   0.6895   1.4385   1.4401   1.5295   1.5403   2.5374   3.4630
     3.4851   3.5088   3.5604   3.7135   3.7179   3.7359   3.7456   3.8347
     3.8752

     the Fermi energy is     3.2231 ev

!    total energy              =   -2969.03706111 Ry
     estimated scf accuracy    <       0.00000005 Ry
     smearing contrib. (-TS)   =      -0.02339243 Ry
     internal energy E=F+TS    =   -2969.01366867 Ry

     The total energy is F=E-TS. E is the sum of the following terms:
     one-electron contribution =  -23804.60739089 Ry
     hartree contribution      =   11990.80718732 Ry
     xc contribution           =    -490.85607701 Ry
     ewald contribution        =    9335.64221496 Ry
     electric field correction =       0.00039694 Ry

     convergence has been achieved in  65 iterations

     Forces acting on atoms (cartesian axes, Ry/au):

     atom    1 type  1   force =     0.00008705    0.00006592    0.10421664
     atom    2 type  1   force =     0.00010563    0.00002969    0.10423967
     atom    3 type  2   force =     0.00028941   -0.00169739    0.10530377
     atom    4 type  2   force =     0.00011972    0.00145431    0.11700693
     atom    5 type  2   force =     0.00012307    0.00057558   -0.18001809
     atom    6 type  2   force =    -0.00004573   -0.00013554   -0.18012057
     atom    7 type  1   force =    -0.06884320    0.00078171   -0.02950141
     atom    8 type  1   force =    -0.06850747   -0.00143550   -0.02953908
     atom    9 type  1   force =     0.06893377    0.00107347   -0.02955429
     atom   10 type  1   force =     0.06849234   -0.00090988   -0.02961277
     atom   11 type  1   force =    -0.00025586    0.00067673    0.04561643
     atom   12 type  1   force =    -0.00062085    0.00092545    0.04727992
     atom   13 type  1   force =    -0.00012186   -0.00650545   -0.03344659
     atom   14 type  1   force =    -0.00030799    0.00406708   -0.02750280
     atom   15 type  2   force =    -0.00007935   -0.00037953    0.00000207
     atom   16 type  2   force =    -0.00016346   -0.00039870    0.00005323
     atom   17 type  2   force =    -0.00018157    0.00000677   -0.00008607
     atom   18 type  1   force =    -0.01864203   -0.00141753    0.00430946
     atom   19 type  1   force =    -0.01733633    0.00092661    0.00347678
     atom   20 type  1   force =     0.01934048    0.00094059    0.00436711
     atom   21 type  1   force =     0.01780540    0.00241819    0.00370268
     atom   22 type  2   force =    -0.00021742   -0.00007237   -0.00013203
     atom   23 type  1   force =    -0.00013461    0.00001009    0.00012169
     atom   24 type  1   force =     0.00016114   -0.00001327    0.00019248
     atom   25 type  1   force =     0.00000487    0.00010848   -0.00009243
     atom   26 type  1   force =    -0.00012986   -0.00014698   -0.00007748
     atom   27 type  2   force =     0.00005054    0.00000069   -0.00012320
     atom   28 type  2   force =    -0.00022451    0.00008835   -0.00015693
     atom   29 type  2   force =    -0.00000316    0.00003726   -0.00013290
     atom   30 type  1   force =    -0.00026526   -0.00016808   -0.00016984
     atom   31 type  1   force =     0.00035119   -0.00022719   -0.00020426
     atom   32 type  1   force =    -0.00004764   -0.00018296    0.00015666
     atom   33 type  1   force =    -0.00005932   -0.00005513   -0.00009726
     atom   34 type  2   force =    -0.00005113    0.00017621    0.00006548
     atom   35 type  1   force =     0.00008755   -0.00022390   -0.00016029
     atom   36 type  1   force =     0.00005466    0.00003498   -0.00000171
     atom   37 type  1   force =     0.00000581    0.00010163   -0.00008182
     atom   38 type  1   force =    -0.00011908    0.00025067   -0.00013776
     atom   39 type  2   force =     0.00001870    0.00016009    0.00018670
     atom   40 type  2   force =     0.00002021   -0.00034504   -0.00022489
     atom   41 type  2   force =    -0.00023852   -0.00073542   -0.00015873
     atom   42 type  1   force =     0.00011762    0.00016039    0.00011533
     atom   43 type  1   force =    -0.00012871    0.00026588   -0.00014947
     atom   44 type  1   force =    -0.00020891   -0.00001089    0.00014294
     atom   45 type  1   force =     0.00008127    0.00010224    0.00025313
     atom   46 type  2   force =     0.00013802    0.00004429   -0.00016425
     atom   47 type  1   force =    -0.00009318    0.00017349    0.00012817
     atom   48 type  1   force =    -0.00018480    0.00001095    0.00066318
     atom   49 type  3   force =    -0.00347871   -0.01186814    0.00380548
     atom   50 type  4   force =    -0.00011333   -0.00088818    0.00097132
     atom   51 type  5   force =     0.01364599    0.03723329   -0.01837203
     atom   52 type  5   force =    -0.00923061   -0.02508402    0.01364170

     Total force =     0.379977     Total SCF correction =     0.000367
  @ DRIVER MODE: Message from server: STATUS
  @ DRIVER MODE: Message from server: GETFORCE
  @ DRIVER MODE: Returning v,forces,stress,ensemble

     Writing output data file ./calc.save/
  @ DRIVER MODE: Message from server: EXIT
  @ DRIVE MODE: Exiting

     General routines

     Parallel routines

   This run was terminated on:  20:49:21  14Sep2021

   JOB DONE.