     Program PWSCF v.6.8 starts on 11Oct2021 at 15:32:18

     R & G space division:  proc/nbgrp/npool/nimage =      10

     Reading input from /storage/home/hcoda1/3/ntian30/research/carbon/CH2_calc/ads_slab/CH2NHH_b/CH2_calc.log/pw.inp
Warning: card &CELL ignored
Warning: card   CELL_DYNAMICS='IPI', ignored
Warning: card / ignored

     Current dimensions of program PWSCF are:
     Max number of different atomic species (ntypx) = 10
     Max number of k-points (npk) =  40000
     Max angular momentum in pseudopotentials (lmaxx) =  4
     Presently no symmetry can be used with electric field

     Message from routine cell_base_init:
     DEPRECATED: use true lattice parameter, not A to a.u. conversion factor

     IMPORTANT: XC functional enforced from input :
     Exchange-correlation= BEEF-VDW
                           (   1   4  43  14   2   0   0)
     Any further DFT definition will be discarded
     Please, verify this is what you really want

  @ DRIVER MODE: Connecting to
 qe_1139763_3169941.sched-torque.pace.gatech.eduuzc6n_mc_scratch
  using UNIX socket
  @ DRIVER MODE: Message from server: STATUS
  @ DRIVER MODE: Message from server: INIT
  @ DRIVER MODE: Receiving replica           0          -1
  @ DRIVER MODE: Receiving encoded integer          25
  @ DRIVER MODE:  SCF:  T  FORCE:  T  STRESS:  F  VC:  F  ENSEMBLE:  F
  @ DRIVER MODE:  SCF:  T  FORCE:  T  STRESS:  F  VC:  F  ENSEMBLE:  F

     Using Slab Decomposition

     bravais-lattice index     =            0
     lattice parameter (alat)  =       1.8897  a.u.
     unit-cell volume          =    6658.9804 (a.u.)^3
     number of atoms/cell      =           53
     number of atomic types    =            5
     number of electrons       =       391.00
     number of Kohn-Sham states=          205
     kinetic-energy cutoff     =      29.3995  Ry
     charge density cutoff     =     293.9946  Ry
     scf convergence threshold =      7.3E-08
     mixing beta               =       0.0500
     number of iterations used =            8  plain     mixing
     Exchange-correlation= BEEF-VDW
                           (   1   4  43  14   2   0   0)

     celldm(1)=   1.889726  celldm(2)=   0.000000  celldm(3)=   0.000000
     celldm(4)=   0.000000  celldm(5)=   0.000000  celldm(6)=   0.000000

     crystal axes: (cart. coord. in units of alat)
               a(1) = (   6.579727   0.000000   0.000000 )
               a(2) = (  -0.000775   5.961596   0.000000 )
               a(3) = (   0.000000   0.000000  25.155947 )

     reciprocal axes: (cart. coord. in units 2 pi/alat)
               b(1) = (  0.151982  0.000020  0.000000 )
               b(2) = (  0.000000  0.167740  0.000000 )
               b(3) = (  0.000000  0.000000  0.039752 )

     PseudoPot. # 1 for Ti read from file:
     /storage/coda1/p-amedford6/0/shared/rich_project_chbe-medford/medford-share/data/pseudos_module/espresso/nninc/pbe/van/Ti.UPF
     MD5 check sum: 8e4df49b7f0d34bbd5052bf3f5ea0213
     Pseudo is Ultrasoft, Zval = 12.0
     Generated by new atomic code, or converted to UPF format
     Using radial grid of  851 points,  6 beta functions with:
                l(1) =   0
                l(2) =   0
                l(3) =   1
                l(4) =   1
                l(5) =   2
                l(6) =   2
     Q(r) pseudized with  8 coefficients,  rinner =    1.000   1.000   1.000
                                                       1.000   1.000

     PseudoPot. # 2 for O  read from file:
     /storage/coda1/p-amedford6/0/shared/rich_project_chbe-medford/medford-share/data/pseudos_module/espresso/nninc/pbe/van/O.UPF
     MD5 check sum: 78c19812648e8988a0fe644b0f25305e
     Pseudo is Ultrasoft, Zval =  6.0
     Generated by new atomic code, or converted to UPF format
     Using radial grid of  737 points,  4 beta functions with:
                l(1) =   0
                l(2) =   0
                l(3) =   1
                l(4) =   1
     Q(r) pseudized with  8 coefficients,  rinner =    0.800   0.800   0.800

     PseudoPot. # 3 for H  read from file:
     /storage/coda1/p-amedford6/0/shared/rich_project_chbe-medford/medford-share/data/pseudos_module/espresso/nninc/pbe/van/H.UPF
     MD5 check sum: b5ee9d7bfd3a09ee7748110bda690ff7
     Pseudo is Ultrasoft, Zval =  1.0
     Generated by new atomic code, or converted to UPF format
     Using radial grid of  615 points,  1 beta functions with:
                l(1) =   0
     Q(r) pseudized with  8 coefficients,  rinner =    0.800

     PseudoPot. # 4 for N  read from file:
     /storage/coda1/p-amedford6/0/shared/rich_project_chbe-medford/medford-share/data/pseudos_module/espresso/nninc/pbe/van/N.UPF
     MD5 check sum: 90d10febe142ad51ac9d5be1deb811c4
     Pseudo is Ultrasoft, Zval =  5.0
     Generated by new atomic code, or converted to UPF format
     Using radial grid of  729 points,  4 beta functions with:
                l(1) =   0
                l(2) =   0
                l(3) =   1
                l(4) =   1
     Q(r) pseudized with  8 coefficients,  rinner =    0.800   0.800   0.800

     PseudoPot. # 5 for C  read from file:
     /storage/coda1/p-amedford6/0/shared/rich_project_chbe-medford/medford-share/data/pseudos_module/espresso/nninc/pbe/van/C.UPF
     MD5 check sum: 1a69bf6b8db32088f5b2163dbdb77a27
     Pseudo is Ultrasoft, Zval =  4.0
     Generated by new atomic code, or converted to UPF format
     Using radial grid of  721 points,  4 beta functions with:
                l(1) =   0
                l(2) =   0
                l(3) =   1
                l(4) =   1
     Q(r) pseudized with  8 coefficients,  rinner =    0.800   0.800   0.800

     atomic species   valence    mass     pseudopotential
        Ti1           12.00    47.86700     Ti( 1.00)
        O1             6.00    15.99900     O ( 1.00)
        H1             1.00     1.00800     H ( 1.00)
        N1             5.00    14.00700     N ( 1.00)
        C1             4.00    12.01100     C ( 1.00)

     No symmetry found

   Cartesian axes

     site n.     atom                  positions (alat units)
         1           Ti1 tau(   1) = (   0.0004258   2.9801865   6.0000000  )
         2           Ti1 tau(   2) = (   3.2906075   1.4906267   6.0002472  )
         3           O1  tau(   3) = (   0.0006271   0.0005054   7.9858123  )
         4           O1  tau(   4) = (   3.2906025   0.0005020   7.3038282  )
         5           O1  tau(   5) = (   4.5942328   1.4918067   9.2879030  )
         6           O1  tau(   6) = (   1.9868534   1.4903216   9.2879459  )
         7           Ti1 tau(   7) = (   3.2907910   2.8959150   9.1758416  )
         8           Ti1 tau(   8) = (   0.0015273   1.4827037   9.2680791  )
         9           O1  tau(   9) = (   3.3717988   0.0013487  11.3344025  )
        10           O1  tau(  10) = (   0.0116148   5.9584955  10.6183126  )
        11           O1  tau(  11) = (   1.3949636   1.4772606  12.6430001  )
        12           O1  tau(  12) = (   5.4164565   1.4910666  12.6675462  )
        13           Ti1 tau(  13) = (   0.0780255   2.9585652  12.5564570  )
        14           Ti1 tau(  14) = (   3.3709025   1.4093714  12.4616071  )
        15           O1  tau(  15) = (   0.1471701   0.0096434  14.6629539  )
        16           O1  tau(  16) = (   3.5124966   5.9615621  13.9201305  )
        17           O1  tau(  17) = (   4.7957234   1.5327761  16.1914982  )
        18           O1  tau(  18) = (   2.2580132   1.4053749  15.9438830  )
        19           Ti1 tau(  19) = (   3.5629461   2.9934616  16.0639603  )
        20           Ti1 tau(  20) = (   0.2881037   1.4260925  15.8736170  )
        21           O1  tau(  21) = (   3.2904802   0.0005063   4.7018136  )
        22           O1  tau(  22) = (   0.2670321   0.0047960  17.1855229  )
        23           O1  tau(  23) = (   1.3043587   1.4918075   6.0039043  )
        24           O1  tau(  24) = (   5.2767064   1.4903225   6.0039473  )
        25           Ti1 tau(  25) = (   0.0000382   5.9609847   6.0000000  )
        26           Ti1 tau(  26) = (   3.2902200   4.4714249   6.0002472  )
        27           O1  tau(  27) = (   0.0002396   2.9813036   7.9858123  )
        28           O1  tau(  28) = (   3.2902150   2.9813002   7.3038282  )
        29           O1  tau(  29) = (   4.5938453   4.4726049   9.2879030  )
        30           O1  tau(  30) = (   1.9864658   4.4711199   9.2879459  )
        31           Ti1 tau(  31) = (   3.2891106   5.8743827   9.1763621  )
        32           Ti1 tau(  32) = (   0.0006254   4.4649316   9.2693709  )
        33           O1  tau(  33) = (   3.3800137   2.9591579  11.3470040  )
        34           O1  tau(  34) = (   0.0092240   2.9805883  10.6323155  )
        35           O1  tau(  35) = (   1.3925220   4.4704453  12.6421915  )
        36           O1  tau(  36) = (   5.4183555   4.4547965  12.6692845  )
        37           Ti1 tau(  37) = (   0.0900442   5.9375350  12.4954152  )
        38           Ti1 tau(  38) = (   3.3734631   4.3085866  12.6590636  )
        39           O1  tau(  39) = (   0.1747144   2.9812859  14.8376077  )
        40           O1  tau(  40) = (   3.4129509   3.0244602  13.9663629  )
        41           O1  tau(  41) = (   4.7960476   4.4474764  16.2001875  )
        42           O1  tau(  42) = (   2.2576421   4.5816011  15.9612952  )
        43           Ti1 tau(  43) = (   3.5416095   0.0141599  15.7038317  )
        44           Ti1 tau(  44) = (   0.2871197   4.6170520  15.9447740  )
        45           O1  tau(  45) = (   3.2900926   2.9813045   4.7018136  )
        46           O1  tau(  46) = (   1.3039711   4.4726057   6.0039043  )
        47           O1  tau(  47) = (   5.2763189   4.4711207   6.0039473  )
        48           H1  tau(  48) = (   0.6730252   3.7225648  18.3610300  )
        49           H1  tau(  49) = (   0.7323047   2.1160424  18.2978205  )
        50           N1  tau(  50) = (   1.0916959   2.9536073  17.8305806  )
        51           C1  tau(  51) = (   2.6610371   2.9951180  18.0839196  )
        52           H1  tau(  52) = (   2.6895649   3.8224559  18.7573610  )
        53           H1  tau(  53) = (   2.7295784   2.2142559  18.8132892  )

     number of k points=    10  Fermi-Dirac smearing, width (Ry)=  0.0073
                       cart. coord. in units 2pi/alat
        k(    1) = (   0.0000000   0.0000000   0.0000000), wk =   0.1250000
        k(    2) = (   0.0000000   0.0419351   0.0000000), wk =   0.2500000
        k(    3) = (   0.0000000  -0.0838702   0.0000000), wk =   0.1250000
        k(    4) = (   0.0379955   0.0000049   0.0000000), wk =   0.2500000
        k(    5) = (   0.0379955   0.0419400   0.0000000), wk =   0.2500000
        k(    6) = (   0.0379955  -0.0838652   0.0000000), wk =   0.2500000
        k(    7) = (   0.0379955  -0.0419301   0.0000000), wk =   0.2500000
        k(    8) = (  -0.0759910  -0.0000099   0.0000000), wk =   0.1250000
        k(    9) = (  -0.0759910   0.0419252   0.0000000), wk =   0.2500000
        k(   10) = (  -0.0759910  -0.0838800   0.0000000), wk =   0.1250000

     Initial potential from superposition of free atoms

[...]
     atom   15 type  2   force =     0.00004477    0.00090720    0.00331065
     atom   16 type  2   force =     0.00098001    0.00063902    0.00045562
     atom   17 type  2   force =    -0.00218975    0.00060875   -0.00016721
     atom   18 type  2   force =     0.00072852   -0.00115447    0.00017290
     atom   19 type  1   force =     0.00246695    0.00042132   -0.00015444
     atom   20 type  1   force =     0.00189465   -0.00231680   -0.00076536
     atom   21 type  2   force =     0.00005877   -0.00008896    0.10303349
     atom   22 type  2   force =     0.00002413   -0.00065208   -0.00275890
     atom   23 type  2   force =    -0.07181040   -0.00014192   -0.02726173
     atom   24 type  2   force =     0.07188640    0.00034719   -0.02740622
     atom   25 type  1   force =    -0.00011675   -0.00021918    0.09429138
     atom   26 type  1   force =     0.00004731    0.00031538   -0.17545161
     atom   27 type  2   force =     0.00043459   -0.00025655   -0.02097477
     atom   28 type  2   force =     0.00025881   -0.00164202    0.05340118
     atom   29 type  2   force =    -0.00671470   -0.00134983    0.00000375
     atom   30 type  2   force =     0.01088989   -0.00122650    0.00507427
     atom   31 type  1   force =     0.00330344    0.00045874    0.00619236
     atom   32 type  1   force =    -0.00251533   -0.00896191    0.00827834
     atom   33 type  2   force =     0.00055227   -0.00001516    0.00314216
     atom   34 type  2   force =     0.00519466   -0.00075341   -0.00746818
     atom   35 type  2   force =    -0.00098934    0.00091734   -0.00041919
     atom   36 type  2   force =     0.00204944    0.00033694   -0.00011574
     atom   37 type  1   force =     0.00126273   -0.00126189   -0.00163316
     atom   38 type  1   force =    -0.00154616   -0.00224445    0.00040702
     atom   39 type  2   force =    -0.00008916    0.00010118    0.00246249
     atom   40 type  2   force =     0.00038728    0.00174983   -0.00146360
     atom   41 type  2   force =    -0.00204596   -0.00053747   -0.00027448
     atom   42 type  2   force =     0.00043817    0.00139909   -0.00013390
     atom   43 type  1   force =    -0.00250150    0.00054373   -0.00167091
     atom   44 type  1   force =     0.00181287    0.00294633    0.00004115
     atom   45 type  2   force =     0.00006240   -0.00001740    0.10319154
     atom   46 type  2   force =    -0.07179734   -0.00013934   -0.02729659
     atom   47 type  2   force =     0.07185215    0.00030248   -0.02740198
     atom   48 type  3   force =     0.00207779   -0.00443192   -0.00246569
     atom   49 type  3   force =     0.00176569    0.00508729   -0.00303682
     atom   50 type  4   force =    -0.00685923   -0.00111121    0.00462634
     atom   51 type  5   force =    -0.08463522   -0.00413054    0.00006368
     atom   52 type  3   force =     0.03165497    0.05186393    0.00002461
     atom   53 type  3   force =     0.03346919   -0.04726155   -0.00008463

     Total force =     0.382401     Total SCF correction =     0.000727
  @ DRIVER MODE: Message from server: STATUS
  @ DRIVER MODE: Message from server: GETFORCE
  @ DRIVER MODE: Returning v,forces,stress,ensemble

     Writing config to output data dir ./calc.save/
  @ DRIVER MODE: Message from server: STATUS
  @ DRIVER MODE: Message from server: INIT
  @ DRIVER MODE: Receiving replica           0           0
  @ DRIVER MODE: Receiving encoded integer          25
  @ DRIVER MODE:  SCF:  T  FORCE:  T  STRESS:  F  VC:  F  ENSEMBLE:  F
  @ DRIVER MODE:  SCF:  T  FORCE:  T  STRESS:  F  VC:  F  ENSEMBLE:  F
  @ DRIVER MODE: Message from server: STATUS
  @ DRIVER MODE: Message from server: POSDATA
  @ DRIVER MODE: Reading and sharing positions
  @ DRIVER MODE: Received positions
     NEW-OLD atomic charge density approx. for the potential

[...]

     Self-consistent Calculation

[...]

     iteration # 10     ecut=    29.40 Ry     beta= 0.05
     Davidson diagonalization with overlap
     c_bands:  1 eigenvalues not converged
     ethr =  2.50E-09,  avg # of iterations = 14.1

[...]

     total energy              =   -2920.27076305 Ry
     estimated scf accuracy    <       0.00000012 Ry

     iteration # 21     ecut=    29.40 Ry     beta= 0.05
     Davidson diagonalization with overlap
     ethr =  2.43E-11,  avg # of iterations =  8.2

[...]

     End of self-consistent calculation

[...]

          k = 0.0380-0.0419 0.0000 ( 17876 PWs)   bands (ev):

[...]

          k =-0.0760-0.0839 0.0000 ( 17948 PWs)   bands (ev):

   -55.8670 -55.8666 -55.7430 -55.7266 -55.7059 -55.6935 -55.6932 -55.6924
   -55.6614 -55.6357 -55.6356 -55.6225 -55.6032 -55.5644 -54.8477 -54.8472
   -32.2052 -32.1850 -32.1848 -32.1603 -32.1600 -32.1001 -32.0674 -32.0492
   -32.0337 -32.0270 -32.0239 -32.0171 -32.0015 -31.9873 -31.9865 -31.9848
   -31.9768 -31.9690 -31.9618 -31.9477 -31.9461 -31.9368 -31.9337 -31.9255
   -31.9121 -31.9033 -31.8992 -31.8946 -31.8820 -31.8780 -31.8699 -31.8690
   -31.8686 -31.8607 -31.8574 -31.8472 -31.8445 -31.8321 -31.8134 -31.8132
   -31.7979 -31.6265 -31.1741 -31.1739 -31.0841 -31.0835 -31.0454 -31.0450
   -16.1461 -15.9772 -15.8682 -15.8535 -15.7903 -15.6806 -15.6675 -15.6404
   -15.6211 -15.5845 -15.5651 -15.5520 -15.5034 -15.4642 -15.4274 -15.4030
   -15.3992 -15.3524 -15.3480 -15.3383 -15.3162 -15.2819 -15.2732 -15.2088
   -15.2002 -15.1031 -15.0882 -15.0680 -15.0177 -14.8982 -13.3491 -13.3489
    -8.9272  -5.5998  -3.8093  -3.3045  -3.2067  -3.0702  -3.0024  -2.9622
    -2.9138  -2.8809  -2.8594  -2.8409  -2.7908  -2.7769  -2.7456  -2.7020
    -2.6840  -2.6668  -2.6466  -2.6200  -2.5989  -2.5873  -2.5686  -2.5509
    -2.5183  -2.5030  -2.4765  -2.4618  -2.4514  -2.4395  -2.4312  -2.4199
    -2.2352  -2.1435  -2.0518  -2.0425  -2.0331  -2.0077  -1.9806  -1.9652
    -1.9480  -1.9264  -1.9006  -1.8713  -1.8408  -1.5891  -1.5586  -1.5237
    -1.4656  -1.4286  -1.3806  -1.3665  -1.3342  -1.3048  -1.2238  -1.1878
    -1.1605  -1.0824  -1.0107  -0.9464  -0.9006  -0.8632  -0.8326  -0.8208
    -0.7813  -0.7426  -0.7336  -0.7092  -0.6933  -0.5865  -0.5845  -0.5817
    -0.4365  -0.3990  -0.3792  -0.2868  -0.2670  -0.0878  -0.0268   0.0016
     0.1357   0.1466   0.1833   0.2929   0.3201   0.3657   0.4221   0.4432
     0.5295   0.5818   0.6236   0.6631   0.6868   0.7035   1.1668   1.5236
     1.5294   1.5956   1.5958   3.5987   3.6397   3.7061   3.7319   3.7519
     3.7875   3.8099   3.8211   3.8665   3.8763

     the Fermi energy is     3.2367 ev

!    total energy              =   -2920.27076969 Ry
     estimated scf accuracy    <       0.00000006 Ry
     smearing contrib. (-TS)   =      -0.01953028 Ry
     internal energy E=F+TS    =   -2920.25123941 Ry

     The total energy is F=E-TS. E is the sum of the following terms:
     one-electron contribution =  -24543.69258747 Ry
     hartree contribution      =   12357.64618197 Ry
     xc contribution           =    -480.81224034 Ry
     ewald contribution        =    9746.60597806 Ry
     electric field correction =       0.00142837 Ry

     convergence has been achieved in  21 iterations

     Forces acting on atoms (cartesian axes, Ry/au):

     atom    1 type  1   force =     0.00007345   -0.00038778    0.09438053
     atom    2 type  1   force =    -0.00007905   -0.00123111   -0.17583017
     atom    3 type  2   force =     0.00046238   -0.00020675   -0.02136397
     atom    4 type  2   force =     0.00017194   -0.00092936    0.05146826
     atom    5 type  2   force =    -0.00540465    0.00099751   -0.00034714
     atom    6 type  2   force =     0.00988733    0.00142674    0.00528341
     atom    7 type  1   force =     0.00312482    0.00405433   -0.00383034
     atom    8 type  1   force =    -0.00265059    0.00536710    0.00462354
     atom    9 type  2   force =     0.00032923    0.00017202    0.00037498
     atom   10 type  2   force =     0.00289845    0.00077124   -0.01333167
     atom   11 type  2   force =     0.00014683    0.00027209   -0.00003405
     atom   12 type  2   force =    -0.00016274   -0.00004054   -0.00008570
     atom   13 type  1   force =    -0.00043740   -0.00034596    0.00124967
     atom   14 type  1   force =    -0.00068515    0.00040896   -0.00128258
     atom   15 type  2   force =     0.00029143   -0.00002733   -0.00006159
     atom   16 type  2   force =     0.00007087   -0.00014112    0.00022467
     atom   17 type  2   force =     0.00027632   -0.00088201    0.00070066
     atom   18 type  2   force =     0.00013366    0.00009605   -0.00020804
     atom   19 type  1   force =    -0.00006627    0.00036326   -0.00092770
     atom   20 type  1   force =     0.00003748    0.00188541   -0.00031729
     atom   21 type  2   force =     0.00004934   -0.00009669    0.10312362
     atom   22 type  2   force =    -0.00062440    0.00071860    0.00083646
     atom   23 type  2   force =    -0.07169390   -0.00014487   -0.02717803
     atom   24 type  2   force =     0.07174703    0.00034631   -0.02731652
     atom   25 type  1   force =    -0.00009566   -0.00022317    0.09388328
     atom   26 type  1   force =     0.00003461    0.00040393   -0.17579930
     atom   27 type  2   force =     0.00045988   -0.00026477   -0.02046291
     atom   28 type  2   force =     0.00023577   -0.00170713    0.05410064
     atom   29 type  2   force =    -0.00645814   -0.00170346    0.00029181
     atom   30 type  2   force =     0.01069235   -0.00155787    0.00560345
     atom   31 type  1   force =     0.00346121    0.00041834    0.00537224
     atom   32 type  1   force =    -0.00268277   -0.00667867    0.00503504
     atom   33 type  2   force =     0.00027536    0.00032251    0.00054237
     atom   34 type  2   force =     0.00502545   -0.00079249   -0.00875873
     atom   35 type  2   force =     0.00017788   -0.00000292    0.00000089
     atom   36 type  2   force =    -0.00012802   -0.00005379   -0.00000599
     atom   37 type  1   force =     0.00079172   -0.00048566    0.00096062
     atom   38 type  1   force =    -0.00033553   -0.00118451    0.00002794
     atom   39 type  2   force =    -0.00077595   -0.00014404    0.00051557
     atom   40 type  2   force =     0.00038668    0.00042434    0.00003382
     atom   41 type  2   force =     0.00019886    0.00158709    0.00072385
     atom   42 type  2   force =     0.00051929    0.00039406    0.00002846
     atom   43 type  1   force =     0.00069134    0.00012872    0.00000482
     atom   44 type  1   force =     0.00008780   -0.00172553   -0.00075902
     atom   45 type  2   force =     0.00004755   -0.00001905    0.10329427
     atom   46 type  2   force =    -0.07167601   -0.00014811   -0.02720468
     atom   47 type  2   force =     0.07171094    0.00030459   -0.02730722
     atom   48 type  3   force =     0.00032891   -0.00018570   -0.00043330
     atom   49 type  3   force =     0.00020191   -0.00086095   -0.00012533
     atom   50 type  4   force =    -0.00005075    0.00087182    0.00038763
     atom   51 type  5   force =    -0.08536758   -0.00379122   -0.00042952
     atom   52 type  3   force =     0.03110797    0.05166668    0.00011369
     atom   53 type  3   force =     0.03323851   -0.04743915    0.00021457

     Total force =     0.382128     Total SCF correction =     0.001026
  @ DRIVER MODE: Message from server: STATUS
  @ DRIVER MODE: Message from server: GETFORCE
  @ DRIVER MODE: Returning v,forces,stress,ensemble

     Writing config to output data dir ./calc.save/
  @ DRIVER MODE: Message from server: STATUS
  @ DRIVER MODE: Message from server: INIT
  @ DRIVER MODE: Receiving replica           0           0
  @ DRIVER MODE: Receiving encoded integer           2
  @ DRIVER MODE:  SCF:  T  FORCE:  T  STRESS:  F  VC:  F  ENSEMBLE:  F
  @ DRIVER MODE:  SCF:  F  FORCE:  F  STRESS:  F  VC:  F  ENSEMBLE:  T
  @ DRIVER MODE: Message from server: STATUS
  @ DRIVER MODE: Message from server: POSDATA
  @ DRIVER MODE: Reading and sharing positions
  @ DRIVER MODE: Received positions
     NEW-OLD atomic charge density approx. for the potential

[...]

     Adding external electric field

     Computed dipole along edir(3) :
        Dipole                0.8700 Ry au,          2.2113 Debye
        Dipole field          0.0016 Ry au,

        Potential amp.       -0.1522 Ry
        Total length         46.3494 bohr

  @ DRIVER MODE: BEEF-vdw

[...]

     negative rho (up, down):  1.845E-02 0.000E+00

     negative rho (up, down):  1.845E-02 0.000E+00
 BEEFens 2000 ensemble energies
             -0.345164231980437E+02
             -0.201823154070594E+01
             -0.711263091799485E+01
              0.239535283561195E+02
             -0.118561773727508E+02
             -0.916813416061206E+01
             -0.239370369779256E+02
             -0.500687105079528E+02
             -0.213555571096833E+02
             -0.224865872627225E+02
             -0.209165299765767E+02
              0.424510283463841E+01
              0.199292220039554E+01
             -0.106815657204598E+01
              0.171617915898143E+01
              0.263848320565603E+02
             -0.101510197676082E+02
             -0.716297965128737E+01
              0.117045759535795E+02
             -0.616255870725649E+02
              0.309080461832513E+02
             -0.132588612089794E+02
             -0.238923085555171E+01
             -0.556396115350479E+01
             -0.967187805823016E+00
             -0.210613270032070E+01
              0.477815337323550E+02
             -0.149844590780699E+02
             -0.398416532782852E+01
             -0.302432793056758E+02
              0.390529018183253E+02
             -0.430682972852271E+01
             -0.212612298966868E+02
              0.111643569129888E+02
             -0.204380983448189E+01
              0.129807525363608E+02
             -0.531870184340931E+00
              0.270393073143862E+01
              0.188723081014755E+02
             -0.543716032456446E+02
              0.302969059063650E+02
              0.809364738815134E+01
             -0.624152486354399E+01
             -0.173910236018743E+02
              0.686575951051270E+01
             -0.109037404083743E+02
              0.247862376512114E+02
              0.197959990380278E+02
             -0.127494537813470E+02
             -0.163054840023901E+02
             -0.172393500946196E+02
             -0.206976895469911E+02
              0.105200359261307E+02
             -0.269510992662041E+02
              0.825731010808238E+01
              0.344519231327677E+02
              0.397298677325836E+02
              0.184924080028575E+02
              0.824438444189452E+01
              0.172665038828450E+02
[...]
             -0.406178576865312E+02
              0.277279170112797E+01
             -0.145796064277275E+01
             -0.565880216595548E+01
              0.592360725874244E-01
             -0.361522570890019E+02
             -0.696616831219120E+01
              0.489837226906273E+01
              0.739108057137422E+01
              0.270982379798362E+02
             -0.236952992425628E+02
              0.308773464024051E+02
             -0.221223118681301E+02
              0.142287731193043E+02
              0.223965072795851E+02

 BEEF-vdW xc energy contributions
           1 :   -407.402779278784
           2 :    355.015019232769
           3 :   -270.381597561673
           4 :    181.941364355779
           5 :   -112.439550709816
           6 :    70.9347095762645
           7 :   -53.6797668772825
           8 :    50.6205447525720
           9 :   -52.3374169154830
          10 :    53.6195043352341
          11 :   -53.2287674839266
          12 :    51.6934105616668
          13 :   -49.4364503702157
          14 :    46.2531639801834
          15 :   -41.8380292206265
          16 :    36.4189962189060
          17 :   -30.8924430666546
          18 :    26.3996286630639
          19 :   -23.7419398234490
          20 :    23.0347779821035
          21 :   -23.7836783824966
          22 :    25.2299340216491
          23 :   -26.6892793757506
          24 :    27.6835824402747
          25 :   -27.9036987276236
          26 :    27.1576665046123
          27 :   -25.4070175762159
          28 :    22.8488657417359
          29 :   -19.9427350241210
          30 :    17.3034652056850
          31 :   -47.8770463190151
          32 :   -32.5230837230073
  @ DRIVER MODE: Message from server: STATUS
  @ DRIVER MODE: Message from server: GETFORCE
  @ DRIVER MODE: Returning v,forces,stress,ensemble
  @ DRIVE MODE: Returning Ensemble Energies

     Writing config to output data dir ./calc.save/
  @ DRIVER MODE: Message from server: EXIT
  @ DRIVE MODE: Exiting

     General routines

     Parallel routines

   This run was terminated on:  16:58:16  11Oct2021

   JOB DONE.