     Program PWSCF v.7.0 starts on 16Aug2022 at 14:41:13

     R & G space division:  proc/nbgrp/npool/nimage =       6

     Reading input from /storage/coda1/p-amedford6/0/ntian30/BEEF_carbon_assisted/ads_slab/CH3N2_c/BEEF_carbon_assisted.log/pw.inp
Warning: card &CELL ignored
Warning: card   CELL_DYNAMICS='IPI', ignored
Warning: card / ignored

     Current dimensions of program PWSCF are:
     Max number of different atomic species (ntypx) = 10
     Max number of k-points (npk) =  40000
     Max angular momentum in pseudopotentials (lmaxx) =  4
     Presently no symmetry can be used with electric field

     Message from routine cell_base_init:
     DEPRECATED: use true lattice parameter, not A to a.u. conversion factor

     IMPORTANT: XC functional enforced from input :
     Exchange-correlation= BEEF-VDW
                           (   1   4  43  14   2   0   0)
     Any further DFT definition will be discarded
     Please, verify this is what you really want

  @ DRIVER MODE: Connecting to
 qe_1139763_4802490.sched-torque.pace.gatech.edu1j19c_s2_scratch
  using UNIX socket
  @ DRIVER MODE: Message from server: STATUS
  @ DRIVER MODE: Message from server: INIT
  @ DRIVER MODE: Receiving replica           0          -1
  @ DRIVER MODE: Receiving parameter string
 lscf : 1, lforce : 1, lstress : 0, lmovecell : 0, lensemb : 0,

     Using Slab Decomposition

     bravais-lattice index     =            0
     lattice parameter (alat)  =       1.8897  a.u.
     unit-cell volume          =    6658.9804 (a.u.)^3
     number of atoms/cell      =           53
     number of atomic types    =            5
     number of electrons       =       395.00
     number of Kohn-Sham states=          207
     kinetic-energy cutoff     =      29.3995  Ry
     charge density cutoff     =     293.9946  Ry
     scf convergence threshold =      7.3E-08
     mixing beta               =       0.0500
     number of iterations used =            8  plain     mixing
     energy convergence thresh.=      1.0E-04
     force convergence thresh. =      1.0E-03
     Exchange-correlation= BEEF-VDW
                           (   1   4  43  14   2   0   0)
     nstep                     =           50

     celldm(1)=   1.889726  celldm(2)=   0.000000  celldm(3)=   0.000000
     celldm(4)=   0.000000  celldm(5)=   0.000000  celldm(6)=   0.000000

     crystal axes: (cart. coord. in units of alat)
               a(1) = (   6.579727   0.000000   0.000000 )
               a(2) = (  -0.000775   5.961596   0.000000 )
               a(3) = (   0.000000   0.000000  25.155947 )

     reciprocal axes: (cart. coord. in units 2 pi/alat)
               b(1) = (  0.151982  0.000020  0.000000 )
               b(2) = (  0.000000  0.167740  0.000000 )
               b(3) = (  0.000000  0.000000  0.039752 )

     PseudoPot. # 1 for Ti read from file:
     /storage/coda1/p-amedford6/0/shared/rich_project_chbe-medford/medford-share/data/pseudos_module/espresso/nninc/pbe/van/Ti.UPF
     MD5 check sum: 8e4df49b7f0d34bbd5052bf3f5ea0213
     Pseudo is Ultrasoft, Zval = 12.0
     Generated by new atomic code, or converted to UPF format
     Using radial grid of  851 points,  6 beta functions with:
                l(1) =   0
                l(2) =   0
                l(3) =   1
                l(4) =   1
                l(5) =   2
                l(6) =   2
     Q(r) pseudized with  8 coefficients,  rinner =    1.000   1.000   1.000
                                                       1.000   1.000

     PseudoPot. # 2 for O  read from file:
     /storage/coda1/p-amedford6/0/shared/rich_project_chbe-medford/medford-share/data/pseudos_module/espresso/nninc/pbe/van/O.UPF
     MD5 check sum: 78c19812648e8988a0fe644b0f25305e
     Pseudo is Ultrasoft, Zval =  6.0
     Generated by new atomic code, or converted to UPF format
     Using radial grid of  737 points,  4 beta functions with:
                l(1) =   0
                l(2) =   0
                l(3) =   1
                l(4) =   1
     Q(r) pseudized with  8 coefficients,  rinner =    0.800   0.800   0.800

     PseudoPot. # 3 for N  read from file:
     /storage/coda1/p-amedford6/0/shared/rich_project_chbe-medford/medford-share/data/pseudos_module/espresso/nninc/pbe/van/N.UPF
     MD5 check sum: 90d10febe142ad51ac9d5be1deb811c4
     Pseudo is Ultrasoft, Zval =  5.0
     Generated by new atomic code, or converted to UPF format
     Using radial grid of  729 points,  4 beta functions with:
                l(1) =   0
                l(2) =   0
                l(3) =   1
                l(4) =   1
     Q(r) pseudized with  8 coefficients,  rinner =    0.800   0.800   0.800

     PseudoPot. # 4 for C  read from file:
     /storage/coda1/p-amedford6/0/shared/rich_project_chbe-medford/medford-share/data/pseudos_module/espresso/nninc/pbe/van/C.UPF
     MD5 check sum: 1a69bf6b8db32088f5b2163dbdb77a27
     Pseudo is Ultrasoft, Zval =  4.0
     Generated by new atomic code, or converted to UPF format
     Using radial grid of  721 points,  4 beta functions with:
                l(1) =   0
                l(2) =   0
                l(3) =   1
                l(4) =   1
     Q(r) pseudized with  8 coefficients,  rinner =    0.800   0.800   0.800

     PseudoPot. # 5 for H  read from file:
     /storage/coda1/p-amedford6/0/shared/rich_project_chbe-medford/medford-share/data/pseudos_module/espresso/nninc/pbe/van/H.UPF
     MD5 check sum: b5ee9d7bfd3a09ee7748110bda690ff7
     Pseudo is Ultrasoft, Zval =  1.0
     Generated by new atomic code, or converted to UPF format
     Using radial grid of  615 points,  1 beta functions with:
                l(1) =   0
     Q(r) pseudized with  8 coefficients,  rinner =    0.800

     atomic species   valence    mass     pseudopotential
        Ti1           12.00    47.86700     Ti( 1.00)
        O1             6.00    15.99900     O ( 1.00)
        N1             5.00    14.00700     N ( 1.00)
        C1             4.00    12.01100     C ( 1.00)
        H1             1.00     1.00800     H ( 1.00)

     Starting magnetic structure
     atomic species   magnetization
        Ti1          0.083
        O1           0.167
        N1           0.200
        C1           0.250
        H1           1.000

     No symmetry found

   Cartesian axes

     site n.     atom                  positions (alat units)
         1           Ti1 tau(   1) = (   0.0004258   2.9801865   6.0000000  )
         2           Ti1 tau(   2) = (   3.2906075   1.4906267   6.0002472  )
         3           O1  tau(   3) = (   0.0006271   0.0005054   7.9858123  )
         4           O1  tau(   4) = (   3.2906025   0.0005020   7.3038282  )
         5           O1  tau(   5) = (   4.5942328   1.4918067   9.2879030  )
         6           O1  tau(   6) = (   1.9868534   1.4903216   9.2879459  )
         7           Ti1 tau(   7) = (   3.2907910   2.8959150   9.1758416  )
         8           Ti1 tau(   8) = (   0.0015273   1.4827037   9.2680791  )
         9           O1  tau(   9) = (   3.2868105   5.9447858  11.3346005  )
        10           O1  tau(  10) = (   0.0116148   5.9584955  10.6183126  )
        11           O1  tau(  11) = (   1.2897616   1.4699164  12.6258314  )
        12           O1  tau(  12) = (   5.2713851   1.4716199  12.6109895  )
        13           Ti1 tau(  13) = (   0.0629619   2.9460495  12.6207869  )
        14           Ti1 tau(  14) = (   3.3778125   1.4702366  12.4807322  )
        15           O1  tau(  15) = (   6.5741670   5.9392046  14.6271830  )
        16           O1  tau(  16) = (   3.2925211   5.9405975  13.9303826  )
        17           O1  tau(  17) = (   4.5331425   1.4971777  16.0590535  )
        18           O1  tau(  18) = (   2.0416154   1.4974824  16.0477615  )
        19           Ti1 tau(  19) = (   3.2901388   2.9722967  15.7036181  )
        20           Ti1 tau(  20) = (   6.5714728   1.5019933  15.8140906  )
        21           O1  tau(  21) = (   3.2904802   0.0005063   4.7018136  )
        22           O1  tau(  22) = (   6.5775371   0.0159386  17.1814867  )
        23           O1  tau(  23) = (   1.3043587   1.4918075   6.0039043  )
        24           O1  tau(  24) = (   5.2767064   1.4903225   6.0039473  )
        25           Ti1 tau(  25) = (   0.0000382   5.9609847   6.0000000  )
        26           Ti1 tau(  26) = (   3.2902200   4.4714249   6.0002472  )
        27           O1  tau(  27) = (   0.0002396   2.9813036   7.9858123  )
        28           O1  tau(  28) = (   3.2902150   2.9813002   7.3038282  )
        29           O1  tau(  29) = (   4.5938453   4.4726049   9.2879030  )
        30           O1  tau(  30) = (   1.9864658   4.4711199   9.2879459  )
        31           Ti1 tau(  31) = (   3.2891106   5.8743827   9.1763621  )
        32           Ti1 tau(  32) = (   0.0006254   4.4649316   9.2693709  )
        33           O1  tau(  33) = (   3.2909631   2.9655588  11.3316111  )
        34           O1  tau(  34) = (   0.0092240   2.9805883  10.6323155  )
        35           O1  tau(  35) = (   1.2884032   4.4536117  12.6269208  )
        36           O1  tau(  36) = (   5.2752684   4.4605011  12.6109535  )
        37           Ti1 tau(  37) = (   0.0626277   5.9200555  12.5524633  )
        38           Ti1 tau(  38) = (   3.3797810   4.4486816  12.4846537  )
        39           O1  tau(  39) = (   6.5720240   2.9440667  14.6479771  )
        40           O1  tau(  40) = (   3.2941106   2.9728877  13.9057494  )
        41           O1  tau(  41) = (   4.5311790   4.4530262  16.1020043  )
        42           O1  tau(  42) = (   2.0427069   4.4534008  16.0946336  )
        43           Ti1 tau(  43) = (   3.2818950   5.9508925  15.7274921  )
        44           Ti1 tau(  44) = (   6.5750914   4.6476268  16.0792144  )
        45           O1  tau(  45) = (   3.2900926   2.9813045   4.7018136  )
        46           O1  tau(  46) = (   1.3039711   4.4726057   6.0039043  )
        47           O1  tau(  47) = (   5.2763189   4.4711207   6.0039473  )
        48           N1  tau(  48) = (   0.0795740   2.6614725  18.6386781  )
        49           N1  tau(  49) = (   0.0132033   2.8794178  17.4383708  )
        50           C1  tau(  50) = (   0.1510961   3.8031638  19.5808395  )
        51           H1  tau(  51) = (   6.4701351   4.7592986  19.1328852  )
        52           H1  tau(  52) = (   6.0910372   3.5604803  20.4266230  )
        53           H1  tau(  53) = (   1.1812797   3.8285794  19.9476819  )

     number of k points=    10  Fermi-Dirac smearing, width (Ry)=  0.0073
                       cart. coord. in units 2pi/alat
        k(    1) = (   0.0000000   0.0000000   0.0000000), wk =   0.0625000
        k(    2) = (   0.0000000   0.0419351   0.0000000), wk =   0.1250000
        k(    3) = (   0.0000000  -0.0838702   0.0000000), wk =   0.0625000
        k(    4) = (   0.0379955   0.0000049   0.0000000), wk =   0.1250000
        k(    5) = (   0.0379955   0.0419400   0.0000000), wk =   0.1250000
        k(    6) = (   0.0379955  -0.0838652   0.0000000), wk =   0.1250000
        k(    7) = (   0.0379955  -0.0419301   0.0000000), wk =   0.1250000
[...]
     atom  14 (R=0.713)  charge=  7.8045  magn= -0.0000
     atom  15 (R=0.713)  charge=  4.8374  magn= -0.0001
     atom  16 (R=0.713)  charge=  4.8502  magn=  0.0001
     atom  17 (R=0.713)  charge=  4.8284  magn=  0.0000
     atom  18 (R=0.713)  charge=  4.8273  magn=  0.0000
     atom  19 (R=0.713)  charge=  7.8263  magn= -0.0001
     atom  20 (R=0.713)  charge=  7.8162  magn=  0.0002
     atom  21 (R=0.713)  charge=  4.7284  magn= -0.0007
     atom  22 (R=0.713)  charge=  4.8109  magn=  0.0000
     atom  23 (R=0.713)  charge=  4.8332  magn= -0.0023
     atom  24 (R=0.713)  charge=  4.8331  magn= -0.0023
     atom  25 (R=0.713)  charge=  7.8197  magn=  0.0186
     atom  26 (R=0.713)  charge=  7.8031  magn=  0.0008
     atom  27 (R=0.713)  charge=  4.8345  magn= -0.0015
     atom  28 (R=0.713)  charge=  4.8699  magn= -0.0002
     atom  29 (R=0.713)  charge=  4.8419  magn= -0.0002
     atom  30 (R=0.713)  charge=  4.8416  magn= -0.0002
     atom  31 (R=0.713)  charge=  7.8021  magn=  0.0006
     atom  32 (R=0.713)  charge=  7.7947  magn=  0.0050
     atom  33 (R=0.713)  charge=  4.8536  magn=  0.0000
     atom  34 (R=0.713)  charge=  4.8172  magn= -0.0004
     atom  35 (R=0.713)  charge=  4.8426  magn= -0.0001
     atom  36 (R=0.713)  charge=  4.8432  magn= -0.0000
     atom  37 (R=0.713)  charge=  7.7965  magn=  0.0009
     atom  38 (R=0.713)  charge=  7.8046  magn= -0.0000
     atom  39 (R=0.713)  charge=  4.8297  magn= -0.0001
     atom  40 (R=0.713)  charge=  4.8560  magn=  0.0000
     atom  41 (R=0.713)  charge=  4.8270  magn=  0.0000
     atom  42 (R=0.713)  charge=  4.8274  magn=  0.0000
     atom  43 (R=0.713)  charge=  7.8223  magn= -0.0001
     atom  44 (R=0.713)  charge=  7.8422  magn=  0.0000
     atom  45 (R=0.713)  charge=  4.7285  magn= -0.0007
     atom  46 (R=0.713)  charge=  4.8332  magn= -0.0023
     atom  47 (R=0.713)  charge=  4.8331  magn= -0.0023
     atom  48 (R=0.504)  charge=  1.9856  magn=  0.0000
     atom  49 (R=0.504)  charge=  2.0026  magn= -0.0001
     atom  50 (R=0.449)  charge=  0.8514  magn=  0.0000
     atom  51 (R=0.449)  charge=  0.5031  magn= -0.0000
     atom  52 (R=0.449)  charge=  0.5065  magn= -0.0000
     atom  53 (R=0.449)  charge=  0.4975  magn= -0.0000

     End of self-consistent calculation

 ------ SPIN UP ------------

          k = 0.0000 0.0000 0.0000 ( 18029 PWs)   bands (ev):

   -55.9111 -55.8796 -55.8771 -55.8437 -55.7950 -55.7305 -55.7078 -55.7037
   -55.6939 -55.6738 -55.6688 -55.6351 -55.2859 -55.0949 -54.8724 -54.8383
   -32.4336 -32.3833 -32.2298 -32.2270 -32.2109 -32.2059 -32.1982 -32.1589
   -32.1516 -32.1235 -32.1020 -32.0662 -32.0659 -32.0600 -32.0328 -32.0192
   -32.0169 -32.0054 -31.9867 -31.9716 -31.9463 -31.9399 -31.8987 -31.8947
   -31.8931 -31.8883 -31.8810 -31.8761 -31.8708 -31.8449 -31.8441 -31.8376
   -31.8325 -31.8216 -31.8141 -31.7808 -31.7775 -31.5659 -31.4590 -31.3569
   -31.3549 -31.3105 -31.2789 -31.1912 -31.1686 -31.0960 -31.0095 -30.8980
   -18.4498 -16.6321 -16.3663 -16.1381 -16.0436 -16.0125 -15.8946 -15.7313
   -15.6131 -15.5597 -15.4622 -15.4426 -15.4272 -15.3971 -15.3796 -15.3740
   -15.3402 -15.3357 -15.3159 -15.3016 -15.2536 -15.2299 -15.2084 -15.1089
   -15.0631 -15.0274 -15.0138 -14.9504 -14.9453 -14.4413 -13.3732 -13.2568
   -11.3614  -6.9294  -4.3474  -4.0021  -3.8926  -3.8621  -3.8468  -3.7999
    -3.7432  -3.6239  -3.4988  -3.4362  -3.1255  -3.0777  -3.0614  -3.0446
    -3.0067  -2.7992  -2.7478  -2.7079  -2.6833  -2.6760  -2.6647  -2.6572
    -2.6453  -2.6069  -2.5047  -2.4349  -2.4286  -2.3428  -2.2929  -2.2695
    -2.2069  -2.1866  -2.1643  -2.1415  -2.1301  -2.1093  -2.0892  -2.0782
    -1.9736  -1.8823  -1.7498  -1.6937  -1.6722  -1.6579  -1.6434  -1.5016
    -1.3692  -1.3369  -1.3281  -1.3191  -1.2855  -1.2740  -1.1909  -1.0624
    -1.0514  -1.0115  -0.9592  -0.9011  -0.8761  -0.7741  -0.7376  -0.6595
    -0.6542  -0.6376  -0.5855  -0.5339  -0.3744  -0.3335  -0.3074  -0.2853
    -0.2610  -0.1901  -0.1687  -0.0520  -0.0343  -0.0174   0.0432   0.0665
     0.0793   0.0901   0.1067   0.1249   0.1423   0.3093   0.3821   0.4340
     0.4575   0.5154   0.6408   0.7095   0.7649   0.8652   1.0767   1.1510
     1.2432   1.3431   1.7229   1.7678   2.6493   3.2362   3.3051   3.3695
     3.3888   3.4835   3.5201   3.6863   3.6939   3.7265   3.7963

[...]

          k =-0.0760-0.0000 0.0000 ( 17886 PWs)   bands (ev):

[...]

 ------ SPIN DOWN ----------

[...]

          k = 0.0380-0.0419 0.0000 ( 17876 PWs)   bands (ev):

[...]

          k =-0.0760-0.0839 0.0000 ( 17948 PWs)   bands (ev):

   -55.8621 -55.8615 -55.8592 -55.8581 -55.7920 -55.7170 -55.7072 -55.7043
   -55.6824 -55.6801 -55.6513 -55.6500 -55.2840 -55.0960 -54.8536 -54.8534
   -32.2385 -32.2366 -32.1837 -32.1829 -32.1691 -32.1521 -32.1512 -32.1337
   -32.0881 -32.0850 -32.0791 -32.0783 -32.0419 -32.0120 -32.0038 -31.9995
   -31.9971 -31.9928 -31.9927 -31.9898 -31.9873 -31.9749 -31.9738 -31.9365
   -31.9226 -31.9116 -31.9083 -31.8970 -31.8836 -31.8829 -31.8809 -31.8802
   -31.8656 -31.8649 -31.8535 -31.8510 -31.6939 -31.5672 -31.4670 -31.4137
   -31.3565 -31.3357 -31.1793 -31.1791 -31.0907 -31.0905 -31.0510 -31.0509
   -18.4457 -16.0679 -16.0419 -15.8424 -15.8094 -15.8048 -15.7903 -15.6819
   -15.5969 -15.5902 -15.5875 -15.5205 -15.4905 -15.4749 -15.4345 -15.4214
   -15.4144 -15.4025 -15.3922 -15.3552 -15.3478 -15.3310 -15.3235 -15.2389
   -15.2110 -15.2069 -15.1813 -15.0634 -14.9320 -14.6176 -13.3599 -13.3598
   -11.3590  -6.9411  -4.2570  -3.9012  -3.8358  -3.3573  -3.3285  -3.0876
    -3.0494  -3.0356  -2.9817  -2.8206  -2.7905  -2.7648  -2.7532  -2.7215
    -2.7161  -2.7042  -2.6986  -2.6787  -2.6379  -2.6167  -2.5988  -2.5810
    -2.5614  -2.5474  -2.5316  -2.5148  -2.5051  -2.4657  -2.4422  -2.4310
    -2.4124  -2.4005  -2.2444  -2.1213  -2.0869  -2.0320  -2.0217  -2.0005
    -1.9604  -1.9564  -1.9446  -1.8805  -1.8086  -1.6512  -1.6129  -1.5932
    -1.5750  -1.5561  -1.4996  -1.4593  -1.3723  -1.2975  -1.2739  -1.2696
    -1.2012  -1.1140  -1.1063  -1.0594  -1.0163  -1.0070  -0.9522  -0.8873
    -0.8568  -0.8525  -0.7999  -0.7309  -0.7127  -0.6616  -0.6549  -0.6116
    -0.5566  -0.5484  -0.5271  -0.4860  -0.4040  -0.3804  -0.2421  -0.1622
    -0.0400   0.0744   0.1687   0.1832   0.2629   0.3152   0.3986   0.4158
     0.4259   0.4359   0.4787   0.5621   0.6379   0.6526   0.6983   0.8192
     1.5141   1.5149   1.5871   1.5874   2.7060   3.4921   3.5370   3.5792
     3.6116   3.7237   3.7609   3.7820   3.7831   3.8096   3.9228

     the Fermi energy is     3.2401 ev

!    total energy              =   -2939.15528105 Ry
     estimated scf accuracy    <       0.00000005 Ry
     smearing contrib. (-TS)   =      -0.02241198 Ry
     internal energy E=F+TS    =   -2939.13286907 Ry

     total magnetization       =     0.07 Bohr mag/cell
     absolute magnetization    =     0.11 Bohr mag/cell

     convergence has been achieved in  62 iterations

     Forces acting on atoms (cartesian axes, Ry/au):

     atom    1 type  1   force =     0.00013817   -0.00024381    0.09661769
     atom    2 type  1   force =    -0.00013278   -0.00051681   -0.17529305
     atom    3 type  2   force =    -0.00000048   -0.00010320   -0.02492183
     atom    4 type  2   force =     0.00005077   -0.00150653    0.05303085
     atom    5 type  2   force =    -0.01216426   -0.00108689    0.00361953
     atom    6 type  2   force =     0.01371713   -0.00028121    0.00229343
     atom    7 type  1   force =    -0.00117489    0.00036870   -0.01154186
     atom    8 type  1   force =     0.00055559    0.00940889    0.02845918
     atom    9 type  2   force =     0.00019786    0.00053144   -0.00013568
     atom   10 type  2   force =    -0.00114792    0.00027968   -0.01823189
     atom   11 type  2   force =    -0.00011920   -0.00000060   -0.00013042
     atom   12 type  2   force =     0.00012958    0.00021480    0.00018795
     atom   13 type  1   force =     0.00011488   -0.00030783    0.00015886
     atom   14 type  1   force =     0.00021076    0.00017556    0.00023221
     atom   15 type  2   force =     0.00021920   -0.00006831   -0.00011026
     atom   16 type  2   force =    -0.00033174    0.00033422    0.00038570
     atom   17 type  2   force =    -0.00015378    0.00041560   -0.00014572
     atom   18 type  2   force =     0.00013218    0.00016226    0.00023040
     atom   19 type  1   force =    -0.00007855    0.00015563    0.00009745
     atom   20 type  1   force =    -0.00058765   -0.00023169    0.00016169
     atom   21 type  2   force =     0.00008927    0.00001509    0.10324598
     atom   22 type  2   force =    -0.00019653    0.00025639    0.00080168
     atom   23 type  2   force =    -0.07147871   -0.00007730   -0.02772395
     atom   24 type  2   force =     0.07144357    0.00034544   -0.02773211
     atom   25 type  1   force =     0.00005399   -0.00020591    0.09636025
     atom   26 type  1   force =    -0.00021602   -0.00026706   -0.17564752
     atom   27 type  2   force =     0.00007062   -0.00024846   -0.02392327
     atom   28 type  2   force =     0.00009546   -0.00126401    0.05289885
     atom   29 type  2   force =    -0.01240662    0.00003855    0.00353088
     atom   30 type  2   force =     0.01387322    0.00033004    0.00217473
     atom   31 type  1   force =    -0.00112474    0.00333599   -0.01194846
     atom   32 type  1   force =     0.00064179   -0.01115426    0.02904633
     atom   33 type  2   force =     0.00011042   -0.00020154   -0.00039378
     atom   34 type  2   force =    -0.00089618   -0.00093425   -0.02482561
     atom   35 type  2   force =    -0.00039346    0.00027418    0.00002923
     atom   36 type  2   force =     0.00072041    0.00029803    0.00034918
     atom   37 type  1   force =     0.00000907   -0.00024271    0.00005649
     atom   38 type  1   force =    -0.00001002    0.00011959    0.00001234
     atom   39 type  2   force =     0.00032435    0.00035092   -0.00044843
     atom   40 type  2   force =    -0.00030641    0.00010151    0.00016339
     atom   41 type  2   force =    -0.00043564    0.00052164    0.00013705
     atom   42 type  2   force =     0.00003309    0.00045190    0.00043607
     atom   43 type  1   force =    -0.00006630    0.00039353    0.00039870
     atom   44 type  1   force =    -0.00041175    0.00021352    0.00075034
     atom   45 type  2   force =     0.00008524   -0.00002274    0.10324321
     atom   46 type  2   force =    -0.07150154   -0.00003329   -0.02773132
     atom   47 type  2   force =     0.07146776    0.00039556   -0.02775755
     atom   48 type  3   force =     0.00032410   -0.00094151   -0.00030397
     atom   49 type  3   force =     0.00059376    0.00023272   -0.00024991
     atom   50 type  4   force =     0.00178434    0.00048121   -0.00043340
     atom   51 type  5   force =     0.00016529    0.00070886   -0.00044396
     atom   52 type  5   force =    -0.00121281   -0.00083929    0.00098705
     atom   53 type  5   force =    -0.00080390   -0.00013221   -0.00002273

     Total force =     0.368352     Total SCF correction =     0.000411
  @ DRIVER MODE: Message from server: STATUS
  @ DRIVER MODE: Message from server: GETFORCE
  @ DRIVER MODE: Returning v,forces,stress

     Writing config to output data dir ./calc.save/
  @ DRIVER MODE: Message from server: STATUS
  @ DRIVER MODE: Message from server: INIT
  @ DRIVER MODE: Receiving replica           0           0
  @ DRIVER MODE: Receiving parameter string
 lscf : 0, lforce : 0, lstress : 0, lmovecell : 0, lensemb : 1,
  @ DRIVER MODE: Message from server: STATUS
  @ DRIVER MODE: Message from server: POSDATA
  @ DRIVER MODE: Reading and sharing cell
  @ DRIVER MODE: Reading and sharing positions
  @ DRIVER MODE: Received positions
     NEW-OLD atomic charge density approx. for the potential

[...]

     Adding external electric field

     Computed dipole along edir(3) :
        Dipole                0.7080 Ry au,          1.7996 Debye
        Dipole field          0.0013 Ry au,

        Potential amp.       -0.1239 Ry
        Total length         46.3494 bohr

     Generating pointlists ...
  @ DRIVER MODE: BEEF-vdw

[...]

     negative rho (up, down):  7.858E-03 7.858E-03

     negative rho (up, down):  7.858E-03 7.858E-03
 BEEFens 2000 ensemble energies
             -0.348165959086271E+02
             -0.202734274355184E+01
             -0.717146101260492E+01
              0.241684053462441E+02
             -0.119614357867706E+02
             -0.925423410431739E+01
             -0.241377379850822E+02
             -0.505093942617297E+02
             -0.215442632640681E+02
             -0.227143216314734E+02
             -0.210936500358387E+02
              0.425001646836443E+01
              0.199964897111865E+01
             -0.105266253175326E+01
              0.173084510412886E+01
              0.266199378813539E+02
             -0.102585115442076E+02
             -0.724907134857510E+01
              0.118203967009970E+02
             -0.621694554925581E+02
              0.311767371921006E+02
             -0.133945080576772E+02
             -0.241967428071674E+01
             -0.561414607269609E+01
             -0.989928896835011E+00
             -0.213707416041365E+01
              0.482205831809200E+02
             -0.150879245039739E+02
             -0.401895455395055E+01
             -0.305114400517580E+02
              0.394414024487091E+02
             -0.436638618748789E+01
             -0.214668138789738E+02
              0.112627069930070E+02
             -0.205965595705518E+01
              0.130884456945340E+02
             -0.552304612805813E+00
              0.272999087215510E+01
              0.190299208593241E+02
             -0.548745243193479E+02
              0.305753366282584E+02
              0.815365786249883E+01
             -0.627164805288209E+01
             -0.175381948790131E+02
              0.693318985638305E+01
             -0.109712472004282E+02
              0.250165874257970E+02
              0.199716827204506E+02
             -0.128840989475366E+02
             -0.164511270617895E+02
             -0.174037258249664E+02
             -0.208763478175165E+02
              0.106042847735005E+02
             -0.271954592793209E+02
              0.831969128764069E+01
              0.347358453178282E+02
              0.400626771142719E+02
              0.186569026796053E+02
              0.832667506864433E+01
              0.174042722262125E+02
[...]
             -0.409785733785311E+02
              0.278818417351306E+01
             -0.146432298456526E+01
             -0.570540730876826E+01
              0.529809449255083E-01
             -0.364871995926027E+02
             -0.705111758298426E+01
              0.494080104985404E+01
              0.743743656983722E+01
              0.273449218869334E+02
             -0.239033181942750E+02
              0.311754738170238E+02
             -0.223269172509080E+02
              0.143444815923756E+02
              0.225925179193777E+02

 BEEF-vdW xc energy contributions
           1 :   -411.087378721218
           2 :    358.214741162384
           3 :   -272.875709530335
           4 :    183.735258928671
           5 :   -113.666185784178
           6 :    71.7701895988633
           7 :   -54.3081954678514
           8 :    51.1562814300849
           9 :   -52.8030039775916
          10 :    53.9774695649975
          11 :   -53.4745493643599
          12 :    51.8772235874198
          13 :   -49.6282476336172
          14 :    46.4749217319944
          15 :   -42.0659990424012
          16 :    36.6144941477163
          17 :   -31.0375601248035
          18 :    26.4895254689549
          19 :   -23.7829232855148
          20 :    23.0390099433480
          21 :   -23.7772097444292
          22 :    25.2348805138063
          23 :   -26.7102728543032
          24 :    27.6980427715246
          25 :   -27.8808698767672
          26 :    27.0666270285463
          27 :   -25.2212365630327
          28 :    22.5467145141264
          29 :   -19.5284886357624
          30 :    16.8150700205775
          31 :   -48.3477369505913
          32 :   -32.8483797065936
  @ DRIVER MODE: Message from server: STATUS
  @ DRIVER MODE: Message from server: GETFORCE
  @ DRIVER MODE: Returning v,forces,stress
  @ DRIVE MODE: Returning Ensemble Energies
  @ DRIVE MODE: Returning Ensemble Energies
  @ DRIVE MODE: Returning Ensemble Energies
  @ DRIVE MODE: Returning Ensemble Energies
  @ DRIVE MODE: Returning Ensemble Energies
  @ DRIVE MODE: Returning Ensemble Energies

     Writing config to output data dir ./calc.save/
  @ DRIVER MODE: Message from server: EXIT
  @ DRIVE MODE: Exiting

     General routines

     Parallel routines

   This run was terminated on:  15:35:36  16Aug2022

   JOB DONE.