     Program PWSCF v.6.7GPU starts on 16Sep2021 at 11:41:35

     R & G space division:  proc/nbgrp/npool/nimage =      10
     Reading input from /storage/home/hcoda1/3/ntian30/research/carbon/CxH_vib/H2O_calc/ads_slab/CH3NHNH2H2O_a/out_0057/pw.inp
Warning: card &CELL ignored
Warning: card   CELL_DYNAMICS='IPI', ignored
Warning: card / ignored

     Current dimensions of program PWSCF are:
     Max number of different atomic species (ntypx) = 10
     Max number of k-points (npk) =  40000
     Max angular momentum in pseudopotentials (lmaxx) =  3
     Presently no symmetry can be used with electric field

     Message from routine cell_base_init:
     DEPRECATED: use true lattice parameter, not A to a.u. conversion factor

     IMPORTANT: XC functional enforced from input :
     Exchange-correlation= BEEF-VDW
                           (   1   4  43  14   2   0   0)
     Any further DFT definition will be discarded
     Please, verify this is what you really want

  @ DRIVER MODE: Connecting to
 qe_1139763_2852619.sched-torque.pace.gatech.edu82c918y7_scratch
  using UNIX socket
  @ DRIVER MODE: Message from server: STATUS
  @ DRIVER MODE: Message from server: INIT
  @ DRIVER MODE: Receiving replica           0          -1
  @ DRIVER MODE: Receiving encoded integer          25
  @ DRIVER MODE:  SCF:  T  FORCE:  T  STRESS:  F  VC:  F  ENSEMBLE:  F
  @ DRIVER MODE:  SCF:  T  FORCE:  T  STRESS:  F  VC:  F  ENSEMBLE:  F

     Using Slab Decomposition

     bravais-lattice index     =            0
     lattice parameter (alat)  =       1.8897  a.u.
     unit-cell volume          =    6658.9804 (a.u.)^3
     number of atoms/cell      =           59
     number of atomic types    =            5
     number of electrons       =       406.00
     number of Kohn-Sham states=          213
     kinetic-energy cutoff     =      29.3995  Ry
     charge density cutoff     =     293.9946  Ry
     scf convergence threshold =      7.3E-08
     mixing beta               =       0.0500
     number of iterations used =            8  plain     mixing
     Exchange-correlation= BEEF-VDW
                           (   1   4  43  14   2   0   0)

     celldm(1)=   1.889726  celldm(2)=   0.000000  celldm(3)=   0.000000
     celldm(4)=   0.000000  celldm(5)=   0.000000  celldm(6)=   0.000000

     crystal axes: (cart. coord. in units of alat)
               a(1) = (   6.579727   0.000000   0.000000 )
               a(2) = (  -0.000775   5.961596   0.000000 )
               a(3) = (   0.000000   0.000000  25.155947 )

     reciprocal axes: (cart. coord. in units 2 pi/alat)
               b(1) = (  0.151982  0.000020  0.000000 )
               b(2) = (  0.000000  0.167740  0.000000 )
               b(3) = (  0.000000  0.000000  0.039752 )

     PseudoPot. # 1 for Ti read from file:
     /storage/coda1/p-amedford6/0/shared/rich_project_chbe-medford/medford-share/data/pseudos_module/espresso/nninc/pbe/van/Ti.UPF
     MD5 check sum: 8e4df49b7f0d34bbd5052bf3f5ea0213
     Pseudo is Ultrasoft, Zval = 12.0
     Generated by new atomic code, or converted to UPF format
     Using radial grid of  851 points,  6 beta functions with:
                l(1) =   0
                l(2) =   0
                l(3) =   1
                l(4) =   1
                l(5) =   2
                l(6) =   2
     Q(r) pseudized with  8 coefficients,  rinner =    1.000   1.000   1.000
                                                       1.000   1.000

     PseudoPot. # 2 for O  read from file:
     /storage/coda1/p-amedford6/0/shared/rich_project_chbe-medford/medford-share/data/pseudos_module/espresso/nninc/pbe/van/O.UPF
     MD5 check sum: 78c19812648e8988a0fe644b0f25305e
     Pseudo is Ultrasoft, Zval =  6.0
     Generated by new atomic code, or converted to UPF format
     Using radial grid of  737 points,  4 beta functions with:
                l(1) =   0
                l(2) =   0
                l(3) =   1
                l(4) =   1
     Q(r) pseudized with  8 coefficients,  rinner =    0.800   0.800   0.800

     PseudoPot. # 3 for N  read from file:
     /storage/coda1/p-amedford6/0/shared/rich_project_chbe-medford/medford-share/data/pseudos_module/espresso/nninc/pbe/van/N.UPF
     MD5 check sum: 90d10febe142ad51ac9d5be1deb811c4
     Pseudo is Ultrasoft, Zval =  5.0
     Generated by new atomic code, or converted to UPF format
     Using radial grid of  729 points,  4 beta functions with:
                l(1) =   0
                l(2) =   0
                l(3) =   1
                l(4) =   1
     Q(r) pseudized with  8 coefficients,  rinner =    0.800   0.800   0.800

     PseudoPot. # 4 for C  read from file:
     /storage/coda1/p-amedford6/0/shared/rich_project_chbe-medford/medford-share/data/pseudos_module/espresso/nninc/pbe/van/C.UPF
     MD5 check sum: 1a69bf6b8db32088f5b2163dbdb77a27
     Pseudo is Ultrasoft, Zval =  4.0
     Generated by new atomic code, or converted to UPF format
     Using radial grid of  721 points,  4 beta functions with:
                l(1) =   0
                l(2) =   0
                l(3) =   1
                l(4) =   1
     Q(r) pseudized with  8 coefficients,  rinner =    0.800   0.800   0.800

     PseudoPot. # 5 for H  read from file:
     /storage/coda1/p-amedford6/0/shared/rich_project_chbe-medford/medford-share/data/pseudos_module/espresso/nninc/pbe/van/H.UPF
     MD5 check sum: b5ee9d7bfd3a09ee7748110bda690ff7
     Pseudo is Ultrasoft, Zval =  1.0
     Generated by new atomic code, or converted to UPF format
     Using radial grid of  615 points,  1 beta functions with:
                l(1) =   0
     Q(r) pseudized with  8 coefficients,  rinner =    0.800

     atomic species   valence    mass     pseudopotential
        Ti1           12.00    47.86700     Ti( 1.00)
        O1             6.00    15.99900     O ( 1.00)
        N1             5.00    14.00700     N ( 1.00)
        C1             4.00    12.01100     C ( 1.00)
        H1             1.00     1.00800     H ( 1.00)

     No symmetry found

   Cartesian axes

     site n.     atom                  positions (alat units)
         1           Ti1 tau(   1) = (   0.0004258   2.9801865   6.0000000  )
         2           Ti1 tau(   2) = (   3.2906075   1.4906267   6.0002472  )
         3           O1  tau(   3) = (   0.0006271   0.0005054   7.9858123  )
         4           O1  tau(   4) = (   3.2906025   0.0005020   7.3038282  )
         5           O1  tau(   5) = (   4.5942328   1.4918067   9.2879030  )
         6           O1  tau(   6) = (   1.9868534   1.4903216   9.2879459  )
         7           Ti1 tau(   7) = (   3.2907910   2.8959150   9.1758416  )
         8           Ti1 tau(   8) = (   0.0015273   1.4827037   9.2680791  )
         9           O1  tau(   9) = (   3.2683845   0.0132936  11.3796717  )
        10           O1  tau(  10) = (   0.0116148   5.9584955  10.6183126  )
        11           O1  tau(  11) = (   1.2681313   1.5011218  12.7194972  )
        12           O1  tau(  12) = (   5.2787963   1.4993765  12.6897032  )
        13           Ti1 tau(  13) = (   6.5560253   2.9823375  12.4990790  )
        14           Ti1 tau(  14) = (   3.2673924   1.4925278  12.5394213  )
        15           O1  tau(  15) = (   6.5345332   5.8735037  14.6996474  )
        16           O1  tau(  16) = (   3.2898196   5.9462848  13.9939205  )
        17           O1  tau(  17) = (   4.4957945   1.5291507  16.1605787  )
        18           O1  tau(  18) = (   1.9883785   1.5110281  16.0762771  )
        19           Ti1 tau(  19) = (   3.2526948   3.0056396  15.7740191  )
        20           Ti1 tau(  20) = (   0.0000763   1.3299063  15.8143521  )
        21           O1  tau(  21) = (   3.2904802   0.0005063   4.7018136  )
        22           O1  tau(  22) = (   6.5205728   0.2065101  17.2442985  )
        23           O1  tau(  23) = (   1.3043587   1.4918075   6.0039043  )
        24           O1  tau(  24) = (   5.2767064   1.4903225   6.0039473  )
        25           Ti1 tau(  25) = (   0.0000382   5.9609847   6.0000000  )
        26           Ti1 tau(  26) = (   3.2902200   4.4714249   6.0002472  )
        27           O1  tau(  27) = (   0.0002396   2.9813036   7.9858123  )
        28           O1  tau(  28) = (   3.2902150   2.9813002   7.3038282  )
        29           O1  tau(  29) = (   4.5938453   4.4726049   9.2879030  )
        30           O1  tau(  30) = (   1.9864658   4.4711199   9.2879459  )
        31           Ti1 tau(  31) = (   3.2891106   5.8743827   9.1763621  )
        32           Ti1 tau(  32) = (   0.0006254   4.4649316   9.2693709  )
        33           O1  tau(  33) = (   3.2688559   2.9716192  11.3757022  )
        34           O1  tau(  34) = (   0.0092240   2.9805883  10.6323155  )
        35           O1  tau(  35) = (   1.2711362   4.4646907  12.6658965  )
        36           O1  tau(  36) = (   5.2748280   4.4660984  12.6332574  )
        37           Ti1 tau(  37) = (   6.5627654   5.9477838  12.5072267  )
        38           Ti1 tau(  38) = (   3.2667511   4.4702655  12.5260729  )
        39           O1  tau(  39) = (   6.5087961   3.0586107  15.0099536  )
        40           O1  tau(  40) = (   3.2849776   3.0149387  13.9815115  )
        41           O1  tau(  41) = (   4.4906635   4.4862850  16.2792570  )
        42           O1  tau(  42) = (   1.9756856   4.4939852  16.2100911  )
        43           Ti1 tau(  43) = (   3.2747729   0.0241646  15.7895078  )
        44           Ti1 tau(  44) = (   6.5697470   4.5456975  16.1185117  )
        45           O1  tau(  45) = (   3.2900926   2.9813045   4.7018136  )
        46           O1  tau(  46) = (   1.3039711   4.4726057   6.0039043  )
        47           O1  tau(  47) = (   5.2763189   4.4711207   6.0039473  )
        48           N1  tau(  48) = (   0.9980056   3.0961469  19.0053282  )
        49           N1  tau(  49) = (   6.4063515   3.4839273  18.2229180  )
        50           C1  tau(  50) = (   1.6570833   4.2684698  19.5811903  )
        51           H1  tau(  51) = (   0.9936588   4.8902639  20.1979557  )
        52           H1  tau(  52) = (   2.4789334   3.9063689  20.1993048  )
        53           H1  tau(  53) = (   2.0598354   4.8861676  18.7819781  )
        54           H1  tau(  54) = (   0.6510520   2.5058952  19.7602174  )
        55           H1  tau(  55) = (   5.8507131   4.1735594  18.7414995  )
        56           H1  tau(  56) = (   5.8147758   2.6545292  18.1916272  )
        57           O1  tau(  57) = (   5.1718451   0.7789162  19.5681371  )
        58           H1  tau(  58) = (   5.5516362   0.5215711  18.6954158  )
        59           H1  tau(  59) = (   4.2099197   0.7512590  19.4668632  )

     number of k points=    10  Fermi-Dirac smearing, width (Ry)=  0.0073
                       cart. coord. in units 2pi/alat
        k(    1) = (   0.0000000   0.0000000   0.0000000), wk =   0.1250000
        k(    2) = (   0.0000000   0.0419351   0.0000000), wk =   0.2500000
        k(    3) = (   0.0000000  -0.0838702   0.0000000), wk =   0.1250000
        k(    4) = (   0.0379955   0.0000049   0.0000000), wk =   0.2500000
        k(    5) = (   0.0379955   0.0419400   0.0000000), wk =   0.2500000
        k(    6) = (   0.0379955  -0.0838652   0.0000000), wk =   0.2500000
        k(    7) = (   0.0379955  -0.0419301   0.0000000), wk =   0.2500000
        k(    8) = (  -0.0759910  -0.0000099   0.0000000), wk =   0.1250000
        k(    9) = (  -0.0759910   0.0419252   0.0000000), wk =   0.2500000
        k(   10) = (  -0.0759910  -0.0838800   0.0000000), wk =   0.1250000

     Initial potential from superposition of free atoms

     starting charge  389.99912, renormalised to  406.00000

     negative rho (up, down):  1.389E-02 0.000E+00

     %%%%%%%%%%%%%%%%%%%%%%%%%%%%%%%%%%%%%%%%%%%%%%%%%%%%%%%%%%%%%%%%%%%%%%%%
     %                                                                      %
     % You are using vdW-DF, which was implemented by the Thonhauser group. %
     % Please cite the following two papers that made this development      %
     % possible and the two reviews that describe the various versions:     %
     %                                                                      %
     %   T. Thonhauser et al., PRL 115, 136402 (2015).                      %
     %   T. Thonhauser et al., PRB 76, 125112 (2007).                       %
     %   K. Berland et al., Rep. Prog. Phys. 78, 066501 (2015).             %
     %   D.C. Langreth et al., J. Phys.: Condens. Matter 21, 084203 (2009). %
     %                                                                      %
     %                                                                      %
     % If you are calculating the stress with vdW-DF, please also cite:     %
     %                                                                      %
     %   R. Sabatini et al., J. Phys.: Condens. Matter 24, 424209 (2012).   %
     %                                                                      %
     %%%%%%%%%%%%%%%%%%%%%%%%%%%%%%%%%%%%%%%%%%%%%%%%%%%%%%%%%%%%%%%%%%%%%%%%

     Adding external electric field

     Computed dipole along edir(3) :
        Dipole              -16.7176 Ry au,        -42.4920 Debye
        Dipole field         -0.0315 Ry au,

        Potential amp.        2.9245 Ry
        Total length         46.3494 bohr

     Starting wfcs are  308 atomic wfcs
  @ DRIVER MODE: Message from server: STATUS
  @ DRIVER MODE: Message from server: POSDATA
  @ DRIVER MODE: Reading and sharing cell
  @ DRIVER MODE: Reading and sharing positions
  @ DRIVER MODE: Received positions

     Self-consistent Calculation

     iteration #  1     ecut=    29.40 Ry     beta= 0.05
     Davidson diagonalization with overlap
     c_bands:  2 eigenvalues not converged
     c_bands:  3 eigenvalues not converged
     c_bands:  2 eigenvalues not converged
     c_bands:  4 eigenvalues not converged
     c_bands:  1 eigenvalues not converged
     c_bands:  4 eigenvalues not converged
     c_bands:  3 eigenvalues not converged
     c_bands:  5 eigenvalues not converged
     c_bands:  3 eigenvalues not converged
     ethr =  1.00E-05,  avg # of iterations = 24.8

[...]

     total energy              =   -2136.63969869 Ry
     estimated scf accuracy    <    9692.88531090 Ry

     iteration #  2     ecut=    29.40 Ry     beta= 0.05
     Davidson diagonalization with overlap
     ethr =  1.00E-02,  avg # of iterations = 32.3

[...]

     iteration # 45     ecut=    29.40 Ry     beta= 0.05
     Davidson diagonalization with overlap
     c_bands:  1 eigenvalues not converged
     ethr =  4.72E-08,  avg # of iterations = 11.8

[...]

     total energy              =   -2977.68380919 Ry
     estimated scf accuracy    <       0.00000013 Ry

     iteration # 61     ecut=    29.40 Ry     beta= 0.05
     Davidson diagonalization with overlap
     ethr =  3.13E-11,  avg # of iterations = 13.1

     negative rho (up, down):  1.439E-02 0.000E+00

     Adding external electric field

     Computed dipole along edir(3) :
        Dipole                1.0209 Ry au,          2.5948 Debye
        Dipole field          0.0019 Ry au,

        Potential amp.       -0.1786 Ry
        Total length         46.3494 bohr

     End of self-consistent calculation

          k = 0.0000 0.0000 0.0000 ( 18029 PWs)   bands (ev):

   -55.3594 -55.3222 -55.3098 -55.2924 -55.2757 -55.2403 -55.2385 -55.2038
   -55.1825 -55.1811 -55.1482 -55.1421 -55.1085 -55.0174 -54.3418 -54.3078
   -31.9258 -31.8080 -31.8027 -31.7273 -31.6757 -31.6718 -31.6717 -31.6486
   -31.5987 -31.5947 -31.5716 -31.5691 -31.5548 -31.5387 -31.5297 -31.5263
   -31.5139 -31.5068 -31.4964 -31.4787 -31.4639 -31.4624 -31.4347 -31.4240
   -31.4170 -31.4132 -31.3922 -31.3851 -31.3688 -31.3670 -31.3624 -31.3535
   -31.3413 -31.3405 -31.3316 -31.3291 -31.2961 -31.2929 -31.2705 -31.2534
   -31.2296 -31.2275 -30.7513 -30.6567 -30.6347 -30.5677 -30.4809 -30.3700
   -18.0164 -17.6383 -16.1932 -15.9325 -15.7870 -15.6585 -15.5608 -15.4327
   -15.4134 -15.2915 -15.2213 -15.1172 -15.0663 -15.0480 -15.0121 -15.0020
   -14.9791 -14.9081 -14.9019 -14.8880 -14.8641 -14.8551 -14.8092 -14.8013
   -14.7601 -14.7355 -14.7115 -14.6127 -14.5225 -14.4475 -14.3399 -13.1547
   -12.8447 -12.7272  -9.4094  -6.3174  -5.9001  -5.7455  -4.2527  -3.5317
    -3.3829  -3.3142  -3.2779  -3.2523  -3.1191  -2.9618  -2.9236  -2.8068
    -2.7885  -2.6886  -2.6443  -2.5731  -2.5563  -2.5412  -2.3951  -2.3724
    -2.3463  -2.2809  -2.2526  -2.1873  -2.1650  -2.1539  -2.1443  -2.1216
    -2.0937  -2.0464  -1.9917  -1.9331  -1.8399  -1.8147  -1.7639  -1.7343
    -1.7134  -1.6966  -1.6507  -1.6396  -1.6006  -1.5859  -1.5663  -1.5515
    -1.3888  -1.3663  -1.2642  -1.2027  -1.1039  -0.9996  -0.9641  -0.9495
    -0.8525  -0.8340  -0.7808  -0.7403  -0.7374  -0.7031  -0.5912  -0.5286
    -0.4764  -0.4127  -0.3902  -0.3499  -0.2820  -0.1992  -0.1429  -0.1288
    -0.1136  -0.0997   0.0134   0.0258   0.0774   0.1524   0.1620   0.1682
     0.2416   0.2983   0.3685   0.3935   0.4112   0.5163   0.5319   0.5642
     0.5700   0.5999   0.6207   0.6456   0.7058   0.7362   0.8193   0.9410
     1.1332   1.2221   1.2495   1.3614   1.5725   1.5851   1.6807   1.8639
     2.2570   2.3054   3.7376   3.8087   3.8836   3.8875   3.9102   3.9740
     4.2107   4.2280   4.2425   4.2463   4.2702

[...]

          k = 0.0380-0.0419 0.0000 ( 17876 PWs)   bands (ev):

[...]

          k =-0.0760-0.0000 0.0000 ( 17886 PWs)   bands (ev):

[...]

          k =-0.0760-0.0839 0.0000 ( 17948 PWs)   bands (ev):

   -55.3457 -55.3356 -55.2930 -55.2924 -55.2911 -55.2330 -55.2282 -55.2159
   -55.1866 -55.1666 -55.1637 -55.1255 -55.1252 -55.0185 -54.3249 -54.3245
   -31.7339 -31.7259 -31.7237 -31.6394 -31.6197 -31.6180 -31.6175 -31.5841
   -31.5838 -31.5730 -31.5589 -31.5577 -31.5509 -31.5309 -31.5192 -31.5059
   -31.4994 -31.4962 -31.4947 -31.4932 -31.4865 -31.4791 -31.4467 -31.4391
   -31.4361 -31.4358 -31.4219 -31.4170 -31.4127 -31.4121 -31.4070 -31.3993
   -31.3970 -31.3797 -31.3765 -31.3742 -31.3594 -31.3564 -31.3068 -31.3059
   -31.2998 -31.2334 -30.6475 -30.6471 -30.5639 -30.5637 -30.5244 -30.5242
   -18.0051 -17.6466 -15.6737 -15.5887 -15.5678 -15.4128 -15.3610 -15.3346
   -15.3236 -15.2083 -15.1659 -15.1467 -15.1322 -15.1102 -15.0719 -15.0623
   -15.0554 -14.9924 -14.9721 -14.9632 -14.9373 -14.8833 -14.8758 -14.8677
   -14.8600 -14.8100 -14.8062 -14.7667 -14.7155 -14.7120 -14.6359 -13.1609
   -12.8287 -12.8287  -9.4144  -6.3420  -5.9193  -5.6697  -4.2304  -2.9358
    -2.8468  -2.8359  -2.8293  -2.6983  -2.6260  -2.5506  -2.5284  -2.5068
    -2.4191  -2.4089  -2.3781  -2.3532  -2.3223  -2.2844  -2.2459  -2.2403
    -2.2038  -2.1953  -2.1797  -2.1630  -2.1416  -2.1261  -2.0922  -2.0815
    -2.0682  -2.0241  -1.9980  -1.9840  -1.9628  -1.9426  -1.9339  -1.9159
    -1.8397  -1.7508  -1.7265  -1.6414  -1.5722  -1.5701  -1.5640  -1.5023
    -1.4589  -1.4205  -1.3953  -1.3783  -1.2390  -1.1677  -1.1236  -1.1093
    -1.0946  -0.9639  -0.9577  -0.8817  -0.8590  -0.8527  -0.7596  -0.7148
    -0.6760  -0.6692  -0.5825  -0.5703  -0.4943  -0.3960  -0.3741  -0.3603
    -0.3149  -0.3132  -0.2759  -0.2630  -0.1664  -0.1311  -0.1123  -0.0971
    -0.0811  -0.0390   0.1120   0.1610   0.1675   0.3006   0.3325   0.4709
     0.5007   0.5650   0.6446   0.6935   0.7461   0.7789   0.8658   0.9402
     0.9434   1.0066   1.0223   1.0884   1.1006   1.3668   2.0369   2.0374
     2.1252   2.1256   3.8856   4.0007   4.0043   4.0335   4.1558   4.1790
     4.2554   4.2830   4.3222   4.3258   4.3864

     the Fermi energy is     3.8017 ev

!    total energy              =   -2977.68386084 Ry
     estimated scf accuracy    <       0.00000004 Ry
     smearing contrib. (-TS)   =      -0.03717169 Ry
     internal energy E=F+TS    =   -2977.64668915 Ry

     The total energy is F=E-TS. E is the sum of the following terms:
     one-electron contribution =  -22681.90801414 Ry
     hartree contribution      =   11438.32076448 Ry
     xc contribution           =    -496.61788476 Ry
     ewald contribution        =    8762.55647857 Ry
     electric field correction =       0.00196670 Ry

     convergence has been achieved in  61 iterations

     Forces acting on atoms (cartesian axes, Ry/au):

     atom    1 type  1   force =     0.00024518   -0.00037793    0.09323990
     atom    2 type  1   force =     0.00002389   -0.00038853   -0.17815557
     atom    3 type  2   force =     0.00004885   -0.00040772   -0.02000625
     atom    4 type  2   force =     0.00001081   -0.00190100    0.05911195
     atom    5 type  2   force =    -0.01034934   -0.00059750    0.00861454
     atom    6 type  2   force =     0.01129681    0.00009411    0.00628052
     atom    7 type  1   force =    -0.00096490    0.00199719   -0.01427710
     atom    8 type  1   force =     0.00097669   -0.00259204   -0.00600389
     atom    9 type  2   force =     0.00016860   -0.00000974    0.00010253
     atom   10 type  2   force =    -0.00231144    0.00310496    0.00262406
     atom   11 type  2   force =     0.00042406   -0.00043176   -0.00057247
     atom   12 type  2   force =     0.00003459   -0.00041201   -0.00057997
     atom   13 type  1   force =     0.00033255   -0.00027084   -0.00020925
     atom   14 type  1   force =     0.00004456   -0.00009188   -0.00007087
     atom   15 type  2   force =    -0.00000017    0.00059307   -0.00003723
     atom   16 type  2   force =     0.00030677    0.00028140   -0.00012609
     atom   17 type  2   force =     0.00039189    0.00025992    0.00042887
     atom   18 type  2   force =    -0.00048855    0.00020891   -0.00009699
     atom   19 type  1   force =    -0.00015417    0.00011360    0.00030585
     atom   20 type  1   force =    -0.00007428   -0.00022444    0.00061041
     atom   21 type  2   force =     0.00011803   -0.00011114    0.10399713
     atom   22 type  2   force =     0.00030851   -0.00019761    0.00025870
     atom   23 type  2   force =    -0.07027532   -0.00019262   -0.02685421
     atom   24 type  2   force =     0.07025740    0.00025029   -0.02685697
     atom   25 type  1   force =     0.00017180   -0.00030933    0.09242951
     atom   26 type  1   force =     0.00005284   -0.00054682   -0.17847784
     atom   27 type  2   force =     0.00008335   -0.00021511   -0.01905665
     atom   28 type  2   force =     0.00006015   -0.00173032    0.05853199
     atom   29 type  2   force =    -0.01101756   -0.00114365    0.00944949
     atom   30 type  2   force =     0.01187537   -0.00069924    0.00723198
     atom   31 type  1   force =    -0.00088449    0.00647117   -0.01493091
     atom   32 type  1   force =     0.00101892    0.00223364   -0.00640347
     atom   33 type  2   force =     0.00025879    0.00008882    0.00003457
     atom   34 type  2   force =    -0.00214694   -0.00244681   -0.00033120
     atom   35 type  2   force =     0.00027948    0.00012985   -0.00001161
     atom   36 type  2   force =     0.00025685    0.00003883    0.00050634
     atom   37 type  1   force =    -0.00009501    0.00003208   -0.00004747
     atom   38 type  1   force =     0.00015477   -0.00006388   -0.00000257
     atom   39 type  2   force =    -0.00010555   -0.00019578    0.00042853
     atom   40 type  2   force =    -0.00014223    0.00008001    0.00005736
     atom   41 type  2   force =    -0.00043351    0.00012223    0.00023902
     atom   42 type  2   force =     0.00026088   -0.00010478   -0.00016515
     atom   43 type  1   force =     0.00038620    0.00025643   -0.00002108
     atom   44 type  1   force =    -0.00005189   -0.00007262    0.00001241
     atom   45 type  2   force =     0.00012186   -0.00011080    0.10393294
     atom   46 type  2   force =    -0.07023626   -0.00012929   -0.02679417
     atom   47 type  2   force =     0.07022664    0.00027483   -0.02685999
     atom   48 type  3   force =    -0.00019330   -0.00010858   -0.00030537
     atom   49 type  3   force =     0.00011260   -0.00002407   -0.00067320
     atom   50 type  4   force =    -0.00031684   -0.00003838   -0.00024139
     atom   51 type  5   force =    -0.00067956    0.00033976    0.00037094
     atom   52 type  5   force =     0.00042530   -0.00002165    0.00035132
     atom   53 type  5   force =    -0.00001493    0.00018339   -0.00045591
     atom   54 type  5   force =     0.00010237   -0.00015759   -0.00001895
     atom   55 type  5   force =     0.00031681    0.00043180   -0.00028193
     atom   56 type  5   force =    -0.00028205   -0.00076686    0.00043502
     atom   57 type  2   force =    -0.00181899    0.00090451    0.00521692
     atom   58 type  5   force =     0.00109248   -0.00171213   -0.00390309
     atom   59 type  5   force =     0.00079063    0.00031361   -0.00197397

     Total force =     0.366301     Total SCF correction =     0.000578
  @ DRIVER MODE: Message from server: STATUS
  @ DRIVER MODE: Message from server: GETFORCE
  @ DRIVER MODE: Returning v,forces,stress,ensemble

     Writing output data file ./calc.save/
  @ DRIVER MODE: Message from server: EXIT
  @ DRIVE MODE: Exiting

     General routines

     Parallel routines

   This run was terminated on:  12: 0:22  16Sep2021

   JOB DONE.