     Program PWSCF v.6.7GPU starts on 24Aug2021 at 21:55:39

     R & G space division:  proc/nbgrp/npool/nimage =       6
     Reading input from /storage/home/hcoda1/3/ntian30/research/carbon/CH3_vib_end_on/ads_slab/CH3N2H2_f/out_0010/pw.inp
Warning: card &CELL ignored
Warning: card   CELL_DYNAMICS='IPI', ignored
Warning: card / ignored

     Current dimensions of program PWSCF are:
     Max number of different atomic species (ntypx) = 10
     Max number of k-points (npk) =  40000
     Max angular momentum in pseudopotentials (lmaxx) =  3
     Presently no symmetry can be used with electric field

     Message from routine cell_base_init:
     DEPRECATED: use true lattice parameter, not A to a.u. conversion factor

     IMPORTANT: XC functional enforced from input :
     Exchange-correlation= BEEF-VDW
                           (   1   4  43  14   2   0   0)
     Any further DFT definition will be discarded
     Please, verify this is what you really want

  @ DRIVER MODE: Connecting to
 qe_1139763_2643870.sched-torque.pace.gatech.edu4_hfbmo4_scratch
  using UNIX socket
  @ DRIVER MODE: Message from server: STATUS
  @ DRIVER MODE: Message from server: INIT
  @ DRIVER MODE: Receiving replica           0          -1
  @ DRIVER MODE: Receiving encoded integer          25
  @ DRIVER MODE:  SCF:  T  FORCE:  T  STRESS:  F  VC:  F  ENSEMBLE:  F
  @ DRIVER MODE:  SCF:  T  FORCE:  T  STRESS:  F  VC:  F  ENSEMBLE:  F

     Using Slab Decomposition

     bravais-lattice index     =            0
     lattice parameter (alat)  =       1.8897  a.u.
     unit-cell volume          =    6658.9804 (a.u.)^3
     number of atoms/cell      =           55
     number of atomic types    =            5
     number of electrons       =       397.00
     number of Kohn-Sham states=          208
     kinetic-energy cutoff     =      29.3995  Ry
     charge density cutoff     =     293.9946  Ry
     scf convergence threshold =      7.3E-08
     mixing beta               =       0.0500
     number of iterations used =            8  plain     mixing
     Exchange-correlation= BEEF-VDW
                           (   1   4  43  14   2   0   0)

     celldm(1)=   1.889726  celldm(2)=   0.000000  celldm(3)=   0.000000
     celldm(4)=   0.000000  celldm(5)=   0.000000  celldm(6)=   0.000000

     crystal axes: (cart. coord. in units of alat)
               a(1) = (   6.579727   0.000000   0.000000 )
               a(2) = (  -0.000775   5.961596   0.000000 )
               a(3) = (   0.000000   0.000000  25.155947 )

     reciprocal axes: (cart. coord. in units 2 pi/alat)
               b(1) = (  0.151982  0.000020  0.000000 )
               b(2) = (  0.000000  0.167740  0.000000 )
               b(3) = (  0.000000  0.000000  0.039752 )

     PseudoPot. # 1 for Ti read from file:
     /storage/coda1/p-amedford6/0/shared/rich_project_chbe-medford/medford-share/data/pseudos_module/espresso/nninc/pbe/van/Ti.UPF
     MD5 check sum: 8e4df49b7f0d34bbd5052bf3f5ea0213
     Pseudo is Ultrasoft, Zval = 12.0
     Generated by new atomic code, or converted to UPF format
     Using radial grid of  851 points,  6 beta functions with:
                l(1) =   0
                l(2) =   0
                l(3) =   1
                l(4) =   1
                l(5) =   2
                l(6) =   2
     Q(r) pseudized with  8 coefficients,  rinner =    1.000   1.000   1.000
                                                       1.000   1.000

     PseudoPot. # 2 for O  read from file:
     /storage/coda1/p-amedford6/0/shared/rich_project_chbe-medford/medford-share/data/pseudos_module/espresso/nninc/pbe/van/O.UPF
     MD5 check sum: 78c19812648e8988a0fe644b0f25305e
     Pseudo is Ultrasoft, Zval =  6.0
     Generated by new atomic code, or converted to UPF format
     Using radial grid of  737 points,  4 beta functions with:
                l(1) =   0
                l(2) =   0
                l(3) =   1
                l(4) =   1
     Q(r) pseudized with  8 coefficients,  rinner =    0.800   0.800   0.800

     PseudoPot. # 3 for N  read from file:
     /storage/coda1/p-amedford6/0/shared/rich_project_chbe-medford/medford-share/data/pseudos_module/espresso/nninc/pbe/van/N.UPF
     MD5 check sum: 90d10febe142ad51ac9d5be1deb811c4
     Pseudo is Ultrasoft, Zval =  5.0
     Generated by new atomic code, or converted to UPF format
     Using radial grid of  729 points,  4 beta functions with:
                l(1) =   0
                l(2) =   0
                l(3) =   1
                l(4) =   1
     Q(r) pseudized with  8 coefficients,  rinner =    0.800   0.800   0.800

     PseudoPot. # 4 for C  read from file:
     /storage/coda1/p-amedford6/0/shared/rich_project_chbe-medford/medford-share/data/pseudos_module/espresso/nninc/pbe/van/C.UPF
     MD5 check sum: 1a69bf6b8db32088f5b2163dbdb77a27
     Pseudo is Ultrasoft, Zval =  4.0
     Generated by new atomic code, or converted to UPF format
     Using radial grid of  721 points,  4 beta functions with:
                l(1) =   0
                l(2) =   0
                l(3) =   1
                l(4) =   1
     Q(r) pseudized with  8 coefficients,  rinner =    0.800   0.800   0.800

     PseudoPot. # 5 for H  read from file:
     /storage/coda1/p-amedford6/0/shared/rich_project_chbe-medford/medford-share/data/pseudos_module/espresso/nninc/pbe/van/H.UPF
     MD5 check sum: b5ee9d7bfd3a09ee7748110bda690ff7
     Pseudo is Ultrasoft, Zval =  1.0
     Generated by new atomic code, or converted to UPF format
     Using radial grid of  615 points,  1 beta functions with:
                l(1) =   0
     Q(r) pseudized with  8 coefficients,  rinner =    0.800

     atomic species   valence    mass     pseudopotential
        Ti1           12.00    47.86700     Ti( 1.00)
        O1             6.00    15.99900     O ( 1.00)
        N1             5.00    14.00700     N ( 1.00)
        C1             4.00    12.01100     C ( 1.00)
        H1             1.00     1.00800     H ( 1.00)

     No symmetry found

   Cartesian axes

     site n.     atom                  positions (alat units)
         1           Ti1 tau(   1) = (   0.0004258   2.9801865   6.0000000  )
         2           Ti1 tau(   2) = (   3.2906075   1.4906267   6.0002472  )
         3           O1  tau(   3) = (   0.0006271   0.0005054   7.9858123  )
         4           O1  tau(   4) = (   3.2906025   0.0005020   7.3038282  )
         5           O1  tau(   5) = (   4.5942328   1.4918067   9.2879030  )
         6           O1  tau(   6) = (   1.9868534   1.4903216   9.2879459  )
         7           Ti1 tau(   7) = (   3.2907910   2.8959150   9.1758416  )
         8           Ti1 tau(   8) = (   0.0015273   1.4827037   9.2680791  )
         9           O1  tau(   9) = (   3.2830128   5.9597860  11.3344455  )
        10           O1  tau(  10) = (   0.0116148   5.9584955  10.6183126  )
        11           O1  tau(  11) = (   1.2885291   1.4855062  12.6376555  )
        12           O1  tau(  12) = (   5.2724004   1.4911608  12.5936499  )
        13           Ti1 tau(  13) = (   0.0410009   3.0319447  12.6084003  )
        14           Ti1 tau(  14) = (   3.3739341   1.4916561  12.4823474  )
        15           O1  tau(  15) = (   6.4862162   0.0153916  14.6455093  )
        16           O1  tau(  16) = (   3.3439542   5.9611638  13.9051029  )
        17           O1  tau(  17) = (   4.4933269   1.5483200  16.1231154  )
        18           O1  tau(  18) = (   1.9964937   1.4536654  15.9127221  )
        19           Ti1 tau(  19) = (   3.1412959   3.0017366  15.7441667  )
        20           Ti1 tau(  20) = (   6.4823597   1.5369342  15.8006069  )
        21           O1  tau(  21) = (   3.2904802   0.0005063   4.7018136  )
        22           O1  tau(  22) = (   6.5709111   0.0522475  17.2082838  )
        23           O1  tau(  23) = (   1.3043587   1.4918075   6.0039043  )
        24           O1  tau(  24) = (   5.2767064   1.4903225   6.0039473  )
        25           Ti1 tau(  25) = (   0.0000382   5.9609847   6.0000000  )
        26           Ti1 tau(  26) = (   3.2902200   4.4714249   6.0002472  )
        27           O1  tau(  27) = (   0.0002396   2.9813036   7.9858123  )
        28           O1  tau(  28) = (   3.2902150   2.9813002   7.3038282  )
        29           O1  tau(  29) = (   4.5938453   4.4726049   9.2879030  )
        30           O1  tau(  30) = (   1.9864658   4.4711199   9.2879459  )
        31           Ti1 tau(  31) = (   3.2891106   5.8743827   9.1763621  )
        32           Ti1 tau(  32) = (   0.0006254   4.4649316   9.2693709  )
        33           O1  tau(  33) = (   3.2833609   2.9822938  11.3349093  )
        34           O1  tau(  34) = (   0.0092240   2.9805883  10.6323155  )
        35           O1  tau(  35) = (   1.2838611   4.4860338  12.6468719  )
        36           O1  tau(  36) = (   5.2760156   4.4607002  12.6015494  )
        37           Ti1 tau(  37) = (   0.0673138   0.0440259  12.5461749  )
        38           Ti1 tau(  38) = (   3.3712377   4.4654930  12.4933830  )
        39           O1  tau(  39) = (   6.5217465   2.9589972  14.6412948  )
        40           O1  tau(  40) = (   3.2809526   2.9956502  13.9333893  )
        41           O1  tau(  41) = (   4.4911989   4.4583117  16.1637052  )
        42           O1  tau(  42) = (   1.9937212   4.5427850  15.9740970  )
        43           Ti1 tau(  43) = (   3.2955853   0.0167752  15.6963065  )
        44           Ti1 tau(  44) = (   6.5082246   4.6715011  16.1069148  )
        45           O1  tau(  45) = (   3.2900926   2.9813045   4.7018136  )
        46           O1  tau(  46) = (   1.3039711   4.4726057   6.0039043  )
        47           O1  tau(  47) = (   5.2763189   4.4711207   6.0039473  )
        48           N1  tau(  48) = (   1.3945086   2.8365607  18.1849301  )
        49           N1  tau(  49) = (   0.1777896   2.9750562  17.4211889  )
        50           C1  tau(  50) = (   1.4118813   3.7128676  19.3556819  )
        51           H1  tau(  51) = (   0.5171711   3.5996102  19.9880000  )
        52           H1  tau(  52) = (   2.2935099   3.4681107  19.9517681  )
        53           H1  tau(  53) = (   1.4703795   4.7520035  19.0319817  )
        54           H1  tau(  54) = (   1.4579882   1.8621926  18.4823179  )
        55           H1  tau(  55) = (   5.9558665   2.8747675  18.0551794  )

     number of k points=    10  Fermi-Dirac smearing, width (Ry)=  0.0073
                       cart. coord. in units 2pi/alat
        k(    1) = (   0.0000000   0.0000000   0.0000000), wk =   0.1250000
        k(    2) = (   0.0000000   0.0419351   0.0000000), wk =   0.2500000
        k(    3) = (   0.0000000  -0.0838702   0.0000000), wk =   0.1250000
        k(    4) = (   0.0379955   0.0000049   0.0000000), wk =   0.2500000
        k(    5) = (   0.0379955   0.0419400   0.0000000), wk =   0.2500000
        k(    6) = (   0.0379955  -0.0838652   0.0000000), wk =   0.2500000
        k(    7) = (   0.0379955  -0.0419301   0.0000000), wk =   0.2500000
        k(    8) = (  -0.0759910  -0.0000099   0.0000000), wk =   0.1250000
        k(    9) = (  -0.0759910   0.0419252   0.0000000), wk =   0.2500000
        k(   10) = (  -0.0759910  -0.0838800   0.0000000), wk =   0.1250000

     Initial potential from superposition of free atoms

     starting charge  380.99914, renormalised to  397.00000

     negative rho (up, down):  1.540E-02 0.000E+00

     %%%%%%%%%%%%%%%%%%%%%%%%%%%%%%%%%%%%%%%%%%%%%%%%%%%%%%%%%%%%%%%%%%%%%%%%
     %                                                                      %
     % You are using vdW-DF, which was implemented by the Thonhauser group. %
     % Please cite the following two papers that made this development      %
     % possible and the two reviews that describe the various versions:     %
     %                                                                      %
     %   T. Thonhauser et al., PRL 115, 136402 (2015).                      %
     %   T. Thonhauser et al., PRB 76, 125112 (2007).                       %
     %   K. Berland et al., Rep. Prog. Phys. 78, 066501 (2015).             %
     %   D.C. Langreth et al., J. Phys.: Condens. Matter 21, 084203 (2009). %
     %                                                                      %
     %                                                                      %
     % If you are calculating the stress with vdW-DF, please also cite:     %
     %                                                                      %
     %   R. Sabatini et al., J. Phys.: Condens. Matter 24, 424209 (2012).   %
     %                                                                      %
     %%%%%%%%%%%%%%%%%%%%%%%%%%%%%%%%%%%%%%%%%%%%%%%%%%%%%%%%%%%%%%%%%%%%%%%%

     Adding external electric field

     Computed dipole along edir(3) :
        Dipole               -9.6180 Ry au,        -24.4465 Debye
        Dipole field         -0.0182 Ry au,

        Potential amp.        1.6825 Ry
        Total length         46.3494 bohr

     Starting wfcs are  301 atomic wfcs
  @ DRIVER MODE: Message from server: STATUS
  @ DRIVER MODE: Message from server: POSDATA
  @ DRIVER MODE: Reading and sharing cell
  @ DRIVER MODE: Reading and sharing positions
  @ DRIVER MODE: Received positions

     Self-consistent Calculation

     iteration #  1     ecut=    29.40 Ry     beta= 0.05
     Davidson diagonalization with overlap
     c_bands:  1 eigenvalues not converged
     c_bands:  1 eigenvalues not converged
     c_bands:  1 eigenvalues not converged
     c_bands:  1 eigenvalues not converged
     c_bands:  1 eigenvalues not converged
     c_bands:  1 eigenvalues not converged
     c_bands:  2 eigenvalues not converged
     ethr =  1.00E-05,  avg # of iterations = 18.8

[...]

     total energy              =   -2533.41901362 Ry
     estimated scf accuracy    <    4541.02345268 Ry

     iteration #  2     ecut=    29.40 Ry     beta= 0.05
     Davidson diagonalization with overlap
     ethr =  1.00E-02,  avg # of iterations = 24.0

[...]

     iteration # 59     ecut=    29.40 Ry     beta= 0.05
     Davidson diagonalization with overlap
     c_bands:  1 eigenvalues not converged
     ethr =  4.84E-11,  avg # of iterations = 15.5

[...]

     total energy              =   -2941.66148189 Ry
     estimated scf accuracy    <       0.00000050 Ry

     iteration # 60     ecut=    29.40 Ry     beta= 0.05
     Davidson diagonalization with overlap
     ethr =  4.84E-11,  avg # of iterations =  9.7

     negative rho (up, down):  1.607E-02 0.000E+00

     Adding external electric field

     Computed dipole along edir(3) :
        Dipole                0.9386 Ry au,          2.3856 Debye
        Dipole field          0.0018 Ry au,

        Potential amp.       -0.1642 Ry
        Total length         46.3494 bohr

     End of self-consistent calculation

          k = 0.0000 0.0000 0.0000 ( 18029 PWs)   bands (ev):

   -55.6884 -55.6718 -55.6544 -55.6351 -55.5942 -55.5400 -55.5334 -55.5032
   -55.4972 -55.4692 -55.4672 -55.4330 -55.2649 -55.0337 -54.6690 -54.6350
   -32.2227 -32.1714 -32.0445 -32.0349 -32.0014 -31.9867 -31.9812 -31.9575
   -31.9325 -31.9007 -31.8983 -31.8922 -31.8493 -31.8406 -31.8269 -31.8255
   -31.8088 -31.7933 -31.7849 -31.7497 -31.7455 -31.7390 -31.7233 -31.7210
   -31.6968 -31.6924 -31.6898 -31.6820 -31.6677 -31.6662 -31.6578 -31.6489
   -31.6433 -31.6336 -31.6202 -31.6107 -31.5793 -31.5143 -31.4714 -31.3014
   -31.2908 -31.2376 -31.0761 -30.9877 -30.9653 -30.8929 -30.8064 -30.6953
   -16.7644 -16.4192 -16.1643 -15.9346 -15.8438 -15.8138 -15.6613 -15.5296
   -15.4202 -15.3386 -15.2537 -15.2346 -15.2270 -15.2164 -15.1905 -15.1847
   -15.1375 -15.1329 -15.1133 -15.1005 -15.0504 -15.0344 -15.0305 -14.9358
   -14.8717 -14.8363 -14.8216 -14.7871 -14.7497 -14.3352 -13.1712 -13.0548
   -11.8023  -8.9767  -5.4372  -4.3497  -3.8396  -3.7905  -3.6468  -3.5959
    -3.5358  -3.4963  -3.3192  -3.2169  -2.9442  -2.8870  -2.8575  -2.8486
    -2.7910  -2.7596  -2.6032  -2.5775  -2.5061  -2.4968  -2.4821  -2.4532
    -2.4441  -2.4369  -2.3979  -2.3777  -2.3492  -2.2451  -2.1051  -2.0958
    -2.0735  -2.0404  -2.0021  -1.9538  -1.9375  -1.9171  -1.8988  -1.8859
    -1.8737  -1.7387  -1.7039  -1.5870  -1.4980  -1.4508  -1.3650  -1.3010
    -1.2767  -1.1605  -1.1201  -1.1088  -1.0935  -1.0825  -0.9832  -0.8772
    -0.8604  -0.8224  -0.7670  -0.7114  -0.6407  -0.5960  -0.5454  -0.4933
    -0.4677  -0.4530  -0.4504  -0.4155  -0.3209  -0.1824  -0.1304  -0.0961
    -0.0737   0.0030   0.0379   0.0940   0.1187   0.1421   0.1777   0.2307
     0.2743   0.2809   0.2942   0.3088   0.3133   0.4878   0.5375   0.5790
     0.6122   0.6586   0.8194   0.8423   0.9635   1.0392   1.2104   1.2788
     1.3534   1.4309   1.5452   1.6118   1.9246   1.9703   3.4419   3.5295
     3.5742   3.5879   3.6832   3.7249   3.8948   3.9253   3.9396   3.9998

[...]

          k = 0.0380-0.0419 0.0000 ( 17876 PWs)   bands (ev):

[...]

          k =-0.0760-0.0000 0.0000 ( 17886 PWs)   bands (ev):

[...]

          k =-0.0760-0.0839 0.0000 ( 17948 PWs)   bands (ev):

   -55.6718 -55.6709 -55.6570 -55.6496 -55.5881 -55.5459 -55.5209 -55.5097
   -55.4867 -55.4852 -55.4531 -55.4473 -55.2638 -55.0347 -54.6520 -54.6519
   -32.0318 -32.0221 -31.9871 -31.9863 -31.9670 -31.9661 -31.9463 -31.9397
   -31.8870 -31.8865 -31.8763 -31.8709 -31.8539 -31.8360 -31.8116 -31.8067
   -31.8024 -31.7988 -31.7920 -31.7918 -31.7906 -31.7902 -31.7867 -31.7468
   -31.7389 -31.7271 -31.7189 -31.7081 -31.6871 -31.6861 -31.6840 -31.6773
   -31.6674 -31.6634 -31.6602 -31.6578 -31.6188 -31.5168 -31.4681 -31.3642
   -31.2929 -31.2624 -30.9780 -30.9779 -30.8890 -30.8888 -30.8497 -30.8497
   -16.7378 -15.8666 -15.8055 -15.6475 -15.6122 -15.5928 -15.5578 -15.4970
   -15.4142 -15.3867 -15.3819 -15.3349 -15.3093 -15.2764 -15.2382 -15.2240
   -15.2167 -15.1979 -15.1852 -15.1518 -15.1423 -15.1305 -15.1234 -15.0480
   -15.0103 -15.0059 -15.0004 -14.8973 -14.7715 -14.5023 -13.1566 -13.1565
   -11.8087  -8.9910  -5.4511  -4.3365  -3.7624  -3.1593  -3.0723  -2.8975
    -2.8420  -2.8132  -2.7972  -2.6310  -2.6198  -2.6054  -2.5572  -2.5379
    -2.5270  -2.5191  -2.5105  -2.4894  -2.4765  -2.4414  -2.4321  -2.3967
    -2.3825  -2.3648  -2.3479  -2.3306  -2.3110  -2.2966  -2.2799  -2.2396
    -2.2195  -2.2090  -2.1881  -2.1442  -1.9343  -1.8843  -1.8390  -1.8352
    -1.8239  -1.8044  -1.7493  -1.7442  -1.7106  -1.6588  -1.5803  -1.4359
    -1.3906  -1.3741  -1.2812  -1.2595  -1.2081  -1.1346  -1.0887  -1.0717
    -1.0375  -0.9727  -0.9361  -0.8994  -0.8332  -0.8083  -0.8009  -0.7086
    -0.6879  -0.6515  -0.6447  -0.5658  -0.5152  -0.4528  -0.4374  -0.4211
    -0.3892  -0.3561  -0.3386  -0.2692  -0.1779  -0.1771  -0.1520  -0.0448
     0.0446   0.2744   0.3381   0.3738   0.4185   0.5127   0.5816   0.6054
     0.6217   0.6432   0.6624   0.7112   0.8377   0.8479   0.8821   0.9948
     1.1089   1.6264   1.7168   1.7177   1.7901   1.7902   3.7438   3.7618
     3.7824   3.8289   3.9481   3.9550   3.9771   3.9794   4.1021   4.1163

     the Fermi energy is     3.4436 ev

!    total energy              =   -2941.66154724 Ry
     estimated scf accuracy    <       0.00000007 Ry
     smearing contrib. (-TS)   =      -0.02151654 Ry
     internal energy E=F+TS    =   -2941.64003070 Ry

     The total energy is F=E-TS. E is the sum of the following terms:
     one-electron contribution =  -24276.00975903 Ry
     hartree contribution      =   12228.44209552 Ry
     xc contribution           =    -486.87157230 Ry
     ewald contribution        =    9592.79754273 Ry
     electric field correction =       0.00166237 Ry

     convergence has been achieved in  60 iterations

     Forces acting on atoms (cartesian axes, Ry/au):

     atom    1 type  1   force =     0.00018121   -0.00011980    0.09640699
     atom    2 type  1   force =    -0.00021849   -0.00063343   -0.17549429
     atom    3 type  2   force =    -0.00004352   -0.00003706   -0.02419203
     atom    4 type  2   force =     0.00005063   -0.00144454    0.05291232
     atom    5 type  2   force =    -0.01182794   -0.00049230    0.00394696
     atom    6 type  2   force =     0.01314239    0.00023614    0.00228604
     atom    7 type  1   force =    -0.00140437    0.00080279   -0.01149780
     atom    8 type  1   force =     0.00053137    0.00920067    0.02520684
     atom    9 type  2   force =    -0.00010800    0.00017430    0.00038144
     atom   10 type  2   force =    -0.00086531    0.00148460   -0.01582404
     atom   11 type  2   force =    -0.00019020   -0.00048170    0.00038613
     atom   12 type  2   force =    -0.00013215   -0.00025000    0.00002184
     atom   13 type  1   force =     0.00054447   -0.00091400   -0.00001636
     atom   14 type  1   force =    -0.00008966   -0.00039973    0.00025214
     atom   15 type  2   force =     0.00018216    0.00076529   -0.00049461
     atom   16 type  2   force =     0.00006685    0.00025742    0.00002855
     atom   17 type  2   force =    -0.00041319    0.00036454    0.00051856
     atom   18 type  2   force =    -0.00003279    0.00013981    0.00035245
     atom   19 type  1   force =     0.00007891   -0.00040201    0.00033708
     atom   20 type  1   force =     0.00021095    0.00024472    0.00052183
     atom   21 type  2   force =     0.00007346   -0.00008471    0.10321917
     atom   22 type  2   force =    -0.00045970    0.00113823    0.00015548
     atom   23 type  2   force =    -0.07148166   -0.00018445   -0.02770782
     atom   24 type  2   force =     0.07140047    0.00025062   -0.02770239
     atom   25 type  1   force =     0.00003251   -0.00026624    0.09589476
     atom   26 type  1   force =    -0.00014452   -0.00023427   -0.17565608
     atom   27 type  2   force =     0.00009199   -0.00012433   -0.02329301
     atom   28 type  2   force =     0.00007750   -0.00129112    0.05333619
     atom   29 type  2   force =    -0.01195853   -0.00005474    0.00374300
     atom   30 type  2   force =     0.01320834    0.00043516    0.00212104
     atom   31 type  1   force =    -0.00142154    0.00344073   -0.01083254
     atom   32 type  1   force =     0.00064433   -0.01009328    0.02560952
     atom   33 type  2   force =    -0.00038980    0.00005273    0.00004290
     atom   34 type  2   force =     0.00075034    0.00090357   -0.02306587
     atom   35 type  2   force =    -0.00010882    0.00028462   -0.00002469
     atom   36 type  2   force =    -0.00022463    0.00058840   -0.00029347
     atom   37 type  1   force =    -0.00082474   -0.00100839   -0.00012713
     atom   38 type  1   force =    -0.00003367   -0.00010891   -0.00002432
     atom   39 type  2   force =    -0.00036283   -0.00010414    0.00075223
     atom   40 type  2   force =     0.00048525    0.00023939    0.00023530
     atom   41 type  2   force =    -0.00005797    0.00053519    0.00017558
     atom   42 type  2   force =     0.00024392    0.00033667   -0.00031792
     atom   43 type  1   force =     0.00020740   -0.00006879   -0.00015856
     atom   44 type  1   force =    -0.00038410   -0.00022802   -0.00001435
     atom   45 type  2   force =     0.00006877   -0.00008994    0.10324588
     atom   46 type  2   force =    -0.07147967   -0.00017187   -0.02770057
     atom   47 type  2   force =     0.07140333    0.00030430   -0.02771336
     atom   48 type  3   force =    -0.00090209    0.00249046   -0.00033493
     atom   49 type  3   force =     0.00045915   -0.00573363    0.00204263
     atom   50 type  4   force =     0.00133190   -0.00022436    0.00133845
     atom   51 type  5   force =     0.00114324    0.00038484   -0.00065444
     atom   52 type  5   force =    -0.00023685    0.00077647   -0.00050834
     atom   53 type  5   force =    -0.00021591   -0.00172829    0.00052367
     atom   54 type  5   force =    -0.00118134    0.00061727   -0.00113185
     atom   55 type  5   force =     0.00058314    0.00052509   -0.00121420

     Total force =     0.367411     Total SCF correction =     0.000661
  @ DRIVER MODE: Message from server: STATUS
  @ DRIVER MODE: Message from server: GETFORCE
  @ DRIVER MODE: Returning v,forces,stress,ensemble

     Writing output data file ./calc.save/
  @ DRIVER MODE: Message from server: EXIT
  @ DRIVE MODE: Exiting

     General routines

     Parallel routines

   This run was terminated on:  22:23:39  24Aug2021

   JOB DONE.