     Program PWSCF v.6.7GPU starts on 12Oct2021 at 15:52:41

     R & G space division:  proc/nbgrp/npool/nimage =       8
     Reading input from /storage/home/hcoda1/3/ntian30/research/carbon/ACS_vib/ads_slab/NH3/out_0023/pw.inp
Warning: card &CELL ignored
Warning: card   CELL_DYNAMICS='IPI', ignored
Warning: card / ignored

     Current dimensions of program PWSCF are:
     Max number of different atomic species (ntypx) = 10
     Max number of k-points (npk) =  40000
     Max angular momentum in pseudopotentials (lmaxx) =  3
     Presently no symmetry can be used with electric field

     Message from routine cell_base_init:
     DEPRECATED: use true lattice parameter, not A to a.u. conversion factor

     IMPORTANT: XC functional enforced from input :
     Exchange-correlation= BEEF-VDW
                           (   1   4  43  14   2   0   0)
     Any further DFT definition will be discarded
     Please, verify this is what you really want

  @ DRIVER MODE: Connecting to
 qe_1139763_3181317.sched-torque.pace.gatech.eduu6fxv594_scratch
  using UNIX socket
  @ DRIVER MODE: Message from server: STATUS
  @ DRIVER MODE: Message from server: INIT
  @ DRIVER MODE: Receiving replica           0          -1
  @ DRIVER MODE: Receiving encoded integer          25
  @ DRIVER MODE:  SCF:  T  FORCE:  T  STRESS:  F  VC:  F  ENSEMBLE:  F
  @ DRIVER MODE:  SCF:  T  FORCE:  T  STRESS:  F  VC:  F  ENSEMBLE:  F

     Using Slab Decomposition

     bravais-lattice index     =            0
     lattice parameter (alat)  =       1.8897  a.u.
     unit-cell volume          =    6658.9804 (a.u.)^3
     number of atoms/cell      =           51
     number of atomic types    =            4
     number of electrons       =       386.00
     number of Kohn-Sham states=          203
     kinetic-energy cutoff     =      29.3995  Ry
     charge density cutoff     =     293.9946  Ry
     scf convergence threshold =      7.3E-08
     mixing beta               =       0.0500
     number of iterations used =            8  plain     mixing
     Exchange-correlation= BEEF-VDW
                           (   1   4  43  14   2   0   0)

     celldm(1)=   1.889726  celldm(2)=   0.000000  celldm(3)=   0.000000
     celldm(4)=   0.000000  celldm(5)=   0.000000  celldm(6)=   0.000000

     crystal axes: (cart. coord. in units of alat)
               a(1) = (   6.579727   0.000000   0.000000 )
               a(2) = (  -0.000775   5.961596   0.000000 )
               a(3) = (   0.000000   0.000000  25.155947 )

     reciprocal axes: (cart. coord. in units 2 pi/alat)
               b(1) = (  0.151982  0.000020  0.000000 )
               b(2) = (  0.000000  0.167740  0.000000 )
               b(3) = (  0.000000  0.000000  0.039752 )

     PseudoPot. # 1 for Ti read from file:
     /storage/coda1/p-amedford6/0/shared/rich_project_chbe-medford/medford-share/data/pseudos_module/espresso/nninc/pbe/van/Ti.UPF
     MD5 check sum: 8e4df49b7f0d34bbd5052bf3f5ea0213
     Pseudo is Ultrasoft, Zval = 12.0
     Generated by new atomic code, or converted to UPF format
     Using radial grid of  851 points,  6 beta functions with:
                l(1) =   0
                l(2) =   0
                l(3) =   1
                l(4) =   1
                l(5) =   2
                l(6) =   2
     Q(r) pseudized with  8 coefficients,  rinner =    1.000   1.000   1.000
                                                       1.000   1.000

     PseudoPot. # 2 for O  read from file:
     /storage/coda1/p-amedford6/0/shared/rich_project_chbe-medford/medford-share/data/pseudos_module/espresso/nninc/pbe/van/O.UPF
     MD5 check sum: 78c19812648e8988a0fe644b0f25305e
     Pseudo is Ultrasoft, Zval =  6.0
     Generated by new atomic code, or converted to UPF format
     Using radial grid of  737 points,  4 beta functions with:
                l(1) =   0
                l(2) =   0
                l(3) =   1
                l(4) =   1
     Q(r) pseudized with  8 coefficients,  rinner =    0.800   0.800   0.800

     PseudoPot. # 3 for N  read from file:
     /storage/coda1/p-amedford6/0/shared/rich_project_chbe-medford/medford-share/data/pseudos_module/espresso/nninc/pbe/van/N.UPF
     MD5 check sum: 90d10febe142ad51ac9d5be1deb811c4
     Pseudo is Ultrasoft, Zval =  5.0
     Generated by new atomic code, or converted to UPF format
     Using radial grid of  729 points,  4 beta functions with:
                l(1) =   0
                l(2) =   0
                l(3) =   1
                l(4) =   1
     Q(r) pseudized with  8 coefficients,  rinner =    0.800   0.800   0.800

     PseudoPot. # 4 for H  read from file:
     /storage/coda1/p-amedford6/0/shared/rich_project_chbe-medford/medford-share/data/pseudos_module/espresso/nninc/pbe/van/H.UPF
     MD5 check sum: b5ee9d7bfd3a09ee7748110bda690ff7
     Pseudo is Ultrasoft, Zval =  1.0
     Generated by new atomic code, or converted to UPF format
     Using radial grid of  615 points,  1 beta functions with:
                l(1) =   0
     Q(r) pseudized with  8 coefficients,  rinner =    0.800

     atomic species   valence    mass     pseudopotential
        Ti1           12.00    47.86700     Ti( 1.00)
        O1             6.00    15.99900     O ( 1.00)
        N1             5.00    14.00700     N ( 1.00)
        H1             1.00     1.00800     H ( 1.00)

     No symmetry found

   Cartesian axes

     site n.     atom                  positions (alat units)
         1           Ti1 tau(   1) = (   0.0004258   2.9801865   6.0000000  )
         2           Ti1 tau(   2) = (   3.2906075   1.4906267   6.0002472  )
         3           O1  tau(   3) = (   0.0006271   0.0005054   7.9858123  )
         4           O1  tau(   4) = (   3.2906025   0.0005020   7.3038282  )
         5           O1  tau(   5) = (   4.5942328   1.4918067   9.2879030  )
         6           O1  tau(   6) = (   1.9868534   1.4903216   9.2879459  )
         7           Ti1 tau(   7) = (   3.2905188   2.9817269   9.1608671  )
         8           Ti1 tau(   8) = (   0.0008727   1.4903491   9.2579811  )
         9           O1  tau(   9) = (   3.2954587   0.0012773  11.3746546  )
        10           O1  tau(  10) = (   0.0020290   0.0006084  10.6073296  )
        11           O1  tau(  11) = (   1.2942686   1.4887116  12.6629798  )
        12           O1  tau(  12) = (   5.2972733   1.4890718  12.6650130  )
        13           Ti1 tau(  13) = (   0.0067627   2.9786896  12.5148789  )
        14           Ti1 tau(  14) = (   3.2982433   1.4907855  12.5198723  )
        15           O1  tau(  15) = (   0.0088675   5.9288053  14.6873217  )
        16           O1  tau(  16) = (   3.2976659   5.9545549  13.9976866  )
        17           O1  tau(  17) = (   4.5618459   1.5065800  16.1616785  )
        18           O1  tau(  18) = (   2.0406978   1.5054917  16.1618958  )
        19           Ti1 tau(  19) = (   3.3003398   2.9801551  15.7464260  )
        20           Ti1 tau(  20) = (   0.0122322   1.3591711  15.8926631  )
        21           O1  tau(  21) = (   3.2904802   0.0005063   4.7018136  )
        22           O1  tau(  22) = (   0.0111396   0.0327255  17.2179391  )
        23           O1  tau(  23) = (   1.3043587   1.4918075   6.0039043  )
        24           O1  tau(  24) = (   5.2767064   1.4903225   6.0039473  )
        25           Ti1 tau(  25) = (   0.0000382   5.9609847   6.0000000  )
        26           Ti1 tau(  26) = (   3.2902200   4.4714249   6.0002472  )
        27           O1  tau(  27) = (   0.0002396   2.9813036   7.9858123  )
        28           O1  tau(  28) = (   3.2902150   2.9813002   7.3038282  )
        29           O1  tau(  29) = (   4.5938453   4.4726049   9.2879030  )
        30           O1  tau(  30) = (   1.9864658   4.4711199   9.2879459  )
        31           Ti1 tau(  31) = (   3.2908958   0.0009406   9.1591437  )
        32           Ti1 tau(  32) = (   0.0004876   4.4725358   9.2579169  )
        33           O1  tau(  33) = (   3.2950182   2.9773574  11.3676543  )
        34           O1  tau(  34) = (   0.0019984   2.9784031  10.6274637  )
        35           O1  tau(  35) = (   1.2946310   4.4674284  12.6500497  )
        36           O1  tau(  36) = (   5.2961322   4.4668132  12.6522398  )
        37           Ti1 tau(  37) = (   0.0072964   5.9565020  12.4821340  )
        38           Ti1 tau(  38) = (   3.2980713   4.4687862  12.5160290  )
        39           O1  tau(  39) = (   0.0098827   2.9916113  14.9005182  )
        40           O1  tau(  40) = (   3.2960480   2.9848727  13.9584560  )
        41           O1  tau(  41) = (   4.5591248   4.4529439  16.1935040  )
        42           O1  tau(  42) = (   2.0431063   4.4547719  16.1917947  )
        43           Ti1 tau(  43) = (   3.3030955   0.0010839  15.7925060  )
        44           Ti1 tau(  44) = (   0.0111621   4.5610188  15.9796684  )
        45           O1  tau(  45) = (   3.2900926   2.9813045   4.7018136  )
        46           O1  tau(  46) = (   1.3039711   4.4726057   6.0039043  )
        47           O1  tau(  47) = (   5.2763189   4.4711207   6.0039473  )
        48           N1  tau(  48) = (   0.0348475   3.0484350  18.0388005  )
        49           H1  tau(  49) = (   0.0344738   2.0763216  18.3478120  )
        50           H1  tau(  50) = (   0.8651728   3.4882926  18.4252144  )
        51           H1  tau(  51) = (   5.8033537   3.4985160  18.4409717  )

     number of k points=    10  Fermi-Dirac smearing, width (Ry)=  0.0073
                       cart. coord. in units 2pi/alat
        k(    1) = (   0.0000000   0.0000000   0.0000000), wk =   0.1250000
        k(    2) = (   0.0000000   0.0419351   0.0000000), wk =   0.2500000
        k(    3) = (   0.0000000  -0.0838702   0.0000000), wk =   0.1250000
        k(    4) = (   0.0379955   0.0000049   0.0000000), wk =   0.2500000
        k(    5) = (   0.0379955   0.0419400   0.0000000), wk =   0.2500000
        k(    6) = (   0.0379955  -0.0838652   0.0000000), wk =   0.2500000
        k(    7) = (   0.0379955  -0.0419301   0.0000000), wk =   0.2500000
        k(    8) = (  -0.0759910  -0.0000099   0.0000000), wk =   0.1250000
        k(    9) = (  -0.0759910   0.0419252   0.0000000), wk =   0.2500000
        k(   10) = (  -0.0759910  -0.0838800   0.0000000), wk =   0.1250000

     Initial potential from superposition of free atoms

     starting charge  369.99921, renormalised to  386.00000

     negative rho (up, down):  1.973E-02 0.000E+00

     %%%%%%%%%%%%%%%%%%%%%%%%%%%%%%%%%%%%%%%%%%%%%%%%%%%%%%%%%%%%%%%%%%%%%%%%
     %                                                                      %
     % You are using vdW-DF, which was implemented by the Thonhauser group. %
     % Please cite the following two papers that made this development      %
     % possible and the two reviews that describe the various versions:     %
     %                                                                      %
     %   T. Thonhauser et al., PRL 115, 136402 (2015).                      %
     %   T. Thonhauser et al., PRB 76, 125112 (2007).                       %
     %   K. Berland et al., Rep. Prog. Phys. 78, 066501 (2015).             %
     %   D.C. Langreth et al., J. Phys.: Condens. Matter 21, 084203 (2009). %
     %                                                                      %
     %                                                                      %
     % If you are calculating the stress with vdW-DF, please also cite:     %
     %                                                                      %
     %   R. Sabatini et al., J. Phys.: Condens. Matter 24, 424209 (2012).   %
     %                                                                      %
     %%%%%%%%%%%%%%%%%%%%%%%%%%%%%%%%%%%%%%%%%%%%%%%%%%%%%%%%%%%%%%%%%%%%%%%%

     Adding external electric field

     Computed dipole along edir(3) :
        Dipole               -3.5648 Ry au,         -9.0607 Debye
        Dipole field         -0.0067 Ry au,

        Potential amp.        0.6236 Ry
        Total length         46.3494 bohr

     Starting wfcs are  291 atomic wfcs
  @ DRIVER MODE: Message from server: STATUS
  @ DRIVER MODE: Message from server: POSDATA
  @ DRIVER MODE: Reading and sharing cell
  @ DRIVER MODE: Reading and sharing positions
  @ DRIVER MODE: Received positions

     Self-consistent Calculation

     iteration #  1     ecut=    29.40 Ry     beta= 0.05
     Davidson diagonalization with overlap
     c_bands:  1 eigenvalues not converged
     c_bands:  2 eigenvalues not converged
     c_bands:  1 eigenvalues not converged
     c_bands:  4 eigenvalues not converged
     c_bands:  1 eigenvalues not converged
     c_bands:  1 eigenvalues not converged
     c_bands:  3 eigenvalues not converged
     ethr =  1.00E-05,  avg # of iterations = 20.0

[...]

     total energy              =   -2896.15117414 Ry
     estimated scf accuracy    <     156.15576287 Ry

     iteration #  2     ecut=    29.40 Ry     beta= 0.05
     Davidson diagonalization with overlap
     ethr =  1.00E-02,  avg # of iterations = 14.5

[...]

     iteration # 58     ecut=    29.40 Ry     beta= 0.05
     Davidson diagonalization with overlap
     c_bands:  1 eigenvalues not converged
     ethr =  3.45E-11,  avg # of iterations = 12.9

[...]

     total energy              =   -2907.69385302 Ry
     estimated scf accuracy    <       0.00000020 Ry

     iteration # 59     ecut=    29.40 Ry     beta= 0.05
     Davidson diagonalization with overlap
     ethr =  3.45E-11,  avg # of iterations =  5.5

     negative rho (up, down):  1.931E-02 0.000E+00

     Adding external electric field

     Computed dipole along edir(3) :
        Dipole                1.2419 Ry au,          3.1565 Debye
        Dipole field          0.0023 Ry au,

        Potential amp.       -0.2172 Ry
        Total length         46.3494 bohr

     End of self-consistent calculation

          k = 0.0000 0.0000 0.0000 ( 18029 PWs)   bands (ev):

   -55.6707 -55.6345 -55.6280 -55.5938 -55.5799 -55.5525 -55.5430 -55.5054
   -55.4988 -55.4983 -55.4640 -55.4626 -55.4529 -55.4189 -54.7142 -54.6801
   -32.2399 -32.1747 -32.1264 -32.0291 -31.9876 -31.9727 -31.9712 -31.9650
   -31.9187 -31.9141 -31.8773 -31.8762 -31.8741 -31.8730 -31.8451 -31.8251
   -31.8240 -31.8143 -31.8059 -31.7990 -31.7812 -31.7766 -31.7548 -31.7520
   -31.7471 -31.7317 -31.7239 -31.7225 -31.6880 -31.6836 -31.6721 -31.6569
   -31.6566 -31.6446 -31.6376 -31.6322 -31.6299 -31.6023 -31.5972 -31.5867
   -31.5850 -31.5666 -31.1260 -31.0247 -31.0032 -30.9421 -30.8557 -30.7448
   -16.5070 -16.2665 -16.1413 -15.9997 -15.8919 -15.8627 -15.7589 -15.7260
   -15.6124 -15.5244 -15.3999 -15.3543 -15.3281 -15.3229 -15.3104 -15.2920
   -15.2824 -15.2192 -15.1806 -15.1717 -15.1515 -15.1501 -15.1075 -15.1066
   -15.0500 -15.0343 -14.8971 -14.8225 -14.7617 -14.5097 -13.2157 -13.0966
    -6.0799  -5.9933  -3.8347  -3.6752  -3.6475  -3.5978  -3.5871  -3.4310
    -3.2713  -3.1374  -3.0933  -2.9555  -2.9217  -2.8737  -2.8452  -2.6972
    -2.6634  -2.6336  -2.5763  -2.5460  -2.5453  -2.5373  -2.5236  -2.4422
    -2.4397  -2.4213  -2.3051  -2.2553  -2.1445  -2.1138  -2.0501  -2.0331
    -1.9958  -1.9948  -1.9845  -1.9339  -1.9329  -1.9089  -1.8754  -1.8049
    -1.7099  -1.6529  -1.5650  -1.5282  -1.4230  -1.4198  -1.2521  -1.2324
    -1.1668  -1.1217  -1.1132  -1.0796  -1.0703  -1.0204  -0.9108  -0.8266
    -0.7878  -0.7257  -0.6748  -0.6420  -0.6048  -0.5319  -0.4616  -0.4543
    -0.4229  -0.3073  -0.2654  -0.2105  -0.1574  -0.1487  -0.1135  -0.0143
    -0.0081   0.0899   0.0965   0.1293   0.1575   0.2639   0.2722   0.2815
     0.3019   0.3025   0.3899   0.4283   0.4894   0.5053   0.6505   0.8655
     0.9015   0.9330   1.2041   1.2798   1.3109   1.4745   1.8938   1.9461
     3.4283   3.4925   3.5271   3.5570   3.5709   3.6377   3.9183   3.9208
     3.9338   3.9486   3.9843

[...]

          k = 0.0380-0.0419 0.0000 ( 17876 PWs)   bands (ev):

[...]

          k =-0.0760-0.0000 0.0000 ( 17886 PWs)   bands (ev):

[...]

          k =-0.0760-0.0839 0.0000 ( 17948 PWs)   bands (ev):

   -55.6543 -55.6507 -55.6111 -55.6105 -55.5753 -55.5494 -55.5319 -55.5165
   -55.5029 -55.4821 -55.4798 -55.4658 -55.4373 -55.4345 -54.6971 -54.6971
   -32.0940 -32.0444 -32.0412 -31.9579 -31.9415 -31.9410 -31.9297 -31.9043
   -31.9038 -31.8739 -31.8717 -31.8671 -31.8635 -31.8404 -31.8302 -31.8208
   -31.7985 -31.7973 -31.7973 -31.7939 -31.7915 -31.7889 -31.7869 -31.7482
   -31.7465 -31.7448 -31.7393 -31.7346 -31.7291 -31.7290 -31.7287 -31.7273
   -31.7088 -31.7049 -31.6929 -31.6801 -31.6783 -31.6607 -31.6579 -31.6485
   -31.6232 -31.6203 -31.0157 -31.0157 -30.9387 -30.9385 -30.8990 -30.8989
   -16.0646 -15.9424 -15.9143 -15.8607 -15.6982 -15.6850 -15.6547 -15.6358
   -15.4943 -15.4775 -15.4619 -15.4552 -15.4115 -15.4019 -15.3946 -15.3847
   -15.2647 -15.2603 -15.2500 -15.2466 -15.1787 -15.1755 -15.1722 -15.1555
   -15.1302 -15.1173 -15.0816 -15.0772 -15.0001 -14.8440 -13.1977 -13.1976
    -6.0418  -5.9938  -3.1900  -3.1495  -3.1247  -2.9068  -2.8728  -2.8432
    -2.8321  -2.7492  -2.6873  -2.6835  -2.6699  -2.6308  -2.5773  -2.5623
    -2.5565  -2.5211  -2.5079  -2.4957  -2.4625  -2.4487  -2.3929  -2.3638
    -2.3513  -2.3495  -2.3372  -2.3304  -2.3151  -2.2964  -2.2745  -2.2688
    -2.1509  -2.0467  -2.0002  -1.9918  -1.8900  -1.8860  -1.8841  -1.7983
    -1.7779  -1.7252  -1.7200  -1.6989  -1.4843  -1.4660  -1.4495  -1.4455
    -1.4203  -1.3418  -1.2645  -1.2359  -1.2209  -1.1665  -1.0527  -1.0189
    -0.9996  -0.9240  -0.8824  -0.8679  -0.8181  -0.6838  -0.6715  -0.6670
    -0.6526  -0.6473  -0.5897  -0.5841  -0.5030  -0.4565  -0.4052  -0.3928
    -0.3723  -0.1803  -0.1464  -0.0797   0.0165   0.0228   0.1981   0.2438
     0.2507   0.3538   0.3762   0.4133   0.4690   0.5908   0.6042   0.6413
     0.7165   0.7729   0.7734   0.7756   1.6626   1.6639   1.7641   1.7643
     3.5752   3.6643   3.6814   3.7444   3.8376   3.9404   3.9428   3.9569
     3.9863   3.9879   4.0918

     the Fermi energy is     3.4881 ev

!    total energy              =   -2907.69389244 Ry
     estimated scf accuracy    <       0.00000007 Ry
     smearing contrib. (-TS)   =      -0.03697948 Ry
     internal energy E=F+TS    =   -2907.65691295 Ry

     The total energy is F=E-TS. E is the sum of the following terms:
     one-electron contribution =  -24676.43687597 Ry
     hartree contribution      =   12423.01327144 Ry
     xc contribution           =    -476.55331046 Ry
     ewald contribution        =    9822.31709163 Ry
     electric field correction =       0.00291040 Ry

     convergence has been achieved in  59 iterations

     Forces acting on atoms (cartesian axes, Ry/au):

     atom    1 type  1   force =    -0.00000240    0.00005004    0.09120586
     atom    2 type  1   force =    -0.00012475    0.00035059   -0.18248829
     atom    3 type  2   force =     0.00003545   -0.00041447   -0.02466819
     atom    4 type  2   force =     0.00001241    0.00000640    0.05208722
     atom    5 type  2   force =    -0.01339887   -0.00057346    0.00484034
     atom    6 type  2   force =     0.01364405   -0.00009601    0.00499829
     atom    7 type  1   force =    -0.00000742   -0.00034027   -0.00324588
     atom    8 type  1   force =    -0.00006904    0.00367670    0.00360168
     atom    9 type  2   force =     0.00000721    0.00016284   -0.00018332
     atom   10 type  2   force =     0.00003571    0.00004233   -0.00039367
     atom   11 type  2   force =    -0.00002638    0.00019362    0.00016780
     atom   12 type  2   force =     0.00007165    0.00014676    0.00013046
     atom   13 type  1   force =     0.00012202    0.00055619   -0.00015732
     atom   14 type  1   force =     0.00010198   -0.00015691   -0.00074000
     atom   15 type  2   force =     0.00010343   -0.00009545   -0.00016723
     atom   16 type  2   force =    -0.00003795    0.00005733    0.00025556
     atom   17 type  2   force =     0.00058471    0.00013931    0.00004923
     atom   18 type  2   force =    -0.00050210    0.00015359    0.00006617
     atom   19 type  1   force =     0.00014827    0.00021859    0.00039557
     atom   20 type  1   force =     0.00005591   -0.00155144   -0.00026593
     atom   21 type  2   force =     0.00001214    0.00011457    0.10481890
     atom   22 type  2   force =     0.00008020    0.00040585    0.00139469
     atom   23 type  2   force =    -0.06842955   -0.00024174   -0.02641088
     atom   24 type  2   force =     0.06827372    0.00018826   -0.02646672
     atom   25 type  1   force =     0.00006879    0.00001089    0.09094361
     atom   26 type  1   force =    -0.00009108   -0.00043979   -0.18242479
     atom   27 type  2   force =     0.00002569    0.00005770   -0.02328373
     atom   28 type  2   force =     0.00000531    0.00001627    0.05196425
     atom   29 type  2   force =    -0.01323287   -0.00010520    0.00517313
     atom   30 type  2   force =     0.01347105    0.00041075    0.00532208
     atom   31 type  1   force =     0.00004543    0.00024170   -0.00292197
     atom   32 type  1   force =    -0.00008608   -0.00359414    0.00349507
     atom   33 type  2   force =     0.00001441   -0.00020046    0.00017361
     atom   34 type  2   force =     0.00001652   -0.00006569   -0.00065939
     atom   35 type  2   force =    -0.00008664   -0.00028603   -0.00003884
     atom   36 type  2   force =     0.00012375   -0.00023857   -0.00006492
     atom   37 type  1   force =     0.00009253   -0.00064945    0.00079817
     atom   38 type  1   force =     0.00009349    0.00015327   -0.00069044
     atom   39 type  2   force =     0.00004900   -0.00017878    0.00005648
     atom   40 type  2   force =     0.00009171   -0.00010537    0.00066924
     atom   41 type  2   force =     0.00048582   -0.00023862    0.00030299
     atom   42 type  2   force =    -0.00033468   -0.00025750    0.00036698
     atom   43 type  1   force =     0.00001858   -0.00031547    0.00003012
     atom   44 type  1   force =     0.00009901    0.00052417   -0.00010781
     atom   45 type  2   force =     0.00001344    0.00009493    0.10479684
     atom   46 type  2   force =    -0.06841983   -0.00015860   -0.02640012
     atom   47 type  2   force =     0.06827065    0.00027726   -0.02644836
     atom   48 type  3   force =     0.00608818   -0.00223163   -0.00323575
     atom   49 type  4   force =    -0.00073407   -0.00005232   -0.00063960
     atom   50 type  4   force =    -0.00090880    0.00077282   -0.00010106
     atom   51 type  4   force =    -0.00586972    0.00356463    0.00409992

     Total force =     0.366349     Total SCF correction =     0.000634
  @ DRIVER MODE: Message from server: STATUS
  @ DRIVER MODE: Message from server: GETFORCE
  @ DRIVER MODE: Returning v,forces,stress,ensemble

     Writing output data file ./calc.save/
  @ DRIVER MODE: Message from server: EXIT
  @ DRIVE MODE: Exiting

     General routines

     Parallel routines

   This run was terminated on:  16:10:10  12Oct2021

   JOB DONE.