     Program PWSCF v.6.7GPU starts on 16Sep2021 at  1:46: 8

     R & G space division:  proc/nbgrp/npool/nimage =      10
     Reading input from /storage/home/hcoda1/3/ntian30/research/carbon/CxH_vib/H2O_calc/ads_slab/CH3OHH2O_e/out_0032/pw.inp
Warning: card &CELL ignored
Warning: card   CELL_DYNAMICS='IPI', ignored
Warning: card / ignored

     Current dimensions of program PWSCF are:
     Max number of different atomic species (ntypx) = 10
     Max number of k-points (npk) =  40000
     Max angular momentum in pseudopotentials (lmaxx) =  3
     Presently no symmetry can be used with electric field

     Message from routine cell_base_init:
     DEPRECATED: use true lattice parameter, not A to a.u. conversion factor

     IMPORTANT: XC functional enforced from input :
     Exchange-correlation= BEEF-VDW
                           (   1   4  43  14   2   0   0)
     Any further DFT definition will be discarded
     Please, verify this is what you really want

  @ DRIVER MODE: Connecting to
 qe_1139763_2852623.sched-torque.pace.gatech.edubked2p2y_scratch
  using UNIX socket
  @ DRIVER MODE: Message from server: STATUS
  @ DRIVER MODE: Message from server: INIT
  @ DRIVER MODE: Receiving replica           0          -1
  @ DRIVER MODE: Receiving encoded integer          25
  @ DRIVER MODE:  SCF:  T  FORCE:  T  STRESS:  F  VC:  F  ENSEMBLE:  F
  @ DRIVER MODE:  SCF:  T  FORCE:  T  STRESS:  F  VC:  F  ENSEMBLE:  F

     Using Slab Decomposition

     bravais-lattice index     =            0
     lattice parameter (alat)  =       1.8897  a.u.
     unit-cell volume          =    6658.9804 (a.u.)^3
     number of atoms/cell      =           56
     number of atomic types    =            4
     number of electrons       =       400.00
     number of Kohn-Sham states=          210
     kinetic-energy cutoff     =      29.3995  Ry
     charge density cutoff     =     293.9946  Ry
     scf convergence threshold =      7.3E-08
     mixing beta               =       0.0500
     number of iterations used =            8  plain     mixing
     Exchange-correlation= BEEF-VDW
                           (   1   4  43  14   2   0   0)

     celldm(1)=   1.889726  celldm(2)=   0.000000  celldm(3)=   0.000000
     celldm(4)=   0.000000  celldm(5)=   0.000000  celldm(6)=   0.000000

     crystal axes: (cart. coord. in units of alat)
               a(1) = (   6.579727   0.000000   0.000000 )
               a(2) = (  -0.000775   5.961596   0.000000 )
               a(3) = (   0.000000   0.000000  25.155947 )

     reciprocal axes: (cart. coord. in units 2 pi/alat)
               b(1) = (  0.151982  0.000020  0.000000 )
               b(2) = (  0.000000  0.167740  0.000000 )
               b(3) = (  0.000000  0.000000  0.039752 )

     PseudoPot. # 1 for Ti read from file:
     /storage/coda1/p-amedford6/0/shared/rich_project_chbe-medford/medford-share/data/pseudos_module/espresso/nninc/pbe/van/Ti.UPF
     MD5 check sum: 8e4df49b7f0d34bbd5052bf3f5ea0213
     Pseudo is Ultrasoft, Zval = 12.0
     Generated by new atomic code, or converted to UPF format
     Using radial grid of  851 points,  6 beta functions with:
                l(1) =   0
                l(2) =   0
                l(3) =   1
                l(4) =   1
                l(5) =   2
                l(6) =   2
     Q(r) pseudized with  8 coefficients,  rinner =    1.000   1.000   1.000
                                                       1.000   1.000

     PseudoPot. # 2 for O  read from file:
     /storage/coda1/p-amedford6/0/shared/rich_project_chbe-medford/medford-share/data/pseudos_module/espresso/nninc/pbe/van/O.UPF
     MD5 check sum: 78c19812648e8988a0fe644b0f25305e
     Pseudo is Ultrasoft, Zval =  6.0
     Generated by new atomic code, or converted to UPF format
     Using radial grid of  737 points,  4 beta functions with:
                l(1) =   0
                l(2) =   0
                l(3) =   1
                l(4) =   1
     Q(r) pseudized with  8 coefficients,  rinner =    0.800   0.800   0.800

     PseudoPot. # 3 for C  read from file:
     /storage/coda1/p-amedford6/0/shared/rich_project_chbe-medford/medford-share/data/pseudos_module/espresso/nninc/pbe/van/C.UPF
     MD5 check sum: 1a69bf6b8db32088f5b2163dbdb77a27
     Pseudo is Ultrasoft, Zval =  4.0
     Generated by new atomic code, or converted to UPF format
     Using radial grid of  721 points,  4 beta functions with:
                l(1) =   0
                l(2) =   0
                l(3) =   1
                l(4) =   1
     Q(r) pseudized with  8 coefficients,  rinner =    0.800   0.800   0.800

     PseudoPot. # 4 for H  read from file:
     /storage/coda1/p-amedford6/0/shared/rich_project_chbe-medford/medford-share/data/pseudos_module/espresso/nninc/pbe/van/H.UPF
     MD5 check sum: b5ee9d7bfd3a09ee7748110bda690ff7
     Pseudo is Ultrasoft, Zval =  1.0
     Generated by new atomic code, or converted to UPF format
     Using radial grid of  615 points,  1 beta functions with:
                l(1) =   0
     Q(r) pseudized with  8 coefficients,  rinner =    0.800

     atomic species   valence    mass     pseudopotential
        Ti1           12.00    47.86700     Ti( 1.00)
        O1             6.00    15.99900     O ( 1.00)
        C1             4.00    12.01100     C ( 1.00)
        H1             1.00     1.00800     H ( 1.00)

     No symmetry found

   Cartesian axes

     site n.     atom                  positions (alat units)
         1           Ti1 tau(   1) = (   0.0004258   2.9801865   6.0000000  )
         2           Ti1 tau(   2) = (   3.2906075   1.4906267   6.0002472  )
         3           O1  tau(   3) = (   0.0006271   0.0005054   7.9858123  )
         4           O1  tau(   4) = (   3.2906025   0.0005020   7.3038282  )
         5           O1  tau(   5) = (   4.5942328   1.4918067   9.2879030  )
         6           O1  tau(   6) = (   1.9868534   1.4903216   9.2879459  )
         7           Ti1 tau(   7) = (   3.3179988   2.9667087   9.1587561  )
         8           Ti1 tau(   8) = (   0.0368451   1.4888401   9.2646154  )
         9           O1  tau(   9) = (   3.2981896   5.9413050  11.3756853  )
        10           O1  tau(  10) = (   0.0022081   5.9550161  10.6068466  )
        11           O1  tau(  11) = (   1.2930414   1.4711740  12.6526869  )
        12           O1  tau(  12) = (   5.2963464   1.4745835  12.6500758  )
        13           Ti1 tau(  13) = (   0.0229324   2.9590759  12.5385950  )
        14           Ti1 tau(  14) = (   3.3157970   1.4644123  12.5194148  )
        15           O1  tau(  15) = (   6.5691168   5.9481840  14.6869282  )
        16           O1  tau(  16) = (   3.2964787   5.9455965  14.0277316  )
        17           O1  tau(  17) = (   4.5665908   1.5027878  16.2081754  )
        18           O1  tau(  18) = (   2.0283028   1.5092035  16.1774433  )
        19           Ti1 tau(  19) = (   3.2999954   2.9453206  15.7178785  )
        20           Ti1 tau(  20) = (   6.5724188   1.3235339  15.9896992  )
        21           O1  tau(  21) = (   3.2904802   0.0005063   4.7018136  )
        22           O1  tau(  22) = (   0.0286320   5.9425150  17.2304330  )
        23           O1  tau(  23) = (   1.3043587   1.4918075   6.0039043  )
        24           O1  tau(  24) = (   5.2767064   1.4903225   6.0039473  )
        25           Ti1 tau(  25) = (   0.0000382   5.9609847   6.0000000  )
        26           Ti1 tau(  26) = (   3.2902200   4.4714249   6.0002472  )
        27           O1  tau(  27) = (   0.0002396   2.9813036   7.9858123  )
        28           O1  tau(  28) = (   3.2902150   2.9813002   7.3038282  )
        29           O1  tau(  29) = (   4.5938453   4.4726049   9.2879030  )
        30           O1  tau(  30) = (   1.9864658   4.4711199   9.2879459  )
        31           Ti1 tau(  31) = (   3.3176359   5.9492212   9.1540102  )
        32           Ti1 tau(  32) = (   0.0367062   4.4560090   9.2708352  )
        33           O1  tau(  33) = (   3.2951800   2.9650663  11.3684769  )
        34           O1  tau(  34) = (   0.0080098   2.9764013  10.6279654  )
        35           O1  tau(  35) = (   1.2931912   4.4560454  12.6592269  )
        36           O1  tau(  36) = (   5.2946864   4.4524020  12.6579832  )
        37           Ti1 tau(  37) = (   0.0159028   5.9413441  12.4831893  )
        38           Ti1 tau(  38) = (   3.3151975   4.4500431  12.5204281  )
        39           O1  tau(  39) = (   0.0034497   2.9621527  14.8596962  )
        40           O1  tau(  40) = (   3.2989893   2.9535984  13.9376031  )
        41           O1  tau(  41) = (   4.5724332   4.4114593  16.1445292  )
        42           O1  tau(  42) = (   2.0255208   4.3883007  16.1585022  )
        43           Ti1 tau(  43) = (   3.2821299   5.9114753  15.8432964  )
        44           Ti1 tau(  44) = (   6.5414858   4.5242847  15.8739915  )
        45           O1  tau(  45) = (   3.2900926   2.9813045   4.7018136  )
        46           O1  tau(  46) = (   1.3039711   4.4726057   6.0039043  )
        47           O1  tau(  47) = (   5.2763189   4.4711207   6.0039473  )
        48           C1  tau(  48) = (   5.9754720   3.1749164  18.9278073  )
        49           O1  tau(  49) = (   0.1533887   3.0270296  17.7012840  )
        50           H1  tau(  50) = (   4.9293134   3.0706859  18.6584277  )
        51           H1  tau(  51) = (   1.0910173   3.2466920  17.8500278  )
        52           H1  tau(  52) = (   6.2690755   2.3937635  19.6305738  )
        53           H1  tau(  53) = (   6.1531946   4.1694627  19.3379575  )
        54           O1  tau(  54) = (   3.1723115   5.9428592  18.3689464  )
        55           H1  tau(  55) = (   3.8852673   0.6353712  18.4582360  )
        56           H1  tau(  56) = (   2.3406934   0.4831942  18.3201771  )

     number of k points=    10  Fermi-Dirac smearing, width (Ry)=  0.0073
                       cart. coord. in units 2pi/alat
        k(    1) = (   0.0000000   0.0000000   0.0000000), wk =   0.1250000
        k(    2) = (   0.0000000   0.0419351   0.0000000), wk =   0.2500000
        k(    3) = (   0.0000000  -0.0838702   0.0000000), wk =   0.1250000
        k(    4) = (   0.0379955   0.0000049   0.0000000), wk =   0.2500000
        k(    5) = (   0.0379955   0.0419400   0.0000000), wk =   0.2500000
        k(    6) = (   0.0379955  -0.0838652   0.0000000), wk =   0.2500000
        k(    7) = (   0.0379955  -0.0419301   0.0000000), wk =   0.2500000
        k(    8) = (  -0.0759910  -0.0000099   0.0000000), wk =   0.1250000
        k(    9) = (  -0.0759910   0.0419252   0.0000000), wk =   0.2500000
        k(   10) = (  -0.0759910  -0.0838800   0.0000000), wk =   0.1250000

     Initial potential from superposition of free atoms

     starting charge  383.99915, renormalised to  400.00000

     negative rho (up, down):  1.599E-02 0.000E+00

     %%%%%%%%%%%%%%%%%%%%%%%%%%%%%%%%%%%%%%%%%%%%%%%%%%%%%%%%%%%%%%%%%%%%%%%%
     %                                                                      %
     % You are using vdW-DF, which was implemented by the Thonhauser group. %
     % Please cite the following two papers that made this development      %
     % possible and the two reviews that describe the various versions:     %
     %                                                                      %
     %   T. Thonhauser et al., PRL 115, 136402 (2015).                      %
     %   T. Thonhauser et al., PRB 76, 125112 (2007).                       %
     %   K. Berland et al., Rep. Prog. Phys. 78, 066501 (2015).             %
     %   D.C. Langreth et al., J. Phys.: Condens. Matter 21, 084203 (2009). %
     %                                                                      %
     %                                                                      %
     % If you are calculating the stress with vdW-DF, please also cite:     %
     %                                                                      %
     %   R. Sabatini et al., J. Phys.: Condens. Matter 24, 424209 (2012).   %
     %                                                                      %
     %%%%%%%%%%%%%%%%%%%%%%%%%%%%%%%%%%%%%%%%%%%%%%%%%%%%%%%%%%%%%%%%%%%%%%%%

     Adding external electric field

     Computed dipole along edir(3) :
        Dipole              -11.7400 Ry au,        -29.8402 Debye
        Dipole field         -0.0222 Ry au,

        Potential amp.        2.0537 Ry
        Total length         46.3494 bohr

     Starting wfcs are  302 atomic wfcs
  @ DRIVER MODE: Message from server: STATUS
  @ DRIVER MODE: Message from server: POSDATA
  @ DRIVER MODE: Reading and sharing cell
  @ DRIVER MODE: Reading and sharing positions
  @ DRIVER MODE: Received positions

     Self-consistent Calculation

     iteration #  1     ecut=    29.40 Ry     beta= 0.05
     Davidson diagonalization with overlap
     c_bands:  2 eigenvalues not converged
     c_bands:  2 eigenvalues not converged
     c_bands:  4 eigenvalues not converged
     c_bands:  3 eigenvalues not converged
     c_bands:  4 eigenvalues not converged
     c_bands:  4 eigenvalues not converged
     c_bands:  3 eigenvalues not converged
     c_bands:  2 eigenvalues not converged
     ethr =  1.00E-05,  avg # of iterations = 21.3

[...]

     total energy              =   -2420.22955503 Ry
     estimated scf accuracy    <    6189.12833052 Ry

     iteration #  2     ecut=    29.40 Ry     beta= 0.05
     Davidson diagonalization with overlap
     ethr =  1.00E-02,  avg # of iterations = 27.9

[...]

     iteration # 72     ecut=    29.40 Ry     beta= 0.05
     Davidson diagonalization with overlap
     c_bands:  1 eigenvalues not converged
     ethr =  1.02E-10,  avg # of iterations = 11.4

[...]

     total energy              =   -2967.47598165 Ry
     estimated scf accuracy    <       0.00000011 Ry

     iteration # 77     ecut=    29.40 Ry     beta= 0.05
     Davidson diagonalization with overlap
     ethr =  2.18E-11,  avg # of iterations =  4.3

     negative rho (up, down):  1.587E-02 0.000E+00

     Adding external electric field

     Computed dipole along edir(3) :
        Dipole                1.3780 Ry au,          3.5026 Debye
        Dipole field          0.0026 Ry au,

        Potential amp.       -0.2411 Ry
        Total length         46.3494 bohr

     End of self-consistent calculation

          k = 0.0000 0.0000 0.0000 ( 18029 PWs)   bands (ev):

   -55.2501 -55.2226 -55.2141 -55.1882 -55.1565 -55.1485 -55.1431 -55.0963
   -55.0957 -55.0897 -55.0554 -55.0376 -55.0079 -55.0036 -54.3120 -54.2779
   -31.8168 -31.7661 -31.7178 -31.6275 -31.5651 -31.5550 -31.5503 -31.5478
   -31.5113 -31.4820 -31.4657 -31.4636 -31.4522 -31.4425 -31.4282 -31.4138
   -31.3966 -31.3903 -31.3873 -31.3828 -31.3766 -31.3678 -31.3451 -31.3404
   -31.3386 -31.3187 -31.3159 -31.3140 -31.2932 -31.2798 -31.2641 -31.2435
   -31.2421 -31.2413 -31.2300 -31.2208 -31.2024 -31.1890 -31.1771 -31.1725
   -31.1594 -31.1488 -30.7240 -30.6215 -30.6000 -30.5403 -30.4539 -30.3429
   -20.1688 -19.0858 -16.0796 -15.8326 -15.6927 -15.5943 -15.4734 -15.3399
   -15.2797 -15.1649 -15.0739 -14.9838 -14.9689 -14.9504 -14.9210 -14.8984
   -14.8735 -14.8354 -14.8092 -14.7655 -14.7566 -14.7402 -14.7334 -14.6967
   -14.6936 -14.6486 -14.6402 -14.4832 -14.4130 -14.3528 -14.1308 -12.8127
   -12.6934 -11.1839  -6.9262  -6.8522  -5.1339  -5.0131  -3.4196  -3.2628
    -3.2292  -3.2021  -3.1833  -3.1433  -3.0615  -2.9629  -2.7891  -2.6790
    -2.5423  -2.5346  -2.4882  -2.4612  -2.4041  -2.3215  -2.2339  -2.2073
    -2.1723  -2.1391  -2.1358  -2.1197  -2.1094  -2.0534  -2.0180  -1.9601
    -1.8631  -1.8134  -1.7727  -1.7543  -1.6950  -1.6513  -1.6169  -1.5890
    -1.5823  -1.5758  -1.5172  -1.5150  -1.5069  -1.4959  -1.4781  -1.2894
    -1.2490  -1.1172  -1.0264  -0.9846  -0.9719  -0.8177  -0.8109  -0.7666
    -0.7333  -0.6992  -0.6586  -0.6010  -0.5036  -0.4728  -0.4215  -0.3833
    -0.2753  -0.2431  -0.2120  -0.1575  -0.0501  -0.0418  -0.0160   0.0035
     0.0774   0.1731   0.2025   0.2237   0.3005   0.3057   0.3670   0.4076
     0.4413   0.5162   0.5615   0.5726   0.6644   0.6813   0.6949   0.7215
     0.7249   0.8235   0.8596   0.9042   0.9226   1.0742   1.1686   1.3080
     1.3367   1.6032   1.6986   1.7139   1.8742   2.2998   2.3546   3.8410
     3.9094   3.9477   3.9555   3.9687   4.0484   4.3321   4.3474   4.3593
     4.3689   4.3870

[...]

          k = 0.0380-0.0419 0.0000 ( 17876 PWs)   bands (ev):

[...]

          k =-0.0760-0.0000 0.0000 ( 17886 PWs)   bands (ev):

[...]

          k =-0.0760-0.0839 0.0000 ( 17948 PWs)   bands (ev):

   -55.2331 -55.2309 -55.2073 -55.2034 -55.1535 -55.1426 -55.1357 -55.1036
   -55.1024 -55.0738 -55.0710 -55.0225 -55.0188 -55.0097 -54.2949 -54.2948
   -31.6831 -31.6239 -31.6169 -31.5346 -31.5308 -31.5170 -31.5055 -31.5004
   -31.4929 -31.4723 -31.4541 -31.4486 -31.4444 -31.4307 -31.4052 -31.4026
   -31.3911 -31.3887 -31.3815 -31.3806 -31.3771 -31.3739 -31.3611 -31.3473
   -31.3393 -31.3343 -31.3334 -31.3270 -31.3239 -31.3239 -31.3233 -31.3051
   -31.2977 -31.2952 -31.2767 -31.2722 -31.2716 -31.2475 -31.2437 -31.2087
   -31.2044 -31.1915 -30.6126 -30.6125 -30.5368 -30.5365 -30.4972 -30.4970
   -20.1654 -19.0851 -15.6379 -15.5392 -15.3890 -15.2658 -15.2535 -15.2408
   -15.1887 -15.1243 -15.1106 -15.0604 -15.0477 -15.0169 -15.0010 -14.9949
   -14.9589 -14.8505 -14.8464 -14.8361 -14.8153 -14.7704 -14.7594 -14.7523
   -14.7400 -14.7039 -14.6955 -14.6812 -14.6709 -14.5789 -14.4402 -12.7947
   -12.7940 -11.1857  -6.9221  -6.8529  -5.1341  -4.9927  -3.1835  -2.9928
    -2.8073  -2.7284  -2.6309  -2.4837  -2.4689  -2.3879  -2.3760  -2.3254
    -2.2547  -2.2516  -2.2481  -2.1667  -2.1546  -2.1545  -2.1332  -2.1136
    -2.0732  -2.0645  -2.0410  -2.0308  -1.9894  -1.9587  -1.9457  -1.9285
    -1.9182  -1.9143  -1.8832  -1.8686  -1.8532  -1.8107  -1.7876  -1.7283
    -1.6394  -1.6032  -1.4803  -1.4778  -1.4393  -1.4129  -1.3874  -1.3467
    -1.3270  -1.2791  -1.2589  -1.2332  -1.0499  -1.0340  -0.9794  -0.9395
    -0.9198  -0.9063  -0.8443  -0.7725  -0.7457  -0.7143  -0.6484  -0.5753
    -0.4793  -0.4551  -0.4466  -0.3408  -0.2884  -0.2489  -0.2446  -0.2352
    -0.2113  -0.1628  -0.1430  -0.0811  -0.0421   0.0015   0.0270   0.0439
     0.2251   0.2635   0.3218   0.4131   0.4419   0.5871   0.6356   0.6874
     0.7480   0.8243   0.8354   0.9014   1.0156   1.0278   1.0577   1.1347
     1.1781   1.1838   1.2089   2.0652   2.0673   2.1688   2.1719   3.9709
     4.0783   4.0969   4.1758   4.2420   4.3501   4.3632   4.3925   4.4030
     4.4486   4.4855

     the Fermi energy is     3.8974 ev

!    total energy              =   -2967.47599174 Ry
     estimated scf accuracy    <       0.00000004 Ry
     smearing contrib. (-TS)   =      -0.03653998 Ry
     internal energy E=F+TS    =   -2967.43945176 Ry

     The total energy is F=E-TS. E is the sum of the following terms:
     one-electron contribution =  -23962.79605028 Ry
     hartree contribution      =   12076.99493934 Ry
     xc contribution           =    -491.85869065 Ry
     ewald contribution        =    9410.21676632 Ry
     electric field correction =       0.00358352 Ry

     convergence has been achieved in  77 iterations

     Forces acting on atoms (cartesian axes, Ry/au):

     atom    1 type  1   force =    -0.00026455    0.00019768    0.09243314
     atom    2 type  1   force =    -0.00035824    0.00104699   -0.18340278
     atom    3 type  2   force =     0.00050338   -0.00071960   -0.02348400
     atom    4 type  2   force =     0.00072364   -0.00018592    0.05070142
     atom    5 type  2   force =    -0.01405205   -0.00131223    0.00496193
     atom    6 type  2   force =     0.01522006   -0.00065056    0.00510253
     atom    7 type  1   force =    -0.00048405    0.00105997   -0.00012310
     atom    8 type  1   force =     0.00015843   -0.00053787    0.00040565
     atom    9 type  2   force =    -0.00044093    0.00017342    0.00039806
     atom   10 type  2   force =     0.00040932    0.00016483    0.00048144
     atom   11 type  2   force =     0.00035976    0.00043788    0.00034540
     atom   12 type  2   force =     0.00005634    0.00013889    0.00027357
     atom   13 type  1   force =    -0.00088126   -0.00118671   -0.00008945
     atom   14 type  1   force =     0.00059157   -0.00005192    0.00021300
     atom   15 type  2   force =     0.00051239    0.00075691    0.00003680
     atom   16 type  2   force =    -0.00061423   -0.00036705    0.00005932
     atom   17 type  2   force =     0.00005438    0.00022710   -0.00036192
     atom   18 type  2   force =    -0.00013332    0.00028433   -0.00016951
     atom   19 type  1   force =     0.00063316   -0.00004693   -0.00034202
     atom   20 type  1   force =    -0.00001459    0.00022941   -0.00013748
     atom   21 type  2   force =    -0.00004237    0.00015553    0.10496483
     atom   22 type  2   force =    -0.00032934    0.00057484   -0.00086562
     atom   23 type  2   force =    -0.06798540    0.00013030   -0.02679407
     atom   24 type  2   force =     0.06770401    0.00052562   -0.02685941
     atom   25 type  1   force =    -0.00038508   -0.00008461    0.09622981
     atom   26 type  1   force =    -0.00035521   -0.00099453   -0.18319962
     atom   27 type  2   force =     0.00041785   -0.00125800   -0.02224946
     atom   28 type  2   force =     0.00070145   -0.00033155    0.05102113
     atom   29 type  2   force =    -0.01423987   -0.00105682    0.00466914
     atom   30 type  2   force =     0.01519301    0.00021152    0.00485468
     atom   31 type  1   force =    -0.00049913   -0.00146460    0.00017870
     atom   32 type  1   force =     0.00012875    0.00071766   -0.00026291
     atom   33 type  2   force =     0.00002112   -0.00020338    0.00006628
     atom   34 type  2   force =     0.00002483   -0.00006962   -0.00007889
     atom   35 type  2   force =     0.00021716    0.00008680    0.00031200
     atom   36 type  2   force =     0.00039329    0.00045354    0.00005693
     atom   37 type  1   force =    -0.00106022    0.00125158   -0.00004300
     atom   38 type  1   force =     0.00037634    0.00011033   -0.00043737
     atom   39 type  2   force =     0.00039223    0.00021803   -0.00034978
     atom   40 type  2   force =    -0.00008091    0.00019656    0.00007136
     atom   41 type  2   force =    -0.00021833    0.00018394   -0.00051513
     atom   42 type  2   force =     0.00012192   -0.00002369    0.00020515
     atom   43 type  1   force =    -0.00059830    0.00012689    0.00020044
     atom   44 type  1   force =    -0.00005031    0.00001405   -0.00086592
     atom   45 type  2   force =    -0.00005456    0.00015593    0.10490296
     atom   46 type  2   force =    -0.06803467   -0.00037394   -0.02680289
     atom   47 type  2   force =     0.06775473    0.00004528   -0.02688634
     atom   48 type  3   force =     0.00220380    0.00224219    0.00058527
     atom   49 type  2   force =    -0.00112480   -0.00038190    0.00021069
     atom   50 type  4   force =     0.00058616    0.00162959    0.00047037
     atom   51 type  4   force =     0.00068287    0.00081988   -0.00003359
     atom   52 type  4   force =    -0.00053282    0.00024035   -0.00033212
     atom   53 type  4   force =    -0.00239739   -0.00191239   -0.00033334
     atom   54 type  2   force =     0.00084996   -0.00022193    0.00103809
     atom   55 type  4   force =    -0.00083356   -0.00040541   -0.00058028
     atom   56 type  4   force =    -0.00092642   -0.00096665    0.00014992

     Total force =     0.368197     Total SCF correction =     0.000381
  @ DRIVER MODE: Message from server: STATUS
  @ DRIVER MODE: Message from server: GETFORCE
  @ DRIVER MODE: Returning v,forces,stress,ensemble

     Writing output data file ./calc.save/
  @ DRIVER MODE: Message from server: EXIT
  @ DRIVE MODE: Exiting

     General routines

     Parallel routines

   This run was terminated on:   2: 5:28  16Sep2021

   JOB DONE.