     Program PWSCF v.6.7GPU starts on 22Sep2021 at 18:27:35

     R & G space division:  proc/nbgrp/npool/nimage =      10
     Reading input from /storage/home/hcoda1/3/ntian30/research/carbon/CxH_vib/H2O_calc/ads_slab/CHNHNH2H2O_b/out_0007/pw.inp
Warning: card &CELL ignored
Warning: card   CELL_DYNAMICS='IPI', ignored
Warning: card / ignored

     Current dimensions of program PWSCF are:
     Max number of different atomic species (ntypx) = 10
     Max number of k-points (npk) =  40000
     Max angular momentum in pseudopotentials (lmaxx) =  3
     Presently no symmetry can be used with electric field

     Message from routine cell_base_init:
     DEPRECATED: use true lattice parameter, not A to a.u. conversion factor

     IMPORTANT: XC functional enforced from input :
     Exchange-correlation= BEEF-VDW
                           (   1   4  43  14   2   0   0)
     Any further DFT definition will be discarded
     Please, verify this is what you really want

  @ DRIVER MODE: Connecting to
 qe_1139763_2937312.sched-torque.pace.gatech.eduhz03masj_scratch
  using UNIX socket
  @ DRIVER MODE: Message from server: STATUS
  @ DRIVER MODE: Message from server: INIT
  @ DRIVER MODE: Receiving replica           0          -1
  @ DRIVER MODE: Receiving encoded integer          25
  @ DRIVER MODE:  SCF:  T  FORCE:  T  STRESS:  F  VC:  F  ENSEMBLE:  F
  @ DRIVER MODE:  SCF:  T  FORCE:  T  STRESS:  F  VC:  F  ENSEMBLE:  F

     Using Slab Decomposition

     bravais-lattice index     =            0
     lattice parameter (alat)  =       1.8897  a.u.
     unit-cell volume          =    6658.9804 (a.u.)^3
     number of atoms/cell      =           57
     number of atomic types    =            5
     number of electrons       =       404.00
     number of Kohn-Sham states=          212
     kinetic-energy cutoff     =      29.3995  Ry
     charge density cutoff     =     293.9946  Ry
     scf convergence threshold =      7.3E-08
     mixing beta               =       0.0500
     number of iterations used =            8  plain     mixing
     Exchange-correlation= BEEF-VDW
                           (   1   4  43  14   2   0   0)

     celldm(1)=   1.889726  celldm(2)=   0.000000  celldm(3)=   0.000000
     celldm(4)=   0.000000  celldm(5)=   0.000000  celldm(6)=   0.000000

     crystal axes: (cart. coord. in units of alat)
               a(1) = (   6.579727   0.000000   0.000000 )
               a(2) = (  -0.000775   5.961596   0.000000 )
               a(3) = (   0.000000   0.000000  25.155947 )

     reciprocal axes: (cart. coord. in units 2 pi/alat)
               b(1) = (  0.151982  0.000020  0.000000 )
               b(2) = (  0.000000  0.167740  0.000000 )
               b(3) = (  0.000000  0.000000  0.039752 )

     PseudoPot. # 1 for Ti read from file:
     /storage/coda1/p-amedford6/0/shared/rich_project_chbe-medford/medford-share/data/pseudos_module/espresso/nninc/pbe/van/Ti.UPF
     MD5 check sum: 8e4df49b7f0d34bbd5052bf3f5ea0213
     Pseudo is Ultrasoft, Zval = 12.0
     Generated by new atomic code, or converted to UPF format
     Using radial grid of  851 points,  6 beta functions with:
                l(1) =   0
                l(2) =   0
                l(3) =   1
                l(4) =   1
                l(5) =   2
                l(6) =   2
     Q(r) pseudized with  8 coefficients,  rinner =    1.000   1.000   1.000
                                                       1.000   1.000

     PseudoPot. # 2 for O  read from file:
     /storage/coda1/p-amedford6/0/shared/rich_project_chbe-medford/medford-share/data/pseudos_module/espresso/nninc/pbe/van/O.UPF
     MD5 check sum: 78c19812648e8988a0fe644b0f25305e
     Pseudo is Ultrasoft, Zval =  6.0
     Generated by new atomic code, or converted to UPF format
     Using radial grid of  737 points,  4 beta functions with:
                l(1) =   0
                l(2) =   0
                l(3) =   1
                l(4) =   1
     Q(r) pseudized with  8 coefficients,  rinner =    0.800   0.800   0.800

     PseudoPot. # 3 for N  read from file:
     /storage/coda1/p-amedford6/0/shared/rich_project_chbe-medford/medford-share/data/pseudos_module/espresso/nninc/pbe/van/N.UPF
     MD5 check sum: 90d10febe142ad51ac9d5be1deb811c4
     Pseudo is Ultrasoft, Zval =  5.0
     Generated by new atomic code, or converted to UPF format
     Using radial grid of  729 points,  4 beta functions with:
                l(1) =   0
                l(2) =   0
                l(3) =   1
                l(4) =   1
     Q(r) pseudized with  8 coefficients,  rinner =    0.800   0.800   0.800

     PseudoPot. # 4 for C  read from file:
     /storage/coda1/p-amedford6/0/shared/rich_project_chbe-medford/medford-share/data/pseudos_module/espresso/nninc/pbe/van/C.UPF
     MD5 check sum: 1a69bf6b8db32088f5b2163dbdb77a27
     Pseudo is Ultrasoft, Zval =  4.0
     Generated by new atomic code, or converted to UPF format
     Using radial grid of  721 points,  4 beta functions with:
                l(1) =   0
                l(2) =   0
                l(3) =   1
                l(4) =   1
     Q(r) pseudized with  8 coefficients,  rinner =    0.800   0.800   0.800

     PseudoPot. # 5 for H  read from file:
     /storage/coda1/p-amedford6/0/shared/rich_project_chbe-medford/medford-share/data/pseudos_module/espresso/nninc/pbe/van/H.UPF
     MD5 check sum: b5ee9d7bfd3a09ee7748110bda690ff7
     Pseudo is Ultrasoft, Zval =  1.0
     Generated by new atomic code, or converted to UPF format
     Using radial grid of  615 points,  1 beta functions with:
                l(1) =   0
     Q(r) pseudized with  8 coefficients,  rinner =    0.800

     atomic species   valence    mass     pseudopotential
        Ti1           12.00    47.86700     Ti( 1.00)
        O1             6.00    15.99900     O ( 1.00)
        N1             5.00    14.00700     N ( 1.00)
        C1             4.00    12.01100     C ( 1.00)
        H1             1.00     1.00800     H ( 1.00)

     No symmetry found

   Cartesian axes

     site n.     atom                  positions (alat units)
         1           Ti1 tau(   1) = (   0.0004258   2.9801865   6.0000000  )
         2           Ti1 tau(   2) = (   3.2906075   1.4906267   6.0002472  )
         3           O1  tau(   3) = (   0.0006271   0.0005054   7.9858123  )
         4           O1  tau(   4) = (   3.2906025   0.0005020   7.3038282  )
         5           O1  tau(   5) = (   4.5942328   1.4918067   9.2879030  )
         6           O1  tau(   6) = (   1.9868534   1.4903216   9.2879459  )
         7           Ti1 tau(   7) = (   3.2907910   2.8959150   9.1758416  )
         8           Ti1 tau(   8) = (   0.0015273   1.4827037   9.2680791  )
         9           O1  tau(   9) = (   3.3066417   5.9496923  11.3845403  )
        10           O1  tau(  10) = (   0.0116148   5.9584955  10.6183126  )
        11           O1  tau(  11) = (   1.3010148   1.4986442  12.6442229  )
        12           O1  tau(  12) = (   5.3085967   1.5001388  12.6592367  )
        13           Ti1 tau(  13) = (   0.0282779   2.9853959  12.5065338  )
        14           Ti1 tau(  14) = (   3.3279724   1.4707331  12.5413945  )
        15           O1  tau(  15) = (   0.0378505   0.0859181  14.6860672  )
        16           O1  tau(  16) = (   3.3018867   0.0259462  14.0338077  )
        17           O1  tau(  17) = (   4.5998927   1.5484098  16.1661054  )
        18           O1  tau(  18) = (   2.0454451   1.5021798  16.2221046  )
        19           Ti1 tau(  19) = (   3.3206312   2.9825829  15.7321521  )
        20           Ti1 tau(  20) = (   0.0140791   1.4435866  15.9983415  )
        21           O1  tau(  21) = (   3.2904802   0.0005063   4.7018136  )
        22           O1  tau(  22) = (   6.5273045   5.8164216  17.2577718  )
        23           O1  tau(  23) = (   1.3043587   1.4918075   6.0039043  )
        24           O1  tau(  24) = (   5.2767064   1.4903225   6.0039473  )
        25           Ti1 tau(  25) = (   0.0000382   5.9609847   6.0000000  )
        26           Ti1 tau(  26) = (   3.2902200   4.4714249   6.0002472  )
        27           O1  tau(  27) = (   0.0002396   2.9813036   7.9858123  )
        28           O1  tau(  28) = (   3.2902150   2.9813002   7.3038282  )
        29           O1  tau(  29) = (   4.5938453   4.4726049   9.2879030  )
        30           O1  tau(  30) = (   1.9864658   4.4711199   9.2879459  )
        31           Ti1 tau(  31) = (   3.2891106   5.8743827   9.1763621  )
        32           Ti1 tau(  32) = (   0.0006254   4.4649316   9.2693709  )
        33           O1  tau(  33) = (   3.3068470   2.9864458  11.3814114  )
        34           O1  tau(  34) = (   0.0092240   2.9805883  10.6323155  )
        35           O1  tau(  35) = (   1.2982948   4.4740332  12.6840172  )
        36           O1  tau(  36) = (   5.3097620   4.4704985  12.6972095  )
        37           Ti1 tau(  37) = (   0.0348817   0.0130325  12.4954113  )
        38           Ti1 tau(  38) = (   3.3270268   4.4633798  12.5435021  )
        39           O1  tau(  39) = (   0.0563025   2.9439880  14.9425960  )
        40           O1  tau(  40) = (   3.2900316   2.9661073  13.9503945  )
        41           O1  tau(  41) = (   4.5967999   4.4093095  16.0633277  )
        42           O1  tau(  42) = (   2.0412097   4.4536800  16.1303113  )
        43           Ti1 tau(  43) = (   3.2964201   5.9600488  15.8742613  )
        44           Ti1 tau(  44) = (   0.0241369   4.6516137  15.8518307  )
        45           O1  tau(  45) = (   3.2900926   2.9813045   4.7018136  )
        46           O1  tau(  46) = (   1.3039711   4.4726057   6.0039043  )
        47           O1  tau(  47) = (   5.2763189   4.4711207   6.0039473  )
        48           N1  tau(  48) = (   1.4509408   2.7109095  18.7602185  )
        49           N1  tau(  49) = (   0.0817387   2.5303350  18.2207845  )
        50           C1  tau(  50) = (   1.9503960   3.7723240  19.2784661  )
        51           H1  tau(  51) = (   1.1612915   4.5273475  19.4152495  )
        52           H1  tau(  52) = (   2.0208952   1.9183395  18.4664618  )
        53           H1  tau(  53) = (   6.1377449   3.3539424  18.4987646  )
        54           H1  tau(  54) = (   6.2616785   1.7135167  18.6767212  )
        55           O1  tau(  55) = (   3.7012217   5.9496235  18.2853534  )
        56           H1  tau(  56) = (   4.6684668   5.8470116  18.1670174  )
        57           H1  tau(  57) = (   3.3852657   5.1278045  18.7338684  )

     number of k points=    10  Fermi-Dirac smearing, width (Ry)=  0.0073
                       cart. coord. in units 2pi/alat
        k(    1) = (   0.0000000   0.0000000   0.0000000), wk =   0.1250000
        k(    2) = (   0.0000000   0.0419351   0.0000000), wk =   0.2500000
        k(    3) = (   0.0000000  -0.0838702   0.0000000), wk =   0.1250000
        k(    4) = (   0.0379955   0.0000049   0.0000000), wk =   0.2500000
        k(    5) = (   0.0379955   0.0419400   0.0000000), wk =   0.2500000
        k(    6) = (   0.0379955  -0.0838652   0.0000000), wk =   0.2500000
        k(    7) = (   0.0379955  -0.0419301   0.0000000), wk =   0.2500000
        k(    8) = (  -0.0759910  -0.0000099   0.0000000), wk =   0.1250000
        k(    9) = (  -0.0759910   0.0419252   0.0000000), wk =   0.2500000
        k(   10) = (  -0.0759910  -0.0838800   0.0000000), wk =   0.1250000

     Initial potential from superposition of free atoms

     starting charge  387.99913, renormalised to  404.00000

     negative rho (up, down):  1.598E-02 0.000E+00

     %%%%%%%%%%%%%%%%%%%%%%%%%%%%%%%%%%%%%%%%%%%%%%%%%%%%%%%%%%%%%%%%%%%%%%%%
     %                                                                      %
     % You are using vdW-DF, which was implemented by the Thonhauser group. %
     % Please cite the following two papers that made this development      %
     % possible and the two reviews that describe the various versions:     %
     %                                                                      %
     %   T. Thonhauser et al., PRL 115, 136402 (2015).                      %
     %   T. Thonhauser et al., PRB 76, 125112 (2007).                       %
     %   K. Berland et al., Rep. Prog. Phys. 78, 066501 (2015).             %
     %   D.C. Langreth et al., J. Phys.: Condens. Matter 21, 084203 (2009). %
     %                                                                      %
     %                                                                      %
     % If you are calculating the stress with vdW-DF, please also cite:     %
     %                                                                      %
     %   R. Sabatini et al., J. Phys.: Condens. Matter 24, 424209 (2012).   %
     %                                                                      %
     %%%%%%%%%%%%%%%%%%%%%%%%%%%%%%%%%%%%%%%%%%%%%%%%%%%%%%%%%%%%%%%%%%%%%%%%

     Adding external electric field

     Computed dipole along edir(3) :
        Dipole              -14.3585 Ry au,        -36.4957 Debye
        Dipole field         -0.0271 Ry au,

        Potential amp.        2.5118 Ry
        Total length         46.3494 bohr

     Starting wfcs are  306 atomic wfcs
  @ DRIVER MODE: Message from server: STATUS
  @ DRIVER MODE: Message from server: POSDATA
  @ DRIVER MODE: Reading and sharing cell
  @ DRIVER MODE: Reading and sharing positions
  @ DRIVER MODE: Received positions

     Self-consistent Calculation

     iteration #  1     ecut=    29.40 Ry     beta= 0.05
     Davidson diagonalization with overlap
     c_bands:  3 eigenvalues not converged
     c_bands:  4 eigenvalues not converged
     c_bands:  4 eigenvalues not converged
     c_bands:  4 eigenvalues not converged
     c_bands:  5 eigenvalues not converged
     c_bands:  3 eigenvalues not converged
     c_bands:  2 eigenvalues not converged
     c_bands:  4 eigenvalues not converged
     ethr =  1.00E-05,  avg # of iterations = 21.9

[...]

     total energy              =   -2220.94076735 Ry
     estimated scf accuracy    <    8587.27318448 Ry

     iteration #  2     ecut=    29.40 Ry     beta= 0.05
     Davidson diagonalization with overlap
     ethr =  1.00E-02,  avg # of iterations = 27.5

[...]

     iteration # 57     ecut=    29.40 Ry     beta= 0.05
     Davidson diagonalization with overlap
     c_bands:  1 eigenvalues not converged
     c_bands:  1 eigenvalues not converged
     c_bands:  1 eigenvalues not converged
     c_bands:  2 eigenvalues not converged
     c_bands:  1 eigenvalues not converged
     ethr =  6.90E-11,  avg # of iterations = 19.7

[...]

     total energy              =   -2975.10513658 Ry
     estimated scf accuracy    <       0.00000011 Ry

     iteration # 59     ecut=    29.40 Ry     beta= 0.05
     Davidson diagonalization with overlap
     ethr =  2.83E-11,  avg # of iterations = 14.5

     negative rho (up, down):  1.579E-02 0.000E+00

     Adding external electric field

     Computed dipole along edir(3) :
        Dipole                1.0270 Ry au,          2.6103 Debye
        Dipole field          0.0019 Ry au,

        Potential amp.       -0.1797 Ry
        Total length         46.3494 bohr

     End of self-consistent calculation

          k = 0.0000 0.0000 0.0000 ( 18029 PWs)   bands (ev):

   -55.3836 -55.3478 -55.3437 -55.3096 -55.3065 -55.3008 -55.2655 -55.2302
   -55.2152 -55.1803 -55.1735 -55.1581 -55.1398 -55.1109 -54.3749 -54.3409
   -31.9426 -31.8785 -31.8365 -31.7551 -31.7063 -31.7037 -31.6794 -31.6765
   -31.6324 -31.5966 -31.5897 -31.5882 -31.5813 -31.5777 -31.5597 -31.5576
   -31.5328 -31.5249 -31.5220 -31.5106 -31.4963 -31.4897 -31.4710 -31.4662
   -31.4578 -31.4448 -31.4440 -31.4153 -31.4009 -31.3971 -31.3941 -31.3719
   -31.3680 -31.3639 -31.3604 -31.3392 -31.3282 -31.3161 -31.3013 -31.3012
   -31.2912 -31.2845 -30.7843 -30.6900 -30.6679 -30.6008 -30.5140 -30.4030
   -18.8200 -18.4589 -16.2183 -15.9709 -15.8349 -15.7303 -15.5932 -15.4949
   -15.3857 -15.2725 -15.2494 -15.1560 -15.0813 -15.0773 -15.0400 -15.0146
   -14.9520 -14.9306 -14.9068 -14.9009 -14.8864 -14.8761 -14.8396 -14.8286
   -14.8003 -14.7847 -14.7675 -14.6671 -14.6255 -14.5501 -14.4796 -14.3442
   -12.8775 -12.7600  -9.8181  -6.9640  -6.3829  -6.1123  -4.4256  -3.7214
    -3.5415  -3.4085  -3.3300  -3.2988  -3.2838  -3.1523  -3.0617  -2.9008
    -2.8617  -2.8055  -2.6719  -2.5960  -2.5898  -2.5019  -2.4295  -2.4058
    -2.3730  -2.2639  -2.2575  -2.2074  -2.1904  -2.1672  -2.1580  -2.1113
    -2.0655  -2.0382  -1.9531  -1.8516  -1.8079  -1.7880  -1.7517  -1.7291
    -1.7249  -1.6806  -1.6745  -1.6505  -1.6120  -1.5877  -1.5427  -1.4301
    -1.3896  -1.2304  -1.1920  -1.0383  -1.0179  -0.9786  -0.9588  -0.9331
    -0.8919  -0.8756  -0.8643  -0.7705  -0.7120  -0.6453  -0.5817  -0.4919
    -0.4810  -0.4066  -0.3809  -0.3157  -0.2293  -0.1836  -0.1741  -0.1493
    -0.1461  -0.0322   0.0128   0.0731   0.0917   0.1489   0.1648   0.1870
     0.2571   0.3107   0.3802   0.4107   0.4899   0.5081   0.5432   0.5524
     0.5847   0.5952   0.6713   0.6863   0.7144   0.8172   0.9146   1.0065
     1.2161   1.2200   1.2429   1.5526   1.5548   1.6479   1.8313   2.2243
     2.2727   3.7063   3.7847   3.8343   3.8518   3.8563   3.9412   4.1958
     4.2100   4.2228   4.2290   4.2699

[...]

          k = 0.0380-0.0419 0.0000 ( 17876 PWs)   bands (ev):

[...]

          k =-0.0760-0.0000 0.0000 ( 17886 PWs)   bands (ev):

[...]

          k =-0.0760-0.0839 0.0000 ( 17948 PWs)   bands (ev):

   -55.3667 -55.3644 -55.3268 -55.3263 -55.3035 -55.2999 -55.2517 -55.2440
   -55.2009 -55.1941 -55.1599 -55.1574 -55.1560 -55.1127 -54.3578 -54.3578
   -31.7931 -31.7550 -31.7409 -31.6518 -31.6513 -31.6369 -31.6251 -31.6179
   -31.6175 -31.5967 -31.5918 -31.5886 -31.5657 -31.5580 -31.5460 -31.5322
   -31.5289 -31.5263 -31.5224 -31.5143 -31.5097 -31.5076 -31.5066 -31.4988
   -31.4668 -31.4656 -31.4465 -31.4462 -31.4457 -31.4408 -31.4382 -31.4338
   -31.4242 -31.4130 -31.4071 -31.3903 -31.3888 -31.3791 -31.3374 -31.3364
   -31.3358 -31.3172 -30.6806 -30.6806 -30.5969 -30.5967 -30.5574 -30.5574
   -18.8133 -18.4621 -15.8378 -15.6512 -15.4998 -15.4280 -15.4077 -15.3244
   -15.2691 -15.2658 -15.1929 -15.1748 -15.1623 -15.1409 -15.1309 -15.0838
   -15.0466 -15.0100 -14.9913 -14.9686 -14.9254 -14.9027 -14.9011 -14.8943
   -14.8866 -14.8463 -14.8412 -14.8379 -14.7461 -14.7442 -14.7243 -14.5674
   -12.8615 -12.8615  -9.8275  -6.9517  -6.3585  -6.0891  -4.4384  -3.6467
    -3.0247  -2.9093  -2.8988  -2.6701  -2.6514  -2.5903  -2.5779  -2.4898
    -2.4742  -2.4136  -2.3900  -2.3401  -2.3168  -2.2792  -2.2654  -2.2436
    -2.2225  -2.2088  -2.1821  -2.1662  -2.1495  -2.1296  -2.1185  -2.1071
    -2.0520  -2.0467  -2.0375  -2.0120  -1.9890  -1.9529  -1.9429  -1.9263
    -1.7713  -1.7557  -1.7343  -1.5986  -1.5943  -1.5620  -1.5202  -1.4927
    -1.4349  -1.4261  -1.3980  -1.3395  -1.1474  -1.1356  -1.1228  -1.1062
    -1.0343  -0.9789  -0.9646  -0.9467  -0.8929  -0.8150  -0.7840  -0.7290
    -0.6430  -0.5872  -0.5781  -0.5522  -0.4309  -0.4080  -0.3655  -0.3473
    -0.3312  -0.2965  -0.2950  -0.2380  -0.1854  -0.1495  -0.1265  -0.1123
    -0.0753   0.0794   0.1313   0.1478   0.2617   0.2915   0.4694   0.5123
     0.5342   0.6392   0.7224   0.7502   0.7649   0.8897   0.9122   0.9148
     0.9832   1.0055   1.0656   1.0713   1.1972   2.0040   2.0053   2.0925
     2.0927   3.8314   3.9542   3.9985   4.0343   4.1103   4.1629   4.2201
     4.2791   4.2906   4.2942   4.3618

     the Fermi energy is     3.7683 ev

!    total energy              =   -2975.10518380 Ry
     estimated scf accuracy    <       0.00000007 Ry
     smearing contrib. (-TS)   =      -0.03671978 Ry
     internal energy E=F+TS    =   -2975.06846402 Ry

     The total energy is F=E-TS. E is the sum of the following terms:
     one-electron contribution =  -23505.30426000 Ry
     hartree contribution      =   11848.68895047 Ry
     xc contribution           =    -494.91851735 Ry
     ewald contribution        =    9176.46337255 Ry
     electric field correction =       0.00199032 Ry

     convergence has been achieved in  59 iterations

     Forces acting on atoms (cartesian axes, Ry/au):

     atom    1 type  1   force =     0.00003560   -0.00025233    0.09313306
     atom    2 type  1   force =    -0.00017214   -0.00031503   -0.17836188
     atom    3 type  2   force =     0.00006054   -0.00016797   -0.02023122
     atom    4 type  2   force =     0.00001515   -0.00203891    0.05924682
     atom    5 type  2   force =    -0.01034341   -0.00110130    0.00809188
     atom    6 type  2   force =     0.01218558   -0.00054482    0.00816951
     atom    7 type  1   force =     0.00014242    0.00329883   -0.01112680
     atom    8 type  1   force =    -0.00029671    0.00053214   -0.00562252
     atom    9 type  2   force =     0.00003833    0.00017622   -0.00014451
     atom   10 type  2   force =    -0.00146796   -0.00003590   -0.00172768
     atom   11 type  2   force =     0.00036418   -0.00003635   -0.00007651
     atom   12 type  2   force =    -0.00008736    0.00010471   -0.00010602
     atom   13 type  1   force =    -0.00010560   -0.00017332   -0.00023835
     atom   14 type  1   force =    -0.00020388   -0.00036939    0.00034224
     atom   15 type  2   force =     0.00004957   -0.00052303    0.00009513
     atom   16 type  2   force =     0.00021011    0.00008429    0.00026559
     atom   17 type  2   force =     0.00011395   -0.00028264   -0.00000174
     atom   18 type  2   force =    -0.00017217   -0.00010468   -0.00004665
     atom   19 type  1   force =    -0.00020721   -0.00049069   -0.00001299
     atom   20 type  1   force =    -0.00017486    0.00051534    0.00075947
     atom   21 type  2   force =    -0.00000286   -0.00007521    0.10402389
     atom   22 type  2   force =    -0.00006669   -0.00004415    0.00000509
     atom   23 type  2   force =    -0.07035501   -0.00015984   -0.02683734
     atom   24 type  2   force =     0.07021980    0.00028627   -0.02690883
     atom   25 type  1   force =     0.00000954   -0.00014578    0.09280228
     atom   26 type  1   force =    -0.00015671   -0.00039928   -0.17830411
     atom   27 type  2   force =     0.00010884   -0.00031050   -0.01917848
     atom   28 type  2   force =     0.00004664   -0.00163379    0.05839821
     atom   29 type  2   force =    -0.01029974   -0.00063870    0.00729618
     atom   30 type  2   force =     0.01203037   -0.00030695    0.00742942
     atom   31 type  1   force =     0.00007170    0.00515527   -0.01465669
     atom   32 type  1   force =    -0.00014179   -0.00052130   -0.00596388
     atom   33 type  2   force =     0.00012649   -0.00039432   -0.00022537
     atom   34 type  2   force =    -0.00078873    0.00260633   -0.00103636
     atom   35 type  2   force =    -0.00008280   -0.00011692   -0.00014352
     atom   36 type  2   force =     0.00024415   -0.00000301   -0.00016987
     atom   37 type  1   force =    -0.00045027    0.00006964    0.00001210
     atom   38 type  1   force =    -0.00001855   -0.00025257   -0.00024535
     atom   39 type  2   force =    -0.00028617   -0.00020237   -0.00016632
     atom   40 type  2   force =    -0.00013526   -0.00005518   -0.00003705
     atom   41 type  2   force =    -0.00020245   -0.00010878    0.00035811
     atom   42 type  2   force =    -0.00004857   -0.00023101    0.00013334
     atom   43 type  1   force =     0.00005934   -0.00028006    0.00000117
     atom   44 type  1   force =    -0.00002735   -0.00007479    0.00014424
     atom   45 type  2   force =     0.00000793   -0.00010940    0.10398840
     atom   46 type  2   force =    -0.07038399   -0.00011894   -0.02686083
     atom   47 type  2   force =     0.07022495    0.00031528   -0.02691907
     atom   48 type  3   force =    -0.00299536    0.00222204   -0.00016036
     atom   49 type  3   force =     0.01423317   -0.00257141   -0.00359294
     atom   50 type  4   force =    -0.00117068   -0.00026632   -0.00028235
     atom   51 type  5   force =     0.00032298   -0.00045748   -0.00025535
     atom   52 type  5   force =    -0.00101752   -0.00124433   -0.00073018
     atom   53 type  5   force =    -0.00540100    0.00544448    0.00267425
     atom   54 type  5   force =    -0.00367059   -0.00309739    0.00273972
     atom   55 type  2   force =     0.00002970   -0.00026625    0.00073252
     atom   56 type  5   force =     0.00027253   -0.00036151   -0.00045187
     atom   57 type  5   force =    -0.00029018    0.00007302   -0.00001964

     Total force =     0.366656     Total SCF correction =     0.000795
  @ DRIVER MODE: Message from server: STATUS
  @ DRIVER MODE: Message from server: GETFORCE
  @ DRIVER MODE: Returning v,forces,stress,ensemble

     Writing output data file ./calc.save/
  @ DRIVER MODE: Message from server: EXIT
  @ DRIVE MODE: Exiting

     General routines

     Parallel routines

   This run was terminated on:  18:45:19  22Sep2021

   JOB DONE.