     Program PWSCF v.6.7GPU starts on 15Sep2021 at 17:26:48

     R & G space division:  proc/nbgrp/npool/nimage =      10
     Reading input from /storage/home/hcoda1/3/ntian30/research/carbon/CxH_vib/H2O_calc/ads_slab/CH3N2HH2O_a/out_0006/pw.inp
Warning: card &CELL ignored
Warning: card   CELL_DYNAMICS='IPI', ignored
Warning: card / ignored

     Current dimensions of program PWSCF are:
     Max number of different atomic species (ntypx) = 10
     Max number of k-points (npk) =  40000
     Max angular momentum in pseudopotentials (lmaxx) =  3
     Presently no symmetry can be used with electric field

     Message from routine cell_base_init:
     DEPRECATED: use true lattice parameter, not A to a.u. conversion factor

     IMPORTANT: XC functional enforced from input :
     Exchange-correlation= BEEF-VDW
                           (   1   4  43  14   2   0   0)
     Any further DFT definition will be discarded
     Please, verify this is what you really want

  @ DRIVER MODE: Connecting to
 qe_1139763_2852617.sched-torque.pace.gatech.edu3wntq47t_scratch
  using UNIX socket
  @ DRIVER MODE: Message from server: STATUS
  @ DRIVER MODE: Message from server: INIT
  @ DRIVER MODE: Receiving replica           0          -1
  @ DRIVER MODE: Receiving encoded integer          25
  @ DRIVER MODE:  SCF:  T  FORCE:  T  STRESS:  F  VC:  F  ENSEMBLE:  F
  @ DRIVER MODE:  SCF:  T  FORCE:  T  STRESS:  F  VC:  F  ENSEMBLE:  F

     Using Slab Decomposition

     bravais-lattice index     =            0
     lattice parameter (alat)  =       1.8897  a.u.
     unit-cell volume          =    6658.9804 (a.u.)^3
     number of atoms/cell      =           57
     number of atomic types    =            5
     number of electrons       =       404.00
     number of Kohn-Sham states=          212
     kinetic-energy cutoff     =      29.3995  Ry
     charge density cutoff     =     293.9946  Ry
     scf convergence threshold =      7.3E-08
     mixing beta               =       0.0500
     number of iterations used =            8  plain     mixing
     Exchange-correlation= BEEF-VDW
                           (   1   4  43  14   2   0   0)

     celldm(1)=   1.889726  celldm(2)=   0.000000  celldm(3)=   0.000000
     celldm(4)=   0.000000  celldm(5)=   0.000000  celldm(6)=   0.000000

     crystal axes: (cart. coord. in units of alat)
               a(1) = (   6.579727   0.000000   0.000000 )
               a(2) = (  -0.000775   5.961596   0.000000 )
               a(3) = (   0.000000   0.000000  25.155947 )

     reciprocal axes: (cart. coord. in units 2 pi/alat)
               b(1) = (  0.151982  0.000020  0.000000 )
               b(2) = (  0.000000  0.167740  0.000000 )
               b(3) = (  0.000000  0.000000  0.039752 )

     PseudoPot. # 1 for Ti read from file:
     /storage/coda1/p-amedford6/0/shared/rich_project_chbe-medford/medford-share/data/pseudos_module/espresso/nninc/pbe/van/Ti.UPF
     MD5 check sum: 8e4df49b7f0d34bbd5052bf3f5ea0213
     Pseudo is Ultrasoft, Zval = 12.0
     Generated by new atomic code, or converted to UPF format
     Using radial grid of  851 points,  6 beta functions with:
                l(1) =   0
                l(2) =   0
                l(3) =   1
                l(4) =   1
                l(5) =   2
                l(6) =   2
     Q(r) pseudized with  8 coefficients,  rinner =    1.000   1.000   1.000
                                                       1.000   1.000

     PseudoPot. # 2 for O  read from file:
     /storage/coda1/p-amedford6/0/shared/rich_project_chbe-medford/medford-share/data/pseudos_module/espresso/nninc/pbe/van/O.UPF
     MD5 check sum: 78c19812648e8988a0fe644b0f25305e
     Pseudo is Ultrasoft, Zval =  6.0
     Generated by new atomic code, or converted to UPF format
     Using radial grid of  737 points,  4 beta functions with:
                l(1) =   0
                l(2) =   0
                l(3) =   1
                l(4) =   1
     Q(r) pseudized with  8 coefficients,  rinner =    0.800   0.800   0.800

     PseudoPot. # 3 for N  read from file:
     /storage/coda1/p-amedford6/0/shared/rich_project_chbe-medford/medford-share/data/pseudos_module/espresso/nninc/pbe/van/N.UPF
     MD5 check sum: 90d10febe142ad51ac9d5be1deb811c4
     Pseudo is Ultrasoft, Zval =  5.0
     Generated by new atomic code, or converted to UPF format
     Using radial grid of  729 points,  4 beta functions with:
                l(1) =   0
                l(2) =   0
                l(3) =   1
                l(4) =   1
     Q(r) pseudized with  8 coefficients,  rinner =    0.800   0.800   0.800

     PseudoPot. # 4 for C  read from file:
     /storage/coda1/p-amedford6/0/shared/rich_project_chbe-medford/medford-share/data/pseudos_module/espresso/nninc/pbe/van/C.UPF
     MD5 check sum: 1a69bf6b8db32088f5b2163dbdb77a27
     Pseudo is Ultrasoft, Zval =  4.0
     Generated by new atomic code, or converted to UPF format
     Using radial grid of  721 points,  4 beta functions with:
                l(1) =   0
                l(2) =   0
                l(3) =   1
                l(4) =   1
     Q(r) pseudized with  8 coefficients,  rinner =    0.800   0.800   0.800

     PseudoPot. # 5 for H  read from file:
     /storage/coda1/p-amedford6/0/shared/rich_project_chbe-medford/medford-share/data/pseudos_module/espresso/nninc/pbe/van/H.UPF
     MD5 check sum: b5ee9d7bfd3a09ee7748110bda690ff7
     Pseudo is Ultrasoft, Zval =  1.0
     Generated by new atomic code, or converted to UPF format
     Using radial grid of  615 points,  1 beta functions with:
                l(1) =   0
     Q(r) pseudized with  8 coefficients,  rinner =    0.800

     atomic species   valence    mass     pseudopotential
        Ti1           12.00    47.86700     Ti( 1.00)
        O1             6.00    15.99900     O ( 1.00)
        N1             5.00    14.00700     N ( 1.00)
        C1             4.00    12.01100     C ( 1.00)
        H1             1.00     1.00800     H ( 1.00)

     No symmetry found

   Cartesian axes

     site n.     atom                  positions (alat units)
         1           Ti1 tau(   1) = (   0.0004258   2.9801865   6.0000000  )
         2           Ti1 tau(   2) = (   3.2906075   1.4906267   6.0002472  )
         3           O1  tau(   3) = (   0.0006271   0.0005054   7.9858123  )
         4           O1  tau(   4) = (   3.2906025   0.0005020   7.3038282  )
         5           O1  tau(   5) = (   4.5942328   1.4918067   9.2879030  )
         6           O1  tau(   6) = (   1.9868534   1.4903216   9.2879459  )
         7           Ti1 tau(   7) = (   3.2907910   2.8959150   9.1758416  )
         8           Ti1 tau(   8) = (   0.0015273   1.4827037   9.2680791  )
         9           O1  tau(   9) = (   3.2846840   0.0164488  11.3171736  )
        10           O1  tau(  10) = (   0.0116148   5.9584955  10.6183126  )
        11           O1  tau(  11) = (   1.2780696   1.4966870  12.6228330  )
        12           O1  tau(  12) = (   5.2671132   1.5021727  12.6038655  )
        13           Ti1 tau(  13) = (   0.0814623   2.9703834  12.6092300  )
        14           Ti1 tau(  14) = (   3.3984034   1.5042134  12.4754612  )
        15           O1  tau(  15) = (   6.5611900   5.9602394  14.6246442  )
        16           O1  tau(  16) = (   3.2847170   0.0117735  13.9091713  )
        17           O1  tau(  17) = (   4.5127615   1.5439160  15.9886145  )
        18           O1  tau(  18) = (   2.0245574   1.5486524  15.9865356  )
        19           Ti1 tau(  19) = (   3.2678410   3.0292036  15.6627315  )
        20           Ti1 tau(  20) = (   6.5437773   1.5790868  15.8036792  )
        21           O1  tau(  21) = (   3.2904802   0.0005063   4.7018136  )
        22           O1  tau(  22) = (   6.5616667   0.0409992  17.2467836  )
        23           O1  tau(  23) = (   1.3043587   1.4918075   6.0039043  )
        24           O1  tau(  24) = (   5.2767064   1.4903225   6.0039473  )
        25           Ti1 tau(  25) = (   0.0000382   5.9609847   6.0000000  )
        26           Ti1 tau(  26) = (   3.2902200   4.4714249   6.0002472  )
        27           O1  tau(  27) = (   0.0002396   2.9813036   7.9858123  )
        28           O1  tau(  28) = (   3.2902150   2.9813002   7.3038282  )
        29           O1  tau(  29) = (   4.5938453   4.4726049   9.2879030  )
        30           O1  tau(  30) = (   1.9864658   4.4711199   9.2879459  )
        31           Ti1 tau(  31) = (   3.2891106   5.8743827   9.1763621  )
        32           Ti1 tau(  32) = (   0.0006254   4.4649316   9.2693709  )
        33           O1  tau(  33) = (   3.2886753   2.9955121  11.3174028  )
        34           O1  tau(  34) = (   0.0092240   2.9805883  10.6323155  )
        35           O1  tau(  35) = (   1.2771457   4.4765085  12.6200386  )
        36           O1  tau(  36) = (   5.2716127   4.4859779  12.5990880  )
        37           Ti1 tau(  37) = (   0.0719143   5.9417653  12.6408960  )
        38           Ti1 tau(  38) = (   3.4009286   4.4967646  12.4819834  )
        39           O1  tau(  39) = (   6.5633752   2.9851081  14.6229342  )
        40           O1  tau(  40) = (   3.2806164   3.0132077  13.8636590  )
        41           O1  tau(  41) = (   4.5054435   4.4842064  16.0752605  )
        42           O1  tau(  42) = (   2.0287922   4.4846499  16.0567397  )
        43           Ti1 tau(  43) = (   3.2585180   0.0608266  15.7494983  )
        44           Ti1 tau(  44) = (   6.5556145   4.6328118  16.1363011  )
        45           O1  tau(  45) = (   3.2900926   2.9813045   4.7018136  )
        46           O1  tau(  46) = (   1.3039711   4.4726057   6.0039043  )
        47           O1  tau(  47) = (   5.2763189   4.4711207   6.0039473  )
        48           N1  tau(  48) = (   6.4582227   2.6263240  18.5834135  )
        49           N1  tau(  49) = (   6.5493832   2.9496485  17.3103279  )
        50           C1  tau(  50) = (   0.1600853   3.5596473  19.6455425  )
        51           H1  tau(  51) = (   6.1911903   4.4878083  19.4849519  )
        52           H1  tau(  52) = (   6.4401482   3.1080517  20.5902855  )
        53           H1  tau(  53) = (   1.2308410   3.8049764  19.6956042  )
        54           H1  tau(  54) = (   6.5044843   1.6253530  18.7706356  )
        55           O1  tau(  55) = (   3.2415852   0.0755412  18.2049893  )
        56           H1  tau(  56) = (   4.0109045   5.4607113  18.3409029  )
        57           H1  tau(  57) = (   2.4534619   5.4803556  18.3240773  )

     number of k points=    10  Fermi-Dirac smearing, width (Ry)=  0.0073
                       cart. coord. in units 2pi/alat
        k(    1) = (   0.0000000   0.0000000   0.0000000), wk =   0.1250000
        k(    2) = (   0.0000000   0.0419351   0.0000000), wk =   0.2500000
        k(    3) = (   0.0000000  -0.0838702   0.0000000), wk =   0.1250000
        k(    4) = (   0.0379955   0.0000049   0.0000000), wk =   0.2500000
        k(    5) = (   0.0379955   0.0419400   0.0000000), wk =   0.2500000
        k(    6) = (   0.0379955  -0.0838652   0.0000000), wk =   0.2500000
        k(    7) = (   0.0379955  -0.0419301   0.0000000), wk =   0.2500000
        k(    8) = (  -0.0759910  -0.0000099   0.0000000), wk =   0.1250000
        k(    9) = (  -0.0759910   0.0419252   0.0000000), wk =   0.2500000
        k(   10) = (  -0.0759910  -0.0838800   0.0000000), wk =   0.1250000

     Initial potential from superposition of free atoms

     starting charge  387.99913, renormalised to  404.00000

     negative rho (up, down):  1.445E-02 0.000E+00

     %%%%%%%%%%%%%%%%%%%%%%%%%%%%%%%%%%%%%%%%%%%%%%%%%%%%%%%%%%%%%%%%%%%%%%%%
     %                                                                      %
     % You are using vdW-DF, which was implemented by the Thonhauser group. %
     % Please cite the following two papers that made this development      %
     % possible and the two reviews that describe the various versions:     %
     %                                                                      %
     %   T. Thonhauser et al., PRL 115, 136402 (2015).                      %
     %   T. Thonhauser et al., PRB 76, 125112 (2007).                       %
     %   K. Berland et al., Rep. Prog. Phys. 78, 066501 (2015).             %
     %   D.C. Langreth et al., J. Phys.: Condens. Matter 21, 084203 (2009). %
     %                                                                      %
     %                                                                      %
     % If you are calculating the stress with vdW-DF, please also cite:     %
     %                                                                      %
     %   R. Sabatini et al., J. Phys.: Condens. Matter 24, 424209 (2012).   %
     %                                                                      %
     %%%%%%%%%%%%%%%%%%%%%%%%%%%%%%%%%%%%%%%%%%%%%%%%%%%%%%%%%%%%%%%%%%%%%%%%

     Adding external electric field

     Computed dipole along edir(3) :
        Dipole              -13.5707 Ry au,        -34.4934 Debye
        Dipole field         -0.0256 Ry au,

        Potential amp.        2.3740 Ry
        Total length         46.3494 bohr

     Starting wfcs are  306 atomic wfcs
  @ DRIVER MODE: Message from server: STATUS
  @ DRIVER MODE: Message from server: POSDATA
  @ DRIVER MODE: Reading and sharing cell
  @ DRIVER MODE: Reading and sharing positions
  @ DRIVER MODE: Received positions

     Self-consistent Calculation

     iteration #  1     ecut=    29.40 Ry     beta= 0.05
     Davidson diagonalization with overlap
     c_bands:  5 eigenvalues not converged
     c_bands:  4 eigenvalues not converged
     c_bands:  4 eigenvalues not converged
     c_bands:  4 eigenvalues not converged
     c_bands:  3 eigenvalues not converged
     c_bands:  3 eigenvalues not converged
     ethr =  1.00E-05,  avg # of iterations = 25.2

[...]

     total energy              =   -2332.12563335 Ry
     estimated scf accuracy    <    7323.13814476 Ry

     iteration #  2     ecut=    29.40 Ry     beta= 0.05
     Davidson diagonalization with overlap
     ethr =  1.00E-02,  avg # of iterations = 24.0

[...]

     iteration # 52     ecut=    29.40 Ry     beta= 0.05
     Davidson diagonalization with overlap
     c_bands:  1 eigenvalues not converged
     ethr =  2.77E-08,  avg # of iterations =  8.1

[...]

     total energy              =   -2975.23029490 Ry
     estimated scf accuracy    <       0.00000008 Ry

     iteration # 70     ecut=    29.40 Ry     beta= 0.05
     Davidson diagonalization with overlap
     ethr =  1.94E-11,  avg # of iterations =  6.4

     negative rho (up, down):  1.508E-02 0.000E+00

     Adding external electric field

     Computed dipole along edir(3) :
        Dipole                1.1460 Ry au,          2.9129 Debye
        Dipole field          0.0022 Ry au,

        Potential amp.       -0.2005 Ry
        Total length         46.3494 bohr

     End of self-consistent calculation

          k = 0.0000 0.0000 0.0000 ( 18029 PWs)   bands (ev):

   -55.5190 -55.4850 -55.3424 -55.3060 -55.2756 -55.2419 -55.2121 -55.2020
   -55.2005 -55.1746 -55.1661 -55.0186 -54.5561 -54.4491 -54.4151 -54.3910
   -31.9920 -31.8776 -31.8133 -31.7982 -31.7347 -31.7220 -31.6895 -31.6723
   -31.6309 -31.6144 -31.6078 -31.5837 -31.5779 -31.5329 -31.5215 -31.5106
   -31.4945 -31.4842 -31.4653 -31.4514 -31.4285 -31.4268 -31.4257 -31.4057
   -31.4010 -31.3973 -31.3880 -31.3811 -31.3757 -31.3733 -31.3542 -31.3397
   -31.3272 -31.3129 -31.2106 -31.1830 -31.0492 -30.8541 -30.7788 -30.7711
   -30.7665 -30.7483 -30.7252 -30.6711 -30.6021 -30.5850 -30.5704 -30.4738
   -18.7793 -17.6490 -16.0838 -15.8930 -15.6206 -15.4895 -15.4682 -15.2845
   -15.2087 -15.1603 -15.0285 -14.9771 -14.9513 -14.9177 -14.9095 -14.8510
   -14.8207 -14.7941 -14.7611 -14.7558 -14.7423 -14.7126 -14.6686 -14.6235
   -14.5924 -14.5330 -14.4838 -14.4636 -14.3626 -14.3593 -13.9271 -12.9503
   -12.8348 -11.8807  -8.7869  -6.5489  -5.5962  -4.3089  -4.0704  -3.4689
    -3.3957  -3.3347  -3.2178  -3.1211  -3.0013  -2.9504  -2.8520  -2.7779
    -2.6166  -2.5574  -2.5291  -2.5021  -2.4160  -2.2858  -2.2753  -2.2241
    -2.1981  -2.1782  -2.1587  -2.1461  -2.0441  -2.0105  -1.9754  -1.8451
    -1.8202  -1.8089  -1.7872  -1.7779  -1.7572  -1.6992  -1.6643  -1.6451
    -1.6399  -1.6040  -1.5639  -1.5467  -1.4187  -1.4034  -1.2815  -1.1481
    -1.1117  -1.0704  -1.0594  -0.9014  -0.8875  -0.8633  -0.8301  -0.8243
    -0.7480  -0.6781  -0.6246  -0.5621  -0.4398  -0.4331  -0.3930  -0.2511
    -0.2461  -0.2242  -0.1870  -0.1755  -0.1193  -0.1084  -0.0649   0.0035
     0.0864   0.1635   0.2641   0.2706   0.3212   0.3588   0.3753   0.4306
     0.4442   0.4950   0.5050   0.5147   0.5662   0.6021   0.6144   0.6770
     0.7271   0.8423   0.9106   0.9363   0.9839   1.1034   1.1771   1.2262
     1.2366   1.4023   1.5188   1.5700   1.5735   1.7738   1.8090   2.1402
     2.1840   3.6553   3.6714   3.7614   3.8213   3.9359   4.0101   4.0952
     4.1849   4.2483   4.3410   4.3760

[...]

          k = 0.0380-0.0419 0.0000 ( 17876 PWs)   bands (ev):

[...]

          k =-0.0760-0.0000 0.0000 ( 17886 PWs)   bands (ev):

[...]

          k =-0.0760-0.0839 0.0000 ( 17948 PWs)   bands (ev):

   -55.5021 -55.5018 -55.3279 -55.3203 -55.2587 -55.2585 -55.2005 -55.2003
   -55.1865 -55.1861 -55.1800 -55.0202 -54.5545 -54.4321 -54.4320 -54.3924
   -31.8075 -31.8074 -31.7986 -31.7985 -31.6907 -31.6735 -31.6232 -31.6226
   -31.5796 -31.5748 -31.5723 -31.5703 -31.5680 -31.5590 -31.5295 -31.5245
   -31.4996 -31.4882 -31.4839 -31.4752 -31.4516 -31.4495 -31.4414 -31.4388
   -31.4248 -31.4156 -31.4145 -31.4094 -31.4068 -31.4019 -31.3961 -31.3940
   -31.3657 -31.3416 -31.3203 -31.2184 -30.9590 -30.8015 -30.7698 -30.7611
   -30.7610 -30.7474 -30.6672 -30.6671 -30.6281 -30.6281 -30.6196 -30.6022
   -18.7783 -17.6428 -15.5049 -15.4405 -15.3733 -15.3693 -15.2624 -15.2094
   -15.1152 -15.1027 -15.0955 -15.0919 -14.9948 -14.9913 -14.9204 -14.9113
   -14.8728 -14.8681 -14.8649 -14.8471 -14.8297 -14.8247 -14.8076 -14.7580
   -14.7517 -14.7458 -14.5796 -14.5513 -14.4371 -14.4162 -14.0501 -12.9369
   -12.9368 -11.8824  -8.7976  -6.5328  -5.5878  -4.2588  -4.0900  -2.9095
    -2.8893  -2.7965  -2.6676  -2.5403  -2.5288  -2.5047  -2.4691  -2.3031
    -2.2910  -2.2765  -2.2675  -2.2227  -2.2121  -2.1926  -2.1780  -2.1225
    -2.1061  -2.0915  -2.0849  -2.0739  -2.0606  -2.0538  -2.0431  -2.0392
    -2.0180  -1.9646  -1.9449  -1.8573  -1.7753  -1.7653  -1.6843  -1.5644
    -1.5593  -1.5489  -1.5476  -1.5315  -1.5216  -1.4799  -1.4316  -1.3911
    -1.2484  -1.1541  -1.1116  -1.0925  -1.0263  -1.0128  -0.9295  -0.8475
    -0.8157  -0.7964  -0.7114  -0.6637  -0.5814  -0.5644  -0.5270  -0.4754
    -0.4548  -0.4414  -0.4294  -0.4208  -0.3498  -0.3052  -0.2415  -0.2279
    -0.1747  -0.1433  -0.1124  -0.0898  -0.0476   0.0415   0.0508   0.0913
     0.1054   0.1199   0.2013   0.3501   0.3887   0.6237   0.6323   0.7095
     0.8374   0.8544   0.8633   0.9437   0.9581   0.9958   1.0158   1.1318
     1.1547   1.1891   1.3082   1.3439   1.4541   1.9434   1.9443   2.0030
     2.0035   3.5176   4.1232   4.1327   4.1487   4.1617   4.1863   4.1937
     4.2394   4.2522   4.3825   4.4098

     the Fermi energy is     3.6312 ev

!    total energy              =   -2975.23031776 Ry
     estimated scf accuracy    <       0.00000004 Ry
     smearing contrib. (-TS)   =      -0.02097767 Ry
     internal energy E=F+TS    =   -2975.20934010 Ry

     The total energy is F=E-TS. E is the sum of the following terms:
     one-electron contribution =  -23875.99635870 Ry
     hartree contribution      =   12035.34066634 Ry
     xc contribution           =    -494.92213133 Ry
     ewald contribution        =    9360.36600510 Ry
     electric field correction =       0.00247849 Ry

     convergence has been achieved in  70 iterations

     Forces acting on atoms (cartesian axes, Ry/au):

     atom    1 type  1   force =     0.00016866   -0.00024206    0.09949553
     atom    2 type  1   force =    -0.00014189   -0.00038148   -0.17307280
     atom    3 type  2   force =    -0.00007002   -0.00000334   -0.02917903
     atom    4 type  2   force =     0.00003773   -0.00102265    0.04887334
     atom    5 type  2   force =    -0.01223260    0.00099444    0.00046282
     atom    6 type  2   force =     0.01353672    0.00186667   -0.00113461
     atom    7 type  1   force =    -0.00135483   -0.00054403   -0.00285071
     atom    8 type  1   force =     0.00095252   -0.00608308    0.04554646
     atom    9 type  2   force =    -0.00000756   -0.00023690   -0.00014312
     atom   10 type  2   force =    -0.00156694    0.00261922   -0.03114588
     atom   11 type  2   force =    -0.00020212   -0.00045332   -0.00003536
     atom   12 type  2   force =     0.00007601   -0.00023859    0.00007399
     atom   13 type  1   force =    -0.00017411   -0.00055112    0.00011124
     atom   14 type  1   force =     0.00034612   -0.00017835    0.00049828
     atom   15 type  2   force =     0.00001177   -0.00014650   -0.00082366
     atom   16 type  2   force =    -0.00020709    0.00003473   -0.00030686
     atom   17 type  2   force =    -0.00000583   -0.00039602   -0.00014262
     atom   18 type  2   force =     0.00010920   -0.00046581   -0.00026660
     atom   19 type  1   force =     0.00008946   -0.00017597    0.00090862
     atom   20 type  1   force =    -0.00004204    0.00008511    0.00202182
     atom   21 type  2   force =     0.00008622   -0.00000764    0.10257980
     atom   22 type  2   force =     0.00008080   -0.00045121   -0.00039981
     atom   23 type  2   force =    -0.07251036   -0.00009217   -0.02847753
     atom   24 type  2   force =     0.07247359    0.00034120   -0.02845939
     atom   25 type  1   force =     0.00008339   -0.00027852    0.09900001
     atom   26 type  1   force =    -0.00005464   -0.00040812   -0.17325538
     atom   27 type  2   force =    -0.00003401    0.00000370   -0.02848084
     atom   28 type  2   force =     0.00009443   -0.00075713    0.04803961
     atom   29 type  2   force =    -0.01260170    0.00063331    0.00049730
     atom   30 type  2   force =     0.01383330    0.00096301   -0.00107191
     atom   31 type  1   force =    -0.00145201    0.00224832   -0.00557978
     atom   32 type  1   force =     0.00111602    0.00383300    0.04607433
     atom   33 type  2   force =    -0.00007037   -0.00026795   -0.00022750
     atom   34 type  2   force =    -0.00097620    0.00133882   -0.03401500
     atom   35 type  2   force =    -0.00031277    0.00005093   -0.00031861
     atom   36 type  2   force =     0.00048527    0.00010296   -0.00011111
     atom   37 type  1   force =    -0.00030224    0.00007506    0.00070915
     atom   38 type  1   force =     0.00021059   -0.00027605    0.00031734
     atom   39 type  2   force =     0.00002317   -0.00045304   -0.00005798
     atom   40 type  2   force =    -0.00004418    0.00017707   -0.00063640
     atom   41 type  2   force =    -0.00029080   -0.00013328   -0.00024503
     atom   42 type  2   force =     0.00032868   -0.00008523   -0.00032118
     atom   43 type  1   force =     0.00011540    0.00009052    0.00043594
     atom   44 type  1   force =    -0.00008341   -0.00057726    0.00139415
     atom   45 type  2   force =     0.00009457   -0.00001231    0.10256805
     atom   46 type  2   force =    -0.07253293   -0.00000890   -0.02846999
     atom   47 type  2   force =     0.07248962    0.00037820   -0.02846204
     atom   48 type  3   force =    -0.00164524    0.00068199   -0.02236917
     atom   49 type  3   force =    -0.00057371   -0.00312658    0.01136085
     atom   50 type  4   force =     0.00124041    0.00118018    0.00506240
     atom   51 type  5   force =     0.00006404   -0.00003097    0.00020750
     atom   52 type  5   force =     0.00020304    0.00121954    0.00118959
     atom   53 type  5   force =     0.00045275    0.00037306    0.00056234
     atom   54 type  5   force =     0.00076711   -0.00154208    0.00253352
     atom   55 type  2   force =     0.00060817    0.00054485   -0.00051033
     atom   56 type  5   force =    -0.00019333   -0.00038944   -0.00015396
     atom   57 type  5   force =    -0.00049587    0.00018120    0.00020023

     Total force =     0.373059     Total SCF correction =     0.000531
  @ DRIVER MODE: Message from server: STATUS
  @ DRIVER MODE: Message from server: GETFORCE
  @ DRIVER MODE: Returning v,forces,stress,ensemble

     Writing output data file ./calc.save/
  @ DRIVER MODE: Message from server: EXIT
  @ DRIVE MODE: Exiting

     General routines

     Parallel routines

   This run was terminated on:  17:45:27  15Sep2021

   JOB DONE.