     Program PWSCF v.6.7GPU starts on 11Sep2021 at  8:38:12

     R & G space division:  proc/nbgrp/npool/nimage =      10
     Reading input from /storage/home/hcoda1/3/ntian30/research/carbon/CxH_vib/CH2_calc/ads_slab/CH2NHNH2_a/out_0041/pw.inp
Warning: card &CELL ignored
Warning: card   CELL_DYNAMICS='IPI', ignored
Warning: card / ignored

     Current dimensions of program PWSCF are:
     Max number of different atomic species (ntypx) = 10
     Max number of k-points (npk) =  40000
     Max angular momentum in pseudopotentials (lmaxx) =  3
     Presently no symmetry can be used with electric field

     Message from routine cell_base_init:
     DEPRECATED: use true lattice parameter, not A to a.u. conversion factor

     IMPORTANT: XC functional enforced from input :
     Exchange-correlation= BEEF-VDW
                           (   1   4  43  14   2   0   0)
     Any further DFT definition will be discarded
     Please, verify this is what you really want

  @ DRIVER MODE: Connecting to
 qe_1139763_2792044.sched-torque.pace.gatech.edurw80ot4k_scratch
  using UNIX socket
  @ DRIVER MODE: Message from server: STATUS
  @ DRIVER MODE: Message from server: INIT
  @ DRIVER MODE: Receiving replica           0          -1
  @ DRIVER MODE: Receiving encoded integer          25
  @ DRIVER MODE:  SCF:  T  FORCE:  T  STRESS:  F  VC:  F  ENSEMBLE:  F
  @ DRIVER MODE:  SCF:  T  FORCE:  T  STRESS:  F  VC:  F  ENSEMBLE:  F

     Using Slab Decomposition

     bravais-lattice index     =            0
     lattice parameter (alat)  =       1.8897  a.u.
     unit-cell volume          =    6658.9804 (a.u.)^3
     number of atoms/cell      =           55
     number of atomic types    =            5
     number of electrons       =       397.00
     number of Kohn-Sham states=          208
     kinetic-energy cutoff     =      29.3995  Ry
     charge density cutoff     =     293.9946  Ry
     scf convergence threshold =      7.3E-08
     mixing beta               =       0.0500
     number of iterations used =            8  plain     mixing
     Exchange-correlation= BEEF-VDW
                           (   1   4  43  14   2   0   0)

     celldm(1)=   1.889726  celldm(2)=   0.000000  celldm(3)=   0.000000
     celldm(4)=   0.000000  celldm(5)=   0.000000  celldm(6)=   0.000000

     crystal axes: (cart. coord. in units of alat)
               a(1) = (   6.579727   0.000000   0.000000 )
               a(2) = (  -0.000775   5.961596   0.000000 )
               a(3) = (   0.000000   0.000000  25.155947 )

     reciprocal axes: (cart. coord. in units 2 pi/alat)
               b(1) = (  0.151982  0.000020  0.000000 )
               b(2) = (  0.000000  0.167740  0.000000 )
               b(3) = (  0.000000  0.000000  0.039752 )

     PseudoPot. # 1 for Ti read from file:
     /storage/coda1/p-amedford6/0/shared/rich_project_chbe-medford/medford-share/data/pseudos_module/espresso/nninc/pbe/van/Ti.UPF
     MD5 check sum: 8e4df49b7f0d34bbd5052bf3f5ea0213
     Pseudo is Ultrasoft, Zval = 12.0
     Generated by new atomic code, or converted to UPF format
     Using radial grid of  851 points,  6 beta functions with:
                l(1) =   0
                l(2) =   0
                l(3) =   1
                l(4) =   1
                l(5) =   2
                l(6) =   2
     Q(r) pseudized with  8 coefficients,  rinner =    1.000   1.000   1.000
                                                       1.000   1.000

     PseudoPot. # 2 for O  read from file:
     /storage/coda1/p-amedford6/0/shared/rich_project_chbe-medford/medford-share/data/pseudos_module/espresso/nninc/pbe/van/O.UPF
     MD5 check sum: 78c19812648e8988a0fe644b0f25305e
     Pseudo is Ultrasoft, Zval =  6.0
     Generated by new atomic code, or converted to UPF format
     Using radial grid of  737 points,  4 beta functions with:
                l(1) =   0
                l(2) =   0
                l(3) =   1
                l(4) =   1
     Q(r) pseudized with  8 coefficients,  rinner =    0.800   0.800   0.800

     PseudoPot. # 3 for N  read from file:
     /storage/coda1/p-amedford6/0/shared/rich_project_chbe-medford/medford-share/data/pseudos_module/espresso/nninc/pbe/van/N.UPF
     MD5 check sum: 90d10febe142ad51ac9d5be1deb811c4
     Pseudo is Ultrasoft, Zval =  5.0
     Generated by new atomic code, or converted to UPF format
     Using radial grid of  729 points,  4 beta functions with:
                l(1) =   0
                l(2) =   0
                l(3) =   1
                l(4) =   1
     Q(r) pseudized with  8 coefficients,  rinner =    0.800   0.800   0.800

     PseudoPot. # 4 for C  read from file:
     /storage/coda1/p-amedford6/0/shared/rich_project_chbe-medford/medford-share/data/pseudos_module/espresso/nninc/pbe/van/C.UPF
     MD5 check sum: 1a69bf6b8db32088f5b2163dbdb77a27
     Pseudo is Ultrasoft, Zval =  4.0
     Generated by new atomic code, or converted to UPF format
     Using radial grid of  721 points,  4 beta functions with:
                l(1) =   0
                l(2) =   0
                l(3) =   1
                l(4) =   1
     Q(r) pseudized with  8 coefficients,  rinner =    0.800   0.800   0.800

     PseudoPot. # 5 for H  read from file:
     /storage/coda1/p-amedford6/0/shared/rich_project_chbe-medford/medford-share/data/pseudos_module/espresso/nninc/pbe/van/H.UPF
     MD5 check sum: b5ee9d7bfd3a09ee7748110bda690ff7
     Pseudo is Ultrasoft, Zval =  1.0
     Generated by new atomic code, or converted to UPF format
     Using radial grid of  615 points,  1 beta functions with:
                l(1) =   0
     Q(r) pseudized with  8 coefficients,  rinner =    0.800

     atomic species   valence    mass     pseudopotential
        Ti1           12.00    47.86700     Ti( 1.00)
        O1             6.00    15.99900     O ( 1.00)
        N1             5.00    14.00700     N ( 1.00)
        C1             4.00    12.01100     C ( 1.00)
        H1             1.00     1.00800     H ( 1.00)

     No symmetry found

   Cartesian axes

     site n.     atom                  positions (alat units)
         1           Ti1 tau(   1) = (   0.0004258   2.9801865   6.0000000  )
         2           Ti1 tau(   2) = (   3.2906075   1.4906267   6.0002472  )
         3           O1  tau(   3) = (   0.0006271   0.0005054   7.9858123  )
         4           O1  tau(   4) = (   3.2906025   0.0005020   7.3038282  )
         5           O1  tau(   5) = (   4.5942328   1.4918067   9.2879030  )
         6           O1  tau(   6) = (   1.9868534   1.4903216   9.2879459  )
         7           Ti1 tau(   7) = (   3.2907910   2.8959150   9.1758416  )
         8           Ti1 tau(   8) = (   0.0015273   1.4827037   9.2680791  )
         9           O1  tau(   9) = (   3.2904964   5.9585769  11.3857690  )
        10           O1  tau(  10) = (   0.0116148   5.9584955  10.6183126  )
        11           O1  tau(  11) = (   1.2878431   1.4867815  12.6991744  )
        12           O1  tau(  12) = (   5.2968392   1.4897239  12.6840540  )
        13           Ti1 tau(  13) = (   0.0031652   2.9724310  12.5021289  )
        14           Ti1 tau(  14) = (   3.2974598   1.4750309  12.5411678  )
        15           O1  tau(  15) = (   6.5490940   5.8844369  14.7025010  )
        16           O1  tau(  16) = (   3.3056738   5.9474069  14.0077327  )
        17           O1  tau(  17) = (   4.5358307   1.5199601  16.1809847  )
        18           O1  tau(  18) = (   2.0145668   1.5037208  16.1256758  )
        19           Ti1 tau(  19) = (   3.2722398   2.9952086  15.7861162  )
        20           Ti1 tau(  20) = (   6.5630583   1.3046800  15.8709962  )
        21           O1  tau(  21) = (   3.2904802   0.0005063   4.7018136  )
        22           O1  tau(  22) = (   0.0019326   0.1554656  17.2922311  )
        23           O1  tau(  23) = (   1.3043587   1.4918075   6.0039043  )
        24           O1  tau(  24) = (   5.2767064   1.4903225   6.0039473  )
        25           Ti1 tau(  25) = (   0.0000382   5.9609847   6.0000000  )
        26           Ti1 tau(  26) = (   3.2902200   4.4714249   6.0002472  )
        27           O1  tau(  27) = (   0.0002396   2.9813036   7.9858123  )
        28           O1  tau(  28) = (   3.2902150   2.9813002   7.3038282  )
        29           O1  tau(  29) = (   4.5938453   4.4726049   9.2879030  )
        30           O1  tau(  30) = (   1.9864658   4.4711199   9.2879459  )
        31           Ti1 tau(  31) = (   3.2891106   5.8743827   9.1763621  )
        32           Ti1 tau(  32) = (   0.0006254   4.4649316   9.2693709  )
        33           O1  tau(  33) = (   3.2902589   2.9648534  11.3782866  )
        34           O1  tau(  34) = (   0.0092240   2.9805883  10.6323155  )
        35           O1  tau(  35) = (   1.2907939   4.4579819  12.6664495  )
        36           O1  tau(  36) = (   5.2949113   4.4550998  12.6520156  )
        37           Ti1 tau(  37) = (   0.0082621   5.9437129  12.5015890  )
        38           Ti1 tau(  38) = (   3.2989848   4.4491302  12.5337562  )
        39           O1  tau(  39) = (   6.5545586   3.0159292  14.9830317  )
        40           O1  tau(  40) = (   3.2960925   2.9977268  13.9872472  )
        41           O1  tau(  41) = (   4.5245867   4.4695491  16.2648171  )
        42           O1  tau(  42) = (   2.0004542   4.4779941  16.2115700  )
        43           Ti1 tau(  43) = (   3.2998562   0.0139781  15.8031611  )
        44           Ti1 tau(  44) = (   0.0298651   4.5190837  16.0363964  )
        45           O1  tau(  45) = (   3.2900926   2.9813045   4.7018136  )
        46           O1  tau(  46) = (   1.3039711   4.4726057   6.0039043  )
        47           O1  tau(  47) = (   5.2763189   4.4711207   6.0039473  )
        48           N1  tau(  48) = (   0.7490466   2.5008218  18.8353846  )
        49           N1  tau(  49) = (   6.4369825   3.4131575  18.1751453  )
        50           C1  tau(  50) = (   1.9829018   2.9174465  19.1941100  )
        51           H1  tau(  51) = (   2.1359794   3.9544348  19.4490303  )
        52           H1  tau(  52) = (   2.6935556   2.1521737  19.4548401  )
        53           H1  tau(  53) = (   0.6355624   1.5475814  18.4636284  )
        54           H1  tau(  54) = (   6.4936903   4.3158724  18.6411896  )
        55           H1  tau(  55) = (   5.4890587   3.0624770  18.3097170  )

     number of k points=    10  Fermi-Dirac smearing, width (Ry)=  0.0073
                       cart. coord. in units 2pi/alat
        k(    1) = (   0.0000000   0.0000000   0.0000000), wk =   0.1250000
        k(    2) = (   0.0000000   0.0419351   0.0000000), wk =   0.2500000
        k(    3) = (   0.0000000  -0.0838702   0.0000000), wk =   0.1250000
        k(    4) = (   0.0379955   0.0000049   0.0000000), wk =   0.2500000
        k(    5) = (   0.0379955   0.0419400   0.0000000), wk =   0.2500000
        k(    6) = (   0.0379955  -0.0838652   0.0000000), wk =   0.2500000
        k(    7) = (   0.0379955  -0.0419301   0.0000000), wk =   0.2500000
        k(    8) = (  -0.0759910  -0.0000099   0.0000000), wk =   0.1250000
        k(    9) = (  -0.0759910   0.0419252   0.0000000), wk =   0.2500000
        k(   10) = (  -0.0759910  -0.0838800   0.0000000), wk =   0.1250000

     Initial potential from superposition of free atoms

     starting charge  380.99914, renormalised to  397.00000

     negative rho (up, down):  1.606E-02 0.000E+00

     %%%%%%%%%%%%%%%%%%%%%%%%%%%%%%%%%%%%%%%%%%%%%%%%%%%%%%%%%%%%%%%%%%%%%%%%
     %                                                                      %
     % You are using vdW-DF, which was implemented by the Thonhauser group. %
     % Please cite the following two papers that made this development      %
     % possible and the two reviews that describe the various versions:     %
     %                                                                      %
     %   T. Thonhauser et al., PRL 115, 136402 (2015).                      %
     %   T. Thonhauser et al., PRB 76, 125112 (2007).                       %
     %   K. Berland et al., Rep. Prog. Phys. 78, 066501 (2015).             %
     %   D.C. Langreth et al., J. Phys.: Condens. Matter 21, 084203 (2009). %
     %                                                                      %
     %                                                                      %
     % If you are calculating the stress with vdW-DF, please also cite:     %
     %                                                                      %
     %   R. Sabatini et al., J. Phys.: Condens. Matter 24, 424209 (2012).   %
     %                                                                      %
     %%%%%%%%%%%%%%%%%%%%%%%%%%%%%%%%%%%%%%%%%%%%%%%%%%%%%%%%%%%%%%%%%%%%%%%%

     Adding external electric field

     Computed dipole along edir(3) :
        Dipole              -10.6762 Ry au,        -27.1361 Debye
        Dipole field         -0.0201 Ry au,

        Potential amp.        1.8676 Ry
        Total length         46.3494 bohr

     Starting wfcs are  301 atomic wfcs
  @ DRIVER MODE: Message from server: STATUS
  @ DRIVER MODE: Message from server: POSDATA
  @ DRIVER MODE: Reading and sharing cell
  @ DRIVER MODE: Reading and sharing positions
  @ DRIVER MODE: Received positions

     Self-consistent Calculation

     iteration #  1     ecut=    29.40 Ry     beta= 0.05
     Davidson diagonalization with overlap
     c_bands:  2 eigenvalues not converged
     c_bands:  3 eigenvalues not converged
     c_bands:  3 eigenvalues not converged
     c_bands:  4 eigenvalues not converged
     c_bands:  4 eigenvalues not converged
     c_bands:  4 eigenvalues not converged
     c_bands:  1 eigenvalues not converged
     c_bands:  2 eigenvalues not converged
     c_bands:  2 eigenvalues not converged
     ethr =  1.00E-05,  avg # of iterations = 20.0

[...]

     total energy              =   -2465.29377209 Ry
     estimated scf accuracy    <    5331.47538281 Ry

     iteration #  2     ecut=    29.40 Ry     beta= 0.05
     Davidson diagonalization with overlap
     ethr =  1.00E-02,  avg # of iterations = 23.6

[...]

     iteration # 75     ecut=    29.40 Ry     beta= 0.05
     Davidson diagonalization with overlap
     ethr =  2.62E-11,  avg # of iterations = 12.5

[...]

     total energy              =   -2941.51055869 Ry
     estimated scf accuracy    <       0.00000013 Ry

     iteration # 76     ecut=    29.40 Ry     beta= 0.05
     Davidson diagonalization with overlap
     c_bands:  1 eigenvalues not converged
     ethr =  2.62E-11,  avg # of iterations = 11.4

     negative rho (up, down):  1.516E-02 0.000E+00

     Adding external electric field

     Computed dipole along edir(3) :
        Dipole                1.2039 Ry au,          3.0600 Debye
        Dipole field          0.0023 Ry au,

        Potential amp.       -0.2106 Ry
        Total length         46.3494 bohr

     End of self-consistent calculation

          k = 0.0000 0.0000 0.0000 ( 18029 PWs)   bands (ev):

   -55.3827 -55.3458 -55.3370 -55.3029 -55.2642 -55.2584 -55.2296 -55.2112
   -55.1870 -55.1846 -55.1769 -55.1675 -55.1338 -55.0330 -54.3703 -54.3362
   -31.9455 -31.8303 -31.7780 -31.7516 -31.7003 -31.6900 -31.6842 -31.6740
   -31.6256 -31.6173 -31.5948 -31.5816 -31.5723 -31.5483 -31.5417 -31.5348
   -31.5224 -31.5064 -31.5050 -31.4897 -31.4888 -31.4526 -31.4516 -31.4416
   -31.4415 -31.4135 -31.3947 -31.3942 -31.3939 -31.3891 -31.3734 -31.3663
   -31.3653 -31.3591 -31.3590 -31.3566 -31.3245 -31.3003 -31.2953 -31.2789
   -31.2479 -31.2032 -30.7798 -30.6852 -30.6631 -30.5961 -30.5093 -30.3984
   -18.9019 -16.2150 -15.9615 -15.8145 -15.7069 -15.5893 -15.4806 -15.4257
   -15.3195 -15.2480 -15.1348 -15.0850 -15.0686 -15.0366 -15.0274 -15.0153
   -14.9356 -14.9291 -14.9114 -14.8883 -14.8827 -14.8406 -14.8290 -14.7881
   -14.7632 -14.7580 -14.6358 -14.5498 -14.4752 -14.3359 -14.3151 -12.8728
   -12.7553  -9.8688  -7.4668  -6.2878  -5.0036  -4.0136  -3.5987  -3.5473
    -3.4085  -3.3003  -3.2796  -3.2428  -3.1430  -2.9624  -2.8257  -2.7927
    -2.6761  -2.5955  -2.5822  -2.5517  -2.4267  -2.3896  -2.3511  -2.2863
    -2.2566  -2.1940  -2.1753  -2.1640  -2.1449  -2.1208  -2.0960  -1.9960
    -1.9564  -1.8605  -1.8210  -1.7872  -1.7461  -1.7289  -1.7089  -1.6780
    -1.6679  -1.6136  -1.6002  -1.5859  -1.5370  -1.4192  -1.2982  -1.2648
    -1.1765  -1.0283  -0.9912  -0.9708  -0.9145  -0.8785  -0.8564  -0.8262
    -0.7652  -0.7260  -0.6675  -0.6091  -0.5417  -0.4970  -0.4498  -0.4132
    -0.3783  -0.2937  -0.2129  -0.1680  -0.1549  -0.1382  -0.0384  -0.0022
     0.0519   0.1291   0.1309   0.1432   0.1855   0.2682   0.3454   0.3622
     0.3862   0.4913   0.4961   0.5389   0.5415   0.5616   0.5958   0.6299
     0.6806   0.7077   0.7949   0.8915   1.1169   1.2184   1.2220   1.5454
     1.5563   1.6526   1.8356   2.2291   2.2775   3.7092   3.7796   3.8010
     3.8570   3.8600   3.9298   3.9464   4.1921   4.2176   4.2181   4.2372

[...]

          k = 0.0380-0.0419 0.0000 ( 17876 PWs)   bands (ev):

[...]

          k =-0.0760-0.0000 0.0000 ( 17886 PWs)   bands (ev):

[...]

          k =-0.0760-0.0839 0.0000 ( 17948 PWs)   bands (ev):

   -55.3686 -55.3596 -55.3200 -55.3197 -55.2540 -55.2491 -55.2447 -55.1955
   -55.1922 -55.1899 -55.1836 -55.1511 -55.1503 -55.0352 -54.3533 -54.3530
   -31.7546 -31.7456 -31.6869 -31.6624 -31.6454 -31.6453 -31.6271 -31.6109
   -31.6108 -31.5942 -31.5863 -31.5781 -31.5627 -31.5307 -31.5285 -31.5241
   -31.5236 -31.5225 -31.5110 -31.5068 -31.4775 -31.4654 -31.4614 -31.4517
   -31.4461 -31.4422 -31.4398 -31.4395 -31.4365 -31.4279 -31.4252 -31.4082
   -31.4073 -31.4047 -31.3853 -31.3834 -31.3833 -31.3739 -31.3316 -31.3307
   -31.2974 -31.2497 -30.6759 -30.6757 -30.5924 -30.5921 -30.5528 -30.5527
   -18.8957 -15.7669 -15.5977 -15.5786 -15.4342 -15.3980 -15.3552 -15.3443
   -15.2504 -15.2155 -15.1891 -15.1582 -15.1370 -15.1017 -15.0879 -15.0717
   -15.0139 -14.9915 -14.9859 -14.9660 -14.9068 -14.9024 -14.8948 -14.8919
   -14.8372 -14.8340 -14.8260 -14.7434 -14.7405 -14.6349 -14.2560 -12.8568
   -12.8568  -9.8384  -7.4266  -6.2850  -5.1012  -3.9568  -3.6235  -2.8550
    -2.8488  -2.8354  -2.6503  -2.5674  -2.5448  -2.5394  -2.4494  -2.4119
    -2.3669  -2.3643  -2.3113  -2.3048  -2.2775  -2.2369  -2.2254  -2.2054
    -2.1867  -2.1780  -2.1423  -2.1189  -2.1090  -2.0792  -2.0482  -2.0324
    -2.0244  -2.0028  -1.9721  -1.9526  -1.9406  -1.8873  -1.7754  -1.7601
    -1.6651  -1.5980  -1.5937  -1.5203  -1.4963  -1.4543  -1.4464  -1.4216
    -1.3767  -1.1980  -1.1662  -1.1350  -1.1272  -1.0418  -0.9893  -0.9182
    -0.9127  -0.8865  -0.8530  -0.7585  -0.7217  -0.7023  -0.6269  -0.6032
    -0.5366  -0.4941  -0.4292  -0.3986  -0.3444  -0.3425  -0.3072  -0.2937
    -0.2721  -0.2048  -0.1585  -0.1242  -0.1119  -0.0801   0.1169   0.1263
     0.1418   0.2502   0.2957   0.4427   0.4576   0.5204   0.6264   0.6524
     0.7227   0.7476   0.9037   0.9159   0.9297   0.9844   0.9925   1.0622
     1.0716   2.0086   2.0091   2.0973   2.0976   3.6781   3.8959   3.9672
     3.9824   4.0152   4.1398   4.2085   4.2268   4.2950   4.2977   4.3275

     the Fermi energy is     3.7751 ev

!    total energy              =   -2941.51057593 Ry
     estimated scf accuracy    <       0.00000004 Ry
     smearing contrib. (-TS)   =      -0.04442282 Ry
     internal energy E=F+TS    =   -2941.46615310 Ry

     The total energy is F=E-TS. E is the sum of the following terms:
     one-electron contribution =  -23634.23932139 Ry
     hartree contribution      =   11909.40340530 Ry
     xc contribution           =    -486.89034630 Ry
     ewald contribution        =    9270.25737408 Ry
     electric field correction =       0.00273521 Ry

     convergence has been achieved in  76 iterations

     Forces acting on atoms (cartesian axes, Ry/au):

     atom    1 type  1   force =     0.00013226   -0.00018250    0.09303765
     atom    2 type  1   force =    -0.00008749   -0.00045728   -0.17841567
     atom    3 type  2   force =     0.00004631   -0.00037155   -0.02006963
     atom    4 type  2   force =    -0.00000885   -0.00201820    0.05932668
     atom    5 type  2   force =    -0.01031142   -0.00098569    0.00818149
     atom    6 type  2   force =     0.01174160   -0.00038672    0.00732363
     atom    7 type  1   force =    -0.00038085    0.00239624   -0.01417849
     atom    8 type  1   force =     0.00023255   -0.00124294   -0.00618885
     atom    9 type  2   force =    -0.00023250    0.00021923    0.00013775
     atom   10 type  2   force =    -0.00162537    0.00148487    0.00164013
     atom   11 type  2   force =    -0.00005934   -0.00015865    0.00009393
     atom   12 type  2   force =    -0.00016716   -0.00015884   -0.00001626
     atom   13 type  1   force =     0.00007111   -0.00027843    0.00004249
     atom   14 type  1   force =     0.00017756    0.00019980    0.00027674
     atom   15 type  2   force =    -0.00008050    0.00026453   -0.00028445
     atom   16 type  2   force =     0.00017210   -0.00021761    0.00013243
     atom   17 type  2   force =    -0.00001076   -0.00001788    0.00044146
     atom   18 type  2   force =    -0.00027503   -0.00004340   -0.00013310
     atom   19 type  1   force =    -0.00009056   -0.00010893    0.00019036
     atom   20 type  1   force =    -0.00015436    0.00015780    0.00004030
     atom   21 type  2   force =     0.00006018   -0.00008479    0.10398700
     atom   22 type  2   force =     0.00010421   -0.00035456   -0.00010358
     atom   23 type  2   force =    -0.07032764   -0.00017241   -0.02687135
     atom   24 type  2   force =     0.07021539    0.00027210   -0.02689776
     atom   25 type  1   force =    -0.00001621   -0.00014440    0.09260564
     atom   26 type  1   force =    -0.00006027   -0.00039043   -0.17856852
     atom   27 type  2   force =     0.00009450   -0.00030206   -0.01916008
     atom   28 type  2   force =     0.00003904   -0.00178528    0.05866954
     atom   29 type  2   force =    -0.01080816   -0.00126277    0.00872681
     atom   30 type  2   force =     0.01215995   -0.00086222    0.00782884
     atom   31 type  1   force =    -0.00028567    0.00613523   -0.01441550
     atom   32 type  1   force =     0.00028674    0.00070461   -0.00651153
     atom   33 type  2   force =    -0.00022695   -0.00025204   -0.00000027
     atom   34 type  2   force =    -0.00093584   -0.00222870   -0.00015792
     atom   35 type  2   force =    -0.00041463    0.00023096    0.00014479
     atom   36 type  2   force =     0.00012350    0.00019022   -0.00027834
     atom   37 type  1   force =     0.00017359   -0.00000775    0.00003695
     atom   38 type  1   force =     0.00032420    0.00018955    0.00008366
     atom   39 type  2   force =    -0.00025273    0.00008502   -0.00025090
     atom   40 type  2   force =    -0.00009371   -0.00015768   -0.00006598
     atom   41 type  2   force =    -0.00002480    0.00031376    0.00005299
     atom   42 type  2   force =    -0.00026792    0.00008866    0.00009121
     atom   43 type  1   force =     0.00044861    0.00000536    0.00017682
     atom   44 type  1   force =     0.00009749   -0.00025450   -0.00070499
     atom   45 type  2   force =     0.00004560   -0.00008896    0.10397575
     atom   46 type  2   force =    -0.07030621   -0.00010337   -0.02682969
     atom   47 type  2   force =     0.07018256    0.00031202   -0.02686505
     atom   48 type  3   force =     0.00107837    0.00085849    0.00040023
     atom   49 type  3   force =    -0.00042620   -0.00711554   -0.00467029
     atom   50 type  4   force =    -0.00076414    0.00027445   -0.00110348
     atom   51 type  5   force =     0.00043546   -0.00100341    0.00014477
     atom   52 type  5   force =     0.00034130    0.00044037    0.00013008
     atom   53 type  5   force =    -0.00050699    0.00149323    0.00014234
     atom   54 type  5   force =     0.00082604    0.00691132    0.00473064
     atom   55 type  5   force =    -0.00040791   -0.00002835   -0.00005146

     Total force =     0.366634     Total SCF correction =     0.000533
  @ DRIVER MODE: Message from server: STATUS
  @ DRIVER MODE: Message from server: GETFORCE
  @ DRIVER MODE: Returning v,forces,stress,ensemble

     Writing output data file ./calc.save/
  @ DRIVER MODE: Message from server: EXIT
  @ DRIVE MODE: Exiting

     General routines

     Parallel routines

   This run was terminated on:   8:58:47  11Sep2021

   JOB DONE.