     Program PWSCF v.6.7GPU starts on  9Sep2021 at 13:45:28

     R & G space division:  proc/nbgrp/npool/nimage =      10
     Reading input from /storage/home/hcoda1/3/ntian30/research/carbon/CxH_vib/CH3_calc/ads_slab/CH3NHNH2_a/out_0049/pw.inp
Warning: card &CELL ignored
Warning: card   CELL_DYNAMICS='IPI', ignored
Warning: card / ignored

     Current dimensions of program PWSCF are:
     Max number of different atomic species (ntypx) = 10
     Max number of k-points (npk) =  40000
     Max angular momentum in pseudopotentials (lmaxx) =  3
     Presently no symmetry can be used with electric field

     Message from routine cell_base_init:
     DEPRECATED: use true lattice parameter, not A to a.u. conversion factor

     IMPORTANT: XC functional enforced from input :
     Exchange-correlation= BEEF-VDW
                           (   1   4  43  14   2   0   0)
     Any further DFT definition will be discarded
     Please, verify this is what you really want

  @ DRIVER MODE: Connecting to
 qe_1139763_2767398.sched-torque.pace.gatech.edu2i4lo1_j_scratch
  using UNIX socket
  @ DRIVER MODE: Message from server: STATUS
  @ DRIVER MODE: Message from server: INIT
  @ DRIVER MODE: Receiving replica           0          -1
  @ DRIVER MODE: Receiving encoded integer          25
  @ DRIVER MODE:  SCF:  T  FORCE:  T  STRESS:  F  VC:  F  ENSEMBLE:  F
  @ DRIVER MODE:  SCF:  T  FORCE:  T  STRESS:  F  VC:  F  ENSEMBLE:  F

     Using Slab Decomposition

     bravais-lattice index     =            0
     lattice parameter (alat)  =       1.8897  a.u.
     unit-cell volume          =    6658.9804 (a.u.)^3
     number of atoms/cell      =           56
     number of atomic types    =            5
     number of electrons       =       398.00
     number of Kohn-Sham states=          209
     kinetic-energy cutoff     =      29.3995  Ry
     charge density cutoff     =     293.9946  Ry
     scf convergence threshold =      7.3E-08
     mixing beta               =       0.0500
     number of iterations used =            8  plain     mixing
     Exchange-correlation= BEEF-VDW
                           (   1   4  43  14   2   0   0)

     celldm(1)=   1.889726  celldm(2)=   0.000000  celldm(3)=   0.000000
     celldm(4)=   0.000000  celldm(5)=   0.000000  celldm(6)=   0.000000

     crystal axes: (cart. coord. in units of alat)
               a(1) = (   6.579727   0.000000   0.000000 )
               a(2) = (  -0.000775   5.961596   0.000000 )
               a(3) = (   0.000000   0.000000  25.155947 )

     reciprocal axes: (cart. coord. in units 2 pi/alat)
               b(1) = (  0.151982  0.000020  0.000000 )
               b(2) = (  0.000000  0.167740  0.000000 )
               b(3) = (  0.000000  0.000000  0.039752 )

     PseudoPot. # 1 for Ti read from file:
     /storage/coda1/p-amedford6/0/shared/rich_project_chbe-medford/medford-share/data/pseudos_module/espresso/nninc/pbe/van/Ti.UPF
     MD5 check sum: 8e4df49b7f0d34bbd5052bf3f5ea0213
     Pseudo is Ultrasoft, Zval = 12.0
     Generated by new atomic code, or converted to UPF format
     Using radial grid of  851 points,  6 beta functions with:
                l(1) =   0
                l(2) =   0
                l(3) =   1
                l(4) =   1
                l(5) =   2
                l(6) =   2
     Q(r) pseudized with  8 coefficients,  rinner =    1.000   1.000   1.000
                                                       1.000   1.000

     PseudoPot. # 2 for O  read from file:
     /storage/coda1/p-amedford6/0/shared/rich_project_chbe-medford/medford-share/data/pseudos_module/espresso/nninc/pbe/van/O.UPF
     MD5 check sum: 78c19812648e8988a0fe644b0f25305e
     Pseudo is Ultrasoft, Zval =  6.0
     Generated by new atomic code, or converted to UPF format
     Using radial grid of  737 points,  4 beta functions with:
                l(1) =   0
                l(2) =   0
                l(3) =   1
                l(4) =   1
     Q(r) pseudized with  8 coefficients,  rinner =    0.800   0.800   0.800

     PseudoPot. # 3 for N  read from file:
     /storage/coda1/p-amedford6/0/shared/rich_project_chbe-medford/medford-share/data/pseudos_module/espresso/nninc/pbe/van/N.UPF
     MD5 check sum: 90d10febe142ad51ac9d5be1deb811c4
     Pseudo is Ultrasoft, Zval =  5.0
     Generated by new atomic code, or converted to UPF format
     Using radial grid of  729 points,  4 beta functions with:
                l(1) =   0
                l(2) =   0
                l(3) =   1
                l(4) =   1
     Q(r) pseudized with  8 coefficients,  rinner =    0.800   0.800   0.800

     PseudoPot. # 4 for C  read from file:
     /storage/coda1/p-amedford6/0/shared/rich_project_chbe-medford/medford-share/data/pseudos_module/espresso/nninc/pbe/van/C.UPF
     MD5 check sum: 1a69bf6b8db32088f5b2163dbdb77a27
     Pseudo is Ultrasoft, Zval =  4.0
     Generated by new atomic code, or converted to UPF format
     Using radial grid of  721 points,  4 beta functions with:
                l(1) =   0
                l(2) =   0
                l(3) =   1
                l(4) =   1
     Q(r) pseudized with  8 coefficients,  rinner =    0.800   0.800   0.800

     PseudoPot. # 5 for H  read from file:
     /storage/coda1/p-amedford6/0/shared/rich_project_chbe-medford/medford-share/data/pseudos_module/espresso/nninc/pbe/van/H.UPF
     MD5 check sum: b5ee9d7bfd3a09ee7748110bda690ff7
     Pseudo is Ultrasoft, Zval =  1.0
     Generated by new atomic code, or converted to UPF format
     Using radial grid of  615 points,  1 beta functions with:
                l(1) =   0
     Q(r) pseudized with  8 coefficients,  rinner =    0.800

     atomic species   valence    mass     pseudopotential
        Ti1           12.00    47.86700     Ti( 1.00)
        O1             6.00    15.99900     O ( 1.00)
        N1             5.00    14.00700     N ( 1.00)
        C1             4.00    12.01100     C ( 1.00)
        H1             1.00     1.00800     H ( 1.00)

     No symmetry found

   Cartesian axes

     site n.     atom                  positions (alat units)
         1           Ti1 tau(   1) = (   0.0004258   2.9801865   6.0000000  )
         2           Ti1 tau(   2) = (   3.2906075   1.4906267   6.0002472  )
         3           O1  tau(   3) = (   0.0006271   0.0005054   7.9858123  )
         4           O1  tau(   4) = (   3.2906025   0.0005020   7.3038282  )
         5           O1  tau(   5) = (   4.5942328   1.4918067   9.2879030  )
         6           O1  tau(   6) = (   1.9868534   1.4903216   9.2879459  )
         7           Ti1 tau(   7) = (   3.2907910   2.8959150   9.1758416  )
         8           Ti1 tau(   8) = (   0.0015273   1.4827037   9.2680791  )
         9           O1  tau(   9) = (   3.2714441   0.0289406  11.3813764  )
        10           O1  tau(  10) = (   0.0116148   5.9584955  10.6183126  )
        11           O1  tau(  11) = (   1.2692032   1.5162281  12.7122965  )
        12           O1  tau(  12) = (   5.2779133   1.5159715  12.6811497  )
        13           Ti1 tau(  13) = (   6.5579218   3.0031650  12.5037829  )
        14           Ti1 tau(  14) = (   3.2791490   1.5128154  12.5375672  )
        15           O1  tau(  15) = (   6.5208524   5.8954130  14.6845636  )
        16           O1  tau(  16) = (   3.2849572   0.0099931  14.0031570  )
        17           O1  tau(  17) = (   4.4884262   1.5607690  16.1641467  )
        18           O1  tau(  18) = (   1.9729656   1.5430890  16.0903287  )
        19           Ti1 tau(  19) = (   3.2372663   3.0309179  15.7728032  )
        20           Ti1 tau(  20) = (   6.5553692   1.3539605  15.8053163  )
        21           O1  tau(  21) = (   3.2904802   0.0005063   4.7018136  )
        22           O1  tau(  22) = (   6.5123495   0.2165906  17.2215032  )
        23           O1  tau(  23) = (   1.3043587   1.4918075   6.0039043  )
        24           O1  tau(  24) = (   5.2767064   1.4903225   6.0039473  )
        25           Ti1 tau(  25) = (   0.0000382   5.9609847   6.0000000  )
        26           Ti1 tau(  26) = (   3.2902200   4.4714249   6.0002472  )
        27           O1  tau(  27) = (   0.0002396   2.9813036   7.9858123  )
        28           O1  tau(  28) = (   3.2902150   2.9813002   7.3038282  )
        29           O1  tau(  29) = (   4.5938453   4.4726049   9.2879030  )
        30           O1  tau(  30) = (   1.9864658   4.4711199   9.2879459  )
        31           Ti1 tau(  31) = (   3.2891106   5.8743827   9.1763621  )
        32           Ti1 tau(  32) = (   0.0006254   4.4649316   9.2693709  )
        33           O1  tau(  33) = (   3.2699379   2.9911670  11.3762017  )
        34           O1  tau(  34) = (   0.0092240   2.9805883  10.6323155  )
        35           O1  tau(  35) = (   1.2730946   4.4825978  12.6662957  )
        36           O1  tau(  36) = (   5.2742290   4.4829497  12.6320226  )
        37           Ti1 tau(  37) = (   6.5783117   0.0079037  12.5026730  )
        38           Ti1 tau(  38) = (   3.2784283   4.4905194  12.5286134  )
        39           O1  tau(  39) = (   6.5033290   3.0824797  14.9867588  )
        40           O1  tau(  40) = (   3.2824109   3.0350539  13.9807796  )
        41           O1  tau(  41) = (   4.4804250   4.5097483  16.2808085  )
        42           O1  tau(  42) = (   1.9642025   4.5165872  16.2225063  )
        43           Ti1 tau(  43) = (   3.2609991   0.0502580  15.7998297  )
        44           Ti1 tau(  44) = (   6.5501253   4.5826093  16.0954727  )
        45           O1  tau(  45) = (   3.2900926   2.9813045   4.7018136  )
        46           O1  tau(  46) = (   1.3039711   4.4726057   6.0039043  )
        47           O1  tau(  47) = (   5.2763189   4.4711207   6.0039473  )
        48           N1  tau(  48) = (   0.8845045   3.2634721  19.1145209  )
        49           N1  tau(  49) = (   6.3504243   3.3997271  18.1887592  )
        50           C1  tau(  50) = (   1.2927081   4.5631590  19.6429350  )
        51           H1  tau(  51) = (   0.4658632   5.1229972  20.1056819  )
        52           H1  tau(  52) = (   2.0600825   4.3818216  20.3958833  )
        53           H1  tau(  53) = (   1.7018904   5.1738364  18.8453250  )
        54           H1  tau(  54) = (   0.5628611   2.6866381  19.8888112  )
        55           H1  tau(  55) = (   5.6051421   3.9827062  18.5884547  )
        56           H1  tau(  56) = (   5.9467982   2.4624696  18.0937858  )

     number of k points=    10  Fermi-Dirac smearing, width (Ry)=  0.0073
                       cart. coord. in units 2pi/alat
        k(    1) = (   0.0000000   0.0000000   0.0000000), wk =   0.1250000
        k(    2) = (   0.0000000   0.0419351   0.0000000), wk =   0.2500000
        k(    3) = (   0.0000000  -0.0838702   0.0000000), wk =   0.1250000
        k(    4) = (   0.0379955   0.0000049   0.0000000), wk =   0.2500000
        k(    5) = (   0.0379955   0.0419400   0.0000000), wk =   0.2500000
        k(    6) = (   0.0379955  -0.0838652   0.0000000), wk =   0.2500000
        k(    7) = (   0.0379955  -0.0419301   0.0000000), wk =   0.2500000
        k(    8) = (  -0.0759910  -0.0000099   0.0000000), wk =   0.1250000
        k(    9) = (  -0.0759910   0.0419252   0.0000000), wk =   0.2500000
        k(   10) = (  -0.0759910  -0.0838800   0.0000000), wk =   0.1250000

     Initial potential from superposition of free atoms

     starting charge  381.99914, renormalised to  398.00000

     negative rho (up, down):  1.416E-02 0.000E+00

     %%%%%%%%%%%%%%%%%%%%%%%%%%%%%%%%%%%%%%%%%%%%%%%%%%%%%%%%%%%%%%%%%%%%%%%%
     %                                                                      %
     % You are using vdW-DF, which was implemented by the Thonhauser group. %
     % Please cite the following two papers that made this development      %
     % possible and the two reviews that describe the various versions:     %
     %                                                                      %
     %   T. Thonhauser et al., PRL 115, 136402 (2015).                      %
     %   T. Thonhauser et al., PRB 76, 125112 (2007).                       %
     %   K. Berland et al., Rep. Prog. Phys. 78, 066501 (2015).             %
     %   D.C. Langreth et al., J. Phys.: Condens. Matter 21, 084203 (2009). %
     %                                                                      %
     %                                                                      %
     % If you are calculating the stress with vdW-DF, please also cite:     %
     %                                                                      %
     %   R. Sabatini et al., J. Phys.: Condens. Matter 24, 424209 (2012).   %
     %                                                                      %
     %%%%%%%%%%%%%%%%%%%%%%%%%%%%%%%%%%%%%%%%%%%%%%%%%%%%%%%%%%%%%%%%%%%%%%%%

     Adding external electric field

     Computed dipole along edir(3) :
        Dipole              -11.7171 Ry au,        -29.7818 Debye
        Dipole field         -0.0221 Ry au,

        Potential amp.        2.0497 Ry
        Total length         46.3494 bohr

     Starting wfcs are  302 atomic wfcs
  @ DRIVER MODE: Message from server: STATUS
  @ DRIVER MODE: Message from server: POSDATA
  @ DRIVER MODE: Reading and sharing cell
  @ DRIVER MODE: Reading and sharing positions
  @ DRIVER MODE: Received positions

     Self-consistent Calculation

     iteration #  1     ecut=    29.40 Ry     beta= 0.05
     Davidson diagonalization with overlap
     c_bands:  3 eigenvalues not converged
     c_bands:  1 eigenvalues not converged
     c_bands:  1 eigenvalues not converged
     c_bands:  4 eigenvalues not converged
     c_bands:  1 eigenvalues not converged
     c_bands:  4 eigenvalues not converged
     c_bands:  5 eigenvalues not converged
     c_bands:  2 eigenvalues not converged
     ethr =  1.00E-05,  avg # of iterations = 21.9

[...]

     total energy              =   -2424.46812786 Ry
     estimated scf accuracy    <    5831.33936990 Ry

     iteration #  2     ecut=    29.40 Ry     beta= 0.05
     Davidson diagonalization with overlap
     ethr =  1.00E-02,  avg # of iterations = 22.8

[...]

     iteration # 76     ecut=    29.40 Ry     beta= 0.05
     Davidson diagonalization with overlap
     ethr =  3.69E-11,  avg # of iterations = 10.6

[...]

     total energy              =   -2942.84390333 Ry
     estimated scf accuracy    <       0.00000010 Ry

     iteration # 77     ecut=    29.40 Ry     beta= 0.05
     Davidson diagonalization with overlap
     c_bands:  1 eigenvalues not converged
     ethr =  2.41E-11,  avg # of iterations = 11.5

     negative rho (up, down):  1.512E-02 0.000E+00

     Adding external electric field

     Computed dipole along edir(3) :
        Dipole                1.4956 Ry au,          3.8015 Debye
        Dipole field          0.0028 Ry au,

        Potential amp.       -0.2616 Ry
        Total length         46.3494 bohr

     End of self-consistent calculation

          k = 0.0000 0.0000 0.0000 ( 18029 PWs)   bands (ev):

   -55.2014 -55.1642 -55.1536 -55.1247 -55.1195 -55.0828 -55.0798 -55.0450
   -55.0256 -55.0126 -54.9912 -54.9863 -54.9526 -54.8557 -54.1860 -54.1519
   -31.7677 -31.6513 -31.6466 -31.5679 -31.5148 -31.5138 -31.5110 -31.4924
   -31.4426 -31.4390 -31.4111 -31.4090 -31.3986 -31.3816 -31.3686 -31.3630
   -31.3558 -31.3462 -31.3388 -31.3219 -31.3062 -31.3035 -31.2717 -31.2679
   -31.2574 -31.2563 -31.2374 -31.2282 -31.2108 -31.2103 -31.2058 -31.1852
   -31.1851 -31.1818 -31.1748 -31.1722 -31.1390 -31.1294 -31.1146 -31.0977
   -31.0690 -31.0495 -30.5955 -30.5008 -30.4788 -30.4118 -30.3250 -30.2142
   -17.9518 -16.0348 -15.7725 -15.6271 -15.5150 -15.4037 -15.2841 -15.2533
   -15.1336 -15.0576 -14.9233 -14.8970 -14.8747 -14.8513 -14.8394 -14.8273
   -14.7509 -14.7445 -14.7286 -14.7003 -14.6983 -14.6532 -14.6434 -14.6039
   -14.5790 -14.5579 -14.4532 -14.3649 -14.2910 -14.0733 -13.4349 -12.6887
   -12.5712  -9.7099  -6.5924  -6.0654  -4.5912  -3.3733  -3.2544  -3.2252
    -3.1381  -3.1043  -3.0958  -3.0028  -2.9501  -2.7917  -2.6491  -2.6234
    -2.4926  -2.4176  -2.4011  -2.3768  -2.2469  -2.2119  -2.1605  -2.1219
    -2.0624  -2.0322  -2.0082  -1.9925  -1.9614  -1.9523  -1.9272  -1.8375
    -1.7787  -1.6858  -1.6684  -1.6011  -1.5930  -1.5603  -1.5392  -1.4939
    -1.4836  -1.4341  -1.4267  -1.4142  -1.3942  -1.2657  -1.2227  -1.1129
    -1.0516  -0.9640  -0.8432  -0.8031  -0.7892  -0.6983  -0.6895  -0.6578
    -0.5811  -0.5777  -0.5472  -0.4390  -0.3740  -0.3104  -0.2516  -0.2247
    -0.1920  -0.1146  -0.0235   0.0124   0.0291   0.0523   0.1523   0.1874
     0.2430   0.3099   0.3214   0.3347   0.4146   0.4555   0.5307   0.5672
     0.5852   0.6737   0.7002   0.7279   0.7284   0.7663   0.7805   0.8203
     0.8689   0.8956   0.9821   1.0449   1.1032   1.3481   1.4006   1.4064
     1.7326   1.7403   1.8367   2.0202   2.4132   2.4616   3.8950   3.9638
     4.0395   4.0445   4.0669   4.1307   4.3687   4.3918   4.4007   4.4029
     4.4295

[...]

          k = 0.0380-0.0419 0.0000 ( 17876 PWs)   bands (ev):

[...]

          k =-0.0760-0.0000 0.0000 ( 17886 PWs)   bands (ev):

[...]

          k =-0.0760-0.0839 0.0000 ( 17948 PWs)   bands (ev):

   -55.1876 -55.1778 -55.1367 -55.1362 -55.1234 -55.0785 -55.0654 -55.0594
   -55.0169 -55.0097 -55.0066 -54.9698 -54.9693 -54.8568 -54.1689 -54.1689
   -31.5758 -31.5748 -31.5681 -31.4835 -31.4618 -31.4615 -31.4585 -31.4279
   -31.4277 -31.4124 -31.4016 -31.3999 -31.3912 -31.3654 -31.3562 -31.3433
   -31.3422 -31.3384 -31.3352 -31.3296 -31.3276 -31.3217 -31.2826 -31.2794
   -31.2792 -31.2778 -31.2598 -31.2588 -31.2564 -31.2559 -31.2515 -31.2427
   -31.2398 -31.2228 -31.2195 -31.2036 -31.2028 -31.1999 -31.1505 -31.1501
   -31.1254 -31.0735 -30.4915 -30.4914 -30.4081 -30.4080 -30.3685 -30.3683
   -17.9486 -15.5596 -15.4299 -15.4008 -15.2444 -15.2082 -15.1749 -15.1615
   -15.0405 -15.0036 -14.9785 -14.9694 -14.9518 -14.9112 -14.9056 -14.8987
   -14.8282 -14.8090 -14.8047 -14.7824 -14.7242 -14.7153 -14.7113 -14.7038
   -14.6532 -14.6496 -14.5687 -14.5588 -14.5555 -14.3746 -13.4383 -12.6726
   -12.6726  -9.7260  -6.5774  -6.0647  -4.5702  -3.2258  -2.9597  -2.6923
    -2.6873  -2.6594  -2.4583  -2.3956  -2.3649  -2.3593  -2.2620  -2.2255
    -2.2010  -2.1975  -2.1320  -2.1174  -2.0866  -2.0566  -2.0404  -2.0266
    -2.0109  -1.9967  -1.9712  -1.9338  -1.9257  -1.9175  -1.8852  -1.8639
    -1.8409  -1.8186  -1.8051  -1.7867  -1.7607  -1.7380  -1.6015  -1.5699
    -1.4996  -1.4566  -1.4131  -1.4088  -1.3371  -1.3006  -1.2505  -1.2383
    -1.2212  -1.0811  -1.0230  -0.9722  -0.9522  -0.9412  -0.8122  -0.7981
    -0.7249  -0.7074  -0.6912  -0.6157  -0.5656  -0.5273  -0.5137  -0.4205
    -0.4050  -0.3386  -0.2365  -0.2138  -0.1999  -0.1592  -0.1562  -0.1090
    -0.1019  -0.0178   0.0265   0.0615   0.0723   0.1081   0.3012   0.3170
     0.3272   0.4802   0.4964   0.6375   0.6811   0.7478   0.8064   0.8454
     0.9070   0.9443   1.0550   1.0871   1.1020   1.1102   1.1718   1.1837
     1.2465   1.2572   2.1928   2.1934   2.2814   2.2817   4.0410   4.1483
     4.1560   4.1976   4.3175   4.3481   4.4100   4.4373   4.4789   4.4821
     4.5425

     the Fermi energy is     3.9584 ev

!    total energy              =   -2942.84391795 Ry
     estimated scf accuracy    <       0.00000006 Ry
     smearing contrib. (-TS)   =      -0.03707498 Ry
     internal energy E=F+TS    =   -2942.80684297 Ry

     The total energy is F=E-TS. E is the sum of the following terms:
     one-electron contribution =  -23366.62942001 Ry
     hartree contribution      =   11777.49246724 Ry
     xc contribution           =    -487.73721320 Ry
     ewald contribution        =    9134.06310176 Ry
     electric field correction =       0.00422125 Ry

     convergence has been achieved in  77 iterations

     Forces acting on atoms (cartesian axes, Ry/au):

     atom    1 type  1   force =     0.00017604   -0.00033562    0.09331142
     atom    2 type  1   force =    -0.00006203   -0.00042316   -0.17820663
     atom    3 type  2   force =     0.00002677   -0.00031838   -0.02003176
     atom    4 type  2   force =     0.00002135   -0.00182411    0.05924502
     atom    5 type  2   force =    -0.01046616   -0.00026431    0.00863146
     atom    6 type  2   force =     0.01147972    0.00040737    0.00644467
     atom    7 type  1   force =    -0.00099932    0.00212553   -0.01399935
     atom    8 type  1   force =     0.00081727   -0.00094661   -0.00574427
     atom    9 type  2   force =    -0.00010071    0.00012370   -0.00001525
     atom   10 type  2   force =    -0.00185446    0.00411677    0.00025532
     atom   11 type  2   force =    -0.00006905   -0.00064255    0.00027646
     atom   12 type  2   force =    -0.00000920   -0.00041282    0.00053422
     atom   13 type  1   force =     0.00004199    0.00009606    0.00033670
     atom   14 type  1   force =    -0.00037791    0.00000295    0.00008145
     atom   15 type  2   force =     0.00051545    0.00021710   -0.00035441
     atom   16 type  2   force =     0.00032568   -0.00035133   -0.00007352
     atom   17 type  2   force =    -0.00056205    0.00001199    0.00005777
     atom   18 type  2   force =     0.00058661   -0.00020352   -0.00000683
     atom   19 type  1   force =    -0.00009407   -0.00051156    0.00015934
     atom   20 type  1   force =     0.00077270    0.00017378    0.00114147
     atom   21 type  2   force =     0.00012354   -0.00011692    0.10403507
     atom   22 type  2   force =    -0.00040448    0.00012866   -0.00037510
     atom   23 type  2   force =    -0.07027628   -0.00021890   -0.02685302
     atom   24 type  2   force =     0.07026671    0.00021783   -0.02687880
     atom   25 type  1   force =     0.00007901   -0.00031580    0.09262917
     atom   26 type  1   force =    -0.00003233   -0.00059320   -0.17832919
     atom   27 type  2   force =     0.00012947   -0.00017008   -0.01908262
     atom   28 type  2   force =     0.00005052   -0.00164385    0.05860709
     atom   29 type  2   force =    -0.01106687   -0.00055976    0.00931573
     atom   30 type  2   force =     0.01198537   -0.00002084    0.00720420
     atom   31 type  1   force =    -0.00092843    0.00646821   -0.01506715
     atom   32 type  1   force =     0.00085992    0.00101681   -0.00588333
     atom   33 type  2   force =     0.00017441   -0.00057061   -0.00004631
     atom   34 type  2   force =    -0.00185894   -0.00052344   -0.00050746
     atom   35 type  2   force =    -0.00044843    0.00006285   -0.00044227
     atom   36 type  2   force =     0.00034787   -0.00011695    0.00017388
     atom   37 type  1   force =    -0.00051380   -0.00025373    0.00020317
     atom   38 type  1   force =    -0.00004516   -0.00015012   -0.00008444
     atom   39 type  2   force =     0.00028938   -0.00059817   -0.00004983
     atom   40 type  2   force =    -0.00060046   -0.00051174    0.00024856
     atom   41 type  2   force =    -0.00023510   -0.00075785   -0.00067279
     atom   42 type  2   force =     0.00048032   -0.00009224   -0.00010682
     atom   43 type  1   force =     0.00017541   -0.00023654   -0.00022582
     atom   44 type  1   force =     0.00053116    0.00005328    0.00085496
     atom   45 type  2   force =     0.00013589   -0.00014811    0.10399204
     atom   46 type  2   force =    -0.07028297   -0.00016163   -0.02682690
     atom   47 type  2   force =     0.07025282    0.00025958   -0.02688505
     atom   48 type  3   force =     0.00044531    0.00031153   -0.00064833
     atom   49 type  3   force =    -0.00403165   -0.00533810   -0.00079812
     atom   50 type  4   force =     0.00022687   -0.00150962   -0.00001202
     atom   51 type  5   force =    -0.00074610    0.00148808    0.00066576
     atom   52 type  5   force =     0.00036903   -0.00030070   -0.00021110
     atom   53 type  5   force =     0.00080290    0.00043746   -0.00122618
     atom   54 type  5   force =     0.00004343   -0.00177147    0.00069131
     atom   55 type  5   force =     0.00047285    0.00049452    0.00000588
     atom   56 type  5   force =     0.00306017    0.00470028    0.00054251

     Total force =     0.366426     Total SCF correction =     0.000612
  @ DRIVER MODE: Message from server: STATUS
  @ DRIVER MODE: Message from server: GETFORCE
  @ DRIVER MODE: Returning v,forces,stress,ensemble

     Writing output data file ./calc.save/
  @ DRIVER MODE: Message from server: EXIT
  @ DRIVE MODE: Exiting

     General routines

     Parallel routines

   This run was terminated on:  14: 5:47   9Sep2021

   JOB DONE.