     Program PWSCF v.6.7GPU starts on  9Sep2021 at 14:46:17

     R & G space division:  proc/nbgrp/npool/nimage =      10
     Reading input from /storage/home/hcoda1/3/ntian30/research/carbon/CxH_vib/CH3_calc/ads_slab/CH3NHNH2_a/out_0052/pw.inp
Warning: card &CELL ignored
Warning: card   CELL_DYNAMICS='IPI', ignored
Warning: card / ignored

     Current dimensions of program PWSCF are:
     Max number of different atomic species (ntypx) = 10
     Max number of k-points (npk) =  40000
     Max angular momentum in pseudopotentials (lmaxx) =  3
     Presently no symmetry can be used with electric field

     Message from routine cell_base_init:
     DEPRECATED: use true lattice parameter, not A to a.u. conversion factor

     IMPORTANT: XC functional enforced from input :
     Exchange-correlation= BEEF-VDW
                           (   1   4  43  14   2   0   0)
     Any further DFT definition will be discarded
     Please, verify this is what you really want

  @ DRIVER MODE: Connecting to
 qe_1139763_2767398.sched-torque.pace.gatech.educgr2xoc4_scratch
  using UNIX socket
  @ DRIVER MODE: Message from server: STATUS
  @ DRIVER MODE: Message from server: INIT
  @ DRIVER MODE: Receiving replica           0          -1
  @ DRIVER MODE: Receiving encoded integer          25
  @ DRIVER MODE:  SCF:  T  FORCE:  T  STRESS:  F  VC:  F  ENSEMBLE:  F
  @ DRIVER MODE:  SCF:  T  FORCE:  T  STRESS:  F  VC:  F  ENSEMBLE:  F

     Using Slab Decomposition

     bravais-lattice index     =            0
     lattice parameter (alat)  =       1.8897  a.u.
     unit-cell volume          =    6658.9804 (a.u.)^3
     number of atoms/cell      =           56
     number of atomic types    =            5
     number of electrons       =       398.00
     number of Kohn-Sham states=          209
     kinetic-energy cutoff     =      29.3995  Ry
     charge density cutoff     =     293.9946  Ry
     scf convergence threshold =      7.3E-08
     mixing beta               =       0.0500
     number of iterations used =            8  plain     mixing
     Exchange-correlation= BEEF-VDW
                           (   1   4  43  14   2   0   0)

     celldm(1)=   1.889726  celldm(2)=   0.000000  celldm(3)=   0.000000
     celldm(4)=   0.000000  celldm(5)=   0.000000  celldm(6)=   0.000000

     crystal axes: (cart. coord. in units of alat)
               a(1) = (   6.579727   0.000000   0.000000 )
               a(2) = (  -0.000775   5.961596   0.000000 )
               a(3) = (   0.000000   0.000000  25.155947 )

     reciprocal axes: (cart. coord. in units 2 pi/alat)
               b(1) = (  0.151982  0.000020  0.000000 )
               b(2) = (  0.000000  0.167740  0.000000 )
               b(3) = (  0.000000  0.000000  0.039752 )

     PseudoPot. # 1 for Ti read from file:
     /storage/coda1/p-amedford6/0/shared/rich_project_chbe-medford/medford-share/data/pseudos_module/espresso/nninc/pbe/van/Ti.UPF
     MD5 check sum: 8e4df49b7f0d34bbd5052bf3f5ea0213
     Pseudo is Ultrasoft, Zval = 12.0
     Generated by new atomic code, or converted to UPF format
     Using radial grid of  851 points,  6 beta functions with:
                l(1) =   0
                l(2) =   0
                l(3) =   1
                l(4) =   1
                l(5) =   2
                l(6) =   2
     Q(r) pseudized with  8 coefficients,  rinner =    1.000   1.000   1.000
                                                       1.000   1.000

     PseudoPot. # 2 for O  read from file:
     /storage/coda1/p-amedford6/0/shared/rich_project_chbe-medford/medford-share/data/pseudos_module/espresso/nninc/pbe/van/O.UPF
     MD5 check sum: 78c19812648e8988a0fe644b0f25305e
     Pseudo is Ultrasoft, Zval =  6.0
     Generated by new atomic code, or converted to UPF format
     Using radial grid of  737 points,  4 beta functions with:
                l(1) =   0
                l(2) =   0
                l(3) =   1
                l(4) =   1
     Q(r) pseudized with  8 coefficients,  rinner =    0.800   0.800   0.800

     PseudoPot. # 3 for N  read from file:
     /storage/coda1/p-amedford6/0/shared/rich_project_chbe-medford/medford-share/data/pseudos_module/espresso/nninc/pbe/van/N.UPF
     MD5 check sum: 90d10febe142ad51ac9d5be1deb811c4
     Pseudo is Ultrasoft, Zval =  5.0
     Generated by new atomic code, or converted to UPF format
     Using radial grid of  729 points,  4 beta functions with:
                l(1) =   0
                l(2) =   0
                l(3) =   1
                l(4) =   1
     Q(r) pseudized with  8 coefficients,  rinner =    0.800   0.800   0.800

     PseudoPot. # 4 for C  read from file:
     /storage/coda1/p-amedford6/0/shared/rich_project_chbe-medford/medford-share/data/pseudos_module/espresso/nninc/pbe/van/C.UPF
     MD5 check sum: 1a69bf6b8db32088f5b2163dbdb77a27
     Pseudo is Ultrasoft, Zval =  4.0
     Generated by new atomic code, or converted to UPF format
     Using radial grid of  721 points,  4 beta functions with:
                l(1) =   0
                l(2) =   0
                l(3) =   1
                l(4) =   1
     Q(r) pseudized with  8 coefficients,  rinner =    0.800   0.800   0.800

     PseudoPot. # 5 for H  read from file:
     /storage/coda1/p-amedford6/0/shared/rich_project_chbe-medford/medford-share/data/pseudos_module/espresso/nninc/pbe/van/H.UPF
     MD5 check sum: b5ee9d7bfd3a09ee7748110bda690ff7
     Pseudo is Ultrasoft, Zval =  1.0
     Generated by new atomic code, or converted to UPF format
     Using radial grid of  615 points,  1 beta functions with:
                l(1) =   0
     Q(r) pseudized with  8 coefficients,  rinner =    0.800

     atomic species   valence    mass     pseudopotential
        Ti1           12.00    47.86700     Ti( 1.00)
        O1             6.00    15.99900     O ( 1.00)
        N1             5.00    14.00700     N ( 1.00)
        C1             4.00    12.01100     C ( 1.00)
        H1             1.00     1.00800     H ( 1.00)

     No symmetry found

   Cartesian axes

     site n.     atom                  positions (alat units)
         1           Ti1 tau(   1) = (   0.0004258   2.9801865   6.0000000  )
         2           Ti1 tau(   2) = (   3.2906075   1.4906267   6.0002472  )
         3           O1  tau(   3) = (   0.0006271   0.0005054   7.9858123  )
         4           O1  tau(   4) = (   3.2906025   0.0005020   7.3038282  )
         5           O1  tau(   5) = (   4.5942328   1.4918067   9.2879030  )
         6           O1  tau(   6) = (   1.9868534   1.4903216   9.2879459  )
         7           Ti1 tau(   7) = (   3.2907910   2.8959150   9.1758416  )
         8           Ti1 tau(   8) = (   0.0015273   1.4827037   9.2680791  )
         9           O1  tau(   9) = (   3.2714441   0.0289406  11.3813764  )
        10           O1  tau(  10) = (   0.0116148   5.9584955  10.6183126  )
        11           O1  tau(  11) = (   1.2692032   1.5162281  12.7122965  )
        12           O1  tau(  12) = (   5.2779133   1.5159715  12.6811497  )
        13           Ti1 tau(  13) = (   6.5579218   3.0031650  12.5037829  )
        14           Ti1 tau(  14) = (   3.2791490   1.5128154  12.5375672  )
        15           O1  tau(  15) = (   6.5208524   5.8954130  14.6845636  )
        16           O1  tau(  16) = (   3.2849572   0.0099931  14.0031570  )
        17           O1  tau(  17) = (   4.4884262   1.5607690  16.1641467  )
        18           O1  tau(  18) = (   1.9729656   1.5430890  16.0903287  )
        19           Ti1 tau(  19) = (   3.2372663   3.0309179  15.7728032  )
        20           Ti1 tau(  20) = (   6.5553692   1.3539605  15.8053163  )
        21           O1  tau(  21) = (   3.2904802   0.0005063   4.7018136  )
        22           O1  tau(  22) = (   6.5123495   0.2165906  17.2215032  )
        23           O1  tau(  23) = (   1.3043587   1.4918075   6.0039043  )
        24           O1  tau(  24) = (   5.2767064   1.4903225   6.0039473  )
        25           Ti1 tau(  25) = (   0.0000382   5.9609847   6.0000000  )
        26           Ti1 tau(  26) = (   3.2902200   4.4714249   6.0002472  )
        27           O1  tau(  27) = (   0.0002396   2.9813036   7.9858123  )
        28           O1  tau(  28) = (   3.2902150   2.9813002   7.3038282  )
        29           O1  tau(  29) = (   4.5938453   4.4726049   9.2879030  )
        30           O1  tau(  30) = (   1.9864658   4.4711199   9.2879459  )
        31           Ti1 tau(  31) = (   3.2891106   5.8743827   9.1763621  )
        32           Ti1 tau(  32) = (   0.0006254   4.4649316   9.2693709  )
        33           O1  tau(  33) = (   3.2699379   2.9911670  11.3762017  )
        34           O1  tau(  34) = (   0.0092240   2.9805883  10.6323155  )
        35           O1  tau(  35) = (   1.2730946   4.4825978  12.6662957  )
        36           O1  tau(  36) = (   5.2742290   4.4829497  12.6320226  )
        37           Ti1 tau(  37) = (   6.5783117   0.0079037  12.5026730  )
        38           Ti1 tau(  38) = (   3.2784283   4.4905194  12.5286134  )
        39           O1  tau(  39) = (   6.5033290   3.0824797  14.9867588  )
        40           O1  tau(  40) = (   3.2824109   3.0350539  13.9807796  )
        41           O1  tau(  41) = (   4.4804250   4.5097483  16.2808085  )
        42           O1  tau(  42) = (   1.9642025   4.5165872  16.2225063  )
        43           Ti1 tau(  43) = (   3.2609991   0.0502580  15.7998297  )
        44           Ti1 tau(  44) = (   6.5501253   4.5826093  16.0954727  )
        45           O1  tau(  45) = (   3.2900926   2.9813045   4.7018136  )
        46           O1  tau(  46) = (   1.3039711   4.4726057   6.0039043  )
        47           O1  tau(  47) = (   5.2763189   4.4711207   6.0039473  )
        48           N1  tau(  48) = (   0.8845045   3.2634721  19.1145209  )
        49           N1  tau(  49) = (   6.3504243   3.3997271  18.1887592  )
        50           C1  tau(  50) = (   1.2927081   4.5631590  19.6429350  )
        51           H1  tau(  51) = (   0.4658632   5.1229972  20.1056819  )
        52           H1  tau(  52) = (   2.0600825   4.3818216  20.3958833  )
        53           H1  tau(  53) = (   1.7018904   5.1738364  18.8453250  )
        54           H1  tau(  54) = (   0.5628611   2.6866381  19.8888112  )
        55           H1  tau(  55) = (   5.6051421   3.9827062  18.5884547  )
        56           H1  tau(  56) = (   5.9567982   2.4724696  18.0937858  )

     number of k points=    10  Fermi-Dirac smearing, width (Ry)=  0.0073
                       cart. coord. in units 2pi/alat
        k(    1) = (   0.0000000   0.0000000   0.0000000), wk =   0.1250000
        k(    2) = (   0.0000000   0.0419351   0.0000000), wk =   0.2500000
        k(    3) = (   0.0000000  -0.0838702   0.0000000), wk =   0.1250000
        k(    4) = (   0.0379955   0.0000049   0.0000000), wk =   0.2500000
        k(    5) = (   0.0379955   0.0419400   0.0000000), wk =   0.2500000
        k(    6) = (   0.0379955  -0.0838652   0.0000000), wk =   0.2500000
        k(    7) = (   0.0379955  -0.0419301   0.0000000), wk =   0.2500000
        k(    8) = (  -0.0759910  -0.0000099   0.0000000), wk =   0.1250000
        k(    9) = (  -0.0759910   0.0419252   0.0000000), wk =   0.2500000
        k(   10) = (  -0.0759910  -0.0838800   0.0000000), wk =   0.1250000

     Initial potential from superposition of free atoms

     starting charge  381.99914, renormalised to  398.00000

     negative rho (up, down):  1.416E-02 0.000E+00

     %%%%%%%%%%%%%%%%%%%%%%%%%%%%%%%%%%%%%%%%%%%%%%%%%%%%%%%%%%%%%%%%%%%%%%%%
     %                                                                      %
     % You are using vdW-DF, which was implemented by the Thonhauser group. %
     % Please cite the following two papers that made this development      %
     % possible and the two reviews that describe the various versions:     %
     %                                                                      %
     %   T. Thonhauser et al., PRL 115, 136402 (2015).                      %
     %   T. Thonhauser et al., PRB 76, 125112 (2007).                       %
     %   K. Berland et al., Rep. Prog. Phys. 78, 066501 (2015).             %
     %   D.C. Langreth et al., J. Phys.: Condens. Matter 21, 084203 (2009). %
     %                                                                      %
     %                                                                      %
     % If you are calculating the stress with vdW-DF, please also cite:     %
     %                                                                      %
     %   R. Sabatini et al., J. Phys.: Condens. Matter 24, 424209 (2012).   %
     %                                                                      %
     %%%%%%%%%%%%%%%%%%%%%%%%%%%%%%%%%%%%%%%%%%%%%%%%%%%%%%%%%%%%%%%%%%%%%%%%

     Adding external electric field

     Computed dipole along edir(3) :
        Dipole              -11.7171 Ry au,        -29.7818 Debye
        Dipole field         -0.0221 Ry au,

        Potential amp.        2.0497 Ry
        Total length         46.3494 bohr

     Starting wfcs are  302 atomic wfcs
  @ DRIVER MODE: Message from server: STATUS
  @ DRIVER MODE: Message from server: POSDATA
  @ DRIVER MODE: Reading and sharing cell
  @ DRIVER MODE: Reading and sharing positions
  @ DRIVER MODE: Received positions

     Self-consistent Calculation

     iteration #  1     ecut=    29.40 Ry     beta= 0.05
     Davidson diagonalization with overlap
     c_bands:  3 eigenvalues not converged
     c_bands:  1 eigenvalues not converged
     c_bands:  1 eigenvalues not converged
     c_bands:  4 eigenvalues not converged
     c_bands:  1 eigenvalues not converged
     c_bands:  4 eigenvalues not converged
     c_bands:  5 eigenvalues not converged
     c_bands:  2 eigenvalues not converged
     ethr =  1.00E-05,  avg # of iterations = 21.9

[...]

     total energy              =   -2424.71953181 Ry
     estimated scf accuracy    <    5828.48283754 Ry

     iteration #  2     ecut=    29.40 Ry     beta= 0.05
     Davidson diagonalization with overlap
     ethr =  1.00E-02,  avg # of iterations = 22.0

[...]

     iteration # 80     ecut=    29.40 Ry     beta= 0.05
     Davidson diagonalization with overlap
     c_bands:  1 eigenvalues not converged
     ethr =  4.25E-11,  avg # of iterations = 13.5

[...]

     total energy              =   -2942.84380523 Ry
     estimated scf accuracy    <       0.00000015 Ry

     iteration # 81     ecut=    29.40 Ry     beta= 0.05
     Davidson diagonalization with overlap
     ethr =  3.83E-11,  avg # of iterations =  6.4

     negative rho (up, down):  1.513E-02 0.000E+00

     Adding external electric field

     Computed dipole along edir(3) :
        Dipole                1.4956 Ry au,          3.8015 Debye
        Dipole field          0.0028 Ry au,

        Potential amp.       -0.2616 Ry
        Total length         46.3494 bohr

     End of self-consistent calculation

          k = 0.0000 0.0000 0.0000 ( 18029 PWs)   bands (ev):

   -55.2008 -55.1637 -55.1528 -55.1238 -55.1187 -55.0823 -55.0791 -55.0443
   -55.0249 -55.0121 -54.9905 -54.9857 -54.9520 -54.8548 -54.1852 -54.1512
   -31.7672 -31.6506 -31.6458 -31.5673 -31.5142 -31.5132 -31.5105 -31.4918
   -31.4418 -31.4385 -31.4105 -31.4084 -31.3978 -31.3808 -31.3681 -31.3623
   -31.3553 -31.3455 -31.3382 -31.3213 -31.3055 -31.3029 -31.2711 -31.2671
   -31.2567 -31.2557 -31.2367 -31.2276 -31.2101 -31.2096 -31.2052 -31.1846
   -31.1845 -31.1812 -31.1742 -31.1716 -31.1383 -31.1288 -31.1140 -31.0971
   -31.0682 -31.0486 -30.5948 -30.5002 -30.4782 -30.4111 -30.3243 -30.2135
   -17.9760 -16.0344 -15.7720 -15.6267 -15.5145 -15.4031 -15.2837 -15.2529
   -15.1332 -15.0571 -14.9229 -14.8966 -14.8745 -14.8509 -14.8390 -14.8264
   -14.7505 -14.7440 -14.7282 -14.6998 -14.6978 -14.6527 -14.6429 -14.6035
   -14.5785 -14.5576 -14.4528 -14.3644 -14.2904 -14.0725 -13.4688 -12.6879
   -12.5704  -9.7140  -6.6225  -6.0951  -4.5971  -3.3729  -3.2611  -3.2247
    -3.1387  -3.1055  -3.0952  -3.0030  -2.9499  -2.7913  -2.6488  -2.6230
    -2.4922  -2.4171  -2.4007  -2.3763  -2.2466  -2.2115  -2.1602  -2.1218
    -2.0620  -2.0325  -2.0077  -1.9920  -1.9610  -1.9520  -1.9269  -1.8381
    -1.7783  -1.6859  -1.6686  -1.6006  -1.5929  -1.5598  -1.5387  -1.4934
    -1.4830  -1.4341  -1.4265  -1.4140  -1.3937  -1.2670  -1.2222  -1.1124
    -1.0515  -0.9640  -0.8427  -0.8025  -0.7887  -0.6979  -0.6890  -0.6570
    -0.5805  -0.5771  -0.5468  -0.4386  -0.3737  -0.3100  -0.2511  -0.2250
    -0.1915  -0.1142  -0.0234   0.0128   0.0296   0.0528   0.1528   0.1878
     0.2434   0.3103   0.3218   0.3352   0.4152   0.4559   0.5311   0.5677
     0.5854   0.6741   0.7005   0.7283   0.7288   0.7667   0.7810   0.8207
     0.8693   0.8961   0.9825   1.0420   1.1034   1.3485   1.4012   1.4070
     1.7329   1.7410   1.8374   2.0208   2.4139   2.4623   3.8956   3.9644
     4.0402   4.0452   4.0676   4.1314   4.3693   4.3924   4.4014   4.4036
     4.4302

[...]

          k = 0.0380-0.0419 0.0000 ( 17876 PWs)   bands (ev):

[...]

          k =-0.0760-0.0000 0.0000 ( 17886 PWs)   bands (ev):

[...]

          k =-0.0760-0.0839 0.0000 ( 17948 PWs)   bands (ev):

   -55.1870 -55.1773 -55.1359 -55.1355 -55.1224 -55.0780 -55.0647 -55.0587
   -55.0163 -55.0091 -55.0059 -54.9692 -54.9687 -54.8559 -54.1683 -54.1680
   -31.5753 -31.5740 -31.5675 -31.4829 -31.4610 -31.4607 -31.4579 -31.4271
   -31.4269 -31.4118 -31.4010 -31.3993 -31.3906 -31.3645 -31.3556 -31.3427
   -31.3416 -31.3378 -31.3345 -31.3289 -31.3270 -31.3211 -31.2820 -31.2789
   -31.2786 -31.2772 -31.2591 -31.2581 -31.2556 -31.2552 -31.2508 -31.2421
   -31.2392 -31.2222 -31.2188 -31.2031 -31.2022 -31.1993 -31.1499 -31.1495
   -31.1244 -31.0726 -30.4909 -30.4906 -30.4074 -30.4072 -30.3678 -30.3676
   -17.9728 -15.5591 -15.4295 -15.4004 -15.2439 -15.2077 -15.1744 -15.1611
   -15.0401 -15.0029 -14.9782 -14.9688 -14.9513 -14.9108 -14.9051 -14.8984
   -14.8278 -14.8086 -14.8043 -14.7820 -14.7237 -14.7148 -14.7109 -14.7033
   -14.6527 -14.6490 -14.5686 -14.5583 -14.5551 -14.3734 -13.4721 -12.6719
   -12.6718  -9.7300  -6.6067  -6.0958  -4.5757  -3.2350  -2.9603  -2.6919
    -2.6870  -2.6590  -2.4578  -2.3952  -2.3645  -2.3592  -2.2617  -2.2251
    -2.2008  -2.1970  -2.1317  -2.1171  -2.0873  -2.0561  -2.0399  -2.0262
    -2.0112  -1.9971  -1.9709  -1.9333  -1.9253  -1.9174  -1.8864  -1.8635
    -1.8404  -1.8181  -1.8047  -1.7864  -1.7602  -1.7375  -1.6012  -1.5694
    -1.4992  -1.4574  -1.4126  -1.4083  -1.3366  -1.3001  -1.2500  -1.2377
    -1.2209  -1.0811  -1.0226  -0.9718  -0.9518  -0.9408  -0.8115  -0.7977
    -0.7242  -0.7070  -0.6907  -0.6150  -0.5653  -0.5269  -0.5133  -0.4200
    -0.4046  -0.3382  -0.2361  -0.2135  -0.1995  -0.1587  -0.1557  -0.1084
    -0.1014  -0.0173   0.0270   0.0621   0.0729   0.1086   0.3013   0.3172
     0.3275   0.4805   0.4964   0.6379   0.6815   0.7483   0.8068   0.8457
     0.9076   0.9448   1.0527   1.0871   1.1026   1.1106   1.1722   1.1841
     1.2469   1.2576   2.1935   2.1941   2.2822   2.2825   4.0415   4.1490
     4.1566   4.1983   4.3182   4.3488   4.4107   4.4379   4.4798   4.4828
     4.5435

     the Fermi energy is     3.9590 ev

!    total energy              =   -2942.84381216 Ry
     estimated scf accuracy    <       0.00000005 Ry
     smearing contrib. (-TS)   =      -0.03707574 Ry
     internal energy E=F+TS    =   -2942.80673642 Ry

     The total energy is F=E-TS. E is the sum of the following terms:
     one-electron contribution =  -23366.77493809 Ry
     hartree contribution      =   11777.56703541 Ry
     xc contribution           =    -487.74821177 Ry
     ewald contribution        =    9134.14515675 Ry
     electric field correction =       0.00422128 Ry

     convergence has been achieved in  81 iterations

     Forces acting on atoms (cartesian axes, Ry/au):

     atom    1 type  1   force =     0.00017288   -0.00033211    0.09328526
     atom    2 type  1   force =    -0.00006264   -0.00042277   -0.17825036
     atom    3 type  2   force =     0.00002515   -0.00031934   -0.02003467
     atom    4 type  2   force =     0.00002077   -0.00183215    0.05924909
     atom    5 type  2   force =    -0.01045984   -0.00026601    0.00863720
     atom    6 type  2   force =     0.01147325    0.00040589    0.00645015
     atom    7 type  1   force =    -0.00100029    0.00212690   -0.01399284
     atom    8 type  1   force =     0.00081854   -0.00094653   -0.00573741
     atom    9 type  2   force =    -0.00010101    0.00012620   -0.00001104
     atom   10 type  2   force =    -0.00185453    0.00411636    0.00027324
     atom   11 type  2   force =    -0.00007473   -0.00064379    0.00028502
     atom   12 type  2   force =    -0.00000531   -0.00041303    0.00054122
     atom   13 type  1   force =     0.00003971    0.00009989    0.00032535
     atom   14 type  1   force =    -0.00037442    0.00000234    0.00008077
     atom   15 type  2   force =     0.00051700    0.00020813   -0.00036826
     atom   16 type  2   force =     0.00032206   -0.00035400   -0.00006524
     atom   17 type  2   force =    -0.00057131    0.00002883    0.00000209
     atom   18 type  2   force =     0.00054751   -0.00018342    0.00001352
     atom   19 type  1   force =    -0.00004104   -0.00056136    0.00016277
     atom   20 type  1   force =     0.00066966   -0.00006659    0.00106986
     atom   21 type  2   force =     0.00012341   -0.00012491    0.10404570
     atom   22 type  2   force =    -0.00035667    0.00017700   -0.00041860
     atom   23 type  2   force =    -0.07028348   -0.00021731   -0.02686158
     atom   24 type  2   force =     0.07027375    0.00022096   -0.02688655
     atom   25 type  1   force =     0.00008039   -0.00032045    0.09260086
     atom   26 type  1   force =    -0.00003206   -0.00059084   -0.17837016
     atom   27 type  2   force =     0.00012835   -0.00016771   -0.01908839
     atom   28 type  2   force =     0.00004976   -0.00163504    0.05861082
     atom   29 type  2   force =    -0.01106244   -0.00055862    0.00931924
     atom   30 type  2   force =     0.01198053   -0.00001934    0.00720815
     atom   31 type  1   force =    -0.00092948    0.00646524   -0.01505906
     atom   32 type  1   force =     0.00086214    0.00101767   -0.00588072
     atom   33 type  2   force =     0.00017439   -0.00057162   -0.00004198
     atom   34 type  2   force =    -0.00186013   -0.00052199   -0.00048802
     atom   35 type  2   force =    -0.00045986    0.00006622   -0.00043390
     atom   36 type  2   force =     0.00035712   -0.00011539    0.00018158
     atom   37 type  1   force =    -0.00051530   -0.00025440    0.00020476
     atom   38 type  1   force =    -0.00004771   -0.00014842   -0.00008286
     atom   39 type  2   force =     0.00029382   -0.00059750   -0.00002171
     atom   40 type  2   force =    -0.00060304   -0.00050931    0.00025400
     atom   41 type  2   force =    -0.00021840   -0.00077699   -0.00066041
     atom   42 type  2   force =     0.00047342   -0.00010418   -0.00009611
     atom   43 type  1   force =     0.00021827   -0.00018043   -0.00020781
     atom   44 type  1   force =     0.00056255    0.00028285    0.00080993
     atom   45 type  2   force =     0.00013340   -0.00014306    0.10399652
     atom   46 type  2   force =    -0.07028516   -0.00016585   -0.02683356
     atom   47 type  2   force =     0.07025331    0.00025744   -0.02689060
     atom   48 type  3   force =     0.00087654    0.00117102   -0.00067659
     atom   49 type  3   force =     0.00430816    0.01253892    0.00173331
     atom   50 type  4   force =     0.00035953   -0.00163070    0.00007657
     atom   51 type  5   force =    -0.00074209    0.00146818    0.00065801
     atom   52 type  5   force =     0.00036115   -0.00026278   -0.00019754
     atom   53 type  5   force =     0.00078916    0.00041821   -0.00122362
     atom   54 type  5   force =    -0.00006526   -0.00180103    0.00070517
     atom   55 type  5   force =     0.00047786    0.00020252   -0.00024834
     atom   56 type  5   force =    -0.00573733   -0.01364178   -0.00165223

     Total force =     0.366907     Total SCF correction =     0.000522
  @ DRIVER MODE: Message from server: STATUS
  @ DRIVER MODE: Message from server: GETFORCE
  @ DRIVER MODE: Returning v,forces,stress,ensemble

     Writing output data file ./calc.save/
  @ DRIVER MODE: Message from server: EXIT
  @ DRIVE MODE: Exiting

     General routines

     Parallel routines

   This run was terminated on:  15: 7:27   9Sep2021

   JOB DONE.