     Program PWSCF v.6.7GPU starts on  9Sep2021 at 11:45:35

     R & G space division:  proc/nbgrp/npool/nimage =      10
     Reading input from /storage/home/hcoda1/3/ntian30/research/carbon/CxH_vib/CH3_calc/ads_slab/CH3NHNH2_a/out_0043/pw.inp
Warning: card &CELL ignored
Warning: card   CELL_DYNAMICS='IPI', ignored
Warning: card / ignored

     Current dimensions of program PWSCF are:
     Max number of different atomic species (ntypx) = 10
     Max number of k-points (npk) =  40000
     Max angular momentum in pseudopotentials (lmaxx) =  3
     Presently no symmetry can be used with electric field

     Message from routine cell_base_init:
     DEPRECATED: use true lattice parameter, not A to a.u. conversion factor

     IMPORTANT: XC functional enforced from input :
     Exchange-correlation= BEEF-VDW
                           (   1   4  43  14   2   0   0)
     Any further DFT definition will be discarded
     Please, verify this is what you really want

  @ DRIVER MODE: Connecting to
 qe_1139763_2767398.sched-torque.pace.gatech.edupajt6luc_scratch
  using UNIX socket
  @ DRIVER MODE: Message from server: STATUS
  @ DRIVER MODE: Message from server: INIT
  @ DRIVER MODE: Receiving replica           0          -1
  @ DRIVER MODE: Receiving encoded integer          25
  @ DRIVER MODE:  SCF:  T  FORCE:  T  STRESS:  F  VC:  F  ENSEMBLE:  F
  @ DRIVER MODE:  SCF:  T  FORCE:  T  STRESS:  F  VC:  F  ENSEMBLE:  F

     Using Slab Decomposition

     bravais-lattice index     =            0
     lattice parameter (alat)  =       1.8897  a.u.
     unit-cell volume          =    6658.9804 (a.u.)^3
     number of atoms/cell      =           56
     number of atomic types    =            5
     number of electrons       =       398.00
     number of Kohn-Sham states=          209
     kinetic-energy cutoff     =      29.3995  Ry
     charge density cutoff     =     293.9946  Ry
     scf convergence threshold =      7.3E-08
     mixing beta               =       0.0500
     number of iterations used =            8  plain     mixing
     Exchange-correlation= BEEF-VDW
                           (   1   4  43  14   2   0   0)

     celldm(1)=   1.889726  celldm(2)=   0.000000  celldm(3)=   0.000000
     celldm(4)=   0.000000  celldm(5)=   0.000000  celldm(6)=   0.000000

     crystal axes: (cart. coord. in units of alat)
               a(1) = (   6.579727   0.000000   0.000000 )
               a(2) = (  -0.000775   5.961596   0.000000 )
               a(3) = (   0.000000   0.000000  25.155947 )

     reciprocal axes: (cart. coord. in units 2 pi/alat)
               b(1) = (  0.151982  0.000020  0.000000 )
               b(2) = (  0.000000  0.167740  0.000000 )
               b(3) = (  0.000000  0.000000  0.039752 )

     PseudoPot. # 1 for Ti read from file:
     /storage/coda1/p-amedford6/0/shared/rich_project_chbe-medford/medford-share/data/pseudos_module/espresso/nninc/pbe/van/Ti.UPF
     MD5 check sum: 8e4df49b7f0d34bbd5052bf3f5ea0213
     Pseudo is Ultrasoft, Zval = 12.0
     Generated by new atomic code, or converted to UPF format
     Using radial grid of  851 points,  6 beta functions with:
                l(1) =   0
                l(2) =   0
                l(3) =   1
                l(4) =   1
                l(5) =   2
                l(6) =   2
     Q(r) pseudized with  8 coefficients,  rinner =    1.000   1.000   1.000
                                                       1.000   1.000

     PseudoPot. # 2 for O  read from file:
     /storage/coda1/p-amedford6/0/shared/rich_project_chbe-medford/medford-share/data/pseudos_module/espresso/nninc/pbe/van/O.UPF
     MD5 check sum: 78c19812648e8988a0fe644b0f25305e
     Pseudo is Ultrasoft, Zval =  6.0
     Generated by new atomic code, or converted to UPF format
     Using radial grid of  737 points,  4 beta functions with:
                l(1) =   0
                l(2) =   0
                l(3) =   1
                l(4) =   1
     Q(r) pseudized with  8 coefficients,  rinner =    0.800   0.800   0.800

     PseudoPot. # 3 for N  read from file:
     /storage/coda1/p-amedford6/0/shared/rich_project_chbe-medford/medford-share/data/pseudos_module/espresso/nninc/pbe/van/N.UPF
     MD5 check sum: 90d10febe142ad51ac9d5be1deb811c4
     Pseudo is Ultrasoft, Zval =  5.0
     Generated by new atomic code, or converted to UPF format
     Using radial grid of  729 points,  4 beta functions with:
                l(1) =   0
                l(2) =   0
                l(3) =   1
                l(4) =   1
     Q(r) pseudized with  8 coefficients,  rinner =    0.800   0.800   0.800

     PseudoPot. # 4 for C  read from file:
     /storage/coda1/p-amedford6/0/shared/rich_project_chbe-medford/medford-share/data/pseudos_module/espresso/nninc/pbe/van/C.UPF
     MD5 check sum: 1a69bf6b8db32088f5b2163dbdb77a27
     Pseudo is Ultrasoft, Zval =  4.0
     Generated by new atomic code, or converted to UPF format
     Using radial grid of  721 points,  4 beta functions with:
                l(1) =   0
                l(2) =   0
                l(3) =   1
                l(4) =   1
     Q(r) pseudized with  8 coefficients,  rinner =    0.800   0.800   0.800

     PseudoPot. # 5 for H  read from file:
     /storage/coda1/p-amedford6/0/shared/rich_project_chbe-medford/medford-share/data/pseudos_module/espresso/nninc/pbe/van/H.UPF
     MD5 check sum: b5ee9d7bfd3a09ee7748110bda690ff7
     Pseudo is Ultrasoft, Zval =  1.0
     Generated by new atomic code, or converted to UPF format
     Using radial grid of  615 points,  1 beta functions with:
                l(1) =   0
     Q(r) pseudized with  8 coefficients,  rinner =    0.800

     atomic species   valence    mass     pseudopotential
        Ti1           12.00    47.86700     Ti( 1.00)
        O1             6.00    15.99900     O ( 1.00)
        N1             5.00    14.00700     N ( 1.00)
        C1             4.00    12.01100     C ( 1.00)
        H1             1.00     1.00800     H ( 1.00)

     No symmetry found

   Cartesian axes

     site n.     atom                  positions (alat units)
         1           Ti1 tau(   1) = (   0.0004258   2.9801865   6.0000000  )
         2           Ti1 tau(   2) = (   3.2906075   1.4906267   6.0002472  )
         3           O1  tau(   3) = (   0.0006271   0.0005054   7.9858123  )
         4           O1  tau(   4) = (   3.2906025   0.0005020   7.3038282  )
         5           O1  tau(   5) = (   4.5942328   1.4918067   9.2879030  )
         6           O1  tau(   6) = (   1.9868534   1.4903216   9.2879459  )
         7           Ti1 tau(   7) = (   3.2907910   2.8959150   9.1758416  )
         8           Ti1 tau(   8) = (   0.0015273   1.4827037   9.2680791  )
         9           O1  tau(   9) = (   3.2714441   0.0289406  11.3813764  )
        10           O1  tau(  10) = (   0.0116148   5.9584955  10.6183126  )
        11           O1  tau(  11) = (   1.2692032   1.5162281  12.7122965  )
        12           O1  tau(  12) = (   5.2779133   1.5159715  12.6811497  )
        13           Ti1 tau(  13) = (   6.5579218   3.0031650  12.5037829  )
        14           Ti1 tau(  14) = (   3.2791490   1.5128154  12.5375672  )
        15           O1  tau(  15) = (   6.5208524   5.8954130  14.6845636  )
        16           O1  tau(  16) = (   3.2849572   0.0099931  14.0031570  )
        17           O1  tau(  17) = (   4.4884262   1.5607690  16.1641467  )
        18           O1  tau(  18) = (   1.9729656   1.5430890  16.0903287  )
        19           Ti1 tau(  19) = (   3.2372663   3.0309179  15.7728032  )
        20           Ti1 tau(  20) = (   6.5553692   1.3539605  15.8053163  )
        21           O1  tau(  21) = (   3.2904802   0.0005063   4.7018136  )
        22           O1  tau(  22) = (   6.5123495   0.2165906  17.2215032  )
        23           O1  tau(  23) = (   1.3043587   1.4918075   6.0039043  )
        24           O1  tau(  24) = (   5.2767064   1.4903225   6.0039473  )
        25           Ti1 tau(  25) = (   0.0000382   5.9609847   6.0000000  )
        26           Ti1 tau(  26) = (   3.2902200   4.4714249   6.0002472  )
        27           O1  tau(  27) = (   0.0002396   2.9813036   7.9858123  )
        28           O1  tau(  28) = (   3.2902150   2.9813002   7.3038282  )
        29           O1  tau(  29) = (   4.5938453   4.4726049   9.2879030  )
        30           O1  tau(  30) = (   1.9864658   4.4711199   9.2879459  )
        31           Ti1 tau(  31) = (   3.2891106   5.8743827   9.1763621  )
        32           Ti1 tau(  32) = (   0.0006254   4.4649316   9.2693709  )
        33           O1  tau(  33) = (   3.2699379   2.9911670  11.3762017  )
        34           O1  tau(  34) = (   0.0092240   2.9805883  10.6323155  )
        35           O1  tau(  35) = (   1.2730946   4.4825978  12.6662957  )
        36           O1  tau(  36) = (   5.2742290   4.4829497  12.6320226  )
        37           Ti1 tau(  37) = (   6.5783117   0.0079037  12.5026730  )
        38           Ti1 tau(  38) = (   3.2784283   4.4905194  12.5286134  )
        39           O1  tau(  39) = (   6.5033290   3.0824797  14.9867588  )
        40           O1  tau(  40) = (   3.2824109   3.0350539  13.9807796  )
        41           O1  tau(  41) = (   4.4804250   4.5097483  16.2808085  )
        42           O1  tau(  42) = (   1.9642025   4.5165872  16.2225063  )
        43           Ti1 tau(  43) = (   3.2609991   0.0502580  15.7998297  )
        44           Ti1 tau(  44) = (   6.5501253   4.5826093  16.0954727  )
        45           O1  tau(  45) = (   3.2900926   2.9813045   4.7018136  )
        46           O1  tau(  46) = (   1.3039711   4.4726057   6.0039043  )
        47           O1  tau(  47) = (   5.2763189   4.4711207   6.0039473  )
        48           N1  tau(  48) = (   0.8845045   3.2634721  19.1145209  )
        49           N1  tau(  49) = (   6.3504243   3.3997271  18.1887592  )
        50           C1  tau(  50) = (   1.2927081   4.5631590  19.6429350  )
        51           H1  tau(  51) = (   0.4658632   5.1229972  20.1056819  )
        52           H1  tau(  52) = (   2.0600825   4.3818216  20.3958833  )
        53           H1  tau(  53) = (   1.7018904   5.1738364  18.8453250  )
        54           H1  tau(  54) = (   0.5628611   2.6866381  19.8888112  )
        55           H1  tau(  55) = (   5.5951421   3.9827062  18.5884547  )
        56           H1  tau(  56) = (   5.9567982   2.4624696  18.0937858  )

     number of k points=    10  Fermi-Dirac smearing, width (Ry)=  0.0073
                       cart. coord. in units 2pi/alat
        k(    1) = (   0.0000000   0.0000000   0.0000000), wk =   0.1250000
        k(    2) = (   0.0000000   0.0419351   0.0000000), wk =   0.2500000
        k(    3) = (   0.0000000  -0.0838702   0.0000000), wk =   0.1250000
        k(    4) = (   0.0379955   0.0000049   0.0000000), wk =   0.2500000
        k(    5) = (   0.0379955   0.0419400   0.0000000), wk =   0.2500000
        k(    6) = (   0.0379955  -0.0838652   0.0000000), wk =   0.2500000
        k(    7) = (   0.0379955  -0.0419301   0.0000000), wk =   0.2500000
        k(    8) = (  -0.0759910  -0.0000099   0.0000000), wk =   0.1250000
        k(    9) = (  -0.0759910   0.0419252   0.0000000), wk =   0.2500000
        k(   10) = (  -0.0759910  -0.0838800   0.0000000), wk =   0.1250000

     Initial potential from superposition of free atoms

     starting charge  381.99914, renormalised to  398.00000

     negative rho (up, down):  1.416E-02 0.000E+00

     %%%%%%%%%%%%%%%%%%%%%%%%%%%%%%%%%%%%%%%%%%%%%%%%%%%%%%%%%%%%%%%%%%%%%%%%
     %                                                                      %
     % You are using vdW-DF, which was implemented by the Thonhauser group. %
     % Please cite the following two papers that made this development      %
     % possible and the two reviews that describe the various versions:     %
     %                                                                      %
     %   T. Thonhauser et al., PRL 115, 136402 (2015).                      %
     %   T. Thonhauser et al., PRB 76, 125112 (2007).                       %
     %   K. Berland et al., Rep. Prog. Phys. 78, 066501 (2015).             %
     %   D.C. Langreth et al., J. Phys.: Condens. Matter 21, 084203 (2009). %
     %                                                                      %
     %                                                                      %
     % If you are calculating the stress with vdW-DF, please also cite:     %
     %                                                                      %
     %   R. Sabatini et al., J. Phys.: Condens. Matter 24, 424209 (2012).   %
     %                                                                      %
     %%%%%%%%%%%%%%%%%%%%%%%%%%%%%%%%%%%%%%%%%%%%%%%%%%%%%%%%%%%%%%%%%%%%%%%%

     Adding external electric field

     Computed dipole along edir(3) :
        Dipole              -11.7171 Ry au,        -29.7818 Debye
        Dipole field         -0.0221 Ry au,

        Potential amp.        2.0497 Ry
        Total length         46.3494 bohr

     Starting wfcs are  302 atomic wfcs
  @ DRIVER MODE: Message from server: STATUS
  @ DRIVER MODE: Message from server: POSDATA
  @ DRIVER MODE: Reading and sharing cell
  @ DRIVER MODE: Reading and sharing positions
  @ DRIVER MODE: Received positions

     Self-consistent Calculation

     iteration #  1     ecut=    29.40 Ry     beta= 0.05
     Davidson diagonalization with overlap
     c_bands:  3 eigenvalues not converged
     c_bands:  1 eigenvalues not converged
     c_bands:  1 eigenvalues not converged
     c_bands:  4 eigenvalues not converged
     c_bands:  1 eigenvalues not converged
     c_bands:  4 eigenvalues not converged
     c_bands:  5 eigenvalues not converged
     c_bands:  2 eigenvalues not converged
     ethr =  1.00E-05,  avg # of iterations = 21.9

[...]

     total energy              =   -2424.41879849 Ry
     estimated scf accuracy    <    5831.92253663 Ry

     iteration #  2     ecut=    29.40 Ry     beta= 0.05
     Davidson diagonalization with overlap
     ethr =  1.00E-02,  avg # of iterations = 22.5

[...]

     iteration # 93     ecut=    29.40 Ry     beta= 0.05
     Davidson diagonalization with overlap
     c_bands:  1 eigenvalues not converged
     c_bands:  1 eigenvalues not converged
     c_bands:  4 eigenvalues not converged
     ethr =  2.75E-11,  avg # of iterations = 17.2

[...]

     total energy              =   -2942.84385425 Ry
     estimated scf accuracy    <       0.00000020 Ry

     iteration # 95     ecut=    29.40 Ry     beta= 0.05
     Davidson diagonalization with overlap
     ethr =  2.75E-11,  avg # of iterations = 11.9

     negative rho (up, down):  1.512E-02 0.000E+00

     Adding external electric field

     Computed dipole along edir(3) :
        Dipole                1.4960 Ry au,          3.8024 Debye
        Dipole field          0.0028 Ry au,

        Potential amp.       -0.2617 Ry
        Total length         46.3494 bohr

     End of self-consistent calculation

          k = 0.0000 0.0000 0.0000 ( 18029 PWs)   bands (ev):

   -55.2015 -55.1643 -55.1536 -55.1248 -55.1195 -55.0828 -55.0796 -55.0448
   -55.0256 -55.0126 -54.9912 -54.9863 -54.9526 -54.8558 -54.1857 -54.1516
   -31.7678 -31.6515 -31.6465 -31.5677 -31.5148 -31.5138 -31.5110 -31.4924
   -31.4426 -31.4390 -31.4111 -31.4089 -31.3986 -31.3817 -31.3687 -31.3631
   -31.3559 -31.3462 -31.3389 -31.3220 -31.3062 -31.3034 -31.2717 -31.2678
   -31.2572 -31.2563 -31.2376 -31.2282 -31.2108 -31.2101 -31.2058 -31.1851
   -31.1850 -31.1817 -31.1748 -31.1723 -31.1390 -31.1293 -31.1146 -31.0977
   -31.0690 -31.0497 -30.5953 -30.5007 -30.4786 -30.4115 -30.3247 -30.2140
   -17.9477 -16.0350 -15.7727 -15.6273 -15.5151 -15.4037 -15.2843 -15.2535
   -15.1337 -15.0576 -14.9236 -14.8973 -14.8750 -14.8515 -14.8395 -14.8270
   -14.7511 -14.7446 -14.7286 -14.7003 -14.6984 -14.6532 -14.6435 -14.6040
   -14.5790 -14.5581 -14.4532 -14.3651 -14.2910 -14.0739 -13.4293 -12.6885
   -12.5710  -9.7042  -6.5928  -6.0556  -4.5904  -3.3734  -3.2511  -3.2252
    -3.1381  -3.1046  -3.0958  -3.0022  -2.9501  -2.7918  -2.6493  -2.6236
    -2.4927  -2.4176  -2.4013  -2.3769  -2.2470  -2.2118  -2.1608  -2.1218
    -2.0626  -2.0322  -2.0083  -1.9926  -1.9616  -1.9525  -1.9274  -1.8380
    -1.7786  -1.6854  -1.6679  -1.6010  -1.5927  -1.5604  -1.5392  -1.4940
    -1.4837  -1.4338  -1.4267  -1.4142  -1.3943  -1.2654  -1.2228  -1.1130
    -1.0517  -0.9640  -0.8432  -0.8032  -0.7892  -0.6985  -0.6896  -0.6579
    -0.5811  -0.5781  -0.5474  -0.4392  -0.3742  -0.3106  -0.2516  -0.2249
    -0.1921  -0.1147  -0.0236   0.0122   0.0290   0.0523   0.1522   0.1873
     0.2429   0.3098   0.3213   0.3346   0.4143   0.4554   0.5305   0.5670
     0.5850   0.6735   0.6999   0.7278   0.7283   0.7661   0.7804   0.8200
     0.8687   0.8955   0.9820   1.0396   1.1029   1.3477   1.4003   1.4064
     1.7324   1.7404   1.8368   2.0203   2.4133   2.4617   3.8950   3.9639
     4.0396   4.0445   4.0670   4.1308   4.3687   4.3917   4.4007   4.4029
     4.4295

[...]

          k = 0.0380-0.0419 0.0000 ( 17876 PWs)   bands (ev):

[...]

          k =-0.0760-0.0000 0.0000 ( 17886 PWs)   bands (ev):

[...]

          k =-0.0760-0.0839 0.0000 ( 17948 PWs)   bands (ev):

   -55.1877 -55.1779 -55.1367 -55.1362 -55.1235 -55.0785 -55.0651 -55.0592
   -55.0168 -55.0097 -55.0066 -54.9697 -54.9694 -54.8569 -54.1688 -54.1684
   -31.5760 -31.5750 -31.5681 -31.4835 -31.4617 -31.4614 -31.4585 -31.4279
   -31.4277 -31.4123 -31.4015 -31.3999 -31.3912 -31.3654 -31.3563 -31.3433
   -31.3422 -31.3384 -31.3351 -31.3296 -31.3276 -31.3217 -31.2826 -31.2794
   -31.2792 -31.2778 -31.2599 -31.2585 -31.2564 -31.2560 -31.2513 -31.2427
   -31.2398 -31.2229 -31.2195 -31.2036 -31.2027 -31.2000 -31.1503 -31.1502
   -31.1255 -31.0735 -30.4914 -30.4911 -30.4079 -30.4077 -30.3682 -30.3681
   -17.9445 -15.5600 -15.4300 -15.4009 -15.2444 -15.2083 -15.1750 -15.1617
   -15.0407 -15.0035 -14.9788 -14.9694 -14.9518 -14.9114 -14.9057 -14.8989
   -14.8283 -14.8090 -14.8048 -14.7825 -14.7243 -14.7154 -14.7115 -14.7039
   -14.6533 -14.6496 -14.5691 -14.5589 -14.5557 -14.3752 -13.4327 -12.6725
   -12.6724  -9.7202  -6.5777  -6.0551  -4.5695  -3.2216  -2.9590  -2.6924
    -2.6875  -2.6595  -2.4584  -2.3957  -2.3650  -2.3595  -2.2622  -2.2255
    -2.2011  -2.1976  -2.1321  -2.1175  -2.0867  -2.0567  -2.0405  -2.0266
    -2.0108  -1.9967  -1.9714  -1.9339  -1.9259  -1.9175  -1.8855  -1.8639
    -1.8410  -1.8186  -1.8052  -1.7868  -1.7607  -1.7381  -1.6015  -1.5699
    -1.4996  -1.4560  -1.4132  -1.4089  -1.3371  -1.3007  -1.2506  -1.2383
    -1.2212  -1.0811  -1.0232  -0.9724  -0.9524  -0.9414  -0.8123  -0.7983
    -0.7250  -0.7075  -0.6913  -0.6158  -0.5657  -0.5275  -0.5138  -0.4205
    -0.4051  -0.3388  -0.2366  -0.2139  -0.2000  -0.1592  -0.1562  -0.1090
    -0.1019  -0.0178   0.0264   0.0615   0.0723   0.1080   0.3010   0.3169
     0.3270   0.4800   0.4961   0.6373   0.6809   0.7475   0.8063   0.8452
     0.9070   0.9442   1.0507   1.0861   1.1020   1.1095   1.1716   1.1835
     1.2463   1.2570   2.1929   2.1935   2.2816   2.2818   4.0410   4.1484
     4.1561   4.1977   4.3175   4.3479   4.4101   4.4372   4.4789   4.4821
     4.5431

     the Fermi energy is     3.9584 ev

!    total energy              =   -2942.84385742 Ry
     estimated scf accuracy    <       0.00000002 Ry
     smearing contrib. (-TS)   =      -0.03707664 Ry
     internal energy E=F+TS    =   -2942.80678078 Ry

     The total energy is F=E-TS. E is the sum of the following terms:
     one-electron contribution =  -23366.59334109 Ry
     hartree contribution      =   11777.47614606 Ry
     xc contribution           =    -487.73463079 Ry
     ewald contribution        =    9134.04082182 Ry
     electric field correction =       0.00422322 Ry

     convergence has been achieved in  95 iterations

     Forces acting on atoms (cartesian axes, Ry/au):

     atom    1 type  1   force =     0.00017086   -0.00033427    0.09327215
     atom    2 type  1   force =    -0.00006008   -0.00042225   -0.17824401
     atom    3 type  2   force =     0.00002484   -0.00031486   -0.02003570
     atom    4 type  2   force =     0.00002121   -0.00183287    0.05924987
     atom    5 type  2   force =    -0.01045285   -0.00026946    0.00863571
     atom    6 type  2   force =     0.01146661    0.00040253    0.00644991
     atom    7 type  1   force =    -0.00100016    0.00213108   -0.01399700
     atom    8 type  1   force =     0.00081993   -0.00094852   -0.00573195
     atom    9 type  2   force =    -0.00010076    0.00012680   -0.00001947
     atom   10 type  2   force =    -0.00185378    0.00412230    0.00027350
     atom   11 type  2   force =    -0.00005642   -0.00064619    0.00029293
     atom   12 type  2   force =    -0.00002271   -0.00041694    0.00054733
     atom   13 type  1   force =     0.00003984    0.00010929    0.00033257
     atom   14 type  1   force =    -0.00037198    0.00000397    0.00008555
     atom   15 type  2   force =     0.00051681    0.00020959   -0.00034911
     atom   16 type  2   force =     0.00032175   -0.00035203   -0.00006186
     atom   17 type  2   force =    -0.00059649   -0.00000984   -0.00002067
     atom   18 type  2   force =     0.00055502   -0.00018638    0.00001320
     atom   19 type  1   force =    -0.00002785   -0.00054982    0.00015566
     atom   20 type  1   force =     0.00068578    0.00010164    0.00101394
     atom   21 type  2   force =     0.00012258   -0.00012666    0.10401999
     atom   22 type  2   force =    -0.00037645    0.00023707   -0.00035590
     atom   23 type  2   force =    -0.07026180   -0.00021784   -0.02685366
     atom   24 type  2   force =     0.07025349    0.00022114   -0.02687846
     atom   25 type  1   force =     0.00008130   -0.00031759    0.09258637
     atom   26 type  1   force =    -0.00002885   -0.00059210   -0.17837073
     atom   27 type  2   force =     0.00012779   -0.00017437   -0.01908802
     atom   28 type  2   force =     0.00005022   -0.00163570    0.05861008
     atom   29 type  2   force =    -0.01105770   -0.00056388    0.00931955
     atom   30 type  2   force =     0.01197672   -0.00002459    0.00720828
     atom   31 type  1   force =    -0.00092800    0.00646249   -0.01506199
     atom   32 type  1   force =     0.00086286    0.00102390   -0.00587364
     atom   33 type  2   force =     0.00017335   -0.00057139   -0.00005207
     atom   34 type  2   force =    -0.00185940   -0.00052902   -0.00049237
     atom   35 type  2   force =    -0.00043944    0.00006459   -0.00042580
     atom   36 type  2   force =     0.00033834   -0.00011358    0.00018753
     atom   37 type  1   force =    -0.00051490   -0.00026057    0.00019509
     atom   38 type  1   force =    -0.00004841   -0.00014320   -0.00008325
     atom   39 type  2   force =     0.00029839   -0.00057854   -0.00002550
     atom   40 type  2   force =    -0.00060281   -0.00051166    0.00026389
     atom   41 type  2   force =    -0.00026461   -0.00073652   -0.00070708
     atom   42 type  2   force =     0.00047180   -0.00010317   -0.00010070
     atom   43 type  1   force =     0.00021876   -0.00019049   -0.00023359
     atom   44 type  1   force =     0.00052578    0.00009257    0.00096527
     atom   45 type  2   force =     0.00013276   -0.00014271    0.10397856
     atom   46 type  2   force =    -0.07026365   -0.00016806   -0.02682503
     atom   47 type  2   force =     0.07023105    0.00025449   -0.02688024
     atom   48 type  3   force =    -0.00019181    0.00196791   -0.00056613
     atom   49 type  3   force =    -0.00768966    0.00400221    0.00325634
     atom   50 type  4   force =     0.00044838   -0.00156716    0.00015320
     atom   51 type  5   force =    -0.00075362    0.00139287    0.00062879
     atom   52 type  5   force =     0.00039998   -0.00024914   -0.00018364
     atom   53 type  5   force =     0.00078235    0.00041305   -0.00122595
     atom   54 type  5   force =     0.00002320   -0.00177640    0.00073774
     atom   55 type  5   force =     0.00832056   -0.00562000   -0.00326144
     atom   56 type  5   force =    -0.00063813   -0.00014174   -0.00042806

     Total force =     0.366591     Total SCF correction =     0.000312
  @ DRIVER MODE: Message from server: STATUS
  @ DRIVER MODE: Message from server: GETFORCE
  @ DRIVER MODE: Returning v,forces,stress,ensemble

     Writing output data file ./calc.save/
  @ DRIVER MODE: Message from server: EXIT
  @ DRIVE MODE: Exiting

     General routines

     Parallel routines

   This run was terminated on:  12: 9:54   9Sep2021

   JOB DONE.