     Program PWSCF v.6.7GPU starts on 18Oct2021 at 17:32:43

     R & G space division:  proc/nbgrp/npool/nimage =       8
     Reading input from /storage/home/hcoda1/3/ntian30/research/carbon/CxH_vib/Thiel_calc/ads_slab/NH2NH2HH_perslab/out_0013/pw.inp
Warning: card &CELL ignored
Warning: card   CELL_DYNAMICS='IPI', ignored
Warning: card / ignored

     Current dimensions of program PWSCF are:
     Max number of different atomic species (ntypx) = 10
     Max number of k-points (npk) =  40000
     Max angular momentum in pseudopotentials (lmaxx) =  3
     Presently no symmetry can be used with electric field

     Message from routine cell_base_init:
     DEPRECATED: use true lattice parameter, not A to a.u. conversion factor

     IMPORTANT: XC functional enforced from input :
     Exchange-correlation= BEEF-VDW
                           (   1   4  43  14   2   0   0)
     Any further DFT definition will be discarded
     Please, verify this is what you really want

  @ DRIVER MODE: Connecting to
 qe_1139763_3255137.sched-torque.pace.gatech.edumroppul2_scratch
  using UNIX socket
  @ DRIVER MODE: Message from server: STATUS
  @ DRIVER MODE: Message from server: INIT
  @ DRIVER MODE: Receiving replica           0          -1
  @ DRIVER MODE: Receiving encoded integer          25
  @ DRIVER MODE:  SCF:  T  FORCE:  T  STRESS:  F  VC:  F  ENSEMBLE:  F
  @ DRIVER MODE:  SCF:  T  FORCE:  T  STRESS:  F  VC:  F  ENSEMBLE:  F

     Using Slab Decomposition

     bravais-lattice index     =            0
     lattice parameter (alat)  =       1.8897  a.u.
     unit-cell volume          =    9988.4706 (a.u.)^3
     number of atoms/cell      =           61
     number of atomic types    =            4
     number of electrons       =       442.00
     number of Kohn-Sham states=          231
     kinetic-energy cutoff     =      29.3995  Ry
     charge density cutoff     =     293.9946  Ry
     scf convergence threshold =      7.3E-08
     mixing beta               =       0.0500
     number of iterations used =            8  plain     mixing
     Exchange-correlation= BEEF-VDW
                           (   1   4  43  14   2   0   0)

     celldm(1)=   1.889726  celldm(2)=   0.000000  celldm(3)=   0.000000
     celldm(4)=   0.000000  celldm(5)=   0.000000  celldm(6)=   0.000000

     crystal axes: (cart. coord. in units of alat)
               a(1) = (   6.579727   0.000000   0.000000 )
               a(2) = (  -0.001163   8.942395   0.000000 )
               a(3) = (   0.000000   0.000000  25.155947 )

     reciprocal axes: (cart. coord. in units 2 pi/alat)
               b(1) = (  0.151982  0.000020  0.000000 )
               b(2) = (  0.000000  0.111827  0.000000 )
               b(3) = (  0.000000  0.000000  0.039752 )

     PseudoPot. # 1 for O  read from file:
     /storage/coda1/p-amedford6/0/shared/rich_project_chbe-medford/medford-share/data/pseudos_module/espresso/nninc/pbe/van/O.UPF
     MD5 check sum: 78c19812648e8988a0fe644b0f25305e
     Pseudo is Ultrasoft, Zval =  6.0
     Generated by new atomic code, or converted to UPF format
     Using radial grid of  737 points,  4 beta functions with:
                l(1) =   0
                l(2) =   0
                l(3) =   1
                l(4) =   1
     Q(r) pseudized with  8 coefficients,  rinner =    0.800   0.800   0.800

     PseudoPot. # 2 for Ti read from file:
     /storage/coda1/p-amedford6/0/shared/rich_project_chbe-medford/medford-share/data/pseudos_module/espresso/nninc/pbe/van/Ti.UPF
     MD5 check sum: 8e4df49b7f0d34bbd5052bf3f5ea0213
     Pseudo is Ultrasoft, Zval = 12.0
     Generated by new atomic code, or converted to UPF format
     Using radial grid of  851 points,  6 beta functions with:
                l(1) =   0
                l(2) =   0
                l(3) =   1
                l(4) =   1
                l(5) =   2
                l(6) =   2
     Q(r) pseudized with  8 coefficients,  rinner =    1.000   1.000   1.000
                                                       1.000   1.000

     PseudoPot. # 3 for N  read from file:
     /storage/coda1/p-amedford6/0/shared/rich_project_chbe-medford/medford-share/data/pseudos_module/espresso/nninc/pbe/van/N.UPF
     MD5 check sum: 90d10febe142ad51ac9d5be1deb811c4
     Pseudo is Ultrasoft, Zval =  5.0
     Generated by new atomic code, or converted to UPF format
     Using radial grid of  729 points,  4 beta functions with:
                l(1) =   0
                l(2) =   0
                l(3) =   1
                l(4) =   1
     Q(r) pseudized with  8 coefficients,  rinner =    0.800   0.800   0.800

     PseudoPot. # 4 for H  read from file:
     /storage/coda1/p-amedford6/0/shared/rich_project_chbe-medford/medford-share/data/pseudos_module/espresso/nninc/pbe/van/H.UPF
     MD5 check sum: b5ee9d7bfd3a09ee7748110bda690ff7
     Pseudo is Ultrasoft, Zval =  1.0
     Generated by new atomic code, or converted to UPF format
     Using radial grid of  615 points,  1 beta functions with:
                l(1) =   0
     Q(r) pseudized with  8 coefficients,  rinner =    0.800

     atomic species   valence    mass     pseudopotential
        O1             6.00    15.99900     O ( 1.00)
        Ti1           12.00    47.86700     Ti( 1.00)
        N1             5.00    14.00700     N ( 1.00)
        H1             1.00     1.00800     H ( 1.00)

     No symmetry found

   Cartesian axes

     site n.     atom                  positions (alat units)
         1           O1  tau(   1) = (   0.0007354   0.0005023  10.5931620  )
         2           O1  tau(   2) = (   3.2456387   0.0208629  13.8623892  )
         3           O1  tau(   3) = (   6.5569189   0.0555649  17.3369326  )
         4           O1  tau(   4) = (   0.0006271   0.0005054   7.9858123  )
         5           O1  tau(   5) = (   3.2933513   8.9300833  11.1812556  )
         6           O1  tau(   6) = (   0.0337597   0.0712708  14.6279364  )
         7           O1  tau(   7) = (   1.9868534   1.4903216   9.2879459  )
         8           O1  tau(   8) = (   5.2215124   1.6184176  12.5791628  )
         9           O1  tau(   9) = (   1.9922958   1.5902288  16.0980526  )
        10           Ti1 tau(  10) = (   0.0007404   1.4906270   9.2895810  )
        11           Ti1 tau(  11) = (   3.2860490   1.3455809  12.4359399  )
        12           Ti1 tau(  12) = (   6.5618936   1.3602716  15.8812525  )
        13           O1  tau(  13) = (   4.5942328   1.4918067   9.2879030  )
        14           O1  tau(  14) = (   1.3307156   1.5887400  12.5381291  )
        15           O1  tau(  15) = (   4.5725103   1.6118788  16.0006659  )
        16           Ti1 tau(  16) = (   3.2902859   2.9801868   9.2893338  )
        17           Ti1 tau(  17) = (   0.0046584   2.8227806  12.4510757  )
        18           Ti1 tau(  18) = (   3.2555632   2.8898243  15.6661830  )
        19           O1  tau(  19) = (   0.0003479   2.9813005  10.5931620  )
        20           O1  tau(  20) = (   3.2279248   2.9553539  13.8813459  )
        21           O1  tau(  21) = (   0.0002396   2.9813036   7.9858123  )
        22           O1  tau(  22) = (   3.2889556   2.9859946  11.1941525  )
        23           O1  tau(  23) = (   0.0559812   2.9852445  14.6488683  )
        24           O1  tau(  24) = (   1.9864658   4.4711199   9.2879459  )
        25           O1  tau(  25) = (   5.2314886   4.5920767  12.6107679  )
        26           O1  tau(  26) = (   1.9969377   4.5324570  16.1535429  )
        27           Ti1 tau(  27) = (   0.0003529   4.4714252   9.2895810  )
        28           Ti1 tau(  28) = (   3.2845268   4.3564118  12.5295435  )
        29           Ti1 tau(  29) = (   6.5676402   4.3565080  15.8255799  )
        30           O1  tau(  30) = (   4.5938453   4.4726049   9.2879030  )
        31           O1  tau(  31) = (   1.3315080   4.5776727  12.5731030  )
        32           O1  tau(  32) = (   4.5871741   4.4544688  15.9274438  )
        33           Ti1 tau(  33) = (   3.2898983   5.9609850   9.2893338  )
        34           Ti1 tau(  34) = (   6.5783773   5.8108302  12.4536689  )
        35           Ti1 tau(  35) = (   3.3162440   5.8110762  16.0333210  )
        36           O1  tau(  36) = (  -0.0000397   5.9620987  10.5931620  )
        37           O1  tau(  37) = (   3.2636778   5.9869953  13.9790019  )
        38           O1  tau(  38) = (   6.4104969   6.0475349  17.2872242  )
        39           O1  tau(  39) = (  -0.0001480   5.9621018   7.9858123  )
        40           O1  tau(  40) = (   3.2905218   5.9516507  11.2202175  )
        41           O1  tau(  41) = (   0.0617018   5.9803669  14.6637187  )
        42           O1  tau(  42) = (   1.9860782   7.4519181   9.2879459  )
        43           O1  tau(  43) = (   5.2407037   7.5572870  12.6049163  )
        44           O1  tau(  44) = (   1.9881273   7.5959696  16.0809372  )
        45           Ti1 tau(  45) = (  -0.0000347   7.4522234   9.2895810  )
        46           Ti1 tau(  46) = (   3.2912638   7.2305267  12.6172466  )
        47           Ti1 tau(  47) = (   0.0232661   7.3094817  15.9177444  )
        48           O1  tau(  48) = (   4.5934577   7.4534031   9.2879030  )
        49           O1  tau(  49) = (   1.3287160   7.5404973  12.5734398  )
        50           O1  tau(  50) = (   4.6507959   7.6754627  15.9163669  )
        51           Ti1 tau(  51) = (   3.2895107   8.9417832   9.2893338  )
        52           Ti1 tau(  52) = (   0.0077981   8.7799231  12.4640552  )
        53           Ti1 tau(  53) = (   3.2910717   8.8534038  15.6608489  )
        54           N1  tau(  54) = (   3.7626148   6.0985185  18.0019073  )
        55           H1  tau(  55) = (   3.4663780   5.3841571  18.6619304  )
        56           H1  tau(  56) = (   3.5465419   6.9988739  18.4208443  )
        57           N1  tau(  57) = (   6.5319303   3.0529623  17.4095181  )
        58           H1  tau(  58) = (   5.7013393   3.0140474  17.9904383  )
        59           H1  tau(  59) = (   0.7603229   3.1006543  18.0203722  )
        60           H1  tau(  60) = (   5.4974376   6.0468821  17.7423635  )
        61           H1  tau(  61) = (   0.7324116   0.0679216  17.9402240  )

     number of k points=    10  Fermi-Dirac smearing, width (Ry)=  0.0073
                       cart. coord. in units 2pi/alat
        k(    1) = (   0.0000000   0.0000000   0.0000000), wk =   0.1250000
        k(    2) = (   0.0000000   0.0279567   0.0000000), wk =   0.2500000
        k(    3) = (   0.0000000  -0.0559134   0.0000000), wk =   0.1250000
        k(    4) = (   0.0379955   0.0000049   0.0000000), wk =   0.2500000
        k(    5) = (   0.0379955   0.0279617   0.0000000), wk =   0.2500000
        k(    6) = (   0.0379955  -0.0559085   0.0000000), wk =   0.2500000
        k(    7) = (   0.0379955  -0.0279518   0.0000000), wk =   0.2500000
        k(    8) = (  -0.0759910  -0.0000099   0.0000000), wk =   0.1250000
        k(    9) = (  -0.0759910   0.0279468   0.0000000), wk =   0.2500000
        k(   10) = (  -0.0759910  -0.0559233   0.0000000), wk =   0.1250000

     Initial potential from superposition of free atoms

     starting charge  423.99908, renormalised to  442.00000

     negative rho (up, down):  3.745E-02 0.000E+00

     %%%%%%%%%%%%%%%%%%%%%%%%%%%%%%%%%%%%%%%%%%%%%%%%%%%%%%%%%%%%%%%%%%%%%%%%
     %                                                                      %
     % You are using vdW-DF, which was implemented by the Thonhauser group. %
     % Please cite the following two papers that made this development      %
     % possible and the two reviews that describe the various versions:     %
     %                                                                      %
     %   T. Thonhauser et al., PRL 115, 136402 (2015).                      %
     %   T. Thonhauser et al., PRB 76, 125112 (2007).                       %
     %   K. Berland et al., Rep. Prog. Phys. 78, 066501 (2015).             %
     %   D.C. Langreth et al., J. Phys.: Condens. Matter 21, 084203 (2009). %
     %                                                                      %
     %                                                                      %
     % If you are calculating the stress with vdW-DF, please also cite:     %
     %                                                                      %
     %   R. Sabatini et al., J. Phys.: Condens. Matter 24, 424209 (2012).   %
     %                                                                      %
     %%%%%%%%%%%%%%%%%%%%%%%%%%%%%%%%%%%%%%%%%%%%%%%%%%%%%%%%%%%%%%%%%%%%%%%%

     Adding external electric field

     Computed dipole along edir(3) :
        Dipole               -5.9687 Ry au,        -15.1708 Debye
        Dipole field         -0.0075 Ry au,

        Potential amp.        0.6961 Ry
        Total length         46.3494 bohr

     Starting wfcs are  334 atomic wfcs
  @ DRIVER MODE: Message from server: STATUS
  @ DRIVER MODE: Message from server: POSDATA
  @ DRIVER MODE: Reading and sharing cell
  @ DRIVER MODE: Reading and sharing positions
  @ DRIVER MODE: Received positions

     Self-consistent Calculation

     iteration #  1     ecut=    29.40 Ry     beta= 0.05
     Davidson diagonalization with overlap
     c_bands:  2 eigenvalues not converged
     c_bands:  3 eigenvalues not converged
     c_bands:  5 eigenvalues not converged
     c_bands:  2 eigenvalues not converged
     c_bands:  4 eigenvalues not converged
     c_bands:  4 eigenvalues not converged
     c_bands:  4 eigenvalues not converged
     c_bands:  2 eigenvalues not converged
     c_bands:  5 eigenvalues not converged
     ethr =  1.00E-05,  avg # of iterations = 21.0

[...]

     total energy              =   -3277.93047559 Ry
     estimated scf accuracy    <     239.66042908 Ry

     iteration #  2     ecut=    29.40 Ry     beta= 0.05
     Davidson diagonalization with overlap
     ethr =  1.00E-02,  avg # of iterations = 15.6

[...]

     iteration # 50     ecut=    29.40 Ry     beta= 0.05
     Davidson diagonalization with overlap
     c_bands:  1 eigenvalues not converged
     c_bands:  1 eigenvalues not converged
     ethr =  5.43E-09,  avg # of iterations = 18.1

[...]

     total energy              =   -3295.80755823 Ry
     estimated scf accuracy    <       0.00000009 Ry

     iteration # 63     ecut=    29.40 Ry     beta= 0.05
     Davidson diagonalization with overlap
     ethr =  2.12E-11,  avg # of iterations =  8.1

     negative rho (up, down):  3.606E-02 0.000E+00

     Adding external electric field

     Computed dipole along edir(3) :
        Dipole                1.5096 Ry au,          3.8370 Debye
        Dipole field          0.0019 Ry au,

        Potential amp.       -0.1761 Ry
        Total length         46.3494 bohr

     End of self-consistent calculation

          k = 0.0000 0.0000 0.0000 ( 26871 PWs)   bands (ev):

   -57.7257 -57.7000 -57.6896 -57.6631 -57.6542 -57.6208 -57.6070 -57.5992
   -57.5716 -57.5583 -57.5090 -57.4785 -57.4620 -57.4559 -57.4478 -56.7470
   -56.7229 -56.7183 -34.1072 -34.1040 -34.0953 -34.0863 -34.0741 -34.0576
   -34.0568 -34.0428 -34.0297 -34.0183 -33.9884 -33.9704 -33.9507 -33.9445
   -33.9368 -33.9184 -33.9130 -33.9116 -33.8933 -33.8880 -33.8661 -33.8637
   -33.8434 -33.8338 -33.8297 -33.8238 -33.8129 -33.8110 -33.8054 -33.7959
   -33.7844 -33.7825 -33.7684 -33.7328 -33.7235 -33.7194 -33.7047 -33.7040
   -33.6964 -33.6954 -33.6840 -33.6756 -33.6688 -33.6628 -33.6403 -33.0623
   -33.0612 -33.0567 -33.0452 -33.0409 -32.9731 -32.9111 -32.9058 -32.7729
   -19.3026 -18.7610 -18.5263 -18.2278 -18.0170 -17.9747 -17.9416 -17.8203
   -17.7848 -17.7608 -17.6633 -17.6519 -17.5884 -17.5347 -17.5066 -17.4579
   -17.4397 -17.3793 -17.3653 -17.3569 -17.3516 -17.3415 -17.3312 -17.2659
   -17.2385 -17.2105 -17.1715 -17.1558 -17.1492 -17.1418 -17.1192 -16.8467
   -15.5021 -15.2138 -15.1557 -15.1545 -15.0761  -6.9863  -6.8136  -6.6486
    -6.3270  -5.8610  -5.7874  -5.6380  -5.5142  -5.2220  -5.1944  -5.1430
    -5.1163  -5.0875  -5.0227  -5.0026  -4.9897  -4.9343  -4.9169  -4.8444
    -4.8214  -4.7799  -4.7561  -4.7304  -4.6856  -4.6453  -4.6182  -4.6061
    -4.5755  -4.5680  -4.5115  -4.4879  -4.4583  -4.4530  -4.4367  -4.3273
    -4.2953  -4.2388  -4.1701  -4.0925  -4.0400  -4.0319  -3.9753  -3.9564
    -3.9038  -3.8638  -3.8266  -3.8180  -3.7815  -3.7433  -3.6432  -3.6112
    -3.5884  -3.5229  -3.5009  -3.4321  -3.4146  -3.3813  -3.3398  -3.3340
    -3.2969  -3.1990  -3.1649  -3.0847  -3.0276  -2.9747  -2.9357  -2.8907
    -2.8443  -2.8111  -2.7859  -2.7040  -2.6281  -2.5445  -2.4939  -2.4812
    -2.4692  -2.4188  -2.4120  -2.4092  -2.3522  -2.3264  -2.3156  -2.2783
    -2.2264  -2.2037  -2.1415  -2.0964  -2.0614  -1.9939  -1.9782  -1.8974
    -1.8887  -1.8274  -1.7843  -1.7448  -1.6333  -1.5981  -1.5660  -1.5634
    -1.4447  -1.4084  -1.1454  -1.0052  -0.7886  -0.7551  -0.5008  -0.4521
    -0.4493  -0.1863  -0.1829  -0.0547   1.3215   1.5102   1.6437   1.6993
     1.7041   1.7376   1.8038   1.8902   1.9163   1.9627   1.9944

[...]

          k = 0.0380-0.0280 0.0000 ( 26873 PWs)   bands (ev):

[...]

          k =-0.0760-0.0000 0.0000 ( 26902 PWs)   bands (ev):

[...]

          k =-0.0760-0.0559 0.0000 ( 26868 PWs)   bands (ev):

   -57.7221 -57.7076 -57.6854 -57.6619 -57.6542 -57.6214 -57.6084 -57.5989
   -57.5709 -57.5581 -57.5093 -57.4735 -57.4660 -57.4616 -57.4430 -56.7408
   -56.7354 -56.7120 -34.1946 -34.1574 -34.1547 -34.0951 -34.0609 -34.0534
   -34.0427 -34.0400 -34.0026 -33.9686 -33.9347 -33.9211 -33.9156 -33.9142
   -33.9032 -33.9008 -33.8811 -33.8738 -33.8693 -33.8692 -33.8652 -33.8597
   -33.8546 -33.8464 -33.8320 -33.8271 -33.8245 -33.8195 -33.8151 -33.7944
   -33.7937 -33.7712 -33.7645 -33.7570 -33.7513 -33.7328 -33.7265 -33.7212
   -33.7014 -33.7013 -33.6993 -33.6960 -33.6868 -33.6686 -33.6517 -33.1511
   -33.0620 -33.0568 -33.0344 -32.9546 -32.9487 -32.8869 -32.8724 -32.8671
   -19.2891 -18.7353 -18.2726 -18.1359 -17.9645 -17.9225 -17.8485 -17.8356
   -17.8237 -17.7943 -17.7024 -17.6791 -17.6525 -17.5697 -17.5508 -17.5009
   -17.4571 -17.4438 -17.4257 -17.4146 -17.4065 -17.3899 -17.3559 -17.3239
   -17.2913 -17.2392 -17.1773 -17.1584 -17.1100 -17.0952 -17.0646 -16.8804
   -15.4968 -15.2118 -15.2098 -15.0930 -15.0774  -6.9910  -6.8450  -6.6405
    -6.3086  -5.5178  -5.4547  -5.3712  -5.3568  -5.2390  -5.2066  -5.0151
    -5.0049  -4.9902  -4.9583  -4.9262  -4.8899  -4.8634  -4.8392  -4.8256
    -4.8117  -4.7905  -4.7646  -4.7525  -4.7363  -4.6921  -4.6453  -4.6390
    -4.6279  -4.6054  -4.5512  -4.5061  -4.4784  -4.4259  -4.4225  -4.3422
    -4.3187  -4.3006  -4.2258  -4.2182  -4.0974  -3.9490  -3.8879  -3.8679
    -3.8438  -3.7964  -3.7861  -3.7326  -3.7114  -3.6939  -3.5573  -3.4747
    -3.4513  -3.4166  -3.3853  -3.3623  -3.3267  -3.2994  -3.2771  -3.2517
    -3.2356  -3.1828  -3.1664  -3.1234  -3.0812  -2.9994  -2.9554  -2.8974
    -2.8744  -2.8561  -2.8377  -2.8340  -2.8133  -2.7808  -2.7513  -2.6956
    -2.6865  -2.6563  -2.5850  -2.5299  -2.5022  -2.4776  -2.4354  -2.4285
    -2.2735  -2.2542  -2.2210  -2.2088  -2.1352  -2.0920  -2.0005  -1.9739
    -1.9511  -1.8800  -1.8080  -1.7647  -1.7081  -1.5118  -1.5030  -1.3840
    -1.3471  -1.2983  -1.2727  -1.2299  -1.0700  -0.7373  -0.6634  -0.3801
    -0.3689  -0.3429  -0.1875  -0.1812   1.4287   1.4522   1.5374   1.5937
     1.6125   1.6502   1.6630   1.7020   1.7226   1.7793   1.9148

     the Fermi energy is     1.3723 ev

!    total energy              =   -3295.80758757 Ry
     estimated scf accuracy    <       0.00000005 Ry
     smearing contrib. (-TS)   =      -0.03572165 Ry
     internal energy E=F+TS    =   -3295.77186592 Ry

     The total energy is F=E-TS. E is the sum of the following terms:
     one-electron contribution =  -34705.73765414 Ry
     hartree contribution      =   17418.77485916 Ry
     xc contribution           =    -543.86336255 Ry
     ewald contribution        =   14535.05142466 Ry
     electric field correction =       0.00286695 Ry

     convergence has been achieved in  63 iterations

     Forces acting on atoms (cartesian axes, Ry/au):

     atom    1 type  1   force =    -0.00168675    0.00377002    0.05470909
     atom    2 type  1   force =     0.00023879   -0.00250643   -0.00842036
     atom    3 type  1   force =     0.00048790   -0.00349980    0.00030037
     atom    4 type  1   force =     0.00004341   -0.00003226    0.10676550
     atom    5 type  1   force =    -0.00020373    0.00065561    0.00659790
     atom    6 type  1   force =     0.00003728   -0.00445611    0.00373808
     atom    7 type  1   force =     0.06646814    0.00078891   -0.02966131
     atom    8 type  1   force =     0.00658900   -0.02712894    0.00195767
     atom    9 type  1   force =     0.00662495   -0.02255625    0.00513070
     atom   10 type  2   force =    -0.00011115   -0.00450756   -0.18343604
     atom   11 type  2   force =     0.00067320    0.02088365   -0.00413637
     atom   12 type  2   force =    -0.00178919    0.02768974   -0.00658446
     atom   13 type  1   force =    -0.06652587    0.00044483   -0.02980472
     atom   14 type  1   force =    -0.00433105   -0.02770744    0.00253453
     atom   15 type  1   force =    -0.00657872   -0.02335179    0.00501557
     atom   16 type  2   force =     0.00008339    0.00069093    0.06698702
     atom   17 type  2   force =    -0.00237977    0.03353329    0.00349030
     atom   18 type  2   force =     0.00124413    0.02452948   -0.00362990
     atom   19 type  1   force =    -0.00169773    0.00675104    0.05326410
     atom   20 type  1   force =     0.00024207   -0.00116488   -0.00661566
     atom   21 type  1   force =     0.00003491    0.00110313    0.10723412
     atom   22 type  1   force =    -0.00025175   -0.00198968    0.00723728
     atom   23 type  1   force =     0.00071303   -0.00582897    0.00415360
     atom   24 type  1   force =     0.06750101    0.00138055   -0.02906192
     atom   25 type  1   force =     0.00527417   -0.03016324    0.00245779
     atom   26 type  1   force =     0.00670388   -0.02610044   -0.00418887
     atom   27 type  2   force =     0.00010993   -0.00120799   -0.18673527
     atom   28 type  2   force =     0.00007689    0.02386162   -0.00246464
     atom   29 type  2   force =    -0.00103911    0.02210658    0.00088442
     atom   30 type  1   force =    -0.06760666    0.00087599   -0.02891528
     atom   31 type  1   force =    -0.00536741   -0.02962758    0.00279339
     atom   32 type  1   force =    -0.00434566   -0.02236199    0.00270291
     atom   33 type  2   force =    -0.00004717    0.00131756    0.07474086
     atom   34 type  2   force =     0.00092481    0.03692703    0.00405960
     atom   35 type  2   force =    -0.00215707    0.03461752    0.00480388
     atom   36 type  1   force =    -0.00186660    0.00288714    0.05588714
     atom   37 type  1   force =     0.00130923    0.00403700   -0.01142211
     atom   38 type  1   force =     0.00010730   -0.00410735    0.00418798
     atom   39 type  1   force =     0.00002232   -0.00063713    0.10726124
     atom   40 type  1   force =     0.00015584   -0.00141336    0.00716535
     atom   41 type  1   force =    -0.00025386   -0.00396608    0.00182020
     atom   42 type  1   force =     0.06783428   -0.00221682   -0.02969860
     atom   43 type  1   force =     0.00368366   -0.02636094    0.00152953
     atom   44 type  1   force =     0.01005002   -0.01805066    0.00274414
     atom   45 type  2   force =     0.00003109    0.00217597   -0.18329973
     atom   46 type  2   force =    -0.00023373    0.01479066    0.00207023
     atom   47 type  2   force =     0.00287437    0.02646505   -0.00873515
     atom   48 type  1   force =    -0.06789829   -0.00284511   -0.02985734
     atom   49 type  1   force =    -0.00374817   -0.02550608    0.00183106
     atom   50 type  1   force =    -0.00793451   -0.02363712    0.00518111
     atom   51 type  2   force =     0.00045282   -0.00350011    0.06841067
     atom   52 type  2   force =    -0.00011585    0.03119430    0.00594991
     atom   53 type  2   force =    -0.00202209    0.02596112   -0.00057603
     atom   54 type  3   force =    -0.00029505    0.00101598    0.00083864
     atom   55 type  4   force =    -0.00068886   -0.00005522   -0.00062415
     atom   56 type  4   force =     0.00134433   -0.00177536   -0.00023832
     atom   57 type  3   force =     0.00130990   -0.00271847   -0.00029215
     atom   58 type  4   force =     0.00050276    0.00102663   -0.00006576
     atom   59 type  4   force =     0.00006313    0.00028399    0.00071112
     atom   60 type  4   force =    -0.00138722    0.00032084    0.00019542
     atom   61 type  4   force =    -0.00124892   -0.00110499    0.00112172

     Total force =     0.459481     Total SCF correction =     0.000704
  @ DRIVER MODE: Message from server: STATUS
  @ DRIVER MODE: Message from server: GETFORCE
  @ DRIVER MODE: Returning v,forces,stress,ensemble

     Writing output data file ./calc.save/
  @ DRIVER MODE: Message from server: EXIT
  @ DRIVE MODE: Exiting

     General routines

     Parallel routines

   This run was terminated on:  18: 5:23  18Oct2021

   JOB DONE.