     Program PWSCF v.6.7GPU starts on  8Sep2021 at 21:51:39

     R & G space division:  proc/nbgrp/npool/nimage =      10
     Reading input from /storage/home/hcoda1/3/ntian30/research/carbon/CxH_vib/CH_calc/ads_slab/CHO_a/out_0000/pw.inp
Warning: card &CELL ignored
Warning: card   CELL_DYNAMICS='IPI', ignored
Warning: card / ignored

     Current dimensions of program PWSCF are:
     Max number of different atomic species (ntypx) = 10
     Max number of k-points (npk) =  40000
     Max angular momentum in pseudopotentials (lmaxx) =  3
     Presently no symmetry can be used with electric field

     Message from routine cell_base_init:
     DEPRECATED: use true lattice parameter, not A to a.u. conversion factor

     IMPORTANT: XC functional enforced from input :
     Exchange-correlation= BEEF-VDW
                           (   1   4  43  14   2   0   0)
     Any further DFT definition will be discarded
     Please, verify this is what you really want

  @ DRIVER MODE: Connecting to
 qe_1139763_2767379.sched-torque.pace.gatech.edua3hy9lul_scratch
  using UNIX socket
  @ DRIVER MODE: Message from server: STATUS
  @ DRIVER MODE: Message from server: INIT
  @ DRIVER MODE: Receiving replica           0          -1
  @ DRIVER MODE: Receiving encoded integer          25
  @ DRIVER MODE:  SCF:  T  FORCE:  T  STRESS:  F  VC:  F  ENSEMBLE:  F
  @ DRIVER MODE:  SCF:  T  FORCE:  T  STRESS:  F  VC:  F  ENSEMBLE:  F

     Using Slab Decomposition

     bravais-lattice index     =            0
     lattice parameter (alat)  =       1.8897  a.u.
     unit-cell volume          =    6658.9804 (a.u.)^3
     number of atoms/cell      =           50
     number of atomic types    =            4
     number of electrons       =       389.00
     number of Kohn-Sham states=          204
     kinetic-energy cutoff     =      29.3995  Ry
     charge density cutoff     =     293.9946  Ry
     scf convergence threshold =      7.3E-08
     mixing beta               =       0.0500
     number of iterations used =            8  plain     mixing
     Exchange-correlation= BEEF-VDW
                           (   1   4  43  14   2   0   0)

     celldm(1)=   1.889726  celldm(2)=   0.000000  celldm(3)=   0.000000
     celldm(4)=   0.000000  celldm(5)=   0.000000  celldm(6)=   0.000000

     crystal axes: (cart. coord. in units of alat)
               a(1) = (   6.579727   0.000000   0.000000 )
               a(2) = (  -0.000775   5.961596   0.000000 )
               a(3) = (   0.000000   0.000000  25.155947 )

     reciprocal axes: (cart. coord. in units 2 pi/alat)
               b(1) = (  0.151982  0.000020  0.000000 )
               b(2) = (  0.000000  0.167740  0.000000 )
               b(3) = (  0.000000  0.000000  0.039752 )

     PseudoPot. # 1 for O  read from file:
     /storage/coda1/p-amedford6/0/shared/rich_project_chbe-medford/medford-share/data/pseudos_module/espresso/nninc/pbe/van/O.UPF
     MD5 check sum: 78c19812648e8988a0fe644b0f25305e
     Pseudo is Ultrasoft, Zval =  6.0
     Generated by new atomic code, or converted to UPF format
     Using radial grid of  737 points,  4 beta functions with:
                l(1) =   0
                l(2) =   0
                l(3) =   1
                l(4) =   1
     Q(r) pseudized with  8 coefficients,  rinner =    0.800   0.800   0.800

     PseudoPot. # 2 for Ti read from file:
     /storage/coda1/p-amedford6/0/shared/rich_project_chbe-medford/medford-share/data/pseudos_module/espresso/nninc/pbe/van/Ti.UPF
     MD5 check sum: 8e4df49b7f0d34bbd5052bf3f5ea0213
     Pseudo is Ultrasoft, Zval = 12.0
     Generated by new atomic code, or converted to UPF format
     Using radial grid of  851 points,  6 beta functions with:
                l(1) =   0
                l(2) =   0
                l(3) =   1
                l(4) =   1
                l(5) =   2
                l(6) =   2
     Q(r) pseudized with  8 coefficients,  rinner =    1.000   1.000   1.000
                                                       1.000   1.000

     PseudoPot. # 3 for C  read from file:
     /storage/coda1/p-amedford6/0/shared/rich_project_chbe-medford/medford-share/data/pseudos_module/espresso/nninc/pbe/van/C.UPF
     MD5 check sum: 1a69bf6b8db32088f5b2163dbdb77a27
     Pseudo is Ultrasoft, Zval =  4.0
     Generated by new atomic code, or converted to UPF format
     Using radial grid of  721 points,  4 beta functions with:
                l(1) =   0
                l(2) =   0
                l(3) =   1
                l(4) =   1
     Q(r) pseudized with  8 coefficients,  rinner =    0.800   0.800   0.800

     PseudoPot. # 4 for H  read from file:
     /storage/coda1/p-amedford6/0/shared/rich_project_chbe-medford/medford-share/data/pseudos_module/espresso/nninc/pbe/van/H.UPF
     MD5 check sum: b5ee9d7bfd3a09ee7748110bda690ff7
     Pseudo is Ultrasoft, Zval =  1.0
     Generated by new atomic code, or converted to UPF format
     Using radial grid of  615 points,  1 beta functions with:
                l(1) =   0
     Q(r) pseudized with  8 coefficients,  rinner =    0.800

     atomic species   valence    mass     pseudopotential
        O1             6.00    15.99900     O ( 1.00)
        Ti1           12.00    47.86700     Ti( 1.00)
        C1             4.00    12.01100     C ( 1.00)
        H1             1.00     1.00800     H ( 1.00)

     No symmetry found

   Cartesian axes

     site n.     atom                  positions (alat units)
         1           O1  tau(   1) = (   3.2904802   0.0005063   4.7018136  )
         2           O1  tau(   2) = (   3.2900926   2.9813045   4.7018136  )
         3           Ti1 tau(   3) = (   0.0004258   2.9801865   6.0000000  )
         4           Ti1 tau(   4) = (   0.0000382   5.9609847   6.0000000  )
         5           Ti1 tau(   5) = (   3.2906075   1.4906267   6.0002472  )
         6           Ti1 tau(   6) = (   3.2902200   4.4714249   6.0002472  )
         7           O1  tau(   7) = (   1.3043587   1.4918075   6.0039043  )
         8           O1  tau(   8) = (   1.3039711   4.4726057   6.0039043  )
         9           O1  tau(   9) = (   5.2767064   1.4903225   6.0039473  )
        10           O1  tau(  10) = (   5.2763189   4.4711207   6.0039473  )
        11           O1  tau(  11) = (   3.2906025   0.0005020   7.3038282  )
        12           O1  tau(  12) = (   3.2902150   2.9813002   7.3038282  )
        13           O1  tau(  13) = (   0.0006271   0.0005054   7.9858123  )
        14           O1  tau(  14) = (   0.0002396   2.9813036   7.9858123  )
        15           Ti1 tau(  15) = (   3.2969808   0.0564913   9.1534998  )
        16           Ti1 tau(  16) = (   3.3141337   3.0327768   9.1571505  )
        17           Ti1 tau(  17) = (   0.0233175   4.5369896   9.2585411  )
        18           Ti1 tau(  18) = (   0.0198836   1.6172415   9.3624336  )
        19           O1  tau(  19) = (   4.5942328   1.4918067   9.2879030  )
        20           O1  tau(  20) = (   4.5938453   4.4726049   9.2879030  )
        21           O1  tau(  21) = (   1.9868534   1.4903216   9.2879459  )
        22           O1  tau(  22) = (   1.9864658   4.4711199   9.2879459  )
        23           O1  tau(  23) = (   0.0063158   0.0123177  10.6034754  )
        24           O1  tau(  24) = (   0.0044132   2.9941235  10.5786081  )
        25           O1  tau(  25) = (   3.2970120   2.9984392  11.3520126  )
        26           O1  tau(  26) = (   3.2962737   0.0176366  11.3543537  )
        27           Ti1 tau(  27) = (   0.0302790   0.0280999  12.4961607  )
        28           Ti1 tau(  28) = (   3.3312859   4.4933669  12.4927350  )
        29           Ti1 tau(  29) = (   3.3314798   1.5140231  12.4973429  )
        30           Ti1 tau(  30) = (   0.0296678   3.0111287  12.7911082  )
        31           O1  tau(  31) = (   1.2935131   4.4896988  12.6418387  )
        32           O1  tau(  32) = (   1.2923886   1.5080263  12.6414434  )
        33           O1  tau(  33) = (   5.2919490   4.4892252  12.6414299  )
        34           O1  tau(  34) = (   5.2935099   1.5067266  12.6404615  )
        35           O1  tau(  35) = (   3.2972132   2.9952276  13.9333167  )
        36           O1  tau(  36) = (   3.2969292   0.0217920  13.9560627  )
        37           O1  tau(  37) = (   0.0109375   0.0110981  14.6876342  )
        38           O1  tau(  38) = (   0.0109565   3.0062585  14.7134293  )
        39           Ti1 tau(  39) = (   3.3068652   2.9980133  15.7272348  )
        40           Ti1 tau(  40) = (   3.3088638   0.0192678  15.7517854  )
        41           Ti1 tau(  41) = (   0.0288418   4.5446802  15.9499200  )
        42           Ti1 tau(  42) = (   0.0223207   1.3431340  16.0223868  )
        43           O1  tau(  43) = (   4.5495857   4.4747881  16.0802101  )
        44           O1  tau(  44) = (   4.5538725   1.5135375  16.1032510  )
        45           O1  tau(  45) = (   2.0418931   1.5171625  16.1093315  )
        46           O1  tau(  46) = (   2.0408760   4.4691196  16.0910022  )
        47           O1  tau(  47) = (   0.0096378   0.0051088  17.2033978  )
        48           O1  tau(  48) = (   6.5496506   3.0476207  17.4767105  )
        49           C1  tau(  49) = (   6.4067813   3.0303407  18.7370298  )
        50           H1  tau(  50) = (   6.4030715   1.9712591  19.1029599  )

     number of k points=    10  Fermi-Dirac smearing, width (Ry)=  0.0073
                       cart. coord. in units 2pi/alat
        k(    1) = (   0.0000000   0.0000000   0.0000000), wk =   0.1250000
        k(    2) = (   0.0000000   0.0419351   0.0000000), wk =   0.2500000
        k(    3) = (   0.0000000  -0.0838702   0.0000000), wk =   0.1250000
        k(    4) = (   0.0379955   0.0000049   0.0000000), wk =   0.2500000
        k(    5) = (   0.0379955   0.0419400   0.0000000), wk =   0.2500000
        k(    6) = (   0.0379955  -0.0838652   0.0000000), wk =   0.2500000
        k(    7) = (   0.0379955  -0.0419301   0.0000000), wk =   0.2500000
        k(    8) = (  -0.0759910  -0.0000099   0.0000000), wk =   0.1250000
        k(    9) = (  -0.0759910   0.0419252   0.0000000), wk =   0.2500000
        k(   10) = (  -0.0759910  -0.0838800   0.0000000), wk =   0.1250000

     Initial potential from superposition of free atoms

     starting charge  372.99920, renormalised to  389.00000

     negative rho (up, down):  1.925E-02 0.000E+00

     %%%%%%%%%%%%%%%%%%%%%%%%%%%%%%%%%%%%%%%%%%%%%%%%%%%%%%%%%%%%%%%%%%%%%%%%
     %                                                                      %
     % You are using vdW-DF, which was implemented by the Thonhauser group. %
     % Please cite the following two papers that made this development      %
     % possible and the two reviews that describe the various versions:     %
     %                                                                      %
     %   T. Thonhauser et al., PRL 115, 136402 (2015).                      %
     %   T. Thonhauser et al., PRB 76, 125112 (2007).                       %
     %   K. Berland et al., Rep. Prog. Phys. 78, 066501 (2015).             %
     %   D.C. Langreth et al., J. Phys.: Condens. Matter 21, 084203 (2009). %
     %                                                                      %
     %                                                                      %
     % If you are calculating the stress with vdW-DF, please also cite:     %
     %                                                                      %
     %   R. Sabatini et al., J. Phys.: Condens. Matter 24, 424209 (2012).   %
     %                                                                      %
     %%%%%%%%%%%%%%%%%%%%%%%%%%%%%%%%%%%%%%%%%%%%%%%%%%%%%%%%%%%%%%%%%%%%%%%%

     Adding external electric field

     Computed dipole along edir(3) :
        Dipole               -4.4813 Ry au,        -11.3903 Debye
        Dipole field         -0.0085 Ry au,

        Potential amp.        0.7839 Ry
        Total length         46.3494 bohr

     Starting wfcs are  293 atomic wfcs
  @ DRIVER MODE: Message from server: STATUS
  @ DRIVER MODE: Message from server: POSDATA
  @ DRIVER MODE: Reading and sharing cell
  @ DRIVER MODE: Reading and sharing positions
  @ DRIVER MODE: Received positions

     Self-consistent Calculation

     iteration #  1     ecut=    29.40 Ry     beta= 0.05
     Davidson diagonalization with overlap
     ethr =  1.00E-02,  avg # of iterations =  2.0

[...]

     total energy              =   -2880.32462598 Ry
     estimated scf accuracy    <     556.51928229 Ry

[...]

     iteration #  3     ecut=    29.40 Ry     beta= 0.05
     Davidson diagonalization with overlap
     c_bands:  1 eigenvalues not converged
     c_bands:  1 eigenvalues not converged
     ethr =  1.00E-02,  avg # of iterations = 18.7

[...]

     iteration # 86     ecut=    29.40 Ry     beta= 0.05
     Davidson diagonalization with overlap
     c_bands:  1 eigenvalues not converged
     c_bands:  1 eigenvalues not converged
     ethr =  3.42E-11,  avg # of iterations = 13.2

[...]

     total energy              =   -2928.82045417 Ry
     estimated scf accuracy    <       0.00000009 Ry

     iteration # 87     ecut=    29.40 Ry     beta= 0.05
     Davidson diagonalization with overlap
     ethr =  2.20E-11,  avg # of iterations =  8.3

     negative rho (up, down):  1.792E-02 0.000E+00

     Adding external electric field

     Computed dipole along edir(3) :
        Dipole                0.1851 Ry au,          0.4705 Debye
        Dipole field          0.0003 Ry au,

        Potential amp.       -0.0324 Ry
        Total length         46.3494 bohr

     End of self-consistent calculation

          k = 0.0000 0.0000 0.0000 ( 18029 PWs)   bands (ev):

   -56.3035 -56.2906 -56.2667 -56.2544 -56.2021 -56.1902 -56.1574 -56.1368
   -56.1242 -56.0884 -56.0744 -56.0407 -55.9931 -55.9719 -55.3299 -55.2958
   -32.8572 -32.7755 -32.6809 -32.6650 -32.6445 -32.6126 -32.5995 -32.5809
   -32.5532 -32.5370 -32.5359 -32.5085 -32.5058 -32.4719 -32.4622 -32.4523
   -32.4365 -32.4253 -32.4244 -32.3973 -32.3768 -32.3689 -32.3667 -32.3569
   -32.3423 -32.3332 -32.3304 -32.3279 -32.3106 -32.3053 -32.2997 -32.2962
   -32.2582 -32.2478 -32.2263 -32.2183 -32.2087 -32.1956 -32.1794 -32.1622
   -32.1614 -32.1594 -31.7401 -31.6421 -31.6199 -31.5567 -31.4706 -31.3594
   -19.8949 -17.0627 -16.7775 -16.6258 -16.4954 -16.4480 -16.3157 -16.1741
   -16.0855 -16.0073 -15.9579 -15.9184 -15.8879 -15.8774 -15.8574 -15.8386
   -15.8361 -15.8256 -15.7552 -15.7516 -15.7179 -15.7016 -15.6985 -15.6017
   -15.5400 -15.4781 -15.4331 -15.3589 -15.3227 -15.2526 -13.8307 -13.7122
    -8.2695  -5.0591  -4.4111  -4.2417  -4.2109  -4.2042  -4.1309  -3.9126
    -3.8595  -3.6487  -3.6077  -3.4893  -3.4648  -3.4537  -3.4150  -3.3604
    -3.2715  -3.1444  -3.1418  -3.1313  -3.1245  -3.1114  -3.0754  -3.0525
    -3.0459  -3.0100  -2.9246  -2.8278  -2.8246  -2.7265  -2.6994  -2.6823
    -2.6237  -2.6133  -2.5808  -2.5613  -2.5500  -2.5283  -2.4841  -2.4623
    -2.3814  -2.2802  -2.1593  -2.1036  -2.0214  -1.9844  -1.8553  -1.7980
    -1.7417  -1.7163  -1.6685  -1.6396  -1.6004  -1.5700  -1.5361  -1.4620
    -1.3430  -1.3414  -1.2428  -1.1675  -1.1351  -1.1081  -1.0545  -1.0400
    -1.0320  -0.9296  -0.7965  -0.7878  -0.7791  -0.6893  -0.6461  -0.6283
    -0.5455  -0.5396  -0.5039  -0.4810  -0.4549  -0.3760  -0.3672  -0.3194
    -0.3036  -0.2760  -0.1625  -0.1126  -0.1005  -0.0596  -0.0172   0.1706
     0.1828   0.3248   0.4023   0.5957   0.6945   0.7493   0.8635   1.2825
     1.3408   2.6239   2.8710   2.8981   2.9288   2.9667   3.0100   3.1206
     3.2292   3.3103   3.3264   3.3587

[...]

          k = 0.0380-0.0419 0.0000 ( 17876 PWs)   bands (ev):

[...]

          k =-0.0760-0.0000 0.0000 ( 17886 PWs)   bands (ev):

[...]

          k =-0.0760-0.0839 0.0000 ( 17948 PWs)   bands (ev):

   -56.2921 -56.2779 -56.2734 -56.2714 -56.1972 -56.1763 -56.1712 -56.1415
   -56.1220 -56.0853 -56.0599 -56.0556 -55.9953 -55.9743 -55.3134 -55.3122
   -32.6613 -32.6577 -32.5994 -32.5978 -32.5859 -32.5838 -32.5815 -32.5632
   -32.5569 -32.5093 -32.5080 -32.4994 -32.4938 -32.4670 -32.4390 -32.4348
   -32.4217 -32.4196 -32.4164 -32.4075 -32.4074 -32.3956 -32.3839 -32.3815
   -32.3802 -32.3757 -32.3701 -32.3494 -32.3405 -32.3265 -32.3132 -32.3130
   -32.3122 -32.2883 -32.2687 -32.2677 -32.2646 -32.2545 -32.2170 -32.2122
   -32.2029 -32.1685 -31.6333 -31.6317 -31.5535 -31.5525 -31.5142 -31.5132
   -19.8872 -16.4904 -16.4598 -16.3546 -16.2332 -16.2205 -16.1897 -16.1473
   -16.0916 -16.0398 -16.0344 -15.9849 -15.9632 -15.9618 -15.9213 -15.8864
   -15.8378 -15.8298 -15.8234 -15.8193 -15.7682 -15.7635 -15.7235 -15.6974
   -15.6895 -15.6511 -15.6493 -15.5706 -15.4966 -15.4568 -13.8147 -13.8123
    -8.2693  -5.0102  -3.7815  -3.7407  -3.6449  -3.6080  -3.4510  -3.4411
    -3.3963  -3.3327  -3.2761  -3.2224  -3.1954  -3.1696  -3.1534  -3.1379
    -3.1281  -3.1172  -3.1068  -3.0528  -3.0465  -3.0098  -2.9911  -2.9576
    -2.9431  -2.9366  -2.9284  -2.8925  -2.8778  -2.8669  -2.8606  -2.8508
    -2.7516  -2.6690  -2.6288  -2.5628  -2.5110  -2.4559  -2.4391  -2.4206
    -2.3846  -2.3688  -2.3526  -2.2145  -2.1849  -2.0501  -2.0385  -2.0190
    -1.9994  -1.9128  -1.8761  -1.7690  -1.7519  -1.7462  -1.6570  -1.6238
    -1.5628  -1.5470  -1.4716  -1.4294  -1.4064  -1.3307  -1.2794  -1.2672
    -1.2163  -1.1972  -1.1108  -1.0700  -1.0646  -1.0465  -0.9912  -0.9621
    -0.8822  -0.8648  -0.8448  -0.7526  -0.6883  -0.6630  -0.4791  -0.3168
    -0.3082  -0.2704  -0.1801  -0.1272  -0.0830  -0.0322  -0.0298   0.0503
     0.1040   0.1968   0.2144   0.2203   0.2951   1.0530   1.0543   1.1455
     1.1565   2.5366   3.0471   3.0913   3.1172   3.1846   3.3131   3.3377
     3.3513   3.3603   3.3746   3.4816

     the Fermi energy is     2.8472 ev

!    total energy              =   -2928.82045840 Ry
     estimated scf accuracy    <       0.00000003 Ry
     smearing contrib. (-TS)   =      -0.02920296 Ry
     internal energy E=F+TS    =   -2928.79125544 Ry

     The total energy is F=E-TS. E is the sum of the following terms:
     one-electron contribution =  -24718.04805285 Ry
     hartree contribution      =   12438.95315556 Ry
     xc contribution           =    -480.34219645 Ry
     ewald contribution        =    9830.64577363 Ry
     electric field correction =       0.00006468 Ry

     convergence has been achieved in  87 iterations

     Forces acting on atoms (cartesian axes, Ry/au):

     atom    1 type  1   force =    -0.00009149    0.00005576    0.10425557
     atom    2 type  1   force =    -0.00008923    0.00006375    0.10433664
     atom    3 type  2   force =    -0.00023464   -0.00190798    0.10278030
     atom    4 type  2   force =    -0.00013167    0.00160840    0.11440949
     atom    5 type  2   force =    -0.00028656    0.00044512   -0.18037941
     atom    6 type  2   force =    -0.00019059   -0.00001713   -0.18074870
     atom    7 type  1   force =    -0.06892673    0.00069463   -0.02915749
     atom    8 type  1   force =    -0.06847708   -0.00126375   -0.02920866
     atom    9 type  1   force =     0.06856111    0.00119637   -0.02921819
     atom   10 type  1   force =     0.06819361   -0.00088529   -0.02929276
     atom   11 type  1   force =     0.00017923    0.00061533    0.04602569
     atom   12 type  1   force =     0.00045153    0.00080809    0.04737068
     atom   13 type  1   force =     0.00022561   -0.00580459   -0.03325738
     atom   14 type  1   force =     0.00032430    0.00433769   -0.02638343
     atom   15 type  2   force =     0.00025126   -0.00053515   -0.00006826
     atom   16 type  2   force =     0.00042217    0.00041082    0.00030603
     atom   17 type  2   force =    -0.00027884   -0.00074729   -0.00078814
     atom   18 type  2   force =    -0.00040812   -0.00094110   -0.00124745
     atom   19 type  1   force =    -0.01836000    0.00019061    0.00432765
     atom   20 type  1   force =    -0.01687586    0.00156840    0.00359891
     atom   21 type  1   force =     0.01895527   -0.00059750    0.00445487
     atom   22 type  1   force =     0.01761655    0.00156126    0.00358494
     atom   23 type  1   force =     0.00002017    0.00013938   -0.00073670
     atom   24 type  1   force =     0.00004887    0.00027342    0.00100571
     atom   25 type  1   force =     0.00000310   -0.00008633   -0.00001352
     atom   26 type  1   force =    -0.00006845   -0.00024984   -0.00055024
     atom   27 type  2   force =    -0.00006408    0.00037653    0.00134164
     atom   28 type  2   force =    -0.00007217   -0.00029022    0.00067122
     atom   29 type  2   force =     0.00005070    0.00017984    0.00039483
     atom   30 type  2   force =     0.00000283   -0.00032738    0.00115278
     atom   31 type  1   force =    -0.00004099   -0.00043362    0.00004426
     atom   32 type  1   force =     0.00000892    0.00016434    0.00014555
     atom   33 type  1   force =     0.00017750   -0.00039431   -0.00006615
     atom   34 type  1   force =     0.00006595    0.00011213    0.00005071
     atom   35 type  1   force =    -0.00018491   -0.00012756   -0.00021776
     atom   36 type  1   force =    -0.00018976   -0.00064018    0.00081768
     atom   37 type  1   force =     0.00019498   -0.00072710    0.00107632
     atom   38 type  1   force =    -0.00019264    0.00029437   -0.00081444
     atom   39 type  2   force =    -0.00008161   -0.00025841    0.00018328
     atom   40 type  2   force =     0.00021070   -0.00039849   -0.00047689
     atom   41 type  2   force =    -0.00017616    0.00040592    0.00022857
     atom   42 type  2   force =    -0.00004363    0.00036162   -0.00056154
     atom   43 type  1   force =     0.00088249   -0.00017898    0.00023319
     atom   44 type  1   force =    -0.00037140    0.00006147   -0.00046381
     atom   45 type  1   force =    -0.00016635    0.00011784   -0.00025276
     atom   46 type  1   force =    -0.00134343    0.00001896    0.00028085
     atom   47 type  1   force =    -0.00009927   -0.00024454    0.00028436
     atom   48 type  1   force =    -0.00048685    0.00063167    0.00086529
     atom   49 type  3   force =     0.00113638    0.00006624   -0.00084338
     atom   50 type  4   force =    -0.00005073    0.00029680    0.00052005

     Total force =     0.374747     Total SCF correction =     0.000338
  @ DRIVER MODE: Message from server: STATUS
  @ DRIVER MODE: Message from server: GETFORCE
  @ DRIVER MODE: Returning v,forces,stress,ensemble

     Writing output data file ./calc.save/
  @ DRIVER MODE: Message from server: EXIT
  @ DRIVE MODE: Exiting

     General routines

     Parallel routines

   This run was terminated on:  22:12: 8   8Sep2021

   JOB DONE.