     Program PWSCF v.6.7GPU starts on  8Sep2021 at 23:19:37

     R & G space division:  proc/nbgrp/npool/nimage =      10
     Reading input from /storage/home/hcoda1/3/ntian30/research/carbon/CxH_vib/CH_calc/ads_slab/CHOH_a/out_0004/pw.inp
Warning: card &CELL ignored
Warning: card   CELL_DYNAMICS='IPI', ignored
Warning: card / ignored

     Current dimensions of program PWSCF are:
     Max number of different atomic species (ntypx) = 10
     Max number of k-points (npk) =  40000
     Max angular momentum in pseudopotentials (lmaxx) =  3
     Presently no symmetry can be used with electric field

     Message from routine cell_base_init:
     DEPRECATED: use true lattice parameter, not A to a.u. conversion factor

     IMPORTANT: XC functional enforced from input :
     Exchange-correlation= BEEF-VDW
                           (   1   4  43  14   2   0   0)
     Any further DFT definition will be discarded
     Please, verify this is what you really want

  @ DRIVER MODE: Connecting to
 qe_1139763_2767384.sched-torque.pace.gatech.eduz49yfa7y_scratch
  using UNIX socket
  @ DRIVER MODE: Message from server: STATUS
  @ DRIVER MODE: Message from server: INIT
  @ DRIVER MODE: Receiving replica           0          -1
  @ DRIVER MODE: Receiving encoded integer          25
  @ DRIVER MODE:  SCF:  T  FORCE:  T  STRESS:  F  VC:  F  ENSEMBLE:  F
  @ DRIVER MODE:  SCF:  T  FORCE:  T  STRESS:  F  VC:  F  ENSEMBLE:  F

     Using Slab Decomposition

     bravais-lattice index     =            0
     lattice parameter (alat)  =       1.8897  a.u.
     unit-cell volume          =    6658.9804 (a.u.)^3
     number of atoms/cell      =           51
     number of atomic types    =            4
     number of electrons       =       390.00
     number of Kohn-Sham states=          205
     kinetic-energy cutoff     =      29.3995  Ry
     charge density cutoff     =     293.9946  Ry
     scf convergence threshold =      7.3E-08
     mixing beta               =       0.0500
     number of iterations used =            8  plain     mixing
     Exchange-correlation= BEEF-VDW
                           (   1   4  43  14   2   0   0)

     celldm(1)=   1.889726  celldm(2)=   0.000000  celldm(3)=   0.000000
     celldm(4)=   0.000000  celldm(5)=   0.000000  celldm(6)=   0.000000

     crystal axes: (cart. coord. in units of alat)
               a(1) = (   6.579727   0.000000   0.000000 )
               a(2) = (  -0.000775   5.961596   0.000000 )
               a(3) = (   0.000000   0.000000  25.155947 )

     reciprocal axes: (cart. coord. in units 2 pi/alat)
               b(1) = (  0.151982  0.000020  0.000000 )
               b(2) = (  0.000000  0.167740  0.000000 )
               b(3) = (  0.000000  0.000000  0.039752 )

     PseudoPot. # 1 for Ti read from file:
     /storage/coda1/p-amedford6/0/shared/rich_project_chbe-medford/medford-share/data/pseudos_module/espresso/nninc/pbe/van/Ti.UPF
     MD5 check sum: 8e4df49b7f0d34bbd5052bf3f5ea0213
     Pseudo is Ultrasoft, Zval = 12.0
     Generated by new atomic code, or converted to UPF format
     Using radial grid of  851 points,  6 beta functions with:
                l(1) =   0
                l(2) =   0
                l(3) =   1
                l(4) =   1
                l(5) =   2
                l(6) =   2
     Q(r) pseudized with  8 coefficients,  rinner =    1.000   1.000   1.000
                                                       1.000   1.000

     PseudoPot. # 2 for O  read from file:
     /storage/coda1/p-amedford6/0/shared/rich_project_chbe-medford/medford-share/data/pseudos_module/espresso/nninc/pbe/van/O.UPF
     MD5 check sum: 78c19812648e8988a0fe644b0f25305e
     Pseudo is Ultrasoft, Zval =  6.0
     Generated by new atomic code, or converted to UPF format
     Using radial grid of  737 points,  4 beta functions with:
                l(1) =   0
                l(2) =   0
                l(3) =   1
                l(4) =   1
     Q(r) pseudized with  8 coefficients,  rinner =    0.800   0.800   0.800

     PseudoPot. # 3 for C  read from file:
     /storage/coda1/p-amedford6/0/shared/rich_project_chbe-medford/medford-share/data/pseudos_module/espresso/nninc/pbe/van/C.UPF
     MD5 check sum: 1a69bf6b8db32088f5b2163dbdb77a27
     Pseudo is Ultrasoft, Zval =  4.0
     Generated by new atomic code, or converted to UPF format
     Using radial grid of  721 points,  4 beta functions with:
                l(1) =   0
                l(2) =   0
                l(3) =   1
                l(4) =   1
     Q(r) pseudized with  8 coefficients,  rinner =    0.800   0.800   0.800

     PseudoPot. # 4 for H  read from file:
     /storage/coda1/p-amedford6/0/shared/rich_project_chbe-medford/medford-share/data/pseudos_module/espresso/nninc/pbe/van/H.UPF
     MD5 check sum: b5ee9d7bfd3a09ee7748110bda690ff7
     Pseudo is Ultrasoft, Zval =  1.0
     Generated by new atomic code, or converted to UPF format
     Using radial grid of  615 points,  1 beta functions with:
                l(1) =   0
     Q(r) pseudized with  8 coefficients,  rinner =    0.800

     atomic species   valence    mass     pseudopotential
        Ti1           12.00    47.86700     Ti( 1.00)
        O1             6.00    15.99900     O ( 1.00)
        C1             4.00    12.01100     C ( 1.00)
        H1             1.00     1.00800     H ( 1.00)

     No symmetry found

   Cartesian axes

     site n.     atom                  positions (alat units)
         1           Ti1 tau(   1) = (   0.0004258   2.9801865   6.0000000  )
         2           Ti1 tau(   2) = (   3.2906075   1.4906267   6.0002472  )
         3           O1  tau(   3) = (   0.0006271   0.0005054   7.9858123  )
         4           O1  tau(   4) = (   3.2906025   0.0005020   7.3038282  )
         5           O1  tau(   5) = (   4.5942328   1.4918067   9.2879030  )
         6           O1  tau(   6) = (   1.9868534   1.4903216   9.2879459  )
         7           Ti1 tau(   7) = (   3.3189338   3.0017716   9.1565052  )
         8           Ti1 tau(   8) = (   0.0346667   1.4969860   9.2640968  )
         9           O1  tau(   9) = (   3.3073125   0.0088267  11.3792119  )
        10           O1  tau(  10) = (   0.0062670   0.0029933  10.6068016  )
        11           O1  tau(  11) = (   1.3062705   1.5014067  12.6543524  )
        12           O1  tau(  12) = (   5.3087205   1.4988994  12.6673500  )
        13           Ti1 tau(  13) = (   0.0213988   2.9921491  12.5260324  )
        14           Ti1 tau(  14) = (   3.3097092   1.5009918  12.5223738  )
        15           O1  tau(  15) = (   0.0424616   0.0075488  14.6717754  )
        16           O1  tau(  16) = (   3.3005110   0.0073529  14.0105724  )
        17           O1  tau(  17) = (   4.5952227   1.5195780  16.1612446  )
        18           O1  tau(  18) = (   2.0693493   1.5297702  16.1935428  )
        19           Ti1 tau(  19) = (   3.3356741   2.9939547  15.7500326  )
        20           Ti1 tau(  20) = (   0.0335386   1.3679084  15.9371528  )
        21           O1  tau(  21) = (   3.2904802   0.0005063   4.7018136  )
        22           O1  tau(  22) = (   0.0353059   0.0153350  17.1923242  )
        23           O1  tau(  23) = (   1.3043587   1.4918075   6.0039043  )
        24           O1  tau(  24) = (   5.2767064   1.4903225   6.0039473  )
        25           Ti1 tau(  25) = (   0.0000382   5.9609847   6.0000000  )
        26           Ti1 tau(  26) = (   3.2902200   4.4714249   6.0002472  )
        27           O1  tau(  27) = (   0.0002396   2.9813036   7.9858123  )
        28           O1  tau(  28) = (   3.2902150   2.9813002   7.3038282  )
        29           O1  tau(  29) = (   4.5938453   4.4726049   9.2879030  )
        30           O1  tau(  30) = (   1.9864658   4.4711199   9.2879459  )
        31           Ti1 tau(  31) = (   3.3154861   0.0215470   9.1550440  )
        32           Ti1 tau(  32) = (   0.0344056   4.4691587   9.2644328  )
        33           O1  tau(  33) = (   3.3078462   2.9871797  11.3713074  )
        34           O1  tau(  34) = (   0.0058747   2.9832696  10.6292865  )
        35           O1  tau(  35) = (   1.3058732   4.4754499  12.6504552  )
        36           O1  tau(  36) = (   5.3084772   4.4777640  12.6640448  )
        37           Ti1 tau(  37) = (   0.0171148   0.0128214  12.4806662  )
        38           Ti1 tau(  38) = (   3.3088916   4.4784539  12.5193958  )
        39           O1  tau(  39) = (   0.0434956   2.9958159  14.9132474  )
        40           O1  tau(  40) = (   3.3089563   2.9921379  13.9620076  )
        41           O1  tau(  41) = (   4.5951427   4.4669482  16.1652122  )
        42           O1  tau(  42) = (   2.0688924   4.4538916  16.2081353  )
        43           Ti1 tau(  43) = (   3.3160161   0.0142155  15.8078792  )
        44           Ti1 tau(  44) = (   0.0219142   4.6036306  15.9252304  )
        45           O1  tau(  45) = (   3.2900926   2.9813045   4.7018136  )
        46           O1  tau(  46) = (   1.3039711   4.4726057   6.0039043  )
        47           O1  tau(  47) = (   5.2763189   4.4711207   6.0039473  )
        48           C1  tau(  48) = (   6.0523360   2.9566228  19.1488008  )
        49           O1  tau(  49) = (   0.1918362   3.0047394  18.0201065  )
        50           H1  tau(  50) = (   5.0152694   2.8496317  18.7632286  )
        51           H1  tau(  51) = (   1.1393832   3.0938607  18.2382470  )

     number of k points=    10  Fermi-Dirac smearing, width (Ry)=  0.0073
                       cart. coord. in units 2pi/alat
        k(    1) = (   0.0000000   0.0000000   0.0000000), wk =   0.1250000
        k(    2) = (   0.0000000   0.0419351   0.0000000), wk =   0.2500000
        k(    3) = (   0.0000000  -0.0838702   0.0000000), wk =   0.1250000
        k(    4) = (   0.0379955   0.0000049   0.0000000), wk =   0.2500000
        k(    5) = (   0.0379955   0.0419400   0.0000000), wk =   0.2500000
        k(    6) = (   0.0379955  -0.0838652   0.0000000), wk =   0.2500000
        k(    7) = (   0.0379955  -0.0419301   0.0000000), wk =   0.2500000
        k(    8) = (  -0.0759910  -0.0000099   0.0000000), wk =   0.1250000
        k(    9) = (  -0.0759910   0.0419252   0.0000000), wk =   0.2500000
        k(   10) = (  -0.0759910  -0.0838800   0.0000000), wk =   0.1250000

     Initial potential from superposition of free atoms

     starting charge  373.99919, renormalised to  390.00000

     negative rho (up, down):  1.784E-02 0.000E+00

     %%%%%%%%%%%%%%%%%%%%%%%%%%%%%%%%%%%%%%%%%%%%%%%%%%%%%%%%%%%%%%%%%%%%%%%%
     %                                                                      %
     % You are using vdW-DF, which was implemented by the Thonhauser group. %
     % Please cite the following two papers that made this development      %
     % possible and the two reviews that describe the various versions:     %
     %                                                                      %
     %   T. Thonhauser et al., PRL 115, 136402 (2015).                      %
     %   T. Thonhauser et al., PRB 76, 125112 (2007).                       %
     %   K. Berland et al., Rep. Prog. Phys. 78, 066501 (2015).             %
     %   D.C. Langreth et al., J. Phys.: Condens. Matter 21, 084203 (2009). %
     %                                                                      %
     %                                                                      %
     % If you are calculating the stress with vdW-DF, please also cite:     %
     %                                                                      %
     %   R. Sabatini et al., J. Phys.: Condens. Matter 24, 424209 (2012).   %
     %                                                                      %
     %%%%%%%%%%%%%%%%%%%%%%%%%%%%%%%%%%%%%%%%%%%%%%%%%%%%%%%%%%%%%%%%%%%%%%%%

     Adding external electric field

     Computed dipole along edir(3) :
        Dipole               -6.1554 Ry au,        -15.6454 Debye
        Dipole field         -0.0116 Ry au,

        Potential amp.        1.0768 Ry
        Total length         46.3494 bohr

     Starting wfcs are  294 atomic wfcs
  @ DRIVER MODE: Message from server: STATUS
  @ DRIVER MODE: Message from server: POSDATA
  @ DRIVER MODE: Reading and sharing cell
  @ DRIVER MODE: Reading and sharing positions
  @ DRIVER MODE: Received positions

     Self-consistent Calculation

     iteration #  1     ecut=    29.40 Ry     beta= 0.05
     Davidson diagonalization with overlap
     c_bands:  1 eigenvalues not converged
     c_bands:  1 eigenvalues not converged
     c_bands:  1 eigenvalues not converged
     ethr =  1.00E-05,  avg # of iterations = 16.7

[...]

     total energy              =   -2756.81006962 Ry
     estimated scf accuracy    <    1910.52752216 Ry

     iteration #  2     ecut=    29.40 Ry     beta= 0.05
     Davidson diagonalization with overlap
     ethr =  1.00E-02,  avg # of iterations = 19.0

[...]

     iteration # 62     ecut=    29.40 Ry     beta= 0.05
     Davidson diagonalization with overlap
     c_bands:  1 eigenvalues not converged
     ethr =  3.79E-10,  avg # of iterations = 11.3

[...]

     total energy              =   -2929.94104050 Ry
     estimated scf accuracy    <       0.00000014 Ry

     iteration # 68     ecut=    29.40 Ry     beta= 0.05
     Davidson diagonalization with overlap
     ethr =  2.67E-11,  avg # of iterations =  9.7

     negative rho (up, down):  1.675E-02 0.000E+00

     Adding external electric field

     Computed dipole along edir(3) :
        Dipole                0.3849 Ry au,          0.9783 Debye
        Dipole field          0.0007 Ry au,

        Potential amp.       -0.0673 Ry
        Total length         46.3494 bohr

     End of self-consistent calculation

          k = 0.0000 0.0000 0.0000 ( 18029 PWs)   bands (ev):

   -56.0182 -55.9821 -55.9809 -55.9466 -55.9094 -55.8991 -55.8648 -55.8579
   -55.8550 -55.8206 -55.8073 -55.8059 -55.8000 -55.7661 -55.0782 -55.0441
   -32.5873 -32.5158 -32.4785 -32.3841 -32.3342 -32.3307 -32.3200 -32.3109
   -32.2701 -32.2640 -32.2267 -32.2248 -32.2164 -32.1928 -32.1871 -32.1714
   -32.1542 -32.1533 -32.1455 -32.1356 -32.1316 -32.1252 -32.1117 -32.1077
   -32.0992 -32.0833 -32.0762 -32.0373 -32.0324 -32.0246 -32.0211 -32.0084
   -32.0039 -31.9992 -31.9949 -31.9856 -31.9717 -31.9545 -31.9368 -31.9342
   -31.9126 -31.8842 -31.4906 -31.3874 -31.3659 -31.3068 -31.2205 -31.1094
   -21.6139 -16.8506 -16.5994 -16.4625 -16.3580 -16.2396 -16.1227 -16.0605
   -15.9622 -15.8568 -15.7430 -15.6954 -15.6716 -15.6697 -15.6501 -15.6407
   -15.6332 -15.5741 -15.5467 -15.5246 -15.5103 -15.5084 -15.4628 -15.4425
   -15.4094 -15.3749 -15.2500 -15.1795 -15.1216 -14.7887 -13.5790 -13.4595
   -10.7295  -5.9973  -5.0375  -4.3367  -4.1785  -4.0286  -3.9530  -3.9433
    -3.8969  -3.7794  -3.6041  -3.4490  -3.4415  -3.3144  -3.2711  -3.2251
    -3.1823  -3.0536  -2.9992  -2.9866  -2.9123  -2.9080  -2.8936  -2.8830
    -2.7961  -2.7848  -2.7677  -2.7552  -2.6480  -2.6063  -2.4865  -2.4540
    -2.4069  -2.3669  -2.3586  -2.3448  -2.3395  -2.2954  -2.2836  -2.2598
    -2.2053  -2.1487  -2.0532  -1.9229  -1.9140  -1.7964  -1.7632  -1.5971
    -1.5819  -1.5452  -1.5193  -1.4688  -1.4249  -1.4188  -1.3748  -1.2701
    -1.1911  -1.1392  -1.0623  -1.0269  -0.9593  -0.9189  -0.8439  -0.8115
    -0.8074  -0.7781  -0.6804  -0.6111  -0.5513  -0.5105  -0.4929  -0.4691
    -0.3850  -0.3588  -0.2625  -0.2500  -0.2100  -0.2009  -0.0893  -0.0810
    -0.0737  -0.0568  -0.0487   0.0391   0.1131   0.1269   0.1549   0.3097
     0.5265   0.5382   0.5784   0.8343   0.9224   0.9477   1.1069   1.2847
     1.5338   1.5882   3.0781   3.1457   3.1838   3.2056   3.2287   3.2865
     3.5683   3.5834   3.5902   3.6066   3.6333

[...]

          k = 0.0380-0.0419 0.0000 ( 17876 PWs)   bands (ev):

[...]

          k =-0.0760-0.0000 0.0000 ( 17886 PWs)   bands (ev):

[...]

          k =-0.0760-0.0839 0.0000 ( 17948 PWs)   bands (ev):

   -56.0012 -55.9989 -55.9651 -55.9622 -55.9064 -55.8898 -55.8672 -55.8581
   -55.8396 -55.8357 -55.8139 -55.8086 -55.7836 -55.7825 -55.0611 -55.0611
   -32.4407 -32.3919 -32.3891 -32.3071 -32.2947 -32.2919 -32.2735 -32.2581
   -32.2527 -32.2285 -32.2193 -32.2165 -32.2089 -32.1671 -32.1567 -32.1558
   -32.1541 -32.1501 -32.1453 -32.1428 -32.1377 -32.1305 -32.1108 -32.0997
   -32.0994 -32.0976 -32.0933 -32.0897 -32.0858 -32.0836 -32.0818 -32.0584
   -32.0379 -32.0377 -32.0361 -32.0196 -32.0108 -32.0097 -32.0000 -31.9778
   -31.9691 -31.9681 -31.3784 -31.3784 -31.3033 -31.3032 -31.2637 -31.2636
   -21.6131 -16.4708 -16.2553 -16.1928 -16.0383 -16.0335 -16.0032 -15.9754
   -15.8461 -15.8235 -15.8097 -15.7895 -15.7653 -15.7483 -15.7408 -15.7257
   -15.6201 -15.6130 -15.6022 -15.5962 -15.5369 -15.5333 -15.5233 -15.5102
   -15.4775 -15.4748 -15.4477 -15.4443 -15.2974 -15.1599 -13.5607 -13.5602
   -10.7328  -6.0001  -5.0144  -4.2864  -3.5319  -3.5303  -3.4517  -3.2576
    -3.2196  -3.1857  -3.1737  -3.0981  -3.0227  -3.0151  -3.0081  -2.9260
    -2.9195  -2.9166  -2.9143  -2.8524  -2.8456  -2.8086  -2.8039  -2.7540
    -2.7236  -2.7185  -2.7096  -2.6860  -2.6831  -2.6676  -2.6493  -2.6292
    -2.6168  -2.5340  -2.4889  -2.3887  -2.3573  -2.3263  -2.2497  -2.2408
    -2.1569  -2.1273  -2.1070  -2.0690  -2.0242  -2.0075  -1.8482  -1.8151
    -1.8104  -1.7477  -1.6781  -1.6535  -1.6222  -1.5668  -1.5034  -1.4947
    -1.4055  -1.3496  -1.3464  -1.2218  -1.2114  -1.1594  -1.0530  -1.0211
    -1.0125  -1.0086  -1.0000  -0.9370  -0.9262  -0.8614  -0.8114  -0.7637
    -0.7460  -0.7335  -0.5382  -0.4966  -0.4423  -0.3417  -0.3017  -0.1101
    -0.0960  -0.0813   0.0019   0.0394   0.0549   0.1279   0.2480   0.2525
     0.3042   0.3605   0.4030   0.4101   0.4272   1.2932   1.2986   1.2996
     1.4036   1.4056   3.2377   3.2956   3.3230   3.4007   3.4765   3.4993
     3.5869   3.6051   3.6330   3.6380   3.7143

     the Fermi energy is     3.1374 ev

!    total energy              =   -2929.94106560 Ry
     estimated scf accuracy    <       0.00000004 Ry
     smearing contrib. (-TS)   =      -0.03724640 Ry
     internal energy E=F+TS    =   -2929.90381919 Ry

     The total energy is F=E-TS. E is the sum of the following terms:
     one-electron contribution =  -24334.64527571 Ry
     hartree contribution      =   12249.92881724 Ry
     xc contribution           =    -481.17981620 Ry
     ewald contribution        =    9635.99217593 Ry
     electric field correction =       0.00027955 Ry

     convergence has been achieved in  68 iterations

     Forces acting on atoms (cartesian axes, Ry/au):

     atom    1 type  1   force =    -0.00041126   -0.00002087    0.09183886
     atom    2 type  1   force =    -0.00028629    0.00032722   -0.18371355
     atom    3 type  2   force =     0.00041265    0.00008734   -0.02346912
     atom    4 type  2   force =     0.00072363    0.00037716    0.05120655
     atom    5 type  2   force =    -0.01349640    0.00018710    0.00469858
     atom    6 type  2   force =     0.01514046   -0.00002745    0.00542402
     atom    7 type  1   force =    -0.00054044    0.00015730   -0.00020554
     atom    8 type  1   force =     0.00026733    0.00023043    0.00006935
     atom    9 type  2   force =     0.00004169   -0.00004127   -0.00015617
     atom   10 type  2   force =    -0.00021297    0.00005607    0.00037966
     atom   11 type  2   force =     0.00003979   -0.00014813   -0.00013321
     atom   12 type  2   force =     0.00011277   -0.00001911   -0.00008059
     atom   13 type  1   force =    -0.00023838    0.00082894   -0.00047642
     atom   14 type  1   force =     0.00016538   -0.00000125    0.00014323
     atom   15 type  2   force =     0.00000684    0.00028496    0.00037221
     atom   16 type  2   force =    -0.00000257    0.00009096    0.00056689
     atom   17 type  2   force =    -0.00027202   -0.00026218    0.00013178
     atom   18 type  2   force =    -0.00031870   -0.00035473    0.00033630
     atom   19 type  1   force =    -0.00008401    0.00011586    0.00019116
     atom   20 type  1   force =    -0.00039386    0.00037877    0.00025717
     atom   21 type  2   force =    -0.00007788    0.00001576    0.10503802
     atom   22 type  2   force =    -0.00006194   -0.00040521   -0.00005919
     atom   23 type  2   force =    -0.06789001   -0.00014022   -0.02654581
     atom   24 type  2   force =     0.06760460    0.00030455   -0.02662568
     atom   25 type  1   force =    -0.00034981   -0.00000399    0.09417141
     atom   26 type  1   force =    -0.00029641   -0.00041495   -0.18372569
     atom   27 type  2   force =     0.00036124    0.00013608   -0.02227439
     atom   28 type  2   force =     0.00077498    0.00030687    0.05091749
     atom   29 type  2   force =    -0.01348780    0.00045097    0.00482128
     atom   30 type  2   force =     0.01515244    0.00023884    0.00552829
     atom   31 type  1   force =    -0.00060702   -0.00031127   -0.00028669
     atom   32 type  1   force =     0.00027369   -0.00011348    0.00004604
     atom   33 type  2   force =     0.00000399    0.00003255   -0.00004982
     atom   34 type  2   force =    -0.00007478   -0.00005995    0.00010067
     atom   35 type  2   force =     0.00008506    0.00008895    0.00010808
     atom   36 type  2   force =     0.00006111   -0.00004973    0.00014008
     atom   37 type  1   force =    -0.00025776   -0.00076370   -0.00022736
     atom   38 type  1   force =     0.00021514    0.00007789    0.00068121
     atom   39 type  2   force =    -0.00006237   -0.00064683    0.00050337
     atom   40 type  2   force =    -0.00037728   -0.00017622   -0.00014540
     atom   41 type  2   force =    -0.00014740    0.00010791   -0.00011688
     atom   42 type  2   force =    -0.00035163    0.00002207    0.00016486
     atom   43 type  1   force =     0.00012344   -0.00020097   -0.00042060
     atom   44 type  1   force =    -0.00042240    0.00000124   -0.00013808
     atom   45 type  2   force =    -0.00004624    0.00002426    0.10502548
     atom   46 type  2   force =    -0.06789338   -0.00051163   -0.02656406
     atom   47 type  2   force =     0.06761323   -0.00006645   -0.02664016
     atom   48 type  3   force =    -0.00114714   -0.00080627    0.00024005
     atom   49 type  2   force =    -0.00072715   -0.00061293   -0.00107885
     atom   50 type  4   force =     0.00047645    0.00063296   -0.00031664
     atom   51 type  4   force =     0.00087940    0.00059578    0.00034779

     Total force =     0.367787     Total SCF correction =     0.000478
  @ DRIVER MODE: Message from server: STATUS
  @ DRIVER MODE: Message from server: GETFORCE
  @ DRIVER MODE: Returning v,forces,stress,ensemble

     Writing output data file ./calc.save/
  @ DRIVER MODE: Message from server: EXIT
  @ DRIVE MODE: Exiting

     General routines

     Parallel routines

   This run was terminated on:  23:38:10   8Sep2021

   JOB DONE.