     Program PWSCF v.6.7GPU starts on 28Sep2021 at  2:13:34

     R & G space division:  proc/nbgrp/npool/nimage =       8
     Reading input from /storage/home/hcoda1/3/ntian30/research/carbon/CxH_vib/H2O_calc/ads_slab/CHN2HO_c/out_0011/pw.inp
Warning: card &CELL ignored
Warning: card   CELL_DYNAMICS='IPI', ignored
Warning: card / ignored

     Current dimensions of program PWSCF are:
     Max number of different atomic species (ntypx) = 10
     Max number of k-points (npk) =  40000
     Max angular momentum in pseudopotentials (lmaxx) =  3
     Presently no symmetry can be used with electric field

     Message from routine cell_base_init:
     DEPRECATED: use true lattice parameter, not A to a.u. conversion factor

     IMPORTANT: XC functional enforced from input :
     Exchange-correlation= BEEF-VDW
                           (   1   4  43  14   2   0   0)
     Any further DFT definition will be discarded
     Please, verify this is what you really want

  @ DRIVER MODE: Connecting to
 qe_1139763_3003540.sched-torque.pace.gatech.eduyws8sbdd_scratch
  using UNIX socket
  @ DRIVER MODE: Message from server: STATUS
  @ DRIVER MODE: Message from server: INIT
  @ DRIVER MODE: Receiving replica           0          -1
  @ DRIVER MODE: Receiving encoded integer          25
  @ DRIVER MODE:  SCF:  T  FORCE:  T  STRESS:  F  VC:  F  ENSEMBLE:  F
  @ DRIVER MODE:  SCF:  T  FORCE:  T  STRESS:  F  VC:  F  ENSEMBLE:  F

     Using Slab Decomposition

     bravais-lattice index     =            0
     lattice parameter (alat)  =       1.8897  a.u.
     unit-cell volume          =    6658.9804 (a.u.)^3
     number of atoms/cell      =           53
     number of atomic types    =            5
     number of electrons       =       400.00
     number of Kohn-Sham states=          210
     kinetic-energy cutoff     =      29.3995  Ry
     charge density cutoff     =     293.9946  Ry
     scf convergence threshold =      7.3E-08
     mixing beta               =       0.0500
     number of iterations used =            8  plain     mixing
     Exchange-correlation= BEEF-VDW
                           (   1   4  43  14   2   0   0)

     celldm(1)=   1.889726  celldm(2)=   0.000000  celldm(3)=   0.000000
     celldm(4)=   0.000000  celldm(5)=   0.000000  celldm(6)=   0.000000

     crystal axes: (cart. coord. in units of alat)
               a(1) = (   6.579727   0.000000   0.000000 )
               a(2) = (  -0.000775   5.961596   0.000000 )
               a(3) = (   0.000000   0.000000  25.155947 )

     reciprocal axes: (cart. coord. in units 2 pi/alat)
               b(1) = (  0.151982  0.000020  0.000000 )
               b(2) = (  0.000000  0.167740  0.000000 )
               b(3) = (  0.000000  0.000000  0.039752 )

     PseudoPot. # 1 for Ti read from file:
     /storage/coda1/p-amedford6/0/shared/rich_project_chbe-medford/medford-share/data/pseudos_module/espresso/nninc/pbe/van/Ti.UPF
     MD5 check sum: 8e4df49b7f0d34bbd5052bf3f5ea0213
     Pseudo is Ultrasoft, Zval = 12.0
     Generated by new atomic code, or converted to UPF format
     Using radial grid of  851 points,  6 beta functions with:
                l(1) =   0
                l(2) =   0
                l(3) =   1
                l(4) =   1
                l(5) =   2
                l(6) =   2
     Q(r) pseudized with  8 coefficients,  rinner =    1.000   1.000   1.000
                                                       1.000   1.000

     PseudoPot. # 2 for O  read from file:
     /storage/coda1/p-amedford6/0/shared/rich_project_chbe-medford/medford-share/data/pseudos_module/espresso/nninc/pbe/van/O.UPF
     MD5 check sum: 78c19812648e8988a0fe644b0f25305e
     Pseudo is Ultrasoft, Zval =  6.0
     Generated by new atomic code, or converted to UPF format
     Using radial grid of  737 points,  4 beta functions with:
                l(1) =   0
                l(2) =   0
                l(3) =   1
                l(4) =   1
     Q(r) pseudized with  8 coefficients,  rinner =    0.800   0.800   0.800

     PseudoPot. # 3 for C  read from file:
     /storage/coda1/p-amedford6/0/shared/rich_project_chbe-medford/medford-share/data/pseudos_module/espresso/nninc/pbe/van/C.UPF
     MD5 check sum: 1a69bf6b8db32088f5b2163dbdb77a27
     Pseudo is Ultrasoft, Zval =  4.0
     Generated by new atomic code, or converted to UPF format
     Using radial grid of  721 points,  4 beta functions with:
                l(1) =   0
                l(2) =   0
                l(3) =   1
                l(4) =   1
     Q(r) pseudized with  8 coefficients,  rinner =    0.800   0.800   0.800

     PseudoPot. # 4 for H  read from file:
     /storage/coda1/p-amedford6/0/shared/rich_project_chbe-medford/medford-share/data/pseudos_module/espresso/nninc/pbe/van/H.UPF
     MD5 check sum: b5ee9d7bfd3a09ee7748110bda690ff7
     Pseudo is Ultrasoft, Zval =  1.0
     Generated by new atomic code, or converted to UPF format
     Using radial grid of  615 points,  1 beta functions with:
                l(1) =   0
     Q(r) pseudized with  8 coefficients,  rinner =    0.800

     PseudoPot. # 5 for N  read from file:
     /storage/coda1/p-amedford6/0/shared/rich_project_chbe-medford/medford-share/data/pseudos_module/espresso/nninc/pbe/van/N.UPF
     MD5 check sum: 90d10febe142ad51ac9d5be1deb811c4
     Pseudo is Ultrasoft, Zval =  5.0
     Generated by new atomic code, or converted to UPF format
     Using radial grid of  729 points,  4 beta functions with:
                l(1) =   0
                l(2) =   0
                l(3) =   1
                l(4) =   1
     Q(r) pseudized with  8 coefficients,  rinner =    0.800   0.800   0.800

     atomic species   valence    mass     pseudopotential
        Ti1           12.00    47.86700     Ti( 1.00)
        O1             6.00    15.99900     O ( 1.00)
        C1             4.00    12.01100     C ( 1.00)
        H1             1.00     1.00800     H ( 1.00)
        N1             5.00    14.00700     N ( 1.00)

     No symmetry found

   Cartesian axes

     site n.     atom                  positions (alat units)
         1           Ti1 tau(   1) = (   0.0004258   2.9801865   6.0000000  )
         2           Ti1 tau(   2) = (   3.2906075   1.4906267   6.0002472  )
         3           O1  tau(   3) = (   0.0006271   0.0005054   7.9858123  )
         4           O1  tau(   4) = (   3.2906025   0.0005020   7.3038282  )
         5           O1  tau(   5) = (   4.5942328   1.4918067   9.2879030  )
         6           O1  tau(   6) = (   1.9868534   1.4903216   9.2879459  )
         7           Ti1 tau(   7) = (   3.2907910   2.8959150   9.1758416  )
         8           Ti1 tau(   8) = (   0.0015273   1.4827037   9.2680791  )
         9           O1  tau(   9) = (   3.2766663   5.9464886  11.2681881  )
        10           O1  tau(  10) = (   0.0116148   5.9584955  10.6183126  )
        11           O1  tau(  11) = (   1.2752176   1.4923442  12.6271229  )
        12           O1  tau(  12) = (   5.2852060   1.4859299  12.6156521  )
        13           Ti1 tau(  13) = (   6.5717068   2.8472942  12.7124165  )
        14           Ti1 tau(  14) = (   3.2754330   1.3122793  12.6492615  )
        15           O1  tau(  15) = (   6.5604847   5.9612185  14.6398873  )
        16           O1  tau(  16) = (   3.2770837   0.0341078  13.8632434  )
        17           O1  tau(  17) = (   4.5026011   1.5263741  16.0779633  )
        18           O1  tau(  18) = (   1.9856211   1.5373541  16.0544900  )
        19           Ti1 tau(  19) = (   3.2645371   3.0024783  15.6402076  )
        20           Ti1 tau(  20) = (   0.0306923   1.4636683  15.8866077  )
        21           O1  tau(  21) = (   3.2904802   0.0005063   4.7018136  )
        22           O1  tau(  22) = (   6.5250562   0.0096470  17.1651689  )
        23           O1  tau(  23) = (   1.3043587   1.4918075   6.0039043  )
        24           O1  tau(  24) = (   5.2767064   1.4903225   6.0039473  )
        25           Ti1 tau(  25) = (   0.0000382   5.9609847   6.0000000  )
        26           Ti1 tau(  26) = (   3.2902200   4.4714249   6.0002472  )
        27           O1  tau(  27) = (   0.0002396   2.9813036   7.9858123  )
        28           O1  tau(  28) = (   3.2902150   2.9813002   7.3038282  )
        29           O1  tau(  29) = (   4.5938453   4.4726049   9.2879030  )
        30           O1  tau(  30) = (   1.9864658   4.4711199   9.2879459  )
        31           Ti1 tau(  31) = (   3.2891106   5.8743827   9.1763621  )
        32           Ti1 tau(  32) = (   0.0006254   4.4649316   9.2693709  )
        33           O1  tau(  33) = (   3.2790072   3.0290766  11.2406627  )
        34           O1  tau(  34) = (   0.0092240   2.9805883  10.6323155  )
        35           O1  tau(  35) = (   1.2722205   4.4691906  12.6310473  )
        36           O1  tau(  36) = (   5.2766839   4.4717175  12.6187613  )
        37           Ti1 tau(  37) = (   6.5522158   5.8291752  12.6058762  )
        38           Ti1 tau(  38) = (   3.2615408   4.4097241  12.4102932  )
        39           O1  tau(  39) = (   6.5509886   2.9451087  14.6802276  )
        40           O1  tau(  40) = (   3.2772003   2.9821494  13.8576607  )
        41           O1  tau(  41) = (   4.5331312   4.4179464  16.0511208  )
        42           O1  tau(  42) = (   2.0062445   4.4387243  16.0647957  )
        43           Ti1 tau(  43) = (   3.2965114   0.0079596  16.3395523  )
        44           Ti1 tau(  44) = (   6.5556523   4.6042306  16.0453395  )
        45           O1  tau(  45) = (   3.2900926   2.9813045   4.7018136  )
        46           O1  tau(  46) = (   1.3039711   4.4726057   6.0039043  )
        47           O1  tau(  47) = (   5.2763189   4.4711207   6.0039473  )
        48           C1  tau(  48) = (   0.0539703   2.9674629  17.6512085  )
        49           H1  tau(  49) = (   1.0088706   2.9548903  18.1641722  )
        50           N1  tau(  50) = (   5.6350074   2.8816608  18.4775489  )
        51           N1  tau(  51) = (   4.6939826   2.7887373  19.1166784  )
        52           O1  tau(  52) = (   3.2898008   5.9156070  18.1392511  )
        53           H1  tau(  53) = (   3.8410492   0.4763436  18.7420070  )

     number of k points=    10  Fermi-Dirac smearing, width (Ry)=  0.0073
                       cart. coord. in units 2pi/alat
        k(    1) = (   0.0000000   0.0000000   0.0000000), wk =   0.1250000
        k(    2) = (   0.0000000   0.0419351   0.0000000), wk =   0.2500000
        k(    3) = (   0.0000000  -0.0838702   0.0000000), wk =   0.1250000
        k(    4) = (   0.0379955   0.0000049   0.0000000), wk =   0.2500000
        k(    5) = (   0.0379955   0.0419400   0.0000000), wk =   0.2500000
        k(    6) = (   0.0379955  -0.0838652   0.0000000), wk =   0.2500000
        k(    7) = (   0.0379955  -0.0419301   0.0000000), wk =   0.2500000
        k(    8) = (  -0.0759910  -0.0000099   0.0000000), wk =   0.1250000
        k(    9) = (  -0.0759910   0.0419252   0.0000000), wk =   0.2500000
        k(   10) = (  -0.0759910  -0.0838800   0.0000000), wk =   0.1250000

     Initial potential from superposition of free atoms

     starting charge  383.99917, renormalised to  400.00000

     negative rho (up, down):  1.801E-02 0.000E+00

     %%%%%%%%%%%%%%%%%%%%%%%%%%%%%%%%%%%%%%%%%%%%%%%%%%%%%%%%%%%%%%%%%%%%%%%%
     %                                                                      %
     % You are using vdW-DF, which was implemented by the Thonhauser group. %
     % Please cite the following two papers that made this development      %
     % possible and the two reviews that describe the various versions:     %
     %                                                                      %
     %   T. Thonhauser et al., PRL 115, 136402 (2015).                      %
     %   T. Thonhauser et al., PRB 76, 125112 (2007).                       %
     %   K. Berland et al., Rep. Prog. Phys. 78, 066501 (2015).             %
     %   D.C. Langreth et al., J. Phys.: Condens. Matter 21, 084203 (2009). %
     %                                                                      %
     %                                                                      %
     % If you are calculating the stress with vdW-DF, please also cite:     %
     %                                                                      %
     %   R. Sabatini et al., J. Phys.: Condens. Matter 24, 424209 (2012).   %
     %                                                                      %
     %%%%%%%%%%%%%%%%%%%%%%%%%%%%%%%%%%%%%%%%%%%%%%%%%%%%%%%%%%%%%%%%%%%%%%%%

     Adding external electric field

     Computed dipole along edir(3) :
        Dipole              -10.2452 Ry au,        -26.0407 Debye
        Dipole field         -0.0193 Ry au,

        Potential amp.        1.7922 Ry
        Total length         46.3494 bohr

     Starting wfcs are  302 atomic wfcs
  @ DRIVER MODE: Message from server: STATUS
  @ DRIVER MODE: Message from server: POSDATA
  @ DRIVER MODE: Reading and sharing cell
  @ DRIVER MODE: Reading and sharing positions
  @ DRIVER MODE: Received positions

     Self-consistent Calculation

     iteration #  1     ecut=    29.40 Ry     beta= 0.05
     Davidson diagonalization with overlap
     c_bands:  2 eigenvalues not converged
     c_bands:  1 eigenvalues not converged
     c_bands:  2 eigenvalues not converged
     c_bands:  2 eigenvalues not converged
     c_bands:  3 eigenvalues not converged
     c_bands:  2 eigenvalues not converged
     c_bands:  1 eigenvalues not converged
     c_bands:  1 eigenvalues not converged
     ethr =  1.00E-05,  avg # of iterations = 19.5

[...]

     total energy              =   -2480.26852200 Ry
     estimated scf accuracy    <    5459.14309067 Ry

     iteration #  2     ecut=    29.40 Ry     beta= 0.05
     Davidson diagonalization with overlap
     ethr =  1.00E-02,  avg # of iterations = 23.7

[...]

     iteration # 62     ecut=    29.40 Ry     beta= 0.05
     Davidson diagonalization with overlap
     c_bands:  1 eigenvalues not converged
     ethr =  1.27E-10,  avg # of iterations =  6.8

[...]

     total energy              =   -2970.23701521 Ry
     estimated scf accuracy    <       0.00000029 Ry

     iteration # 69     ecut=    29.40 Ry     beta= 0.05
     Davidson diagonalization with overlap
     ethr =  4.53E-11,  avg # of iterations =  5.0

     negative rho (up, down):  1.778E-02 0.000E+00

     Adding external electric field

     Computed dipole along edir(3) :
        Dipole                0.0336 Ry au,          0.0855 Debye
        Dipole field          0.0001 Ry au,

        Potential amp.       -0.0059 Ry
        Total length         46.3494 bohr

     End of self-consistent calculation

          k = 0.0000 0.0000 0.0000 ( 18029 PWs)   bands (ev):

   -56.9005 -56.8669 -56.1335 -56.0977 -55.8756 -55.8141 -55.7057 -55.5586
   -55.5030 -55.4935 -55.4818 -55.4691 -55.4425 -55.4287 -55.2431 -55.2287
   -33.3260 -33.1797 -33.1517 -33.0729 -32.9822 -32.9523 -32.6166 -32.3547
   -32.3535 -32.3244 -32.2750 -32.2728 -32.2416 -32.1067 -32.0953 -32.0423
   -32.0397 -32.0378 -32.0181 -31.9771 -31.9694 -31.9286 -31.9270 -31.8995
   -31.8877 -31.8548 -31.8469 -31.8265 -31.8226 -31.7668 -31.7118 -31.7111
   -31.6981 -31.6931 -31.6823 -31.6763 -31.6535 -31.6471 -31.6340 -31.6284
   -31.6201 -31.5166 -31.4942 -31.4804 -31.4728 -31.4676 -31.4379 -31.4332
   -20.3927 -17.0462 -16.5584 -16.5150 -16.2449 -16.2174 -16.1422 -16.1277
   -16.1227 -15.8616 -15.8362 -15.8118 -15.7445 -15.6946 -15.5212 -15.4245
   -15.3583 -15.2663 -15.1992 -15.1794 -15.1750 -15.1463 -15.1251 -15.1204
   -15.0333 -15.0257 -14.9153 -14.8183 -14.7730 -14.5226 -14.4789 -14.0004
   -13.8921 -13.4203  -5.6142  -4.6091  -4.5535  -4.4081  -4.1818  -4.0441
    -3.8645  -3.6700  -3.6167  -3.4618  -3.4508  -3.3897  -3.3458  -3.3289
    -3.2368  -3.1470  -3.0606  -3.0601  -3.0358  -2.9669  -2.9405  -2.7822
    -2.7799  -2.7693  -2.6456  -2.5946  -2.5405  -2.4937  -2.4814  -2.4358
    -2.4121  -2.4006  -2.3527  -2.3038  -2.2969  -2.1650  -2.1237  -2.0984
    -2.0458  -1.9882  -1.9713  -1.8966  -1.8788  -1.8552  -1.6873  -1.6211
    -1.5798  -1.5286  -1.4983  -1.4721  -1.3335  -1.3020  -1.2036  -1.2007
    -1.1632  -1.1136  -1.0561  -1.0356  -0.9665  -0.8762  -0.8618  -0.8501
    -0.7780  -0.6984  -0.6198  -0.5769  -0.5100  -0.4999  -0.4815  -0.4493
    -0.4403  -0.3466  -0.3011  -0.2534  -0.1670  -0.1393  -0.0114  -0.0006
     0.0623   0.1109   0.1308   0.1622   0.1752   0.2055   0.2752   0.3423
     0.3684   0.3959   0.5190   0.5281   0.5787   0.5956   0.7104   0.7332
     0.7423   0.7907   0.8571   0.9306   1.0549   1.0959   1.3632   1.9237
     2.3785   2.5382   2.8182   2.9048   3.2135   3.3609   3.3662   3.3757
     3.5518   3.6833

[...]

          k = 0.0380-0.0419 0.0000 ( 17876 PWs)   bands (ev):

[...]

          k =-0.0760-0.0000 0.0000 ( 17886 PWs)   bands (ev):

[...]

          k =-0.0760-0.0839 0.0000 ( 17948 PWs)   bands (ev):

   -56.8841 -56.8831 -56.1219 -56.1092 -55.8704 -55.8191 -55.7048 -55.5544
   -55.4942 -55.4865 -55.4857 -55.4854 -55.4412 -55.4272 -55.2445 -55.2299
   -33.1659 -33.1649 -33.1435 -33.1423 -33.0264 -33.0257 -32.4425 -32.4320
   -32.3159 -32.3030 -32.3024 -32.2942 -32.1776 -32.1370 -32.1004 -32.0911
   -32.0463 -32.0401 -31.9954 -31.9548 -31.9152 -31.8851 -31.8617 -31.8360
   -31.8352 -31.8260 -31.8149 -31.8134 -31.7806 -31.7740 -31.7579 -31.7211
   -31.7088 -31.7071 -31.7013 -31.6835 -31.6798 -31.6700 -31.6687 -31.6572
   -31.6419 -31.6176 -31.5805 -31.5324 -31.4941 -31.4826 -31.4624 -31.4416
   -20.3922 -16.5057 -16.4181 -16.4150 -16.3501 -16.3483 -16.1235 -16.1174
   -15.8977 -15.8653 -15.7568 -15.6658 -15.5982 -15.5453 -15.5402 -15.4995
   -15.4038 -15.3889 -15.3245 -15.2843 -15.2693 -15.2040 -15.1802 -15.1380
   -15.1306 -15.0956 -14.9551 -14.8982 -14.8722 -14.7303 -14.6193 -13.9964
   -13.9958 -13.4265  -5.6159  -4.5588  -4.3610  -4.1672  -3.5012  -3.4822
    -3.4712  -3.4648  -3.2370  -3.2228  -3.2119  -3.1066  -3.0850  -3.0542
    -2.9924  -2.9895  -2.8872  -2.8318  -2.8015  -2.7933  -2.7775  -2.7218
    -2.7194  -2.6984  -2.6512  -2.5583  -2.5490  -2.5173  -2.4952  -2.4434
    -2.3634  -2.3310  -2.3111  -2.2876  -2.2774  -2.2695  -2.2464  -2.2114
    -2.1461  -1.9612  -1.9240  -1.8837  -1.8437  -1.8010  -1.7900  -1.7222
    -1.7134  -1.6941  -1.6514  -1.5671  -1.5426  -1.5043  -1.4988  -1.4180
    -1.3677  -1.3453  -1.2897  -1.2287  -1.1185  -1.0590  -1.0252  -1.0147
    -1.0008  -0.9735  -0.9016  -0.8274  -0.7789  -0.7030  -0.6735  -0.6544
    -0.6201  -0.5957  -0.5319  -0.5185  -0.4274  -0.3732  -0.2737  -0.2051
    -0.1733  -0.1238  -0.0940  -0.0195   0.0519   0.1434   0.1690   0.2359
     0.2467   0.2991   0.3361   0.5168   0.6243   0.6505   0.6829   0.8037
     0.8174   0.8489   0.9000   0.9033   0.9042   0.9425   0.9873   1.8833
     2.9584   2.9612   3.0158   3.0225   3.3150   3.3231   3.4312   3.4354
     3.6537   3.6768

     the Fermi energy is     2.2089 ev

!    total energy              =   -2970.23703358 Ry
     estimated scf accuracy    <       0.00000007 Ry
     smearing contrib. (-TS)   =      -0.00495083 Ry
     internal energy E=F+TS    =   -2970.23208275 Ry

     The total energy is F=E-TS. E is the sum of the following terms:
     one-electron contribution =  -23891.46647459 Ry
     hartree contribution      =   12035.19426713 Ry
     xc contribution           =    -491.37900456 Ry
     ewald contribution        =    9377.41912714 Ry
     electric field correction =       0.00000214 Ry

     convergence has been achieved in  69 iterations

     Forces acting on atoms (cartesian axes, Ry/au):

     atom    1 type  1   force =     0.00016111   -0.00041950    0.12035059
     atom    2 type  1   force =    -0.00005466    0.00015605   -0.15699176
     atom    3 type  2   force =     0.00001994   -0.00007306   -0.05925578
     atom    4 type  2   force =     0.00000349    0.00008505    0.02056694
     atom    5 type  2   force =    -0.00371348   -0.00201860   -0.01102858
     atom    6 type  2   force =     0.00484025   -0.00123325   -0.01301975
     atom    7 type  1   force =    -0.00068414   -0.00619077    0.05344763
     atom    8 type  1   force =     0.00116152    0.01367022    0.08843278
     atom    9 type  2   force =    -0.00012975   -0.00124938    0.00076138
     atom   10 type  2   force =    -0.00301324    0.00052651   -0.05512204
     atom   11 type  2   force =     0.00000477    0.00031189    0.00020595
     atom   12 type  2   force =    -0.00049101   -0.00023264   -0.00031673
     atom   13 type  1   force =    -0.00071186    0.00115969   -0.00083184
     atom   14 type  1   force =    -0.00005229   -0.00120103   -0.00011821
     atom   15 type  2   force =     0.00015696    0.00049225   -0.00035218
     atom   16 type  2   force =     0.00059112   -0.00075988   -0.00063243
     atom   17 type  2   force =     0.00045995    0.00045665   -0.00030262
     atom   18 type  2   force =     0.00005524    0.00049925   -0.00078487
     atom   19 type  1   force =     0.00028963    0.00004799    0.00056430
     atom   20 type  1   force =     0.00040041   -0.00066757    0.00016611
     atom   21 type  2   force =     0.00009949    0.00021542    0.09833538
     atom   22 type  2   force =     0.00025043    0.00004599    0.00080810
     atom   23 type  2   force =    -0.08117504    0.00005366   -0.03237842
     atom   24 type  2   force =     0.08116344    0.00049397   -0.03237219
     atom   25 type  1   force =     0.00015446   -0.00059746    0.12074920
     atom   26 type  1   force =     0.00007154   -0.00144457   -0.15746077
     atom   27 type  2   force =     0.00009784   -0.00078412   -0.05738777
     atom   28 type  2   force =     0.00003955    0.00183168    0.01625441
     atom   29 type  2   force =    -0.00204726    0.00509153   -0.01431004
     atom   30 type  2   force =     0.00293102    0.00551908   -0.01632305
     atom   31 type  1   force =    -0.00059037    0.00199781    0.03658865
     atom   32 type  1   force =     0.00117514   -0.01697464    0.08812418
     atom   33 type  2   force =    -0.00003315    0.00049884    0.00106384
     atom   34 type  2   force =    -0.00260304    0.00100787   -0.07065777
     atom   35 type  2   force =     0.00135100   -0.00051056    0.00038410
     atom   36 type  2   force =    -0.00023686   -0.00018114    0.00024607
     atom   37 type  1   force =    -0.00061341   -0.00037302    0.00016584
     atom   38 type  1   force =     0.00106621   -0.00063834   -0.00020403
     atom   39 type  2   force =    -0.00060834   -0.00076254    0.00032711
     atom   40 type  2   force =    -0.00014743   -0.00009081   -0.00060813
     atom   41 type  2   force =     0.00086495    0.00030308   -0.00009853
     atom   42 type  2   force =     0.00004288   -0.00004675   -0.00023902
     atom   43 type  1   force =     0.00006845    0.00054729    0.00041838
     atom   44 type  1   force =     0.00009080    0.00063846   -0.00068864
     atom   45 type  2   force =     0.00010356    0.00002562    0.09815655
     atom   46 type  2   force =    -0.08121449    0.00000767   -0.03235829
     atom   47 type  2   force =     0.08120949    0.00042413   -0.03237579
     atom   48 type  3   force =    -0.00484576   -0.00126462   -0.00349172
     atom   49 type  4   force =     0.00398015    0.00010422    0.00452538
     atom   50 type  5   force =     0.00184107   -0.00031134   -0.00054471
     atom   51 type  5   force =    -0.00058256   -0.00057734   -0.00033072
     atom   52 type  2   force =    -0.00091071    0.00077702   -0.00072715
     atom   53 type  4   force =    -0.00028702    0.00161407    0.00067065

     Total force =     0.406444     Total SCF correction =     0.000894
  @ DRIVER MODE: Message from server: STATUS
  @ DRIVER MODE: Message from server: GETFORCE
  @ DRIVER MODE: Returning v,forces,stress,ensemble

     Writing output data file ./calc.save/
  @ DRIVER MODE: Message from server: EXIT
  @ DRIVE MODE: Exiting

     General routines

     Parallel routines

   This run was terminated on:   2:35:46  28Sep2021

   JOB DONE.