     Program PWSCF v.6.7GPU starts on 15Sep2021 at 14:41:21

     R & G space division:  proc/nbgrp/npool/nimage =      10
     Reading input from /storage/home/hcoda1/3/ntian30/research/carbon/CxH_vib/CH_calc/ads_slab/CHNHNH_b/out_0017/pw.inp
Warning: card &CELL ignored
Warning: card   CELL_DYNAMICS='IPI', ignored
Warning: card / ignored

     Current dimensions of program PWSCF are:
     Max number of different atomic species (ntypx) = 10
     Max number of k-points (npk) =  40000
     Max angular momentum in pseudopotentials (lmaxx) =  3
     Presently no symmetry can be used with electric field

     Message from routine cell_base_init:
     DEPRECATED: use true lattice parameter, not A to a.u. conversion factor

     IMPORTANT: XC functional enforced from input :
     Exchange-correlation= BEEF-VDW
                           (   1   4  43  14   2   0   0)
     Any further DFT definition will be discarded
     Please, verify this is what you really want

  @ DRIVER MODE: Connecting to
 qe_1139763_2850202.sched-torque.pace.gatech.edu03xox5w2_scratch
  using UNIX socket
  @ DRIVER MODE: Message from server: STATUS
  @ DRIVER MODE: Message from server: INIT
  @ DRIVER MODE: Receiving replica           0          -1
  @ DRIVER MODE: Receiving encoded integer          25
  @ DRIVER MODE:  SCF:  T  FORCE:  T  STRESS:  F  VC:  F  ENSEMBLE:  F
  @ DRIVER MODE:  SCF:  T  FORCE:  T  STRESS:  F  VC:  F  ENSEMBLE:  F

     Using Slab Decomposition

     bravais-lattice index     =            0
     lattice parameter (alat)  =       1.8897  a.u.
     unit-cell volume          =    6658.9804 (a.u.)^3
     number of atoms/cell      =           53
     number of atomic types    =            5
     number of electrons       =       395.00
     number of Kohn-Sham states=          207
     kinetic-energy cutoff     =      29.3995  Ry
     charge density cutoff     =     293.9946  Ry
     scf convergence threshold =      7.3E-08
     mixing beta               =       0.0500
     number of iterations used =            8  plain     mixing
     Exchange-correlation= BEEF-VDW
                           (   1   4  43  14   2   0   0)

     celldm(1)=   1.889726  celldm(2)=   0.000000  celldm(3)=   0.000000
     celldm(4)=   0.000000  celldm(5)=   0.000000  celldm(6)=   0.000000

     crystal axes: (cart. coord. in units of alat)
               a(1) = (   6.579727   0.000000   0.000000 )
               a(2) = (  -0.000775   5.961596   0.000000 )
               a(3) = (   0.000000   0.000000  25.155947 )

     reciprocal axes: (cart. coord. in units 2 pi/alat)
               b(1) = (  0.151982  0.000020  0.000000 )
               b(2) = (  0.000000  0.167740  0.000000 )
               b(3) = (  0.000000  0.000000  0.039752 )

     PseudoPot. # 1 for Ti read from file:
     /storage/coda1/p-amedford6/0/shared/rich_project_chbe-medford/medford-share/data/pseudos_module/espresso/nninc/pbe/van/Ti.UPF
     MD5 check sum: 8e4df49b7f0d34bbd5052bf3f5ea0213
     Pseudo is Ultrasoft, Zval = 12.0
     Generated by new atomic code, or converted to UPF format
     Using radial grid of  851 points,  6 beta functions with:
                l(1) =   0
                l(2) =   0
                l(3) =   1
                l(4) =   1
                l(5) =   2
                l(6) =   2
     Q(r) pseudized with  8 coefficients,  rinner =    1.000   1.000   1.000
                                                       1.000   1.000

     PseudoPot. # 2 for O  read from file:
     /storage/coda1/p-amedford6/0/shared/rich_project_chbe-medford/medford-share/data/pseudos_module/espresso/nninc/pbe/van/O.UPF
     MD5 check sum: 78c19812648e8988a0fe644b0f25305e
     Pseudo is Ultrasoft, Zval =  6.0
     Generated by new atomic code, or converted to UPF format
     Using radial grid of  737 points,  4 beta functions with:
                l(1) =   0
                l(2) =   0
                l(3) =   1
                l(4) =   1
     Q(r) pseudized with  8 coefficients,  rinner =    0.800   0.800   0.800

     PseudoPot. # 3 for N  read from file:
     /storage/coda1/p-amedford6/0/shared/rich_project_chbe-medford/medford-share/data/pseudos_module/espresso/nninc/pbe/van/N.UPF
     MD5 check sum: 90d10febe142ad51ac9d5be1deb811c4
     Pseudo is Ultrasoft, Zval =  5.0
     Generated by new atomic code, or converted to UPF format
     Using radial grid of  729 points,  4 beta functions with:
                l(1) =   0
                l(2) =   0
                l(3) =   1
                l(4) =   1
     Q(r) pseudized with  8 coefficients,  rinner =    0.800   0.800   0.800

     PseudoPot. # 4 for C  read from file:
     /storage/coda1/p-amedford6/0/shared/rich_project_chbe-medford/medford-share/data/pseudos_module/espresso/nninc/pbe/van/C.UPF
     MD5 check sum: 1a69bf6b8db32088f5b2163dbdb77a27
     Pseudo is Ultrasoft, Zval =  4.0
     Generated by new atomic code, or converted to UPF format
     Using radial grid of  721 points,  4 beta functions with:
                l(1) =   0
                l(2) =   0
                l(3) =   1
                l(4) =   1
     Q(r) pseudized with  8 coefficients,  rinner =    0.800   0.800   0.800

     PseudoPot. # 5 for H  read from file:
     /storage/coda1/p-amedford6/0/shared/rich_project_chbe-medford/medford-share/data/pseudos_module/espresso/nninc/pbe/van/H.UPF
     MD5 check sum: b5ee9d7bfd3a09ee7748110bda690ff7
     Pseudo is Ultrasoft, Zval =  1.0
     Generated by new atomic code, or converted to UPF format
     Using radial grid of  615 points,  1 beta functions with:
                l(1) =   0
     Q(r) pseudized with  8 coefficients,  rinner =    0.800

     atomic species   valence    mass     pseudopotential
        Ti1           12.00    47.86700     Ti( 1.00)
        O1             6.00    15.99900     O ( 1.00)
        N1             5.00    14.00700     N ( 1.00)
        C1             4.00    12.01100     C ( 1.00)
        H1             1.00     1.00800     H ( 1.00)

     No symmetry found

   Cartesian axes

     site n.     atom                  positions (alat units)
         1           Ti1 tau(   1) = (   0.0004258   2.9801865   6.0000000  )
         2           Ti1 tau(   2) = (   3.2906075   1.4906267   6.0002472  )
         3           O1  tau(   3) = (   0.0006271   0.0005054   7.9858123  )
         4           O1  tau(   4) = (   3.2906025   0.0005020   7.3038282  )
         5           O1  tau(   5) = (   4.5942328   1.4918067   9.2879030  )
         6           O1  tau(   6) = (   1.9868534   1.4903216   9.2879459  )
         7           Ti1 tau(   7) = (   3.2907910   2.8959150   9.1758416  )
         8           Ti1 tau(   8) = (   0.0015273   1.4827037   9.2680791  )
         9           O1  tau(   9) = (   3.2799393   5.9535521  11.3540639  )
        10           O1  tau(  10) = (   0.0116148   5.9584955  10.6183126  )
        11           O1  tau(  11) = (   1.2974255   1.4613897  12.6506698  )
        12           O1  tau(  12) = (   5.3017888   1.4901577  12.6050164  )
        13           Ti1 tau(  13) = (   6.5221663   3.0180504  12.5986966  )
        14           Ti1 tau(  14) = (   3.2221172   1.5532140  12.5512791  )
        15           O1  tau(  15) = (   6.4783894   5.9520290  14.6579590  )
        16           O1  tau(  16) = (   3.3696489   5.9508513  13.9183136  )
        17           O1  tau(  17) = (   4.5179258   1.5103438  16.1624884  )
        18           O1  tau(  18) = (   1.9802590   1.4047766  15.9099196  )
        19           Ti1 tau(  19) = (   3.2637731   3.0080032  15.8837983  )
        20           Ti1 tau(  20) = (   6.5766856   1.4756295  15.8014380  )
        21           O1  tau(  21) = (   3.2904802   0.0005063   4.7018136  )
        22           O1  tau(  22) = (   0.0065935   5.9492922  17.2122405  )
        23           O1  tau(  23) = (   1.3043587   1.4918075   6.0039043  )
        24           O1  tau(  24) = (   5.2767064   1.4903225   6.0039473  )
        25           Ti1 tau(  25) = (   0.0000382   5.9609847   6.0000000  )
        26           Ti1 tau(  26) = (   3.2902200   4.4714249   6.0002472  )
        27           O1  tau(  27) = (   0.0002396   2.9813036   7.9858123  )
        28           O1  tau(  28) = (   3.2902150   2.9813002   7.3038282  )
        29           O1  tau(  29) = (   4.5938453   4.4726049   9.2879030  )
        30           O1  tau(  30) = (   1.9864658   4.4711199   9.2879459  )
        31           Ti1 tau(  31) = (   3.2891106   5.8743827   9.1763621  )
        32           Ti1 tau(  32) = (   0.0006254   4.4649316   9.2693709  )
        33           O1  tau(  33) = (   3.2772596   2.9828089  11.3369495  )
        34           O1  tau(  34) = (   0.0092240   2.9805883  10.6323155  )
        35           O1  tau(  35) = (   1.2916203   4.4718874  12.6594431  )
        36           O1  tau(  36) = (   5.2999639   4.4615573  12.6129894  )
        37           Ti1 tau(  37) = (   6.5361528   0.0312684  12.5125129  )
        38           Ti1 tau(  38) = (   3.2177194   4.4831555  12.4956785  )
        39           O1  tau(  39) = (   6.5168025   2.9395006  14.7032746  )
        40           O1  tau(  40) = (   3.2870264   2.9515371  13.9313172  )
        41           O1  tau(  41) = (   4.5204763   4.4345026  16.1736457  )
        42           O1  tau(  42) = (   1.9972348   4.5331091  15.9467552  )
        43           Ti1 tau(  43) = (   3.2981618   0.0182476  15.6956140  )
        44           Ti1 tau(  44) = (   0.0010288   4.6427453  16.0560918  )
        45           O1  tau(  45) = (   3.2900926   2.9813045   4.7018136  )
        46           O1  tau(  46) = (   1.3039711   4.4726057   6.0039043  )
        47           O1  tau(  47) = (   5.2763189   4.4711207   6.0039473  )
        48           N1  tau(  48) = (   1.3052520   2.8252889  18.3786263  )
        49           N1  tau(  49) = (   0.2128110   2.9323531  17.5195281  )
        50           C1  tau(  50) = (   2.5582938   2.8657590  18.0299718  )
        51           H1  tau(  51) = (   3.1786551   2.7222395  18.9297303  )
        52           H1  tau(  52) = (   1.0317423   2.6491596  19.3433462  )
        53           H1  tau(  53) = (   5.9645394   2.8535341  18.1048464  )

     number of k points=    10  Fermi-Dirac smearing, width (Ry)=  0.0073
                       cart. coord. in units 2pi/alat
        k(    1) = (   0.0000000   0.0000000   0.0000000), wk =   0.1250000
        k(    2) = (   0.0000000   0.0419351   0.0000000), wk =   0.2500000
        k(    3) = (   0.0000000  -0.0838702   0.0000000), wk =   0.1250000
        k(    4) = (   0.0379955   0.0000049   0.0000000), wk =   0.2500000
        k(    5) = (   0.0379955   0.0419400   0.0000000), wk =   0.2500000
        k(    6) = (   0.0379955  -0.0838652   0.0000000), wk =   0.2500000
        k(    7) = (   0.0379955  -0.0419301   0.0000000), wk =   0.2500000
        k(    8) = (  -0.0759910  -0.0000099   0.0000000), wk =   0.1250000
        k(    9) = (  -0.0759910   0.0419252   0.0000000), wk =   0.2500000
        k(   10) = (  -0.0759910  -0.0838800   0.0000000), wk =   0.1250000

     Initial potential from superposition of free atoms

     starting charge  378.99916, renormalised to  395.00000

     negative rho (up, down):  1.762E-02 0.000E+00

     %%%%%%%%%%%%%%%%%%%%%%%%%%%%%%%%%%%%%%%%%%%%%%%%%%%%%%%%%%%%%%%%%%%%%%%%
     %                                                                      %
     % You are using vdW-DF, which was implemented by the Thonhauser group. %
     % Please cite the following two papers that made this development      %
     % possible and the two reviews that describe the various versions:     %
     %                                                                      %
     %   T. Thonhauser et al., PRL 115, 136402 (2015).                      %
     %   T. Thonhauser et al., PRB 76, 125112 (2007).                       %
     %   K. Berland et al., Rep. Prog. Phys. 78, 066501 (2015).             %
     %   D.C. Langreth et al., J. Phys.: Condens. Matter 21, 084203 (2009). %
     %                                                                      %
     %                                                                      %
     % If you are calculating the stress with vdW-DF, please also cite:     %
     %                                                                      %
     %   R. Sabatini et al., J. Phys.: Condens. Matter 24, 424209 (2012).   %
     %                                                                      %
     %%%%%%%%%%%%%%%%%%%%%%%%%%%%%%%%%%%%%%%%%%%%%%%%%%%%%%%%%%%%%%%%%%%%%%%%

     Adding external electric field

     Computed dipole along edir(3) :
        Dipole               -7.9468 Ry au,        -20.1988 Debye
        Dipole field         -0.0150 Ry au,

        Potential amp.        1.3902 Ry
        Total length         46.3494 bohr

     Starting wfcs are  299 atomic wfcs
  @ DRIVER MODE: Message from server: STATUS
  @ DRIVER MODE: Message from server: POSDATA
  @ DRIVER MODE: Reading and sharing cell
  @ DRIVER MODE: Reading and sharing positions
  @ DRIVER MODE: Received positions

     Self-consistent Calculation

     iteration #  1     ecut=    29.40 Ry     beta= 0.05
     Davidson diagonalization with overlap
     c_bands:  1 eigenvalues not converged
     c_bands:  2 eigenvalues not converged
     c_bands:  2 eigenvalues not converged
     c_bands:  3 eigenvalues not converged
     c_bands:  3 eigenvalues not converged
     c_bands:  1 eigenvalues not converged
     c_bands:  1 eigenvalues not converged
     ethr =  1.00E-05,  avg # of iterations = 19.2

[...]

     total energy              =   -2627.24966760 Ry
     estimated scf accuracy    <    3449.70792054 Ry

[...]

     iteration #  3     ecut=    29.40 Ry     beta= 0.05
     Davidson diagonalization with overlap
     ethr =  1.00E-02,  avg # of iterations = 13.8

[...]

     iteration # 74     ecut=    29.40 Ry     beta= 0.05
     Davidson diagonalization with overlap
     c_bands:  1 eigenvalues not converged
     ethr =  1.08E-09,  avg # of iterations =  3.4

[...]

     total energy              =   -2939.10937412 Ry
     estimated scf accuracy    <       0.00000021 Ry

     iteration # 84     ecut=    29.40 Ry     beta= 0.05
     Davidson diagonalization with overlap
     ethr =  4.39E-11,  avg # of iterations =  6.8

     negative rho (up, down):  1.781E-02 0.000E+00

     Adding external electric field

     Computed dipole along edir(3) :
        Dipole                1.3652 Ry au,          3.4701 Debye
        Dipole field          0.0026 Ry au,

        Potential amp.       -0.2388 Ry
        Total length         46.3494 bohr

     End of self-consistent calculation

          k = 0.0000 0.0000 0.0000 ( 18029 PWs)   bands (ev):

   -55.4849 -55.4508 -55.3912 -55.3460 -55.3342 -55.3246 -55.3027 -55.2956
   -55.2886 -55.2687 -55.2608 -55.2259 -55.1449 -54.9902 -54.4647 -54.4306
   -31.9688 -31.9191 -31.8323 -31.8042 -31.8026 -31.7769 -31.7502 -31.7296
   -31.7147 -31.6555 -31.6470 -31.6372 -31.6359 -31.6003 -31.5907 -31.5835
   -31.5672 -31.5643 -31.5494 -31.5421 -31.5076 -31.4964 -31.4961 -31.4943
   -31.4930 -31.4854 -31.4810 -31.4791 -31.4524 -31.4431 -31.4414 -31.4387
   -31.4341 -31.4252 -31.4149 -31.4094 -31.3913 -31.3730 -31.3689 -31.2430
   -31.2294 -31.1950 -30.8715 -30.7835 -30.7611 -30.6884 -30.6019 -30.4907
   -18.7428 -16.1645 -15.9633 -15.7773 -15.6469 -15.5930 -15.3585 -15.2541
   -15.2195 -15.1363 -15.0920 -15.0626 -15.0243 -15.0094 -14.9936 -14.9862
   -14.9276 -14.9090 -14.9025 -14.8722 -14.8534 -14.8297 -14.8166 -14.7274
   -14.6420 -14.6379 -14.6269 -14.6019 -14.5390 -14.1489 -13.4781 -12.9654
   -12.8490  -8.9035  -7.3454  -4.3889  -3.6659  -3.5319  -3.4239  -3.4054
    -3.3893  -3.2635  -3.1469  -2.8972  -2.8839  -2.7496  -2.6628  -2.6222
    -2.5494  -2.4754  -2.4405  -2.3821  -2.3173  -2.2944  -2.2770  -2.2435
    -2.2219  -2.2117  -2.1822  -2.0386  -2.0195  -1.9532  -1.8655  -1.8569
    -1.7997  -1.7950  -1.7738  -1.7427  -1.7396  -1.7331  -1.7123  -1.6926
    -1.6223  -1.5454  -1.4989  -1.4575  -1.3191  -1.1895  -1.1405  -1.0956
    -1.0311  -0.9561  -0.9214  -0.9095  -0.8920  -0.8759  -0.7267  -0.6799
    -0.6569  -0.6202  -0.5019  -0.4202  -0.3646  -0.3166  -0.2855  -0.2564
    -0.2355  -0.2232  -0.1863  -0.0676   0.0005   0.0466   0.0793   0.1563
     0.2125   0.2448   0.2581   0.3239   0.3608   0.3853   0.4349   0.4730
     0.4872   0.5101   0.5429   0.5609   0.6357   0.7502   0.7735   0.7756
     0.8170   1.0061   1.0707   1.1213   1.1735   1.2961   1.3250   1.4941
     1.5592   1.6354   1.7519   2.1295   2.1753   3.6292   3.7360   3.7725
     3.8128   3.8478   3.8940   4.0923   4.1386   4.1837   4.2714

[...]

          k = 0.0380-0.0419 0.0000 ( 17876 PWs)   bands (ev):

[...]

          k =-0.0760-0.0000 0.0000 ( 17886 PWs)   bands (ev):

[...]

          k =-0.0760-0.0839 0.0000 ( 17948 PWs)   bands (ev):

   -55.4681 -55.4675 -55.3825 -55.3542 -55.3237 -55.3130 -55.3063 -55.3001
   -55.2860 -55.2848 -55.2480 -55.2389 -55.1431 -54.9919 -54.4477 -54.4475
   -31.7843 -31.7839 -31.7626 -31.7621 -31.7616 -31.7316 -31.6679 -31.6643
   -31.6497 -31.6271 -31.6208 -31.6122 -31.6015 -31.6001 -31.5908 -31.5876
   -31.5870 -31.5801 -31.5795 -31.5775 -31.5592 -31.5586 -31.5457 -31.5333
   -31.5323 -31.5139 -31.5107 -31.5088 -31.4877 -31.4860 -31.4754 -31.4633
   -31.4609 -31.4585 -31.4570 -31.4556 -31.4384 -31.3854 -31.3731 -31.2885
   -31.2454 -31.2329 -30.7739 -30.7737 -30.6844 -30.6841 -30.6453 -30.6451
   -18.7391 -15.5998 -15.5043 -15.4874 -15.4132 -15.3893 -15.2889 -15.2527
   -15.2126 -15.1887 -15.1817 -15.1493 -15.1002 -15.0862 -15.0471 -15.0357
   -15.0105 -14.9761 -14.9664 -14.9296 -14.9267 -14.9199 -14.8831 -14.8227
   -14.8059 -14.7981 -14.7959 -14.7161 -14.6094 -14.3541 -13.4976 -12.9509
   -12.9506  -8.8949  -7.2636  -4.5180  -3.6426  -2.8500  -2.7855  -2.7687
    -2.6720  -2.5933  -2.5276  -2.4860  -2.4604  -2.4038  -2.3950  -2.3406
    -2.3322  -2.3058  -2.2912  -2.2777  -2.2438  -2.2269  -2.2247  -2.1903
    -2.1835  -2.1599  -2.1335  -2.1111  -2.1000  -2.0842  -2.0688  -2.0445
    -2.0316  -1.9990  -1.9598  -1.8260  -1.7095  -1.6605  -1.6303  -1.6097
    -1.5869  -1.5563  -1.5390  -1.5281  -1.4947  -1.4532  -1.3108  -1.1730
    -1.1521  -1.0635  -1.0146  -0.9926  -0.9590  -0.9005  -0.8796  -0.8742
    -0.8184  -0.7910  -0.7074  -0.6582  -0.6164  -0.5906  -0.4593  -0.4512
    -0.4471  -0.4315  -0.4005  -0.3811  -0.3280  -0.2480  -0.2163  -0.2105
    -0.1647  -0.1623  -0.1501  -0.0089   0.0565   0.1022   0.1932   0.2395
     0.3885   0.5427   0.5670   0.6012   0.6930   0.7485   0.7898   0.8274
     0.8433   0.8955   0.9595   1.0285   1.0400   1.0958   1.1110   1.1970
     1.2397   1.9235   1.9244   1.9950   1.9954   3.9951   3.9994   4.0175
     4.0871   4.1478   4.1543   4.1874   4.1886   4.2907   4.3218

     the Fermi energy is     3.6438 ev

!    total energy              =   -2939.10937949 Ry
     estimated scf accuracy    <       0.00000005 Ry
     smearing contrib. (-TS)   =      -0.02093434 Ry
     internal energy E=F+TS    =   -2939.08844515 Ry

     The total energy is F=E-TS. E is the sum of the following terms:
     one-electron contribution =  -24579.80212276 Ry
     hartree contribution      =   12381.48338762 Ry
     xc contribution           =    -485.20238083 Ry
     ewald contribution        =    9744.42915341 Ry
     electric field correction =       0.00351741 Ry

     convergence has been achieved in  84 iterations

     Forces acting on atoms (cartesian axes, Ry/au):

     atom    1 type  1   force =     0.00004774   -0.00021592    0.09562613
     atom    2 type  1   force =    -0.00000866   -0.00051888   -0.17549702
     atom    3 type  2   force =     0.00008708   -0.00008861   -0.02328328
     atom    4 type  2   force =    -0.00003167   -0.00149204    0.05265980
     atom    5 type  2   force =    -0.01057361   -0.00049941    0.00371896
     atom    6 type  2   force =     0.01175998   -0.00006893    0.00224144
     atom    7 type  1   force =    -0.00002389   -0.00029253   -0.00804005
     atom    8 type  1   force =     0.00049334    0.01258259    0.01818494
     atom    9 type  2   force =    -0.00031420    0.00004332    0.00004474
     atom   10 type  2   force =    -0.00242463    0.00020265   -0.01643539
     atom   11 type  2   force =    -0.00031100    0.00019245    0.00001081
     atom   12 type  2   force =    -0.00045499   -0.00014558   -0.00013549
     atom   13 type  1   force =     0.00022843   -0.00008345    0.00005448
     atom   14 type  1   force =     0.00032978    0.00013933    0.00001101
     atom   15 type  2   force =     0.00017155    0.00021538    0.00001174
     atom   16 type  2   force =    -0.00016071   -0.00020313    0.00020267
     atom   17 type  2   force =    -0.00000255   -0.00026952   -0.00026447
     atom   18 type  2   force =    -0.00011876   -0.00030533   -0.00052469
     atom   19 type  1   force =     0.00074854    0.00015867   -0.00224737
     atom   20 type  1   force =     0.00021036    0.00011995   -0.00035954
     atom   21 type  2   force =     0.00005405   -0.00006253    0.10322231
     atom   22 type  2   force =     0.00004952    0.00013750    0.00000165
     atom   23 type  2   force =    -0.07161416   -0.00015894   -0.02756304
     atom   24 type  2   force =     0.07153948    0.00028277   -0.02762031
     atom   25 type  1   force =     0.00017320   -0.00025685    0.09532676
     atom   26 type  1   force =     0.00005132   -0.00030661   -0.17589575
     atom   27 type  2   force =     0.00009016   -0.00019756   -0.02227249
     atom   28 type  2   force =    -0.00001575   -0.00114705    0.05313865
     atom   29 type  2   force =    -0.01040297   -0.00021575    0.00331808
     atom   30 type  2   force =     0.01139720    0.00019743    0.00189131
     atom   31 type  1   force =    -0.00013653    0.00481531   -0.00020692
     atom   32 type  1   force =     0.00058780   -0.01318046    0.01873363
     atom   33 type  2   force =    -0.00015259    0.00013966   -0.00012401
     atom   34 type  2   force =    -0.00060001    0.00042848   -0.01724776
     atom   35 type  2   force =    -0.00037246   -0.00014746    0.00013715
     atom   36 type  2   force =    -0.00020594   -0.00033643    0.00019817
     atom   37 type  1   force =     0.00032882   -0.00016353    0.00008448
     atom   38 type  1   force =     0.00016297    0.00014232    0.00023005
     atom   39 type  2   force =    -0.00030198   -0.00004224   -0.00029920
     atom   40 type  2   force =    -0.00019191   -0.00015212    0.00006661
     atom   41 type  2   force =    -0.00004378    0.00014160    0.00005240
     atom   42 type  2   force =     0.00018904    0.00015033    0.00002154
     atom   43 type  1   force =    -0.00006026    0.00012369    0.00008547
     atom   44 type  1   force =     0.00020348    0.00018664    0.00022259
     atom   45 type  2   force =     0.00006685   -0.00009619    0.10324242
     atom   46 type  2   force =    -0.07166899   -0.00011766   -0.02760375
     atom   47 type  2   force =     0.07155598    0.00026590   -0.02764518
     atom   48 type  3   force =     0.00265152    0.00041245   -0.00576394
     atom   49 type  3   force =    -0.00077036   -0.00046663    0.00039037
     atom   50 type  4   force =    -0.00021740   -0.00202248    0.01539595
     atom   51 type  5   force =    -0.00320376    0.00114728   -0.00794203
     atom   52 type  5   force =     0.00114175    0.00134493   -0.00077783
     atom   53 type  5   force =     0.00006354   -0.00031682   -0.00077681

     Total force =     0.366120     Total SCF correction =     0.000723
  @ DRIVER MODE: Message from server: STATUS
  @ DRIVER MODE: Message from server: GETFORCE
  @ DRIVER MODE: Returning v,forces,stress,ensemble

     Writing output data file ./calc.save/
  @ DRIVER MODE: Message from server: EXIT
  @ DRIVE MODE: Exiting

     General routines

     Parallel routines

   This run was terminated on:  15: 3:19  15Sep2021

   JOB DONE.