     Program PWSCF v.6.7GPU starts on 11Sep2021 at  5:54:35

     R & G space division:  proc/nbgrp/npool/nimage =      10
     Reading input from /storage/home/hcoda1/3/ntian30/research/carbon/CxH_vib/CH2_calc/ads_slab/CH2NHNH2_a/out_0033/pw.inp
Warning: card &CELL ignored
Warning: card   CELL_DYNAMICS='IPI', ignored
Warning: card / ignored

     Current dimensions of program PWSCF are:
     Max number of different atomic species (ntypx) = 10
     Max number of k-points (npk) =  40000
     Max angular momentum in pseudopotentials (lmaxx) =  3
     Presently no symmetry can be used with electric field

     Message from routine cell_base_init:
     DEPRECATED: use true lattice parameter, not A to a.u. conversion factor

     IMPORTANT: XC functional enforced from input :
     Exchange-correlation= BEEF-VDW
                           (   1   4  43  14   2   0   0)
     Any further DFT definition will be discarded
     Please, verify this is what you really want

  @ DRIVER MODE: Connecting to
 qe_1139763_2792044.sched-torque.pace.gatech.eduhh4mebqm_scratch
  using UNIX socket
  @ DRIVER MODE: Message from server: STATUS
  @ DRIVER MODE: Message from server: INIT
  @ DRIVER MODE: Receiving replica           0          -1
  @ DRIVER MODE: Receiving encoded integer          25
  @ DRIVER MODE:  SCF:  T  FORCE:  T  STRESS:  F  VC:  F  ENSEMBLE:  F
  @ DRIVER MODE:  SCF:  T  FORCE:  T  STRESS:  F  VC:  F  ENSEMBLE:  F

     Using Slab Decomposition

     bravais-lattice index     =            0
     lattice parameter (alat)  =       1.8897  a.u.
     unit-cell volume          =    6658.9804 (a.u.)^3
     number of atoms/cell      =           55
     number of atomic types    =            5
     number of electrons       =       397.00
     number of Kohn-Sham states=          208
     kinetic-energy cutoff     =      29.3995  Ry
     charge density cutoff     =     293.9946  Ry
     scf convergence threshold =      7.3E-08
     mixing beta               =       0.0500
     number of iterations used =            8  plain     mixing
     Exchange-correlation= BEEF-VDW
                           (   1   4  43  14   2   0   0)

     celldm(1)=   1.889726  celldm(2)=   0.000000  celldm(3)=   0.000000
     celldm(4)=   0.000000  celldm(5)=   0.000000  celldm(6)=   0.000000

     crystal axes: (cart. coord. in units of alat)
               a(1) = (   6.579727   0.000000   0.000000 )
               a(2) = (  -0.000775   5.961596   0.000000 )
               a(3) = (   0.000000   0.000000  25.155947 )

     reciprocal axes: (cart. coord. in units 2 pi/alat)
               b(1) = (  0.151982  0.000020  0.000000 )
               b(2) = (  0.000000  0.167740  0.000000 )
               b(3) = (  0.000000  0.000000  0.039752 )

     PseudoPot. # 1 for Ti read from file:
     /storage/coda1/p-amedford6/0/shared/rich_project_chbe-medford/medford-share/data/pseudos_module/espresso/nninc/pbe/van/Ti.UPF
     MD5 check sum: 8e4df49b7f0d34bbd5052bf3f5ea0213
     Pseudo is Ultrasoft, Zval = 12.0
     Generated by new atomic code, or converted to UPF format
     Using radial grid of  851 points,  6 beta functions with:
                l(1) =   0
                l(2) =   0
                l(3) =   1
                l(4) =   1
                l(5) =   2
                l(6) =   2
     Q(r) pseudized with  8 coefficients,  rinner =    1.000   1.000   1.000
                                                       1.000   1.000

     PseudoPot. # 2 for O  read from file:
     /storage/coda1/p-amedford6/0/shared/rich_project_chbe-medford/medford-share/data/pseudos_module/espresso/nninc/pbe/van/O.UPF
     MD5 check sum: 78c19812648e8988a0fe644b0f25305e
     Pseudo is Ultrasoft, Zval =  6.0
     Generated by new atomic code, or converted to UPF format
     Using radial grid of  737 points,  4 beta functions with:
                l(1) =   0
                l(2) =   0
                l(3) =   1
                l(4) =   1
     Q(r) pseudized with  8 coefficients,  rinner =    0.800   0.800   0.800

     PseudoPot. # 3 for N  read from file:
     /storage/coda1/p-amedford6/0/shared/rich_project_chbe-medford/medford-share/data/pseudos_module/espresso/nninc/pbe/van/N.UPF
     MD5 check sum: 90d10febe142ad51ac9d5be1deb811c4
     Pseudo is Ultrasoft, Zval =  5.0
     Generated by new atomic code, or converted to UPF format
     Using radial grid of  729 points,  4 beta functions with:
                l(1) =   0
                l(2) =   0
                l(3) =   1
                l(4) =   1
     Q(r) pseudized with  8 coefficients,  rinner =    0.800   0.800   0.800

     PseudoPot. # 4 for C  read from file:
     /storage/coda1/p-amedford6/0/shared/rich_project_chbe-medford/medford-share/data/pseudos_module/espresso/nninc/pbe/van/C.UPF
     MD5 check sum: 1a69bf6b8db32088f5b2163dbdb77a27
     Pseudo is Ultrasoft, Zval =  4.0
     Generated by new atomic code, or converted to UPF format
     Using radial grid of  721 points,  4 beta functions with:
                l(1) =   0
                l(2) =   0
                l(3) =   1
                l(4) =   1
     Q(r) pseudized with  8 coefficients,  rinner =    0.800   0.800   0.800

     PseudoPot. # 5 for H  read from file:
     /storage/coda1/p-amedford6/0/shared/rich_project_chbe-medford/medford-share/data/pseudos_module/espresso/nninc/pbe/van/H.UPF
     MD5 check sum: b5ee9d7bfd3a09ee7748110bda690ff7
     Pseudo is Ultrasoft, Zval =  1.0
     Generated by new atomic code, or converted to UPF format
     Using radial grid of  615 points,  1 beta functions with:
                l(1) =   0
     Q(r) pseudized with  8 coefficients,  rinner =    0.800

     atomic species   valence    mass     pseudopotential
        Ti1           12.00    47.86700     Ti( 1.00)
        O1             6.00    15.99900     O ( 1.00)
        N1             5.00    14.00700     N ( 1.00)
        C1             4.00    12.01100     C ( 1.00)
        H1             1.00     1.00800     H ( 1.00)

     No symmetry found

   Cartesian axes

     site n.     atom                  positions (alat units)
         1           Ti1 tau(   1) = (   0.0004258   2.9801865   6.0000000  )
         2           Ti1 tau(   2) = (   3.2906075   1.4906267   6.0002472  )
         3           O1  tau(   3) = (   0.0006271   0.0005054   7.9858123  )
         4           O1  tau(   4) = (   3.2906025   0.0005020   7.3038282  )
         5           O1  tau(   5) = (   4.5942328   1.4918067   9.2879030  )
         6           O1  tau(   6) = (   1.9868534   1.4903216   9.2879459  )
         7           Ti1 tau(   7) = (   3.2907910   2.8959150   9.1758416  )
         8           Ti1 tau(   8) = (   0.0015273   1.4827037   9.2680791  )
         9           O1  tau(   9) = (   3.2904964   5.9585769  11.3857690  )
        10           O1  tau(  10) = (   0.0116148   5.9584955  10.6183126  )
        11           O1  tau(  11) = (   1.2878431   1.4867815  12.6991744  )
        12           O1  tau(  12) = (   5.2968392   1.4897239  12.6840540  )
        13           Ti1 tau(  13) = (   0.0031652   2.9724310  12.5021289  )
        14           Ti1 tau(  14) = (   3.2974598   1.4750309  12.5411678  )
        15           O1  tau(  15) = (   6.5490940   5.8844369  14.7025010  )
        16           O1  tau(  16) = (   3.3056738   5.9474069  14.0077327  )
        17           O1  tau(  17) = (   4.5358307   1.5199601  16.1809847  )
        18           O1  tau(  18) = (   2.0145668   1.5037208  16.1256758  )
        19           Ti1 tau(  19) = (   3.2722398   2.9952086  15.7861162  )
        20           Ti1 tau(  20) = (   6.5630583   1.3046800  15.8709962  )
        21           O1  tau(  21) = (   3.2904802   0.0005063   4.7018136  )
        22           O1  tau(  22) = (   0.0019326   0.1554656  17.2922311  )
        23           O1  tau(  23) = (   1.3043587   1.4918075   6.0039043  )
        24           O1  tau(  24) = (   5.2767064   1.4903225   6.0039473  )
        25           Ti1 tau(  25) = (   0.0000382   5.9609847   6.0000000  )
        26           Ti1 tau(  26) = (   3.2902200   4.4714249   6.0002472  )
        27           O1  tau(  27) = (   0.0002396   2.9813036   7.9858123  )
        28           O1  tau(  28) = (   3.2902150   2.9813002   7.3038282  )
        29           O1  tau(  29) = (   4.5938453   4.4726049   9.2879030  )
        30           O1  tau(  30) = (   1.9864658   4.4711199   9.2879459  )
        31           Ti1 tau(  31) = (   3.2891106   5.8743827   9.1763621  )
        32           Ti1 tau(  32) = (   0.0006254   4.4649316   9.2693709  )
        33           O1  tau(  33) = (   3.2902589   2.9648534  11.3782866  )
        34           O1  tau(  34) = (   0.0092240   2.9805883  10.6323155  )
        35           O1  tau(  35) = (   1.2907939   4.4579819  12.6664495  )
        36           O1  tau(  36) = (   5.2949113   4.4550998  12.6520156  )
        37           Ti1 tau(  37) = (   0.0082621   5.9437129  12.5015890  )
        38           Ti1 tau(  38) = (   3.2989848   4.4491302  12.5337562  )
        39           O1  tau(  39) = (   6.5545586   3.0159292  14.9830317  )
        40           O1  tau(  40) = (   3.2960925   2.9977268  13.9872472  )
        41           O1  tau(  41) = (   4.5245867   4.4695491  16.2648171  )
        42           O1  tau(  42) = (   2.0004542   4.4779941  16.2115700  )
        43           Ti1 tau(  43) = (   3.2998562   0.0139781  15.8031611  )
        44           Ti1 tau(  44) = (   0.0298651   4.5190837  16.0363964  )
        45           O1  tau(  45) = (   3.2900926   2.9813045   4.7018136  )
        46           O1  tau(  46) = (   1.3039711   4.4726057   6.0039043  )
        47           O1  tau(  47) = (   5.2763189   4.4711207   6.0039473  )
        48           N1  tau(  48) = (   0.7490466   2.5008218  18.8353846  )
        49           N1  tau(  49) = (   6.4369825   3.4131575  18.1751453  )
        50           C1  tau(  50) = (   1.9829018   2.9174465  19.1941100  )
        51           H1  tau(  51) = (   2.1359794   3.9544348  19.4490303  )
        52           H1  tau(  52) = (   2.6935556   2.1521737  19.4548401  )
        53           H1  tau(  53) = (   0.6355624   1.5375814  18.4636284  )
        54           H1  tau(  54) = (   6.4936903   4.3158724  18.6511896  )
        55           H1  tau(  55) = (   5.4890587   3.0624770  18.3097170  )

     number of k points=    10  Fermi-Dirac smearing, width (Ry)=  0.0073
                       cart. coord. in units 2pi/alat
        k(    1) = (   0.0000000   0.0000000   0.0000000), wk =   0.1250000
        k(    2) = (   0.0000000   0.0419351   0.0000000), wk =   0.2500000
        k(    3) = (   0.0000000  -0.0838702   0.0000000), wk =   0.1250000
        k(    4) = (   0.0379955   0.0000049   0.0000000), wk =   0.2500000
        k(    5) = (   0.0379955   0.0419400   0.0000000), wk =   0.2500000
        k(    6) = (   0.0379955  -0.0838652   0.0000000), wk =   0.2500000
        k(    7) = (   0.0379955  -0.0419301   0.0000000), wk =   0.2500000
        k(    8) = (  -0.0759910  -0.0000099   0.0000000), wk =   0.1250000
        k(    9) = (  -0.0759910   0.0419252   0.0000000), wk =   0.2500000
        k(   10) = (  -0.0759910  -0.0838800   0.0000000), wk =   0.1250000

     Initial potential from superposition of free atoms

     starting charge  380.99914, renormalised to  397.00000

     negative rho (up, down):  1.606E-02 0.000E+00

     %%%%%%%%%%%%%%%%%%%%%%%%%%%%%%%%%%%%%%%%%%%%%%%%%%%%%%%%%%%%%%%%%%%%%%%%
     %                                                                      %
     % You are using vdW-DF, which was implemented by the Thonhauser group. %
     % Please cite the following two papers that made this development      %
     % possible and the two reviews that describe the various versions:     %
     %                                                                      %
     %   T. Thonhauser et al., PRL 115, 136402 (2015).                      %
     %   T. Thonhauser et al., PRB 76, 125112 (2007).                       %
     %   K. Berland et al., Rep. Prog. Phys. 78, 066501 (2015).             %
     %   D.C. Langreth et al., J. Phys.: Condens. Matter 21, 084203 (2009). %
     %                                                                      %
     %                                                                      %
     % If you are calculating the stress with vdW-DF, please also cite:     %
     %                                                                      %
     %   R. Sabatini et al., J. Phys.: Condens. Matter 24, 424209 (2012).   %
     %                                                                      %
     %%%%%%%%%%%%%%%%%%%%%%%%%%%%%%%%%%%%%%%%%%%%%%%%%%%%%%%%%%%%%%%%%%%%%%%%

     Adding external electric field

     Computed dipole along edir(3) :
        Dipole              -10.6770 Ry au,        -27.1381 Debye
        Dipole field         -0.0201 Ry au,

        Potential amp.        1.8678 Ry
        Total length         46.3494 bohr

     Starting wfcs are  301 atomic wfcs
  @ DRIVER MODE: Message from server: STATUS
  @ DRIVER MODE: Message from server: POSDATA
  @ DRIVER MODE: Reading and sharing cell
  @ DRIVER MODE: Reading and sharing positions
  @ DRIVER MODE: Received positions

     Self-consistent Calculation

     iteration #  1     ecut=    29.40 Ry     beta= 0.05
     Davidson diagonalization with overlap
     c_bands:  2 eigenvalues not converged
     c_bands:  3 eigenvalues not converged
     c_bands:  1 eigenvalues not converged
     c_bands:  4 eigenvalues not converged
     c_bands:  4 eigenvalues not converged
     c_bands:  4 eigenvalues not converged
     c_bands:  1 eigenvalues not converged
     c_bands:  2 eigenvalues not converged
     c_bands:  2 eigenvalues not converged
     ethr =  1.00E-05,  avg # of iterations = 20.0

[...]

     total energy              =   -2465.32667952 Ry
     estimated scf accuracy    <    5331.50267747 Ry

     iteration #  2     ecut=    29.40 Ry     beta= 0.05
     Davidson diagonalization with overlap
     ethr =  1.00E-02,  avg # of iterations = 23.1

[...]

     iteration # 86     ecut=    29.40 Ry     beta= 0.05
     Davidson diagonalization with overlap
     ethr =  5.56E-11,  avg # of iterations =  2.0

[...]

     total energy              =   -2941.51048210 Ry
     estimated scf accuracy    <       0.00000020 Ry

     iteration # 87     ecut=    29.40 Ry     beta= 0.05
     Davidson diagonalization with overlap
     c_bands:  1 eigenvalues not converged
     c_bands:  1 eigenvalues not converged
     ethr =  5.10E-11,  avg # of iterations = 14.7

     negative rho (up, down):  1.514E-02 0.000E+00

     Adding external electric field

     Computed dipole along edir(3) :
        Dipole                1.2073 Ry au,          3.0687 Debye
        Dipole field          0.0023 Ry au,

        Potential amp.       -0.2112 Ry
        Total length         46.3494 bohr

     End of self-consistent calculation

          k = 0.0000 0.0000 0.0000 ( 18029 PWs)   bands (ev):

   -55.3810 -55.3441 -55.3354 -55.3012 -55.2625 -55.2566 -55.2279 -55.2095
   -55.1854 -55.1830 -55.1752 -55.1657 -55.1320 -55.0321 -54.3684 -54.3343
   -31.9438 -31.8286 -31.7769 -31.7499 -31.6986 -31.6884 -31.6826 -31.6722
   -31.6240 -31.6156 -31.5931 -31.5800 -31.5708 -31.5466 -31.5400 -31.5332
   -31.5208 -31.5047 -31.5033 -31.4881 -31.4871 -31.4508 -31.4500 -31.4399
   -31.4398 -31.4119 -31.3929 -31.3926 -31.3925 -31.3874 -31.3717 -31.3645
   -31.3635 -31.3575 -31.3573 -31.3549 -31.3228 -31.2987 -31.2935 -31.2771
   -31.2470 -31.2023 -30.7780 -30.6834 -30.6613 -30.5943 -30.5075 -30.3966
   -18.8847 -16.2134 -15.9600 -15.8131 -15.7055 -15.5875 -15.4791 -15.4241
   -15.3179 -15.2464 -15.1343 -15.0833 -15.0673 -15.0352 -15.0258 -15.0138
   -14.9338 -14.9273 -14.9097 -14.8866 -14.8808 -14.8389 -14.8272 -14.7864
   -14.7613 -14.7559 -14.6341 -14.5480 -14.4733 -14.3181 -14.3139 -12.8711
   -12.7535  -9.8302  -7.4574  -6.2602  -4.9806  -4.0172  -3.5938  -3.5457
    -3.4067  -3.2987  -3.2778  -3.2416  -3.1413  -2.9608  -2.8241  -2.7913
    -2.6745  -2.5939  -2.5806  -2.5500  -2.4252  -2.3880  -2.3498  -2.2848
    -2.2551  -2.1923  -2.1736  -2.1623  -2.1434  -2.1195  -2.0944  -1.9951
    -1.9546  -1.8589  -1.8194  -1.7855  -1.7444  -1.7273  -1.7074  -1.6763
    -1.6661  -1.6120  -1.5989  -1.5842  -1.5355  -1.4176  -1.2968  -1.2632
    -1.1753  -1.0265  -0.9896  -0.9691  -0.9135  -0.8768  -0.8550  -0.8253
    -0.7634  -0.7243  -0.6670  -0.6079  -0.5412  -0.4957  -0.4483  -0.4118
    -0.3766  -0.2922  -0.2115  -0.1663  -0.1532  -0.1367  -0.0369  -0.0005
     0.0534   0.1308   0.1325   0.1447   0.1860   0.2697   0.3471   0.3635
     0.3877   0.4930   0.4975   0.5406   0.5432   0.5632   0.5975   0.6311
     0.6823   0.7095   0.7965   0.8931   1.1171   1.2189   1.2237   1.5471
     1.5581   1.6543   1.8373   2.2309   2.2793   3.7109   3.7814   3.8031
     3.8588   3.8618   3.9314   3.9482   4.1938   4.2194   4.2198   4.2389

[...]

          k = 0.0380-0.0419 0.0000 ( 17876 PWs)   bands (ev):

[...]

          k =-0.0760-0.0000 0.0000 ( 17886 PWs)   bands (ev):

[...]

          k =-0.0760-0.0839 0.0000 ( 17948 PWs)   bands (ev):

   -55.3669 -55.3579 -55.3184 -55.3180 -55.2522 -55.2473 -55.2430 -55.1938
   -55.1905 -55.1885 -55.1818 -55.1494 -55.1484 -55.0343 -54.3514 -54.3512
   -31.7530 -31.7439 -31.6856 -31.6607 -31.6438 -31.6436 -31.6255 -31.6093
   -31.6092 -31.5925 -31.5846 -31.5764 -31.5611 -31.5290 -31.5267 -31.5224
   -31.5219 -31.5207 -31.5093 -31.5051 -31.4760 -31.4636 -31.4596 -31.4500
   -31.4446 -31.4405 -31.4383 -31.4378 -31.4348 -31.4263 -31.4235 -31.4064
   -31.4058 -31.4029 -31.3835 -31.3820 -31.3817 -31.3719 -31.3299 -31.3288
   -31.2966 -31.2488 -30.6741 -30.6739 -30.5905 -30.5903 -30.5509 -30.5508
   -18.8785 -15.7657 -15.5960 -15.5770 -15.4325 -15.3963 -15.3536 -15.3426
   -15.2489 -15.2141 -15.1876 -15.1565 -15.1356 -15.0999 -15.0862 -15.0699
   -15.0122 -14.9898 -14.9842 -14.9643 -14.9050 -14.9007 -14.8930 -14.8901
   -14.8354 -14.8322 -14.8249 -14.7416 -14.7387 -14.6315 -14.2409 -12.8550
   -12.8550  -9.7994  -7.4174  -6.2579  -5.0784  -3.9596  -3.6194  -2.8534
    -2.8473  -2.8338  -2.6486  -2.5658  -2.5431  -2.5378  -2.4479  -2.4102
    -2.3655  -2.3626  -2.3099  -2.3033  -2.2759  -2.2352  -2.2237  -2.2037
    -2.1850  -2.1764  -2.1409  -2.1171  -2.1072  -2.0777  -2.0467  -2.0313
    -2.0227  -2.0011  -1.9705  -1.9509  -1.9390  -1.8858  -1.7738  -1.7584
    -1.6637  -1.5962  -1.5919  -1.5187  -1.4946  -1.4529  -1.4448  -1.4199
    -1.3751  -1.1968  -1.1649  -1.1332  -1.1256  -1.0405  -0.9876  -0.9165
    -0.9110  -0.8848  -0.8508  -0.7567  -0.7202  -0.7007  -0.6256  -0.6016
    -0.5354  -0.4934  -0.4276  -0.3970  -0.3427  -0.3407  -0.3059  -0.2921
    -0.2713  -0.2032  -0.1568  -0.1225  -0.1101  -0.0785   0.1181   0.1278
     0.1424   0.2496   0.2973   0.4441   0.4590   0.5216   0.6279   0.6539
     0.7243   0.7492   0.9047   0.9176   0.9296   0.9860   0.9940   1.0640
     1.0734   2.0104   2.0109   2.0991   2.0994   3.6799   3.8976   3.9688
     3.9841   4.0169   4.1408   4.2102   4.2285   4.2968   4.2995   4.3293

     the Fermi energy is     3.7769 ev

!    total energy              =   -2941.51048568 Ry
     estimated scf accuracy    <       0.00000004 Ry
     smearing contrib. (-TS)   =      -0.04443161 Ry
     internal energy E=F+TS    =   -2941.46605407 Ry

     The total energy is F=E-TS. E is the sum of the following terms:
     one-electron contribution =  -23633.66614130 Ry
     hartree contribution      =   11909.13594059 Ry
     xc contribution           =    -486.87956726 Ry
     ewald contribution        =    9269.94096314 Ry
     electric field correction =       0.00275077 Ry

     convergence has been achieved in  87 iterations

     Forces acting on atoms (cartesian axes, Ry/au):

     atom    1 type  1   force =     0.00012647   -0.00019033    0.09303606
     atom    2 type  1   force =    -0.00008356   -0.00045530   -0.17842559
     atom    3 type  2   force =     0.00004563   -0.00037850   -0.02007373
     atom    4 type  2   force =    -0.00000895   -0.00201692    0.05932631
     atom    5 type  2   force =    -0.01031289   -0.00098713    0.00818489
     atom    6 type  2   force =     0.01174295   -0.00038811    0.00732632
     atom    7 type  1   force =    -0.00037991    0.00239204   -0.01419536
     atom    8 type  1   force =     0.00023135   -0.00123647   -0.00618144
     atom    9 type  2   force =    -0.00023224    0.00021724    0.00014047
     atom   10 type  2   force =    -0.00162434    0.00147813    0.00165284
     atom   11 type  2   force =    -0.00006584   -0.00015994    0.00011290
     atom   12 type  2   force =    -0.00016082   -0.00016007    0.00000385
     atom   13 type  1   force =     0.00007269   -0.00027468    0.00003127
     atom   14 type  1   force =     0.00017702    0.00019622    0.00026993
     atom   15 type  2   force =    -0.00006674    0.00029860   -0.00022989
     atom   16 type  2   force =     0.00017538   -0.00021591    0.00016678
     atom   17 type  2   force =     0.00005465   -0.00002094    0.00047467
     atom   18 type  2   force =    -0.00027864   -0.00006809   -0.00014018
     atom   19 type  1   force =    -0.00011557   -0.00008239    0.00013376
     atom   20 type  1   force =    -0.00013347    0.00036390   -0.00026810
     atom   21 type  2   force =     0.00005946   -0.00008434    0.10396512
     atom   22 type  2   force =     0.00025453   -0.00006539    0.00045703
     atom   23 type  2   force =    -0.07032095   -0.00017706   -0.02687393
     atom   24 type  2   force =     0.07020714    0.00027003   -0.02689984
     atom   25 type  1   force =    -0.00002146   -0.00014024    0.09260559
     atom   26 type  1   force =    -0.00006331   -0.00039274   -0.17857555
     atom   27 type  2   force =     0.00009457   -0.00029669   -0.01916086
     atom   28 type  2   force =     0.00003979   -0.00178701    0.05867046
     atom   29 type  2   force =    -0.01080418   -0.00126457    0.00873117
     atom   30 type  2   force =     0.01215727   -0.00086493    0.00783356
     atom   31 type  1   force =    -0.00028446    0.00613475   -0.01443052
     atom   32 type  1   force =     0.00028769    0.00070741   -0.00650031
     atom   33 type  2   force =    -0.00022611   -0.00025179    0.00000302
     atom   34 type  2   force =    -0.00093533   -0.00222402   -0.00014753
     atom   35 type  2   force =    -0.00041868    0.00023072    0.00015937
     atom   36 type  2   force =     0.00012891    0.00019133   -0.00026114
     atom   37 type  1   force =     0.00017769   -0.00001401    0.00001884
     atom   38 type  1   force =     0.00032324    0.00018950    0.00007715
     atom   39 type  2   force =    -0.00025597    0.00002383   -0.00016610
     atom   40 type  2   force =    -0.00009358   -0.00015700   -0.00004670
     atom   41 type  2   force =    -0.00002078    0.00033033    0.00004575
     atom   42 type  2   force =    -0.00024674    0.00010443    0.00008975
     atom   43 type  1   force =     0.00043959   -0.00002257    0.00011732
     atom   44 type  1   force =     0.00007089   -0.00035148   -0.00035282
     atom   45 type  2   force =     0.00004523   -0.00008873    0.10395122
     atom   46 type  2   force =    -0.07030075   -0.00010294   -0.02682975
     atom   47 type  2   force =     0.07017678    0.00031428   -0.02686586
     atom   48 type  3   force =     0.00067407   -0.01152352   -0.00337744
     atom   49 type  3   force =     0.00066072   -0.00073955   -0.00042779
     atom   50 type  4   force =    -0.00141817    0.00008939   -0.00128666
     atom   51 type  5   force =     0.00052338   -0.00084756    0.00003215
     atom   52 type  5   force =     0.00034309    0.00045791    0.00020452
     atom   53 type  5   force =     0.00017629    0.01323284    0.00359820
     atom   54 type  5   force =    -0.00003665    0.00115361    0.00039292
     atom   55 type  5   force =    -0.00055641   -0.00034561   -0.00009612

     Total force =     0.366883     Total SCF correction =     0.000805
  @ DRIVER MODE: Message from server: STATUS
  @ DRIVER MODE: Message from server: GETFORCE
  @ DRIVER MODE: Returning v,forces,stress,ensemble

     Writing output data file ./calc.save/
  @ DRIVER MODE: Message from server: EXIT
  @ DRIVE MODE: Exiting

     General routines

     Parallel routines

   This run was terminated on:   6:16:50  11Sep2021

   JOB DONE.