     Program PWSCF v.6.7GPU starts on 24Sep2021 at  7:15:30

     R & G space division:  proc/nbgrp/npool/nimage =       8
     Reading input from /storage/home/hcoda1/3/ntian30/research/carbon/CxH_vib/H2O_calc/ads_slab/CH3NHHHO_a/out_0050/pw.inp
Warning: card &CELL ignored
Warning: card   CELL_DYNAMICS='IPI', ignored
Warning: card / ignored

     Current dimensions of program PWSCF are:
     Max number of different atomic species (ntypx) = 10
     Max number of k-points (npk) =  40000
     Max angular momentum in pseudopotentials (lmaxx) =  3
     Presently no symmetry can be used with electric field

     Message from routine cell_base_init:
     DEPRECATED: use true lattice parameter, not A to a.u. conversion factor

     IMPORTANT: XC functional enforced from input :
     Exchange-correlation= BEEF-VDW
                           (   1   4  43  14   2   0   0)
     Any further DFT definition will be discarded
     Please, verify this is what you really want

  @ DRIVER MODE: Connecting to
 qe_1139763_2947311.sched-torque.pace.gatech.eduw4i3yza6_scratch
  using UNIX socket
  @ DRIVER MODE: Message from server: STATUS
  @ DRIVER MODE: Message from server: INIT
  @ DRIVER MODE: Receiving replica           0          -1
  @ DRIVER MODE: Receiving encoded integer          25
  @ DRIVER MODE:  SCF:  T  FORCE:  T  STRESS:  F  VC:  F  ENSEMBLE:  F
  @ DRIVER MODE:  SCF:  T  FORCE:  T  STRESS:  F  VC:  F  ENSEMBLE:  F

     Using Slab Decomposition

     bravais-lattice index     =            0
     lattice parameter (alat)  =       1.8897  a.u.
     unit-cell volume          =    6658.9804 (a.u.)^3
     number of atoms/cell      =           56
     number of atomic types    =            5
     number of electrons       =       399.00
     number of Kohn-Sham states=          209
     kinetic-energy cutoff     =      29.3995  Ry
     charge density cutoff     =     293.9946  Ry
     scf convergence threshold =      7.3E-08
     mixing beta               =       0.0500
     number of iterations used =            8  plain     mixing
     Exchange-correlation= BEEF-VDW
                           (   1   4  43  14   2   0   0)

     celldm(1)=   1.889726  celldm(2)=   0.000000  celldm(3)=   0.000000
     celldm(4)=   0.000000  celldm(5)=   0.000000  celldm(6)=   0.000000

     crystal axes: (cart. coord. in units of alat)
               a(1) = (   6.579727   0.000000   0.000000 )
               a(2) = (  -0.000775   5.961596   0.000000 )
               a(3) = (   0.000000   0.000000  25.155947 )

     reciprocal axes: (cart. coord. in units 2 pi/alat)
               b(1) = (  0.151982  0.000020  0.000000 )
               b(2) = (  0.000000  0.167740  0.000000 )
               b(3) = (  0.000000  0.000000  0.039752 )

     PseudoPot. # 1 for Ti read from file:
     /storage/coda1/p-amedford6/0/shared/rich_project_chbe-medford/medford-share/data/pseudos_module/espresso/nninc/pbe/van/Ti.UPF
     MD5 check sum: 8e4df49b7f0d34bbd5052bf3f5ea0213
     Pseudo is Ultrasoft, Zval = 12.0
     Generated by new atomic code, or converted to UPF format
     Using radial grid of  851 points,  6 beta functions with:
                l(1) =   0
                l(2) =   0
                l(3) =   1
                l(4) =   1
                l(5) =   2
                l(6) =   2
     Q(r) pseudized with  8 coefficients,  rinner =    1.000   1.000   1.000
                                                       1.000   1.000

     PseudoPot. # 2 for O  read from file:
     /storage/coda1/p-amedford6/0/shared/rich_project_chbe-medford/medford-share/data/pseudos_module/espresso/nninc/pbe/van/O.UPF
     MD5 check sum: 78c19812648e8988a0fe644b0f25305e
     Pseudo is Ultrasoft, Zval =  6.0
     Generated by new atomic code, or converted to UPF format
     Using radial grid of  737 points,  4 beta functions with:
                l(1) =   0
                l(2) =   0
                l(3) =   1
                l(4) =   1
     Q(r) pseudized with  8 coefficients,  rinner =    0.800   0.800   0.800

     PseudoPot. # 3 for N  read from file:
     /storage/coda1/p-amedford6/0/shared/rich_project_chbe-medford/medford-share/data/pseudos_module/espresso/nninc/pbe/van/N.UPF
     MD5 check sum: 90d10febe142ad51ac9d5be1deb811c4
     Pseudo is Ultrasoft, Zval =  5.0
     Generated by new atomic code, or converted to UPF format
     Using radial grid of  729 points,  4 beta functions with:
                l(1) =   0
                l(2) =   0
                l(3) =   1
                l(4) =   1
     Q(r) pseudized with  8 coefficients,  rinner =    0.800   0.800   0.800

     PseudoPot. # 4 for C  read from file:
     /storage/coda1/p-amedford6/0/shared/rich_project_chbe-medford/medford-share/data/pseudos_module/espresso/nninc/pbe/van/C.UPF
     MD5 check sum: 1a69bf6b8db32088f5b2163dbdb77a27
     Pseudo is Ultrasoft, Zval =  4.0
     Generated by new atomic code, or converted to UPF format
     Using radial grid of  721 points,  4 beta functions with:
                l(1) =   0
                l(2) =   0
                l(3) =   1
                l(4) =   1
     Q(r) pseudized with  8 coefficients,  rinner =    0.800   0.800   0.800

     PseudoPot. # 5 for H  read from file:
     /storage/coda1/p-amedford6/0/shared/rich_project_chbe-medford/medford-share/data/pseudos_module/espresso/nninc/pbe/van/H.UPF
     MD5 check sum: b5ee9d7bfd3a09ee7748110bda690ff7
     Pseudo is Ultrasoft, Zval =  1.0
     Generated by new atomic code, or converted to UPF format
     Using radial grid of  615 points,  1 beta functions with:
                l(1) =   0
     Q(r) pseudized with  8 coefficients,  rinner =    0.800

     atomic species   valence    mass     pseudopotential
        Ti1           12.00    47.86700     Ti( 1.00)
        O1             6.00    15.99900     O ( 1.00)
        N1             5.00    14.00700     N ( 1.00)
        C1             4.00    12.01100     C ( 1.00)
        H1             1.00     1.00800     H ( 1.00)

     No symmetry found

   Cartesian axes

     site n.     atom                  positions (alat units)
         1           Ti1 tau(   1) = (   0.0004258   2.9801865   6.0000000  )
         2           Ti1 tau(   2) = (   3.2906075   1.4906267   6.0002472  )
         3           O1  tau(   3) = (   0.0006271   0.0005054   7.9858123  )
         4           O1  tau(   4) = (   3.2906025   0.0005020   7.3038282  )
         5           O1  tau(   5) = (   4.5942328   1.4918067   9.2879030  )
         6           O1  tau(   6) = (   1.9868534   1.4903216   9.2879459  )
         7           Ti1 tau(   7) = (   3.2907910   2.8959150   9.1758416  )
         8           Ti1 tau(   8) = (   0.0015273   1.4827037   9.2680791  )
         9           O1  tau(   9) = (   3.2949530   5.9481847  11.3666340  )
        10           O1  tau(  10) = (   0.0116148   5.9584955  10.6183126  )
        11           O1  tau(  11) = (   1.2732546   1.4916747  12.6876809  )
        12           O1  tau(  12) = (   5.3119445   1.4892451  12.6851550  )
        13           Ti1 tau(  13) = (   6.5688325   2.9465269  12.5174317  )
        14           Ti1 tau(  14) = (   3.2996026   1.2975375  12.7241829  )
        15           O1  tau(  15) = (   0.0172205   5.8793003  14.6619373  )
        16           O1  tau(  16) = (   3.2917661   0.0702926  14.0149596  )
        17           O1  tau(  17) = (   4.5643074   1.5920826  16.1346482  )
        18           O1  tau(  18) = (   2.0131957   1.5841813  16.0575481  )
        19           Ti1 tau(  19) = (   3.2662748   3.0407108  15.6947786  )
        20           Ti1 tau(  20) = (   0.0618610   1.3206105  15.7998127  )
        21           O1  tau(  21) = (   3.2904802   0.0005063   4.7018136  )
        22           O1  tau(  22) = (   0.0233933   0.1570098  17.1842078  )
        23           O1  tau(  23) = (   1.3043587   1.4918075   6.0039043  )
        24           O1  tau(  24) = (   5.2767064   1.4903225   6.0039473  )
        25           Ti1 tau(  25) = (   0.0000382   5.9609847   6.0000000  )
        26           Ti1 tau(  26) = (   3.2902200   4.4714249   6.0002472  )
        27           O1  tau(  27) = (   0.0002396   2.9813036   7.9858123  )
        28           O1  tau(  28) = (   3.2902150   2.9813002   7.3038282  )
        29           O1  tau(  29) = (   4.5938453   4.4726049   9.2879030  )
        30           O1  tau(  30) = (   1.9864658   4.4711199   9.2879459  )
        31           Ti1 tau(  31) = (   3.2891106   5.8743827   9.1763621  )
        32           Ti1 tau(  32) = (   0.0006254   4.4649316   9.2693709  )
        33           O1  tau(  33) = (   3.2948289   2.9949798  11.3176834  )
        34           O1  tau(  34) = (   0.0092240   2.9805883  10.6323155  )
        35           O1  tau(  35) = (   1.2828652   4.4571597  12.6432593  )
        36           O1  tau(  36) = (   5.3079144   4.4605214  12.6419564  )
        37           Ti1 tau(  37) = (   0.0266940   5.9154698  12.5044250  )
        38           Ti1 tau(  38) = (   3.3008436   4.3760658  12.4353554  )
        39           O1  tau(  39) = (   6.5507285   3.0461080  14.9005035  )
        40           O1  tau(  40) = (   3.2938476   3.0131494  13.9233183  )
        41           O1  tau(  41) = (   4.5350990   4.4864192  16.1518712  )
        42           O1  tau(  42) = (   1.9883536   4.4285065  16.1690201  )
        43           Ti1 tau(  43) = (   3.3916644   0.0784854  16.2809578  )
        44           Ti1 tau(  44) = (   0.0590441   4.5159846  16.0209683  )
        45           O1  tau(  45) = (   3.2900926   2.9813045   4.7018136  )
        46           O1  tau(  46) = (   1.3039711   4.4726057   6.0039043  )
        47           O1  tau(  47) = (   5.2763189   4.4711207   6.0039473  )
        48           N1  tau(  48) = (   6.2706434   3.3837210  18.0754458  )
        49           C1  tau(  49) = (   0.7642246   3.1223808  19.0622891  )
        50           H1  tau(  50) = (   1.3158356   4.0410886  19.2409436  )
        51           H1  tau(  51) = (   0.3597117   2.7583523  20.0089400  )
        52           H1  tau(  52) = (   1.4517744   2.3810259  18.6668870  )
        53           H1  tau(  53) = (   5.6745199   4.1349376  18.4206214  )
        54           H1  tau(  54) = (   5.6587021   2.5696541  18.0151127  )
        55           O1  tau(  55) = (   3.1972372   0.0910451  18.1323504  )
        56           H1  tau(  56) = (   2.2867176   0.1080423  18.4377142  )

     number of k points=    10  Fermi-Dirac smearing, width (Ry)=  0.0073
                       cart. coord. in units 2pi/alat
        k(    1) = (   0.0000000   0.0000000   0.0000000), wk =   0.1250000
        k(    2) = (   0.0000000   0.0419351   0.0000000), wk =   0.2500000
        k(    3) = (   0.0000000  -0.0838702   0.0000000), wk =   0.1250000
        k(    4) = (   0.0379955   0.0000049   0.0000000), wk =   0.2500000
        k(    5) = (   0.0379955   0.0419400   0.0000000), wk =   0.2500000
        k(    6) = (   0.0379955  -0.0838652   0.0000000), wk =   0.2500000
        k(    7) = (   0.0379955  -0.0419301   0.0000000), wk =   0.2500000
        k(    8) = (  -0.0759910  -0.0000099   0.0000000), wk =   0.1250000
        k(    9) = (  -0.0759910   0.0419252   0.0000000), wk =   0.2500000
        k(   10) = (  -0.0759910  -0.0838800   0.0000000), wk =   0.1250000

     Initial potential from superposition of free atoms

     starting charge  382.99914, renormalised to  399.00000

     negative rho (up, down):  1.588E-02 0.000E+00

     %%%%%%%%%%%%%%%%%%%%%%%%%%%%%%%%%%%%%%%%%%%%%%%%%%%%%%%%%%%%%%%%%%%%%%%%
     %                                                                      %
     % You are using vdW-DF, which was implemented by the Thonhauser group. %
     % Please cite the following two papers that made this development      %
     % possible and the two reviews that describe the various versions:     %
     %                                                                      %
     %   T. Thonhauser et al., PRL 115, 136402 (2015).                      %
     %   T. Thonhauser et al., PRB 76, 125112 (2007).                       %
     %   K. Berland et al., Rep. Prog. Phys. 78, 066501 (2015).             %
     %   D.C. Langreth et al., J. Phys.: Condens. Matter 21, 084203 (2009). %
     %                                                                      %
     %                                                                      %
     % If you are calculating the stress with vdW-DF, please also cite:     %
     %                                                                      %
     %   R. Sabatini et al., J. Phys.: Condens. Matter 24, 424209 (2012).   %
     %                                                                      %
     %%%%%%%%%%%%%%%%%%%%%%%%%%%%%%%%%%%%%%%%%%%%%%%%%%%%%%%%%%%%%%%%%%%%%%%%

     Adding external electric field

     Computed dipole along edir(3) :
        Dipole              -10.6962 Ry au,        -27.1870 Debye
        Dipole field         -0.0202 Ry au,

        Potential amp.        1.8711 Ry
        Total length         46.3494 bohr

     Starting wfcs are  302 atomic wfcs
  @ DRIVER MODE: Message from server: STATUS
  @ DRIVER MODE: Message from server: POSDATA
  @ DRIVER MODE: Reading and sharing cell
  @ DRIVER MODE: Reading and sharing positions
  @ DRIVER MODE: Received positions

     Self-consistent Calculation

     iteration #  1     ecut=    29.40 Ry     beta= 0.05
     Davidson diagonalization with overlap
     c_bands:  3 eigenvalues not converged
     c_bands:  2 eigenvalues not converged
     c_bands:  2 eigenvalues not converged
     c_bands:  5 eigenvalues not converged
     c_bands:  2 eigenvalues not converged
     c_bands:  5 eigenvalues not converged
     c_bands:  4 eigenvalues not converged
     c_bands:  3 eigenvalues not converged
     ethr =  1.00E-05,  avg # of iterations = 21.6

[...]

     total energy              =   -2438.23653009 Ry
     estimated scf accuracy    <    5770.38081331 Ry

     iteration #  2     ecut=    29.40 Ry     beta= 0.05
     Davidson diagonalization with overlap
     ethr =  1.00E-02,  avg # of iterations = 22.6

[...]

     iteration # 67     ecut=    29.40 Ry     beta= 0.05
     Davidson diagonalization with overlap
     c_bands:  1 eigenvalues not converged
     ethr =  7.08E-11,  avg # of iterations = 14.2

[...]

     total energy              =   -2955.26274759 Ry
     estimated scf accuracy    <       0.00000012 Ry

     iteration # 71     ecut=    29.40 Ry     beta= 0.05
     Davidson diagonalization with overlap
     ethr =  2.59E-11,  avg # of iterations =  9.1

     negative rho (up, down):  1.647E-02 0.000E+00

     Adding external electric field

     Computed dipole along edir(3) :
        Dipole                0.9744 Ry au,          2.4767 Debye
        Dipole field          0.0018 Ry au,

        Potential amp.       -0.1705 Ry
        Total length         46.3494 bohr

     End of self-consistent calculation

          k = 0.0000 0.0000 0.0000 ( 18029 PWs)   bands (ev):

   -55.6855 -55.6375 -55.6034 -55.5124 -55.5030 -55.4672 -55.4666 -55.4647
   -55.4325 -55.4192 -55.3685 -55.2736 -55.2265 -55.2134 -54.6134 -54.5793
   -32.1228 -32.0217 -32.0120 -31.9891 -31.9695 -31.9584 -31.9283 -31.9024
   -31.8967 -31.8837 -31.8834 -31.7908 -31.7902 -31.7750 -31.7499 -31.7459
   -31.7447 -31.7435 -31.7423 -31.7066 -31.6951 -31.6656 -31.6631 -31.6567
   -31.6509 -31.6451 -31.6371 -31.6067 -31.6039 -31.5989 -31.5937 -31.5905
   -31.5795 -31.5644 -31.5500 -31.5246 -31.4650 -31.4563 -31.4456 -31.4221
   -31.4201 -31.4153 -31.0195 -30.9329 -30.9104 -30.8369 -30.7505 -30.6388
   -16.5661 -16.2998 -16.1529 -15.9795 -15.8400 -15.8106 -15.7700 -15.5996
   -15.5069 -15.4432 -15.2422 -15.2216 -15.1760 -15.1647 -15.1595 -15.1367
   -15.1270 -15.0820 -15.0635 -15.0600 -15.0502 -15.0326 -14.9962 -14.9539
   -14.9106 -14.8898 -14.7771 -14.7208 -14.6802 -14.4694 -14.3988 -13.1118
   -12.9954  -9.9866  -6.0172  -4.5870  -4.0889  -3.7674  -3.6453  -3.5475
    -3.5363  -3.4162  -3.4071  -3.1667  -3.0429  -2.9835  -2.9056  -2.7833
    -2.7514  -2.6787  -2.6387  -2.5884  -2.5695  -2.5327  -2.4926  -2.4491
    -2.4239  -2.3964  -2.3627  -2.3068  -2.2953  -2.1966  -2.1826  -2.1596
    -2.0541  -2.0130  -1.9731  -1.9550  -1.9499  -1.9309  -1.8922  -1.8860
    -1.8665  -1.7882  -1.7192  -1.6731  -1.6380  -1.6101  -1.3327  -1.2472
    -1.2035  -1.1890  -1.0851  -1.0613  -1.0330  -1.0194  -0.9820  -0.9665
    -0.8542  -0.8381  -0.7692  -0.7194  -0.7049  -0.6675  -0.5486  -0.5117
    -0.4616  -0.4209  -0.3708  -0.3533  -0.3485  -0.2539  -0.2273  -0.1920
    -0.0841  -0.0677  -0.0046   0.0806   0.0900   0.1417   0.1650   0.2254
     0.2300   0.2844   0.3141   0.3365   0.3894   0.4222   0.4587   0.4915
     0.5085   0.6108   0.6862   0.6990   0.7938   0.8715   0.9246   1.0280
     1.0960   1.3596   1.4133   1.4371   1.6052   1.9805   2.0260   3.4442
     3.5932   3.6087   3.6830   3.6958   3.7729   3.9337   3.9589   4.0936
     4.1328

[...]

          k = 0.0380-0.0419 0.0000 ( 17876 PWs)   bands (ev):

[...]

          k =-0.0760-0.0000 0.0000 ( 17886 PWs)   bands (ev):

[...]

          k =-0.0760-0.0839 0.0000 ( 17948 PWs)   bands (ev):

   -55.6845 -55.6206 -55.6202 -55.5112 -55.4918 -55.4759 -55.4680 -55.4502
   -55.4485 -55.4128 -55.3749 -55.2689 -55.2275 -55.2181 -54.5968 -54.5958
   -31.9548 -31.9467 -31.9383 -31.9379 -31.9306 -31.9140 -31.9135 -31.8992
   -31.8534 -31.8119 -31.7939 -31.7810 -31.7768 -31.7754 -31.7537 -31.7435
   -31.7406 -31.7399 -31.7296 -31.7256 -31.7178 -31.7171 -31.7026 -31.6787
   -31.6726 -31.6678 -31.6586 -31.6482 -31.6325 -31.6321 -31.6300 -31.6244
   -31.6227 -31.5976 -31.5970 -31.5561 -31.5316 -31.4950 -31.4693 -31.4645
   -31.4480 -31.4193 -30.9235 -30.9228 -30.8330 -30.8317 -30.7941 -30.7933
   -16.5423 -15.9381 -15.8577 -15.7454 -15.6223 -15.6090 -15.4981 -15.4149
   -15.4114 -15.3811 -15.3502 -15.3226 -15.3128 -15.2960 -15.2489 -15.2054
   -15.1702 -15.1425 -15.1405 -15.0946 -15.0876 -15.0762 -15.0637 -15.0414
   -15.0076 -14.9578 -14.9434 -14.9042 -14.7668 -14.6881 -14.5917 -13.0975
   -13.0970  -9.9886  -5.9971  -4.5843  -4.0561  -3.7219  -3.0566  -2.9607
    -2.8488  -2.7245  -2.7167  -2.7011  -2.6431  -2.6122  -2.5862  -2.5448
    -2.4876  -2.4683  -2.4474  -2.4309  -2.4091  -2.3911  -2.3825  -2.3773
    -2.3408  -2.3231  -2.3147  -2.2736  -2.2660  -2.2498  -2.2294  -2.2120
    -2.1814  -2.1771  -2.1477  -2.0955  -2.0467  -1.9729  -1.8799  -1.7987
    -1.7876  -1.7692  -1.7195  -1.7129  -1.6674  -1.6595  -1.6350  -1.5485
    -1.4372  -1.3867  -1.2762  -1.2560  -1.2295  -1.1890  -1.1370  -1.1226
    -1.0772  -1.0470  -0.9879  -0.8857  -0.8560  -0.8014  -0.6874  -0.6495
    -0.6113  -0.5913  -0.5791  -0.5540  -0.5374  -0.4978  -0.4699  -0.4210
    -0.3819  -0.3479  -0.3211  -0.2957  -0.2493  -0.1467  -0.0523  -0.0156
     0.0858   0.1320   0.1739   0.2060   0.2684   0.4030   0.4303   0.5253
     0.5405   0.5696   0.6712   0.6814   0.7821   0.8072   0.8447   0.8857
     0.9104   0.9313   0.9512   1.7749   1.7834   1.8463   1.8464   3.7370
     3.9294   3.9446   3.9608   4.0056   4.0127   4.0399   4.0455   4.1121
     4.1229

     the Fermi energy is     3.4830 ev

!    total energy              =   -2955.26278065 Ry
     estimated scf accuracy    <       0.00000006 Ry
     smearing contrib. (-TS)   =      -0.01953104 Ry
     internal energy E=F+TS    =   -2955.24324961 Ry

     The total energy is F=E-TS. E is the sum of the following terms:
     one-electron contribution =  -23741.65885832 Ry
     hartree contribution      =   11962.93789742 Ry
     xc contribution           =    -489.74586028 Ry
     ewald contribution        =    9313.22177972 Ry
     electric field correction =       0.00179185 Ry

     convergence has been achieved in  71 iterations

     Forces acting on atoms (cartesian axes, Ry/au):

     atom    1 type  1   force =     0.00009080   -0.00028980    0.09416347
     atom    2 type  1   force =    -0.00004274    0.00043294   -0.17539403
     atom    3 type  2   force =     0.00003852   -0.00033430   -0.02110124
     atom    4 type  2   force =     0.00002322   -0.00197510    0.05461959
     atom    5 type  2   force =    -0.00673358   -0.00245089    0.00301447
     atom    6 type  2   force =     0.00833856   -0.00187465    0.00243500
     atom    7 type  1   force =    -0.00017827   -0.00404365    0.00896220
     atom    8 type  1   force =     0.00031567    0.00082453    0.00311435
     atom    9 type  2   force =    -0.00058223    0.00059536   -0.00018290
     atom   10 type  2   force =    -0.00139197    0.00173459   -0.00927919
     atom   11 type  2   force =     0.00006164   -0.00015725    0.00037484
     atom   12 type  2   force =    -0.00007828   -0.00011417   -0.00030989
     atom   13 type  1   force =    -0.00048481   -0.00024852    0.00007234
     atom   14 type  1   force =     0.00000973   -0.00031372   -0.00007569
     atom   15 type  2   force =    -0.00031077   -0.00004933   -0.00020649
     atom   16 type  2   force =     0.00032533   -0.00056793   -0.00031894
     atom   17 type  2   force =     0.00038299   -0.00017372   -0.00079918
     atom   18 type  2   force =    -0.00039276    0.00011211   -0.00009717
     atom   19 type  1   force =     0.00048860   -0.00062332    0.00071885
     atom   20 type  1   force =     0.00047658    0.00012755    0.00053855
     atom   21 type  2   force =     0.00007398    0.00005000    0.10323165
     atom   22 type  2   force =    -0.00054325    0.00040162   -0.00001463
     atom   23 type  2   force =    -0.07190372   -0.00018850   -0.02720392
     atom   24 type  2   force =     0.07183136    0.00025293   -0.02724928
     atom   25 type  1   force =     0.00002763   -0.00023706    0.09382911
     atom   26 type  1   force =    -0.00006351   -0.00132677   -0.17558122
     atom   27 type  2   force =     0.00015537   -0.00011337   -0.01986471
     atom   28 type  2   force =     0.00006940   -0.00032064    0.04989537
     atom   29 type  2   force =    -0.00612420    0.00231797    0.00251885
     atom   30 type  2   force =     0.00761574    0.00268263    0.00196888
     atom   31 type  1   force =     0.00002624    0.00840139   -0.00275956
     atom   32 type  1   force =     0.00011884   -0.00235739    0.00259222
     atom   33 type  2   force =     0.00005144   -0.00002964   -0.00005804
     atom   34 type  2   force =    -0.00211719   -0.00248623   -0.01005165
     atom   35 type  2   force =    -0.00012815   -0.00001810    0.00053035
     atom   36 type  2   force =    -0.00008802    0.00007303   -0.00007957
     atom   37 type  1   force =     0.00016054   -0.00008616   -0.00020739
     atom   38 type  1   force =     0.00005181   -0.00018675    0.00023943
     atom   39 type  2   force =    -0.00013386    0.00011046   -0.00032398
     atom   40 type  2   force =     0.00016969   -0.00025926   -0.00012400
     atom   41 type  2   force =    -0.00041625   -0.00070416    0.00061126
     atom   42 type  2   force =     0.00056626    0.00009455   -0.00016759
     atom   43 type  1   force =    -0.00061600   -0.00061346    0.00010232
     atom   44 type  1   force =     0.00040598    0.00056278   -0.00012465
     atom   45 type  2   force =     0.00006816   -0.00006921    0.10302467
     atom   46 type  2   force =    -0.07192020   -0.00004213   -0.02723714
     atom   47 type  2   force =     0.07188108    0.00039593   -0.02728575
     atom   48 type  3   force =    -0.00010080    0.00033151    0.00028968
     atom   49 type  4   force =     0.00064418    0.00038434    0.00050097
     atom   50 type  5   force =     0.00049752    0.00091498   -0.00018686
     atom   51 type  5   force =    -0.00007772    0.00070559    0.00013251
     atom   52 type  5   force =     0.00030513   -0.00024233   -0.00068350
     atom   53 type  5   force =    -0.00033912    0.00055582   -0.00069804
     atom   54 type  5   force =     0.00034211   -0.00001288    0.00001688
     atom   55 type  2   force =     0.01732177    0.00004139   -0.00571336
     atom   56 type  5   force =    -0.01816850    0.00040643    0.00588172

     Total force =     0.363125     Total SCF correction =     0.000598
  @ DRIVER MODE: Message from server: STATUS
  @ DRIVER MODE: Message from server: GETFORCE
  @ DRIVER MODE: Returning v,forces,stress,ensemble

     Writing output data file ./calc.save/
  @ DRIVER MODE: Message from server: EXIT
  @ DRIVE MODE: Exiting

     General routines

     Parallel routines

   This run was terminated on:   7:41: 1  24Sep2021

   JOB DONE.