     Program PWSCF v.6.7GPU starts on 24Aug2021 at 11:35:34

     R & G space division:  proc/nbgrp/npool/nimage =      72
     Reading input from /storage/home/hcoda1/3/ntian30/research/carbon/CH2_vib/ads_slab/CH2_a/out_0006/pw.inp
Warning: card &CELL ignored
Warning: card   CELL_DYNAMICS='IPI', ignored
Warning: card / ignored

     Current dimensions of program PWSCF are:
     Max number of different atomic species (ntypx) = 10
     Max number of k-points (npk) =  40000
     Max angular momentum in pseudopotentials (lmaxx) =  3
     Presently no symmetry can be used with electric field

     Message from routine cell_base_init:
     DEPRECATED: use true lattice parameter, not A to a.u. conversion factor

     IMPORTANT: XC functional enforced from input :
     Exchange-correlation= BEEF-VDW
                           (   1   4  43  14   2   0   0)
     Any further DFT definition will be discarded
     Please, verify this is what you really want

  @ DRIVER MODE: Connecting to
 qe_1139763_2641437.sched-torque.pace.gatech.edus2d6edkp_scratch
  using UNIX socket
  @ DRIVER MODE: Message from server: STATUS
  @ DRIVER MODE: Message from server: INIT
  @ DRIVER MODE: Receiving replica           0          -1
  @ DRIVER MODE: Receiving encoded integer          25
  @ DRIVER MODE:  SCF:  T  FORCE:  T  STRESS:  F  VC:  F  ENSEMBLE:  F
  @ DRIVER MODE:  SCF:  T  FORCE:  T  STRESS:  F  VC:  F  ENSEMBLE:  F

     Using Slab Decomposition

     bravais-lattice index     =            0
     lattice parameter (alat)  =       1.8897  a.u.
     unit-cell volume          =    6658.9804 (a.u.)^3
     number of atoms/cell      =           50
     number of atomic types    =            4
     number of electrons       =       384.00
     number of Kohn-Sham states=          202
     kinetic-energy cutoff     =      29.3995  Ry
     charge density cutoff     =     293.9946  Ry
     scf convergence threshold =      7.3E-08
     mixing beta               =       0.0500
     number of iterations used =            8  plain     mixing
     Exchange-correlation= BEEF-VDW
                           (   1   4  43  14   2   0   0)

     celldm(1)=   1.889726  celldm(2)=   0.000000  celldm(3)=   0.000000
     celldm(4)=   0.000000  celldm(5)=   0.000000  celldm(6)=   0.000000

     crystal axes: (cart. coord. in units of alat)
               a(1) = (   6.579727   0.000000   0.000000 )
               a(2) = (  -0.000775   5.961596   0.000000 )
               a(3) = (   0.000000   0.000000  25.155947 )

     reciprocal axes: (cart. coord. in units 2 pi/alat)
               b(1) = (  0.151982  0.000020  0.000000 )
               b(2) = (  0.000000  0.167740  0.000000 )
               b(3) = (  0.000000  0.000000  0.039752 )

     PseudoPot. # 1 for Ti read from file:
     /storage/coda1/p-amedford6/0/shared/rich_project_chbe-medford/medford-share/data/pseudos_module/espresso/nninc/pbe/van/Ti.UPF
     MD5 check sum: 8e4df49b7f0d34bbd5052bf3f5ea0213
     Pseudo is Ultrasoft, Zval = 12.0
     Generated by new atomic code, or converted to UPF format
     Using radial grid of  851 points,  6 beta functions with:
                l(1) =   0
                l(2) =   0
                l(3) =   1
                l(4) =   1
                l(5) =   2
                l(6) =   2
     Q(r) pseudized with  8 coefficients,  rinner =    1.000   1.000   1.000
                                                       1.000   1.000

     PseudoPot. # 2 for O  read from file:
     /storage/coda1/p-amedford6/0/shared/rich_project_chbe-medford/medford-share/data/pseudos_module/espresso/nninc/pbe/van/O.UPF
     MD5 check sum: 78c19812648e8988a0fe644b0f25305e
     Pseudo is Ultrasoft, Zval =  6.0
     Generated by new atomic code, or converted to UPF format
     Using radial grid of  737 points,  4 beta functions with:
                l(1) =   0
                l(2) =   0
                l(3) =   1
                l(4) =   1
     Q(r) pseudized with  8 coefficients,  rinner =    0.800   0.800   0.800

     PseudoPot. # 3 for C  read from file:
     /storage/coda1/p-amedford6/0/shared/rich_project_chbe-medford/medford-share/data/pseudos_module/espresso/nninc/pbe/van/C.UPF
     MD5 check sum: 1a69bf6b8db32088f5b2163dbdb77a27
     Pseudo is Ultrasoft, Zval =  4.0
     Generated by new atomic code, or converted to UPF format
     Using radial grid of  721 points,  4 beta functions with:
                l(1) =   0
                l(2) =   0
                l(3) =   1
                l(4) =   1
     Q(r) pseudized with  8 coefficients,  rinner =    0.800   0.800   0.800

     PseudoPot. # 4 for H  read from file:
     /storage/coda1/p-amedford6/0/shared/rich_project_chbe-medford/medford-share/data/pseudos_module/espresso/nninc/pbe/van/H.UPF
     MD5 check sum: b5ee9d7bfd3a09ee7748110bda690ff7
     Pseudo is Ultrasoft, Zval =  1.0
     Generated by new atomic code, or converted to UPF format
     Using radial grid of  615 points,  1 beta functions with:
                l(1) =   0
     Q(r) pseudized with  8 coefficients,  rinner =    0.800

     atomic species   valence    mass     pseudopotential
        Ti1           12.00    47.86700     Ti( 1.00)
        O1             6.00    15.99900     O ( 1.00)
        C1             4.00    12.01100     C ( 1.00)
        H1             1.00     1.00800     H ( 1.00)

     No symmetry found

   Cartesian axes

     site n.     atom                  positions (alat units)
         1           Ti1 tau(   1) = (   0.0004258   2.9801865   6.0000000  )
         2           Ti1 tau(   2) = (   3.2906075   1.4906267   6.0002472  )
         3           O1  tau(   3) = (   0.0006271   0.0005054   7.9858123  )
         4           O1  tau(   4) = (   3.2906025   0.0005020   7.3038282  )
         5           O1  tau(   5) = (   4.5942328   1.4918067   9.2879030  )
         6           O1  tau(   6) = (   1.9868534   1.4903216   9.2879459  )
         7           Ti1 tau(   7) = (   3.2756478   2.8760420   9.1630771  )
         8           Ti1 tau(   8) = (   6.5651030   1.4385007   9.3790407  )
         9           O1  tau(   9) = (   3.2651923   0.0045787  11.3553482  )
        10           O1  tau(  10) = (   6.5766178   5.9492394  10.5646413  )
        11           O1  tau(  11) = (   1.2591847   1.4977620  12.6679731  )
        12           O1  tau(  12) = (   5.2482661   1.4982983  12.6347741  )
        13           Ti1 tau(  13) = (   0.0651775   2.9654633  12.8696618  )
        14           Ti1 tau(  14) = (   3.3800656   1.4924449  12.4946823  )
        15           O1  tau(  15) = (   6.5296085   5.9207011  14.6097682  )
        16           O1  tau(  16) = (   3.2682314   0.0147111  13.9481481  )
        17           O1  tau(  17) = (   4.4912147   1.5408453  16.1034427  )
        18           O1  tau(  18) = (   2.0062121   1.5430191  16.1010343  )
        19           Ti1 tau(  19) = (   3.2584153   3.0188911  15.7272741  )
        20           Ti1 tau(  20) = (   6.5595668   1.6180917  16.2090303  )
        21           O1  tau(  21) = (   3.2904802   0.0005063   4.7018136  )
        22           O1  tau(  22) = (   6.5447935   0.0528136  17.2578995  )
        23           O1  tau(  23) = (   1.3043587   1.4918075   6.0039043  )
        24           O1  tau(  24) = (   5.2767064   1.4903225   6.0039473  )
        25           Ti1 tau(  25) = (   0.0000382   5.9609847   6.0000000  )
        26           Ti1 tau(  26) = (   3.2902200   4.4714249   6.0002472  )
        27           O1  tau(  27) = (   0.0002396   2.9813036   7.9858123  )
        28           O1  tau(  28) = (   3.2902150   2.9813002   7.3038282  )
        29           O1  tau(  29) = (   4.5938453   4.4726049   9.2879030  )
        30           O1  tau(  30) = (   1.9864658   4.4711199   9.2879459  )
        31           Ti1 tau(  31) = (   3.2806623   5.8565216   9.1617982  )
        32           Ti1 tau(  32) = (   6.5670484   4.4138833   9.3856844  )
        33           O1  tau(  33) = (   3.2704644   2.9808095  11.3502114  )
        34           O1  tau(  34) = (   6.5770050   2.9672111  10.5601139  )
        35           O1  tau(  35) = (   1.2614422   4.4490125  12.6594447  )
        36           O1  tau(  36) = (   5.2451530   4.4578719  12.6250501  )
        37           Ti1 tau(  37) = (   0.0436288   5.9429386  12.8080954  )
        38           Ti1 tau(  38) = (   3.3780510   4.4695497  12.4860242  )
        39           O1  tau(  39) = (   6.5513063   2.9765972  14.7162787  )
        40           O1  tau(  40) = (   3.2682626   2.9952000  13.9367060  )
        41           O1  tau(  41) = (   4.4851171   4.5114873  16.1027694  )
        42           O1  tau(  42) = (   2.0082088   4.5103763  16.0975713  )
        43           Ti1 tau(  43) = (   3.2690221   0.0357551  15.7449602  )
        44           Ti1 tau(  44) = (   6.5655258   4.6249605  16.1704562  )
        45           O1  tau(  45) = (   3.2900926   2.9813045   4.7018136  )
        46           O1  tau(  46) = (   1.3039711   4.4726057   6.0039043  )
        47           O1  tau(  47) = (   5.2763189   4.4711207   6.0039473  )
        48           C1  tau(  48) = (   6.5259393   3.0234738  17.6225649  )
        49           H1  tau(  49) = (   0.8472112   3.1395175  18.2203151  )
        50           H1  tau(  50) = (   5.6209537   3.1160310  18.2142257  )

     number of k points=    10  Fermi-Dirac smearing, width (Ry)=  0.0073
                       cart. coord. in units 2pi/alat
        k(    1) = (   0.0000000   0.0000000   0.0000000), wk =   0.1250000
        k(    2) = (   0.0000000   0.0419351   0.0000000), wk =   0.2500000
        k(    3) = (   0.0000000  -0.0838702   0.0000000), wk =   0.1250000
        k(    4) = (   0.0379955   0.0000049   0.0000000), wk =   0.2500000
        k(    5) = (   0.0379955   0.0419400   0.0000000), wk =   0.2500000
        k(    6) = (   0.0379955  -0.0838652   0.0000000), wk =   0.2500000
        k(    7) = (   0.0379955  -0.0419301   0.0000000), wk =   0.2500000
        k(    8) = (  -0.0759910  -0.0000099   0.0000000), wk =   0.1250000
        k(    9) = (  -0.0759910   0.0419252   0.0000000), wk =   0.2500000
        k(   10) = (  -0.0759910  -0.0838800   0.0000000), wk =   0.1250000

     Initial potential from superposition of free atoms

     starting charge  367.99919, renormalised to  384.00000

     negative rho (up, down):  2.116E-02 0.000E+00

     %%%%%%%%%%%%%%%%%%%%%%%%%%%%%%%%%%%%%%%%%%%%%%%%%%%%%%%%%%%%%%%%%%%%%%%%
     %                                                                      %
     % You are using vdW-DF, which was implemented by the Thonhauser group. %
     % Please cite the following two papers that made this development      %
     % possible and the two reviews that describe the various versions:     %
     %                                                                      %
     %   T. Thonhauser et al., PRL 115, 136402 (2015).                      %
     %   T. Thonhauser et al., PRB 76, 125112 (2007).                       %
     %   K. Berland et al., Rep. Prog. Phys. 78, 066501 (2015).             %
     %   D.C. Langreth et al., J. Phys.: Condens. Matter 21, 084203 (2009). %
     %                                                                      %
     %                                                                      %
     % If you are calculating the stress with vdW-DF, please also cite:     %
     %                                                                      %
     %   R. Sabatini et al., J. Phys.: Condens. Matter 24, 424209 (2012).   %
     %                                                                      %
     %%%%%%%%%%%%%%%%%%%%%%%%%%%%%%%%%%%%%%%%%%%%%%%%%%%%%%%%%%%%%%%%%%%%%%%%

     Adding external electric field

     Computed dipole along edir(3) :
        Dipole               -0.5227 Ry au,         -1.3284 Debye
        Dipole field         -0.0010 Ry au,

        Potential amp.        0.0914 Ry
        Total length         46.3494 bohr

     Starting wfcs are  290 atomic wfcs
  @ DRIVER MODE: Message from server: STATUS
  @ DRIVER MODE: Message from server: POSDATA
  @ DRIVER MODE: Reading and sharing cell
  @ DRIVER MODE: Reading and sharing positions
  @ DRIVER MODE: Received positions

     Self-consistent Calculation

     iteration #  1     ecut=    29.40 Ry     beta= 0.05
     Davidson diagonalization with overlap
     c_bands:  1 eigenvalues not converged
     c_bands:  2 eigenvalues not converged
     c_bands:  4 eigenvalues not converged
     c_bands:  1 eigenvalues not converged
     c_bands:  1 eigenvalues not converged
     c_bands:  2 eigenvalues not converged
     c_bands:  1 eigenvalues not converged
     c_bands:  2 eigenvalues not converged
     c_bands:  1 eigenvalues not converged
     c_bands:  2 eigenvalues not converged
     ethr =  1.00E-05,  avg # of iterations = 22.0

[...]

     total energy              =   -2899.22868727 Ry
     estimated scf accuracy    <      12.11119231 Ry

     iteration #  2     ecut=    29.40 Ry     beta= 0.05
     Davidson diagonalization with overlap
     ethr =  3.15E-03,  avg # of iterations =  1.0

[...]

     iteration # 32     ecut=    29.40 Ry     beta= 0.05
     Davidson diagonalization with overlap
     c_bands:  1 eigenvalues not converged
     c_bands:  1 eigenvalues not converged
     c_bands:  2 eigenvalues not converged
     ethr =  3.99E-07,  avg # of iterations = 13.6

[...]

     total energy              =   -2897.72453275 Ry
     estimated scf accuracy    <       0.00000052 Ry

     iteration # 61     ecut=    29.40 Ry     beta= 0.05
     Davidson diagonalization with overlap
     ethr =  4.08E-11,  avg # of iterations =  5.5

     negative rho (up, down):  2.037E-02 0.000E+00

     Adding external electric field

     Computed dipole along edir(3) :
        Dipole                0.2827 Ry au,          0.7186 Debye
        Dipole field          0.0005 Ry au,

        Potential amp.       -0.0495 Ry
        Total length         46.3494 bohr

     End of self-consistent calculation

          k = 0.0000 0.0000 0.0000 ( 18029 PWs)   bands (ev):

   -56.6503 -56.6163 -56.4027 -56.3661 -56.3324 -56.2796 -56.0964 -56.0858
   -56.0519 -55.9889 -55.9591 -55.9208 -55.5615 -55.4699 -55.4376 -55.4359
   -33.0799 -32.9490 -32.8993 -32.8706 -32.8407 -32.7833 -32.7492 -32.7279
   -32.7064 -32.6491 -32.6306 -32.6028 -32.5942 -32.5685 -32.5653 -32.5581
   -32.5523 -32.5341 -32.4606 -32.4594 -32.3940 -32.3492 -32.3375 -32.3307
   -32.3135 -32.3083 -32.2369 -32.2283 -32.2200 -32.1972 -32.1959 -32.1637
   -32.1505 -32.1371 -32.1131 -32.0580 -32.0284 -31.8714 -31.8697 -31.8178
   -31.7933 -31.7697 -31.7542 -31.6896 -31.6136 -31.6046 -31.4926 -31.4814
   -17.0541 -16.8376 -16.6323 -16.4795 -16.4004 -16.3485 -16.0516 -16.0315
   -16.0279 -15.9274 -15.9111 -15.8668 -15.8285 -15.8266 -15.8199 -15.8075
   -15.7782 -15.7331 -15.6974 -15.6623 -15.6266 -15.5950 -15.5107 -15.4707
   -15.4526 -15.3227 -15.2657 -15.2308 -15.1014 -13.9630 -13.8484  -8.4100
    -4.4337  -4.3846  -4.2359  -4.2289  -4.1038  -3.8930  -3.7073  -3.5206
    -3.4912  -3.4618  -3.4563  -3.3490  -3.2940  -3.1866  -3.1848  -3.1591
    -3.1436  -3.1089  -3.0860  -3.0838  -3.0429  -3.0311  -2.9598  -2.9191
    -2.9053  -2.8462  -2.7700  -2.6766  -2.6563  -2.6333  -2.5990  -2.5630
    -2.5410  -2.4464  -2.4334  -2.3726  -2.2448  -2.2112  -2.1652  -2.1365
    -2.1017  -2.0614  -1.9227  -1.7890  -1.7490  -1.7272  -1.6962  -1.6864
    -1.6585  -1.5330  -1.4955  -1.3948  -1.3638  -1.2492  -1.2371  -1.2190
    -1.2066  -1.1714  -1.1040  -1.0800  -1.0436  -0.9727  -0.8998  -0.7697
    -0.7403  -0.7209  -0.6874  -0.6803  -0.6214  -0.5799  -0.5225  -0.5151
    -0.4531  -0.4100  -0.3945  -0.3792  -0.3556  -0.2988  -0.2170  -0.1999
    -0.1317  -0.0990   0.1023   0.1398   0.1688   0.1953   0.2694   0.3015
     0.4767   0.4937   0.5589   0.7614   0.7969   1.1523   1.2316   1.7289
     2.6129   2.7922   2.9789   3.0390   3.0876   3.1684   3.2166   3.2963
     3.3291   3.4517

[...]

          k = 0.0380-0.0419 0.0000 ( 17876 PWs)   bands (ev):

[...]

          k =-0.0760-0.0000 0.0000 ( 17886 PWs)   bands (ev):

[...]

          k =-0.0760-0.0839 0.0000 ( 17948 PWs)   bands (ev):

   -56.6360 -56.6305 -56.3881 -56.3806 -56.3260 -56.2859 -56.0935 -56.0696
   -56.0679 -55.9917 -55.9476 -55.9323 -55.5591 -55.4528 -55.4528 -55.4399
   -32.8996 -32.8950 -32.8879 -32.8811 -32.7955 -32.7908 -32.7568 -32.7505
   -32.6922 -32.6786 -32.6221 -32.6142 -32.5915 -32.5823 -32.5751 -32.5696
   -32.5255 -32.4890 -32.4135 -32.3922 -32.3914 -32.3367 -32.3232 -32.3201
   -32.3127 -32.2971 -32.2887 -32.2850 -32.2628 -32.2541 -32.2387 -32.2217
   -32.1598 -32.1587 -32.1480 -32.1451 -31.9373 -31.8679 -31.8215 -31.7826
   -31.7825 -31.7398 -31.7060 -31.6854 -31.6853 -31.6472 -31.6472 -31.5008
   -16.5238 -16.4963 -16.2759 -16.2623 -16.1502 -16.1477 -16.1340 -16.1330
   -16.0491 -16.0446 -16.0017 -15.9813 -15.9223 -15.9095 -15.8643 -15.8631
   -15.8421 -15.8406 -15.8008 -15.7981 -15.6522 -15.6505 -15.5433 -15.5325
   -15.4937 -15.4537 -15.4114 -15.4008 -15.2421 -13.9507 -13.9503  -8.4120
    -3.8271  -3.7898  -3.4902  -3.4818  -3.2794  -3.2753  -3.2595  -3.2503
    -3.2321  -3.2124  -3.2049  -3.1897  -3.1512  -3.1105  -3.0875  -3.0687
    -3.0588  -3.0484  -3.0431  -3.0412  -3.0215  -3.0048  -2.9921  -2.9670
    -2.9029  -2.8918  -2.8694  -2.8604  -2.7828  -2.6374  -2.5697  -2.5628
    -2.5569  -2.5323  -2.4916  -2.3981  -2.3945  -2.3571  -2.3529  -2.3336
    -2.1472  -2.0735  -2.0708  -2.0106  -1.9817  -1.8800  -1.7314  -1.6994
    -1.6739  -1.6499  -1.5696  -1.5292  -1.5164  -1.4931  -1.4848  -1.4544
    -1.4433  -1.3643  -1.3519  -1.3181  -1.2755  -1.2120  -1.2069  -1.1868
    -1.1670  -1.0678  -0.9976  -0.9807  -0.9646  -0.9237  -0.8723  -0.8071
    -0.7672  -0.6754  -0.6598  -0.3902  -0.3882  -0.2569  -0.2401  -0.1142
    -0.1064  -0.0125   0.0207   0.0652   0.1811   0.1957   0.2004   0.2235
     0.3270   0.3282   0.3693   0.9424   0.9427   1.0083   1.0096   2.0058
     3.0282   3.0450   3.1284   3.1503   3.1546   3.1682   3.2156   3.2185
     3.5076   3.5198

     the Fermi energy is     2.3354 ev

!    total energy              =   -2897.72456811 Ry
     estimated scf accuracy    <       0.00000005 Ry
     smearing contrib. (-TS)   =      -0.00197772 Ry
     internal energy E=F+TS    =   -2897.72259038 Ry

     The total energy is F=E-TS. E is the sum of the following terms:
     one-electron contribution =  -24682.72835793 Ry
     hartree contribution      =   12419.28720769 Ry
     xc contribution           =    -473.85751799 Ry
     ewald contribution        =    9839.57592702 Ry
     electric field correction =       0.00015084 Ry

     convergence has been achieved in  61 iterations

     Forces acting on atoms (cartesian axes, Ry/au):

     atom    1 type  1   force =     0.00029834   -0.00003494    0.14809772
     atom    2 type  1   force =     0.00005078   -0.00032795   -0.17147174
     atom    3 type  2   force =    -0.00004776    0.00266236   -0.05973657
     atom    4 type  2   force =    -0.00032530   -0.00141596    0.04071024
     atom    5 type  2   force =    -0.02537165    0.00093417    0.00499287
     atom    6 type  2   force =     0.02287767    0.00010911    0.00304013
     atom    7 type  1   force =    -0.00050810   -0.00070542   -0.00032595
     atom    8 type  1   force =     0.00074648   -0.00041630    0.00023996
     atom    9 type  2   force =     0.00090082   -0.00028462    0.00046043
     atom   10 type  2   force =    -0.00010312   -0.00001140   -0.00005916
     atom   11 type  2   force =    -0.00017033    0.00004878    0.00021088
     atom   12 type  2   force =     0.00020964    0.00012609    0.00016876
     atom   13 type  1   force =     0.00003773   -0.00101056    0.00002479
     atom   14 type  1   force =    -0.00005198   -0.00114178   -0.00046881
     atom   15 type  2   force =     0.00024388   -0.00024289    0.00004738
     atom   16 type  2   force =     0.00001564    0.00015158    0.00054865
     atom   17 type  2   force =     0.00130839    0.00017055    0.00035622
     atom   18 type  2   force =    -0.00094360   -0.00012941    0.00042798
     atom   19 type  1   force =     0.00053780   -0.00023041   -0.00001243
     atom   20 type  1   force =     0.00008256    0.00193169    0.00292607
     atom   21 type  2   force =     0.00014069   -0.00010140    0.10275108
     atom   22 type  2   force =     0.00009755   -0.00036970   -0.00059629
     atom   23 type  2   force =    -0.07349031    0.00029509   -0.03459035
     atom   24 type  2   force =     0.07353897    0.00074213   -0.03464386
     atom   25 type  1   force =     0.00007703   -0.00018463    0.14930235
     atom   26 type  1   force =    -0.00000595   -0.00105462   -0.17162444
     atom   27 type  2   force =    -0.00006895    0.00192729   -0.05872721
     atom   28 type  2   force =    -0.00039825   -0.00137692    0.04068302
     atom   29 type  2   force =    -0.02529124    0.00190509    0.00528024
     atom   30 type  2   force =     0.02337893    0.00033748    0.00332614
     atom   31 type  1   force =    -0.00048361   -0.00018207   -0.00026169
     atom   32 type  1   force =     0.00062498   -0.00028968   -0.00016735
     atom   33 type  2   force =     0.00005606   -0.00037526    0.00053541
     atom   34 type  2   force =     0.00007428   -0.00015254    0.00020188
     atom   35 type  2   force =    -0.00020146   -0.00037162   -0.00029444
     atom   36 type  2   force =     0.00056026   -0.00063266   -0.00008566
     atom   37 type  1   force =     0.00087891    0.00031520   -0.00040658
     atom   38 type  1   force =    -0.00035070   -0.00015767    0.00005714
     atom   39 type  2   force =     0.00003638    0.00011087   -0.00047722
     atom   40 type  2   force =    -0.00000693    0.00030084   -0.00066618
     atom   41 type  2   force =     0.00044218    0.00012516    0.00036058
     atom   42 type  2   force =     0.00007353    0.00043939    0.00043522
     atom   43 type  1   force =     0.00039596    0.00078783   -0.00085735
     atom   44 type  1   force =    -0.00051083   -0.00037907    0.00104115
     atom   45 type  2   force =     0.00013785   -0.00009413    0.10271655
     atom   46 type  2   force =    -0.07351831   -0.00012338   -0.03458234
     atom   47 type  2   force =     0.07357448    0.00034097   -0.03465944
     atom   48 type  3   force =     0.00167839   -0.00264786   -0.01309504
     atom   49 type  4   force =     0.00335714    0.00010474    0.00440270
     atom   50 type  4   force =    -0.00458494    0.00057846    0.00446457

     Total force =     0.404564     Total SCF correction =     0.000594
  @ DRIVER MODE: Message from server: STATUS
  @ DRIVER MODE: Message from server: GETFORCE
  @ DRIVER MODE: Returning v,forces,stress,ensemble

     Writing output data file ./calc.save/
  @ DRIVER MODE: Message from server: EXIT
  @ DRIVE MODE: Exiting

     General routines

     Parallel routines

   This run was terminated on:  11:55: 4  24Aug2021

   JOB DONE.