     Program PWSCF v.6.7GPU starts on 24Sep2021 at  0:39:33

     R & G space division:  proc/nbgrp/npool/nimage =       8
     Reading input from /storage/home/hcoda1/3/ntian30/research/carbon/CxH_vib/H2O_calc/ads_slab/CH3NHHHO_a/out_0034/pw.inp
Warning: card &CELL ignored
Warning: card   CELL_DYNAMICS='IPI', ignored
Warning: card / ignored

     Current dimensions of program PWSCF are:
     Max number of different atomic species (ntypx) = 10
     Max number of k-points (npk) =  40000
     Max angular momentum in pseudopotentials (lmaxx) =  3
     Presently no symmetry can be used with electric field

     Message from routine cell_base_init:
     DEPRECATED: use true lattice parameter, not A to a.u. conversion factor

     IMPORTANT: XC functional enforced from input :
     Exchange-correlation= BEEF-VDW
                           (   1   4  43  14   2   0   0)
     Any further DFT definition will be discarded
     Please, verify this is what you really want

  @ DRIVER MODE: Connecting to
 qe_1139763_2947311.sched-torque.pace.gatech.eduz8dsbic9_scratch
  using UNIX socket
  @ DRIVER MODE: Message from server: STATUS
  @ DRIVER MODE: Message from server: INIT
  @ DRIVER MODE: Receiving replica           0          -1
  @ DRIVER MODE: Receiving encoded integer          25
  @ DRIVER MODE:  SCF:  T  FORCE:  T  STRESS:  F  VC:  F  ENSEMBLE:  F
  @ DRIVER MODE:  SCF:  T  FORCE:  T  STRESS:  F  VC:  F  ENSEMBLE:  F

     Using Slab Decomposition

     bravais-lattice index     =            0
     lattice parameter (alat)  =       1.8897  a.u.
     unit-cell volume          =    6658.9804 (a.u.)^3
     number of atoms/cell      =           56
     number of atomic types    =            5
     number of electrons       =       399.00
     number of Kohn-Sham states=          209
     kinetic-energy cutoff     =      29.3995  Ry
     charge density cutoff     =     293.9946  Ry
     scf convergence threshold =      7.3E-08
     mixing beta               =       0.0500
     number of iterations used =            8  plain     mixing
     Exchange-correlation= BEEF-VDW
                           (   1   4  43  14   2   0   0)

     celldm(1)=   1.889726  celldm(2)=   0.000000  celldm(3)=   0.000000
     celldm(4)=   0.000000  celldm(5)=   0.000000  celldm(6)=   0.000000

     crystal axes: (cart. coord. in units of alat)
               a(1) = (   6.579727   0.000000   0.000000 )
               a(2) = (  -0.000775   5.961596   0.000000 )
               a(3) = (   0.000000   0.000000  25.155947 )

     reciprocal axes: (cart. coord. in units 2 pi/alat)
               b(1) = (  0.151982  0.000020  0.000000 )
               b(2) = (  0.000000  0.167740  0.000000 )
               b(3) = (  0.000000  0.000000  0.039752 )

     PseudoPot. # 1 for Ti read from file:
     /storage/coda1/p-amedford6/0/shared/rich_project_chbe-medford/medford-share/data/pseudos_module/espresso/nninc/pbe/van/Ti.UPF
     MD5 check sum: 8e4df49b7f0d34bbd5052bf3f5ea0213
     Pseudo is Ultrasoft, Zval = 12.0
     Generated by new atomic code, or converted to UPF format
     Using radial grid of  851 points,  6 beta functions with:
                l(1) =   0
                l(2) =   0
                l(3) =   1
                l(4) =   1
                l(5) =   2
                l(6) =   2
     Q(r) pseudized with  8 coefficients,  rinner =    1.000   1.000   1.000
                                                       1.000   1.000

     PseudoPot. # 2 for O  read from file:
     /storage/coda1/p-amedford6/0/shared/rich_project_chbe-medford/medford-share/data/pseudos_module/espresso/nninc/pbe/van/O.UPF
     MD5 check sum: 78c19812648e8988a0fe644b0f25305e
     Pseudo is Ultrasoft, Zval =  6.0
     Generated by new atomic code, or converted to UPF format
     Using radial grid of  737 points,  4 beta functions with:
                l(1) =   0
                l(2) =   0
                l(3) =   1
                l(4) =   1
     Q(r) pseudized with  8 coefficients,  rinner =    0.800   0.800   0.800

     PseudoPot. # 3 for N  read from file:
     /storage/coda1/p-amedford6/0/shared/rich_project_chbe-medford/medford-share/data/pseudos_module/espresso/nninc/pbe/van/N.UPF
     MD5 check sum: 90d10febe142ad51ac9d5be1deb811c4
     Pseudo is Ultrasoft, Zval =  5.0
     Generated by new atomic code, or converted to UPF format
     Using radial grid of  729 points,  4 beta functions with:
                l(1) =   0
                l(2) =   0
                l(3) =   1
                l(4) =   1
     Q(r) pseudized with  8 coefficients,  rinner =    0.800   0.800   0.800

     PseudoPot. # 4 for C  read from file:
     /storage/coda1/p-amedford6/0/shared/rich_project_chbe-medford/medford-share/data/pseudos_module/espresso/nninc/pbe/van/C.UPF
     MD5 check sum: 1a69bf6b8db32088f5b2163dbdb77a27
     Pseudo is Ultrasoft, Zval =  4.0
     Generated by new atomic code, or converted to UPF format
     Using radial grid of  721 points,  4 beta functions with:
                l(1) =   0
                l(2) =   0
                l(3) =   1
                l(4) =   1
     Q(r) pseudized with  8 coefficients,  rinner =    0.800   0.800   0.800

     PseudoPot. # 5 for H  read from file:
     /storage/coda1/p-amedford6/0/shared/rich_project_chbe-medford/medford-share/data/pseudos_module/espresso/nninc/pbe/van/H.UPF
     MD5 check sum: b5ee9d7bfd3a09ee7748110bda690ff7
     Pseudo is Ultrasoft, Zval =  1.0
     Generated by new atomic code, or converted to UPF format
     Using radial grid of  615 points,  1 beta functions with:
                l(1) =   0
     Q(r) pseudized with  8 coefficients,  rinner =    0.800

     atomic species   valence    mass     pseudopotential
        Ti1           12.00    47.86700     Ti( 1.00)
        O1             6.00    15.99900     O ( 1.00)
        N1             5.00    14.00700     N ( 1.00)
        C1             4.00    12.01100     C ( 1.00)
        H1             1.00     1.00800     H ( 1.00)

     No symmetry found

   Cartesian axes

     site n.     atom                  positions (alat units)
         1           Ti1 tau(   1) = (   0.0004258   2.9801865   6.0000000  )
         2           Ti1 tau(   2) = (   3.2906075   1.4906267   6.0002472  )
         3           O1  tau(   3) = (   0.0006271   0.0005054   7.9858123  )
         4           O1  tau(   4) = (   3.2906025   0.0005020   7.3038282  )
         5           O1  tau(   5) = (   4.5942328   1.4918067   9.2879030  )
         6           O1  tau(   6) = (   1.9868534   1.4903216   9.2879459  )
         7           Ti1 tau(   7) = (   3.2907910   2.8959150   9.1758416  )
         8           Ti1 tau(   8) = (   0.0015273   1.4827037   9.2680791  )
         9           O1  tau(   9) = (   3.2949530   5.9481847  11.3666340  )
        10           O1  tau(  10) = (   0.0116148   5.9584955  10.6183126  )
        11           O1  tau(  11) = (   1.2732546   1.4916747  12.6876809  )
        12           O1  tau(  12) = (   5.3119445   1.4892451  12.6851550  )
        13           Ti1 tau(  13) = (   6.5688325   2.9465269  12.5174317  )
        14           Ti1 tau(  14) = (   3.2996026   1.2975375  12.7241829  )
        15           O1  tau(  15) = (   0.0172205   5.8793003  14.6619373  )
        16           O1  tau(  16) = (   3.2917661   0.0702926  14.0149596  )
        17           O1  tau(  17) = (   4.5643074   1.5920826  16.1346482  )
        18           O1  tau(  18) = (   2.0131957   1.5841813  16.0575481  )
        19           Ti1 tau(  19) = (   3.2662748   3.0407108  15.6947786  )
        20           Ti1 tau(  20) = (   0.0618610   1.3206105  15.7998127  )
        21           O1  tau(  21) = (   3.2904802   0.0005063   4.7018136  )
        22           O1  tau(  22) = (   0.0233933   0.1570098  17.1842078  )
        23           O1  tau(  23) = (   1.3043587   1.4918075   6.0039043  )
        24           O1  tau(  24) = (   5.2767064   1.4903225   6.0039473  )
        25           Ti1 tau(  25) = (   0.0000382   5.9609847   6.0000000  )
        26           Ti1 tau(  26) = (   3.2902200   4.4714249   6.0002472  )
        27           O1  tau(  27) = (   0.0002396   2.9813036   7.9858123  )
        28           O1  tau(  28) = (   3.2902150   2.9813002   7.3038282  )
        29           O1  tau(  29) = (   4.5938453   4.4726049   9.2879030  )
        30           O1  tau(  30) = (   1.9864658   4.4711199   9.2879459  )
        31           Ti1 tau(  31) = (   3.2891106   5.8743827   9.1763621  )
        32           Ti1 tau(  32) = (   0.0006254   4.4649316   9.2693709  )
        33           O1  tau(  33) = (   3.2948289   2.9949798  11.3176834  )
        34           O1  tau(  34) = (   0.0092240   2.9805883  10.6323155  )
        35           O1  tau(  35) = (   1.2828652   4.4571597  12.6432593  )
        36           O1  tau(  36) = (   5.3079144   4.4605214  12.6419564  )
        37           Ti1 tau(  37) = (   0.0266940   5.9154698  12.5044250  )
        38           Ti1 tau(  38) = (   3.3008436   4.3760658  12.4353554  )
        39           O1  tau(  39) = (   6.5507285   3.0461080  14.9005035  )
        40           O1  tau(  40) = (   3.2938476   3.0131494  13.9233183  )
        41           O1  tau(  41) = (   4.5350990   4.4864192  16.1518712  )
        42           O1  tau(  42) = (   1.9883536   4.4285065  16.1690201  )
        43           Ti1 tau(  43) = (   3.3916644   0.0784854  16.2809578  )
        44           Ti1 tau(  44) = (   0.0590441   4.5159846  16.0209683  )
        45           O1  tau(  45) = (   3.2900926   2.9813045   4.7018136  )
        46           O1  tau(  46) = (   1.3039711   4.4726057   6.0039043  )
        47           O1  tau(  47) = (   5.2763189   4.4711207   6.0039473  )
        48           N1  tau(  48) = (   6.2706434   3.3837210  18.0754458  )
        49           C1  tau(  49) = (   0.7642246   3.1223808  19.0622891  )
        50           H1  tau(  50) = (   1.3158356   4.0410886  19.2409436  )
        51           H1  tau(  51) = (   0.3597117   2.7583523  20.0089400  )
        52           H1  tau(  52) = (   1.4517744   2.3810259  18.6668870  )
        53           H1  tau(  53) = (   5.6745199   4.1449376  18.4206214  )
        54           H1  tau(  54) = (   5.6587021   2.5696541  18.0151127  )
        55           O1  tau(  55) = (   3.1972372   0.0910451  18.1323504  )
        56           H1  tau(  56) = (   2.2767176   0.1080423  18.4377142  )

     number of k points=    10  Fermi-Dirac smearing, width (Ry)=  0.0073
                       cart. coord. in units 2pi/alat
        k(    1) = (   0.0000000   0.0000000   0.0000000), wk =   0.1250000
        k(    2) = (   0.0000000   0.0419351   0.0000000), wk =   0.2500000
        k(    3) = (   0.0000000  -0.0838702   0.0000000), wk =   0.1250000
        k(    4) = (   0.0379955   0.0000049   0.0000000), wk =   0.2500000
        k(    5) = (   0.0379955   0.0419400   0.0000000), wk =   0.2500000
        k(    6) = (   0.0379955  -0.0838652   0.0000000), wk =   0.2500000
        k(    7) = (   0.0379955  -0.0419301   0.0000000), wk =   0.2500000
        k(    8) = (  -0.0759910  -0.0000099   0.0000000), wk =   0.1250000
        k(    9) = (  -0.0759910   0.0419252   0.0000000), wk =   0.2500000
        k(   10) = (  -0.0759910  -0.0838800   0.0000000), wk =   0.1250000

     Initial potential from superposition of free atoms

     starting charge  382.99914, renormalised to  399.00000

     negative rho (up, down):  1.588E-02 0.000E+00

     %%%%%%%%%%%%%%%%%%%%%%%%%%%%%%%%%%%%%%%%%%%%%%%%%%%%%%%%%%%%%%%%%%%%%%%%
     %                                                                      %
     % You are using vdW-DF, which was implemented by the Thonhauser group. %
     % Please cite the following two papers that made this development      %
     % possible and the two reviews that describe the various versions:     %
     %                                                                      %
     %   T. Thonhauser et al., PRL 115, 136402 (2015).                      %
     %   T. Thonhauser et al., PRB 76, 125112 (2007).                       %
     %   K. Berland et al., Rep. Prog. Phys. 78, 066501 (2015).             %
     %   D.C. Langreth et al., J. Phys.: Condens. Matter 21, 084203 (2009). %
     %                                                                      %
     %                                                                      %
     % If you are calculating the stress with vdW-DF, please also cite:     %
     %                                                                      %
     %   R. Sabatini et al., J. Phys.: Condens. Matter 24, 424209 (2012).   %
     %                                                                      %
     %%%%%%%%%%%%%%%%%%%%%%%%%%%%%%%%%%%%%%%%%%%%%%%%%%%%%%%%%%%%%%%%%%%%%%%%

     Adding external electric field

     Computed dipole along edir(3) :
        Dipole              -10.6962 Ry au,        -27.1870 Debye
        Dipole field         -0.0202 Ry au,

        Potential amp.        1.8711 Ry
        Total length         46.3494 bohr

     Starting wfcs are  302 atomic wfcs
  @ DRIVER MODE: Message from server: STATUS
  @ DRIVER MODE: Message from server: POSDATA
  @ DRIVER MODE: Reading and sharing cell
  @ DRIVER MODE: Reading and sharing positions
  @ DRIVER MODE: Received positions

     Self-consistent Calculation

     iteration #  1     ecut=    29.40 Ry     beta= 0.05
     Davidson diagonalization with overlap
     c_bands:  3 eigenvalues not converged
     c_bands:  2 eigenvalues not converged
     c_bands:  2 eigenvalues not converged
     c_bands:  5 eigenvalues not converged
     c_bands:  2 eigenvalues not converged
     c_bands:  5 eigenvalues not converged
     c_bands:  4 eigenvalues not converged
     c_bands:  3 eigenvalues not converged
     ethr =  1.00E-05,  avg # of iterations = 21.6

[...]

     total energy              =   -2438.26559145 Ry
     estimated scf accuracy    <    5770.44604239 Ry

     iteration #  2     ecut=    29.40 Ry     beta= 0.05
     Davidson diagonalization with overlap
     ethr =  1.00E-02,  avg # of iterations = 24.7

[...]

     iteration # 59     ecut=    29.40 Ry     beta= 0.05
     Davidson diagonalization with overlap
     c_bands:  1 eigenvalues not converged
     c_bands:  1 eigenvalues not converged
     ethr =  3.83E-08,  avg # of iterations = 17.1

[...]

     total energy              =   -2955.26286302 Ry
     estimated scf accuracy    <       0.00000014 Ry

     iteration # 82     ecut=    29.40 Ry     beta= 0.05
     Davidson diagonalization with overlap
     ethr =  2.78E-11,  avg # of iterations = 10.6

     negative rho (up, down):  1.647E-02 0.000E+00

     Adding external electric field

     Computed dipole along edir(3) :
        Dipole                0.9737 Ry au,          2.4749 Debye
        Dipole field          0.0018 Ry au,

        Potential amp.       -0.1703 Ry
        Total length         46.3494 bohr

     End of self-consistent calculation

          k = 0.0000 0.0000 0.0000 ( 18029 PWs)   bands (ev):

   -55.6836 -55.6373 -55.6033 -55.5129 -55.5029 -55.4672 -55.4665 -55.4646
   -55.4324 -55.4190 -55.3683 -55.2735 -55.2280 -55.2132 -54.6133 -54.5793
   -32.1227 -32.0204 -32.0127 -31.9890 -31.9694 -31.9570 -31.9281 -31.9022
   -31.8949 -31.8835 -31.8833 -31.7907 -31.7900 -31.7753 -31.7498 -31.7461
   -31.7446 -31.7435 -31.7428 -31.7065 -31.6949 -31.6655 -31.6626 -31.6566
   -31.6510 -31.6449 -31.6370 -31.6066 -31.6049 -31.5990 -31.5936 -31.5903
   -31.5794 -31.5642 -31.5498 -31.5244 -31.4649 -31.4561 -31.4469 -31.4236
   -31.4198 -31.4151 -31.0193 -30.9329 -30.9105 -30.8369 -30.7505 -30.6387
   -16.5117 -16.2967 -16.1480 -15.9715 -15.8372 -15.8071 -15.7600 -15.5996
   -15.5069 -15.4431 -15.2430 -15.2219 -15.1762 -15.1646 -15.1595 -15.1367
   -15.1270 -15.0819 -15.0635 -15.0601 -15.0501 -15.0326 -14.9961 -14.9539
   -14.9104 -14.8897 -14.7772 -14.7208 -14.6802 -14.4690 -14.4015 -13.1114
   -12.9950  -9.9733  -6.0084  -4.5746  -4.0627  -3.7632  -3.6451  -3.5476
    -3.5362  -3.4157  -3.4065  -3.1665  -3.0429  -2.9840  -2.9055  -2.7831
    -2.7514  -2.6780  -2.6382  -2.5882  -2.5694  -2.5327  -2.4922  -2.4488
    -2.4239  -2.3963  -2.3627  -2.3066  -2.2952  -2.1971  -2.1826  -2.1597
    -2.0541  -2.0132  -1.9731  -1.9549  -1.9500  -1.9308  -1.8922  -1.8859
    -1.8662  -1.7880  -1.7188  -1.6726  -1.6377  -1.6101  -1.3322  -1.2472
    -1.2036  -1.1890  -1.0850  -1.0613  -1.0330  -1.0191  -0.9823  -0.9656
    -0.8539  -0.8357  -0.7683  -0.7191  -0.7028  -0.6675  -0.5472  -0.5107
    -0.4612  -0.4208  -0.3709  -0.3530  -0.3484  -0.2538  -0.2272  -0.1925
    -0.0838  -0.0671  -0.0047   0.0806   0.0901   0.1416   0.1653   0.2254
     0.2297   0.2845   0.3141   0.3363   0.3898   0.4221   0.4585   0.4915
     0.5087   0.6109   0.6861   0.6989   0.7959   0.8704   0.9238   1.0282
     1.0958   1.3599   1.4136   1.4371   1.6055   1.9808   2.0262   3.4443
     3.5933   3.6089   3.6835   3.6961   3.7731   3.9338   3.9588   4.0941
     4.1327

[...]

          k = 0.0380-0.0419 0.0000 ( 17876 PWs)   bands (ev):

[...]

          k =-0.0760-0.0000 0.0000 ( 17886 PWs)   bands (ev):

[...]

          k =-0.0760-0.0839 0.0000 ( 17948 PWs)   bands (ev):

   -55.6827 -55.6204 -55.6200 -55.5117 -55.4917 -55.4757 -55.4680 -55.4500
   -55.4485 -55.4126 -55.3747 -55.2687 -55.2290 -55.2179 -54.5967 -54.5957
   -31.9535 -31.9456 -31.9381 -31.9378 -31.9308 -31.9138 -31.9134 -31.8973
   -31.8529 -31.8118 -31.7937 -31.7809 -31.7769 -31.7753 -31.7535 -31.7440
   -31.7404 -31.7398 -31.7295 -31.7257 -31.7180 -31.7172 -31.7026 -31.6786
   -31.6724 -31.6680 -31.6585 -31.6482 -31.6332 -31.6320 -31.6298 -31.6244
   -31.6229 -31.5975 -31.5969 -31.5559 -31.5314 -31.4966 -31.4692 -31.4642
   -31.4493 -31.4192 -30.9236 -30.9228 -30.8329 -30.8315 -30.7941 -30.7933
   -16.4819 -15.9200 -15.8517 -15.7452 -15.6222 -15.6089 -15.4979 -15.4147
   -15.4113 -15.3808 -15.3501 -15.3222 -15.3125 -15.2954 -15.2487 -15.2054
   -15.1702 -15.1425 -15.1405 -15.0946 -15.0876 -15.0762 -15.0636 -15.0412
   -15.0075 -14.9578 -14.9434 -14.9047 -14.7666 -14.6917 -14.5914 -13.0971
   -13.0965  -9.9754  -5.9882  -4.5720  -4.0271  -3.7194  -3.0570  -2.9606
    -2.8487  -2.7240  -2.7158  -2.7001  -2.6432  -2.6123  -2.5862  -2.5450
    -2.4876  -2.4681  -2.4475  -2.4309  -2.4091  -2.3910  -2.3825  -2.3773
    -2.3407  -2.3230  -2.3147  -2.2736  -2.2660  -2.2496  -2.2293  -2.2121
    -2.1814  -2.1769  -2.1475  -2.0963  -2.0461  -1.9729  -1.8801  -1.7986
    -1.7876  -1.7690  -1.7196  -1.7130  -1.6675  -1.6595  -1.6349  -1.5483
    -1.4371  -1.3867  -1.2762  -1.2553  -1.2294  -1.1891  -1.1370  -1.1225
    -1.0773  -1.0467  -0.9868  -0.8861  -0.8558  -0.8006  -0.6871  -0.6487
    -0.6113  -0.5911  -0.5790  -0.5533  -0.5373  -0.4977  -0.4695  -0.4185
    -0.3818  -0.3479  -0.3209  -0.2952  -0.2475  -0.1470  -0.0525  -0.0152
     0.0861   0.1325   0.1747   0.2062   0.2682   0.4032   0.4298   0.5260
     0.5406   0.5696   0.6713   0.6814   0.7823   0.8063   0.8447   0.8857
     0.9105   0.9315   0.9513   1.7752   1.7837   1.8465   1.8467   3.7372
     3.9297   3.9447   3.9610   4.0057   4.0129   4.0398   4.0456   4.1122
     4.1231

     the Fermi energy is     3.4832 ev

!    total energy              =   -2955.26287263 Ry
     estimated scf accuracy    <       0.00000005 Ry
     smearing contrib. (-TS)   =      -0.01953070 Ry
     internal energy E=F+TS    =   -2955.24334193 Ry

     The total energy is F=E-TS. E is the sum of the following terms:
     one-electron contribution =  -23741.51230895 Ry
     hartree contribution      =   11962.87075142 Ry
     xc contribution           =    -489.73164934 Ry
     ewald contribution        =    9313.12807573 Ry
     electric field correction =       0.00178920 Ry

     convergence has been achieved in  82 iterations

     Forces acting on atoms (cartesian axes, Ry/au):

     atom    1 type  1   force =     0.00009594   -0.00029197    0.09414007
     atom    2 type  1   force =    -0.00003977    0.00043386   -0.17544727
     atom    3 type  2   force =     0.00003998   -0.00034103   -0.02110822
     atom    4 type  2   force =     0.00002412   -0.00197941    0.05462524
     atom    5 type  2   force =    -0.00674578   -0.00245154    0.00300909
     atom    6 type  2   force =     0.00835133   -0.00187531    0.00243016
     atom    7 type  1   force =    -0.00017699   -0.00404586    0.00897950
     atom    8 type  1   force =     0.00031757    0.00082371    0.00311542
     atom    9 type  2   force =    -0.00058043    0.00059026   -0.00019003
     atom   10 type  2   force =    -0.00139074    0.00172760   -0.00927732
     atom   11 type  2   force =     0.00004984   -0.00015546    0.00037574
     atom   12 type  2   force =    -0.00006556   -0.00011105   -0.00030615
     atom   13 type  1   force =    -0.00048883   -0.00025269    0.00003723
     atom   14 type  1   force =     0.00000925   -0.00033122   -0.00007120
     atom   15 type  2   force =    -0.00031341   -0.00001590   -0.00014671
     atom   16 type  2   force =     0.00032277   -0.00054432   -0.00039894
     atom   17 type  2   force =     0.00047072   -0.00016253   -0.00076057
     atom   18 type  2   force =    -0.00048650    0.00013977   -0.00012295
     atom   19 type  1   force =     0.00048555   -0.00060736    0.00076536
     atom   20 type  1   force =     0.00051916    0.00040373    0.00039094
     atom   21 type  2   force =     0.00007667    0.00004660    0.10326592
     atom   22 type  2   force =    -0.00050876    0.00038273    0.00030522
     atom   23 type  2   force =    -0.07191783   -0.00018957   -0.02721671
     atom   24 type  2   force =     0.07184734    0.00024960   -0.02726018
     atom   25 type  1   force =     0.00002804   -0.00024188    0.09380638
     atom   26 type  1   force =    -0.00006091   -0.00133144   -0.17562854
     atom   27 type  2   force =     0.00015615   -0.00010788   -0.01987051
     atom   28 type  2   force =     0.00006938   -0.00032072    0.04989933
     atom   29 type  2   force =    -0.00613019    0.00232292    0.00251302
     atom   30 type  2   force =     0.00762323    0.00268806    0.00196357
     atom   31 type  1   force =     0.00002600    0.00839252   -0.00274847
     atom   32 type  1   force =     0.00011863   -0.00235680    0.00259053
     atom   33 type  2   force =     0.00005168   -0.00001368   -0.00006015
     atom   34 type  2   force =    -0.00211578   -0.00248461   -0.01004563
     atom   35 type  2   force =    -0.00013813   -0.00002316    0.00053238
     atom   36 type  2   force =    -0.00007857    0.00006758   -0.00007755
     atom   37 type  1   force =     0.00016781   -0.00008828   -0.00024772
     atom   38 type  1   force =     0.00005850   -0.00017945    0.00023003
     atom   39 type  2   force =    -0.00013592    0.00009994   -0.00028931
     atom   40 type  2   force =     0.00017224   -0.00025454   -0.00009977
     atom   41 type  2   force =    -0.00036608   -0.00069116    0.00060649
     atom   42 type  2   force =     0.00049707    0.00006473   -0.00018985
     atom   43 type  1   force =    -0.00080274   -0.00062272    0.00029190
     atom   44 type  1   force =     0.00046736    0.00027155   -0.00029253
     atom   45 type  2   force =     0.00006846   -0.00007007    0.10306647
     atom   46 type  2   force =    -0.07193323   -0.00004210   -0.02724708
     atom   47 type  2   force =     0.07189714    0.00039614   -0.02729739
     atom   48 type  3   force =    -0.00515510    0.00897028    0.00355354
     atom   49 type  4   force =     0.00049880    0.00044982    0.00048638
     atom   50 type  5   force =     0.00053800    0.00084247   -0.00017056
     atom   51 type  5   force =    -0.00007039    0.00071910    0.00015129
     atom   52 type  5   force =     0.00035067   -0.00025101   -0.00070695
     atom   53 type  5   force =     0.00543195   -0.00900855   -0.00436975
     atom   54 type  5   force =    -0.00042215    0.00090984    0.00049815
     atom   55 type  2   force =    -0.00046351    0.00036517    0.00044576
     atom   56 type  5   force =    -0.00024409    0.00008530   -0.00042711

     Total force =     0.362585     Total SCF correction =     0.000827
  @ DRIVER MODE: Message from server: STATUS
  @ DRIVER MODE: Message from server: GETFORCE
  @ DRIVER MODE: Returning v,forces,stress,ensemble

     Writing output data file ./calc.save/
  @ DRIVER MODE: Message from server: EXIT
  @ DRIVE MODE: Exiting

     General routines

     Parallel routines

   This run was terminated on:   1: 7: 2  24Sep2021

   JOB DONE.