     Program PWSCF v.6.7GPU starts on  9Sep2021 at  3:56:35

     R & G space division:  proc/nbgrp/npool/nimage =      10
     Reading input from /storage/home/hcoda1/3/ntian30/research/carbon/CxH_vib/CH2_calc/ads_slab/CH2N2H_a/out_0020/pw.inp
Warning: card &CELL ignored
Warning: card   CELL_DYNAMICS='IPI', ignored
Warning: card / ignored

     Current dimensions of program PWSCF are:
     Max number of different atomic species (ntypx) = 10
     Max number of k-points (npk) =  40000
     Max angular momentum in pseudopotentials (lmaxx) =  3
     Presently no symmetry can be used with electric field

     Message from routine cell_base_init:
     DEPRECATED: use true lattice parameter, not A to a.u. conversion factor

     IMPORTANT: XC functional enforced from input :
     Exchange-correlation= BEEF-VDW
                           (   1   4  43  14   2   0   0)
     Any further DFT definition will be discarded
     Please, verify this is what you really want

  @ DRIVER MODE: Connecting to
 qe_1139763_2767385.sched-torque.pace.gatech.edus22l4n8k_scratch
  using UNIX socket
  @ DRIVER MODE: Message from server: STATUS
  @ DRIVER MODE: Message from server: INIT
  @ DRIVER MODE: Receiving replica           0          -1
  @ DRIVER MODE: Receiving encoded integer          25
  @ DRIVER MODE:  SCF:  T  FORCE:  T  STRESS:  F  VC:  F  ENSEMBLE:  F
  @ DRIVER MODE:  SCF:  T  FORCE:  T  STRESS:  F  VC:  F  ENSEMBLE:  F

     Using Slab Decomposition

     bravais-lattice index     =            0
     lattice parameter (alat)  =       1.8897  a.u.
     unit-cell volume          =    6658.9804 (a.u.)^3
     number of atoms/cell      =           53
     number of atomic types    =            5
     number of electrons       =       395.00
     number of Kohn-Sham states=          207
     kinetic-energy cutoff     =      29.3995  Ry
     charge density cutoff     =     293.9946  Ry
     scf convergence threshold =      7.3E-08
     mixing beta               =       0.0500
     number of iterations used =            8  plain     mixing
     Exchange-correlation= BEEF-VDW
                           (   1   4  43  14   2   0   0)

     celldm(1)=   1.889726  celldm(2)=   0.000000  celldm(3)=   0.000000
     celldm(4)=   0.000000  celldm(5)=   0.000000  celldm(6)=   0.000000

     crystal axes: (cart. coord. in units of alat)
               a(1) = (   6.579727   0.000000   0.000000 )
               a(2) = (  -0.000775   5.961596   0.000000 )
               a(3) = (   0.000000   0.000000  25.155947 )

     reciprocal axes: (cart. coord. in units 2 pi/alat)
               b(1) = (  0.151982  0.000020  0.000000 )
               b(2) = (  0.000000  0.167740  0.000000 )
               b(3) = (  0.000000  0.000000  0.039752 )

     PseudoPot. # 1 for Ti read from file:
     /storage/coda1/p-amedford6/0/shared/rich_project_chbe-medford/medford-share/data/pseudos_module/espresso/nninc/pbe/van/Ti.UPF
     MD5 check sum: 8e4df49b7f0d34bbd5052bf3f5ea0213
     Pseudo is Ultrasoft, Zval = 12.0
     Generated by new atomic code, or converted to UPF format
     Using radial grid of  851 points,  6 beta functions with:
                l(1) =   0
                l(2) =   0
                l(3) =   1
                l(4) =   1
                l(5) =   2
                l(6) =   2
     Q(r) pseudized with  8 coefficients,  rinner =    1.000   1.000   1.000
                                                       1.000   1.000

     PseudoPot. # 2 for O  read from file:
     /storage/coda1/p-amedford6/0/shared/rich_project_chbe-medford/medford-share/data/pseudos_module/espresso/nninc/pbe/van/O.UPF
     MD5 check sum: 78c19812648e8988a0fe644b0f25305e
     Pseudo is Ultrasoft, Zval =  6.0
     Generated by new atomic code, or converted to UPF format
     Using radial grid of  737 points,  4 beta functions with:
                l(1) =   0
                l(2) =   0
                l(3) =   1
                l(4) =   1
     Q(r) pseudized with  8 coefficients,  rinner =    0.800   0.800   0.800

     PseudoPot. # 3 for N  read from file:
     /storage/coda1/p-amedford6/0/shared/rich_project_chbe-medford/medford-share/data/pseudos_module/espresso/nninc/pbe/van/N.UPF
     MD5 check sum: 90d10febe142ad51ac9d5be1deb811c4
     Pseudo is Ultrasoft, Zval =  5.0
     Generated by new atomic code, or converted to UPF format
     Using radial grid of  729 points,  4 beta functions with:
                l(1) =   0
                l(2) =   0
                l(3) =   1
                l(4) =   1
     Q(r) pseudized with  8 coefficients,  rinner =    0.800   0.800   0.800

     PseudoPot. # 4 for C  read from file:
     /storage/coda1/p-amedford6/0/shared/rich_project_chbe-medford/medford-share/data/pseudos_module/espresso/nninc/pbe/van/C.UPF
     MD5 check sum: 1a69bf6b8db32088f5b2163dbdb77a27
     Pseudo is Ultrasoft, Zval =  4.0
     Generated by new atomic code, or converted to UPF format
     Using radial grid of  721 points,  4 beta functions with:
                l(1) =   0
                l(2) =   0
                l(3) =   1
                l(4) =   1
     Q(r) pseudized with  8 coefficients,  rinner =    0.800   0.800   0.800

     PseudoPot. # 5 for H  read from file:
     /storage/coda1/p-amedford6/0/shared/rich_project_chbe-medford/medford-share/data/pseudos_module/espresso/nninc/pbe/van/H.UPF
     MD5 check sum: b5ee9d7bfd3a09ee7748110bda690ff7
     Pseudo is Ultrasoft, Zval =  1.0
     Generated by new atomic code, or converted to UPF format
     Using radial grid of  615 points,  1 beta functions with:
                l(1) =   0
     Q(r) pseudized with  8 coefficients,  rinner =    0.800

     atomic species   valence    mass     pseudopotential
        Ti1           12.00    47.86700     Ti( 1.00)
        O1             6.00    15.99900     O ( 1.00)
        N1             5.00    14.00700     N ( 1.00)
        C1             4.00    12.01100     C ( 1.00)
        H1             1.00     1.00800     H ( 1.00)

     No symmetry found

   Cartesian axes

     site n.     atom                  positions (alat units)
         1           Ti1 tau(   1) = (   0.0004258   2.9801865   6.0000000  )
         2           Ti1 tau(   2) = (   3.2906075   1.4906267   6.0002472  )
         3           O1  tau(   3) = (   0.0006271   0.0005054   7.9858123  )
         4           O1  tau(   4) = (   3.2906025   0.0005020   7.3038282  )
         5           O1  tau(   5) = (   4.5942328   1.4918067   9.2879030  )
         6           O1  tau(   6) = (   1.9868534   1.4903216   9.2879459  )
         7           Ti1 tau(   7) = (   3.2907910   2.8959150   9.1758416  )
         8           Ti1 tau(   8) = (   0.0015273   1.4827037   9.2680791  )
         9           O1  tau(   9) = (   3.3007851   0.0027079  11.3193151  )
        10           O1  tau(  10) = (   0.0116148   5.9584955  10.6183126  )
        11           O1  tau(  11) = (   1.3147357   1.5019762  12.6210215  )
        12           O1  tau(  12) = (   5.3120411   1.4917641  12.6342566  )
        13           Ti1 tau(  13) = (   6.5359925   2.9538565  12.6086018  )
        14           Ti1 tau(  14) = (   3.2189980   1.4905645  12.4770757  )
        15           O1  tau(  15) = (   0.0426301   5.9606301  14.6312846  )
        16           O1  tau(  16) = (   3.3149351   0.0098317  13.8848037  )
        17           O1  tau(  17) = (   4.5523768   1.5206755  16.0744300  )
        18           O1  tau(  18) = (   2.0715852   1.4807026  15.9918588  )
        19           Ti1 tau(  19) = (   3.2935730   2.9941335  15.6827836  )
        20           Ti1 tau(  20) = (   0.0200723   1.3023755  15.9747514  )
        21           O1  tau(  21) = (   3.2904802   0.0005063   4.7018136  )
        22           O1  tau(  22) = (   6.5179923   0.0002674  17.1556216  )
        23           O1  tau(  23) = (   1.3043587   1.4918075   6.0039043  )
        24           O1  tau(  24) = (   5.2767064   1.4903225   6.0039473  )
        25           Ti1 tau(  25) = (   0.0000382   5.9609847   6.0000000  )
        26           Ti1 tau(  26) = (   3.2902200   4.4714249   6.0002472  )
        27           O1  tau(  27) = (   0.0002396   2.9813036   7.9858123  )
        28           O1  tau(  28) = (   3.2902150   2.9813002   7.3038282  )
        29           O1  tau(  29) = (   4.5938453   4.4726049   9.2879030  )
        30           O1  tau(  30) = (   1.9864658   4.4711199   9.2879459  )
        31           Ti1 tau(  31) = (   3.2891106   5.8743827   9.1763621  )
        32           Ti1 tau(  32) = (   0.0006254   4.4649316   9.2693709  )
        33           O1  tau(  33) = (   3.3053585   2.9833221  11.3185053  )
        34           O1  tau(  34) = (   0.0092240   2.9805883  10.6323155  )
        35           O1  tau(  35) = (   1.3157767   4.4721532  12.6203727  )
        36           O1  tau(  36) = (   5.3104355   4.4689601  12.6331991  )
        37           Ti1 tau(  37) = (   6.5385524   5.9338372  12.5465384  )
        38           Ti1 tau(  38) = (   3.2200853   4.4710709  12.4725482  )
        39           O1  tau(  39) = (   0.0068575   2.9964749  14.7765288  )
        40           O1  tau(  40) = (   3.3021705   2.9848394  13.8818356  )
        41           O1  tau(  41) = (   4.5334443   4.4765196  15.9883447  )
        42           O1  tau(  42) = (   2.0816803   4.4801587  16.0471567  )
        43           Ti1 tau(  43) = (   3.3155128   0.0116264  15.6901768  )
        44           Ti1 tau(  44) = (   6.5575601   4.4671909  15.9479714  )
        45           O1  tau(  45) = (   3.2900926   2.9813045   4.7018136  )
        46           O1  tau(  46) = (   1.3039711   4.4726057   6.0039043  )
        47           O1  tau(  47) = (   5.2763189   4.4711207   6.0039473  )
        48           N1  tau(  48) = (   0.4270260   2.3853988  17.9668900  )
        49           C1  tau(  49) = (   0.9469377   1.9340014  19.0583692  )
        50           H1  tau(  50) = (   1.0789317   2.5769861  19.9249762  )
        51           H1  tau(  51) = (   1.2426487   0.8959138  19.0941702  )
        52           N1  tau(  52) = (   0.0025679   3.6232397  17.7996529  )
        53           H1  tau(  53) = (   0.1020252   4.2324666  18.6151602  )

     number of k points=    10  Fermi-Dirac smearing, width (Ry)=  0.0073
                       cart. coord. in units 2pi/alat
        k(    1) = (   0.0000000   0.0000000   0.0000000), wk =   0.1250000
        k(    2) = (   0.0000000   0.0419351   0.0000000), wk =   0.2500000
        k(    3) = (   0.0000000  -0.0838702   0.0000000), wk =   0.1250000
        k(    4) = (   0.0379955   0.0000049   0.0000000), wk =   0.2500000
        k(    5) = (   0.0379955   0.0419400   0.0000000), wk =   0.2500000
        k(    6) = (   0.0379955  -0.0838652   0.0000000), wk =   0.2500000
        k(    7) = (   0.0379955  -0.0419301   0.0000000), wk =   0.2500000
        k(    8) = (  -0.0759910  -0.0000099   0.0000000), wk =   0.1250000
        k(    9) = (  -0.0759910   0.0419252   0.0000000), wk =   0.2500000
        k(   10) = (  -0.0759910  -0.0838800   0.0000000), wk =   0.1250000

     Initial potential from superposition of free atoms

     starting charge  378.99916, renormalised to  395.00000

     negative rho (up, down):  1.649E-02 0.000E+00

     %%%%%%%%%%%%%%%%%%%%%%%%%%%%%%%%%%%%%%%%%%%%%%%%%%%%%%%%%%%%%%%%%%%%%%%%
     %                                                                      %
     % You are using vdW-DF, which was implemented by the Thonhauser group. %
     % Please cite the following two papers that made this development      %
     % possible and the two reviews that describe the various versions:     %
     %                                                                      %
     %   T. Thonhauser et al., PRL 115, 136402 (2015).                      %
     %   T. Thonhauser et al., PRB 76, 125112 (2007).                       %
     %   K. Berland et al., Rep. Prog. Phys. 78, 066501 (2015).             %
     %   D.C. Langreth et al., J. Phys.: Condens. Matter 21, 084203 (2009). %
     %                                                                      %
     %                                                                      %
     % If you are calculating the stress with vdW-DF, please also cite:     %
     %                                                                      %
     %   R. Sabatini et al., J. Phys.: Condens. Matter 24, 424209 (2012).   %
     %                                                                      %
     %%%%%%%%%%%%%%%%%%%%%%%%%%%%%%%%%%%%%%%%%%%%%%%%%%%%%%%%%%%%%%%%%%%%%%%%

     Adding external electric field

     Computed dipole along edir(3) :
        Dipole               -8.3970 Ry au,        -21.3430 Debye
        Dipole field         -0.0158 Ry au,

        Potential amp.        1.4689 Ry
        Total length         46.3494 bohr

     Starting wfcs are  299 atomic wfcs
  @ DRIVER MODE: Message from server: STATUS
  @ DRIVER MODE: Message from server: POSDATA
  @ DRIVER MODE: Reading and sharing cell
  @ DRIVER MODE: Reading and sharing positions
  @ DRIVER MODE: Received positions

     Self-consistent Calculation

     iteration #  1     ecut=    29.40 Ry     beta= 0.05
     Davidson diagonalization with overlap
     c_bands:  2 eigenvalues not converged
     c_bands:  1 eigenvalues not converged
     c_bands:  2 eigenvalues not converged
     c_bands:  3 eigenvalues not converged
     c_bands:  3 eigenvalues not converged
     c_bands:  2 eigenvalues not converged
     c_bands:  1 eigenvalues not converged
     ethr =  1.00E-05,  avg # of iterations = 19.3

[...]

     total energy              =   -2613.95047284 Ry
     estimated scf accuracy    <    3601.30671546 Ry

[...]

     iteration #  3     ecut=    29.40 Ry     beta= 0.05
     Davidson diagonalization with overlap
     ethr =  1.00E-02,  avg # of iterations = 14.1

[...]

     iteration # 62     ecut=    29.40 Ry     beta= 0.05
     Davidson diagonalization with overlap
     c_bands:  1 eigenvalues not converged
     ethr =  3.10E-11,  avg # of iterations = 16.3

[...]

     total energy              =   -2939.13538642 Ry
     estimated scf accuracy    <       0.00000016 Ry

     iteration # 64     ecut=    29.40 Ry     beta= 0.05
     Davidson diagonalization with overlap
     ethr =  3.10E-11,  avg # of iterations = 10.4

     negative rho (up, down):  1.681E-02 0.000E+00

     Adding external electric field

     Computed dipole along edir(3) :
        Dipole                0.7881 Ry au,          2.0032 Debye
        Dipole field          0.0015 Ry au,

        Potential amp.       -0.1379 Ry
        Total length         46.3494 bohr

     End of self-consistent calculation

          k = 0.0000 0.0000 0.0000 ( 18029 PWs)   bands (ev):

   -55.8529 -55.8516 -55.8188 -55.8156 -55.7459 -55.7030 -55.6649 -55.6635
   -55.6300 -55.6295 -55.6246 -55.5909 -55.1900 -55.1441 -54.8284 -54.7944
   -32.4057 -32.3358 -32.2416 -32.1634 -32.1494 -32.1451 -32.1309 -32.1164
   -32.0959 -32.0826 -32.0297 -32.0117 -32.0053 -32.0034 -31.9931 -31.9898
   -31.9577 -31.9457 -31.9397 -31.9370 -31.9102 -31.9074 -31.8919 -31.8898
   -31.8589 -31.8548 -31.8525 -31.8514 -31.8262 -31.8110 -31.8036 -31.7935
   -31.7812 -31.7791 -31.7717 -31.7381 -31.7314 -31.4544 -31.4171 -31.3898
   -31.3374 -31.3022 -31.2352 -31.1476 -31.1252 -31.0523 -30.9658 -30.8544
   -17.9127 -16.6120 -16.3319 -16.0764 -16.0012 -15.9974 -15.8638 -15.7010
   -15.5883 -15.5213 -15.4410 -15.4112 -15.3893 -15.3536 -15.3473 -15.3096
   -15.3007 -15.2750 -15.2719 -15.2095 -15.2060 -15.1986 -15.1888 -15.1047
   -15.0470 -14.9956 -14.9879 -14.9145 -14.8803 -14.3519 -13.3301 -13.2138
   -12.1602  -7.8723  -5.3669  -4.5303  -3.9888  -3.8294  -3.7598  -3.7252
    -3.6475  -3.4890  -3.4101  -3.1279  -3.0793  -3.0238  -3.0144  -2.9779
    -2.9324  -2.7814  -2.7039  -2.6771  -2.6614  -2.6391  -2.6240  -2.6119
    -2.5958  -2.5767  -2.4956  -2.4146  -2.3702  -2.2935  -2.2800  -2.2448
    -2.1649  -2.1646  -2.1245  -2.1042  -2.0860  -2.0699  -2.0611  -2.0460
    -1.9054  -1.8487  -1.8345  -1.6537  -1.6365  -1.5884  -1.4607  -1.4548
    -1.3387  -1.3235  -1.2833  -1.2456  -1.1727  -1.1511  -1.0396  -0.9982
    -0.9367  -0.8896  -0.8745  -0.7987  -0.7340  -0.6955  -0.6823  -0.6174
    -0.6106  -0.5976  -0.4628  -0.3858  -0.3330  -0.2770  -0.2546  -0.1987
    -0.1591  -0.1159  -0.0284  -0.0014   0.0103   0.0686   0.0902   0.1157
     0.1273   0.1470   0.1761   0.2315   0.3497   0.3813   0.4574   0.4716
     0.5327   0.6665   0.8045   0.8719   0.9242   1.0201   1.1250   1.1945
     1.2677   1.3869   1.7647   1.8101   2.1378   3.2669   3.3689   3.4017
     3.4127   3.5159   3.6648   3.7260   3.7412   3.7826   3.8164

[...]

          k = 0.0380-0.0419 0.0000 ( 17876 PWs)   bands (ev):

[...]

          k =-0.0760-0.0000 0.0000 ( 17886 PWs)   bands (ev):

[...]

          k =-0.0760-0.0839 0.0000 ( 17948 PWs)   bands (ev):

   -55.8360 -55.8355 -55.8341 -55.8329 -55.7373 -55.7116 -55.6482 -55.6468
   -55.6466 -55.6458 -55.6085 -55.6072 -55.1821 -55.1518 -54.8114 -54.8112
   -32.2079 -32.2063 -32.1512 -32.1509 -32.1306 -32.1303 -32.0964 -32.0935
   -32.0843 -32.0678 -32.0020 -31.9994 -31.9938 -31.9921 -31.9702 -31.9626
   -31.9558 -31.9552 -31.9499 -31.9487 -31.9468 -31.9350 -31.9293 -31.9228
   -31.9107 -31.9055 -31.8605 -31.8503 -31.8486 -31.8478 -31.8394 -31.8387
   -31.8256 -31.8249 -31.8243 -31.8230 -31.6839 -31.4497 -31.4159 -31.4114
   -31.3933 -31.3384 -31.1379 -31.1378 -31.0481 -31.0479 -31.0091 -31.0090
   -17.8992 -16.0271 -16.0243 -15.8167 -15.7778 -15.7585 -15.7527 -15.6629
   -15.5772 -15.5437 -15.5407 -15.4535 -15.4276 -15.4115 -15.3954 -15.3899
   -15.3810 -15.3513 -15.3163 -15.3088 -15.2948 -15.2891 -15.2770 -15.2203
   -15.1689 -15.1647 -15.1421 -15.0702 -14.8312 -14.6918 -13.3156 -13.3155
   -12.1210  -7.8130  -5.4117  -4.5910  -3.3216  -3.3121  -3.0658  -3.0229
    -3.0184  -2.9915  -2.9508  -2.7899  -2.7773  -2.7578  -2.7501  -2.7054
    -2.6818  -2.6616  -2.6420  -2.6366  -2.6077  -2.5816  -2.5665  -2.5295
    -2.5224  -2.5137  -2.4822  -2.4714  -2.4245  -2.4195  -2.3988  -2.3713
    -2.3617  -2.3273  -2.1806  -2.1074  -2.0793  -1.9944  -1.9875  -1.9475
    -1.9247  -1.9035  -1.8946  -1.8685  -1.8307  -1.6945  -1.6118  -1.5504
    -1.5417  -1.4572  -1.4295  -1.3678  -1.2783  -1.2525  -1.2318  -1.1601
    -1.0845  -1.0462  -0.9950  -0.9819  -0.9142  -0.9054  -0.8477  -0.8112
    -0.8092  -0.7322  -0.7019  -0.6545  -0.6182  -0.6014  -0.5785  -0.5517
    -0.5361  -0.5131  -0.4376  -0.3530  -0.3013  -0.2401  -0.1476  -0.0176
     0.1022   0.2149   0.2368   0.2812   0.3337   0.3680   0.4612   0.4650
     0.5285   0.5517   0.5935   0.6707   0.6819   0.7064   0.8174   0.8481
     1.5591   1.5594   1.6300   1.6302   2.0783   3.5898   3.6187   3.6378
     3.6696   3.7990   3.8050   3.8153   3.8162   3.9510   3.9548

     the Fermi energy is     3.2768 ev

!    total energy              =   -2939.13542016 Ry
     estimated scf accuracy    <       0.00000006 Ry
     smearing contrib. (-TS)   =      -0.02098924 Ry
     internal energy E=F+TS    =   -2939.11443093 Ry

     The total energy is F=E-TS. E is the sum of the following terms:
     one-electron contribution =  -24492.33723055 Ry
     hartree contribution      =   12334.13322721 Ry
     xc contribution           =    -485.36892404 Ry
     ewald contribution        =    9704.45732425 Ry
     electric field correction =       0.00117221 Ry

     convergence has been achieved in  64 iterations

     Forces acting on atoms (cartesian axes, Ry/au):

     atom    1 type  1   force =     0.00008231   -0.00023642    0.09633428
     atom    2 type  1   force =     0.00005290   -0.00056802   -0.17514562
     atom    3 type  2   force =     0.00015218   -0.00013201   -0.02410275
     atom    4 type  2   force =    -0.00000397   -0.00124645    0.05221133
     atom    5 type  2   force =    -0.01056565   -0.00047816    0.00250867
     atom    6 type  2   force =     0.01238306    0.00022183    0.00288167
     atom    7 type  1   force =     0.00098504    0.00027184   -0.01174477
     atom    8 type  1   force =    -0.00013465    0.00774622    0.02262748
     atom    9 type  2   force =    -0.00019710   -0.00015579   -0.00028617
     atom   10 type  2   force =    -0.00262050    0.00115237   -0.01267114
     atom   11 type  2   force =     0.00006111   -0.00012190    0.00006214
     atom   12 type  2   force =     0.00009223    0.00018691   -0.00038174
     atom   13 type  1   force =     0.00043936   -0.00034885    0.00024468
     atom   14 type  1   force =     0.00015262    0.00032476   -0.00014226
     atom   15 type  2   force =    -0.00023629    0.00013003    0.00002072
     atom   16 type  2   force =     0.00011071   -0.00021486    0.00034035
     atom   17 type  2   force =     0.00048557   -0.00001594    0.00038787
     atom   18 type  2   force =     0.00068906   -0.00017925    0.00029367
     atom   19 type  1   force =    -0.00117598   -0.00001985    0.00023078
     atom   20 type  1   force =     0.00032458   -0.00043227   -0.00050659
     atom   21 type  2   force =     0.00004905    0.00000283    0.10310566
     atom   22 type  2   force =     0.00014355   -0.00027273   -0.00007869
     atom   23 type  2   force =    -0.07162560   -0.00014917   -0.02766927
     atom   24 type  2   force =     0.07156521    0.00035121   -0.02773569
     atom   25 type  1   force =     0.00015677   -0.00023527    0.09587720
     atom   26 type  1   force =     0.00010322   -0.00040609   -0.17542001
     atom   27 type  2   force =     0.00017752   -0.00021535   -0.02293541
     atom   28 type  2   force =     0.00006447   -0.00101385    0.05217217
     atom   29 type  2   force =    -0.01086507    0.00047833    0.00243168
     atom   30 type  2   force =     0.01255896    0.00063950    0.00277810
     atom   31 type  1   force =     0.00086835    0.00348543   -0.01292745
     atom   32 type  1   force =     0.00002761   -0.00925401    0.02305282
     atom   33 type  2   force =    -0.00048200    0.00013672    0.00021545
     atom   34 type  2   force =    -0.00302543    0.00022897   -0.01288764
     atom   35 type  2   force =     0.00008685    0.00008563   -0.00007536
     atom   36 type  2   force =     0.00009829    0.00033102   -0.00039097
     atom   37 type  1   force =     0.00033693    0.00036946    0.00007700
     atom   38 type  1   force =     0.00002653   -0.00043704    0.00015027
     atom   39 type  2   force =     0.00015263    0.00044001    0.00052702
     atom   40 type  2   force =     0.00035578    0.00013228   -0.00038843
     atom   41 type  2   force =     0.00039810    0.00004013    0.00029108
     atom   42 type  2   force =     0.00093353    0.00003322    0.00052946
     atom   43 type  1   force =    -0.00155788   -0.00037401   -0.00032338
     atom   44 type  1   force =     0.00070282   -0.00026929   -0.00072913
     atom   45 type  2   force =     0.00005919   -0.00003898    0.10307942
     atom   46 type  2   force =    -0.07165168   -0.00007597   -0.02769174
     atom   47 type  2   force =     0.07159086    0.00032172   -0.02775534
     atom   48 type  3   force =    -0.00008112   -0.00154888   -0.00029206
     atom   49 type  4   force =     0.00081639   -0.00288460    0.00000933
     atom   50 type  5   force =    -0.00107055    0.00081806    0.00064481
     atom   51 type  5   force =    -0.00125066    0.00269793   -0.00033403
     atom   52 type  3   force =    -0.00060538    0.00070345   -0.00123004
     atom   53 type  5   force =    -0.00013384   -0.00000482    0.00076057

     Total force =     0.365756     Total SCF correction =     0.001198
  @ DRIVER MODE: Message from server: STATUS
  @ DRIVER MODE: Message from server: GETFORCE
  @ DRIVER MODE: Returning v,forces,stress,ensemble

     Writing output data file ./calc.save/
  @ DRIVER MODE: Message from server: EXIT
  @ DRIVE MODE: Exiting

     General routines

     Parallel routines

   This run was terminated on:   4:14:16   9Sep2021

   JOB DONE.