     Program PWSCF v.6.7GPU starts on 16Sep2021 at  2:12:28

     R & G space division:  proc/nbgrp/npool/nimage =      10
     Reading input from /storage/home/hcoda1/3/ntian30/research/carbon/CxH_vib/H2O_calc/ads_slab/CH2N2HH2O_a/out_0032/pw.inp
Warning: card &CELL ignored
Warning: card   CELL_DYNAMICS='IPI', ignored
Warning: card / ignored

     Current dimensions of program PWSCF are:
     Max number of different atomic species (ntypx) = 10
     Max number of k-points (npk) =  40000
     Max angular momentum in pseudopotentials (lmaxx) =  3
     Presently no symmetry can be used with electric field

     Message from routine cell_base_init:
     DEPRECATED: use true lattice parameter, not A to a.u. conversion factor

     IMPORTANT: XC functional enforced from input :
     Exchange-correlation= BEEF-VDW
                           (   1   4  43  14   2   0   0)
     Any further DFT definition will be discarded
     Please, verify this is what you really want

  @ DRIVER MODE: Connecting to
 qe_1139763_2852606.sched-torque.pace.gatech.eduthke683f_scratch
  using UNIX socket
  @ DRIVER MODE: Message from server: STATUS
  @ DRIVER MODE: Message from server: INIT
  @ DRIVER MODE: Receiving replica           0          -1
  @ DRIVER MODE: Receiving encoded integer          25
  @ DRIVER MODE:  SCF:  T  FORCE:  T  STRESS:  F  VC:  F  ENSEMBLE:  F
  @ DRIVER MODE:  SCF:  T  FORCE:  T  STRESS:  F  VC:  F  ENSEMBLE:  F

     Using Slab Decomposition

     bravais-lattice index     =            0
     lattice parameter (alat)  =       1.8897  a.u.
     unit-cell volume          =    6658.9804 (a.u.)^3
     number of atoms/cell      =           56
     number of atomic types    =            5
     number of electrons       =       403.00
     number of Kohn-Sham states=          211
     kinetic-energy cutoff     =      29.3995  Ry
     charge density cutoff     =     293.9946  Ry
     scf convergence threshold =      7.3E-08
     mixing beta               =       0.0500
     number of iterations used =            8  plain     mixing
     Exchange-correlation= BEEF-VDW
                           (   1   4  43  14   2   0   0)

     celldm(1)=   1.889726  celldm(2)=   0.000000  celldm(3)=   0.000000
     celldm(4)=   0.000000  celldm(5)=   0.000000  celldm(6)=   0.000000

     crystal axes: (cart. coord. in units of alat)
               a(1) = (   6.579727   0.000000   0.000000 )
               a(2) = (  -0.000775   5.961596   0.000000 )
               a(3) = (   0.000000   0.000000  25.155947 )

     reciprocal axes: (cart. coord. in units 2 pi/alat)
               b(1) = (  0.151982  0.000020  0.000000 )
               b(2) = (  0.000000  0.167740  0.000000 )
               b(3) = (  0.000000  0.000000  0.039752 )

     PseudoPot. # 1 for Ti read from file:
     /storage/coda1/p-amedford6/0/shared/rich_project_chbe-medford/medford-share/data/pseudos_module/espresso/nninc/pbe/van/Ti.UPF
     MD5 check sum: 8e4df49b7f0d34bbd5052bf3f5ea0213
     Pseudo is Ultrasoft, Zval = 12.0
     Generated by new atomic code, or converted to UPF format
     Using radial grid of  851 points,  6 beta functions with:
                l(1) =   0
                l(2) =   0
                l(3) =   1
                l(4) =   1
                l(5) =   2
                l(6) =   2
     Q(r) pseudized with  8 coefficients,  rinner =    1.000   1.000   1.000
                                                       1.000   1.000

     PseudoPot. # 2 for O  read from file:
     /storage/coda1/p-amedford6/0/shared/rich_project_chbe-medford/medford-share/data/pseudos_module/espresso/nninc/pbe/van/O.UPF
     MD5 check sum: 78c19812648e8988a0fe644b0f25305e
     Pseudo is Ultrasoft, Zval =  6.0
     Generated by new atomic code, or converted to UPF format
     Using radial grid of  737 points,  4 beta functions with:
                l(1) =   0
                l(2) =   0
                l(3) =   1
                l(4) =   1
     Q(r) pseudized with  8 coefficients,  rinner =    0.800   0.800   0.800

     PseudoPot. # 3 for N  read from file:
     /storage/coda1/p-amedford6/0/shared/rich_project_chbe-medford/medford-share/data/pseudos_module/espresso/nninc/pbe/van/N.UPF
     MD5 check sum: 90d10febe142ad51ac9d5be1deb811c4
     Pseudo is Ultrasoft, Zval =  5.0
     Generated by new atomic code, or converted to UPF format
     Using radial grid of  729 points,  4 beta functions with:
                l(1) =   0
                l(2) =   0
                l(3) =   1
                l(4) =   1
     Q(r) pseudized with  8 coefficients,  rinner =    0.800   0.800   0.800

     PseudoPot. # 4 for C  read from file:
     /storage/coda1/p-amedford6/0/shared/rich_project_chbe-medford/medford-share/data/pseudos_module/espresso/nninc/pbe/van/C.UPF
     MD5 check sum: 1a69bf6b8db32088f5b2163dbdb77a27
     Pseudo is Ultrasoft, Zval =  4.0
     Generated by new atomic code, or converted to UPF format
     Using radial grid of  721 points,  4 beta functions with:
                l(1) =   0
                l(2) =   0
                l(3) =   1
                l(4) =   1
     Q(r) pseudized with  8 coefficients,  rinner =    0.800   0.800   0.800

     PseudoPot. # 5 for H  read from file:
     /storage/coda1/p-amedford6/0/shared/rich_project_chbe-medford/medford-share/data/pseudos_module/espresso/nninc/pbe/van/H.UPF
     MD5 check sum: b5ee9d7bfd3a09ee7748110bda690ff7
     Pseudo is Ultrasoft, Zval =  1.0
     Generated by new atomic code, or converted to UPF format
     Using radial grid of  615 points,  1 beta functions with:
                l(1) =   0
     Q(r) pseudized with  8 coefficients,  rinner =    0.800

     atomic species   valence    mass     pseudopotential
        Ti1           12.00    47.86700     Ti( 1.00)
        O1             6.00    15.99900     O ( 1.00)
        N1             5.00    14.00700     N ( 1.00)
        C1             4.00    12.01100     C ( 1.00)
        H1             1.00     1.00800     H ( 1.00)

     No symmetry found

   Cartesian axes

     site n.     atom                  positions (alat units)
         1           Ti1 tau(   1) = (   0.0004258   2.9801865   6.0000000  )
         2           Ti1 tau(   2) = (   3.2906075   1.4906267   6.0002472  )
         3           O1  tau(   3) = (   0.0006271   0.0005054   7.9858123  )
         4           O1  tau(   4) = (   3.2906025   0.0005020   7.3038282  )
         5           O1  tau(   5) = (   4.5942328   1.4918067   9.2879030  )
         6           O1  tau(   6) = (   1.9868534   1.4903216   9.2879459  )
         7           Ti1 tau(   7) = (   3.2907910   2.8959150   9.1758416  )
         8           Ti1 tau(   8) = (   0.0015273   1.4827037   9.2680791  )
         9           O1  tau(   9) = (   3.2932810   5.9556063  11.3276769  )
        10           O1  tau(  10) = (   0.0116148   5.9584955  10.6183126  )
        11           O1  tau(  11) = (   1.2966828   1.5020869  12.6141357  )
        12           O1  tau(  12) = (   5.2995835   1.4923495  12.6341875  )
        13           Ti1 tau(  13) = (   6.5470072   2.9473109  12.5798724  )
        14           Ti1 tau(  14) = (   3.2302912   1.4573256  12.5082679  )
        15           O1  tau(  15) = (   0.0525813   0.0137714  14.6435187  )
        16           O1  tau(  16) = (   3.2708393   0.0302713  13.9228694  )
        17           O1  tau(  17) = (   4.5627544   1.5900677  16.0055000  )
        18           O1  tau(  18) = (   2.0437599   1.5040777  16.0764052  )
        19           Ti1 tau(  19) = (   3.3063064   2.9825517  15.6619520  )
        20           Ti1 tau(  20) = (   6.5607061   1.3194196  15.9785141  )
        21           O1  tau(  21) = (   3.2904802   0.0005063   4.7018136  )
        22           O1  tau(  22) = (   6.3855286   5.9589440  17.1610702  )
        23           O1  tau(  23) = (   1.3043587   1.4918075   6.0039043  )
        24           O1  tau(  24) = (   5.2767064   1.4903225   6.0039473  )
        25           Ti1 tau(  25) = (   0.0000382   5.9609847   6.0000000  )
        26           Ti1 tau(  26) = (   3.2902200   4.4714249   6.0002472  )
        27           O1  tau(  27) = (   0.0002396   2.9813036   7.9858123  )
        28           O1  tau(  28) = (   3.2902150   2.9813002   7.3038282  )
        29           O1  tau(  29) = (   4.5938453   4.4726049   9.2879030  )
        30           O1  tau(  30) = (   1.9864658   4.4711199   9.2879459  )
        31           Ti1 tau(  31) = (   3.2891106   5.8743827   9.1763621  )
        32           Ti1 tau(  32) = (   0.0006254   4.4649316   9.2693709  )
        33           O1  tau(  33) = (   3.2946552   2.9814125  11.3288906  )
        34           O1  tau(  34) = (   0.0092240   2.9805883  10.6323155  )
        35           O1  tau(  35) = (   1.2978438   4.4726441  12.6233041  )
        36           O1  tau(  36) = (   5.2969606   4.4732664  12.6435870  )
        37           Ti1 tau(  37) = (   6.5415350   5.9305516  12.5357152  )
        38           Ti1 tau(  38) = (   3.2303862   4.4559975  12.4807118  )
        39           O1  tau(  39) = (   0.0164246   2.9899045  14.7829194  )
        40           O1  tau(  40) = (   3.2688228   2.9752494  13.8698570  )
        41           O1  tau(  41) = (   4.5210259   4.4573316  15.9082071  )
        42           O1  tau(  42) = (   2.0412773   4.4882057  16.0214637  )
        43           Ti1 tau(  43) = (   3.2233344   5.9452837  15.7820064  )
        44           Ti1 tau(  44) = (   6.5355943   4.4735413  15.8975681  )
        45           O1  tau(  45) = (   3.2900926   2.9813045   4.7018136  )
        46           O1  tau(  46) = (   1.3039711   4.4726057   6.0039043  )
        47           O1  tau(  47) = (   5.2763189   4.4711207   6.0039473  )
        48           N1  tau(  48) = (   0.2167872   2.3688911  18.0161765  )
        49           C1  tau(  49) = (   0.4968348   1.8934616  19.1878903  )
        50           H1  tau(  50) = (   0.5617972   2.5522217  20.0513624  )
        51           H1  tau(  51) = (   0.6371857   0.8299532  19.2874115  )
        52           N1  tau(  52) = (   6.5661014   3.6386027  17.7750644  )
        53           H1  tau(  53) = (   0.0813089   4.2532688  18.5884219  )
        54           O1  tau(  54) = (   3.6608114   5.9026821  18.0962282  )
        55           H1  tau(  55) = (   4.6425638   0.0038819  18.0438526  )
        56           H1  tau(  56) = (   3.3558581   0.7595698  18.5153002  )

     number of k points=    10  Fermi-Dirac smearing, width (Ry)=  0.0073
                       cart. coord. in units 2pi/alat
        k(    1) = (   0.0000000   0.0000000   0.0000000), wk =   0.1250000
        k(    2) = (   0.0000000   0.0419351   0.0000000), wk =   0.2500000
        k(    3) = (   0.0000000  -0.0838702   0.0000000), wk =   0.1250000
        k(    4) = (   0.0379955   0.0000049   0.0000000), wk =   0.2500000
        k(    5) = (   0.0379955   0.0419400   0.0000000), wk =   0.2500000
        k(    6) = (   0.0379955  -0.0838652   0.0000000), wk =   0.2500000
        k(    7) = (   0.0379955  -0.0419301   0.0000000), wk =   0.2500000
        k(    8) = (  -0.0759910  -0.0000099   0.0000000), wk =   0.1250000
        k(    9) = (  -0.0759910   0.0419252   0.0000000), wk =   0.2500000
        k(   10) = (  -0.0759910  -0.0838800   0.0000000), wk =   0.1250000

     Initial potential from superposition of free atoms

     starting charge  386.99914, renormalised to  403.00000

     negative rho (up, down):  1.554E-02 0.000E+00

     %%%%%%%%%%%%%%%%%%%%%%%%%%%%%%%%%%%%%%%%%%%%%%%%%%%%%%%%%%%%%%%%%%%%%%%%
     %                                                                      %
     % You are using vdW-DF, which was implemented by the Thonhauser group. %
     % Please cite the following two papers that made this development      %
     % possible and the two reviews that describe the various versions:     %
     %                                                                      %
     %   T. Thonhauser et al., PRL 115, 136402 (2015).                      %
     %   T. Thonhauser et al., PRB 76, 125112 (2007).                       %
     %   K. Berland et al., Rep. Prog. Phys. 78, 066501 (2015).             %
     %   D.C. Langreth et al., J. Phys.: Condens. Matter 21, 084203 (2009). %
     %                                                                      %
     %                                                                      %
     % If you are calculating the stress with vdW-DF, please also cite:     %
     %                                                                      %
     %   R. Sabatini et al., J. Phys.: Condens. Matter 24, 424209 (2012).   %
     %                                                                      %
     %%%%%%%%%%%%%%%%%%%%%%%%%%%%%%%%%%%%%%%%%%%%%%%%%%%%%%%%%%%%%%%%%%%%%%%%

     Adding external electric field

     Computed dipole along edir(3) :
        Dipole              -12.7952 Ry au,        -32.5221 Debye
        Dipole field         -0.0241 Ry au,

        Potential amp.        2.2383 Ry
        Total length         46.3494 bohr

     Starting wfcs are  305 atomic wfcs
  @ DRIVER MODE: Message from server: STATUS
  @ DRIVER MODE: Message from server: POSDATA
  @ DRIVER MODE: Reading and sharing cell
  @ DRIVER MODE: Reading and sharing positions
  @ DRIVER MODE: Received positions

     Self-consistent Calculation

     iteration #  1     ecut=    29.40 Ry     beta= 0.05
     Davidson diagonalization with overlap
     c_bands:  3 eigenvalues not converged
     c_bands:  3 eigenvalues not converged
     c_bands:  4 eigenvalues not converged
     c_bands:  5 eigenvalues not converged
     c_bands:  1 eigenvalues not converged
     c_bands:  1 eigenvalues not converged
     c_bands:  4 eigenvalues not converged
     c_bands:  3 eigenvalues not converged
     ethr =  1.00E-05,  avg # of iterations = 27.5

[...]

     total energy              =   -2369.06156880 Ry
     estimated scf accuracy    <    6884.45277982 Ry

     iteration #  2     ecut=    29.40 Ry     beta= 0.05
     Davidson diagonalization with overlap
     ethr =  1.00E-02,  avg # of iterations = 25.2

[...]

     iteration # 62     ecut=    29.40 Ry     beta= 0.05
     Davidson diagonalization with overlap
     c_bands:  1 eigenvalues not converged
     ethr =  1.86E-08,  avg # of iterations = 15.4

[...]

     total energy              =   -2973.98335722 Ry
     estimated scf accuracy    <       0.00000010 Ry

     iteration # 81     ecut=    29.40 Ry     beta= 0.05
     Davidson diagonalization with overlap
     ethr =  2.41E-11,  avg # of iterations =  9.2

     negative rho (up, down):  1.541E-02 0.000E+00

     Adding external electric field

     Computed dipole along edir(3) :
        Dipole                0.9237 Ry au,          2.3477 Debye
        Dipole field          0.0017 Ry au,

        Potential amp.       -0.1616 Ry
        Total length         46.3494 bohr

     End of self-consistent calculation

          k = 0.0000 0.0000 0.0000 ( 18029 PWs)   bands (ev):

   -55.6137 -55.5857 -55.5796 -55.5477 -55.4950 -55.4840 -55.4533 -55.4311
   -55.3971 -55.3928 -55.3587 -55.3357 -55.0420 -54.9916 -54.5934 -54.5593
   -32.1297 -32.0977 -31.9858 -31.9309 -31.9178 -31.9055 -31.8840 -31.8712
   -31.8581 -31.8172 -31.7661 -31.7622 -31.7340 -31.7334 -31.7299 -31.7196
   -31.7150 -31.7118 -31.7087 -31.7063 -31.6758 -31.6710 -31.6621 -31.6344
   -31.6249 -31.6240 -31.6168 -31.6136 -31.5984 -31.5902 -31.5730 -31.5597
   -31.5474 -31.5410 -31.5361 -31.5061 -31.5038 -31.3055 -31.2663 -31.2431
   -31.1900 -31.1473 -31.0002 -30.9123 -30.8899 -30.8173 -30.7308 -30.6194
   -18.6653 -17.9052 -16.3334 -16.0911 -15.8516 -15.7744 -15.7420 -15.5284
   -15.4254 -15.3698 -15.2345 -15.1854 -15.1721 -15.1518 -15.1268 -15.0929
   -15.0666 -15.0529 -15.0460 -15.0295 -15.0041 -14.9776 -14.9571 -14.9532
   -14.9121 -14.8434 -14.7740 -14.7484 -14.6866 -14.6744 -14.2341 -13.0944
   -12.9779 -12.0719  -7.8415  -6.4493  -5.3015  -4.4982  -3.7072  -3.5692
    -3.5216  -3.4722  -3.4636  -3.2740  -3.1893  -3.0585  -2.8975  -2.8501
    -2.7798  -2.7422  -2.7029  -2.6404  -2.5995  -2.4935  -2.4559  -2.4262
    -2.4109  -2.3659  -2.3605  -2.3565  -2.2953  -2.2585  -2.1800  -2.1537
    -2.0742  -2.0044  -1.9762  -1.9497  -1.9276  -1.9106  -1.9071  -1.8579
    -1.8568  -1.8549  -1.7833  -1.7359  -1.6608  -1.6148  -1.5578  -1.4183
    -1.3770  -1.2672  -1.2212  -1.0998  -1.0960  -1.0734  -1.0489  -1.0099
    -1.0020  -0.8784  -0.7931  -0.7437  -0.7082  -0.6459  -0.5425  -0.5219
    -0.4328  -0.4278  -0.3739  -0.3606  -0.3451  -0.3159  -0.2378  -0.1243
    -0.1060  -0.0457   0.0035   0.0663   0.1099   0.1348   0.1725   0.2227
     0.2462   0.2875   0.3141   0.3249   0.3581   0.3959   0.4180   0.4962
     0.5690   0.6185   0.6676   0.7081   0.7126   0.8898   1.0021   1.0411
     1.1720   1.1963   1.3626   1.4303   1.5003   1.6221   2.0004   2.0461
     2.2153   3.4941   3.6078   3.6322   3.6422   3.7455   3.8787   3.9617
     4.0023   4.0268   4.0657

[...]

          k = 0.0380-0.0419 0.0000 ( 17876 PWs)   bands (ev):

[...]

          k =-0.0760-0.0000 0.0000 ( 17886 PWs)   bands (ev):

[...]

          k =-0.0760-0.0839 0.0000 ( 17948 PWs)   bands (ev):

   -55.5967 -55.5964 -55.5730 -55.5601 -55.4859 -55.4819 -55.4623 -55.4143
   -55.4133 -55.3784 -55.3733 -55.3377 -55.0351 -54.9984 -54.5765 -54.5761
   -31.9460 -31.9208 -31.9131 -31.9129 -31.8911 -31.8908 -31.8258 -31.8212
   -31.8129 -31.8079 -31.7895 -31.7390 -31.7353 -31.7321 -31.7231 -31.7215
   -31.7194 -31.7166 -31.7158 -31.7142 -31.7128 -31.7001 -31.6907 -31.6760
   -31.6734 -31.6687 -31.6475 -31.6185 -31.6175 -31.6080 -31.5992 -31.5950
   -31.5918 -31.5908 -31.5894 -31.5447 -31.5188 -31.2941 -31.2687 -31.2632
   -31.2470 -31.1910 -30.9027 -30.9025 -30.8131 -30.8128 -30.7741 -30.7740
   -18.6633 -17.8925 -15.7744 -15.6813 -15.5942 -15.5521 -15.4736 -15.4550
   -15.4011 -15.3361 -15.2978 -15.2793 -15.2379 -15.2093 -15.1648 -15.1524
   -15.1446 -15.1210 -15.0970 -15.0726 -15.0614 -15.0553 -15.0507 -15.0373
   -15.0037 -14.9718 -14.9350 -14.9311 -14.9027 -14.6600 -14.5833 -13.0798
   -13.0797 -12.0249  -7.7638  -6.4432  -5.3667  -4.5684  -3.1863  -3.0623
    -2.8915  -2.8514  -2.8040  -2.7504  -2.7425  -2.6883  -2.5638  -2.5547
    -2.5240  -2.4595  -2.4361  -2.4330  -2.4243  -2.4204  -2.3995  -2.3628
    -2.3619  -2.3072  -2.2981  -2.2869  -2.2816  -2.2628  -2.2460  -2.2430
    -2.2193  -2.1730  -2.1583  -2.1426  -2.0361  -1.9350  -1.8775  -1.8395
    -1.8086  -1.7623  -1.7574  -1.7371  -1.7216  -1.6833  -1.6672  -1.6113
    -1.4965  -1.4182  -1.3317  -1.3016  -1.2723  -1.2021  -1.1571  -1.0928
    -1.0524  -1.0468  -0.9633  -0.8487  -0.8357  -0.7985  -0.7707  -0.6943
    -0.6656  -0.6333  -0.5724  -0.5656  -0.5382  -0.5097  -0.4743  -0.3820
    -0.3643  -0.3580  -0.3282  -0.3193  -0.3081  -0.2674  -0.1939  -0.0952
    -0.0235  -0.0170   0.0887   0.2161   0.3132   0.4449   0.4733   0.5213
     0.5745   0.6093   0.6919   0.6997   0.7257   0.7896   0.8327   0.9006
     0.9247   0.9399   1.0257   1.0328   1.7942   1.7954   1.8661   1.8662
     2.1592   3.8585   3.8869   3.9074   3.9522   4.0296   4.0536   4.0545
     4.0604   4.1766   4.1837

     the Fermi energy is     3.5130 ev

!    total energy              =   -2973.98336616 Ry
     estimated scf accuracy    <       0.00000004 Ry
     smearing contrib. (-TS)   =      -0.02040547 Ry
     internal energy E=F+TS    =   -2973.96296068 Ry

     The total energy is F=E-TS. E is the sum of the following terms:
     one-electron contribution =  -24204.24770709 Ry
     hartree contribution      =   12196.75248322 Ry
     xc contribution           =    -494.25965431 Ry
     ewald contribution        =    9527.79030747 Ry
     electric field correction =       0.00161002 Ry

     convergence has been achieved in  81 iterations

     Forces acting on atoms (cartesian axes, Ry/au):

     atom    1 type  1   force =    -0.00006040   -0.00019082    0.09553393
     atom    2 type  1   force =     0.00002577   -0.00036167   -0.17557369
     atom    3 type  2   force =     0.00009526   -0.00012450   -0.02315226
     atom    4 type  2   force =     0.00000783   -0.00139177    0.05290024
     atom    5 type  2   force =    -0.00999868   -0.00075338    0.00324757
     atom    6 type  2   force =     0.01152963   -0.00009528    0.00282353
     atom    7 type  1   force =     0.00046420    0.00027458   -0.00664188
     atom    8 type  1   force =     0.00029064    0.00537392    0.01758004
     atom    9 type  2   force =    -0.00014873   -0.00015506   -0.00039079
     atom   10 type  2   force =    -0.00346291    0.00075212   -0.01265686
     atom   11 type  2   force =    -0.00080779   -0.00032703    0.00008958
     atom   12 type  2   force =     0.00032701   -0.00017404    0.00009813
     atom   13 type  1   force =    -0.00026637    0.00039679   -0.00021835
     atom   14 type  1   force =     0.00021658    0.00002689    0.00066102
     atom   15 type  2   force =    -0.00009649    0.00006050   -0.00038501
     atom   16 type  2   force =    -0.00003726   -0.00022523   -0.00006491
     atom   17 type  2   force =     0.00049693   -0.00012033   -0.00007626
     atom   18 type  2   force =    -0.00024220   -0.00037226   -0.00002069
     atom   19 type  1   force =    -0.00008474   -0.00013269    0.00029286
     atom   20 type  1   force =     0.00047310   -0.00006738   -0.00034333
     atom   21 type  2   force =     0.00007100    0.00003442    0.10320094
     atom   22 type  2   force =     0.00013657   -0.00001559   -0.00007240
     atom   23 type  2   force =    -0.07160799   -0.00013333   -0.02754477
     atom   24 type  2   force =     0.07153584    0.00036766   -0.02758577
     atom   25 type  1   force =     0.00018888   -0.00009191    0.09520372
     atom   26 type  1   force =     0.00008367   -0.00039944   -0.17575352
     atom   27 type  2   force =     0.00011223   -0.00024043   -0.02207241
     atom   28 type  2   force =     0.00002808   -0.00099069    0.05230344
     atom   29 type  2   force =    -0.01014931    0.00037181    0.00285326
     atom   30 type  2   force =     0.01154960    0.00074791    0.00247482
     atom   31 type  1   force =     0.00027990    0.00393360   -0.01132121
     atom   32 type  1   force =     0.00045879   -0.00672926    0.01786957
     atom   33 type  2   force =    -0.00007832    0.00005135   -0.00019617
     atom   34 type  2   force =    -0.00395444    0.00073613   -0.01213724
     atom   35 type  2   force =    -0.00021130    0.00008338   -0.00017263
     atom   36 type  2   force =    -0.00000440    0.00003405   -0.00008311
     atom   37 type  1   force =    -0.00004671   -0.00041843    0.00037392
     atom   38 type  1   force =     0.00006357    0.00002117    0.00039617
     atom   39 type  2   force =     0.00035143   -0.00033783    0.00024712
     atom   40 type  2   force =    -0.00050488    0.00027163   -0.00007871
     atom   41 type  2   force =     0.00007981    0.00007629   -0.00017892
     atom   42 type  2   force =     0.00030583    0.00018329    0.00028234
     atom   43 type  1   force =    -0.00010140   -0.00031189   -0.00000551
     atom   44 type  1   force =    -0.00028388   -0.00007923    0.00008522
     atom   45 type  2   force =     0.00007351   -0.00000159    0.10315419
     atom   46 type  2   force =    -0.07160792   -0.00003874   -0.02751777
     atom   47 type  2   force =     0.07154083    0.00035179   -0.02760889
     atom   48 type  3   force =    -0.00030509   -0.00027607   -0.00039343
     atom   49 type  4   force =     0.00098610   -0.00011605    0.00016138
     atom   50 type  5   force =     0.00032662   -0.00022026    0.00041058
     atom   51 type  5   force =     0.00048240   -0.00027869    0.00006531
     atom   52 type  3   force =     0.00077712    0.00084497    0.00110981
     atom   53 type  5   force =    -0.00012115   -0.00004091   -0.00125791
     atom   54 type  2   force =    -0.00065085   -0.00131424   -0.00066165
     atom   55 type  5   force =     0.00176043   -0.00004442    0.00019219
     atom   56 type  5   force =    -0.00028593    0.00157619    0.00055518

     Total force =     0.364744     Total SCF correction =     0.000502
  @ DRIVER MODE: Message from server: STATUS
  @ DRIVER MODE: Message from server: GETFORCE
  @ DRIVER MODE: Returning v,forces,stress,ensemble

     Writing output data file ./calc.save/
  @ DRIVER MODE: Message from server: EXIT
  @ DRIVE MODE: Exiting

     General routines

     Parallel routines

   This run was terminated on:   2:36:12  16Sep2021

   JOB DONE.