     Program PWSCF v.6.7GPU starts on 23Sep2021 at  2:40:37

     R & G space division:  proc/nbgrp/npool/nimage =      10
     Reading input from /storage/home/hcoda1/3/ntian30/research/carbon/CxH_vib/H2O_calc/ads_slab/CH3OHO_a/out_0033/pw.inp
Warning: card &CELL ignored
Warning: card   CELL_DYNAMICS='IPI', ignored
Warning: card / ignored

     Current dimensions of program PWSCF are:
     Max number of different atomic species (ntypx) = 10
     Max number of k-points (npk) =  40000
     Max angular momentum in pseudopotentials (lmaxx) =  3
     Presently no symmetry can be used with electric field

     Message from routine cell_base_init:
     DEPRECATED: use true lattice parameter, not A to a.u. conversion factor

     IMPORTANT: XC functional enforced from input :
     Exchange-correlation= BEEF-VDW
                           (   1   4  43  14   2   0   0)
     Any further DFT definition will be discarded
     Please, verify this is what you really want

  @ DRIVER MODE: Connecting to
 qe_1139763_2937320.sched-torque.pace.gatech.edu0s8rydam_scratch
  using UNIX socket
  @ DRIVER MODE: Message from server: STATUS
  @ DRIVER MODE: Message from server: INIT
  @ DRIVER MODE: Receiving replica           0          -1
  @ DRIVER MODE: Receiving encoded integer          25
  @ DRIVER MODE:  SCF:  T  FORCE:  T  STRESS:  F  VC:  F  ENSEMBLE:  F
  @ DRIVER MODE:  SCF:  T  FORCE:  T  STRESS:  F  VC:  F  ENSEMBLE:  F

     Using Slab Decomposition

     bravais-lattice index     =            0
     lattice parameter (alat)  =       1.8897  a.u.
     unit-cell volume          =    6658.9804 (a.u.)^3
     number of atoms/cell      =           54
     number of atomic types    =            4
     number of electrons       =       398.00
     number of Kohn-Sham states=          209
     kinetic-energy cutoff     =      29.3995  Ry
     charge density cutoff     =     293.9946  Ry
     scf convergence threshold =      7.3E-08
     mixing beta               =       0.0500
     number of iterations used =            8  plain     mixing
     Exchange-correlation= BEEF-VDW
                           (   1   4  43  14   2   0   0)

     celldm(1)=   1.889726  celldm(2)=   0.000000  celldm(3)=   0.000000
     celldm(4)=   0.000000  celldm(5)=   0.000000  celldm(6)=   0.000000

     crystal axes: (cart. coord. in units of alat)
               a(1) = (   6.579727   0.000000   0.000000 )
               a(2) = (  -0.000775   5.961596   0.000000 )
               a(3) = (   0.000000   0.000000  25.155947 )

     reciprocal axes: (cart. coord. in units 2 pi/alat)
               b(1) = (  0.151982  0.000020  0.000000 )
               b(2) = (  0.000000  0.167740  0.000000 )
               b(3) = (  0.000000  0.000000  0.039752 )

     PseudoPot. # 1 for Ti read from file:
     /storage/coda1/p-amedford6/0/shared/rich_project_chbe-medford/medford-share/data/pseudos_module/espresso/nninc/pbe/van/Ti.UPF
     MD5 check sum: 8e4df49b7f0d34bbd5052bf3f5ea0213
     Pseudo is Ultrasoft, Zval = 12.0
     Generated by new atomic code, or converted to UPF format
     Using radial grid of  851 points,  6 beta functions with:
                l(1) =   0
                l(2) =   0
                l(3) =   1
                l(4) =   1
                l(5) =   2
                l(6) =   2
     Q(r) pseudized with  8 coefficients,  rinner =    1.000   1.000   1.000
                                                       1.000   1.000

     PseudoPot. # 2 for O  read from file:
     /storage/coda1/p-amedford6/0/shared/rich_project_chbe-medford/medford-share/data/pseudos_module/espresso/nninc/pbe/van/O.UPF
     MD5 check sum: 78c19812648e8988a0fe644b0f25305e
     Pseudo is Ultrasoft, Zval =  6.0
     Generated by new atomic code, or converted to UPF format
     Using radial grid of  737 points,  4 beta functions with:
                l(1) =   0
                l(2) =   0
                l(3) =   1
                l(4) =   1
     Q(r) pseudized with  8 coefficients,  rinner =    0.800   0.800   0.800

     PseudoPot. # 3 for C  read from file:
     /storage/coda1/p-amedford6/0/shared/rich_project_chbe-medford/medford-share/data/pseudos_module/espresso/nninc/pbe/van/C.UPF
     MD5 check sum: 1a69bf6b8db32088f5b2163dbdb77a27
     Pseudo is Ultrasoft, Zval =  4.0
     Generated by new atomic code, or converted to UPF format
     Using radial grid of  721 points,  4 beta functions with:
                l(1) =   0
                l(2) =   0
                l(3) =   1
                l(4) =   1
     Q(r) pseudized with  8 coefficients,  rinner =    0.800   0.800   0.800

     PseudoPot. # 4 for H  read from file:
     /storage/coda1/p-amedford6/0/shared/rich_project_chbe-medford/medford-share/data/pseudos_module/espresso/nninc/pbe/van/H.UPF
     MD5 check sum: b5ee9d7bfd3a09ee7748110bda690ff7
     Pseudo is Ultrasoft, Zval =  1.0
     Generated by new atomic code, or converted to UPF format
     Using radial grid of  615 points,  1 beta functions with:
                l(1) =   0
     Q(r) pseudized with  8 coefficients,  rinner =    0.800

     atomic species   valence    mass     pseudopotential
        Ti1           12.00    47.86700     Ti( 1.00)
        O1             6.00    15.99900     O ( 1.00)
        C1             4.00    12.01100     C ( 1.00)
        H1             1.00     1.00800     H ( 1.00)

     No symmetry found

   Cartesian axes

     site n.     atom                  positions (alat units)
         1           Ti1 tau(   1) = (   0.0004258   2.9801865   6.0000000  )
         2           Ti1 tau(   2) = (   3.2906075   1.4906267   6.0002472  )
         3           O1  tau(   3) = (   0.0006271   0.0005054   7.9858123  )
         4           O1  tau(   4) = (   3.2906025   0.0005020   7.3038282  )
         5           O1  tau(   5) = (   4.5942328   1.4918067   9.2879030  )
         6           O1  tau(   6) = (   1.9868534   1.4903216   9.2879459  )
         7           Ti1 tau(   7) = (   3.2957662   3.1068914   9.2181075  )
         8           Ti1 tau(   8) = (   0.0157633   1.6119101   9.3474628  )
         9           O1  tau(   9) = (   3.3075722   0.0245345  11.3221904  )
        10           O1  tau(  10) = (   0.0080709   0.0223756  10.5933645  )
        11           O1  tau(  11) = (   1.2996580   1.5014007  12.6293879  )
        12           O1  tau(  12) = (   5.3220639   1.4985920  12.6296061  )
        13           Ti1 tau(  13) = (   0.0338638   3.0995910  12.8036746  )
        14           Ti1 tau(  14) = (   3.3037623   1.5692239  12.4279754  )
        15           O1  tau(  15) = (   0.0261714   0.0103614  14.6808343  )
        16           O1  tau(  16) = (   3.3158872   5.9294016  13.9235834  )
        17           O1  tau(  17) = (   4.5845781   1.5190771  16.0542726  )
        18           O1  tau(  18) = (   2.0543804   1.5366111  16.0227792  )
        19           Ti1 tau(  19) = (   3.3281905   2.9581697  15.6655982  )
        20           Ti1 tau(  20) = (   0.0947853   1.4300879  15.9722461  )
        21           O1  tau(  21) = (   3.2904802   0.0005063   4.7018136  )
        22           O1  tau(  22) = (   0.0746355   0.0166105  17.2029963  )
        23           O1  tau(  23) = (   1.3043587   1.4918075   6.0039043  )
        24           O1  tau(  24) = (   5.2767064   1.4903225   6.0039473  )
        25           Ti1 tau(  25) = (   0.0000382   5.9609847   6.0000000  )
        26           Ti1 tau(  26) = (   3.2902200   4.4714249   6.0002472  )
        27           O1  tau(  27) = (   0.0002396   2.9813036   7.9858123  )
        28           O1  tau(  28) = (   3.2902150   2.9813002   7.3038282  )
        29           O1  tau(  29) = (   4.5938453   4.4726049   9.2879030  )
        30           O1  tau(  30) = (   1.9864658   4.4711199   9.2879459  )
        31           Ti1 tau(  31) = (   3.3049890   0.1224192   9.1815931  )
        32           Ti1 tau(  32) = (   0.0115838   4.5621182   9.3618056  )
        33           O1  tau(  33) = (   3.3056077   2.9569042  11.2892548  )
        34           O1  tau(  34) = (   0.0073068   3.0072357  10.5542745  )
        35           O1  tau(  35) = (   1.3032543   4.4799722  12.6367586  )
        36           O1  tau(  36) = (   5.3275811   4.4862388  12.6364370  )
        37           Ti1 tau(  37) = (   0.0060541   0.1153383  12.6179110  )
        38           Ti1 tau(  38) = (   3.3135592   4.6638430  12.6816895  )
        39           O1  tau(  39) = (   0.0323206   2.9919573  14.6814448  )
        40           O1  tau(  40) = (   3.3290587   2.9835885  13.8850256  )
        41           O1  tau(  41) = (   4.5809508   4.4372854  16.0867525  )
        42           O1  tau(  42) = (   2.0525355   4.4234120  16.0327814  )
        43           Ti1 tau(  43) = (   3.4083040   5.9395600  16.2643712  )
        44           Ti1 tau(  44) = (   0.1061243   4.5568233  16.0547075  )
        45           O1  tau(  45) = (   3.2900926   2.9813045   4.7018136  )
        46           O1  tau(  46) = (   1.3039711   4.4726057   6.0039043  )
        47           O1  tau(  47) = (   5.2763189   4.4711207   6.0039473  )
        48           C1  tau(  48) = (   6.0247352   2.9430639  18.6208924  )
        49           O1  tau(  49) = (   0.0129984   2.9830681  17.3098104  )
        50           H1  tau(  50) = (   4.9427965   2.8012130  18.5644550  )
        51           H1  tau(  51) = (   6.4567215   2.1053551  19.1708771  )
        52           H1  tau(  52) = (   6.2362830   3.8810018  19.1352789  )
        53           O1  tau(  53) = (   3.2195589   0.0034334  18.0862892  )
        54           H1  tau(  54) = (   2.3313237   0.1261415  18.4590370  )

     number of k points=    10  Fermi-Dirac smearing, width (Ry)=  0.0073
                       cart. coord. in units 2pi/alat
        k(    1) = (   0.0000000   0.0000000   0.0000000), wk =   0.1250000
        k(    2) = (   0.0000000   0.0419351   0.0000000), wk =   0.2500000
        k(    3) = (   0.0000000  -0.0838702   0.0000000), wk =   0.1250000
        k(    4) = (   0.0379955   0.0000049   0.0000000), wk =   0.2500000
        k(    5) = (   0.0379955   0.0419400   0.0000000), wk =   0.2500000
        k(    6) = (   0.0379955  -0.0838652   0.0000000), wk =   0.2500000
        k(    7) = (   0.0379955  -0.0419301   0.0000000), wk =   0.2500000
        k(    8) = (  -0.0759910  -0.0000099   0.0000000), wk =   0.1250000
        k(    9) = (  -0.0759910   0.0419252   0.0000000), wk =   0.2500000
        k(   10) = (  -0.0759910  -0.0838800   0.0000000), wk =   0.1250000

     Initial potential from superposition of free atoms

     starting charge  381.99917, renormalised to  398.00000

     negative rho (up, down):  1.724E-02 0.000E+00

     %%%%%%%%%%%%%%%%%%%%%%%%%%%%%%%%%%%%%%%%%%%%%%%%%%%%%%%%%%%%%%%%%%%%%%%%
     %                                                                      %
     % You are using vdW-DF, which was implemented by the Thonhauser group. %
     % Please cite the following two papers that made this development      %
     % possible and the two reviews that describe the various versions:     %
     %                                                                      %
     %   T. Thonhauser et al., PRL 115, 136402 (2015).                      %
     %   T. Thonhauser et al., PRB 76, 125112 (2007).                       %
     %   K. Berland et al., Rep. Prog. Phys. 78, 066501 (2015).             %
     %   D.C. Langreth et al., J. Phys.: Condens. Matter 21, 084203 (2009). %
     %                                                                      %
     %                                                                      %
     % If you are calculating the stress with vdW-DF, please also cite:     %
     %                                                                      %
     %   R. Sabatini et al., J. Phys.: Condens. Matter 24, 424209 (2012).   %
     %                                                                      %
     %%%%%%%%%%%%%%%%%%%%%%%%%%%%%%%%%%%%%%%%%%%%%%%%%%%%%%%%%%%%%%%%%%%%%%%%

     Adding external electric field

     Computed dipole along edir(3) :
        Dipole               -8.3452 Ry au,        -21.2113 Debye
        Dipole field         -0.0157 Ry au,

        Potential amp.        1.4599 Ry
        Total length         46.3494 bohr

     Starting wfcs are  300 atomic wfcs
  @ DRIVER MODE: Message from server: STATUS
  @ DRIVER MODE: Message from server: POSDATA
  @ DRIVER MODE: Reading and sharing cell
  @ DRIVER MODE: Reading and sharing positions
  @ DRIVER MODE: Received positions

     Self-consistent Calculation

     iteration #  1     ecut=    29.40 Ry     beta= 0.05
     Davidson diagonalization with overlap
     c_bands:  1 eigenvalues not converged
     c_bands:  1 eigenvalues not converged
     c_bands:  1 eigenvalues not converged
     c_bands:  1 eigenvalues not converged
     c_bands:  1 eigenvalues not converged
     ethr =  1.00E-05,  avg # of iterations = 18.4

[...]

     total energy              =   -2613.40483650 Ry
     estimated scf accuracy    <    3886.91390247 Ry

     iteration #  2     ecut=    29.40 Ry     beta= 0.05
     Davidson diagonalization with overlap
     ethr =  1.00E-02,  avg # of iterations = 22.7

[...]

     iteration # 41     ecut=    29.40 Ry     beta= 0.05
     Davidson diagonalization with overlap
     c_bands:  1 eigenvalues not converged
     c_bands:  2 eigenvalues not converged
     ethr =  4.11E-07,  avg # of iterations = 12.9

[...]

     total energy              =   -2965.10864528 Ry
     estimated scf accuracy    <       0.00000009 Ry

     iteration # 63     ecut=    29.40 Ry     beta= 0.05
     Davidson diagonalization with overlap
     ethr =  2.26E-11,  avg # of iterations =  1.6

     negative rho (up, down):  1.732E-02 0.000E+00

     Adding external electric field

     Computed dipole along edir(3) :
        Dipole                0.5356 Ry au,          1.3613 Debye
        Dipole field          0.0010 Ry au,

        Potential amp.       -0.0937 Ry
        Total length         46.3494 bohr

     End of self-consistent calculation

          k = 0.0000 0.0000 0.0000 ( 18029 PWs)   bands (ev):

   -56.4416 -56.3948 -55.8698 -55.8386 -55.8281 -55.8166 -55.7728 -55.7358
   -55.7111 -55.6981 -55.6589 -55.6167 -55.6131 -55.4663 -55.0451 -55.0112
   -32.8540 -32.7066 -32.6571 -32.6210 -32.5266 -32.4805 -32.3617 -32.3151
   -32.3089 -32.1943 -32.1564 -32.1338 -32.1311 -32.1112 -32.1058 -32.0692
   -32.0660 -32.0515 -32.0341 -32.0288 -32.0170 -31.9786 -31.9679 -31.9512
   -31.9432 -31.9307 -31.9281 -31.9178 -31.9158 -31.9046 -31.8998 -31.8877
   -31.8626 -31.8612 -31.8557 -31.8221 -31.8108 -31.8099 -31.7807 -31.7221
   -31.6916 -31.6726 -31.4393 -31.3860 -31.3616 -31.2560 -31.1711 -31.0605
   -17.6020 -16.6243 -16.5856 -16.4411 -16.2033 -16.0569 -15.9757 -15.7559
   -15.7535 -15.6341 -15.6232 -15.5883 -15.4504 -15.4380 -15.4309 -15.3759
   -15.3599 -15.3488 -15.3429 -15.3360 -15.3228 -15.2745 -15.2616 -15.2096
   -15.1512 -15.0846 -15.0553 -15.0116 -14.9926 -14.9565 -14.7262 -13.5474
   -13.4390  -9.3510  -4.3299  -4.2446  -4.1213  -4.0351  -3.8812  -3.7794
    -3.7513  -3.6669  -3.5776  -3.4682  -3.2694  -3.1074  -3.0506  -3.0140
    -2.9808  -2.9273  -2.8726  -2.8139  -2.7686  -2.7397  -2.7107  -2.6436
    -2.6279  -2.6163  -2.5883  -2.5798  -2.5441  -2.5113  -2.5003  -2.3684
    -2.3390  -2.3018  -2.2961  -2.2371  -2.2178  -2.1934  -2.1868  -2.1359
    -2.0428  -1.9624  -1.9266  -1.8871  -1.6974  -1.6419  -1.5722  -1.5066
    -1.4281  -1.3811  -1.3612  -1.3392  -1.2689  -1.2400  -1.1286  -1.1061
    -1.0608  -0.9968  -0.9931  -0.9540  -0.8961  -0.8693  -0.8060  -0.7736
    -0.7475  -0.6046  -0.5788  -0.5509  -0.5084  -0.5001  -0.4012  -0.3376
    -0.2886  -0.2690  -0.2215  -0.1872  -0.1493  -0.1013  -0.0839  -0.0570
     0.0317   0.0575   0.0820   0.1253   0.1616   0.1845   0.2038   0.2969
     0.3445   0.3625   0.3786   0.5346   0.5712   0.5903   0.7183   0.7300
     0.9029   0.9715   1.0091   1.1884   1.2347   1.5214   1.5636   2.8601
     3.0184   3.2895   3.4364   3.5047   3.5437   3.5974   3.6145   3.7556
     3.7921

[...]

          k = 0.0380-0.0419 0.0000 ( 17876 PWs)   bands (ev):

[...]

          k =-0.0760-0.0000 0.0000 ( 17886 PWs)   bands (ev):

[...]

          k =-0.0760-0.0839 0.0000 ( 17948 PWs)   bands (ev):

   -56.4345 -56.4018 -55.8679 -55.8331 -55.8271 -55.8126 -55.7777 -55.7396
   -55.7128 -55.6995 -55.6504 -55.6251 -55.6112 -55.4681 -55.0283 -55.0279
   -32.7019 -32.6848 -32.6611 -32.6570 -32.5863 -32.5584 -32.2497 -32.1856
   -32.1589 -32.1279 -32.1045 -32.1001 -32.0901 -32.0757 -32.0682 -32.0536
   -32.0491 -32.0412 -32.0360 -32.0282 -32.0278 -32.0200 -31.9980 -31.9968
   -31.9943 -31.9793 -31.9678 -31.9532 -31.9446 -31.9385 -31.9178 -31.9045
   -31.9014 -31.8881 -31.8746 -31.8603 -31.8597 -31.8258 -31.8153 -31.7959
   -31.7243 -31.6762 -31.3748 -31.3745 -31.2548 -31.2532 -31.2134 -31.2125
   -17.5643 -16.5950 -15.9838 -15.9039 -15.8997 -15.8882 -15.8616 -15.8197
   -15.7423 -15.7355 -15.6646 -15.5978 -15.5643 -15.5192 -15.4974 -15.4852
   -15.4481 -15.4428 -15.3858 -15.3421 -15.3258 -15.3146 -15.2947 -15.2514
   -15.2455 -15.2427 -15.2193 -15.2040 -15.1533 -15.0532 -14.8667 -13.5434
   -13.5422  -9.3513  -4.2556  -4.1714  -3.9702  -3.7427  -3.2159  -3.1397
    -3.0652  -3.0573  -2.9824  -2.9228  -2.9083  -2.8636  -2.8565  -2.8248
    -2.7530  -2.7425  -2.7294  -2.7192  -2.7117  -2.7030  -2.6804  -2.6352
    -2.6220  -2.6147  -2.5988  -2.5903  -2.5787  -2.5751  -2.5487  -2.5092
    -2.4390  -2.3793  -2.2549  -2.2473  -2.2124  -2.1962  -2.1555  -2.1431
    -2.0892  -1.9973  -1.9849  -1.9823  -1.8936  -1.8371  -1.6239  -1.6085
    -1.5919  -1.5250  -1.4530  -1.3862  -1.3625  -1.3397  -1.3071  -1.2842
    -1.2356  -1.1862  -1.1512  -1.1146  -1.0986  -1.0599  -1.0078  -0.9585
    -0.9060  -0.9028  -0.8605  -0.8124  -0.7810  -0.7013  -0.6954  -0.6724
    -0.6488  -0.6093  -0.5242  -0.4723  -0.4297  -0.3349  -0.2936  -0.2604
    -0.1199  -0.0611  -0.0240   0.0512   0.0952   0.1960   0.2205   0.2969
     0.3097   0.3388   0.3630   0.4381   0.5056   0.5617   0.6038   0.6476
     0.6588   0.7086   0.7713   1.3655   1.3660   1.3733   1.3810   3.4054
     3.4303   3.4379   3.4678   3.6941   3.7116   3.7842   3.8141   3.8305
     3.8830

     the Fermi energy is     2.2697 ev

!    total energy              =   -2965.10867867 Ry
     estimated scf accuracy    <       0.00000007 Ry
     smearing contrib. (-TS)   =      -0.00015925 Ry
     internal energy E=F+TS    =   -2965.10851942 Ry

     The total energy is F=E-TS. E is the sum of the following terms:
     one-electron contribution =  -24222.98413794 Ry
     hartree contribution      =   12200.79652787 Ry
     xc contribution           =    -490.02792933 Ry
     ewald contribution        =    9547.10647866 Ry
     electric field correction =       0.00054133 Ry

     convergence has been achieved in  63 iterations

     Forces acting on atoms (cartesian axes, Ry/au):

     atom    1 type  1   force =    -0.00002005    0.00003368    0.13239272
     atom    2 type  1   force =    -0.00019639    0.00779062   -0.15737734
     atom    3 type  2   force =     0.00008466   -0.00480764   -0.05217861
     atom    4 type  2   force =     0.00035800    0.00109380    0.04043662
     atom    5 type  2   force =    -0.00611762   -0.00278872   -0.00018786
     atom    6 type  2   force =     0.00840374   -0.00338686    0.00079029
     atom    7 type  1   force =    -0.00002650   -0.00014105   -0.00001779
     atom    8 type  1   force =     0.00021022   -0.00056118    0.00039716
     atom    9 type  2   force =    -0.00004564    0.00020916   -0.00003226
     atom   10 type  2   force =    -0.00014557   -0.00038091   -0.00016224
     atom   11 type  2   force =     0.00042451    0.00026704   -0.00017550
     atom   12 type  2   force =    -0.00025600    0.00016217   -0.00004245
     atom   13 type  1   force =    -0.00068393    0.00049460   -0.00030816
     atom   14 type  1   force =     0.00007827   -0.00033731   -0.00023787
     atom   15 type  2   force =    -0.00021166    0.00008459   -0.00075733
     atom   16 type  2   force =    -0.00033124    0.00010217    0.00002079
     atom   17 type  2   force =     0.00003168    0.00004850    0.00024360
     atom   18 type  2   force =    -0.00039585   -0.00006519    0.00023781
     atom   19 type  1   force =     0.00003005   -0.00011036   -0.00016754
     atom   20 type  1   force =    -0.00021076   -0.00020776    0.00018879
     atom   21 type  2   force =    -0.00002492    0.00002165    0.09909413
     atom   22 type  2   force =     0.00001357    0.00020948    0.00016637
     atom   23 type  2   force =    -0.08091919    0.00049359   -0.03409692
     atom   24 type  2   force =     0.08071772    0.00095912   -0.03415879
     atom   25 type  1   force =    -0.00001608   -0.00027055    0.14101140
     atom   26 type  1   force =    -0.00013397   -0.00647135   -0.15702068
     atom   27 type  2   force =     0.00016247    0.00109412   -0.05217976
     atom   28 type  2   force =     0.00018791    0.00033836    0.04176790
     atom   29 type  2   force =    -0.00753131    0.00512447    0.00202234
     atom   30 type  2   force =     0.00860110    0.00383164    0.00272660
     atom   31 type  1   force =    -0.00002743    0.00017151    0.00000790
     atom   32 type  1   force =     0.00030517   -0.00005781   -0.00051949
     atom   33 type  2   force =    -0.00005887    0.00039371    0.00022797
     atom   34 type  2   force =    -0.00011958    0.00019589    0.00038679
     atom   35 type  2   force =    -0.00051358   -0.00034977   -0.00006271
     atom   36 type  2   force =     0.00049550   -0.00044133    0.00017328
     atom   37 type  1   force =    -0.00055845   -0.00030610   -0.00012246
     atom   38 type  1   force =     0.00000971   -0.00000913   -0.00045092
     atom   39 type  2   force =    -0.00001664   -0.00018786   -0.00020647
     atom   40 type  2   force =    -0.00013790   -0.00016053   -0.00032225
     atom   41 type  2   force =    -0.00004611    0.00018157   -0.00058921
     atom   42 type  2   force =    -0.00032978    0.00005090   -0.00057550
     atom   43 type  1   force =    -0.00015929   -0.00033774   -0.00025820
     atom   44 type  1   force =     0.00017545   -0.00049032    0.00027726
     atom   45 type  2   force =    -0.00003051    0.00012594    0.09864800
     atom   46 type  2   force =    -0.08087934   -0.00164601   -0.03409418
     atom   47 type  2   force =     0.08068615   -0.00117447   -0.03416099
     atom   48 type  3   force =    -0.00010618    0.00032156   -0.00012199
     atom   49 type  2   force =     0.00007521    0.00023752   -0.00078084
     atom   50 type  4   force =    -0.00042981    0.00021678   -0.00005465
     atom   51 type  4   force =     0.00012266   -0.00006148    0.00016018
     atom   52 type  4   force =    -0.00007904    0.00039997    0.00025722
     atom   53 type  2   force =    -0.00174959    0.00086408   -0.00021842
     atom   54 type  4   force =     0.00133500   -0.00076676    0.00000424

     Total force =     0.382681     Total SCF correction =     0.000718
  @ DRIVER MODE: Message from server: STATUS
  @ DRIVER MODE: Message from server: GETFORCE
  @ DRIVER MODE: Returning v,forces,stress,ensemble

     Writing output data file ./calc.save/
  @ DRIVER MODE: Message from server: EXIT
  @ DRIVE MODE: Exiting

     General routines

     Parallel routines

   This run was terminated on:   2:57:29  23Sep2021

   JOB DONE.