     Program PWSCF v.6.7GPU starts on 25Sep2021 at 14:38: 4

     R & G space division:  proc/nbgrp/npool/nimage =       8
     Reading input from /storage/home/hcoda1/3/ntian30/research/carbon/CxH_vib/H2O_calc/ads_slab/CH2OHN2HO_a/out_0001/pw.inp
Warning: card &CELL ignored
Warning: card   CELL_DYNAMICS='IPI', ignored
Warning: card / ignored

     Current dimensions of program PWSCF are:
     Max number of different atomic species (ntypx) = 10
     Max number of k-points (npk) =  40000
     Max angular momentum in pseudopotentials (lmaxx) =  3
     Presently no symmetry can be used with electric field

     Message from routine cell_base_init:
     DEPRECATED: use true lattice parameter, not A to a.u. conversion factor

     IMPORTANT: XC functional enforced from input :
     Exchange-correlation= BEEF-VDW
                           (   1   4  43  14   2   0   0)
     Any further DFT definition will be discarded
     Please, verify this is what you really want

  @ DRIVER MODE: Connecting to
 qe_1139763_2971670.sched-torque.pace.gatech.eduu_uhpkkx_scratch
  using UNIX socket
  @ DRIVER MODE: Message from server: STATUS
  @ DRIVER MODE: Message from server: INIT
  @ DRIVER MODE: Receiving replica           0          -1
  @ DRIVER MODE: Receiving encoded integer          25
  @ DRIVER MODE:  SCF:  T  FORCE:  T  STRESS:  F  VC:  F  ENSEMBLE:  F
  @ DRIVER MODE:  SCF:  T  FORCE:  T  STRESS:  F  VC:  F  ENSEMBLE:  F

     Using Slab Decomposition

     bravais-lattice index     =            0
     lattice parameter (alat)  =       1.8897  a.u.
     unit-cell volume          =    6658.9804 (a.u.)^3
     number of atoms/cell      =           56
     number of atomic types    =            5
     number of electrons       =       408.00
     number of Kohn-Sham states=          214
     kinetic-energy cutoff     =      29.3995  Ry
     charge density cutoff     =     293.9946  Ry
     scf convergence threshold =      7.3E-08
     mixing beta               =       0.0500
     number of iterations used =            8  plain     mixing
     Exchange-correlation= BEEF-VDW
                           (   1   4  43  14   2   0   0)

     celldm(1)=   1.889726  celldm(2)=   0.000000  celldm(3)=   0.000000
     celldm(4)=   0.000000  celldm(5)=   0.000000  celldm(6)=   0.000000

     crystal axes: (cart. coord. in units of alat)
               a(1) = (   6.579727   0.000000   0.000000 )
               a(2) = (  -0.000775   5.961596   0.000000 )
               a(3) = (   0.000000   0.000000  25.155947 )

     reciprocal axes: (cart. coord. in units 2 pi/alat)
               b(1) = (  0.151982  0.000020  0.000000 )
               b(2) = (  0.000000  0.167740  0.000000 )
               b(3) = (  0.000000  0.000000  0.039752 )

     PseudoPot. # 1 for C  read from file:
     /storage/coda1/p-amedford6/0/shared/rich_project_chbe-medford/medford-share/data/pseudos_module/espresso/nninc/pbe/van/C.UPF
     MD5 check sum: 1a69bf6b8db32088f5b2163dbdb77a27
     Pseudo is Ultrasoft, Zval =  4.0
     Generated by new atomic code, or converted to UPF format
     Using radial grid of  721 points,  4 beta functions with:
                l(1) =   0
                l(2) =   0
                l(3) =   1
                l(4) =   1
     Q(r) pseudized with  8 coefficients,  rinner =    0.800   0.800   0.800

     PseudoPot. # 2 for H  read from file:
     /storage/coda1/p-amedford6/0/shared/rich_project_chbe-medford/medford-share/data/pseudos_module/espresso/nninc/pbe/van/H.UPF
     MD5 check sum: b5ee9d7bfd3a09ee7748110bda690ff7
     Pseudo is Ultrasoft, Zval =  1.0
     Generated by new atomic code, or converted to UPF format
     Using radial grid of  615 points,  1 beta functions with:
                l(1) =   0
     Q(r) pseudized with  8 coefficients,  rinner =    0.800

     PseudoPot. # 3 for O  read from file:
     /storage/coda1/p-amedford6/0/shared/rich_project_chbe-medford/medford-share/data/pseudos_module/espresso/nninc/pbe/van/O.UPF
     MD5 check sum: 78c19812648e8988a0fe644b0f25305e
     Pseudo is Ultrasoft, Zval =  6.0
     Generated by new atomic code, or converted to UPF format
     Using radial grid of  737 points,  4 beta functions with:
                l(1) =   0
                l(2) =   0
                l(3) =   1
                l(4) =   1
     Q(r) pseudized with  8 coefficients,  rinner =    0.800   0.800   0.800

     PseudoPot. # 4 for Ti read from file:
     /storage/coda1/p-amedford6/0/shared/rich_project_chbe-medford/medford-share/data/pseudos_module/espresso/nninc/pbe/van/Ti.UPF
     MD5 check sum: 8e4df49b7f0d34bbd5052bf3f5ea0213
     Pseudo is Ultrasoft, Zval = 12.0
     Generated by new atomic code, or converted to UPF format
     Using radial grid of  851 points,  6 beta functions with:
                l(1) =   0
                l(2) =   0
                l(3) =   1
                l(4) =   1
                l(5) =   2
                l(6) =   2
     Q(r) pseudized with  8 coefficients,  rinner =    1.000   1.000   1.000
                                                       1.000   1.000

     PseudoPot. # 5 for N  read from file:
     /storage/coda1/p-amedford6/0/shared/rich_project_chbe-medford/medford-share/data/pseudos_module/espresso/nninc/pbe/van/N.UPF
     MD5 check sum: 90d10febe142ad51ac9d5be1deb811c4
     Pseudo is Ultrasoft, Zval =  5.0
     Generated by new atomic code, or converted to UPF format
     Using radial grid of  729 points,  4 beta functions with:
                l(1) =   0
                l(2) =   0
                l(3) =   1
                l(4) =   1
     Q(r) pseudized with  8 coefficients,  rinner =    0.800   0.800   0.800

     atomic species   valence    mass     pseudopotential
        C1             4.00    12.01100     C ( 1.00)
        H1             1.00     1.00800     H ( 1.00)
        O1             6.00    15.99900     O ( 1.00)
        Ti1           12.00    47.86700     Ti( 1.00)
        N1             5.00    14.00700     N ( 1.00)

     No symmetry found

   Cartesian axes

     site n.     atom                  positions (alat units)
         1           C1  tau(   1) = (   4.4694424   3.1333252  19.5683752  )
         2           H1  tau(   2) = (   3.5225350   3.1610456  19.0510688  )
         3           H1  tau(   3) = (   5.8501665   2.9975095  17.9951248  )
         4           H1  tau(   4) = (   4.8161173   2.2403860  20.0673745  )
         5           O1  tau(   5) = (   0.0006271   0.0005054   7.9858123  )
         6           O1  tau(   6) = (   3.2906025   0.0005020   7.3038282  )
         7           O1  tau(   7) = (   4.5942328   1.4918067   9.2879030  )
         8           O1  tau(   8) = (   1.9868534   1.4903216   9.2879459  )
         9           O1  tau(   9) = (   3.2658522   0.0207364  11.3165592  )
        10           O1  tau(  10) = (   0.0022773   0.0111808  10.5833539  )
        11           O1  tau(  11) = (   1.2584498   1.5025451  12.6333345  )
        12           O1  tau(  12) = (   5.2827793   1.4879884  12.6049259  )
        13           O1  tau(  13) = (   6.5229081   0.0016576  14.6697044  )
        14           O1  tau(  14) = (   3.2671471   5.9223268  13.9212949  )
        15           O1  tau(  15) = (   4.5038562   1.5078053  16.0770842  )
        16           O1  tau(  16) = (   1.9713840   1.5400684  15.9915579  )
        17           O1  tau(  17) = (   3.2904802   0.0005063   4.7018136  )
        18           O1  tau(  18) = (   0.0083768   5.9574009  17.1899481  )
        19           O1  tau(  19) = (   1.3043587   1.4918075   6.0039043  )
        20           O1  tau(  20) = (   5.2767064   1.4903225   6.0039473  )
        21           O1  tau(  21) = (   0.0002396   2.9813036   7.9858123  )
        22           O1  tau(  22) = (   3.2902150   2.9813002   7.3038282  )
        23           O1  tau(  23) = (   4.5938453   4.4726049   9.2879030  )
        24           O1  tau(  24) = (   1.9864658   4.4711199   9.2879459  )
        25           O1  tau(  25) = (   3.2699439   2.9592623  11.2883102  )
        26           O1  tau(  26) = (   0.0014687   2.9942081  10.5424492  )
        27           O1  tau(  27) = (   1.2624719   4.4656417  12.6394791  )
        28           O1  tau(  28) = (   5.2897987   4.4902883  12.6063686  )
        29           O1  tau(  29) = (   6.5205774   2.9949485  14.6561412  )
        30           O1  tau(  30) = (   3.3050662   2.9767913  13.8748461  )
        31           O1  tau(  31) = (   4.4950179   4.4323158  16.0974573  )
        32           O1  tau(  32) = (   1.9671975   4.4064719  15.9829847  )
        33           O1  tau(  33) = (   3.2900926   2.9813045   4.7018136  )
        34           O1  tau(  34) = (   1.3039711   4.4726057   6.0039043  )
        35           O1  tau(  35) = (   5.2763189   4.4711207   6.0039473  )
        36           O1  tau(  36) = (   6.5424668   2.9800173  17.2949776  )
        37           Ti1 tau(  37) = (   0.0004258   2.9801865   6.0000000  )
        38           Ti1 tau(  38) = (   3.2906075   1.4906267   6.0002472  )
        39           Ti1 tau(  39) = (   3.3167600   3.1006338   9.2159236  )
        40           Ti1 tau(  40) = (   0.0391818   1.5627686   9.3440282  )
        41           Ti1 tau(  41) = (   6.5783755   3.0458713  12.7937554  )
        42           Ti1 tau(  42) = (   3.2318486   1.5634082  12.4209175  )
        43           Ti1 tau(  43) = (   3.2670811   2.9501284  15.6494465  )
        44           Ti1 tau(  44) = (   0.0280251   1.4030395  16.0254105  )
        45           Ti1 tau(  45) = (   0.0000382   5.9609847   6.0000000  )
        46           Ti1 tau(  46) = (   3.2902200   4.4714249   6.0002472  )
        47           Ti1 tau(  47) = (   3.3194908   0.1157174   9.1781592  )
        48           Ti1 tau(  48) = (   0.0298790   4.5135925   9.3581580  )
        49           Ti1 tau(  49) = (   6.5007586   0.0629955  12.6074658  )
        50           Ti1 tau(  50) = (   3.2510718   4.6571100  12.6672192  )
        51           Ti1 tau(  51) = (   3.3282601   5.9350673  16.2366838  )
        52           Ti1 tau(  52) = (   0.0495319   4.5308688  15.9870001  )
        53           N1  tau(  53) = (   5.2748021   5.2735043  20.4272172  )
        54           N1  tau(  54) = (   4.8779203   4.2732533  20.0576380  )
        55           O1  tau(  55) = (   3.0402417   5.9484128  18.0530970  )
        56           H1  tau(  56) = (   2.1234608   0.1014992  18.3542784  )

     number of k points=    10  Fermi-Dirac smearing, width (Ry)=  0.0073
                       cart. coord. in units 2pi/alat
        k(    1) = (   0.0000000   0.0000000   0.0000000), wk =   0.1250000
        k(    2) = (   0.0000000   0.0419351   0.0000000), wk =   0.2500000
        k(    3) = (   0.0000000  -0.0838702   0.0000000), wk =   0.1250000
        k(    4) = (   0.0379955   0.0000049   0.0000000), wk =   0.2500000
        k(    5) = (   0.0379955   0.0419400   0.0000000), wk =   0.2500000
        k(    6) = (   0.0379955  -0.0838652   0.0000000), wk =   0.2500000
        k(    7) = (   0.0379955  -0.0419301   0.0000000), wk =   0.2500000
        k(    8) = (  -0.0759910  -0.0000099   0.0000000), wk =   0.1250000
        k(    9) = (  -0.0759910   0.0419252   0.0000000), wk =   0.2500000
        k(   10) = (  -0.0759910  -0.0838800   0.0000000), wk =   0.1250000

     Initial potential from superposition of free atoms

     starting charge  391.99915, renormalised to  408.00000

     negative rho (up, down):  1.414E-02 0.000E+00

     %%%%%%%%%%%%%%%%%%%%%%%%%%%%%%%%%%%%%%%%%%%%%%%%%%%%%%%%%%%%%%%%%%%%%%%%
     %                                                                      %
     % You are using vdW-DF, which was implemented by the Thonhauser group. %
     % Please cite the following two papers that made this development      %
     % possible and the two reviews that describe the various versions:     %
     %                                                                      %
     %   T. Thonhauser et al., PRL 115, 136402 (2015).                      %
     %   T. Thonhauser et al., PRB 76, 125112 (2007).                       %
     %   K. Berland et al., Rep. Prog. Phys. 78, 066501 (2015).             %
     %   D.C. Langreth et al., J. Phys.: Condens. Matter 21, 084203 (2009). %
     %                                                                      %
     %                                                                      %
     % If you are calculating the stress with vdW-DF, please also cite:     %
     %                                                                      %
     %   R. Sabatini et al., J. Phys.: Condens. Matter 24, 424209 (2012).   %
     %                                                                      %
     %%%%%%%%%%%%%%%%%%%%%%%%%%%%%%%%%%%%%%%%%%%%%%%%%%%%%%%%%%%%%%%%%%%%%%%%

     Adding external electric field

     Computed dipole along edir(3) :
        Dipole              -15.5929 Ry au,        -39.6331 Debye
        Dipole field         -0.0294 Ry au,

        Potential amp.        2.7277 Ry
        Total length         46.3494 bohr

     Starting wfcs are  308 atomic wfcs
  @ DRIVER MODE: Message from server: STATUS
  @ DRIVER MODE: Message from server: POSDATA
  @ DRIVER MODE: Reading and sharing cell
  @ DRIVER MODE: Reading and sharing positions
  @ DRIVER MODE: Received positions

     Self-consistent Calculation

     iteration #  1     ecut=    29.40 Ry     beta= 0.05
     Davidson diagonalization with overlap
     c_bands:  3 eigenvalues not converged
     c_bands:  1 eigenvalues not converged
     c_bands:  1 eigenvalues not converged
     c_bands:  1 eigenvalues not converged
     c_bands:  4 eigenvalues not converged
     c_bands:  2 eigenvalues not converged
     ethr =  1.00E-05,  avg # of iterations = 30.1

[...]

     total energy              =   -2234.29156958 Ry
     estimated scf accuracy    <    8817.28924918 Ry

     iteration #  2     ecut=    29.40 Ry     beta= 0.05
     Davidson diagonalization with overlap
     ethr =  1.00E-02,  avg # of iterations = 32.3

[...]

     iteration # 51     ecut=    29.40 Ry     beta= 0.05
     Davidson diagonalization with overlap
     c_bands:  1 eigenvalues not converged
     c_bands:  2 eigenvalues not converged
     ethr =  1.90E-06,  avg # of iterations = 17.1

[...]

     total energy              =   -3005.15891145 Ry
     estimated scf accuracy    <       0.00000014 Ry

     iteration # 77     ecut=    29.40 Ry     beta= 0.05
     Davidson diagonalization with overlap
     ethr =  2.38E-11,  avg # of iterations =  4.3

     negative rho (up, down):  1.446E-02 0.000E+00

     Adding external electric field

     Computed dipole along edir(3) :
        Dipole                0.4965 Ry au,          1.2621 Debye
        Dipole field          0.0009 Ry au,

        Potential amp.       -0.0869 Ry
        Total length         46.3494 bohr

     End of self-consistent calculation

          k = 0.0000 0.0000 0.0000 ( 18029 PWs)   bands (ev):

   -56.1955 -56.1492 -55.6513 -55.6465 -55.6281 -55.5835 -55.5697 -55.5299
   -55.5175 -55.4892 -55.4445 -55.4018 -55.3979 -55.2748 -54.8194 -54.7855
   -32.6097 -32.4588 -32.4102 -32.3758 -32.2815 -32.2361 -32.1460 -32.0880
   -32.0773 -32.0220 -31.9550 -31.9430 -31.9405 -31.8862 -31.8857 -31.8776
   -31.8625 -31.8450 -31.8291 -31.8110 -31.8027 -31.7932 -31.7569 -31.7335
   -31.7307 -31.7122 -31.7068 -31.7030 -31.7023 -31.6936 -31.6891 -31.6800
   -31.6688 -31.6505 -31.6473 -31.6056 -31.5966 -31.5898 -31.5637 -31.5286
   -31.4882 -31.4766 -31.2142 -31.1587 -31.1344 -31.0312 -30.9463 -30.8353
   -20.6080 -16.8435 -16.4171 -16.3582 -16.2153 -15.9849 -15.8480 -15.7637
   -15.5332 -15.5164 -15.4031 -15.3948 -15.3524 -15.2394 -15.2249 -15.1885
   -15.1832 -15.1687 -15.1555 -15.1236 -15.1131 -15.1093 -15.0401 -15.0143
   -14.9853 -14.9421 -14.8877 -14.8476 -14.7767 -14.7719 -14.7262 -14.5237
   -13.7528 -13.3201 -13.2111  -6.3500  -5.3678  -4.8360  -4.2692  -4.0111
    -3.8837  -3.6676  -3.5728  -3.5635  -3.3971  -3.3722  -3.2752  -3.0561
    -2.9229  -2.8396  -2.8101  -2.7497  -2.7253  -2.6589  -2.6200  -2.6135
    -2.5733  -2.5209  -2.4729  -2.4572  -2.4438  -2.3993  -2.3876  -2.3547
    -2.3394  -2.3341  -2.2946  -2.1489  -2.1359  -2.0784  -2.0705  -2.0210
    -2.0165  -1.9873  -1.9780  -1.9311  -1.8939  -1.7541  -1.7384  -1.7225
    -1.6562  -1.4360  -1.4028  -1.3053  -1.2458  -1.2117  -1.1184  -1.1127
    -1.0825  -1.0514  -1.0037  -0.9230  -0.8895  -0.8327  -0.7879  -0.7801
    -0.7315  -0.6647  -0.6141  -0.5559  -0.5196  -0.4797  -0.4024  -0.3504
    -0.2850  -0.2643  -0.2148  -0.1776  -0.0856  -0.0525  -0.0190   0.0272
     0.0556   0.1178   0.1230   0.1648   0.1828   0.2603   0.2906   0.3068
     0.3598   0.3842   0.3984   0.4614   0.5222   0.5690   0.6131   0.7152
     0.7594   0.7842   0.8557   0.9317   1.0995   1.1990   1.2281   1.4243
     1.4558   1.7527   1.8007   1.8565   3.1026   3.2672   3.5550   3.6443
     3.6816   3.7127   3.8100   3.8398   3.9961   4.0385

[...]

          k = 0.0380-0.0419 0.0000 ( 17876 PWs)   bands (ev):

[...]

          k =-0.0760-0.0000 0.0000 ( 17886 PWs)   bands (ev):

[...]

          k =-0.0760-0.0839 0.0000 ( 17948 PWs)   bands (ev):

   -56.1882 -56.1563 -55.6495 -55.6445 -55.6227 -55.5770 -55.5752 -55.5362
   -55.5189 -55.4909 -55.4362 -55.4100 -55.3956 -55.2770 -54.8026 -54.8022
   -32.4540 -32.4402 -32.4145 -32.4128 -32.3407 -32.3136 -32.0353 -31.9533
   -31.9522 -31.9243 -31.9222 -31.8861 -31.8850 -31.8731 -31.8648 -31.8534
   -31.8435 -31.8315 -31.8176 -31.8093 -31.8027 -31.7999 -31.7925 -31.7886
   -31.7829 -31.7822 -31.7700 -31.7537 -31.7238 -31.7203 -31.7110 -31.7018
   -31.7002 -31.6754 -31.6587 -31.6484 -31.6428 -31.6247 -31.5946 -31.5884
   -31.5283 -31.4802 -31.1475 -31.1473 -31.0297 -31.0280 -30.9885 -30.9876
   -20.6073 -16.7671 -16.3922 -15.7995 -15.6707 -15.6629 -15.6595 -15.6256
   -15.5850 -15.5317 -15.5054 -15.4510 -15.3804 -15.3583 -15.3381 -15.3105
   -15.2714 -15.2376 -15.2213 -15.1491 -15.1131 -15.1024 -15.0851 -15.0744
   -15.0312 -15.0284 -15.0064 -15.0015 -14.9942 -14.9365 -14.8401 -14.6646
   -13.7600 -13.3153 -13.3142  -6.2820  -5.4109  -4.7849  -4.2399  -3.9841
    -3.4906  -3.0271  -2.9263  -2.8469  -2.8402  -2.7515  -2.7106  -2.6806
    -2.6602  -2.6420  -2.6157  -2.5664  -2.5410  -2.5061  -2.4958  -2.4939
    -2.4768  -2.4698  -2.4459  -2.4250  -2.4125  -2.3940  -2.3805  -2.3604
    -2.3503  -2.3384  -2.3194  -2.2890  -2.2475  -2.2264  -2.0487  -2.0185
    -2.0113  -2.0106  -1.9417  -1.9391  -1.8790  -1.8062  -1.7940  -1.7713
    -1.7519  -1.6388  -1.5012  -1.4534  -1.3958  -1.3764  -1.3080  -1.2549
    -1.1595  -1.1403  -1.1296  -1.1117  -1.0686  -1.0630  -0.9779  -0.9232
    -0.8803  -0.8762  -0.8553  -0.8117  -0.6925  -0.6833  -0.6447  -0.6232
    -0.6075  -0.5067  -0.4716  -0.4541  -0.4394  -0.4273  -0.3217  -0.2759
    -0.2257  -0.1794  -0.1189  -0.0609   0.0625   0.0884   0.1811   0.2123
     0.2527   0.3870   0.4126   0.4609   0.4982   0.5496   0.5881   0.6044
     0.7277   0.7836   0.8068   0.8695   0.8936   0.9287   0.9556   1.5915
     1.5974   1.6047   1.6073   1.7944   3.6450   3.6710   3.6775   3.7115
     3.8959   3.9244   4.0033   4.0269   4.0421   4.0521

     the Fermi energy is     2.5626 ev

!    total energy              =   -3005.15893385 Ry
     estimated scf accuracy    <       0.00000004 Ry
     smearing contrib. (-TS)   =      -0.00024098 Ry
     internal energy E=F+TS    =   -3005.15869287 Ry

     The total energy is F=E-TS. E is the sum of the following terms:
     one-electron contribution =  -22952.17615908 Ry
     hartree contribution      =   11572.00452641 Ry
     xc contribution           =    -500.30530300 Ry
     ewald contribution        =    8875.31777752 Ry
     electric field correction =       0.00046529 Ry

     convergence has been achieved in  77 iterations

     Forces acting on atoms (cartesian axes, Ry/au):

     atom    1 type  1   force =     0.00059543   -0.00029084    0.00017723
     atom    2 type  2   force =    -0.00021066    0.00021029   -0.00007114
     atom    3 type  2   force =    -0.00002784    0.00000861   -0.00026889
     atom    4 type  2   force =    -0.00040434   -0.00011177    0.00011230
     atom    5 type  3   force =    -0.00003544   -0.00316110   -0.05385674
     atom    6 type  3   force =     0.00064632    0.00121785    0.04053758
     atom    7 type  3   force =    -0.00941707   -0.00226635    0.00048203
     atom    8 type  3   force =     0.00915001   -0.00508023   -0.00069820
     atom    9 type  3   force =     0.00025889    0.00004795    0.00003665
     atom   10 type  3   force =    -0.00047670    0.00004292   -0.00000610
     atom   11 type  3   force =     0.00010413   -0.00001246   -0.00012438
     atom   12 type  3   force =     0.00002622    0.00013613   -0.00000108
     atom   13 type  3   force =    -0.00001050    0.00002893   -0.00004987
     atom   14 type  3   force =     0.00007036   -0.00008452    0.00036783
     atom   15 type  3   force =    -0.00003849    0.00007878    0.00012328
     atom   16 type  3   force =    -0.00000359   -0.00010602    0.00000490
     atom   17 type  3   force =    -0.00006247    0.00016149    0.09943526
     atom   18 type  3   force =     0.00007756   -0.00005316    0.00007860
     atom   19 type  3   force =    -0.08025452    0.00059413   -0.03413990
     atom   20 type  3   force =     0.08000276    0.00110011   -0.03420200
     atom   21 type  3   force =     0.00021256   -0.00000162   -0.05295694
     atom   22 type  3   force =     0.00060420    0.00045882    0.04225676
     atom   23 type  3   force =    -0.00989767    0.00636074    0.00241859
     atom   24 type  3   force =     0.01029669    0.00151510    0.00113422
     atom   25 type  3   force =     0.00027763   -0.00003022    0.00013426
     atom   26 type  3   force =    -0.00035162    0.00006982    0.00002394
     atom   27 type  3   force =     0.00002670    0.00007292    0.00002547
     atom   28 type  3   force =     0.00001814   -0.00002473    0.00000444
     atom   29 type  3   force =     0.00011899   -0.00013901    0.00007705
     atom   30 type  3   force =    -0.00001426   -0.00005369    0.00002527
     atom   31 type  3   force =     0.00009413   -0.00006825   -0.00004136
     atom   32 type  3   force =    -0.00001832   -0.00017836    0.00015548
     atom   33 type  3   force =    -0.00007039    0.00025541    0.09900761
     atom   34 type  3   force =    -0.08027688   -0.00144199   -0.03419319
     atom   35 type  3   force =     0.07999050   -0.00093201   -0.03416668
     atom   36 type  3   force =     0.00005014   -0.00014376    0.00003869
     atom   37 type  4   force =     0.00027544    0.00016063    0.13335705
     atom   38 type  4   force =    -0.00002268    0.00801491   -0.15911505
     atom   39 type  4   force =    -0.00366706    0.00011164   -0.00002547
     atom   40 type  4   force =     0.00042693    0.00016259   -0.00002163
     atom   41 type  4   force =    -0.00019430   -0.00001961   -0.00002960
     atom   42 type  4   force =    -0.00013494    0.00014686   -0.00009950
     atom   43 type  4   force =     0.00011016   -0.00003766    0.00001370
     atom   44 type  4   force =     0.00020453   -0.00003066   -0.00006387
     atom   45 type  4   force =    -0.00015820   -0.00009229    0.14208096
     atom   46 type  4   force =    -0.00030288   -0.00648738   -0.15853448
     atom   47 type  4   force =    -0.00221271   -0.00019927   -0.00000958
     atom   48 type  4   force =     0.00418964    0.00014599    0.00011248
     atom   49 type  4   force =    -0.00003249    0.00000704    0.00015797
     atom   50 type  4   force =    -0.00023022   -0.00008719   -0.00010223
     atom   51 type  4   force =     0.00018200    0.00006600    0.00024354
     atom   52 type  4   force =     0.00008994   -0.00006268    0.00014508
     atom   53 type  5   force =     0.00021806   -0.00003967   -0.00042461
     atom   54 type  5   force =    -0.00001852    0.00013586    0.00054388
     atom   55 type  3   force =    -0.00013269    0.00033707   -0.00044920
     atom   56 type  2   force =     0.00035936   -0.00041206    0.00033960

     Total force =     0.384997     Total SCF correction =     0.000558
  @ DRIVER MODE: Message from server: STATUS
  @ DRIVER MODE: Message from server: GETFORCE
  @ DRIVER MODE: Returning v,forces,stress,ensemble

     Writing output data file ./calc.save/
  @ DRIVER MODE: Message from server: EXIT
  @ DRIVE MODE: Exiting

     General routines

     Parallel routines

   This run was terminated on:  15:19:43  25Sep2021

   JOB DONE.