     Program PWSCF v.6.7GPU starts on 28Sep2021 at  0:44:29

     R & G space division:  proc/nbgrp/npool/nimage =       8
     Reading input from /storage/home/hcoda1/3/ntian30/research/carbon/CxH_vib/H2O_calc/ads_slab/CHOHO_b/out_0023/pw.inp
Warning: card &CELL ignored
Warning: card   CELL_DYNAMICS='IPI', ignored
Warning: card / ignored

     Current dimensions of program PWSCF are:
     Max number of different atomic species (ntypx) = 10
     Max number of k-points (npk) =  40000
     Max angular momentum in pseudopotentials (lmaxx) =  3
     Presently no symmetry can be used with electric field

     Message from routine cell_base_init:
     DEPRECATED: use true lattice parameter, not A to a.u. conversion factor

     IMPORTANT: XC functional enforced from input :
     Exchange-correlation= BEEF-VDW
                           (   1   4  43  14   2   0   0)
     Any further DFT definition will be discarded
     Please, verify this is what you really want

  @ DRIVER MODE: Connecting to
 qe_1139763_3000314.sched-torque.pace.gatech.eduk1nhmx_0_scratch
  using UNIX socket
  @ DRIVER MODE: Message from server: STATUS
  @ DRIVER MODE: Message from server: INIT
  @ DRIVER MODE: Receiving replica           0          -1
  @ DRIVER MODE: Receiving encoded integer          25
  @ DRIVER MODE:  SCF:  T  FORCE:  T  STRESS:  F  VC:  F  ENSEMBLE:  F
  @ DRIVER MODE:  SCF:  T  FORCE:  T  STRESS:  F  VC:  F  ENSEMBLE:  F

     Using Slab Decomposition

     bravais-lattice index     =            0
     lattice parameter (alat)  =       1.8897  a.u.
     unit-cell volume          =    6658.9804 (a.u.)^3
     number of atoms/cell      =           52
     number of atomic types    =            4
     number of electrons       =       396.00
     number of Kohn-Sham states=          208
     kinetic-energy cutoff     =      29.3995  Ry
     charge density cutoff     =     293.9946  Ry
     scf convergence threshold =      7.3E-08
     mixing beta               =       0.0500
     number of iterations used =            8  plain     mixing
     Exchange-correlation= BEEF-VDW
                           (   1   4  43  14   2   0   0)

     celldm(1)=   1.889726  celldm(2)=   0.000000  celldm(3)=   0.000000
     celldm(4)=   0.000000  celldm(5)=   0.000000  celldm(6)=   0.000000

     crystal axes: (cart. coord. in units of alat)
               a(1) = (   6.579727   0.000000   0.000000 )
               a(2) = (  -0.000775   5.961596   0.000000 )
               a(3) = (   0.000000   0.000000  25.155947 )

     reciprocal axes: (cart. coord. in units 2 pi/alat)
               b(1) = (  0.151982  0.000020  0.000000 )
               b(2) = (  0.000000  0.167740  0.000000 )
               b(3) = (  0.000000  0.000000  0.039752 )

     PseudoPot. # 1 for C  read from file:
     /storage/coda1/p-amedford6/0/shared/rich_project_chbe-medford/medford-share/data/pseudos_module/espresso/nninc/pbe/van/C.UPF
     MD5 check sum: 1a69bf6b8db32088f5b2163dbdb77a27
     Pseudo is Ultrasoft, Zval =  4.0
     Generated by new atomic code, or converted to UPF format
     Using radial grid of  721 points,  4 beta functions with:
                l(1) =   0
                l(2) =   0
                l(3) =   1
                l(4) =   1
     Q(r) pseudized with  8 coefficients,  rinner =    0.800   0.800   0.800

     PseudoPot. # 2 for H  read from file:
     /storage/coda1/p-amedford6/0/shared/rich_project_chbe-medford/medford-share/data/pseudos_module/espresso/nninc/pbe/van/H.UPF
     MD5 check sum: b5ee9d7bfd3a09ee7748110bda690ff7
     Pseudo is Ultrasoft, Zval =  1.0
     Generated by new atomic code, or converted to UPF format
     Using radial grid of  615 points,  1 beta functions with:
                l(1) =   0
     Q(r) pseudized with  8 coefficients,  rinner =    0.800

     PseudoPot. # 3 for O  read from file:
     /storage/coda1/p-amedford6/0/shared/rich_project_chbe-medford/medford-share/data/pseudos_module/espresso/nninc/pbe/van/O.UPF
     MD5 check sum: 78c19812648e8988a0fe644b0f25305e
     Pseudo is Ultrasoft, Zval =  6.0
     Generated by new atomic code, or converted to UPF format
     Using radial grid of  737 points,  4 beta functions with:
                l(1) =   0
                l(2) =   0
                l(3) =   1
                l(4) =   1
     Q(r) pseudized with  8 coefficients,  rinner =    0.800   0.800   0.800

     PseudoPot. # 4 for Ti read from file:
     /storage/coda1/p-amedford6/0/shared/rich_project_chbe-medford/medford-share/data/pseudos_module/espresso/nninc/pbe/van/Ti.UPF
     MD5 check sum: 8e4df49b7f0d34bbd5052bf3f5ea0213
     Pseudo is Ultrasoft, Zval = 12.0
     Generated by new atomic code, or converted to UPF format
     Using radial grid of  851 points,  6 beta functions with:
                l(1) =   0
                l(2) =   0
                l(3) =   1
                l(4) =   1
                l(5) =   2
                l(6) =   2
     Q(r) pseudized with  8 coefficients,  rinner =    1.000   1.000   1.000
                                                       1.000   1.000

     atomic species   valence    mass     pseudopotential
        C1             4.00    12.01100     C ( 1.00)
        H1             1.00     1.00800     H ( 1.00)
        O1             6.00    15.99900     O ( 1.00)
        Ti1           12.00    47.86700     Ti( 1.00)

     No symmetry found

   Cartesian axes

     site n.     atom                  positions (alat units)
         1           C1  tau(   1) = (   6.4174581   3.0630250  18.7433229  )
         2           H1  tau(   2) = (   6.4111689   4.1212957  19.1161716  )
         3           O1  tau(   3) = (   3.2904802   0.0005063   4.7018136  )
         4           O1  tau(   4) = (   3.2900926   2.9813045   4.7018136  )
         5           O1  tau(   5) = (   1.3043587   1.4918075   6.0039043  )
         6           O1  tau(   6) = (   1.3039711   4.4726057   6.0039043  )
         7           O1  tau(   7) = (   5.2767064   1.4903225   6.0039473  )
         8           O1  tau(   8) = (   5.2763189   4.4711207   6.0039473  )
         9           O1  tau(   9) = (   3.2906025   0.0005020   7.3038282  )
        10           O1  tau(  10) = (   3.2902150   2.9813002   7.3038282  )
        11           O1  tau(  11) = (   0.0006271   0.0005054   7.9858123  )
        12           O1  tau(  12) = (   0.0002396   2.9813036   7.9858123  )
        13           O1  tau(  13) = (   4.5942328   1.4918067   9.2879030  )
        14           O1  tau(  14) = (   4.5938453   4.4726049   9.2879030  )
        15           O1  tau(  15) = (   1.9868534   1.4903216   9.2879459  )
        16           O1  tau(  16) = (   1.9864658   4.4711199   9.2879459  )
        17           O1  tau(  17) = (   0.0063547   0.0038039  10.5886533  )
        18           O1  tau(  18) = (   0.0036009   2.9935247  10.5534957  )
        19           O1  tau(  19) = (   3.2887833   2.9558164  11.3026950  )
        20           O1  tau(  20) = (   3.2889155   0.0180965  11.3284547  )
        21           O1  tau(  21) = (   1.2693144   4.4854729  12.6486175  )
        22           O1  tau(  22) = (   1.2682469   1.5082983  12.6349555  )
        23           O1  tau(  23) = (   5.3117200   4.4832310  12.6447022  )
        24           O1  tau(  24) = (   5.3022439   1.5078309  12.6340177  )
        25           O1  tau(  25) = (   3.2906411   2.9682164  13.9081918  )
        26           O1  tau(  26) = (   3.2897682   5.9313675  13.9192633  )
        27           O1  tau(  27) = (   0.0102991   0.0146890  14.6966064  )
        28           O1  tau(  28) = (   6.5585574   2.9631049  14.7216645  )
        29           O1  tau(  29) = (   4.5396285   4.4015509  16.0671556  )
        30           O1  tau(  30) = (   4.5390945   1.4941059  16.1279003  )
        31           O1  tau(  31) = (   2.0082845   1.5156796  16.1272261  )
        32           O1  tau(  32) = (   2.0064512   4.3952525  16.0627866  )
        33           O1  tau(  33) = (   6.5747792   5.9015977  17.1979186  )
        34           O1  tau(  34) = (   6.5364340   3.0300823  17.4955599  )
        35           Ti1 tau(  35) = (   0.0004258   2.9801865   6.0000000  )
        36           Ti1 tau(  36) = (   0.0000382   5.9609847   6.0000000  )
        37           Ti1 tau(  37) = (   3.2906075   1.4906267   6.0002472  )
        38           Ti1 tau(  38) = (   3.2902200   4.4714249   6.0002472  )
        39           Ti1 tau(  39) = (   3.3327010   0.0642822   9.1729847  )
        40           Ti1 tau(  40) = (   3.3370945   3.0443960   9.2119432  )
        41           Ti1 tau(  41) = (   0.0627859   4.5109727   9.2698030  )
        42           Ti1 tau(  42) = (   0.0576648   1.5917673   9.3593984  )
        43           Ti1 tau(  43) = (   0.0253163   5.9063241  12.4905130  )
        44           Ti1 tau(  44) = (   3.2927504   4.6587819  12.6908054  )
        45           Ti1 tau(  45) = (   3.2752962   1.5585801  12.4345831  )
        46           Ti1 tau(  46) = (   6.5429176   2.9239390  12.8034251  )
        47           Ti1 tau(  47) = (   3.2945171   2.9475426  15.6852994  )
        48           Ti1 tau(  48) = (   3.3539256   5.9263172  16.3551506  )
        49           Ti1 tau(  49) = (   0.0620310   4.5244698  15.8688857  )
        50           Ti1 tau(  50) = (   0.0504038   1.3137671  16.0740927  )
        51           O1  tau(  51) = (   3.3002437   5.8605330  18.1482223  )
        52           H1  tau(  52) = (   3.3828385   0.6075072  18.8126307  )

     number of k points=    10  Fermi-Dirac smearing, width (Ry)=  0.0073
                       cart. coord. in units 2pi/alat
        k(    1) = (   0.0000000   0.0000000   0.0000000), wk =   0.1250000
        k(    2) = (   0.0000000   0.0419351   0.0000000), wk =   0.2500000
        k(    3) = (   0.0000000  -0.0838702   0.0000000), wk =   0.1250000
        k(    4) = (   0.0379955   0.0000049   0.0000000), wk =   0.2500000
        k(    5) = (   0.0379955   0.0419400   0.0000000), wk =   0.2500000
        k(    6) = (   0.0379955  -0.0838652   0.0000000), wk =   0.2500000
        k(    7) = (   0.0379955  -0.0419301   0.0000000), wk =   0.2500000
        k(    8) = (  -0.0759910  -0.0000099   0.0000000), wk =   0.1250000
        k(    9) = (  -0.0759910   0.0419252   0.0000000), wk =   0.2500000
        k(   10) = (  -0.0759910  -0.0838800   0.0000000), wk =   0.1250000

     Initial potential from superposition of free atoms

     starting charge  379.99919, renormalised to  396.00000

     negative rho (up, down):  1.747E-02 0.000E+00

     %%%%%%%%%%%%%%%%%%%%%%%%%%%%%%%%%%%%%%%%%%%%%%%%%%%%%%%%%%%%%%%%%%%%%%%%
     %                                                                      %
     % You are using vdW-DF, which was implemented by the Thonhauser group. %
     % Please cite the following two papers that made this development      %
     % possible and the two reviews that describe the various versions:     %
     %                                                                      %
     %   T. Thonhauser et al., PRL 115, 136402 (2015).                      %
     %   T. Thonhauser et al., PRB 76, 125112 (2007).                       %
     %   K. Berland et al., Rep. Prog. Phys. 78, 066501 (2015).             %
     %   D.C. Langreth et al., J. Phys.: Condens. Matter 21, 084203 (2009). %
     %                                                                      %
     %                                                                      %
     % If you are calculating the stress with vdW-DF, please also cite:     %
     %                                                                      %
     %   R. Sabatini et al., J. Phys.: Condens. Matter 24, 424209 (2012).   %
     %                                                                      %
     %%%%%%%%%%%%%%%%%%%%%%%%%%%%%%%%%%%%%%%%%%%%%%%%%%%%%%%%%%%%%%%%%%%%%%%%

     Adding external electric field

     Computed dipole along edir(3) :
        Dipole               -7.6444 Ry au,        -19.4301 Debye
        Dipole field         -0.0144 Ry au,

        Potential amp.        1.3373 Ry
        Total length         46.3494 bohr

     Starting wfcs are  298 atomic wfcs
  @ DRIVER MODE: Message from server: STATUS
  @ DRIVER MODE: Message from server: POSDATA
  @ DRIVER MODE: Reading and sharing cell
  @ DRIVER MODE: Reading and sharing positions
  @ DRIVER MODE: Received positions

     Self-consistent Calculation

     iteration #  1     ecut=    29.40 Ry     beta= 0.05
     Davidson diagonalization with overlap
     c_bands:  1 eigenvalues not converged
     c_bands:  2 eigenvalues not converged
     c_bands:  1 eigenvalues not converged
     c_bands:  1 eigenvalues not converged
     c_bands:  3 eigenvalues not converged
     c_bands:  1 eigenvalues not converged
     c_bands:  3 eigenvalues not converged
     c_bands:  1 eigenvalues not converged
     c_bands:  2 eigenvalues not converged
     c_bands:  1 eigenvalues not converged
     ethr =  1.00E-05,  avg # of iterations = 20.0

[...]

     total energy              =   -2670.42260103 Ry
     estimated scf accuracy    <    3232.38044171 Ry

[...]

     iteration #  3     ecut=    29.40 Ry     beta= 0.05
     Davidson diagonalization with overlap
     ethr =  1.00E-02,  avg # of iterations = 14.3

[...]

     iteration # 61     ecut=    29.40 Ry     beta= 0.05
     Davidson diagonalization with overlap
     c_bands:  1 eigenvalues not converged
     ethr =  2.61E-07,  avg # of iterations =  7.1

[...]

     total energy              =   -2962.43510646 Ry
     estimated scf accuracy    <       0.00000017 Ry

     iteration # 81     ecut=    29.40 Ry     beta= 0.05
     Davidson diagonalization with overlap
     ethr =  4.21E-11,  avg # of iterations =  4.8

     negative rho (up, down):  1.660E-02 0.000E+00

     Adding external electric field

     Computed dipole along edir(3) :
        Dipole                0.3329 Ry au,          0.8462 Debye
        Dipole field          0.0006 Ry au,

        Potential amp.       -0.0582 Ry
        Total length         46.3494 bohr

     End of self-consistent calculation

          k = 0.0000 0.0000 0.0000 ( 18029 PWs)   bands (ev):

   -56.3668 -56.3211 -56.1548 -56.0613 -56.0322 -56.0179 -55.9608 -55.9332
   -55.9078 -55.9022 -55.8820 -55.8703 -55.7848 -55.6564 -55.1466 -55.1126
   -32.8061 -32.6564 -32.6068 -32.5518 -32.5280 -32.5267 -32.5107 -32.5078
   -32.4328 -32.4297 -32.4158 -32.3931 -32.3697 -32.3378 -32.3127 -32.3117
   -32.2649 -32.2539 -32.2491 -32.2417 -32.2103 -32.1961 -32.1884 -32.1543
   -32.1474 -32.1360 -32.1321 -32.1292 -32.1270 -32.1030 -32.0954 -32.0892
   -32.0747 -32.0679 -32.0640 -32.0422 -32.0365 -32.0152 -31.9866 -31.9113
   -31.8686 -31.8663 -31.5473 -31.4771 -31.4535 -31.3639 -31.2782 -31.1670
   -19.9891 -16.9818 -16.7606 -16.5988 -16.4069 -16.2907 -16.2107 -16.0193
   -15.9092 -15.8557 -15.7827 -15.7411 -15.6623 -15.6560 -15.6416 -15.5999
   -15.5916 -15.5841 -15.5352 -15.5335 -15.4967 -15.4838 -15.4242 -15.3765
   -15.3318 -15.2977 -15.2324 -15.2184 -15.1501 -15.1419 -14.8607 -13.6487
   -13.5363  -8.1584  -5.0427  -4.8600  -4.1620  -4.0962  -4.0050  -3.9200
    -3.8461  -3.6515  -3.5580  -3.4839  -3.3987  -3.2991  -3.2474  -3.2102
    -3.1115  -3.1004  -3.0467  -3.0045  -2.9707  -2.9404  -2.8911  -2.8574
    -2.8093  -2.7816  -2.7669  -2.7241  -2.6834  -2.6679  -2.5819  -2.5591
    -2.5529  -2.5046  -2.4787  -2.4323  -2.4130  -2.3702  -2.3459  -2.3341
    -2.2162  -2.1469  -2.1333  -2.0579  -1.9355  -1.7322  -1.6940  -1.6673
    -1.6599  -1.5442  -1.5088  -1.4867  -1.4576  -1.4324  -1.3823  -1.2920
    -1.2783  -1.2140  -1.1749  -1.1616  -1.0137  -0.9942  -0.9664  -0.8947
    -0.8698  -0.8094  -0.7978  -0.6796  -0.6341  -0.5994  -0.5061  -0.4565
    -0.4419  -0.4275  -0.3873  -0.3566  -0.3458  -0.3012  -0.2211  -0.2143
    -0.1772  -0.1538  -0.1374  -0.1029  -0.0248   0.0135   0.0804   0.1609
     0.1887   0.2051   0.2702   0.3338   0.4467   0.5437   0.6742   0.8730
     0.8733   0.9962   1.1001   1.4304   1.4756   2.6490   2.8791   2.9850
     3.1403   3.2039   3.2170   3.3016   3.3377   3.4241   3.6339   3.6709

[...]

          k = 0.0380-0.0419 0.0000 ( 17876 PWs)   bands (ev):

[...]

          k =-0.0760-0.0000 0.0000 ( 17886 PWs)   bands (ev):

[...]

          k =-0.0760-0.0839 0.0000 ( 17948 PWs)   bands (ev):

   -56.3593 -56.3285 -56.1539 -56.0538 -56.0297 -56.0252 -55.9569 -55.9339
   -55.9052 -55.8957 -55.8857 -55.8815 -55.7826 -55.6584 -55.1302 -55.1290
   -32.6517 -32.6353 -32.6083 -32.6078 -32.4903 -32.4711 -32.4669 -32.4618
   -32.4077 -32.3781 -32.3629 -32.3498 -32.3454 -32.3057 -32.3027 -32.2691
   -32.2521 -32.2492 -32.2424 -32.2355 -32.2312 -32.2270 -32.2208 -32.2029
   -32.1772 -32.1746 -32.1643 -32.1512 -32.1342 -32.1310 -32.1171 -32.1098
   -32.1048 -32.0970 -32.0916 -32.0846 -32.0798 -32.0335 -31.9906 -31.9840
   -31.9126 -31.8712 -31.4670 -31.4657 -31.3622 -31.3600 -31.3211 -31.3196
   -19.9828 -16.9700 -16.2038 -16.1698 -16.0785 -16.0195 -16.0065 -15.9427
   -15.9198 -15.8714 -15.8667 -15.7720 -15.7684 -15.7443 -15.7096 -15.6840
   -15.6762 -15.6446 -15.6183 -15.5850 -15.5732 -15.5540 -15.5208 -15.4909
   -15.4423 -15.4366 -15.3724 -15.3469 -15.3204 -15.2084 -15.0163 -13.6400
   -13.6382  -8.1593  -5.0214  -4.8685  -3.6125  -3.4734  -3.3905  -3.2926
    -3.2031  -3.1535  -3.1300  -3.0891  -3.0692  -3.0199  -3.0179  -2.9743
    -2.9622  -2.9209  -2.9031  -2.8659  -2.8346  -2.8173  -2.8134  -2.8051
    -2.8027  -2.7887  -2.7574  -2.7453  -2.7278  -2.7235  -2.6735  -2.6397
    -2.6219  -2.5232  -2.4715  -2.4370  -2.3837  -2.3328  -2.3029  -2.2853
    -2.2696  -2.2211  -2.2050  -2.1759  -2.0659  -2.0247  -1.8590  -1.8024
    -1.7630  -1.7141  -1.6835  -1.6393  -1.5887  -1.5701  -1.5489  -1.4966
    -1.4825  -1.3570  -1.3547  -1.2925  -1.2295  -1.1837  -1.1748  -1.1674
    -1.0979  -1.0399  -1.0237  -1.0167  -0.9828  -0.8862  -0.8802  -0.8329
    -0.8216  -0.7870  -0.7141  -0.6451  -0.5473  -0.5138  -0.4649  -0.4318
    -0.3025  -0.2661  -0.1274  -0.1086  -0.0159   0.0189   0.0398   0.1284
     0.1494   0.1853   0.2643   0.2917   0.3719   0.4212   0.4653   0.4752
     0.5380   1.2500   1.2657   1.2825   1.2942   2.5514   3.2816   3.3788
     3.3842   3.4119   3.4248   3.5304   3.5422   3.6108   3.6486   3.6950

     the Fermi energy is     2.7910 ev

!    total energy              =   -2962.43511916 Ry
     estimated scf accuracy    <       0.00000006 Ry
     smearing contrib. (-TS)   =      -0.01280563 Ry
     internal energy E=F+TS    =   -2962.42231353 Ry

     The total energy is F=E-TS. E is the sum of the following terms:
     one-electron contribution =  -24153.35825508 Ry
     hartree contribution      =   12162.69978270 Ry
     xc contribution           =    -488.27519803 Ry
     ewald contribution        =    9516.51114771 Ry
     electric field correction =       0.00020917 Ry

     convergence has been achieved in  81 iterations

     Forces acting on atoms (cartesian axes, Ry/au):

     atom    1 type  1   force =    -0.00030998   -0.00038041    0.00050367
     atom    2 type  2   force =     0.00012623   -0.00030123   -0.00041328
     atom    3 type  3   force =    -0.00000412    0.00008053    0.10096339
     atom    4 type  3   force =    -0.00000103    0.00013961    0.10053874
     atom    5 type  3   force =    -0.07612519    0.00087409   -0.03116787
     atom    6 type  3   force =    -0.07557371   -0.00154674   -0.03117382
     atom    7 type  3   force =     0.07595492    0.00141384   -0.03123261
     atom    8 type  3   force =     0.07556851   -0.00104981   -0.03119598
     atom    9 type  3   force =     0.00101840    0.00070942    0.04685706
     atom   10 type  3   force =     0.00093540    0.00022789    0.04946034
     atom   11 type  3   force =     0.00037830   -0.00604786   -0.04138128
     atom   12 type  3   force =     0.00101191    0.00275486   -0.03534619
     atom   13 type  3   force =    -0.01262655   -0.00287229    0.00041067
     atom   14 type  3   force =    -0.01409294    0.00448332    0.00140721
     atom   15 type  3   force =     0.01208159   -0.00536580    0.00100241
     atom   16 type  3   force =     0.01167474    0.00182239    0.00130397
     atom   17 type  3   force =     0.00007736    0.00034262    0.00063059
     atom   18 type  3   force =     0.00013302   -0.00027491    0.00009165
     atom   19 type  3   force =    -0.00012497    0.00000358    0.00007765
     atom   20 type  3   force =    -0.00006521    0.00055921   -0.00057689
     atom   21 type  3   force =     0.00024866    0.00008017   -0.00010233
     atom   22 type  3   force =    -0.00006135   -0.00000241   -0.00002646
     atom   23 type  3   force =    -0.00007068    0.00005869   -0.00002676
     atom   24 type  3   force =     0.00001294   -0.00000214   -0.00022606
     atom   25 type  3   force =    -0.00012023    0.00018628   -0.00051980
     atom   26 type  3   force =    -0.00007064    0.00056549    0.00001123
     atom   27 type  3   force =    -0.00005491   -0.00011460   -0.00053467
     atom   28 type  3   force =    -0.00002963    0.00006055   -0.00018970
     atom   29 type  3   force =     0.00021184   -0.00073088   -0.00042851
     atom   30 type  3   force =    -0.00009461    0.00088837   -0.00053901
     atom   31 type  3   force =    -0.00024724    0.00057433   -0.00031890
     atom   32 type  3   force =    -0.00062368   -0.00033409   -0.00023765
     atom   33 type  3   force =    -0.00000371   -0.00013623    0.00102742
     atom   34 type  3   force =     0.00013232    0.00023823   -0.00027244
     atom   35 type  4   force =    -0.00008360   -0.00133112    0.10988963
     atom   36 type  4   force =    -0.00018673    0.00142954    0.12396396
     atom   37 type  4   force =    -0.00029144    0.00759766   -0.16578964
     atom   38 type  4   force =    -0.00000731   -0.00694667   -0.16564195
     atom   39 type  4   force =     0.00075550   -0.00131750   -0.00013697
     atom   40 type  4   force =     0.00083183    0.00161783   -0.00024100
     atom   41 type  4   force =    -0.00061654    0.00001079    0.00001094
     atom   42 type  4   force =    -0.00070510    0.00002874   -0.00023695
     atom   43 type  4   force =     0.00011290   -0.00019129    0.00016172
     atom   44 type  4   force =     0.00033575    0.00020316   -0.00004155
     atom   45 type  4   force =     0.00013625    0.00092272   -0.00001616
     atom   46 type  4   force =    -0.00001518   -0.00004796   -0.00030485
     atom   47 type  4   force =     0.00051915    0.00026506    0.00019648
     atom   48 type  4   force =     0.00031458   -0.00003705   -0.00787426
     atom   49 type  4   force =    -0.00040698    0.00068200   -0.00006926
     atom   50 type  4   force =    -0.00049893    0.00002932   -0.00073591
     atom   51 type  3   force =     0.00096713    0.00990202    0.01792611
     atom   52 type  2   force =    -0.00042704   -0.00972130   -0.00943615

     Total force =     0.372428     Total SCF correction =     0.000611
  @ DRIVER MODE: Message from server: STATUS
  @ DRIVER MODE: Message from server: GETFORCE
  @ DRIVER MODE: Returning v,forces,stress,ensemble

     Writing output data file ./calc.save/
  @ DRIVER MODE: Message from server: EXIT
  @ DRIVE MODE: Exiting

     General routines

     Parallel routines

   This run was terminated on:   1: 9:44  28Sep2021

   JOB DONE.