     Program PWSCF v.6.7GPU starts on  9Sep2021 at  0:48: 7

     R & G space division:  proc/nbgrp/npool/nimage =      10
     Reading input from /storage/home/hcoda1/3/ntian30/research/carbon/CxH_vib/CH_calc/ads_slab/CHNHH_a/out_0010/pw.inp
Warning: card &CELL ignored
Warning: card   CELL_DYNAMICS='IPI', ignored
Warning: card / ignored

     Current dimensions of program PWSCF are:
     Max number of different atomic species (ntypx) = 10
     Max number of k-points (npk) =  40000
     Max angular momentum in pseudopotentials (lmaxx) =  3
     Presently no symmetry can be used with electric field

     Message from routine cell_base_init:
     DEPRECATED: use true lattice parameter, not A to a.u. conversion factor

     IMPORTANT: XC functional enforced from input :
     Exchange-correlation= BEEF-VDW
                           (   1   4  43  14   2   0   0)
     Any further DFT definition will be discarded
     Please, verify this is what you really want

  @ DRIVER MODE: Connecting to
 qe_1139763_2767378.sched-torque.pace.gatech.edu_7lc99u1_scratch
  using UNIX socket
  @ DRIVER MODE: Message from server: STATUS
  @ DRIVER MODE: Message from server: INIT
  @ DRIVER MODE: Receiving replica           0          -1
  @ DRIVER MODE: Receiving encoded integer          25
  @ DRIVER MODE:  SCF:  T  FORCE:  T  STRESS:  F  VC:  F  ENSEMBLE:  F
  @ DRIVER MODE:  SCF:  T  FORCE:  T  STRESS:  F  VC:  F  ENSEMBLE:  F

     Using Slab Decomposition

     bravais-lattice index     =            0
     lattice parameter (alat)  =       1.8897  a.u.
     unit-cell volume          =    6658.9804 (a.u.)^3
     number of atoms/cell      =           52
     number of atomic types    =            5
     number of electrons       =       390.00
     number of Kohn-Sham states=          205
     kinetic-energy cutoff     =      29.3995  Ry
     charge density cutoff     =     293.9946  Ry
     scf convergence threshold =      7.3E-08
     mixing beta               =       0.0500
     number of iterations used =            8  plain     mixing
     Exchange-correlation= BEEF-VDW
                           (   1   4  43  14   2   0   0)

     celldm(1)=   1.889726  celldm(2)=   0.000000  celldm(3)=   0.000000
     celldm(4)=   0.000000  celldm(5)=   0.000000  celldm(6)=   0.000000

     crystal axes: (cart. coord. in units of alat)
               a(1) = (   6.579727   0.000000   0.000000 )
               a(2) = (  -0.000775   5.961596   0.000000 )
               a(3) = (   0.000000   0.000000  25.155947 )

     reciprocal axes: (cart. coord. in units 2 pi/alat)
               b(1) = (  0.151982  0.000020  0.000000 )
               b(2) = (  0.000000  0.167740  0.000000 )
               b(3) = (  0.000000  0.000000  0.039752 )

     PseudoPot. # 1 for Ti read from file:
     /storage/coda1/p-amedford6/0/shared/rich_project_chbe-medford/medford-share/data/pseudos_module/espresso/nninc/pbe/van/Ti.UPF
     MD5 check sum: 8e4df49b7f0d34bbd5052bf3f5ea0213
     Pseudo is Ultrasoft, Zval = 12.0
     Generated by new atomic code, or converted to UPF format
     Using radial grid of  851 points,  6 beta functions with:
                l(1) =   0
                l(2) =   0
                l(3) =   1
                l(4) =   1
                l(5) =   2
                l(6) =   2
     Q(r) pseudized with  8 coefficients,  rinner =    1.000   1.000   1.000
                                                       1.000   1.000

     PseudoPot. # 2 for O  read from file:
     /storage/coda1/p-amedford6/0/shared/rich_project_chbe-medford/medford-share/data/pseudos_module/espresso/nninc/pbe/van/O.UPF
     MD5 check sum: 78c19812648e8988a0fe644b0f25305e
     Pseudo is Ultrasoft, Zval =  6.0
     Generated by new atomic code, or converted to UPF format
     Using radial grid of  737 points,  4 beta functions with:
                l(1) =   0
                l(2) =   0
                l(3) =   1
                l(4) =   1
     Q(r) pseudized with  8 coefficients,  rinner =    0.800   0.800   0.800

     PseudoPot. # 3 for N  read from file:
     /storage/coda1/p-amedford6/0/shared/rich_project_chbe-medford/medford-share/data/pseudos_module/espresso/nninc/pbe/van/N.UPF
     MD5 check sum: 90d10febe142ad51ac9d5be1deb811c4
     Pseudo is Ultrasoft, Zval =  5.0
     Generated by new atomic code, or converted to UPF format
     Using radial grid of  729 points,  4 beta functions with:
                l(1) =   0
                l(2) =   0
                l(3) =   1
                l(4) =   1
     Q(r) pseudized with  8 coefficients,  rinner =    0.800   0.800   0.800

     PseudoPot. # 4 for C  read from file:
     /storage/coda1/p-amedford6/0/shared/rich_project_chbe-medford/medford-share/data/pseudos_module/espresso/nninc/pbe/van/C.UPF
     MD5 check sum: 1a69bf6b8db32088f5b2163dbdb77a27
     Pseudo is Ultrasoft, Zval =  4.0
     Generated by new atomic code, or converted to UPF format
     Using radial grid of  721 points,  4 beta functions with:
                l(1) =   0
                l(2) =   0
                l(3) =   1
                l(4) =   1
     Q(r) pseudized with  8 coefficients,  rinner =    0.800   0.800   0.800

     PseudoPot. # 5 for H  read from file:
     /storage/coda1/p-amedford6/0/shared/rich_project_chbe-medford/medford-share/data/pseudos_module/espresso/nninc/pbe/van/H.UPF
     MD5 check sum: b5ee9d7bfd3a09ee7748110bda690ff7
     Pseudo is Ultrasoft, Zval =  1.0
     Generated by new atomic code, or converted to UPF format
     Using radial grid of  615 points,  1 beta functions with:
                l(1) =   0
     Q(r) pseudized with  8 coefficients,  rinner =    0.800

     atomic species   valence    mass     pseudopotential
        Ti1           12.00    47.86700     Ti( 1.00)
        O1             6.00    15.99900     O ( 1.00)
        N1             5.00    14.00700     N ( 1.00)
        C1             4.00    12.01100     C ( 1.00)
        H1             1.00     1.00800     H ( 1.00)

     No symmetry found

   Cartesian axes

     site n.     atom                  positions (alat units)
         1           Ti1 tau(   1) = (   0.0004258   2.9801865   6.0000000  )
         2           Ti1 tau(   2) = (   3.2906075   1.4906267   6.0002472  )
         3           O1  tau(   3) = (   0.0006271   0.0005054   7.9858123  )
         4           O1  tau(   4) = (   3.2906025   0.0005020   7.3038282  )
         5           O1  tau(   5) = (   4.5942328   1.4918067   9.2879030  )
         6           O1  tau(   6) = (   1.9868534   1.4903216   9.2879459  )
         7           Ti1 tau(   7) = (   3.2907910   2.8959150   9.1758416  )
         8           Ti1 tau(   8) = (   0.0015273   1.4827037   9.2680791  )
         9           O1  tau(   9) = (   3.2768318   5.9518058  11.3501096  )
        10           O1  tau(  10) = (   0.0116148   5.9584955  10.6183126  )
        11           O1  tau(  11) = (   1.2820894   1.4890407  12.6429483  )
        12           O1  tau(  12) = (   5.2701592   1.4861355  12.6244956  )
        13           Ti1 tau(  13) = (   0.0263608   2.9732685  12.5725065  )
        14           Ti1 tau(  14) = (   3.3311081   1.4825583  12.4934812  )
        15           O1  tau(  15) = (   6.5448050   0.0382128  14.6485099  )
        16           O1  tau(  16) = (   3.2835306   5.9556129  13.9684075  )
        17           O1  tau(  17) = (   4.5065730   1.5084740  16.1486978  )
        18           O1  tau(  18) = (   2.0110176   1.4968469  16.1316129  )
        19           Ti1 tau(  19) = (   3.2365874   2.9692752  15.7101938  )
        20           Ti1 tau(  20) = (   6.5183500   1.5288441  15.9766389  )
        21           O1  tau(  21) = (   3.2904802   0.0005063   4.7018136  )
        22           O1  tau(  22) = (   6.5552815   5.8936090  17.2115513  )
        23           O1  tau(  23) = (   1.3043587   1.4918075   6.0039043  )
        24           O1  tau(  24) = (   5.2767064   1.4903225   6.0039473  )
        25           Ti1 tau(  25) = (   0.0000382   5.9609847   6.0000000  )
        26           Ti1 tau(  26) = (   3.2902200   4.4714249   6.0002472  )
        27           O1  tau(  27) = (   0.0002396   2.9813036   7.9858123  )
        28           O1  tau(  28) = (   3.2902150   2.9813002   7.3038282  )
        29           O1  tau(  29) = (   4.5938453   4.4726049   9.2879030  )
        30           O1  tau(  30) = (   1.9864658   4.4711199   9.2879459  )
        31           Ti1 tau(  31) = (   3.2891106   5.8743827   9.1763621  )
        32           Ti1 tau(  32) = (   0.0006254   4.4649316   9.2693709  )
        33           O1  tau(  33) = (   3.2825058   2.9767457  11.3441782  )
        34           O1  tau(  34) = (   0.0092240   2.9805883  10.6323155  )
        35           O1  tau(  35) = (   1.2778777   4.4660374  12.6604661  )
        36           O1  tau(  36) = (   5.2710664   4.4675109  12.6369154  )
        37           Ti1 tau(  37) = (   0.0243246   5.9574881  12.5203091  )
        38           Ti1 tau(  38) = (   3.3318591   4.4611298  12.5006215  )
        39           O1  tau(  39) = (   6.5359656   2.9584677  14.7835642  )
        40           O1  tau(  40) = (   3.2771955   2.9708399  13.9242642  )
        41           O1  tau(  41) = (   4.4981441   4.4410618  16.1740548  )
        42           O1  tau(  42) = (   2.0042129   4.4512231  16.1075086  )
        43           Ti1 tau(  43) = (   3.2538698   5.9555144  15.7617387  )
        44           Ti1 tau(  44) = (   6.5531130   4.6830099  15.9084494  )
        45           O1  tau(  45) = (   3.2900926   2.9813045   4.7018136  )
        46           O1  tau(  46) = (   1.3039711   4.4726057   6.0039043  )
        47           O1  tau(  47) = (   5.2763189   4.4711207   6.0039473  )
        48           N1  tau(  48) = (   5.6690603   3.2568973  18.6585782  )
        49           C1  tau(  49) = (   0.0091554   2.6944975  17.9068455  )
        50           H1  tau(  50) = (   0.8805123   2.3964943  18.5001670  )
        51           H1  tau(  51) = (   4.8619660   3.6873350  18.2178346  )
        52           H1  tau(  52) = (   5.8095507   3.4768026  19.6356901  )

     number of k points=    10  Fermi-Dirac smearing, width (Ry)=  0.0073
                       cart. coord. in units 2pi/alat
        k(    1) = (   0.0000000   0.0000000   0.0000000), wk =   0.1250000
        k(    2) = (   0.0000000   0.0419351   0.0000000), wk =   0.2500000
        k(    3) = (   0.0000000  -0.0838702   0.0000000), wk =   0.1250000
        k(    4) = (   0.0379955   0.0000049   0.0000000), wk =   0.2500000
        k(    5) = (   0.0379955   0.0419400   0.0000000), wk =   0.2500000
        k(    6) = (   0.0379955  -0.0838652   0.0000000), wk =   0.2500000
        k(    7) = (   0.0379955  -0.0419301   0.0000000), wk =   0.2500000
        k(    8) = (  -0.0759910  -0.0000099   0.0000000), wk =   0.1250000
        k(    9) = (  -0.0759910   0.0419252   0.0000000), wk =   0.2500000
        k(   10) = (  -0.0759910  -0.0838800   0.0000000), wk =   0.1250000

     Initial potential from superposition of free atoms

     starting charge  373.99917, renormalised to  390.00000

     negative rho (up, down):  1.782E-02 0.000E+00

     %%%%%%%%%%%%%%%%%%%%%%%%%%%%%%%%%%%%%%%%%%%%%%%%%%%%%%%%%%%%%%%%%%%%%%%%
     %                                                                      %
     % You are using vdW-DF, which was implemented by the Thonhauser group. %
     % Please cite the following two papers that made this development      %
     % possible and the two reviews that describe the various versions:     %
     %                                                                      %
     %   T. Thonhauser et al., PRL 115, 136402 (2015).                      %
     %   T. Thonhauser et al., PRB 76, 125112 (2007).                       %
     %   K. Berland et al., Rep. Prog. Phys. 78, 066501 (2015).             %
     %   D.C. Langreth et al., J. Phys.: Condens. Matter 21, 084203 (2009). %
     %                                                                      %
     %                                                                      %
     % If you are calculating the stress with vdW-DF, please also cite:     %
     %                                                                      %
     %   R. Sabatini et al., J. Phys.: Condens. Matter 24, 424209 (2012).   %
     %                                                                      %
     %%%%%%%%%%%%%%%%%%%%%%%%%%%%%%%%%%%%%%%%%%%%%%%%%%%%%%%%%%%%%%%%%%%%%%%%

     Adding external electric field

     Computed dipole along edir(3) :
        Dipole               -5.8555 Ry au,        -14.8831 Debye
        Dipole field         -0.0111 Ry au,

        Potential amp.        1.0243 Ry
        Total length         46.3494 bohr

     Starting wfcs are  295 atomic wfcs
  @ DRIVER MODE: Message from server: STATUS
  @ DRIVER MODE: Message from server: POSDATA
  @ DRIVER MODE: Reading and sharing cell
  @ DRIVER MODE: Reading and sharing positions
  @ DRIVER MODE: Received positions

     Self-consistent Calculation

     iteration #  1     ecut=    29.40 Ry     beta= 0.05
     Davidson diagonalization with overlap
     c_bands:  4 eigenvalues not converged
     c_bands:  1 eigenvalues not converged
     c_bands:  2 eigenvalues not converged
     c_bands:  3 eigenvalues not converged
     c_bands:  3 eigenvalues not converged
     c_bands:  4 eigenvalues not converged
     c_bands:  3 eigenvalues not converged
     c_bands:  3 eigenvalues not converged
     c_bands:  4 eigenvalues not converged
     c_bands:  5 eigenvalues not converged
     ethr =  1.00E-05,  avg # of iterations = 20.0

[...]

     total energy              =   -2777.33997836 Ry
     estimated scf accuracy    <    1560.39504556 Ry

     iteration #  2     ecut=    29.40 Ry     beta= 0.05
     Davidson diagonalization with overlap
     ethr =  1.00E-02,  avg # of iterations = 18.5

[...]

     iteration # 50     ecut=    29.40 Ry     beta= 0.05
     Davidson diagonalization with overlap
     c_bands:  1 eigenvalues not converged
     ethr =  3.37E-08,  avg # of iterations = 13.7

[...]

     total energy              =   -2919.04280652 Ry
     estimated scf accuracy    <       0.00000013 Ry

     iteration # 66     ecut=    29.40 Ry     beta= 0.05
     Davidson diagonalization with overlap
     ethr =  1.89E-11,  avg # of iterations =  7.2

     negative rho (up, down):  1.802E-02 0.000E+00

     Adding external electric field

     Computed dipole along edir(3) :
        Dipole                1.3853 Ry au,          3.5210 Debye
        Dipole field          0.0026 Ry au,

        Potential amp.       -0.2423 Ry
        Total length         46.3494 bohr

     End of self-consistent calculation

          k = 0.0000 0.0000 0.0000 ( 18029 PWs)   bands (ev):

   -55.5055 -55.4804 -55.4691 -55.4463 -55.4195 -55.3745 -55.3327 -55.3243
   -55.3053 -55.2984 -55.2689 -55.2670 -55.0562 -54.9441 -54.4837 -54.4496
   -32.0724 -31.9680 -31.8661 -31.8441 -31.8339 -31.8009 -31.7931 -31.7708
   -31.7606 -31.7242 -31.7201 -31.7153 -31.6820 -31.6569 -31.6471 -31.6449
   -31.6332 -31.6084 -31.5985 -31.5897 -31.5790 -31.5633 -31.5378 -31.5337
   -31.5334 -31.5129 -31.5101 -31.5055 -31.5042 -31.4952 -31.4811 -31.4656
   -31.4546 -31.4543 -31.4313 -31.4201 -31.4046 -31.3582 -31.2889 -31.1933
   -31.1785 -31.0924 -30.8920 -30.8008 -30.7785 -30.7086 -30.6219 -30.5109
   -17.0706 -16.3053 -16.0214 -15.8580 -15.7140 -15.6829 -15.5724 -15.3973
   -15.3200 -15.2447 -15.2250 -15.1452 -15.1299 -15.1152 -15.0940 -15.0351
   -15.0272 -14.9821 -14.9772 -14.9431 -14.9231 -14.8915 -14.8740 -14.8665
   -14.8128 -14.7718 -14.7082 -14.6419 -14.5867 -14.1180 -12.9865 -12.8695
    -9.4648  -7.2479  -4.6153  -3.6624  -3.4928  -3.4123  -3.4027  -3.3825
    -3.1926  -3.1163  -2.8416  -2.7473  -2.7124  -2.7061  -2.6793  -2.6212
    -2.5605  -2.4480  -2.3806  -2.3474  -2.3270  -2.3224  -2.3118  -2.2937
    -2.2832  -2.2518  -2.1807  -2.1235  -2.0498  -1.9668  -1.8915  -1.8764
    -1.8154  -1.7876  -1.7728  -1.7665  -1.7597  -1.7349  -1.7289  -1.6376
    -1.5515  -1.5091  -1.4087  -1.3860  -1.2918  -1.1580  -1.1274  -1.0236
    -1.0165  -0.9605  -0.9361  -0.8922  -0.8439  -0.8343  -0.8171  -0.6734
    -0.6065  -0.5455  -0.4870  -0.4603  -0.4418  -0.3541  -0.2877  -0.2805
    -0.2632  -0.2402  -0.0681  -0.0353  -0.0159   0.0078   0.0227   0.1120
     0.1440   0.2185   0.2983   0.3136   0.3182   0.3952   0.4183   0.4624
     0.4645   0.4919   0.4972   0.6683   0.6791   0.7054   0.7346   0.8158
     0.9001   1.1041   1.1283   1.1686   1.4540   1.5204   1.5386   1.7262
     2.1120   2.1590   3.5854   3.6896   3.7221   3.7380   3.7658   3.8355
     3.9027   4.0805   4.0876   4.1185   4.1235

[...]

          k = 0.0380-0.0419 0.0000 ( 17876 PWs)   bands (ev):

[...]

          k =-0.0760-0.0000 0.0000 ( 17886 PWs)   bands (ev):

[...]

          k =-0.0760-0.0839 0.0000 ( 17948 PWs)   bands (ev):

   -55.4897 -55.4847 -55.4637 -55.4629 -55.4163 -55.3656 -55.3415 -55.3274
   -55.2866 -55.2852 -55.2846 -55.2829 -55.0535 -54.9467 -54.4667 -54.4665
   -31.8779 -31.8739 -31.8087 -31.7836 -31.7828 -31.7715 -31.7566 -31.7558
   -31.7161 -31.7109 -31.7092 -31.7019 -31.6727 -31.6357 -31.6268 -31.6227
   -31.6223 -31.6197 -31.6156 -31.6142 -31.6040 -31.5834 -31.5826 -31.5699
   -31.5667 -31.5560 -31.5436 -31.5274 -31.5198 -31.5174 -31.5013 -31.5006
   -31.5000 -31.4988 -31.4766 -31.4637 -31.4602 -31.3627 -31.2849 -31.2106
   -31.1823 -31.1765 -30.7912 -30.7912 -30.7046 -30.7045 -30.6653 -30.6652
   -17.0658 -15.7630 -15.7012 -15.5662 -15.4843 -15.4625 -15.4504 -15.4271
   -15.2891 -15.2731 -15.2551 -15.2049 -15.2009 -15.1982 -15.1596 -15.1031
   -15.0687 -15.0663 -15.0576 -15.0319 -14.9965 -14.9913 -14.9571 -14.9485
   -14.9350 -14.8453 -14.8400 -14.8377 -14.6669 -14.3425 -12.9712 -12.9711
    -9.4695  -7.2493  -4.5966  -3.0457  -2.9722  -2.8122  -2.7096  -2.6796
    -2.6478  -2.5067  -2.4698  -2.4619  -2.4522  -2.4203  -2.4013  -2.3800
    -2.3506  -2.3365  -2.3320  -2.3145  -2.3029  -2.2902  -2.2474  -2.2046
    -2.2036  -2.1932  -2.1631  -2.1423  -2.1302  -2.1014  -2.0821  -2.0665
    -2.0528  -2.0059  -1.8305  -1.7988  -1.7000  -1.6780  -1.6690  -1.6496
    -1.5808  -1.5537  -1.5216  -1.4832  -1.4317  -1.3091  -1.2419  -1.2204
    -1.1918  -1.1821  -1.1302  -1.0077  -0.9720  -0.9492  -0.9027  -0.8660
    -0.8226  -0.8111  -0.6915  -0.6868  -0.6408  -0.5985  -0.4849  -0.4673
    -0.4579  -0.4466  -0.4319  -0.3023  -0.2926  -0.2860  -0.2685  -0.2242
    -0.2075  -0.1024  -0.0007   0.0122   0.1141   0.1688   0.2916   0.3536
     0.4503   0.4970   0.5210   0.6117   0.6475   0.7291   0.7493   0.8061
     0.8177   0.9112   0.9679   0.9866   0.9945   1.0623   1.8986   1.8994
     1.9789   1.9790   3.7447   3.8402   3.8785   3.9015   3.9469   4.1049
     4.1215   4.1691   4.1719   4.1860   4.2712

     the Fermi energy is     3.6425 ev

!    total energy              =   -2919.04282750 Ry
     estimated scf accuracy    <       0.00000005 Ry
     smearing contrib. (-TS)   =      -0.03614301 Ry
     internal energy E=F+TS    =   -2919.00668449 Ry

     The total energy is F=E-TS. E is the sum of the following terms:
     one-electron contribution =  -24479.36283833 Ry
     hartree contribution      =   12327.88027208 Ry
     xc contribution           =    -480.00210214 Ry
     ewald contribution        =    9712.47436263 Ry
     electric field correction =       0.00362127 Ry

     convergence has been achieved in  66 iterations

     Forces acting on atoms (cartesian axes, Ry/au):

     atom    1 type  1   force =     0.00009554   -0.00020852    0.09495138
     atom    2 type  1   force =    -0.00022804   -0.00036514   -0.17674976
     atom    3 type  2   force =    -0.00004369   -0.00006752   -0.02291759
     atom    4 type  2   force =    -0.00004361   -0.00167874    0.05577648
     atom    5 type  2   force =    -0.01135956   -0.00122919    0.00625086
     atom    6 type  2   force =     0.01253704   -0.00034786    0.00441431
     atom    7 type  1   force =    -0.00113762    0.00152676   -0.01377058
     atom    8 type  1   force =     0.00062807    0.00695172    0.01262836
     atom    9 type  2   force =     0.00020415   -0.00005235    0.00012605
     atom   10 type  2   force =    -0.00164060    0.00010269   -0.00993969
     atom   11 type  2   force =    -0.00020916    0.00002364    0.00015558
     atom   12 type  2   force =     0.00024665    0.00011089   -0.00006640
     atom   13 type  1   force =     0.00006356   -0.00002961    0.00024062
     atom   14 type  1   force =     0.00000615   -0.00015466    0.00018351
     atom   15 type  2   force =    -0.00002758    0.00048671    0.00017656
     atom   16 type  2   force =     0.00025779    0.00029047    0.00001665
     atom   17 type  2   force =     0.00014810   -0.00017806    0.00042041
     atom   18 type  2   force =     0.00013747    0.00012096    0.00028432
     atom   19 type  1   force =     0.00032817    0.00010232   -0.00028963
     atom   20 type  1   force =     0.00041646    0.00025182   -0.00007798
     atom   21 type  2   force =     0.00004653   -0.00004262    0.10361126
     atom   22 type  2   force =    -0.00002902    0.00069472    0.00039079
     atom   23 type  2   force =    -0.07099907   -0.00016993   -0.02732905
     atom   24 type  2   force =     0.07085171    0.00031102   -0.02734335
     atom   25 type  1   force =    -0.00012178   -0.00020489    0.09465359
     atom   26 type  1   force =    -0.00019371   -0.00046945   -0.17690029
     atom   27 type  2   force =     0.00006964   -0.00035769   -0.02193736
     atom   28 type  2   force =     0.00003698   -0.00139081    0.05532887
     atom   29 type  2   force =    -0.01158648   -0.00009069    0.00586005
     atom   30 type  2   force =     0.01265680    0.00012959    0.00407638
     atom   31 type  1   force =    -0.00125210    0.00416757   -0.01463915
     atom   32 type  1   force =     0.00055336   -0.00776652    0.01248936
     atom   33 type  2   force =    -0.00001234    0.00009550    0.00003956
     atom   34 type  2   force =    -0.00127239    0.00082283   -0.00835014
     atom   35 type  2   force =     0.00011649    0.00021148    0.00000140
     atom   36 type  2   force =     0.00012318    0.00004721    0.00018904
     atom   37 type  1   force =     0.00002709    0.00002026   -0.00009487
     atom   38 type  1   force =    -0.00003264   -0.00016052   -0.00018846
     atom   39 type  2   force =    -0.00016028   -0.00031621   -0.00006514
     atom   40 type  2   force =     0.00023602   -0.00003124   -0.00013955
     atom   41 type  2   force =     0.00031532   -0.00008477    0.00026005
     atom   42 type  2   force =    -0.00009387    0.00013822   -0.00037272
     atom   43 type  1   force =    -0.00027131   -0.00006730    0.00008164
     atom   44 type  1   force =     0.00050617   -0.00074332    0.00016802
     atom   45 type  2   force =     0.00003419   -0.00004992    0.10358271
     atom   46 type  2   force =    -0.07099923   -0.00006643   -0.02732008
     atom   47 type  2   force =     0.07085616    0.00033144   -0.02734937
     atom   48 type  3   force =    -0.00492225    0.00495602    0.00272802
     atom   49 type  4   force =     0.00717284   -0.00695982   -0.00280538
     atom   50 type  5   force =    -0.00181737    0.00173665   -0.00208842
     atom   51 type  5   force =     0.00029927    0.00008378    0.00007345
     atom   52 type  5   force =    -0.00051718   -0.00043045    0.00157569

     Total force =     0.366289     Total SCF correction =     0.000452
  @ DRIVER MODE: Message from server: STATUS
  @ DRIVER MODE: Message from server: GETFORCE
  @ DRIVER MODE: Returning v,forces,stress,ensemble

     Writing output data file ./calc.save/
  @ DRIVER MODE: Message from server: EXIT
  @ DRIVE MODE: Exiting

     General routines

     Parallel routines

   This run was terminated on:   1: 4:52   9Sep2021

   JOB DONE.