     Program PWSCF v.6.7GPU starts on 16Sep2021 at  7: 9:51

     R & G space division:  proc/nbgrp/npool/nimage =      10
     Reading input from /storage/home/hcoda1/3/ntian30/research/carbon/CxH_vib/H2O_calc/ads_slab/CH3NHNH2H2O_a/out_0044/pw.inp
Warning: card &CELL ignored
Warning: card   CELL_DYNAMICS='IPI', ignored
Warning: card / ignored

     Current dimensions of program PWSCF are:
     Max number of different atomic species (ntypx) = 10
     Max number of k-points (npk) =  40000
     Max angular momentum in pseudopotentials (lmaxx) =  3
     Presently no symmetry can be used with electric field

     Message from routine cell_base_init:
     DEPRECATED: use true lattice parameter, not A to a.u. conversion factor

     IMPORTANT: XC functional enforced from input :
     Exchange-correlation= BEEF-VDW
                           (   1   4  43  14   2   0   0)
     Any further DFT definition will be discarded
     Please, verify this is what you really want

  @ DRIVER MODE: Connecting to
 qe_1139763_2852619.sched-torque.pace.gatech.edu2f1ievqf_scratch
  using UNIX socket
  @ DRIVER MODE: Message from server: STATUS
  @ DRIVER MODE: Message from server: INIT
  @ DRIVER MODE: Receiving replica           0          -1
  @ DRIVER MODE: Receiving encoded integer          25
  @ DRIVER MODE:  SCF:  T  FORCE:  T  STRESS:  F  VC:  F  ENSEMBLE:  F
  @ DRIVER MODE:  SCF:  T  FORCE:  T  STRESS:  F  VC:  F  ENSEMBLE:  F

     Using Slab Decomposition

     bravais-lattice index     =            0
     lattice parameter (alat)  =       1.8897  a.u.
     unit-cell volume          =    6658.9804 (a.u.)^3
     number of atoms/cell      =           59
     number of atomic types    =            5
     number of electrons       =       406.00
     number of Kohn-Sham states=          213
     kinetic-energy cutoff     =      29.3995  Ry
     charge density cutoff     =     293.9946  Ry
     scf convergence threshold =      7.3E-08
     mixing beta               =       0.0500
     number of iterations used =            8  plain     mixing
     Exchange-correlation= BEEF-VDW
                           (   1   4  43  14   2   0   0)

     celldm(1)=   1.889726  celldm(2)=   0.000000  celldm(3)=   0.000000
     celldm(4)=   0.000000  celldm(5)=   0.000000  celldm(6)=   0.000000

     crystal axes: (cart. coord. in units of alat)
               a(1) = (   6.579727   0.000000   0.000000 )
               a(2) = (  -0.000775   5.961596   0.000000 )
               a(3) = (   0.000000   0.000000  25.155947 )

     reciprocal axes: (cart. coord. in units 2 pi/alat)
               b(1) = (  0.151982  0.000020  0.000000 )
               b(2) = (  0.000000  0.167740  0.000000 )
               b(3) = (  0.000000  0.000000  0.039752 )

     PseudoPot. # 1 for Ti read from file:
     /storage/coda1/p-amedford6/0/shared/rich_project_chbe-medford/medford-share/data/pseudos_module/espresso/nninc/pbe/van/Ti.UPF
     MD5 check sum: 8e4df49b7f0d34bbd5052bf3f5ea0213
     Pseudo is Ultrasoft, Zval = 12.0
     Generated by new atomic code, or converted to UPF format
     Using radial grid of  851 points,  6 beta functions with:
                l(1) =   0
                l(2) =   0
                l(3) =   1
                l(4) =   1
                l(5) =   2
                l(6) =   2
     Q(r) pseudized with  8 coefficients,  rinner =    1.000   1.000   1.000
                                                       1.000   1.000

     PseudoPot. # 2 for O  read from file:
     /storage/coda1/p-amedford6/0/shared/rich_project_chbe-medford/medford-share/data/pseudos_module/espresso/nninc/pbe/van/O.UPF
     MD5 check sum: 78c19812648e8988a0fe644b0f25305e
     Pseudo is Ultrasoft, Zval =  6.0
     Generated by new atomic code, or converted to UPF format
     Using radial grid of  737 points,  4 beta functions with:
                l(1) =   0
                l(2) =   0
                l(3) =   1
                l(4) =   1
     Q(r) pseudized with  8 coefficients,  rinner =    0.800   0.800   0.800

     PseudoPot. # 3 for N  read from file:
     /storage/coda1/p-amedford6/0/shared/rich_project_chbe-medford/medford-share/data/pseudos_module/espresso/nninc/pbe/van/N.UPF
     MD5 check sum: 90d10febe142ad51ac9d5be1deb811c4
     Pseudo is Ultrasoft, Zval =  5.0
     Generated by new atomic code, or converted to UPF format
     Using radial grid of  729 points,  4 beta functions with:
                l(1) =   0
                l(2) =   0
                l(3) =   1
                l(4) =   1
     Q(r) pseudized with  8 coefficients,  rinner =    0.800   0.800   0.800

     PseudoPot. # 4 for C  read from file:
     /storage/coda1/p-amedford6/0/shared/rich_project_chbe-medford/medford-share/data/pseudos_module/espresso/nninc/pbe/van/C.UPF
     MD5 check sum: 1a69bf6b8db32088f5b2163dbdb77a27
     Pseudo is Ultrasoft, Zval =  4.0
     Generated by new atomic code, or converted to UPF format
     Using radial grid of  721 points,  4 beta functions with:
                l(1) =   0
                l(2) =   0
                l(3) =   1
                l(4) =   1
     Q(r) pseudized with  8 coefficients,  rinner =    0.800   0.800   0.800

     PseudoPot. # 5 for H  read from file:
     /storage/coda1/p-amedford6/0/shared/rich_project_chbe-medford/medford-share/data/pseudos_module/espresso/nninc/pbe/van/H.UPF
     MD5 check sum: b5ee9d7bfd3a09ee7748110bda690ff7
     Pseudo is Ultrasoft, Zval =  1.0
     Generated by new atomic code, or converted to UPF format
     Using radial grid of  615 points,  1 beta functions with:
                l(1) =   0
     Q(r) pseudized with  8 coefficients,  rinner =    0.800

     atomic species   valence    mass     pseudopotential
        Ti1           12.00    47.86700     Ti( 1.00)
        O1             6.00    15.99900     O ( 1.00)
        N1             5.00    14.00700     N ( 1.00)
        C1             4.00    12.01100     C ( 1.00)
        H1             1.00     1.00800     H ( 1.00)

     No symmetry found

   Cartesian axes

     site n.     atom                  positions (alat units)
         1           Ti1 tau(   1) = (   0.0004258   2.9801865   6.0000000  )
         2           Ti1 tau(   2) = (   3.2906075   1.4906267   6.0002472  )
         3           O1  tau(   3) = (   0.0006271   0.0005054   7.9858123  )
         4           O1  tau(   4) = (   3.2906025   0.0005020   7.3038282  )
         5           O1  tau(   5) = (   4.5942328   1.4918067   9.2879030  )
         6           O1  tau(   6) = (   1.9868534   1.4903216   9.2879459  )
         7           Ti1 tau(   7) = (   3.2907910   2.8959150   9.1758416  )
         8           Ti1 tau(   8) = (   0.0015273   1.4827037   9.2680791  )
         9           O1  tau(   9) = (   3.2683845   0.0132936  11.3796717  )
        10           O1  tau(  10) = (   0.0116148   5.9584955  10.6183126  )
        11           O1  tau(  11) = (   1.2681313   1.5011218  12.7194972  )
        12           O1  tau(  12) = (   5.2787963   1.4993765  12.6897032  )
        13           Ti1 tau(  13) = (   6.5560253   2.9823375  12.4990790  )
        14           Ti1 tau(  14) = (   3.2673924   1.4925278  12.5394213  )
        15           O1  tau(  15) = (   6.5345332   5.8735037  14.6996474  )
        16           O1  tau(  16) = (   3.2898196   5.9462848  13.9939205  )
        17           O1  tau(  17) = (   4.4957945   1.5291507  16.1605787  )
        18           O1  tau(  18) = (   1.9883785   1.5110281  16.0762771  )
        19           Ti1 tau(  19) = (   3.2526948   3.0056396  15.7740191  )
        20           Ti1 tau(  20) = (   0.0000763   1.3299063  15.8143521  )
        21           O1  tau(  21) = (   3.2904802   0.0005063   4.7018136  )
        22           O1  tau(  22) = (   6.5205728   0.2065101  17.2442985  )
        23           O1  tau(  23) = (   1.3043587   1.4918075   6.0039043  )
        24           O1  tau(  24) = (   5.2767064   1.4903225   6.0039473  )
        25           Ti1 tau(  25) = (   0.0000382   5.9609847   6.0000000  )
        26           Ti1 tau(  26) = (   3.2902200   4.4714249   6.0002472  )
        27           O1  tau(  27) = (   0.0002396   2.9813036   7.9858123  )
        28           O1  tau(  28) = (   3.2902150   2.9813002   7.3038282  )
        29           O1  tau(  29) = (   4.5938453   4.4726049   9.2879030  )
        30           O1  tau(  30) = (   1.9864658   4.4711199   9.2879459  )
        31           Ti1 tau(  31) = (   3.2891106   5.8743827   9.1763621  )
        32           Ti1 tau(  32) = (   0.0006254   4.4649316   9.2693709  )
        33           O1  tau(  33) = (   3.2688559   2.9716192  11.3757022  )
        34           O1  tau(  34) = (   0.0092240   2.9805883  10.6323155  )
        35           O1  tau(  35) = (   1.2711362   4.4646907  12.6658965  )
        36           O1  tau(  36) = (   5.2748280   4.4660984  12.6332574  )
        37           Ti1 tau(  37) = (   6.5627654   5.9477838  12.5072267  )
        38           Ti1 tau(  38) = (   3.2667511   4.4702655  12.5260729  )
        39           O1  tau(  39) = (   6.5087961   3.0586107  15.0099536  )
        40           O1  tau(  40) = (   3.2849776   3.0149387  13.9815115  )
        41           O1  tau(  41) = (   4.4906635   4.4862850  16.2792570  )
        42           O1  tau(  42) = (   1.9756856   4.4939852  16.2100911  )
        43           Ti1 tau(  43) = (   3.2747729   0.0241646  15.7895078  )
        44           Ti1 tau(  44) = (   6.5697470   4.5456975  16.1185117  )
        45           O1  tau(  45) = (   3.2900926   2.9813045   4.7018136  )
        46           O1  tau(  46) = (   1.3039711   4.4726057   6.0039043  )
        47           O1  tau(  47) = (   5.2763189   4.4711207   6.0039473  )
        48           N1  tau(  48) = (   0.9980056   3.0961469  19.0053282  )
        49           N1  tau(  49) = (   6.4063515   3.4839273  18.2229180  )
        50           C1  tau(  50) = (   1.6570833   4.2684698  19.5811903  )
        51           H1  tau(  51) = (   0.9936588   4.8902639  20.1979557  )
        52           H1  tau(  52) = (   2.4789334   3.9063689  20.1993048  )
        53           H1  tau(  53) = (   2.0598354   4.8861676  18.7819781  )
        54           H1  tau(  54) = (   0.6510520   2.5058952  19.7602174  )
        55           H1  tau(  55) = (   5.8607131   4.1735594  18.7414995  )
        56           H1  tau(  56) = (   5.8147758   2.6545292  18.1916272  )
        57           O1  tau(  57) = (   5.1718451   0.7889162  19.5681371  )
        58           H1  tau(  58) = (   5.5516362   0.5215711  18.6954158  )
        59           H1  tau(  59) = (   4.2099197   0.7512590  19.4668632  )

     number of k points=    10  Fermi-Dirac smearing, width (Ry)=  0.0073
                       cart. coord. in units 2pi/alat
        k(    1) = (   0.0000000   0.0000000   0.0000000), wk =   0.1250000
        k(    2) = (   0.0000000   0.0419351   0.0000000), wk =   0.2500000
        k(    3) = (   0.0000000  -0.0838702   0.0000000), wk =   0.1250000
        k(    4) = (   0.0379955   0.0000049   0.0000000), wk =   0.2500000
        k(    5) = (   0.0379955   0.0419400   0.0000000), wk =   0.2500000
        k(    6) = (   0.0379955  -0.0838652   0.0000000), wk =   0.2500000
        k(    7) = (   0.0379955  -0.0419301   0.0000000), wk =   0.2500000
        k(    8) = (  -0.0759910  -0.0000099   0.0000000), wk =   0.1250000
        k(    9) = (  -0.0759910   0.0419252   0.0000000), wk =   0.2500000
        k(   10) = (  -0.0759910  -0.0838800   0.0000000), wk =   0.1250000

     Initial potential from superposition of free atoms

     starting charge  389.99912, renormalised to  406.00000

     negative rho (up, down):  1.389E-02 0.000E+00

     %%%%%%%%%%%%%%%%%%%%%%%%%%%%%%%%%%%%%%%%%%%%%%%%%%%%%%%%%%%%%%%%%%%%%%%%
     %                                                                      %
     % You are using vdW-DF, which was implemented by the Thonhauser group. %
     % Please cite the following two papers that made this development      %
     % possible and the two reviews that describe the various versions:     %
     %                                                                      %
     %   T. Thonhauser et al., PRL 115, 136402 (2015).                      %
     %   T. Thonhauser et al., PRB 76, 125112 (2007).                       %
     %   K. Berland et al., Rep. Prog. Phys. 78, 066501 (2015).             %
     %   D.C. Langreth et al., J. Phys.: Condens. Matter 21, 084203 (2009). %
     %                                                                      %
     %                                                                      %
     % If you are calculating the stress with vdW-DF, please also cite:     %
     %                                                                      %
     %   R. Sabatini et al., J. Phys.: Condens. Matter 24, 424209 (2012).   %
     %                                                                      %
     %%%%%%%%%%%%%%%%%%%%%%%%%%%%%%%%%%%%%%%%%%%%%%%%%%%%%%%%%%%%%%%%%%%%%%%%

     Adding external electric field

     Computed dipole along edir(3) :
        Dipole              -16.7176 Ry au,        -42.4920 Debye
        Dipole field         -0.0315 Ry au,

        Potential amp.        2.9245 Ry
        Total length         46.3494 bohr

     Starting wfcs are  308 atomic wfcs
  @ DRIVER MODE: Message from server: STATUS
  @ DRIVER MODE: Message from server: POSDATA
  @ DRIVER MODE: Reading and sharing cell
  @ DRIVER MODE: Reading and sharing positions
  @ DRIVER MODE: Received positions

     Self-consistent Calculation

     iteration #  1     ecut=    29.40 Ry     beta= 0.05
     Davidson diagonalization with overlap
     c_bands:  2 eigenvalues not converged
     c_bands:  3 eigenvalues not converged
     c_bands:  2 eigenvalues not converged
     c_bands:  4 eigenvalues not converged
     c_bands:  1 eigenvalues not converged
     c_bands:  4 eigenvalues not converged
     c_bands:  3 eigenvalues not converged
     c_bands:  5 eigenvalues not converged
     c_bands:  3 eigenvalues not converged
     ethr =  1.00E-05,  avg # of iterations = 24.8

[...]

     total energy              =   -2136.63230006 Ry
     estimated scf accuracy    <    9692.91125164 Ry

     iteration #  2     ecut=    29.40 Ry     beta= 0.05
     Davidson diagonalization with overlap
     ethr =  1.00E-02,  avg # of iterations = 32.9

[...]

     iteration # 60     ecut=    29.40 Ry     beta= 0.05
     Davidson diagonalization with overlap
     c_bands:  1 eigenvalues not converged
     ethr =  2.53E-11,  avg # of iterations = 13.5

[...]

     total energy              =   -2977.68377492 Ry
     estimated scf accuracy    <       0.00000012 Ry

     iteration # 61     ecut=    29.40 Ry     beta= 0.05
     Davidson diagonalization with overlap
     ethr =  2.53E-11,  avg # of iterations =  5.1

     negative rho (up, down):  1.439E-02 0.000E+00

     Adding external electric field

     Computed dipole along edir(3) :
        Dipole                1.0196 Ry au,          2.5916 Debye
        Dipole field          0.0019 Ry au,

        Potential amp.       -0.1784 Ry
        Total length         46.3494 bohr

     End of self-consistent calculation

          k = 0.0000 0.0000 0.0000 ( 18029 PWs)   bands (ev):

   -55.3601 -55.3229 -55.3107 -55.2931 -55.2766 -55.2412 -55.2393 -55.2046
   -55.1833 -55.1820 -55.1489 -55.1430 -55.1093 -55.0185 -54.3430 -54.3089
   -31.9265 -31.8089 -31.8036 -31.7281 -31.6764 -31.6725 -31.6724 -31.6494
   -31.5996 -31.5954 -31.5723 -31.5698 -31.5557 -31.5395 -31.5305 -31.5271
   -31.5146 -31.5076 -31.4971 -31.4795 -31.4647 -31.4633 -31.4355 -31.4249
   -31.4179 -31.4139 -31.3932 -31.3858 -31.3697 -31.3679 -31.3632 -31.3543
   -31.3422 -31.3413 -31.3324 -31.3299 -31.2968 -31.2937 -31.2714 -31.2542
   -31.2307 -31.2285 -30.7525 -30.6579 -30.6358 -30.5688 -30.4820 -30.3711
   -18.0036 -17.6461 -16.1938 -15.9331 -15.7877 -15.6592 -15.5616 -15.4334
   -15.4141 -15.2922 -15.2219 -15.1183 -15.0670 -15.0485 -15.0128 -15.0027
   -14.9793 -14.9089 -14.9027 -14.8888 -14.8648 -14.8559 -14.8099 -14.8021
   -14.7609 -14.7364 -14.7119 -14.6134 -14.5233 -14.4483 -14.3414 -13.1593
   -12.8456 -12.7281  -9.4119  -6.3244  -5.8818  -5.7576  -4.2526  -3.5324
    -3.3837  -3.3147  -3.2786  -3.2532  -3.1198  -2.9625  -2.9268  -2.8075
    -2.7893  -2.6888  -2.6451  -2.5738  -2.5570  -2.5420  -2.3960  -2.3733
    -2.3479  -2.2814  -2.2541  -2.1880  -2.1658  -2.1553  -2.1454  -2.1223
    -2.0945  -2.0509  -1.9931  -1.9339  -1.8407  -1.8158  -1.7647  -1.7353
    -1.7142  -1.6973  -1.6516  -1.6405  -1.6010  -1.5866  -1.5672  -1.5523
    -1.3895  -1.3670  -1.2649  -1.2034  -1.1044  -1.0005  -0.9648  -0.9503
    -0.8532  -0.8347  -0.7817  -0.7413  -0.7383  -0.7039  -0.5920  -0.5294
    -0.4770  -0.4135  -0.3911  -0.3507  -0.2827  -0.2001  -0.1436  -0.1295
    -0.1129  -0.0965   0.0129   0.0252   0.0770   0.1517   0.1613   0.1674
     0.2410   0.2976   0.3679   0.3924   0.4106   0.5156   0.5311   0.5634
     0.5692   0.5991   0.6199   0.6449   0.7050   0.7354   0.8185   0.9403
     1.1323   1.2214   1.2487   1.3672   1.5717   1.5842   1.6798   1.8630
     2.2562   2.3046   3.7368   3.8079   3.8827   3.8868   3.9094   3.9732
     4.2099   4.2272   4.2418   4.2455   4.2695

[...]

          k = 0.0380-0.0419 0.0000 ( 17876 PWs)   bands (ev):

[...]

          k =-0.0760-0.0000 0.0000 ( 17886 PWs)   bands (ev):

[...]

          k =-0.0760-0.0839 0.0000 ( 17948 PWs)   bands (ev):

   -55.3464 -55.3364 -55.2938 -55.2933 -55.2919 -55.2338 -55.2291 -55.2167
   -55.1875 -55.1673 -55.1645 -55.1265 -55.1259 -55.0196 -54.3261 -54.3257
   -31.7345 -31.7266 -31.7244 -31.6401 -31.6205 -31.6188 -31.6185 -31.5849
   -31.5848 -31.5738 -31.5596 -31.5584 -31.5516 -31.5317 -31.5199 -31.5067
   -31.5001 -31.4969 -31.4954 -31.4941 -31.4872 -31.4798 -31.4475 -31.4400
   -31.4369 -31.4366 -31.4228 -31.4179 -31.4135 -31.4130 -31.4078 -31.4000
   -31.3977 -31.3804 -31.3774 -31.3750 -31.3603 -31.3571 -31.3074 -31.3071
   -31.3010 -31.2345 -30.6486 -30.6483 -30.5650 -30.5648 -30.5255 -30.5253
   -17.9915 -17.6553 -15.6745 -15.5894 -15.5684 -15.4134 -15.3617 -15.3352
   -15.3242 -15.2089 -15.1663 -15.1472 -15.1327 -15.1108 -15.0726 -15.0630
   -15.0561 -14.9931 -14.9729 -14.9639 -14.9380 -14.8841 -14.8765 -14.8685
   -14.8608 -14.8108 -14.8069 -14.7673 -14.7162 -14.7128 -14.6378 -13.1654
   -12.8296 -12.8296  -9.4170  -6.3480  -5.9056  -5.6781  -4.2304  -2.9400
    -2.8475  -2.8366  -2.8301  -2.6980  -2.6267  -2.5513  -2.5291  -2.5077
    -2.4219  -2.4097  -2.3790  -2.3539  -2.3240  -2.2852  -2.2471  -2.2410
    -2.2048  -2.1963  -2.1805  -2.1638  -2.1422  -2.1269  -2.0930  -2.0823
    -2.0688  -2.0249  -1.9988  -1.9849  -1.9636  -1.9433  -1.9353  -1.9168
    -1.8418  -1.7518  -1.7273  -1.6420  -1.5734  -1.5709  -1.5650  -1.5030
    -1.4596  -1.4211  -1.3961  -1.3791  -1.2402  -1.1684  -1.1243  -1.1101
    -1.0954  -0.9647  -0.9584  -0.8824  -0.8598  -0.8533  -0.7605  -0.7153
    -0.6767  -0.6698  -0.5832  -0.5710  -0.4950  -0.3967  -0.3747  -0.3609
    -0.3158  -0.3140  -0.2766  -0.2637  -0.1672  -0.1317  -0.1080  -0.0978
    -0.0809  -0.0396   0.1110   0.1603   0.1668   0.2996   0.3316   0.4703
     0.5001   0.5643   0.6441   0.6929   0.7452   0.7780   0.8646   0.9394
     0.9425   1.0059   1.0215   1.0876   1.0998   1.3732   2.0360   2.0365
     2.1244   2.1248   3.8848   3.9998   4.0035   4.0327   4.1546   4.1782
     4.2545   4.2822   4.3214   4.3247   4.3830

     the Fermi energy is     3.8009 ev

!    total energy              =   -2977.68381740 Ry
     estimated scf accuracy    <       0.00000005 Ry
     smearing contrib. (-TS)   =      -0.03717723 Ry
     internal energy E=F+TS    =   -2977.64664017 Ry

     The total energy is F=E-TS. E is the sum of the following terms:
     one-electron contribution =  -22681.94260670 Ry
     hartree contribution      =   11438.33203036 Ry
     xc contribution           =    -496.62001672 Ry
     ewald contribution        =    8762.58199101 Ry
     electric field correction =       0.00196189 Ry

     convergence has been achieved in  61 iterations

     Forces acting on atoms (cartesian axes, Ry/au):

     atom    1 type  1   force =     0.00024380   -0.00037734    0.09322643
     atom    2 type  1   force =     0.00002143   -0.00038195   -0.17816579
     atom    3 type  2   force =     0.00004843   -0.00041746   -0.02001222
     atom    4 type  2   force =     0.00001004   -0.00190143    0.05911691
     atom    5 type  2   force =    -0.01035736   -0.00059275    0.00861797
     atom    6 type  2   force =     0.01130502    0.00009798    0.00628362
     atom    7 type  1   force =    -0.00096720    0.00198404   -0.01426346
     atom    8 type  1   force =     0.00097717   -0.00255907   -0.00599729
     atom    9 type  2   force =     0.00016873   -0.00001875    0.00009326
     atom   10 type  2   force =    -0.00231123    0.00309137    0.00261495
     atom   11 type  2   force =     0.00041209   -0.00043176   -0.00056821
     atom   12 type  2   force =     0.00004383   -0.00041072   -0.00057484
     atom   13 type  1   force =     0.00033681   -0.00027605   -0.00020313
     atom   14 type  1   force =     0.00004816   -0.00008734   -0.00005917
     atom   15 type  2   force =     0.00000474    0.00062811   -0.00004397
     atom   16 type  2   force =     0.00030566    0.00027788   -0.00014022
     atom   17 type  2   force =     0.00041086    0.00024366    0.00036816
     atom   18 type  2   force =    -0.00052542    0.00019609   -0.00010773
     atom   19 type  1   force =    -0.00013351    0.00008019    0.00037327
     atom   20 type  1   force =    -0.00006884   -0.00014639    0.00051180
     atom   21 type  2   force =     0.00011874   -0.00011094    0.10400054
     atom   22 type  2   force =     0.00016871   -0.00031072    0.00061420
     atom   23 type  2   force =    -0.07030013   -0.00019695   -0.02687043
     atom   24 type  2   force =     0.07028165    0.00024901   -0.02687280
     atom   25 type  1   force =     0.00017419   -0.00030773    0.09241884
     atom   26 type  1   force =     0.00005825   -0.00054039   -0.17849603
     atom   27 type  2   force =     0.00008214   -0.00021021   -0.01907491
     atom   28 type  2   force =     0.00005948   -0.00173168    0.05853717
     atom   29 type  2   force =    -0.01102391   -0.00114267    0.00945195
     atom   30 type  2   force =     0.01188079   -0.00069823    0.00723504
     atom   31 type  1   force =    -0.00087988    0.00646911   -0.01492518
     atom   32 type  1   force =     0.00102207    0.00219861   -0.00639681
     atom   33 type  2   force =     0.00025988    0.00009668    0.00002261
     atom   34 type  2   force =    -0.00214752   -0.00243339   -0.00031425
     atom   35 type  2   force =     0.00027424    0.00012885   -0.00001105
     atom   36 type  2   force =     0.00026147    0.00003808    0.00050510
     atom   37 type  1   force =    -0.00009944    0.00003406   -0.00003618
     atom   38 type  1   force =     0.00015045   -0.00006848    0.00001160
     atom   39 type  2   force =    -0.00010875   -0.00023152    0.00043161
     atom   40 type  2   force =    -0.00014300    0.00008420    0.00004106
     atom   41 type  2   force =    -0.00042704    0.00015035    0.00025377
     atom   42 type  2   force =     0.00024785   -0.00008845   -0.00016058
     atom   43 type  1   force =     0.00039602    0.00028192   -0.00002580
     atom   44 type  1   force =    -0.00003427   -0.00017607   -0.00012684
     atom   45 type  2   force =     0.00012240   -0.00011069    0.10393473
     atom   46 type  2   force =    -0.07026523   -0.00012846   -0.02681104
     atom   47 type  2   force =     0.07025641    0.00027860   -0.02687711
     atom   48 type  3   force =     0.00090000   -0.00092322   -0.00046895
     atom   49 type  3   force =     0.00534704   -0.00440405   -0.00395265
     atom   50 type  4   force =    -0.00035931   -0.00018569   -0.00035798
     atom   51 type  5   force =    -0.00069916    0.00042456    0.00042977
     atom   52 type  5   force =     0.00038813   -0.00001506    0.00036171
     atom   53 type  5   force =    -0.00000344    0.00020291   -0.00045331
     atom   54 type  5   force =     0.00005577   -0.00011991   -0.00006469
     atom   55 type  5   force =    -0.00532587    0.00507669    0.00277708
     atom   56 type  5   force =    -0.00082471   -0.00014189    0.00100956
     atom   57 type  2   force =    -0.00100571   -0.00065760    0.00080496
     atom   58 type  5   force =     0.00003973   -0.00027621   -0.00015684
     atom   59 type  5   force =     0.00112875    0.00049828   -0.00145818

     Total force =     0.366445     Total SCF correction =     0.000431
  @ DRIVER MODE: Message from server: STATUS
  @ DRIVER MODE: Message from server: GETFORCE
  @ DRIVER MODE: Returning v,forces,stress,ensemble

     Writing output data file ./calc.save/
  @ DRIVER MODE: Message from server: EXIT
  @ DRIVE MODE: Exiting

     General routines

     Parallel routines

   This run was terminated on:   7:28:21  16Sep2021

   JOB DONE.