     Program PWSCF v.6.7GPU starts on 24Sep2021 at  0:16: 6

     R & G space division:  proc/nbgrp/npool/nimage =       8
     Reading input from /storage/home/hcoda1/3/ntian30/research/carbon/CxH_vib/H2O_calc/ads_slab/CH3NNHHHHO_a/out_0033/pw.inp
Warning: card &CELL ignored
Warning: card   CELL_DYNAMICS='IPI', ignored
Warning: card / ignored

     Current dimensions of program PWSCF are:
     Max number of different atomic species (ntypx) = 10
     Max number of k-points (npk) =  40000
     Max angular momentum in pseudopotentials (lmaxx) =  3
     Presently no symmetry can be used with electric field

     Message from routine cell_base_init:
     DEPRECATED: use true lattice parameter, not A to a.u. conversion factor

     IMPORTANT: XC functional enforced from input :
     Exchange-correlation= BEEF-VDW
                           (   1   4  43  14   2   0   0)
     Any further DFT definition will be discarded
     Please, verify this is what you really want

  @ DRIVER MODE: Connecting to
 qe_1139763_2947308.sched-torque.pace.gatech.eduw02zmi1t_scratch
  using UNIX socket
  @ DRIVER MODE: Message from server: STATUS
  @ DRIVER MODE: Message from server: INIT
  @ DRIVER MODE: Receiving replica           0          -1
  @ DRIVER MODE: Receiving encoded integer          25
  @ DRIVER MODE:  SCF:  T  FORCE:  T  STRESS:  F  VC:  F  ENSEMBLE:  F
  @ DRIVER MODE:  SCF:  T  FORCE:  T  STRESS:  F  VC:  F  ENSEMBLE:  F

     Using Slab Decomposition

     bravais-lattice index     =            0
     lattice parameter (alat)  =       1.8897  a.u.
     unit-cell volume          =    6658.9804 (a.u.)^3
     number of atoms/cell      =           58
     number of atomic types    =            5
     number of electrons       =       405.00
     number of Kohn-Sham states=          212
     kinetic-energy cutoff     =      29.3995  Ry
     charge density cutoff     =     293.9946  Ry
     scf convergence threshold =      7.3E-08
     mixing beta               =       0.0500
     number of iterations used =            8  plain     mixing
     Exchange-correlation= BEEF-VDW
                           (   1   4  43  14   2   0   0)

     celldm(1)=   1.889726  celldm(2)=   0.000000  celldm(3)=   0.000000
     celldm(4)=   0.000000  celldm(5)=   0.000000  celldm(6)=   0.000000

     crystal axes: (cart. coord. in units of alat)
               a(1) = (   6.579727   0.000000   0.000000 )
               a(2) = (  -0.000775   5.961596   0.000000 )
               a(3) = (   0.000000   0.000000  25.155947 )

     reciprocal axes: (cart. coord. in units 2 pi/alat)
               b(1) = (  0.151982  0.000020  0.000000 )
               b(2) = (  0.000000  0.167740  0.000000 )
               b(3) = (  0.000000  0.000000  0.039752 )

     PseudoPot. # 1 for Ti read from file:
     /storage/coda1/p-amedford6/0/shared/rich_project_chbe-medford/medford-share/data/pseudos_module/espresso/nninc/pbe/van/Ti.UPF
     MD5 check sum: 8e4df49b7f0d34bbd5052bf3f5ea0213
     Pseudo is Ultrasoft, Zval = 12.0
     Generated by new atomic code, or converted to UPF format
     Using radial grid of  851 points,  6 beta functions with:
                l(1) =   0
                l(2) =   0
                l(3) =   1
                l(4) =   1
                l(5) =   2
                l(6) =   2
     Q(r) pseudized with  8 coefficients,  rinner =    1.000   1.000   1.000
                                                       1.000   1.000

     PseudoPot. # 2 for O  read from file:
     /storage/coda1/p-amedford6/0/shared/rich_project_chbe-medford/medford-share/data/pseudos_module/espresso/nninc/pbe/van/O.UPF
     MD5 check sum: 78c19812648e8988a0fe644b0f25305e
     Pseudo is Ultrasoft, Zval =  6.0
     Generated by new atomic code, or converted to UPF format
     Using radial grid of  737 points,  4 beta functions with:
                l(1) =   0
                l(2) =   0
                l(3) =   1
                l(4) =   1
     Q(r) pseudized with  8 coefficients,  rinner =    0.800   0.800   0.800

     PseudoPot. # 3 for N  read from file:
     /storage/coda1/p-amedford6/0/shared/rich_project_chbe-medford/medford-share/data/pseudos_module/espresso/nninc/pbe/van/N.UPF
     MD5 check sum: 90d10febe142ad51ac9d5be1deb811c4
     Pseudo is Ultrasoft, Zval =  5.0
     Generated by new atomic code, or converted to UPF format
     Using radial grid of  729 points,  4 beta functions with:
                l(1) =   0
                l(2) =   0
                l(3) =   1
                l(4) =   1
     Q(r) pseudized with  8 coefficients,  rinner =    0.800   0.800   0.800

     PseudoPot. # 4 for C  read from file:
     /storage/coda1/p-amedford6/0/shared/rich_project_chbe-medford/medford-share/data/pseudos_module/espresso/nninc/pbe/van/C.UPF
     MD5 check sum: 1a69bf6b8db32088f5b2163dbdb77a27
     Pseudo is Ultrasoft, Zval =  4.0
     Generated by new atomic code, or converted to UPF format
     Using radial grid of  721 points,  4 beta functions with:
                l(1) =   0
                l(2) =   0
                l(3) =   1
                l(4) =   1
     Q(r) pseudized with  8 coefficients,  rinner =    0.800   0.800   0.800

     PseudoPot. # 5 for H  read from file:
     /storage/coda1/p-amedford6/0/shared/rich_project_chbe-medford/medford-share/data/pseudos_module/espresso/nninc/pbe/van/H.UPF
     MD5 check sum: b5ee9d7bfd3a09ee7748110bda690ff7
     Pseudo is Ultrasoft, Zval =  1.0
     Generated by new atomic code, or converted to UPF format
     Using radial grid of  615 points,  1 beta functions with:
                l(1) =   0
     Q(r) pseudized with  8 coefficients,  rinner =    0.800

     atomic species   valence    mass     pseudopotential
        Ti1           12.00    47.86700     Ti( 1.00)
        O1             6.00    15.99900     O ( 1.00)
        N1             5.00    14.00700     N ( 1.00)
        C1             4.00    12.01100     C ( 1.00)
        H1             1.00     1.00800     H ( 1.00)

     No symmetry found

   Cartesian axes

     site n.     atom                  positions (alat units)
         1           Ti1 tau(   1) = (   0.0004258   2.9801865   6.0000000  )
         2           Ti1 tau(   2) = (   3.2906075   1.4906267   6.0002472  )
         3           O1  tau(   3) = (   0.0006271   0.0005054   7.9858123  )
         4           O1  tau(   4) = (   3.2906025   0.0005020   7.3038282  )
         5           O1  tau(   5) = (   4.5942328   1.4918067   9.2879030  )
         6           O1  tau(   6) = (   1.9868534   1.4903216   9.2879459  )
         7           Ti1 tau(   7) = (   3.2907910   2.8959150   9.1758416  )
         8           Ti1 tau(   8) = (   0.0015273   1.4827037   9.2680791  )
         9           O1  tau(   9) = (   3.3066316   0.0080679  11.3583267  )
        10           O1  tau(  10) = (   0.0116148   5.9584955  10.6183126  )
        11           O1  tau(  11) = (   1.3000076   1.5005770  12.6434233  )
        12           O1  tau(  12) = (   5.3281586   1.4930334  12.6431679  )
        13           Ti1 tau(  13) = (   0.0126194   3.0144704  12.5166071  )
        14           Ti1 tau(  14) = (   3.3185830   1.5708444  12.4374219  )
        15           O1  tau(  15) = (   0.0449490   0.0685618  14.6579901  )
        16           O1  tau(  16) = (   3.3164028   5.8986079  13.9921319  )
        17           O1  tau(  17) = (   4.5763498   1.4919541  16.1892649  )
        18           O1  tau(  18) = (   2.0390356   1.5007807  16.1677599  )
        19           Ti1 tau(  19) = (   3.3152479   2.9236451  15.6986563  )
        20           Ti1 tau(  20) = (   0.0808212   1.4292116  16.0039943  )
        21           O1  tau(  21) = (   3.2904802   0.0005063   4.7018136  )
        22           O1  tau(  22) = (   0.0303022   5.8046116  17.1736243  )
        23           O1  tau(  23) = (   1.3043587   1.4918075   6.0039043  )
        24           O1  tau(  24) = (   5.2767064   1.4903225   6.0039473  )
        25           Ti1 tau(  25) = (   0.0000382   5.9609847   6.0000000  )
        26           Ti1 tau(  26) = (   3.2902200   4.4714249   6.0002472  )
        27           O1  tau(  27) = (   0.0002396   2.9813036   7.9858123  )
        28           O1  tau(  28) = (   3.2902150   2.9813002   7.3038282  )
        29           O1  tau(  29) = (   4.5938453   4.4726049   9.2879030  )
        30           O1  tau(  30) = (   1.9864658   4.4711199   9.2879459  )
        31           Ti1 tau(  31) = (   3.2891106   5.8743827   9.1763621  )
        32           Ti1 tau(  32) = (   0.0006254   4.4649316   9.2693709  )
        33           O1  tau(  33) = (   3.3101163   2.9547251  11.3177968  )
        34           O1  tau(  34) = (   0.0092240   2.9805883  10.6323155  )
        35           O1  tau(  35) = (   1.2917786   4.4638488  12.6831265  )
        36           O1  tau(  36) = (   5.3332004   4.4701953  12.6833355  )
        37           Ti1 tau(  37) = (   0.0360484   0.0435164  12.5022323  )
        38           Ti1 tau(  38) = (   3.3166134   4.6596848  12.7231989  )
        39           O1  tau(  39) = (   6.5734590   2.9070644  14.8960501  )
        40           O1  tau(  40) = (   3.3256711   2.9499323  13.9293234  )
        41           O1  tau(  41) = (   4.5718193   4.3849529  16.1598725  )
        42           O1  tau(  42) = (   2.0293811   4.3548050  16.0908550  )
        43           Ti1 tau(  43) = (   3.3839698   5.9011270  16.3477160  )
        44           Ti1 tau(  44) = (   0.0762916   4.6312412  15.8077656  )
        45           O1  tau(  45) = (   3.2900926   2.9813045   4.7018136  )
        46           O1  tau(  46) = (   1.3039711   4.4726057   6.0039043  )
        47           O1  tau(  47) = (   5.2763189   4.4711207   6.0039473  )
        48           N1  tau(  48) = (   1.0338470   3.0145746  18.8549854  )
        49           N1  tau(  49) = (   6.4614719   2.5758313  18.0922931  )
        50           C1  tau(  50) = (   0.6385090   3.7489381  20.0602371  )
        51           H1  tau(  51) = (   6.5128770   4.5633600  19.8465500  )
        52           H1  tau(  52) = (   0.1876125   3.0656416  20.7809517  )
        53           H1  tau(  53) = (   1.5398112   4.1667214  20.4987412  )
        54           H1  tau(  54) = (   5.7034478   3.2665398  18.1448723  )
        55           H1  tau(  55) = (   6.1095767   1.7263867  18.5341855  )
        56           H1  tau(  56) = (   1.5400177   3.6533120  18.2466354  )
        57           O1  tau(  57) = (   3.2295176   5.8880611  18.1942677  )
        58           H1  tau(  58) = (   2.6769533   0.6239085  18.5854980  )

     number of k points=    10  Fermi-Dirac smearing, width (Ry)=  0.0073
                       cart. coord. in units 2pi/alat
        k(    1) = (   0.0000000   0.0000000   0.0000000), wk =   0.1250000
        k(    2) = (   0.0000000   0.0419351   0.0000000), wk =   0.2500000
        k(    3) = (   0.0000000  -0.0838702   0.0000000), wk =   0.1250000
        k(    4) = (   0.0379955   0.0000049   0.0000000), wk =   0.2500000
        k(    5) = (   0.0379955   0.0419400   0.0000000), wk =   0.2500000
        k(    6) = (   0.0379955  -0.0838652   0.0000000), wk =   0.2500000
        k(    7) = (   0.0379955  -0.0419301   0.0000000), wk =   0.2500000
        k(    8) = (  -0.0759910  -0.0000099   0.0000000), wk =   0.1250000
        k(    9) = (  -0.0759910   0.0419252   0.0000000), wk =   0.2500000
        k(   10) = (  -0.0759910  -0.0838800   0.0000000), wk =   0.1250000

     Initial potential from superposition of free atoms

     starting charge  388.99913, renormalised to  405.00000

     negative rho (up, down):  1.325E-02 0.000E+00

     %%%%%%%%%%%%%%%%%%%%%%%%%%%%%%%%%%%%%%%%%%%%%%%%%%%%%%%%%%%%%%%%%%%%%%%%
     %                                                                      %
     % You are using vdW-DF, which was implemented by the Thonhauser group. %
     % Please cite the following two papers that made this development      %
     % possible and the two reviews that describe the various versions:     %
     %                                                                      %
     %   T. Thonhauser et al., PRL 115, 136402 (2015).                      %
     %   T. Thonhauser et al., PRB 76, 125112 (2007).                       %
     %   K. Berland et al., Rep. Prog. Phys. 78, 066501 (2015).             %
     %   D.C. Langreth et al., J. Phys.: Condens. Matter 21, 084203 (2009). %
     %                                                                      %
     %                                                                      %
     % If you are calculating the stress with vdW-DF, please also cite:     %
     %                                                                      %
     %   R. Sabatini et al., J. Phys.: Condens. Matter 24, 424209 (2012).   %
     %                                                                      %
     %%%%%%%%%%%%%%%%%%%%%%%%%%%%%%%%%%%%%%%%%%%%%%%%%%%%%%%%%%%%%%%%%%%%%%%%

     Adding external electric field

     Computed dipole along edir(3) :
        Dipole              -14.7651 Ry au,        -37.5293 Debye
        Dipole field         -0.0279 Ry au,

        Potential amp.        2.5829 Ry
        Total length         46.3494 bohr

     Starting wfcs are  307 atomic wfcs
  @ DRIVER MODE: Message from server: STATUS
  @ DRIVER MODE: Message from server: POSDATA
  @ DRIVER MODE: Reading and sharing cell
  @ DRIVER MODE: Reading and sharing positions
  @ DRIVER MODE: Received positions

     Self-consistent Calculation

     iteration #  1     ecut=    29.40 Ry     beta= 0.05
     Davidson diagonalization with overlap
     c_bands:  3 eigenvalues not converged
     c_bands:  4 eigenvalues not converged
     c_bands:  2 eigenvalues not converged
     c_bands:  3 eigenvalues not converged
     c_bands:  3 eigenvalues not converged
     c_bands:  3 eigenvalues not converged
     ethr =  1.00E-05,  avg # of iterations = 23.2

[...]

     total energy              =   -2204.22482401 Ry
     estimated scf accuracy    <    8785.90940110 Ry

     iteration #  2     ecut=    29.40 Ry     beta= 0.05
     Davidson diagonalization with overlap
     ethr =  1.00E-02,  avg # of iterations = 31.7

[...]

     iteration # 63     ecut=    29.40 Ry     beta= 0.05
     Davidson diagonalization with overlap
     c_bands:  1 eigenvalues not converged
     ethr =  5.81E-11,  avg # of iterations = 15.2

[...]

     total energy              =   -2976.49823835 Ry
     estimated scf accuracy    <       0.00000014 Ry

     iteration # 66     ecut=    29.40 Ry     beta= 0.05
     Davidson diagonalization with overlap
     ethr =  2.97E-11,  avg # of iterations =  7.2

     negative rho (up, down):  1.444E-02 0.000E+00

     Adding external electric field

     Computed dipole along edir(3) :
        Dipole                0.9938 Ry au,          2.5260 Debye
        Dipole field          0.0019 Ry au,

        Potential amp.       -0.1739 Ry
        Total length         46.3494 bohr

     End of self-consistent calculation

          k = 0.0000 0.0000 0.0000 ( 18029 PWs)   bands (ev):

   -55.5816 -55.4978 -55.4638 -55.3630 -55.3416 -55.3258 -55.3119 -55.3052
   -55.2920 -55.2625 -55.2188 -55.0963 -55.0855 -55.0087 -54.4670 -54.4330
   -31.9823 -31.9179 -31.8767 -31.8294 -31.8277 -31.8089 -31.7984 -31.7887
   -31.7490 -31.7438 -31.7258 -31.6504 -31.6267 -31.6062 -31.6043 -31.6025
   -31.5966 -31.5847 -31.5823 -31.5554 -31.5491 -31.5241 -31.5233 -31.5116
   -31.4964 -31.4854 -31.4774 -31.4603 -31.4561 -31.4531 -31.4434 -31.4377
   -31.4336 -31.4145 -31.3725 -31.3705 -31.3000 -31.2929 -31.2788 -31.2583
   -31.2214 -31.2141 -30.8727 -30.7870 -30.7646 -30.6903 -30.6039 -30.4921
   -17.5811 -16.4002 -16.1387 -15.9762 -15.7604 -15.6749 -15.6465 -15.4539
   -15.3486 -15.2957 -15.1094 -15.0634 -15.0325 -15.0216 -15.0063 -14.9835
   -14.9636 -14.9256 -14.9169 -14.9067 -14.9011 -14.8626 -14.8402 -14.7896
   -14.7671 -14.7043 -14.6320 -14.5645 -14.5170 -14.2561 -14.2383 -12.9703
   -12.9653 -12.8491  -9.4676  -6.1520  -5.2052  -4.6328  -3.9618  -3.5035
    -3.4024  -3.3868  -3.3325  -3.2685  -3.1800  -2.9951  -2.8862  -2.8338
    -2.7318  -2.6244  -2.5696  -2.5065  -2.4822  -2.4296  -2.3966  -2.3851
    -2.3780  -2.2818  -2.2733  -2.2463  -2.2108  -2.1548  -2.1391  -2.0612
    -2.0248  -2.0164  -1.8921  -1.8793  -1.8135  -1.8091  -1.8030  -1.7693
    -1.7483  -1.7334  -1.7043  -1.6206  -1.5676  -1.4972  -1.4744  -1.4446
    -1.1855  -1.0934  -1.0557  -1.0281  -0.9302  -0.9139  -0.9006  -0.8969
    -0.8829  -0.8335  -0.7871  -0.7028  -0.5934  -0.5730  -0.5643  -0.5193
    -0.4540  -0.3721  -0.2990  -0.2693  -0.2321  -0.2188  -0.1528  -0.0753
    -0.0592  -0.0469   0.0618   0.0761   0.1584   0.2171   0.2311   0.2758
     0.3168   0.3496   0.4062   0.4426   0.4730   0.4790   0.5122   0.5567
     0.6125   0.6429   0.6708   0.7530   0.8086   0.8540   0.8817   1.0529
     1.0829   1.1389   1.1793   1.2665   1.5093   1.5596   1.5989   1.7540
     2.1260   2.1712   3.5868   3.7379   3.7531   3.8225   3.8476   3.9388
     4.0761   4.1441   4.2781   4.2841

[...]

          k = 0.0380-0.0419 0.0000 ( 17876 PWs)   bands (ev):

[...]

          k =-0.0760-0.0000 0.0000 ( 17886 PWs)   bands (ev):

[...]

          k =-0.0760-0.0839 0.0000 ( 17948 PWs)   bands (ev):

   -55.5808 -55.4809 -55.4805 -55.3618 -55.3285 -55.3182 -55.3125 -55.3089
   -55.3085 -55.2546 -55.2267 -55.0932 -55.0866 -55.0118 -54.4501 -54.4497
   -31.8653 -31.8075 -31.8023 -31.7977 -31.7975 -31.7832 -31.7744 -31.7740
   -31.7053 -31.6491 -31.6411 -31.6337 -31.6288 -31.6157 -31.6009 -31.6008
   -31.5986 -31.5982 -31.5841 -31.5735 -31.5659 -31.5575 -31.5364 -31.5181
   -31.5155 -31.5116 -31.5043 -31.5013 -31.4889 -31.4816 -31.4790 -31.4734
   -31.4683 -31.4496 -31.4439 -31.3665 -31.3546 -31.3406 -31.3019 -31.2970
   -31.2636 -31.2175 -30.7774 -30.7772 -30.6858 -30.6854 -30.6473 -30.6470
   -17.5751 -16.3861 -15.7469 -15.5688 -15.4726 -15.4662 -15.3354 -15.2696
   -15.2608 -15.2263 -15.2076 -15.1927 -15.1596 -15.1422 -15.1028 -15.0498
   -15.0165 -14.9938 -14.9823 -14.9452 -14.9327 -14.9107 -14.9035 -14.8949
   -14.8365 -14.8045 -14.7954 -14.7645 -14.5692 -14.5472 -14.3708 -12.9718
   -12.9510 -12.9509  -9.4651  -6.1372  -5.2071  -4.6429  -3.9579  -3.1834
    -2.9211  -2.7778  -2.7016  -2.5675  -2.5578  -2.4998  -2.4943  -2.4473
    -2.4386  -2.3974  -2.3435  -2.3279  -2.2844  -2.2794  -2.2488  -2.2362
    -2.2255  -2.2164  -2.1913  -2.1717  -2.1629  -2.1221  -2.1175  -2.1017
    -2.0819  -2.0655  -2.0379  -2.0270  -1.9868  -1.9473  -1.8821  -1.8084
    -1.7226  -1.6398  -1.6293  -1.6186  -1.5721  -1.5655  -1.5188  -1.5074
    -1.4601  -1.4086  -1.2946  -1.1718  -1.1320  -1.1055  -1.0734  -1.0413
    -0.9866  -0.9639  -0.9288  -0.8805  -0.8487  -0.7249  -0.7139  -0.6485
    -0.5638  -0.5306  -0.4548  -0.4415  -0.4269  -0.4108  -0.3890  -0.3723
    -0.3428  -0.3267  -0.2224  -0.1984  -0.1953  -0.1726  -0.1217  -0.0190
     0.0550   0.1380   0.2407   0.2904   0.3181   0.3518   0.4517   0.5699
     0.5951   0.6581   0.6902   0.7331   0.8002   0.8209   0.8688   0.9537
     1.0071   1.0397   1.0658   1.0709   1.1255   1.1546   1.9226   1.9311
     1.9914   1.9917   3.8005   4.0766   4.1023   4.1182   4.1556   4.1598
     4.1819   4.1962   4.2616   4.2774

     the Fermi energy is     3.6238 ev

!    total energy              =   -2976.49826472 Ry
     estimated scf accuracy    <       0.00000005 Ry
     smearing contrib. (-TS)   =      -0.01952677 Ry
     internal energy E=F+TS    =   -2976.47873795 Ry

     The total energy is F=E-TS. E is the sum of the following terms:
     one-electron contribution =  -23034.52851637 Ry
     hartree contribution      =   11613.62712313 Ry
     xc contribution           =    -495.71231288 Ry
     ewald contribution        =    8940.13310430 Ry
     electric field correction =       0.00186388 Ry

     convergence has been achieved in  66 iterations

     Forces acting on atoms (cartesian axes, Ry/au):

     atom    1 type  1   force =     0.00000944   -0.00022341    0.09405822
     atom    2 type  1   force =    -0.00015975    0.00025007   -0.17514731
     atom    3 type  2   force =     0.00007415   -0.00016142   -0.02115163
     atom    4 type  2   force =     0.00000354   -0.00104222    0.05356436
     atom    5 type  2   force =    -0.00455562   -0.00322625    0.00114501
     atom    6 type  2   force =     0.00661292   -0.00242597    0.00160949
     atom    7 type  1   force =     0.00037367    0.00457110    0.01036316
     atom    8 type  1   force =    -0.00056043    0.00199514    0.00311289
     atom    9 type  2   force =     0.00010321   -0.00050171   -0.00047908
     atom   10 type  2   force =    -0.00031141   -0.00004188   -0.01130843
     atom   11 type  2   force =    -0.00023840    0.00046300    0.00004338
     atom   12 type  2   force =    -0.00026595    0.00067943    0.00008115
     atom   13 type  1   force =     0.00061567   -0.00065547    0.00023627
     atom   14 type  1   force =    -0.00035681    0.00016388    0.00020448
     atom   15 type  2   force =    -0.00017178    0.00009279    0.00052674
     atom   16 type  2   force =     0.00004707   -0.00002203    0.00041604
     atom   17 type  2   force =    -0.00038716    0.00023268    0.00008035
     atom   18 type  2   force =     0.00003656    0.00008770    0.00024208
     atom   19 type  1   force =    -0.00009137    0.00053304   -0.00028982
     atom   20 type  1   force =    -0.00001458   -0.00009534   -0.00009610
     atom   21 type  2   force =     0.00002922   -0.00001183    0.10312302
     atom   22 type  2   force =    -0.00007812   -0.00016787   -0.00034545
     atom   23 type  2   force =    -0.07213965   -0.00021334   -0.02725483
     atom   24 type  2   force =     0.07204395    0.00022932   -0.02733256
     atom   25 type  1   force =     0.00007012   -0.00034710    0.09404485
     atom   26 type  1   force =    -0.00000331   -0.00128657   -0.17517955
     atom   27 type  2   force =     0.00015351   -0.00021433   -0.01992839
     atom   28 type  2   force =     0.00008705   -0.00111141    0.04908499
     atom   29 type  2   force =    -0.00669198    0.00152452    0.00212187
     atom   30 type  2   force =     0.00856057    0.00170289    0.00249250
     atom   31 type  1   force =     0.00050024   -0.00019640    0.00052262
     atom   32 type  1   force =    -0.00020271   -0.00145463    0.00350355
     atom   33 type  2   force =    -0.00007862    0.00000067   -0.00002979
     atom   34 type  2   force =    -0.00088880    0.00246498   -0.01151212
     atom   35 type  2   force =     0.00002918   -0.00043584    0.00048458
     atom   36 type  2   force =    -0.00052737   -0.00041281    0.00033992
     atom   37 type  1   force =     0.00037001    0.00029088    0.00002255
     atom   38 type  1   force =    -0.00038070    0.00020958    0.00029477
     atom   39 type  2   force =    -0.00050750    0.00042323    0.00047830
     atom   40 type  2   force =    -0.00001976   -0.00007533   -0.00004199
     atom   41 type  2   force =    -0.00038370   -0.00027003    0.00026623
     atom   42 type  2   force =    -0.00021795   -0.00025147   -0.00025475
     atom   43 type  1   force =    -0.00003857   -0.00036582    0.00070502
     atom   44 type  1   force =    -0.00017419    0.00016562    0.00012628
     atom   45 type  2   force =     0.00002144   -0.00001658    0.10297958
     atom   46 type  2   force =    -0.07214537   -0.00008278   -0.02725289
     atom   47 type  2   force =     0.07200042    0.00035536   -0.02729529
     atom   48 type  3   force =    -0.00002009   -0.00085603   -0.00052251
     atom   49 type  3   force =    -0.00066612    0.00005528   -0.00007469
     atom   50 type  4   force =    -0.00270460   -0.00340124   -0.00128819
     atom   51 type  5   force =     0.00043336    0.00063135    0.00039272
     atom   52 type  5   force =    -0.00071120   -0.00108279   -0.00030444
     atom   53 type  5   force =     0.00364191    0.00284244    0.00183946
     atom   54 type  5   force =     0.00018685    0.00020365   -0.00057229
     atom   55 type  5   force =    -0.00015932    0.00032741    0.00041666
     atom   56 type  5   force =     0.00030550    0.00025175   -0.00038570
     atom   57 type  2   force =    -0.00020760    0.00052820   -0.00067948
     atom   58 type  5   force =    -0.00024909   -0.00062607   -0.00019584

     Total force =     0.361781     Total SCF correction =     0.000592
  @ DRIVER MODE: Message from server: STATUS
  @ DRIVER MODE: Message from server: GETFORCE
  @ DRIVER MODE: Returning v,forces,stress,ensemble

     Writing output data file ./calc.save/
  @ DRIVER MODE: Message from server: EXIT
  @ DRIVE MODE: Exiting

     General routines

     Parallel routines

   This run was terminated on:   0:40:20  24Sep2021

   JOB DONE.