     Program PWSCF v.6.7GPU starts on 16Jul2021 at  6: 1:57

     R & G space division:  proc/nbgrp/npool/nimage =      16
     Reading input from /storage/home/hcoda1/3/ntian30/research/carbon/15Jul_vib/ads_slab/CH3NNHH_a/out_0020/pw.inp
Warning: card &CELL ignored
Warning: card   CELL_DYNAMICS='IPI', ignored
Warning: card / ignored

     Current dimensions of program PWSCF are:
     Max number of different atomic species (ntypx) = 10
     Max number of k-points (npk) =  40000
     Max angular momentum in pseudopotentials (lmaxx) =  3
     Presently no symmetry can be used with electric field

     Message from routine cell_base_init:
     DEPRECATED: use true lattice parameter, not A to a.u. conversion factor

     IMPORTANT: XC functional enforced from input :
     Exchange-correlation= BEEF-VDW
                           (   1   4  43  14   2   0   0)
     Any further DFT definition will be discarded
     Please, verify this is what you really want

  @ DRIVER MODE: Connecting to
 qe_1139763_2351651.sched-torque.pace.gatech.edu7wtx9rgs_scratch
  using UNIX socket
  @ DRIVER MODE: Message from server: STATUS
  @ DRIVER MODE: Message from server: INIT
  @ DRIVER MODE: Receiving replica           0          -1
  @ DRIVER MODE: Receiving encoded integer          25
  @ DRIVER MODE:  SCF:  T  FORCE:  T  STRESS:  F  VC:  F  ENSEMBLE:  F
  @ DRIVER MODE:  SCF:  T  FORCE:  T  STRESS:  F  VC:  F  ENSEMBLE:  F

     Using Slab Decomposition

     bravais-lattice index     =            0
     lattice parameter (alat)  =       1.8897  a.u.
     unit-cell volume          =    6658.9804 (a.u.)^3
     number of atoms/cell      =           55
     number of atomic types    =            5
     number of electrons       =       397.00
     number of Kohn-Sham states=          208
     kinetic-energy cutoff     =      29.3995  Ry
     charge density cutoff     =     293.9946  Ry
     scf convergence threshold =      7.3E-08
     mixing beta               =       0.0500
     number of iterations used =            8  plain     mixing
     Exchange-correlation= BEEF-VDW
                           (   1   4  43  14   2   0   0)

     celldm(1)=   1.889726  celldm(2)=   0.000000  celldm(3)=   0.000000
     celldm(4)=   0.000000  celldm(5)=   0.000000  celldm(6)=   0.000000

     crystal axes: (cart. coord. in units of alat)
               a(1) = (   6.579727   0.000000   0.000000 )
               a(2) = (  -0.000775   5.961596   0.000000 )
               a(3) = (   0.000000   0.000000  25.155947 )

     reciprocal axes: (cart. coord. in units 2 pi/alat)
               b(1) = (  0.151982  0.000020  0.000000 )
               b(2) = (  0.000000  0.167740  0.000000 )
               b(3) = (  0.000000  0.000000  0.039752 )

     PseudoPot. # 1 for Ti read from file:
     /storage/coda1/p-amedford6/0/shared/rich_project_chbe-medford/medford-share/data/pseudos_module/espresso/nninc/pbe/van/Ti.UPF
     MD5 check sum: 8e4df49b7f0d34bbd5052bf3f5ea0213
     Pseudo is Ultrasoft, Zval = 12.0
     Generated by new atomic code, or converted to UPF format
     Using radial grid of  851 points,  6 beta functions with:
                l(1) =   0
                l(2) =   0
                l(3) =   1
                l(4) =   1
                l(5) =   2
                l(6) =   2
     Q(r) pseudized with  8 coefficients,  rinner =    1.000   1.000   1.000
                                                       1.000   1.000

     PseudoPot. # 2 for O  read from file:
     /storage/coda1/p-amedford6/0/shared/rich_project_chbe-medford/medford-share/data/pseudos_module/espresso/nninc/pbe/van/O.UPF
     MD5 check sum: 78c19812648e8988a0fe644b0f25305e
     Pseudo is Ultrasoft, Zval =  6.0
     Generated by new atomic code, or converted to UPF format
     Using radial grid of  737 points,  4 beta functions with:
                l(1) =   0
                l(2) =   0
                l(3) =   1
                l(4) =   1
     Q(r) pseudized with  8 coefficients,  rinner =    0.800   0.800   0.800

     PseudoPot. # 3 for N  read from file:
     /storage/coda1/p-amedford6/0/shared/rich_project_chbe-medford/medford-share/data/pseudos_module/espresso/nninc/pbe/van/N.UPF
     MD5 check sum: 90d10febe142ad51ac9d5be1deb811c4
     Pseudo is Ultrasoft, Zval =  5.0
     Generated by new atomic code, or converted to UPF format
     Using radial grid of  729 points,  4 beta functions with:
                l(1) =   0
                l(2) =   0
                l(3) =   1
                l(4) =   1
     Q(r) pseudized with  8 coefficients,  rinner =    0.800   0.800   0.800

     PseudoPot. # 4 for C  read from file:
     /storage/coda1/p-amedford6/0/shared/rich_project_chbe-medford/medford-share/data/pseudos_module/espresso/nninc/pbe/van/C.UPF
     MD5 check sum: 1a69bf6b8db32088f5b2163dbdb77a27
     Pseudo is Ultrasoft, Zval =  4.0
     Generated by new atomic code, or converted to UPF format
     Using radial grid of  721 points,  4 beta functions with:
                l(1) =   0
                l(2) =   0
                l(3) =   1
                l(4) =   1
     Q(r) pseudized with  8 coefficients,  rinner =    0.800   0.800   0.800

     PseudoPot. # 5 for H  read from file:
     /storage/coda1/p-amedford6/0/shared/rich_project_chbe-medford/medford-share/data/pseudos_module/espresso/nninc/pbe/van/H.UPF
     MD5 check sum: b5ee9d7bfd3a09ee7748110bda690ff7
     Pseudo is Ultrasoft, Zval =  1.0
     Generated by new atomic code, or converted to UPF format
     Using radial grid of  615 points,  1 beta functions with:
                l(1) =   0
     Q(r) pseudized with  8 coefficients,  rinner =    0.800

     atomic species   valence    mass     pseudopotential
        Ti1           12.00    47.86700     Ti( 1.00)
        O1             6.00    15.99900     O ( 1.00)
        N1             5.00    14.00700     N ( 1.00)
        C1             4.00    12.01100     C ( 1.00)
        H1             1.00     1.00800     H ( 1.00)

     Starting magnetic structure
     atomic species   magnetization
        Ti1          0.000
        O1           0.000
        N1           0.000
        C1           0.025
        H1           0.000

     No symmetry found

   Cartesian axes

     site n.     atom                  positions (alat units)
         1           Ti1 tau(   1) = (   0.0004258   2.9801865   6.0000000  )
         2           Ti1 tau(   2) = (   3.2906075   1.4906267   6.0002472  )
         3           O1  tau(   3) = (   0.0006271   0.0005054   7.9858123  )
         4           O1  tau(   4) = (   3.2906025   0.0005020   7.3038282  )
         5           O1  tau(   5) = (   4.5942328   1.4918067   9.2879030  )
         6           O1  tau(   6) = (   1.9868534   1.4903216   9.2879459  )
         7           Ti1 tau(   7) = (   3.2907910   2.8959150   9.1758416  )
         8           Ti1 tau(   8) = (   0.0015273   1.4827037   9.2680791  )
         9           O1  tau(   9) = (   3.3020592   5.9599881  11.3075072  )
        10           O1  tau(  10) = (   0.0116148   5.9584955  10.6183126  )
        11           O1  tau(  11) = (   1.3218652   1.4872367  12.6142461  )
        12           O1  tau(  12) = (   5.3149618   1.4866655  12.6283206  )
        13           Ti1 tau(  13) = (   6.5343381   3.0098038  12.6530281  )
        14           Ti1 tau(  14) = (   3.2132235   1.4912063  12.4551521  )
        15           O1  tau(  15) = (   0.0515422   5.9562953  14.6829507  )
        16           O1  tau(  16) = (   3.3088797   0.0214154  13.8770011  )
        17           O1  tau(  17) = (   4.5726725   1.5412406  16.1224456  )
        18           O1  tau(  18) = (   2.0900022   1.5114086  15.9969863  )
        19           Ti1 tau(  19) = (   3.3311046   3.0200058  15.6476981  )
        20           Ti1 tau(  20) = (   0.0790784   1.4105808  15.8036947  )
        21           O1  tau(  21) = (   3.2904802   0.0005063   4.7018136  )
        22           O1  tau(  22) = (   0.0613336   0.0214447  17.2555488  )
        23           O1  tau(  23) = (   1.3043587   1.4918075   6.0039043  )
        24           O1  tau(  24) = (   5.2767064   1.4903225   6.0039473  )
        25           Ti1 tau(  25) = (   0.0000382   5.9609847   6.0000000  )
        26           Ti1 tau(  26) = (   3.2902200   4.4714249   6.0002472  )
        27           O1  tau(  27) = (   0.0002396   2.9813036   7.9858123  )
        28           O1  tau(  28) = (   3.2902150   2.9813002   7.3038282  )
        29           O1  tau(  29) = (   4.5938453   4.4726049   9.2879030  )
        30           O1  tau(  30) = (   1.9864658   4.4711199   9.2879459  )
        31           Ti1 tau(  31) = (   3.2891106   5.8743827   9.1763621  )
        32           Ti1 tau(  32) = (   0.0006254   4.4649316   9.2693709  )
        33           O1  tau(  33) = (   3.3026341   2.9893090  11.3092672  )
        34           O1  tau(  34) = (   0.0092240   2.9805883  10.6323155  )
        35           O1  tau(  35) = (   1.3182942   4.4670451  12.6271195  )
        36           O1  tau(  36) = (   5.3124783   4.4780259  12.6376329  )
        37           Ti1 tau(  37) = (   6.5365500   0.0194685  12.5464133  )
        38           Ti1 tau(  38) = (   3.2155898   4.4753301  12.4613306  )
        39           O1  tau(  39) = (   0.0167368   2.9407051  14.7244952  )
        40           O1  tau(  40) = (   3.3149560   2.9822459  13.8616979  )
        41           O1  tau(  41) = (   4.5706274   4.5128733  15.9228735  )
        42           O1  tau(  42) = (   2.1262058   4.4922812  16.0793225  )
        43           Ti1 tau(  43) = (   3.3222298   0.0210159  15.6751784  )
        44           Ti1 tau(  44) = (   6.5499002   4.5104744  16.2959303  )
        45           O1  tau(  45) = (   3.2900926   2.9813045   4.7018136  )
        46           O1  tau(  46) = (   1.3039711   4.4726057   6.0039043  )
        47           O1  tau(  47) = (   5.2763189   4.4711207   6.0039473  )
        48           N1  tau(  48) = (   0.3735289   2.9861087  17.6038306  )
        49           C1  tau(  49) = (   1.3580301   2.7301661  18.6431808  )
        50           H1  tau(  50) = (   1.5128655   3.6233449  19.2641712  )
        51           H1  tau(  51) = (   1.0454786   1.8978442  19.2795547  )
        52           H1  tau(  52) = (   2.3065860   2.4473273  18.1987077  )
        53           N1  tau(  53) = (   5.7326324   3.4596218  18.1373629  )
        54           H1  tau(  54) = (   5.8436824   4.0267099  18.9748678  )
        55           H1  tau(  55) = (   5.0375616   2.7244768  18.2555579  )

     number of k points=    10  Fermi-Dirac smearing, width (Ry)=  0.0073
                       cart. coord. in units 2pi/alat
        k(    1) = (   0.0000000   0.0000000   0.0000000), wk =   0.0625000
        k(    2) = (   0.0000000   0.0419351   0.0000000), wk =   0.1250000
        k(    3) = (   0.0000000  -0.0838702   0.0000000), wk =   0.0625000
        k(    4) = (   0.0379955   0.0000049   0.0000000), wk =   0.1250000
        k(    5) = (   0.0379955   0.0419400   0.0000000), wk =   0.1250000
        k(    6) = (   0.0379955  -0.0838652   0.0000000), wk =   0.1250000
[...]
     %                                                                      %
     % You are using vdW-DF, which was implemented by the Thonhauser group. %
     % Please cite the following two papers that made this development      %
     % possible and the two reviews that describe the various versions:     %
     %                                                                      %
     %   T. Thonhauser et al., PRL 115, 136402 (2015).                      %
     %   T. Thonhauser et al., PRB 76, 125112 (2007).                       %
     %   K. Berland et al., Rep. Prog. Phys. 78, 066501 (2015).             %
     %   D.C. Langreth et al., J. Phys.: Condens. Matter 21, 084203 (2009). %
     %                                                                      %
     %                                                                      %
     % If you are calculating the stress with vdW-DF, please also cite:     %
     %                                                                      %
     %   R. Sabatini et al., J. Phys.: Condens. Matter 24, 424209 (2012).   %
     %                                                                      %
     %%%%%%%%%%%%%%%%%%%%%%%%%%%%%%%%%%%%%%%%%%%%%%%%%%%%%%%%%%%%%%%%%%%%%%%%

     Adding external electric field

     Computed dipole along edir(3) :
        Dipole               -9.2582 Ry au,        -23.5319 Debye
        Dipole field         -0.0175 Ry au,

        Potential amp.        1.6196 Ry
        Total length         46.3494 bohr

[...]

     Starting wfcs are  301 atomic wfcs
  @ DRIVER MODE: Message from server: STATUS
  @ DRIVER MODE: Message from server: POSDATA
  @ DRIVER MODE: Reading and sharing cell
  @ DRIVER MODE: Reading and sharing positions
  @ DRIVER MODE: Received positions

     Self-consistent Calculation

     iteration #  1     ecut=    29.40 Ry     beta= 0.05
     Davidson diagonalization with overlap
     c_bands:  1 eigenvalues not converged
     c_bands:  2 eigenvalues not converged
     c_bands:  1 eigenvalues not converged
     c_bands:  2 eigenvalues not converged
     c_bands:  2 eigenvalues not converged
     c_bands:  2 eigenvalues not converged
     c_bands:  2 eigenvalues not converged
     c_bands:  1 eigenvalues not converged
     c_bands:  4 eigenvalues not converged
     c_bands:  1 eigenvalues not converged
     c_bands:  2 eigenvalues not converged
     c_bands:  1 eigenvalues not converged
     c_bands:  2 eigenvalues not converged
     c_bands:  2 eigenvalues not converged
     c_bands:  2 eigenvalues not converged
     c_bands:  2 eigenvalues not converged
     c_bands:  1 eigenvalues not converged
     c_bands:  4 eigenvalues not converged
     ethr =  1.00E-05,  avg # of iterations = 19.8

[...]

     total energy              =   -2525.30027805 Ry
     estimated scf accuracy    <    4616.10752744 Ry

     total magnetization       =     0.00 Bohr mag/cell
     absolute magnetization    =     0.03 Bohr mag/cell

     iteration #  2     ecut=    29.40 Ry     beta= 0.05
     Davidson diagonalization with overlap
     ethr =  1.00E-02,  avg # of iterations = 23.4

[...]

     iteration # 77     ecut=    29.40 Ry     beta= 0.05
     Davidson diagonalization with overlap
     c_bands:  1 eigenvalues not converged
     ethr =  3.48E-11,  avg # of iterations = 11.9

[...]

     total energy              =   -2941.63805935 Ry
     estimated scf accuracy    <       0.00000009 Ry

[...]

     iteration # 78     ecut=    29.40 Ry     beta= 0.05
     Davidson diagonalization with overlap
     ethr =  2.21E-11,  avg # of iterations = 11.1

     negative rho (up, down):  8.395E-03 8.397E-03

[...]

     Adding external electric field

     Computed dipole along edir(3) :
        Dipole                1.1493 Ry au,          2.9212 Debye
        Dipole field          0.0022 Ry au,

        Potential amp.       -0.2011 Ry
        Total length         46.3494 bohr

     Magnetic moment per site  (integrated on atomic sphere of radius R)
     atom   1 (R=0.726)  charge=  7.9409  magn=  0.0194
     atom   2 (R=0.726)  charge=  7.9244  magn=  0.0010
     atom   3 (R=0.726)  charge=  4.9319  magn= -0.0015
     atom   4 (R=0.726)  charge=  4.9681  magn= -0.0003
     atom   5 (R=0.726)  charge=  4.9367  magn= -0.0002
     atom   6 (R=0.726)  charge=  4.9376  magn= -0.0002
     atom   7 (R=0.726)  charge=  7.9229  magn=  0.0007
     atom   8 (R=0.726)  charge=  7.9151  magn=  0.0054
     atom   9 (R=0.726)  charge=  4.9562  magn= -0.0001
     atom  10 (R=0.726)  charge=  4.9310  magn= -0.0004
     atom  11 (R=0.726)  charge=  4.9387  magn= -0.0001
     atom  12 (R=0.726)  charge=  4.9369  magn= -0.0001
     atom  13 (R=0.726)  charge=  7.9088  magn=  0.0011
     atom  14 (R=0.726)  charge=  7.9274  magn=  0.0003
     atom  15 (R=0.726)  charge=  4.9165  magn= -0.0000
     atom  16 (R=0.726)  charge=  4.9542  magn= -0.0000
     atom  17 (R=0.726)  charge=  4.9068  magn= -0.0000
     atom  18 (R=0.726)  charge=  4.9387  magn= -0.0000
     atom  19 (R=0.726)  charge=  7.9527  magn=  0.0000
     atom  20 (R=0.726)  charge=  7.9411  magn=  0.0002
     atom  21 (R=0.726)  charge=  4.8211  magn= -0.0009
     atom  22 (R=0.726)  charge=  4.9007  magn=  0.0000
     atom  23 (R=0.726)  charge=  4.9281  magn= -0.0023
     atom  24 (R=0.726)  charge=  4.9282  magn= -0.0023
     atom  25 (R=0.726)  charge=  7.9408  magn=  0.0193
     atom  26 (R=0.726)  charge=  7.9244  magn=  0.0010
     atom  27 (R=0.726)  charge=  4.9305  magn= -0.0015
     atom  28 (R=0.726)  charge=  4.9683  magn= -0.0003
     atom  29 (R=0.726)  charge=  4.9375  magn= -0.0002
     atom  30 (R=0.726)  charge=  4.9382  magn= -0.0002
     atom  31 (R=0.726)  charge=  7.9236  magn=  0.0007
     atom  32 (R=0.726)  charge=  7.9153  magn=  0.0053
     atom  33 (R=0.726)  charge=  4.9540  magn= -0.0001
     atom  34 (R=0.726)  charge=  4.9049  magn= -0.0004
     atom  35 (R=0.726)  charge=  4.9378  magn= -0.0001
     atom  36 (R=0.726)  charge=  4.9369  magn= -0.0001
     atom  37 (R=0.726)  charge=  7.9159  magn=  0.0013
     atom  38 (R=0.726)  charge=  7.9271  magn=  0.0004
     atom  39 (R=0.726)  charge=  4.9088  magn= -0.0000
     atom  40 (R=0.726)  charge=  4.9620  magn= -0.0000
     atom  41 (R=0.726)  charge=  4.9464  magn= -0.0000
     atom  42 (R=0.726)  charge=  4.9157  magn= -0.0000
     atom  43 (R=0.726)  charge=  7.9490  magn=  0.0000
     atom  44 (R=0.726)  charge=  7.9599  magn=  0.0000
     atom  45 (R=0.726)  charge=  4.8212  magn= -0.0009
     atom  46 (R=0.726)  charge=  4.9281  magn= -0.0023
     atom  47 (R=0.726)  charge=  4.9282  magn= -0.0023
     atom  48 (R=0.420)  charge=  1.3151  magn=  0.0000
     atom  49 (R=0.448)  charge=  0.8411  magn= -0.0000
     atom  50 (R=0.420)  charge=  0.4416  magn=  0.0000
     atom  51 (R=0.420)  charge=  0.4424  magn=  0.0000
     atom  52 (R=0.420)  charge=  0.4486  magn=  0.0000
     atom  53 (R=0.420)  charge=  1.3378  magn=  0.0000
     atom  54 (R=0.420)  charge=  0.4533  magn= -0.0000
     atom  55 (R=0.420)  charge=  0.4498  magn= -0.0000

     End of self-consistent calculation

 ------ SPIN UP ------------

          k = 0.0000 0.0000 0.0000 ( 18029 PWs)   bands (ev):

   -55.5874 -55.5744 -55.5534 -55.5366 -55.4618 -55.4246 -55.4229 -55.3874
   -55.3753 -55.3412 -55.3271 -55.2932 -55.0315 -54.8753 -54.5379 -54.5038
   -32.1362 -32.0580 -31.9589 -31.8915 -31.8878 -31.8832 -31.8813 -31.8251
   -31.8191 -31.8060 -31.7840 -31.7588 -31.7545 -31.7429 -31.7263 -31.7154
   -31.6803 -31.6603 -31.6586 -31.6508 -31.6499 -31.6484 -31.6144 -31.5975
   -31.5707 -31.5697 -31.5672 -31.5619 -31.5576 -31.5308 -31.5088 -31.5081
   -31.4951 -31.4916 -31.4814 -31.4786 -31.4404 -31.3057 -31.2564 -31.1551
   -31.1279 -31.0363 -30.9436 -30.8576 -30.8350 -30.7611 -30.6746 -30.5629
   -17.5813 -16.3611 -16.0473 -15.8339 -15.7246 -15.7216 -15.6377 -15.4157
   -15.2948 -15.2793 -15.1654 -15.1616 -15.0988 -15.0597 -15.0530 -15.0462
   -15.0134 -15.0016 -14.9810 -14.9481 -14.9148 -14.8967 -14.8736 -14.7721
   -14.7052 -14.6969 -14.6815 -14.6161 -14.5687 -14.2094 -13.0375 -12.9212
   -12.5369  -9.2088  -6.3474  -5.0959  -4.1826  -3.7396  -3.5501  -3.4736
    -3.4382  -3.3701  -3.3600  -3.1809  -3.1734  -2.7940  -2.7746  -2.7564
    -2.7351  -2.7319  -2.4628  -2.4097  -2.3949  -2.3918  -2.3739  -2.3571
    -2.3361  -2.3253  -2.2975  -2.2865  -2.1536  -2.1090  -2.0312  -2.0050
    -1.9894  -1.8791  -1.8530  -1.8327  -1.8208  -1.8078  -1.7784  -1.7716
    -1.7499  -1.6419  -1.5324  -1.4531  -1.4124  -1.3599  -1.3388  -1.1625
    -1.1099  -1.0507  -1.0267  -1.0024  -0.9875  -0.9539  -0.8795  -0.8555
    -0.7128  -0.6741  -0.6204  -0.5939  -0.5651  -0.5092  -0.4757  -0.4454
    -0.3502  -0.3368  -0.3245  -0.3131  -0.2580  -0.0645  -0.0175   0.0018
     0.0168   0.1160   0.1550   0.1800   0.2142   0.2712   0.2988   0.3638
     0.3921   0.4148   0.4237   0.4517   0.4682   0.6004   0.6257   0.6561
     0.7180   0.7711   0.8467   0.9596   1.0420   1.0992   1.2007   1.4189
     1.4865   1.5702   1.6801   1.7080   2.0569   2.1011   3.5563   3.6339
     3.6914   3.7039   3.8118   3.8674   4.0055   4.0225   4.0598   4.0947

[...]

          k =-0.0760-0.0000 0.0000 ( 17886 PWs)   bands (ev):

[...]

 ------ SPIN DOWN ----------

[...]

          k = 0.0380-0.0419 0.0000 ( 17876 PWs)   bands (ev):

[...]

          k =-0.0760-0.0839 0.0000 ( 17948 PWs)   bands (ev):

   -55.5601 -55.5493 -55.5343 -55.5332 -55.4485 -55.4335 -55.4088 -55.4013
   -55.3500 -55.3467 -55.3107 -55.3070 -55.0299 -54.8765 -54.5189 -54.5188
   -31.9416 -31.9311 -31.8584 -31.8576 -31.8434 -31.8268 -31.8267 -31.8257
   -31.8017 -31.7878 -31.7675 -31.7480 -31.7222 -31.7116 -31.7066 -31.6808
   -31.6749 -31.6647 -31.6618 -31.6516 -31.6497 -31.6489 -31.6472 -31.6453
   -31.6234 -31.6128 -31.6023 -31.6001 -31.5488 -31.5468 -31.5432 -31.5408
   -31.5301 -31.5274 -31.5250 -31.5235 -31.4112 -31.3168 -31.2579 -31.2162
   -31.1334 -31.0475 -30.8455 -30.8454 -30.7553 -30.7551 -30.7159 -30.7159
   -17.5694 -15.8211 -15.7812 -15.5262 -15.5177 -15.5147 -15.4754 -15.3513
   -15.3024 -15.2766 -15.2658 -15.2473 -15.2386 -15.1372 -15.1234 -15.1069
   -15.0970 -15.0697 -15.0267 -15.0215 -15.0126 -15.0037 -14.9919 -14.9249
   -14.8727 -14.8688 -14.7548 -14.6633 -14.5227 -14.4344 -13.0253 -13.0250
   -12.5562  -9.1699  -6.3064  -5.1251  -4.1152  -3.4296  -3.1217  -3.0741
    -2.7861  -2.7666  -2.7507  -2.6369  -2.5185  -2.5094  -2.4833  -2.4615
    -2.4272  -2.4143  -2.4041  -2.3959  -2.3779  -2.3596  -2.3489  -2.3100
    -2.2409  -2.2328  -2.2239  -2.2163  -2.1993  -2.1756  -2.1648  -2.1378
    -2.1133  -2.0784  -2.0193  -1.9891  -1.8394  -1.7957  -1.7335  -1.6949
    -1.6864  -1.6577  -1.6235  -1.6162  -1.5056  -1.4916  -1.4582  -1.3279
    -1.2670  -1.2590  -1.2266  -1.1392  -1.1006  -0.9712  -0.9583  -0.9213
    -0.8654  -0.8579  -0.8211  -0.7831  -0.7320  -0.6798  -0.6362  -0.6135
    -0.5958  -0.5237  -0.5231  -0.4760  -0.4196  -0.3488  -0.3252  -0.3182
    -0.2867  -0.2429  -0.1954  -0.1323  -0.0568  -0.0377  -0.0226   0.0764
     0.1497   0.3683   0.4155   0.5123   0.5346   0.5621   0.6220   0.6716
     0.7401   0.7548   0.7830   0.8573   0.8795   0.9713   0.9826   0.9997
     1.1773   1.6432   1.8508   1.8517   1.9197   1.9203   3.8588   3.8746
     3.8990   3.9228   4.0949   4.0998   4.1089   4.1116   4.2309   4.2604

     the Fermi energy is     3.5639 ev

!    total energy              =   -2941.63807234 Ry
     estimated scf accuracy    <       0.00000007 Ry
     smearing contrib. (-TS)   =      -0.02167767 Ry
     internal energy E=F+TS    =   -2941.61639467 Ry

     The total energy is F=E-TS. E is the sum of the following terms:
     one-electron contribution =  -24388.09582768 Ry
     hartree contribution      =   12286.00908182 Ry
     xc contribution           =    -486.94289987 Ry
     ewald contribution        =    9647.41075841 Ry
     electric field correction =       0.00249265 Ry

     total magnetization       =     0.07 Bohr mag/cell
     absolute magnetization    =     0.11 Bohr mag/cell

     convergence has been achieved in  78 iterations

     Forces acting on atoms (cartesian axes, Ry/au):

     atom    1 type  1   force =    -0.00001244   -0.00019484    0.09682659
     atom    2 type  1   force =     0.00009239   -0.00069270   -0.17462236
     atom    3 type  2   force =     0.00018070   -0.00005836   -0.02505307
     atom    4 type  2   force =     0.00000864   -0.00124900    0.05120527
     atom    5 type  2   force =    -0.01126902   -0.00080238    0.00228572
     atom    6 type  2   force =     0.01311099   -0.00035233    0.00273156
     atom    7 type  1   force =     0.00100476    0.00022015   -0.01341425
     atom    8 type  1   force =    -0.00010215    0.01532753    0.02822955
     atom    9 type  2   force =    -0.00007339   -0.00001378    0.00010182
     atom   10 type  2   force =    -0.00234135    0.00080792   -0.01057692
     atom   11 type  2   force =     0.00035476    0.00005273   -0.00001426
     atom   12 type  2   force =    -0.00043610   -0.00006862    0.00025491
     atom   13 type  1   force =     0.00015263   -0.00018360   -0.00007021
     atom   14 type  1   force =     0.00010552   -0.00022110    0.00002887
     atom   15 type  2   force =    -0.00006112    0.00018251   -0.00008722
     atom   16 type  2   force =    -0.00019776    0.00003517   -0.00019116
     atom   17 type  2   force =    -0.00011597    0.00006465   -0.00006405
     atom   18 type  2   force =    -0.00017407   -0.00000808   -0.00018934
     atom   19 type  1   force =    -0.00033569    0.00021858    0.00011387
     atom   20 type  1   force =     0.00003834   -0.00049019    0.00014340
     atom   21 type  2   force =     0.00003928   -0.00009271    0.10300119
     atom   22 type  2   force =    -0.00005919    0.00034052    0.00048795
     atom   23 type  2   force =    -0.07180078   -0.00020918   -0.02778976
     atom   24 type  2   force =     0.07175967    0.00024674   -0.02784972
     atom   25 type  1   force =     0.00002912   -0.00025685    0.09642521
     atom   26 type  1   force =    -0.00000582   -0.00029547   -0.17488214
     atom   27 type  2   force =     0.00019063   -0.00025477   -0.02391764
     atom   28 type  2   force =     0.00005398   -0.00100677    0.05147609
     atom   29 type  2   force =    -0.01129839    0.00078871    0.00170058
     atom   30 type  2   force =     0.01298936    0.00111665    0.00210041
     atom   31 type  1   force =     0.00103602    0.00257370   -0.01543687
     atom   32 type  1   force =     0.00005699   -0.01663566    0.02911101
     atom   33 type  2   force =     0.00011597    0.00002888   -0.00010929
     atom   34 type  2   force =    -0.00271191    0.00093416   -0.01868007
     atom   35 type  2   force =     0.00017471   -0.00007036   -0.00008807
     atom   36 type  2   force =    -0.00038172   -0.00006986    0.00013451
     atom   37 type  1   force =    -0.00010902   -0.00019625    0.00013209
     atom   38 type  1   force =     0.00007703    0.00008789   -0.00006721
     atom   39 type  2   force =    -0.00003057    0.00044681    0.00001059
     atom   40 type  2   force =    -0.00037961    0.00014931   -0.00014043
     atom   41 type  2   force =     0.00012806   -0.00000980   -0.00013134
     atom   42 type  2   force =    -0.00000610    0.00023437   -0.00002605
     atom   43 type  1   force =     0.00015697   -0.00000945   -0.00014814
     atom   44 type  1   force =    -0.00024663   -0.00046192   -0.00033794
     atom   45 type  2   force =     0.00005445   -0.00011019    0.10300697
     atom   46 type  2   force =    -0.07182602   -0.00016119   -0.02780952
     atom   47 type  2   force =     0.07176704    0.00022407   -0.02785342
     atom   48 type  3   force =    -0.00090737   -0.00089763    0.00137177
     atom   49 type  4   force =     0.00288762    0.00202570   -0.00176658
     atom   50 type  5   force =    -0.00029831    0.00016611    0.00004603
     atom   51 type  5   force =    -0.00332738   -0.00244987    0.00137298
     atom   52 type  5   force =     0.00108611    0.00058562   -0.00042799
     atom   53 type  3   force =     0.00070852    0.00045322   -0.00010218
     atom   54 type  5   force =     0.00037036   -0.00011906    0.00109873
     atom   55 type  5   force =    -0.00022273    0.00033029   -0.00155047

     Total force =     0.367259     Total SCF correction =     0.000391
  @ DRIVER MODE: Message from server: STATUS
  @ DRIVER MODE: Message from server: GETFORCE
  @ DRIVER MODE: Returning v,forces,stress,ensemble

     Writing output data file ./calc.save/
  @ DRIVER MODE: Message from server: EXIT
  @ DRIVE MODE: Exiting

     General routines

     Parallel routines

   This run was terminated on:   6:35: 5  16Jul2021

   JOB DONE.