     Program PWSCF v.6.7GPU starts on 11Sep2021 at  2:36:16

     R & G space division:  proc/nbgrp/npool/nimage =      10
     Reading input from /storage/home/hcoda1/3/ntian30/research/carbon/CxH_vib/CH2_calc/ads_slab/CH2N2H_e/out_0026/pw.inp
Warning: card &CELL ignored
Warning: card   CELL_DYNAMICS='IPI', ignored
Warning: card / ignored

     Current dimensions of program PWSCF are:
     Max number of different atomic species (ntypx) = 10
     Max number of k-points (npk) =  40000
     Max angular momentum in pseudopotentials (lmaxx) =  3
     Presently no symmetry can be used with electric field

     Message from routine cell_base_init:
     DEPRECATED: use true lattice parameter, not A to a.u. conversion factor

     IMPORTANT: XC functional enforced from input :
     Exchange-correlation= BEEF-VDW
                           (   1   4  43  14   2   0   0)
     Any further DFT definition will be discarded
     Please, verify this is what you really want

  @ DRIVER MODE: Connecting to
 qe_1139763_2792041.sched-torque.pace.gatech.edubkdaxz47_scratch
  using UNIX socket
  @ DRIVER MODE: Message from server: STATUS
  @ DRIVER MODE: Message from server: INIT
  @ DRIVER MODE: Receiving replica           0          -1
  @ DRIVER MODE: Receiving encoded integer          25
  @ DRIVER MODE:  SCF:  T  FORCE:  T  STRESS:  F  VC:  F  ENSEMBLE:  F
  @ DRIVER MODE:  SCF:  T  FORCE:  T  STRESS:  F  VC:  F  ENSEMBLE:  F

     Using Slab Decomposition

     bravais-lattice index     =            0
     lattice parameter (alat)  =       1.8897  a.u.
     unit-cell volume          =    6658.9804 (a.u.)^3
     number of atoms/cell      =           53
     number of atomic types    =            5
     number of electrons       =       395.00
     number of Kohn-Sham states=          207
     kinetic-energy cutoff     =      29.3995  Ry
     charge density cutoff     =     293.9946  Ry
     scf convergence threshold =      7.3E-08
     mixing beta               =       0.0500
     number of iterations used =            8  plain     mixing
     Exchange-correlation= BEEF-VDW
                           (   1   4  43  14   2   0   0)

     celldm(1)=   1.889726  celldm(2)=   0.000000  celldm(3)=   0.000000
     celldm(4)=   0.000000  celldm(5)=   0.000000  celldm(6)=   0.000000

     crystal axes: (cart. coord. in units of alat)
               a(1) = (   6.579727   0.000000   0.000000 )
               a(2) = (  -0.000775   5.961596   0.000000 )
               a(3) = (   0.000000   0.000000  25.155947 )

     reciprocal axes: (cart. coord. in units 2 pi/alat)
               b(1) = (  0.151982  0.000020  0.000000 )
               b(2) = (  0.000000  0.167740  0.000000 )
               b(3) = (  0.000000  0.000000  0.039752 )

     PseudoPot. # 1 for Ti read from file:
     /storage/coda1/p-amedford6/0/shared/rich_project_chbe-medford/medford-share/data/pseudos_module/espresso/nninc/pbe/van/Ti.UPF
     MD5 check sum: 8e4df49b7f0d34bbd5052bf3f5ea0213
     Pseudo is Ultrasoft, Zval = 12.0
     Generated by new atomic code, or converted to UPF format
     Using radial grid of  851 points,  6 beta functions with:
                l(1) =   0
                l(2) =   0
                l(3) =   1
                l(4) =   1
                l(5) =   2
                l(6) =   2
     Q(r) pseudized with  8 coefficients,  rinner =    1.000   1.000   1.000
                                                       1.000   1.000

     PseudoPot. # 2 for O  read from file:
     /storage/coda1/p-amedford6/0/shared/rich_project_chbe-medford/medford-share/data/pseudos_module/espresso/nninc/pbe/van/O.UPF
     MD5 check sum: 78c19812648e8988a0fe644b0f25305e
     Pseudo is Ultrasoft, Zval =  6.0
     Generated by new atomic code, or converted to UPF format
     Using radial grid of  737 points,  4 beta functions with:
                l(1) =   0
                l(2) =   0
                l(3) =   1
                l(4) =   1
     Q(r) pseudized with  8 coefficients,  rinner =    0.800   0.800   0.800

     PseudoPot. # 3 for N  read from file:
     /storage/coda1/p-amedford6/0/shared/rich_project_chbe-medford/medford-share/data/pseudos_module/espresso/nninc/pbe/van/N.UPF
     MD5 check sum: 90d10febe142ad51ac9d5be1deb811c4
     Pseudo is Ultrasoft, Zval =  5.0
     Generated by new atomic code, or converted to UPF format
     Using radial grid of  729 points,  4 beta functions with:
                l(1) =   0
                l(2) =   0
                l(3) =   1
                l(4) =   1
     Q(r) pseudized with  8 coefficients,  rinner =    0.800   0.800   0.800

     PseudoPot. # 4 for C  read from file:
     /storage/coda1/p-amedford6/0/shared/rich_project_chbe-medford/medford-share/data/pseudos_module/espresso/nninc/pbe/van/C.UPF
     MD5 check sum: 1a69bf6b8db32088f5b2163dbdb77a27
     Pseudo is Ultrasoft, Zval =  4.0
     Generated by new atomic code, or converted to UPF format
     Using radial grid of  721 points,  4 beta functions with:
                l(1) =   0
                l(2) =   0
                l(3) =   1
                l(4) =   1
     Q(r) pseudized with  8 coefficients,  rinner =    0.800   0.800   0.800

     PseudoPot. # 5 for H  read from file:
     /storage/coda1/p-amedford6/0/shared/rich_project_chbe-medford/medford-share/data/pseudos_module/espresso/nninc/pbe/van/H.UPF
     MD5 check sum: b5ee9d7bfd3a09ee7748110bda690ff7
     Pseudo is Ultrasoft, Zval =  1.0
     Generated by new atomic code, or converted to UPF format
     Using radial grid of  615 points,  1 beta functions with:
                l(1) =   0
     Q(r) pseudized with  8 coefficients,  rinner =    0.800

     atomic species   valence    mass     pseudopotential
        Ti1           12.00    47.86700     Ti( 1.00)
        O1             6.00    15.99900     O ( 1.00)
        N1             5.00    14.00700     N ( 1.00)
        C1             4.00    12.01100     C ( 1.00)
        H1             1.00     1.00800     H ( 1.00)

     No symmetry found

   Cartesian axes

     site n.     atom                  positions (alat units)
         1           Ti1 tau(   1) = (   0.0004258   2.9801865   6.0000000  )
         2           Ti1 tau(   2) = (   3.2906075   1.4906267   6.0002472  )
         3           O1  tau(   3) = (   0.0006271   0.0005054   7.9858123  )
         4           O1  tau(   4) = (   3.2906025   0.0005020   7.3038282  )
         5           O1  tau(   5) = (   4.5942328   1.4918067   9.2879030  )
         6           O1  tau(   6) = (   1.9868534   1.4903216   9.2879459  )
         7           Ti1 tau(   7) = (   3.2907910   2.8959150   9.1758416  )
         8           Ti1 tau(   8) = (   0.0015273   1.4827037   9.2680791  )
         9           O1  tau(   9) = (   3.2922140   0.0036562  11.3253104  )
        10           O1  tau(  10) = (   0.0116148   5.9584955  10.6183126  )
        11           O1  tau(  11) = (   1.2860832   1.4889729  12.6258215  )
        12           O1  tau(  12) = (   5.2729595   1.4828594  12.6177116  )
        13           Ti1 tau(  13) = (   0.0641184   3.0073180  12.5883652  )
        14           Ti1 tau(  14) = (   3.3767723   1.4911129  12.4765728  )
        15           O1  tau(  15) = (   6.5781935   5.9569561  14.6821271  )
        16           O1  tau(  16) = (   3.2819581   0.0025077  13.9050320  )
        17           O1  tau(  17) = (   4.5172158   1.5234625  16.0337941  )
        18           O1  tau(  18) = (   2.0475084   1.5263597  16.0453316  )
        19           Ti1 tau(  19) = (   3.2743797   3.0127756  15.6984511  )
        20           Ti1 tau(  20) = (   6.5512008   1.5842238  15.7855373  )
        21           O1  tau(  21) = (   3.2904802   0.0005063   4.7018136  )
        22           O1  tau(  22) = (   6.5742344   0.0609322  17.2932839  )
        23           O1  tau(  23) = (   1.3043587   1.4918075   6.0039043  )
        24           O1  tau(  24) = (   5.2767064   1.4903225   6.0039473  )
        25           Ti1 tau(  25) = (   0.0000382   5.9609847   6.0000000  )
        26           Ti1 tau(  26) = (   3.2902200   4.4714249   6.0002472  )
        27           O1  tau(  27) = (   0.0002396   2.9813036   7.9858123  )
        28           O1  tau(  28) = (   3.2902150   2.9813002   7.3038282  )
        29           O1  tau(  29) = (   4.5938453   4.4726049   9.2879030  )
        30           O1  tau(  30) = (   1.9864658   4.4711199   9.2879459  )
        31           Ti1 tau(  31) = (   3.2891106   5.8743827   9.1763621  )
        32           Ti1 tau(  32) = (   0.0006254   4.4649316   9.2693709  )
        33           O1  tau(  33) = (   3.2917412   2.9831059  11.3263362  )
        34           O1  tau(  34) = (   0.0092240   2.9805883  10.6323155  )
        35           O1  tau(  35) = (   1.2859270   4.4784489  12.6216084  )
        36           O1  tau(  36) = (   5.2779610   4.4756213  12.6128944  )
        37           Ti1 tau(  37) = (   0.0616295   0.0157230  12.5710002  )
        38           Ti1 tau(  38) = (   3.3796684   4.4726909  12.4790056  )
        39           O1  tau(  39) = (   6.5693437   2.9756239  14.6354252  )
        40           O1  tau(  40) = (   3.2842310   3.0020566  13.9003041  )
        41           O1  tau(  41) = (   4.5171552   4.5052370  16.0986928  )
        42           O1  tau(  42) = (   2.0408908   4.5012300  16.0971631  )
        43           Ti1 tau(  43) = (   3.2680294   0.0293594  15.7040856  )
        44           Ti1 tau(  44) = (   6.5592110   4.6908586  16.1766550  )
        45           O1  tau(  45) = (   3.2900926   2.9813045   4.7018136  )
        46           O1  tau(  46) = (   1.3039711   4.4726057   6.0039043  )
        47           O1  tau(  47) = (   5.2763189   4.4711207   6.0039473  )
        48           N1  tau(  48) = (   0.0931655   2.5901963  18.5587852  )
        49           N1  tau(  49) = (   6.5755498   2.9338716  17.3126873  )
        50           C1  tau(  50) = (   0.1889803   3.3462807  19.6294495  )
        51           H1  tau(  51) = (   0.2540540   2.8541835  20.5836859  )
        52           H1  tau(  52) = (   0.1990997   4.4171571  19.5098884  )
        53           H1  tau(  53) = (   0.0969130   1.5623892  18.6894177  )

     number of k points=    10  Fermi-Dirac smearing, width (Ry)=  0.0073
                       cart. coord. in units 2pi/alat
        k(    1) = (   0.0000000   0.0000000   0.0000000), wk =   0.1250000
        k(    2) = (   0.0000000   0.0419351   0.0000000), wk =   0.2500000
        k(    3) = (   0.0000000  -0.0838702   0.0000000), wk =   0.1250000
        k(    4) = (   0.0379955   0.0000049   0.0000000), wk =   0.2500000
        k(    5) = (   0.0379955   0.0419400   0.0000000), wk =   0.2500000
        k(    6) = (   0.0379955  -0.0838652   0.0000000), wk =   0.2500000
        k(    7) = (   0.0379955  -0.0419301   0.0000000), wk =   0.2500000
        k(    8) = (  -0.0759910  -0.0000099   0.0000000), wk =   0.1250000
        k(    9) = (  -0.0759910   0.0419252   0.0000000), wk =   0.2500000
        k(   10) = (  -0.0759910  -0.0838800   0.0000000), wk =   0.1250000

     Initial potential from superposition of free atoms

     starting charge  378.99916, renormalised to  395.00000

     negative rho (up, down):  1.523E-02 0.000E+00

     %%%%%%%%%%%%%%%%%%%%%%%%%%%%%%%%%%%%%%%%%%%%%%%%%%%%%%%%%%%%%%%%%%%%%%%%
     %                                                                      %
     % You are using vdW-DF, which was implemented by the Thonhauser group. %
     % Please cite the following two papers that made this development      %
     % possible and the two reviews that describe the various versions:     %
     %                                                                      %
     %   T. Thonhauser et al., PRL 115, 136402 (2015).                      %
     %   T. Thonhauser et al., PRB 76, 125112 (2007).                       %
     %   K. Berland et al., Rep. Prog. Phys. 78, 066501 (2015).             %
     %   D.C. Langreth et al., J. Phys.: Condens. Matter 21, 084203 (2009). %
     %                                                                      %
     %                                                                      %
     % If you are calculating the stress with vdW-DF, please also cite:     %
     %                                                                      %
     %   R. Sabatini et al., J. Phys.: Condens. Matter 24, 424209 (2012).   %
     %                                                                      %
     %%%%%%%%%%%%%%%%%%%%%%%%%%%%%%%%%%%%%%%%%%%%%%%%%%%%%%%%%%%%%%%%%%%%%%%%

     Adding external electric field

     Computed dipole along edir(3) :
        Dipole               -8.7485 Ry au,        -22.2364 Debye
        Dipole field         -0.0165 Ry au,

        Potential amp.        1.5304 Ry
        Total length         46.3494 bohr

     Starting wfcs are  299 atomic wfcs
  @ DRIVER MODE: Message from server: STATUS
  @ DRIVER MODE: Message from server: POSDATA
  @ DRIVER MODE: Reading and sharing cell
  @ DRIVER MODE: Reading and sharing positions
  @ DRIVER MODE: Received positions

     Self-consistent Calculation

     iteration #  1     ecut=    29.40 Ry     beta= 0.05
     Davidson diagonalization with overlap
     c_bands:  2 eigenvalues not converged
     c_bands:  1 eigenvalues not converged
     c_bands:  1 eigenvalues not converged
     c_bands:  3 eigenvalues not converged
     c_bands:  2 eigenvalues not converged
     c_bands:  1 eigenvalues not converged
     c_bands:  1 eigenvalues not converged
     ethr =  1.00E-05,  avg # of iterations = 19.1

[...]

     total energy              =   -2617.00401117 Ry
     estimated scf accuracy    <    3577.48844011 Ry

     iteration #  2     ecut=    29.40 Ry     beta= 0.05
     Davidson diagonalization with overlap
     ethr =  1.00E-02,  avg # of iterations = 22.3

[...]

     iteration # 58     ecut=    29.40 Ry     beta= 0.05
     Davidson diagonalization with overlap
     c_bands:  1 eigenvalues not converged
     ethr =  2.05E-10,  avg # of iterations = 13.9

[...]

     total energy              =   -2939.15586017 Ry
     estimated scf accuracy    <       0.00000010 Ry

     iteration # 63     ecut=    29.40 Ry     beta= 0.05
     Davidson diagonalization with overlap
     ethr =  2.56E-11,  avg # of iterations = 12.2

     negative rho (up, down):  1.569E-02 0.000E+00

     Adding external electric field

     Computed dipole along edir(3) :
        Dipole                1.1186 Ry au,          2.8432 Debye
        Dipole field          0.0021 Ry au,

        Potential amp.       -0.1957 Ry
        Total length         46.3494 bohr

     End of self-consistent calculation

          k = 0.0000 0.0000 0.0000 ( 18029 PWs)   bands (ev):

   -55.5871 -55.5842 -55.5531 -55.5482 -55.4551 -55.4358 -55.4189 -55.4010
   -55.4006 -55.3671 -55.3621 -55.3284 -54.9566 -54.8685 -54.5650 -54.5309
   -32.1389 -32.0699 -31.9560 -31.8994 -31.8966 -31.8884 -31.8799 -31.8533
   -31.8310 -31.8114 -31.7793 -31.7697 -31.7634 -31.7392 -31.7370 -31.7241
   -31.6918 -31.6816 -31.6719 -31.6587 -31.6556 -31.6442 -31.6098 -31.6034
   -31.5935 -31.5900 -31.5856 -31.5772 -31.5665 -31.5641 -31.5397 -31.5299
   -31.5159 -31.5107 -31.5026 -31.4750 -31.4634 -31.1957 -31.1879 -31.1491
   -31.1012 -31.0475 -30.9720 -30.8839 -30.8614 -30.7889 -30.7024 -30.5912
   -18.9379 -16.3424 -16.0655 -15.8180 -15.7376 -15.7212 -15.6054 -15.4328
   -15.3165 -15.2652 -15.1623 -15.1613 -15.1243 -15.0903 -15.0424 -15.0392
   -15.0343 -15.0070 -14.9982 -14.9780 -14.9477 -14.9295 -14.8902 -14.7911
   -14.7728 -14.7227 -14.6942 -14.6682 -14.6478 -14.2641 -13.0672 -12.9508
   -12.7034  -8.8758  -6.3290  -4.8596  -3.7178  -3.6528  -3.5600  -3.4946
    -3.4589  -3.4262  -3.2321  -3.1917  -3.1428  -2.8363  -2.7756  -2.7572
    -2.7472  -2.7176  -2.4928  -2.4541  -2.4025  -2.3720  -2.3604  -2.3579
    -2.3564  -2.3267  -2.3082  -2.1673  -2.1325  -2.0423  -2.0029  -1.9963
    -1.9876  -1.9000  -1.8683  -1.8418  -1.8318  -1.8218  -1.7941  -1.7850
    -1.7763  -1.6423  -1.5633  -1.4117  -1.3912  -1.3508  -1.2194  -1.1953
    -1.0638  -1.0467  -1.0175  -0.9804  -0.9611  -0.8920  -0.7722  -0.7503
    -0.7147  -0.6996  -0.6090  -0.5709  -0.5031  -0.4686  -0.4447  -0.3970
    -0.3582  -0.3490  -0.3271  -0.2011  -0.0710  -0.0134  -0.0043   0.0229
     0.0914   0.1292   0.1896   0.2397   0.2496   0.2861   0.3376   0.3822
     0.3941   0.3965   0.4116   0.4498   0.5910   0.6073   0.6727   0.7181
     0.7615   0.8765   0.9284   1.0646   1.1563   1.3147   1.3845   1.4574
     1.5295   1.6495   2.0279   2.0462   2.0738   3.5430   3.6317   3.6758
     3.6811   3.7870   3.8822   3.9943   4.0138   4.0344   4.0895

[...]

          k = 0.0380-0.0419 0.0000 ( 17876 PWs)   bands (ev):

[...]

          k =-0.0760-0.0000 0.0000 ( 17886 PWs)   bands (ev):

[...]

          k =-0.0760-0.0839 0.0000 ( 17948 PWs)   bands (ev):

   -55.5702 -55.5699 -55.5665 -55.5657 -55.4426 -55.4314 -55.4215 -55.4148
   -55.3840 -55.3837 -55.3460 -55.3447 -54.9538 -54.8711 -54.5479 -54.5479
   -31.9423 -31.9406 -31.8853 -31.8850 -31.8655 -31.8650 -31.8384 -31.8382
   -31.8036 -31.7912 -31.7670 -31.7608 -31.7263 -31.7182 -31.7032 -31.7010
   -31.6988 -31.6959 -31.6896 -31.6894 -31.6862 -31.6836 -31.6559 -31.6482
   -31.6298 -31.6274 -31.6206 -31.6149 -31.5844 -31.5831 -31.5777 -31.5761
   -31.5615 -31.5610 -31.5606 -31.5588 -31.3662 -31.2322 -31.1965 -31.1633
   -31.1033 -31.0915 -30.8742 -30.8741 -30.7848 -30.7847 -30.7457 -30.7456
   -18.9341 -15.7725 -15.7578 -15.5314 -15.5160 -15.5051 -15.4962 -15.3488
   -15.3218 -15.2834 -15.2804 -15.2090 -15.1635 -15.1468 -15.1311 -15.1289
   -15.1103 -15.1021 -15.0535 -15.0468 -15.0454 -15.0274 -15.0209 -14.9064
   -14.9024 -14.8946 -14.8421 -14.7931 -14.6761 -14.3918 -13.0526 -13.0525
   -12.7092  -8.8759  -6.3233  -4.8209  -3.6665  -3.3299  -3.0602  -3.0489
    -2.7589  -2.7479  -2.7457  -2.7024  -2.5101  -2.5052  -2.4913  -2.4592
    -2.4257  -2.4144  -2.4046  -2.3901  -2.3845  -2.3362  -2.3142  -2.2690
    -2.2561  -2.2527  -2.2513  -2.2157  -2.2053  -2.1634  -2.1528  -2.1295
    -2.1174  -2.0856  -2.0546  -1.9080  -1.8216  -1.8026  -1.7285  -1.7217
    -1.6894  -1.6520  -1.6384  -1.5942  -1.5591  -1.4429  -1.3305  -1.2884
    -1.2739  -1.1740  -1.1377  -1.0993  -1.0467  -0.9726  -0.9645  -0.9354
    -0.8695  -0.7975  -0.7809  -0.7584  -0.6941  -0.6699  -0.5963  -0.5752
    -0.5498  -0.5449  -0.4886  -0.4231  -0.4073  -0.3554  -0.3473  -0.3063
    -0.2718  -0.2426  -0.2232  -0.0839  -0.0825  -0.0424   0.0924   0.1483
     0.3807   0.4304   0.4504   0.5216   0.6217   0.6699   0.6836   0.7253
     0.7345   0.7498   0.8096   0.9398   0.9453   1.0139   1.0548   1.1561
     1.8213   1.8217   1.8936   1.8938   1.9060   3.8389   3.8653   3.8782
     3.9019   4.0498   4.0598   4.0796   4.0803   4.1999   4.2208

     the Fermi energy is     3.5444 ev

!    total energy              =   -2939.15590563 Ry
     estimated scf accuracy    <       0.00000003 Ry
     smearing contrib. (-TS)   =      -0.02147644 Ry
     internal energy E=F+TS    =   -2939.13442920 Ry

     The total energy is F=E-TS. E is the sum of the following terms:
     one-electron contribution =  -24212.82883058 Ry
     hartree contribution      =   12196.25667475 Ry
     xc contribution           =    -485.25448292 Ry
     ewald contribution        =    9562.68984824 Ry
     electric field correction =       0.00236131 Ry

     convergence has been achieved in  63 iterations

     Forces acting on atoms (cartesian axes, Ry/au):

     atom    1 type  1   force =     0.00008268   -0.00016976    0.09643840
     atom    2 type  1   force =    -0.00018446   -0.00073794   -0.17540310
     atom    3 type  2   force =     0.00004615   -0.00013283   -0.02407517
     atom    4 type  2   force =     0.00007615   -0.00140771    0.05266994
     atom    5 type  2   force =    -0.01131330   -0.00007434    0.00339212
     atom    6 type  2   force =     0.01296439    0.00064138    0.00223906
     atom    7 type  1   force =    -0.00120129    0.00047902   -0.01227140
     atom    8 type  1   force =     0.00043027    0.00232453    0.02519850
     atom    9 type  2   force =    -0.00025115    0.00019056    0.00004188
     atom   10 type  2   force =    -0.00120610    0.00198483   -0.01304843
     atom   11 type  2   force =     0.00056628    0.00016192    0.00024331
     atom   12 type  2   force =    -0.00048666    0.00006730    0.00012018
     atom   13 type  1   force =    -0.00050955    0.00027556    0.00018317
     atom   14 type  1   force =     0.00060972   -0.00036942   -0.00029506
     atom   15 type  2   force =    -0.00005692    0.00028731    0.00005317
     atom   16 type  2   force =    -0.00002062    0.00018014    0.00058875
     atom   17 type  2   force =    -0.00053827   -0.00003606   -0.00005851
     atom   18 type  2   force =     0.00019224   -0.00012554   -0.00029635
     atom   19 type  1   force =     0.00013489    0.00076025    0.00045552
     atom   20 type  1   force =    -0.00000451    0.00032961   -0.00014004
     atom   21 type  2   force =     0.00009955   -0.00012516    0.10318811
     atom   22 type  2   force =    -0.00022828    0.00016388    0.00009228
     atom   23 type  2   force =    -0.07149793   -0.00021972   -0.02774465
     atom   24 type  2   force =     0.07149901    0.00024463   -0.02775269
     atom   25 type  1   force =     0.00012116   -0.00025729    0.09596365
     atom   26 type  1   force =    -0.00010605   -0.00044385   -0.17554994
     atom   27 type  2   force =     0.00009864   -0.00013045   -0.02331196
     atom   28 type  2   force =     0.00010969   -0.00121889    0.05263901
     atom   29 type  2   force =    -0.01156089   -0.00029828    0.00347471
     atom   30 type  2   force =     0.01314732    0.00016377    0.00227895
     atom   31 type  1   force =    -0.00120232    0.00346468   -0.01238111
     atom   32 type  1   force =     0.00054316   -0.00378955    0.02548661
     atom   33 type  2   force =     0.00002566   -0.00017760   -0.00001357
     atom   34 type  2   force =    -0.00098416    0.00046540   -0.02168349
     atom   35 type  2   force =     0.00013076    0.00001016    0.00018566
     atom   36 type  2   force =    -0.00013203    0.00002377    0.00007054
     atom   37 type  1   force =    -0.00045060   -0.00032677    0.00015426
     atom   38 type  1   force =     0.00044046    0.00027155   -0.00029533
     atom   39 type  2   force =    -0.00002175   -0.00044576    0.00031735
     atom   40 type  2   force =    -0.00012840   -0.00008481    0.00013606
     atom   41 type  2   force =    -0.00080958   -0.00017319   -0.00025013
     atom   42 type  2   force =     0.00089164    0.00002350   -0.00001084
     atom   43 type  1   force =    -0.00001225   -0.00077207    0.00009130
     atom   44 type  1   force =    -0.00005361    0.00003508    0.00013696
     atom   45 type  2   force =     0.00010658   -0.00011017    0.10320021
     atom   46 type  2   force =    -0.07149831   -0.00014513   -0.02772992
     atom   47 type  2   force =     0.07150776    0.00030127   -0.02773980
     atom   48 type  3   force =     0.00011626   -0.00140394   -0.00066865
     atom   49 type  3   force =     0.00041534   -0.00010495   -0.00025909
     atom   50 type  4   force =     0.00070864    0.00079216    0.00111036
     atom   51 type  5   force =     0.00024427   -0.00052233    0.00025976
     atom   52 type  5   force =    -0.00043978   -0.00065545    0.00026830
     atom   53 type  5   force =    -0.00040993    0.00081671    0.00030115

     Total force =     0.366761     Total SCF correction =     0.000526
  @ DRIVER MODE: Message from server: STATUS
  @ DRIVER MODE: Message from server: GETFORCE
  @ DRIVER MODE: Returning v,forces,stress,ensemble

     Writing output data file ./calc.save/
  @ DRIVER MODE: Message from server: EXIT
  @ DRIVE MODE: Exiting

     General routines

     Parallel routines

   This run was terminated on:   2:53:45  11Sep2021

   JOB DONE.