     Program PWSCF v.6.7GPU starts on 15Jul2021 at 23:48:15

     R & G space division:  proc/nbgrp/npool/nimage =      16
     Reading input from /storage/home/hcoda1/3/ntian30/research/carbon/15Jul_vib/ads_slab/CH3NNHH_a/out_0011/pw.inp
Warning: card &CELL ignored
Warning: card   CELL_DYNAMICS='IPI', ignored
Warning: card / ignored

     Current dimensions of program PWSCF are:
     Max number of different atomic species (ntypx) = 10
     Max number of k-points (npk) =  40000
     Max angular momentum in pseudopotentials (lmaxx) =  3
     Presently no symmetry can be used with electric field

     Message from routine cell_base_init:
     DEPRECATED: use true lattice parameter, not A to a.u. conversion factor

     IMPORTANT: XC functional enforced from input :
     Exchange-correlation= BEEF-VDW
                           (   1   4  43  14   2   0   0)
     Any further DFT definition will be discarded
     Please, verify this is what you really want

  @ DRIVER MODE: Connecting to
 qe_1139763_2351651.sched-torque.pace.gatech.eduozzggdnp_scratch
  using UNIX socket
  @ DRIVER MODE: Message from server: STATUS
  @ DRIVER MODE: Message from server: INIT
  @ DRIVER MODE: Receiving replica           0          -1
  @ DRIVER MODE: Receiving encoded integer          25
  @ DRIVER MODE:  SCF:  T  FORCE:  T  STRESS:  F  VC:  F  ENSEMBLE:  F
  @ DRIVER MODE:  SCF:  T  FORCE:  T  STRESS:  F  VC:  F  ENSEMBLE:  F

     Using Slab Decomposition

     bravais-lattice index     =            0
     lattice parameter (alat)  =       1.8897  a.u.
     unit-cell volume          =    6658.9804 (a.u.)^3
     number of atoms/cell      =           55
     number of atomic types    =            5
     number of electrons       =       397.00
     number of Kohn-Sham states=          208
     kinetic-energy cutoff     =      29.3995  Ry
     charge density cutoff     =     293.9946  Ry
     scf convergence threshold =      7.3E-08
     mixing beta               =       0.0500
     number of iterations used =            8  plain     mixing
     Exchange-correlation= BEEF-VDW
                           (   1   4  43  14   2   0   0)

     celldm(1)=   1.889726  celldm(2)=   0.000000  celldm(3)=   0.000000
     celldm(4)=   0.000000  celldm(5)=   0.000000  celldm(6)=   0.000000

     crystal axes: (cart. coord. in units of alat)
               a(1) = (   6.579727   0.000000   0.000000 )
               a(2) = (  -0.000775   5.961596   0.000000 )
               a(3) = (   0.000000   0.000000  25.155947 )

     reciprocal axes: (cart. coord. in units 2 pi/alat)
               b(1) = (  0.151982  0.000020  0.000000 )
               b(2) = (  0.000000  0.167740  0.000000 )
               b(3) = (  0.000000  0.000000  0.039752 )

     PseudoPot. # 1 for Ti read from file:
     /storage/coda1/p-amedford6/0/shared/rich_project_chbe-medford/medford-share/data/pseudos_module/espresso/nninc/pbe/van/Ti.UPF
     MD5 check sum: 8e4df49b7f0d34bbd5052bf3f5ea0213
     Pseudo is Ultrasoft, Zval = 12.0
     Generated by new atomic code, or converted to UPF format
     Using radial grid of  851 points,  6 beta functions with:
                l(1) =   0
                l(2) =   0
                l(3) =   1
                l(4) =   1
                l(5) =   2
                l(6) =   2
     Q(r) pseudized with  8 coefficients,  rinner =    1.000   1.000   1.000
                                                       1.000   1.000

     PseudoPot. # 2 for O  read from file:
     /storage/coda1/p-amedford6/0/shared/rich_project_chbe-medford/medford-share/data/pseudos_module/espresso/nninc/pbe/van/O.UPF
     MD5 check sum: 78c19812648e8988a0fe644b0f25305e
     Pseudo is Ultrasoft, Zval =  6.0
     Generated by new atomic code, or converted to UPF format
     Using radial grid of  737 points,  4 beta functions with:
                l(1) =   0
                l(2) =   0
                l(3) =   1
                l(4) =   1
     Q(r) pseudized with  8 coefficients,  rinner =    0.800   0.800   0.800

     PseudoPot. # 3 for N  read from file:
     /storage/coda1/p-amedford6/0/shared/rich_project_chbe-medford/medford-share/data/pseudos_module/espresso/nninc/pbe/van/N.UPF
     MD5 check sum: 90d10febe142ad51ac9d5be1deb811c4
     Pseudo is Ultrasoft, Zval =  5.0
     Generated by new atomic code, or converted to UPF format
     Using radial grid of  729 points,  4 beta functions with:
                l(1) =   0
                l(2) =   0
                l(3) =   1
                l(4) =   1
     Q(r) pseudized with  8 coefficients,  rinner =    0.800   0.800   0.800

     PseudoPot. # 4 for C  read from file:
     /storage/coda1/p-amedford6/0/shared/rich_project_chbe-medford/medford-share/data/pseudos_module/espresso/nninc/pbe/van/C.UPF
     MD5 check sum: 1a69bf6b8db32088f5b2163dbdb77a27
     Pseudo is Ultrasoft, Zval =  4.0
     Generated by new atomic code, or converted to UPF format
     Using radial grid of  721 points,  4 beta functions with:
                l(1) =   0
                l(2) =   0
                l(3) =   1
                l(4) =   1
     Q(r) pseudized with  8 coefficients,  rinner =    0.800   0.800   0.800

     PseudoPot. # 5 for H  read from file:
     /storage/coda1/p-amedford6/0/shared/rich_project_chbe-medford/medford-share/data/pseudos_module/espresso/nninc/pbe/van/H.UPF
     MD5 check sum: b5ee9d7bfd3a09ee7748110bda690ff7
     Pseudo is Ultrasoft, Zval =  1.0
     Generated by new atomic code, or converted to UPF format
     Using radial grid of  615 points,  1 beta functions with:
                l(1) =   0
     Q(r) pseudized with  8 coefficients,  rinner =    0.800

     atomic species   valence    mass     pseudopotential
        Ti1           12.00    47.86700     Ti( 1.00)
        O1             6.00    15.99900     O ( 1.00)
        N1             5.00    14.00700     N ( 1.00)
        C1             4.00    12.01100     C ( 1.00)
        H1             1.00     1.00800     H ( 1.00)

     Starting magnetic structure
     atomic species   magnetization
        Ti1          0.000
        O1           0.000
        N1           0.000
        C1           0.025
        H1           0.000

     No symmetry found

   Cartesian axes

     site n.     atom                  positions (alat units)
         1           Ti1 tau(   1) = (   0.0004258   2.9801865   6.0000000  )
         2           Ti1 tau(   2) = (   3.2906075   1.4906267   6.0002472  )
         3           O1  tau(   3) = (   0.0006271   0.0005054   7.9858123  )
         4           O1  tau(   4) = (   3.2906025   0.0005020   7.3038282  )
         5           O1  tau(   5) = (   4.5942328   1.4918067   9.2879030  )
         6           O1  tau(   6) = (   1.9868534   1.4903216   9.2879459  )
         7           Ti1 tau(   7) = (   3.2907910   2.8959150   9.1758416  )
         8           Ti1 tau(   8) = (   0.0015273   1.4827037   9.2680791  )
         9           O1  tau(   9) = (   3.3020592   5.9599881  11.3075072  )
        10           O1  tau(  10) = (   0.0116148   5.9584955  10.6183126  )
        11           O1  tau(  11) = (   1.3218652   1.4872367  12.6142461  )
        12           O1  tau(  12) = (   5.3149618   1.4866655  12.6283206  )
        13           Ti1 tau(  13) = (   6.5343381   3.0098038  12.6530281  )
        14           Ti1 tau(  14) = (   3.2132235   1.4912063  12.4551521  )
        15           O1  tau(  15) = (   0.0515422   5.9562953  14.6829507  )
        16           O1  tau(  16) = (   3.3088797   0.0214154  13.8770011  )
        17           O1  tau(  17) = (   4.5726725   1.5412406  16.1224456  )
        18           O1  tau(  18) = (   2.0900022   1.5114086  15.9969863  )
        19           Ti1 tau(  19) = (   3.3311046   3.0200058  15.6476981  )
        20           Ti1 tau(  20) = (   0.0790784   1.4105808  15.8036947  )
        21           O1  tau(  21) = (   3.2904802   0.0005063   4.7018136  )
        22           O1  tau(  22) = (   0.0613336   0.0214447  17.2555488  )
        23           O1  tau(  23) = (   1.3043587   1.4918075   6.0039043  )
        24           O1  tau(  24) = (   5.2767064   1.4903225   6.0039473  )
        25           Ti1 tau(  25) = (   0.0000382   5.9609847   6.0000000  )
        26           Ti1 tau(  26) = (   3.2902200   4.4714249   6.0002472  )
        27           O1  tau(  27) = (   0.0002396   2.9813036   7.9858123  )
        28           O1  tau(  28) = (   3.2902150   2.9813002   7.3038282  )
        29           O1  tau(  29) = (   4.5938453   4.4726049   9.2879030  )
        30           O1  tau(  30) = (   1.9864658   4.4711199   9.2879459  )
        31           Ti1 tau(  31) = (   3.2891106   5.8743827   9.1763621  )
        32           Ti1 tau(  32) = (   0.0006254   4.4649316   9.2693709  )
        33           O1  tau(  33) = (   3.3026341   2.9893090  11.3092672  )
        34           O1  tau(  34) = (   0.0092240   2.9805883  10.6323155  )
        35           O1  tau(  35) = (   1.3182942   4.4670451  12.6271195  )
        36           O1  tau(  36) = (   5.3124783   4.4780259  12.6376329  )
        37           Ti1 tau(  37) = (   6.5365500   0.0194685  12.5464133  )
        38           Ti1 tau(  38) = (   3.2155898   4.4753301  12.4613306  )
        39           O1  tau(  39) = (   0.0167368   2.9407051  14.7244952  )
        40           O1  tau(  40) = (   3.3149560   2.9822459  13.8616979  )
        41           O1  tau(  41) = (   4.5706274   4.5128733  15.9228735  )
        42           O1  tau(  42) = (   2.1262058   4.4922812  16.0793225  )
        43           Ti1 tau(  43) = (   3.3222298   0.0210159  15.6751784  )
        44           Ti1 tau(  44) = (   6.5499002   4.5104744  16.2959303  )
        45           O1  tau(  45) = (   3.2900926   2.9813045   4.7018136  )
        46           O1  tau(  46) = (   1.3039711   4.4726057   6.0039043  )
        47           O1  tau(  47) = (   5.2763189   4.4711207   6.0039473  )
        48           N1  tau(  48) = (   0.3735289   2.9861087  17.6038306  )
        49           C1  tau(  49) = (   1.3580301   2.7301661  18.6331808  )
        50           H1  tau(  50) = (   1.5128655   3.6233449  19.2641712  )
        51           H1  tau(  51) = (   1.0354786   1.8978442  19.2795547  )
        52           H1  tau(  52) = (   2.3065860   2.4473273  18.1987077  )
        53           N1  tau(  53) = (   5.7326324   3.4596218  18.1373629  )
        54           H1  tau(  54) = (   5.8436824   4.0267099  18.9748678  )
        55           H1  tau(  55) = (   5.0375616   2.7244768  18.2555579  )

     number of k points=    10  Fermi-Dirac smearing, width (Ry)=  0.0073
                       cart. coord. in units 2pi/alat
        k(    1) = (   0.0000000   0.0000000   0.0000000), wk =   0.0625000
        k(    2) = (   0.0000000   0.0419351   0.0000000), wk =   0.1250000
        k(    3) = (   0.0000000  -0.0838702   0.0000000), wk =   0.0625000
        k(    4) = (   0.0379955   0.0000049   0.0000000), wk =   0.1250000
        k(    5) = (   0.0379955   0.0419400   0.0000000), wk =   0.1250000
        k(    6) = (   0.0379955  -0.0838652   0.0000000), wk =   0.1250000
[...]
     %                                                                      %
     % You are using vdW-DF, which was implemented by the Thonhauser group. %
     % Please cite the following two papers that made this development      %
     % possible and the two reviews that describe the various versions:     %
     %                                                                      %
     %   T. Thonhauser et al., PRL 115, 136402 (2015).                      %
     %   T. Thonhauser et al., PRB 76, 125112 (2007).                       %
     %   K. Berland et al., Rep. Prog. Phys. 78, 066501 (2015).             %
     %   D.C. Langreth et al., J. Phys.: Condens. Matter 21, 084203 (2009). %
     %                                                                      %
     %                                                                      %
     % If you are calculating the stress with vdW-DF, please also cite:     %
     %                                                                      %
     %   R. Sabatini et al., J. Phys.: Condens. Matter 24, 424209 (2012).   %
     %                                                                      %
     %%%%%%%%%%%%%%%%%%%%%%%%%%%%%%%%%%%%%%%%%%%%%%%%%%%%%%%%%%%%%%%%%%%%%%%%

     Adding external electric field

     Computed dipole along edir(3) :
        Dipole               -9.2550 Ry au,        -23.5239 Debye
        Dipole field         -0.0175 Ry au,

        Potential amp.        1.6190 Ry
        Total length         46.3494 bohr

[...]

     Starting wfcs are  301 atomic wfcs
  @ DRIVER MODE: Message from server: STATUS
  @ DRIVER MODE: Message from server: POSDATA
  @ DRIVER MODE: Reading and sharing cell
  @ DRIVER MODE: Reading and sharing positions
  @ DRIVER MODE: Received positions

     Self-consistent Calculation

     iteration #  1     ecut=    29.40 Ry     beta= 0.05
     Davidson diagonalization with overlap
     c_bands:  1 eigenvalues not converged
     c_bands:  2 eigenvalues not converged
     c_bands:  1 eigenvalues not converged
     c_bands:  2 eigenvalues not converged
     c_bands:  2 eigenvalues not converged
     c_bands:  2 eigenvalues not converged
     c_bands:  2 eigenvalues not converged
     c_bands:  1 eigenvalues not converged
     c_bands:  4 eigenvalues not converged
     c_bands:  1 eigenvalues not converged
     c_bands:  2 eigenvalues not converged
     c_bands:  1 eigenvalues not converged
     c_bands:  2 eigenvalues not converged
     c_bands:  2 eigenvalues not converged
     c_bands:  2 eigenvalues not converged
     c_bands:  2 eigenvalues not converged
     c_bands:  1 eigenvalues not converged
     c_bands:  4 eigenvalues not converged
     ethr =  1.00E-05,  avg # of iterations = 19.8

[...]

     total energy              =   -2525.31886780 Ry
     estimated scf accuracy    <    4615.91768906 Ry

     total magnetization       =     0.00 Bohr mag/cell
     absolute magnetization    =     0.02 Bohr mag/cell

     iteration #  2     ecut=    29.40 Ry     beta= 0.05
     Davidson diagonalization with overlap
     ethr =  1.00E-02,  avg # of iterations = 23.4

[...]

     iteration # 60     ecut=    29.40 Ry     beta= 0.05
     Davidson diagonalization with overlap
     c_bands:  1 eigenvalues not converged
     ethr =  2.53E-10,  avg # of iterations = 13.4

[...]

     total energy              =   -2941.63791576 Ry
     estimated scf accuracy    <       0.00000008 Ry

[...]

     iteration # 68     ecut=    29.40 Ry     beta= 0.05
     Davidson diagonalization with overlap
     ethr =  2.13E-11,  avg # of iterations =  9.8

     negative rho (up, down):  8.394E-03 8.394E-03

[...]

     Adding external electric field

     Computed dipole along edir(3) :
        Dipole                1.1417 Ry au,          2.9019 Debye
        Dipole field          0.0022 Ry au,

        Potential amp.       -0.1997 Ry
        Total length         46.3494 bohr

     Magnetic moment per site  (integrated on atomic sphere of radius R)
     atom   1 (R=0.726)  charge=  7.9408  magn= -0.0028
     atom   2 (R=0.726)  charge=  7.9244  magn=  0.0001
     atom   3 (R=0.726)  charge=  4.9319  magn=  0.0003
     atom   4 (R=0.726)  charge=  4.9681  magn= -0.0001
     atom   5 (R=0.726)  charge=  4.9368  magn=  0.0000
     atom   6 (R=0.726)  charge=  4.9376  magn=  0.0000
     atom   7 (R=0.726)  charge=  7.9229  magn= -0.0000
     atom   8 (R=0.726)  charge=  7.9151  magn= -0.0010
     atom   9 (R=0.726)  charge=  4.9562  magn= -0.0000
     atom  10 (R=0.726)  charge=  4.9311  magn=  0.0001
     atom  11 (R=0.726)  charge=  4.9388  magn= -0.0000
     atom  12 (R=0.726)  charge=  4.9369  magn= -0.0000
     atom  13 (R=0.726)  charge=  7.9088  magn= -0.0001
     atom  14 (R=0.726)  charge=  7.9273  magn=  0.0001
     atom  15 (R=0.726)  charge=  4.9164  magn= -0.0000
     atom  16 (R=0.726)  charge=  4.9542  magn= -0.0000
     atom  17 (R=0.726)  charge=  4.9068  magn= -0.0000
     atom  18 (R=0.726)  charge=  4.9388  magn= -0.0000
     atom  19 (R=0.726)  charge=  7.9527  magn=  0.0000
     atom  20 (R=0.726)  charge=  7.9411  magn= -0.0000
     atom  21 (R=0.726)  charge=  4.8211  magn= -0.0002
     atom  22 (R=0.726)  charge=  4.9007  magn= -0.0000
     atom  23 (R=0.726)  charge=  4.9281  magn=  0.0003
     atom  24 (R=0.726)  charge=  4.9282  magn=  0.0003
     atom  25 (R=0.726)  charge=  7.9408  magn= -0.0028
     atom  26 (R=0.726)  charge=  7.9244  magn=  0.0001
     atom  27 (R=0.726)  charge=  4.9306  magn=  0.0003
     atom  28 (R=0.726)  charge=  4.9683  magn= -0.0001
     atom  29 (R=0.726)  charge=  4.9375  magn=  0.0000
     atom  30 (R=0.726)  charge=  4.9383  magn=  0.0000
     atom  31 (R=0.726)  charge=  7.9236  magn=  0.0000
     atom  32 (R=0.726)  charge=  7.9153  magn= -0.0010
     atom  33 (R=0.726)  charge=  4.9540  magn= -0.0000
     atom  34 (R=0.726)  charge=  4.9049  magn=  0.0001
     atom  35 (R=0.726)  charge=  4.9379  magn= -0.0000
     atom  36 (R=0.726)  charge=  4.9369  magn= -0.0000
     atom  37 (R=0.726)  charge=  7.9159  magn= -0.0001
     atom  38 (R=0.726)  charge=  7.9271  magn=  0.0001
     atom  39 (R=0.726)  charge=  4.9088  magn= -0.0000
     atom  40 (R=0.726)  charge=  4.9620  magn= -0.0000
     atom  41 (R=0.726)  charge=  4.9464  magn= -0.0000
     atom  42 (R=0.726)  charge=  4.9158  magn= -0.0000
     atom  43 (R=0.726)  charge=  7.9490  magn=  0.0000
     atom  44 (R=0.726)  charge=  7.9600  magn=  0.0000
     atom  45 (R=0.726)  charge=  4.8212  magn= -0.0002
     atom  46 (R=0.726)  charge=  4.9281  magn=  0.0003
     atom  47 (R=0.726)  charge=  4.9282  magn=  0.0003
     atom  48 (R=0.420)  charge=  1.3162  magn= -0.0000
     atom  49 (R=0.446)  charge=  0.8316  magn= -0.0000
     atom  50 (R=0.420)  charge=  0.4386  magn=  0.0000
     atom  51 (R=0.420)  charge=  0.4375  magn=  0.0000
     atom  52 (R=0.420)  charge=  0.4509  magn=  0.0000
     atom  53 (R=0.420)  charge=  1.3378  magn= -0.0000
     atom  54 (R=0.420)  charge=  0.4532  magn= -0.0000
     atom  55 (R=0.420)  charge=  0.4497  magn= -0.0000

     End of self-consistent calculation

 ------ SPIN UP ------------

          k = 0.0000 0.0000 0.0000 ( 18029 PWs)   bands (ev):

   -55.5768 -55.5708 -55.5390 -55.5367 -55.4630 -55.4257 -55.4256 -55.3901
   -55.3720 -55.3380 -55.3297 -55.2958 -55.0337 -54.8772 -54.5404 -54.5064
   -32.1387 -32.0533 -31.9609 -31.8942 -31.8904 -31.8735 -31.8629 -31.8219
   -31.8111 -31.8080 -31.7866 -31.7614 -31.7570 -31.7287 -31.7223 -31.7179
   -31.6753 -31.6624 -31.6606 -31.6509 -31.6500 -31.6273 -31.6155 -31.5982
   -31.5726 -31.5699 -31.5683 -31.5599 -31.5594 -31.5333 -31.5086 -31.5059
   -31.4971 -31.4943 -31.4839 -31.4753 -31.4430 -31.3080 -31.2587 -31.1571
   -31.1300 -31.0384 -30.9466 -30.8598 -30.8373 -30.7636 -30.6771 -30.5659
   -17.5995 -16.3641 -16.0514 -15.8372 -15.7284 -15.7250 -15.6406 -15.4194
   -15.2979 -15.2836 -15.1683 -15.1645 -15.1047 -15.0632 -15.0560 -15.0492
   -15.0163 -15.0050 -14.9867 -14.9509 -14.9182 -14.9002 -14.8767 -14.7750
   -14.7080 -14.7021 -14.6847 -14.6197 -14.5718 -14.2114 -13.0415 -12.9252
   -12.5715  -9.1897  -6.3532  -5.1165  -4.2113  -3.7424  -3.5528  -3.4761
    -3.4409  -3.3739  -3.3154  -3.1819  -3.1755  -2.7966  -2.7772  -2.7591
    -2.7380  -2.7346  -2.4656  -2.4123  -2.3975  -2.3940  -2.3760  -2.3598
    -2.3384  -2.3279  -2.3007  -2.2889  -2.1564  -2.1125  -2.0339  -2.0076
    -1.9915  -1.8811  -1.8557  -1.8355  -1.8237  -1.8106  -1.7809  -1.7745
    -1.7526  -1.6448  -1.5349  -1.4554  -1.4149  -1.3627  -1.3394  -1.1658
    -1.1135  -1.0524  -1.0298  -1.0052  -0.9906  -0.9570  -0.8825  -0.8584
    -0.7156  -0.6769  -0.6227  -0.5966  -0.5681  -0.5117  -0.4785  -0.4480
    -0.3513  -0.3404  -0.3291  -0.3166  -0.2603  -0.0687  -0.0206  -0.0017
     0.0134   0.1125   0.1522   0.1759   0.2114   0.2681   0.2961   0.3607
     0.3892   0.4097   0.4202   0.4490   0.4655   0.5976   0.6220   0.6537
     0.7148   0.7683   0.8437   0.9565   1.0390   1.0958   1.1974   1.4154
     1.4829   1.5669   1.6764   1.7089   2.0525   2.0976   3.5642   3.6556
     3.6920   3.7058   3.8120   3.8647   4.0126   4.0221   4.0619   4.0924

[...]

          k =-0.0760-0.0000 0.0000 ( 17886 PWs)   bands (ev):

[...]

 ------ SPIN DOWN ----------

[...]

          k = 0.0380-0.0419 0.0000 ( 17876 PWs)   bands (ev):

[...]

          k =-0.0760-0.0839 0.0000 ( 17948 PWs)   bands (ev):

   -55.5630 -55.5593 -55.5581 -55.5520 -55.4519 -55.4371 -55.4115 -55.4040
   -55.3584 -55.3552 -55.3146 -55.3109 -55.0324 -54.8784 -54.5228 -54.5227
   -31.9443 -31.9338 -31.8710 -31.8702 -31.8544 -31.8534 -31.8461 -31.8295
   -31.8046 -31.7906 -31.7703 -31.7507 -31.7252 -31.7145 -31.7093 -31.6835
   -31.6830 -31.6793 -31.6779 -31.6709 -31.6682 -31.6555 -31.6520 -31.6492
   -31.6287 -31.6156 -31.6051 -31.6042 -31.5555 -31.5534 -31.5474 -31.5450
   -31.5376 -31.5342 -31.5295 -31.5276 -31.4135 -31.3190 -31.2605 -31.2183
   -31.1354 -31.0496 -30.8496 -30.8495 -30.7590 -30.7588 -30.7199 -30.7199
   -17.5877 -15.8240 -15.7841 -15.5291 -15.5202 -15.5175 -15.4776 -15.3538
   -15.3051 -15.2793 -15.2682 -15.2496 -15.2411 -15.1398 -15.1257 -15.1095
   -15.0991 -15.0725 -15.0294 -15.0242 -15.0156 -15.0058 -14.9942 -14.9276
   -14.8756 -14.8717 -14.7573 -14.6658 -14.5250 -14.4364 -13.0280 -13.0279
   -12.5906  -9.1503  -6.3114  -5.1484  -4.1477  -3.3828  -3.1245  -3.0769
    -2.7891  -2.7696  -2.7543  -2.6409  -2.5215  -2.5121  -2.4863  -2.4643
    -2.4302  -2.4170  -2.4070  -2.3988  -2.3808  -2.3631  -2.3524  -2.3128
    -2.2438  -2.2356  -2.2263  -2.2196  -2.2029  -2.1792  -2.1682  -2.1413
    -2.1165  -2.0814  -2.0220  -1.9921  -1.8419  -1.7986  -1.7349  -1.6985
    -1.6898  -1.6608  -1.6273  -1.6199  -1.5082  -1.4936  -1.4616  -1.3308
    -1.2708  -1.2626  -1.2301  -1.1422  -1.1033  -0.9743  -0.9603  -0.9235
    -0.8674  -0.8605  -0.8232  -0.7853  -0.7352  -0.6825  -0.6396  -0.6161
    -0.5968  -0.5265  -0.5260  -0.4783  -0.4226  -0.3517  -0.3294  -0.3218
    -0.2893  -0.2455  -0.1987  -0.1353  -0.0597  -0.0404  -0.0257   0.0735
     0.1470   0.3655   0.4128   0.5092   0.5315   0.5586   0.6191   0.6687
     0.7378   0.7528   0.7809   0.8545   0.8760   0.9683   0.9798   0.9968
     1.1746   1.6431   1.8477   1.8486   1.9165   1.9170   3.8553   3.8712
     3.8955   3.9192   4.0793   4.0832   4.0963   4.0991   4.2195   4.2503

     the Fermi energy is     3.5612 ev

!    total energy              =   -2941.63793679 Ry
     estimated scf accuracy    <       0.00000007 Ry
     smearing contrib. (-TS)   =      -0.02171599 Ry
     internal energy E=F+TS    =   -2941.61622080 Ry

     The total energy is F=E-TS. E is the sum of the following terms:
     one-electron contribution =  -24390.04101433 Ry
     hartree contribution      =   12286.94196059 Ry
     xc contribution           =    -486.94198831 Ry
     ewald contribution        =    9648.42236140 Ry
     electric field correction =       0.00245984 Ry

     total magnetization       =    -0.01 Bohr mag/cell
     absolute magnetization    =     0.02 Bohr mag/cell

     convergence has been achieved in  68 iterations

     Forces acting on atoms (cartesian axes, Ry/au):

     atom    1 type  1   force =    -0.00001106   -0.00019627    0.09686057
     atom    2 type  1   force =     0.00009239   -0.00068990   -0.17461408
     atom    3 type  2   force =     0.00018210   -0.00005943   -0.02512144
     atom    4 type  2   force =     0.00000709   -0.00124907    0.05116343
     atom    5 type  2   force =    -0.01126736   -0.00079867    0.00227060
     atom    6 type  2   force =     0.01310797   -0.00034986    0.00271412
     atom    7 type  1   force =     0.00100214    0.00021827   -0.01339309
     atom    8 type  1   force =    -0.00010174    0.01532938    0.02828066
     atom    9 type  2   force =    -0.00007195   -0.00001498    0.00009509
     atom   10 type  2   force =    -0.00233994    0.00080650   -0.01059963
     atom   11 type  2   force =     0.00035256    0.00005251   -0.00001833
     atom   12 type  2   force =    -0.00042534   -0.00006905    0.00025144
     atom   13 type  1   force =     0.00015279   -0.00018620   -0.00003398
     atom   14 type  1   force =     0.00010169   -0.00022908    0.00004610
     atom   15 type  2   force =    -0.00005500    0.00020893   -0.00012058
     atom   16 type  2   force =    -0.00019685    0.00003086   -0.00017962
     atom   17 type  2   force =    -0.00014735    0.00008326   -0.00004329
     atom   18 type  2   force =    -0.00018627   -0.00002967   -0.00029045
     atom   19 type  1   force =    -0.00028680    0.00019985    0.00000199
     atom   20 type  1   force =    -0.00003649   -0.00056256   -0.00000030
     atom   21 type  2   force =     0.00003781   -0.00009303    0.10303407
     atom   22 type  2   force =    -0.00007643    0.00034243    0.00039313
     atom   23 type  2   force =    -0.07180275   -0.00021092   -0.02780631
     atom   24 type  2   force =     0.07176077    0.00024512   -0.02786903
     atom   25 type  1   force =     0.00003056   -0.00026240    0.09646170
     atom   26 type  1   force =    -0.00000208   -0.00028997   -0.17488104
     atom   27 type  2   force =     0.00019232   -0.00025713   -0.02398317
     atom   28 type  2   force =     0.00005275   -0.00100713    0.05143465
     atom   29 type  2   force =    -0.01129594    0.00078990    0.00168463
     atom   30 type  2   force =     0.01298582    0.00111706    0.00208187
     atom   31 type  1   force =     0.00103564    0.00257305   -0.01541005
     atom   32 type  1   force =     0.00005572   -0.01663229    0.02915568
     atom   33 type  2   force =     0.00011638    0.00003023   -0.00011569
     atom   34 type  2   force =    -0.00271181    0.00093477   -0.01870476
     atom   35 type  2   force =     0.00017301   -0.00007477   -0.00009090
     atom   36 type  2   force =    -0.00036880   -0.00007265    0.00012933
     atom   37 type  1   force =    -0.00010670   -0.00019578    0.00016659
     atom   38 type  1   force =     0.00007473    0.00009170   -0.00004302
     atom   39 type  2   force =    -0.00003595    0.00043974   -0.00005170
     atom   40 type  2   force =    -0.00037862    0.00015336   -0.00011794
     atom   41 type  2   force =     0.00011264   -0.00002187   -0.00011325
     atom   42 type  2   force =    -0.00005431    0.00018071    0.00001780
     atom   43 type  1   force =     0.00015172    0.00001094   -0.00009364
     atom   44 type  1   force =    -0.00042139   -0.00039351   -0.00060770
     atom   45 type  2   force =     0.00005338   -0.00011049    0.10303780
     atom   46 type  2   force =    -0.07182556   -0.00016099   -0.02783011
     atom   47 type  2   force =     0.07176805    0.00022607   -0.02787317
     atom   48 type  3   force =    -0.00385098    0.00061383   -0.00529366
     atom   49 type  4   force =    -0.00245870    0.00050892    0.01819493
     atom   50 type  5   force =    -0.00071065   -0.00369352   -0.00396543
     atom   51 type  5   force =     0.00130910    0.00360490   -0.00461510
     atom   52 type  5   force =     0.00433755   -0.00129206   -0.00345990
     atom   53 type  3   force =     0.00152875    0.00030992    0.00016148
     atom   54 type  5   force =     0.00053967   -0.00010775    0.00124650
     atom   55 type  5   force =    -0.00008827    0.00020878   -0.00154380

     Total force =     0.367902     Total SCF correction =     0.000745
  @ DRIVER MODE: Message from server: STATUS
  @ DRIVER MODE: Message from server: GETFORCE
  @ DRIVER MODE: Returning v,forces,stress,ensemble

     Writing output data file ./calc.save/
  @ DRIVER MODE: Message from server: EXIT
  @ DRIVE MODE: Exiting

     General routines

     Parallel routines

   This run was terminated on:   0:18:35  16Jul2021

   JOB DONE.