     Program PWSCF v.6.7GPU starts on 22Sep2021 at 17:16:48

     R & G space division:  proc/nbgrp/npool/nimage =      10
     Reading input from /storage/home/hcoda1/3/ntian30/research/carbon/CxH_vib/CH_calc/ads_slab/CHN2OH_a/out_0020/pw.inp
Warning: card &CELL ignored
Warning: card   CELL_DYNAMICS='IPI', ignored
Warning: card / ignored

     Current dimensions of program PWSCF are:
     Max number of different atomic species (ntypx) = 10
     Max number of k-points (npk) =  40000
     Max angular momentum in pseudopotentials (lmaxx) =  3
     Presently no symmetry can be used with electric field

     Message from routine cell_base_init:
     DEPRECATED: use true lattice parameter, not A to a.u. conversion factor

     IMPORTANT: XC functional enforced from input :
     Exchange-correlation= BEEF-VDW
                           (   1   4  43  14   2   0   0)
     Any further DFT definition will be discarded
     Please, verify this is what you really want

  @ DRIVER MODE: Connecting to
 qe_1139763_2934093.sched-torque.pace.gatech.edugb77nuqh_scratch
  using UNIX socket
  @ DRIVER MODE: Message from server: STATUS
  @ DRIVER MODE: Message from server: INIT
  @ DRIVER MODE: Receiving replica           0          -1
  @ DRIVER MODE: Receiving encoded integer          25
  @ DRIVER MODE:  SCF:  T  FORCE:  T  STRESS:  F  VC:  F  ENSEMBLE:  F
  @ DRIVER MODE:  SCF:  T  FORCE:  T  STRESS:  F  VC:  F  ENSEMBLE:  F

     Using Slab Decomposition

     bravais-lattice index     =            0
     lattice parameter (alat)  =       1.8897  a.u.
     unit-cell volume          =    6658.9804 (a.u.)^3
     number of atoms/cell      =           53
     number of atomic types    =            5
     number of electrons       =       400.00
     number of Kohn-Sham states=          210
     kinetic-energy cutoff     =      29.3995  Ry
     charge density cutoff     =     293.9946  Ry
     scf convergence threshold =      7.3E-08
     mixing beta               =       0.0500
     number of iterations used =            8  plain     mixing
     Exchange-correlation= BEEF-VDW
                           (   1   4  43  14   2   0   0)

     celldm(1)=   1.889726  celldm(2)=   0.000000  celldm(3)=   0.000000
     celldm(4)=   0.000000  celldm(5)=   0.000000  celldm(6)=   0.000000

     crystal axes: (cart. coord. in units of alat)
               a(1) = (   6.579727   0.000000   0.000000 )
               a(2) = (  -0.000775   5.961596   0.000000 )
               a(3) = (   0.000000   0.000000  25.155947 )

     reciprocal axes: (cart. coord. in units 2 pi/alat)
               b(1) = (  0.151982  0.000020  0.000000 )
               b(2) = (  0.000000  0.167740  0.000000 )
               b(3) = (  0.000000  0.000000  0.039752 )

     PseudoPot. # 1 for Ti read from file:
     /storage/coda1/p-amedford6/0/shared/rich_project_chbe-medford/medford-share/data/pseudos_module/espresso/nninc/pbe/van/Ti.UPF
     MD5 check sum: 8e4df49b7f0d34bbd5052bf3f5ea0213
     Pseudo is Ultrasoft, Zval = 12.0
     Generated by new atomic code, or converted to UPF format
     Using radial grid of  851 points,  6 beta functions with:
                l(1) =   0
                l(2) =   0
                l(3) =   1
                l(4) =   1
                l(5) =   2
                l(6) =   2
     Q(r) pseudized with  8 coefficients,  rinner =    1.000   1.000   1.000
                                                       1.000   1.000

     PseudoPot. # 2 for O  read from file:
     /storage/coda1/p-amedford6/0/shared/rich_project_chbe-medford/medford-share/data/pseudos_module/espresso/nninc/pbe/van/O.UPF
     MD5 check sum: 78c19812648e8988a0fe644b0f25305e
     Pseudo is Ultrasoft, Zval =  6.0
     Generated by new atomic code, or converted to UPF format
     Using radial grid of  737 points,  4 beta functions with:
                l(1) =   0
                l(2) =   0
                l(3) =   1
                l(4) =   1
     Q(r) pseudized with  8 coefficients,  rinner =    0.800   0.800   0.800

     PseudoPot. # 3 for N  read from file:
     /storage/coda1/p-amedford6/0/shared/rich_project_chbe-medford/medford-share/data/pseudos_module/espresso/nninc/pbe/van/N.UPF
     MD5 check sum: 90d10febe142ad51ac9d5be1deb811c4
     Pseudo is Ultrasoft, Zval =  5.0
     Generated by new atomic code, or converted to UPF format
     Using radial grid of  729 points,  4 beta functions with:
                l(1) =   0
                l(2) =   0
                l(3) =   1
                l(4) =   1
     Q(r) pseudized with  8 coefficients,  rinner =    0.800   0.800   0.800

     PseudoPot. # 4 for C  read from file:
     /storage/coda1/p-amedford6/0/shared/rich_project_chbe-medford/medford-share/data/pseudos_module/espresso/nninc/pbe/van/C.UPF
     MD5 check sum: 1a69bf6b8db32088f5b2163dbdb77a27
     Pseudo is Ultrasoft, Zval =  4.0
     Generated by new atomic code, or converted to UPF format
     Using radial grid of  721 points,  4 beta functions with:
                l(1) =   0
                l(2) =   0
                l(3) =   1
                l(4) =   1
     Q(r) pseudized with  8 coefficients,  rinner =    0.800   0.800   0.800

     PseudoPot. # 5 for H  read from file:
     /storage/coda1/p-amedford6/0/shared/rich_project_chbe-medford/medford-share/data/pseudos_module/espresso/nninc/pbe/van/H.UPF
     MD5 check sum: b5ee9d7bfd3a09ee7748110bda690ff7
     Pseudo is Ultrasoft, Zval =  1.0
     Generated by new atomic code, or converted to UPF format
     Using radial grid of  615 points,  1 beta functions with:
                l(1) =   0
     Q(r) pseudized with  8 coefficients,  rinner =    0.800

     atomic species   valence    mass     pseudopotential
        Ti1           12.00    47.86700     Ti( 1.00)
        O1             6.00    15.99900     O ( 1.00)
        N1             5.00    14.00700     N ( 1.00)
        C1             4.00    12.01100     C ( 1.00)
        H1             1.00     1.00800     H ( 1.00)

     No symmetry found

   Cartesian axes

     site n.     atom                  positions (alat units)
         1           Ti1 tau(   1) = (   0.0004258   2.9801865   6.0000000  )
         2           Ti1 tau(   2) = (   3.2906075   1.4906267   6.0002472  )
         3           O1  tau(   3) = (   0.0006271   0.0005054   7.9858123  )
         4           O1  tau(   4) = (   3.2906025   0.0005020   7.3038282  )
         5           O1  tau(   5) = (   4.5942328   1.4918067   9.2879030  )
         6           O1  tau(   6) = (   1.9868534   1.4903216   9.2879459  )
         7           Ti1 tau(   7) = (   3.2907910   2.8959150   9.1758416  )
         8           Ti1 tau(   8) = (   0.0015273   1.4827037   9.2680791  )
         9           O1  tau(   9) = (   3.2947431   5.9554071  11.2675382  )
        10           O1  tau(  10) = (   0.0116148   5.9584955  10.6183126  )
        11           O1  tau(  11) = (   1.2939190   1.5012022  12.6324650  )
        12           O1  tau(  12) = (   5.3075194   1.4952059  12.6199201  )
        13           Ti1 tau(  13) = (   0.0106221   2.8553259  12.7114016  )
        14           Ti1 tau(  14) = (   3.3038960   1.3182849  12.6556579  )
        15           O1  tau(  15) = (   6.5780848   0.0092190  14.6493773  )
        16           O1  tau(  16) = (   3.3025004   0.0387551  13.8658611  )
        17           O1  tau(  17) = (   4.5583283   1.5306594  16.0644060  )
        18           O1  tau(  18) = (   2.0361898   1.5392772  16.0217891  )
        19           Ti1 tau(  19) = (   3.3091865   3.0111069  15.6373089  )
        20           Ti1 tau(  20) = (   0.0377650   1.3505479  16.0707495  )
        21           O1  tau(  21) = (   3.2904802   0.0005063   4.7018136  )
        22           O1  tau(  22) = (   0.0439016   5.9493915  17.1867805  )
        23           O1  tau(  23) = (   1.3043587   1.4918075   6.0039043  )
        24           O1  tau(  24) = (   5.2767064   1.4903225   6.0039473  )
        25           Ti1 tau(  25) = (   0.0000382   5.9609847   6.0000000  )
        26           Ti1 tau(  26) = (   3.2902200   4.4714249   6.0002472  )
        27           O1  tau(  27) = (   0.0002396   2.9813036   7.9858123  )
        28           O1  tau(  28) = (   3.2902150   2.9813002   7.3038282  )
        29           O1  tau(  29) = (   4.5938453   4.4726049   9.2879030  )
        30           O1  tau(  30) = (   1.9864658   4.4711199   9.2879459  )
        31           Ti1 tau(  31) = (   3.2891106   5.8743827   9.1763621  )
        32           Ti1 tau(  32) = (   0.0006254   4.4649316   9.2693709  )
        33           O1  tau(  33) = (   3.2958776   3.0336607  11.2353185  )
        34           O1  tau(  34) = (   0.0092240   2.9805883  10.6323155  )
        35           O1  tau(  35) = (   1.3000586   4.4853303  12.6229424  )
        36           O1  tau(  36) = (   5.2993189   4.4901910  12.6110906  )
        37           Ti1 tau(  37) = (   0.0093010   5.8444503  12.6145921  )
        38           Ti1 tau(  38) = (   3.2999333   4.4129019  12.4053696  )
        39           O1  tau(  39) = (   6.5685983   3.0141634  14.6646344  )
        40           O1  tau(  40) = (   3.3157979   2.9893391  13.8470085  )
        41           O1  tau(  41) = (   4.5469136   4.4558096  16.0384726  )
        42           O1  tau(  42) = (   2.0285042   4.4377151  15.9822253  )
        43           Ti1 tau(  43) = (   3.3362675   0.0317196  16.2890182  )
        44           Ti1 tau(  44) = (   0.0499865   4.4862307  15.8577502  )
        45           O1  tau(  45) = (   3.2900926   2.9813045   4.7018136  )
        46           O1  tau(  46) = (   1.3039711   4.4726057   6.0039043  )
        47           O1  tau(  47) = (   5.2763189   4.4711207   6.0039473  )
        48           N1  tau(  48) = (   0.0045878   3.1533891  18.5964175  )
        49           N1  tau(  49) = (   0.0147781   3.0160983  17.3860304  )
        50           C1  tau(  50) = (   0.1535999   3.3096653  19.7680592  )
        51           H1  tau(  51) = (   6.1293577   3.4501394  20.6313668  )
        52           O1  tau(  52) = (   3.1701150   5.9596689  18.1025665  )
        53           H1  tau(  53) = (   2.2867615   0.0439400  18.5018857  )

     number of k points=    10  Fermi-Dirac smearing, width (Ry)=  0.0073
                       cart. coord. in units 2pi/alat
        k(    1) = (   0.0000000   0.0000000   0.0000000), wk =   0.1250000
        k(    2) = (   0.0000000   0.0419351   0.0000000), wk =   0.2500000
        k(    3) = (   0.0000000  -0.0838702   0.0000000), wk =   0.1250000
        k(    4) = (   0.0379955   0.0000049   0.0000000), wk =   0.2500000
        k(    5) = (   0.0379955   0.0419400   0.0000000), wk =   0.2500000
        k(    6) = (   0.0379955  -0.0838652   0.0000000), wk =   0.2500000
        k(    7) = (   0.0379955  -0.0419301   0.0000000), wk =   0.2500000
        k(    8) = (  -0.0759910  -0.0000099   0.0000000), wk =   0.1250000
        k(    9) = (  -0.0759910   0.0419252   0.0000000), wk =   0.2500000
        k(   10) = (  -0.0759910  -0.0838800   0.0000000), wk =   0.1250000

     Initial potential from superposition of free atoms

     starting charge  383.99917, renormalised to  400.00000

     negative rho (up, down):  1.461E-02 0.000E+00

     %%%%%%%%%%%%%%%%%%%%%%%%%%%%%%%%%%%%%%%%%%%%%%%%%%%%%%%%%%%%%%%%%%%%%%%%
     %                                                                      %
     % You are using vdW-DF, which was implemented by the Thonhauser group. %
     % Please cite the following two papers that made this development      %
     % possible and the two reviews that describe the various versions:     %
     %                                                                      %
     %   T. Thonhauser et al., PRL 115, 136402 (2015).                      %
     %   T. Thonhauser et al., PRB 76, 125112 (2007).                       %
     %   K. Berland et al., Rep. Prog. Phys. 78, 066501 (2015).             %
     %   D.C. Langreth et al., J. Phys.: Condens. Matter 21, 084203 (2009). %
     %                                                                      %
     %                                                                      %
     % If you are calculating the stress with vdW-DF, please also cite:     %
     %                                                                      %
     %   R. Sabatini et al., J. Phys.: Condens. Matter 24, 424209 (2012).   %
     %                                                                      %
     %%%%%%%%%%%%%%%%%%%%%%%%%%%%%%%%%%%%%%%%%%%%%%%%%%%%%%%%%%%%%%%%%%%%%%%%

     Adding external electric field

     Computed dipole along edir(3) :
        Dipole              -10.4151 Ry au,        -26.4725 Debye
        Dipole field         -0.0197 Ry au,

        Potential amp.        1.8220 Ry
        Total length         46.3494 bohr

     Starting wfcs are  302 atomic wfcs
  @ DRIVER MODE: Message from server: STATUS
  @ DRIVER MODE: Message from server: POSDATA
  @ DRIVER MODE: Reading and sharing cell
  @ DRIVER MODE: Reading and sharing positions
  @ DRIVER MODE: Received positions

     Self-consistent Calculation

     iteration #  1     ecut=    29.40 Ry     beta= 0.05
     Davidson diagonalization with overlap
     c_bands:  1 eigenvalues not converged
     c_bands:  1 eigenvalues not converged
     c_bands:  1 eigenvalues not converged
     c_bands:  1 eigenvalues not converged
     c_bands:  3 eigenvalues not converged
     c_bands:  2 eigenvalues not converged
     c_bands:  3 eigenvalues not converged
     c_bands:  2 eigenvalues not converged
     c_bands:  4 eigenvalues not converged
     c_bands:  2 eigenvalues not converged
     ethr =  1.00E-05,  avg # of iterations = 20.0

[...]

     total energy              =   -2482.26664306 Ry
     estimated scf accuracy    <    5430.56357989 Ry

     iteration #  2     ecut=    29.40 Ry     beta= 0.05
     Davidson diagonalization with overlap
     ethr =  1.00E-02,  avg # of iterations = 22.8

[...]

     iteration # 45     ecut=    29.40 Ry     beta= 0.05
     Davidson diagonalization with overlap
     c_bands:  1 eigenvalues not converged
     ethr =  6.33E-07,  avg # of iterations =  8.3

[...]

     total energy              =   -2970.22396644 Ry
     estimated scf accuracy    <       0.00000027 Ry

     iteration # 69     ecut=    29.40 Ry     beta= 0.05
     Davidson diagonalization with overlap
     ethr =  2.30E-11,  avg # of iterations =  5.6

     negative rho (up, down):  1.523E-02 0.000E+00

     Adding external electric field

     Computed dipole along edir(3) :
        Dipole                0.3123 Ry au,          0.7937 Debye
        Dipole field          0.0006 Ry au,

        Potential amp.       -0.0546 Ry
        Total length         46.3494 bohr

     End of self-consistent calculation

          k = 0.0000 0.0000 0.0000 ( 18029 PWs)   bands (ev):

   -56.8398 -56.8063 -55.9997 -55.9645 -55.7405 -55.6761 -55.4095 -55.3855
   -55.3756 -55.3708 -55.3055 -55.2529 -55.2520 -55.2418 -55.0602 -55.0540
   -33.2614 -33.1153 -33.0872 -33.0155 -32.9251 -32.8881 -32.4841 -32.2204
   -32.2185 -32.1897 -32.1407 -32.1387 -32.1099 -31.9721 -31.9600 -31.9077
   -31.8811 -31.8662 -31.8404 -31.7908 -31.7556 -31.7404 -31.7337 -31.7312
   -31.7184 -31.6538 -31.6488 -31.6196 -31.6145 -31.6055 -31.5963 -31.5339
   -31.5222 -31.5044 -31.5017 -31.4773 -31.4740 -31.4569 -31.4438 -31.4222
   -31.4165 -31.3963 -31.3206 -31.3047 -31.3034 -31.2725 -31.2693 -31.2586
   -19.0031 -16.9611 -16.4373 -16.1846 -16.1677 -16.0753 -16.0453 -16.0339
   -15.9539 -15.7588 -15.6973 -15.6256 -15.6047 -15.5098 -15.3847 -15.2882
   -15.1595 -15.0843 -15.0204 -15.0108 -15.0011 -14.9808 -14.8669 -14.8634
   -14.8585 -14.8158 -14.7695 -14.6112 -14.5242 -14.3637 -14.3292 -13.9070
   -13.7995 -13.6288  -6.3269  -5.0522  -4.5306  -3.9466  -3.9100  -3.8437
    -3.7366  -3.5802  -3.5660  -3.4377  -3.3703  -3.2473  -3.2362  -3.2203
    -3.1538  -3.1344  -2.9875  -2.9392  -2.9236  -2.8192  -2.7883  -2.6348
    -2.6090  -2.5140  -2.4651  -2.4308  -2.3745  -2.3486  -2.2735  -2.2665
    -2.2479  -2.1603  -2.1597  -2.1279  -2.0476  -2.0365  -1.9673  -1.9198
    -1.8804  -1.8221  -1.7972  -1.7228  -1.7193  -1.5986  -1.5160  -1.4748
    -1.4312  -1.4220  -1.3619  -1.3072  -1.1969  -1.1706  -1.0806  -1.0357
    -1.0230  -0.9728  -0.8843  -0.8562  -0.7872  -0.7145  -0.6959  -0.6111
    -0.5823  -0.5581  -0.4519  -0.4333  -0.3781  -0.3523  -0.3214  -0.3101
    -0.2319  -0.1154  -0.1007  -0.0365   0.0132   0.0418   0.1339   0.2264
     0.2731   0.3236   0.3527   0.3713   0.4473   0.4749   0.4972   0.5490
     0.5783   0.6122   0.6168   0.7211   0.7520   0.8155   0.8734   0.8940
     1.0025   1.0397   1.0986   1.1492   1.1902   1.5322   1.6328   1.8808
     2.4476   2.6142   2.8902   3.0225   3.3469   3.4343   3.4425   3.4484
     3.6856   3.8225

[...]

          k = 0.0380-0.0419 0.0000 ( 17876 PWs)   bands (ev):

[...]

          k =-0.0760-0.0000 0.0000 ( 17886 PWs)   bands (ev):

[...]

          k =-0.0760-0.0839 0.0000 ( 17948 PWs)   bands (ev):

   -56.8236 -56.8224 -55.9873 -55.9767 -55.7356 -55.6809 -55.3931 -55.3919
   -55.3815 -55.3693 -55.3092 -55.2515 -55.2504 -55.2433 -55.0615 -55.0553
   -33.1015 -33.1004 -33.0791 -33.0778 -32.9693 -32.9685 -32.3087 -32.3002
   -32.1823 -32.1703 -32.1675 -32.1605 -32.0428 -31.9991 -31.9655 -31.9563
   -31.9086 -31.9034 -31.7446 -31.7438 -31.7129 -31.6608 -31.6583 -31.6496
   -31.6422 -31.6285 -31.6139 -31.6123 -31.6086 -31.6002 -31.5866 -31.5755
   -31.5747 -31.5738 -31.5450 -31.5200 -31.5053 -31.4930 -31.4597 -31.4513
   -31.4478 -31.4416 -31.4089 -31.3782 -31.3253 -31.2937 -31.2732 -31.2612
   -19.0006 -16.3273 -16.3247 -16.2693 -16.2677 -16.1649 -16.0281 -16.0225
   -15.7750 -15.7452 -15.5502 -15.5097 -15.4605 -15.4069 -15.3691 -15.3664
   -15.2283 -15.2166 -15.1130 -15.0341 -15.0128 -14.9800 -14.9688 -14.9471
   -14.9415 -14.8703 -14.7851 -14.7232 -14.7087 -14.5417 -14.4627 -13.9041
   -13.9034 -13.6333  -6.3257  -5.0201  -3.9482  -3.7696  -3.6044  -3.3925
    -3.3900  -3.3850  -3.3773  -3.1482  -3.1377  -2.9643  -2.9577  -2.9320
    -2.8709  -2.8593  -2.7528  -2.6846  -2.6790  -2.6697  -2.6450  -2.6187
    -2.6131  -2.5496  -2.4934  -2.3856  -2.3623  -2.3273  -2.3071  -2.2929
    -2.1736  -2.1469  -2.1357  -2.1066  -2.0912  -2.0791  -2.0423  -2.0177
    -1.8644  -1.8258  -1.7170  -1.7026  -1.6820  -1.6387  -1.6217  -1.6003
    -1.5743  -1.5397  -1.5353  -1.4485  -1.4250  -1.3682  -1.2855  -1.2076
    -1.1594  -1.1468  -1.0853  -1.0338  -0.9236  -0.8991  -0.8637  -0.8441
    -0.8154  -0.7571  -0.7273  -0.6219  -0.5361  -0.5055  -0.4841  -0.4789
    -0.4443  -0.4110  -0.3885  -0.2741  -0.2621  -0.2466  -0.1479  -0.0531
     0.0302   0.0907   0.1064   0.1845   0.2805   0.3251   0.3902   0.4532
     0.4959   0.5110   0.6838   0.7324   0.8554   0.8800   0.9120   0.9741
     0.9886   0.9931   1.0151   1.0238   1.0533   1.1320   1.5523   1.7962
     3.0348   3.0377   3.0939   3.1001   3.4037   3.4071   3.5124   3.5151
     3.7969   3.8084

     the Fermi energy is     2.2239 ev

!    total energy              =   -2970.22399540 Ry
     estimated scf accuracy    <       0.00000007 Ry
     smearing contrib. (-TS)   =      -0.00328386 Ry
     internal energy E=F+TS    =   -2970.22071154 Ry

     The total energy is F=E-TS. E is the sum of the following terms:
     one-electron contribution =  -23874.99079915 Ry
     hartree contribution      =   12028.69280168 Ry
     xc contribution           =    -491.46318843 Ry
     ewald contribution        =    9367.54029032 Ry
     electric field correction =       0.00018403 Ry

     convergence has been achieved in  69 iterations

     Forces acting on atoms (cartesian axes, Ry/au):

     atom    1 type  1   force =     0.00006029   -0.00042006    0.12338638
     atom    2 type  1   force =    -0.00004254    0.00024909   -0.15539297
     atom    3 type  2   force =     0.00000926   -0.00007143   -0.06314239
     atom    4 type  2   force =     0.00000928    0.00024099    0.01793331
     atom    5 type  2   force =    -0.00300232   -0.00167665   -0.01288211
     atom    6 type  2   force =     0.00468381   -0.00105567   -0.01335500
     atom    7 type  1   force =    -0.00007215   -0.00671043    0.05747388
     atom    8 type  1   force =     0.00033163    0.01201982    0.09288176
     atom    9 type  2   force =    -0.00005432   -0.00007457   -0.00010930
     atom   10 type  2   force =    -0.00146645    0.00206202   -0.05861023
     atom   11 type  2   force =    -0.00001920    0.00037454   -0.00010532
     atom   12 type  2   force =    -0.00007582    0.00059505   -0.00004307
     atom   13 type  1   force =    -0.00017889    0.00092257   -0.00023330
     atom   14 type  1   force =    -0.00007242    0.00064229   -0.00045093
     atom   15 type  2   force =     0.00001227   -0.00066480   -0.00052058
     atom   16 type  2   force =    -0.00013300    0.00007774   -0.00106924
     atom   17 type  2   force =    -0.00009521   -0.00053752   -0.00031583
     atom   18 type  2   force =    -0.00003435    0.00039467   -0.00043167
     atom   19 type  1   force =     0.00039537   -0.00024161    0.00112749
     atom   20 type  1   force =    -0.00040482    0.00078939    0.00031119
     atom   21 type  2   force =     0.00003368    0.00021383    0.09798683
     atom   22 type  2   force =     0.00042995   -0.00011697    0.00089439
     atom   23 type  2   force =    -0.08220192    0.00004184   -0.03275329
     atom   24 type  2   force =     0.08208516    0.00048131   -0.03282673
     atom   25 type  1   force =     0.00009324   -0.00060001    0.12340166
     atom   26 type  1   force =    -0.00015733   -0.00150529   -0.15595535
     atom   27 type  2   force =     0.00006973   -0.00069181   -0.06136300
     atom   28 type  2   force =     0.00002005    0.00205823    0.01319785
     atom   29 type  2   force =    -0.00128566    0.00547030   -0.01605617
     atom   30 type  2   force =     0.00295507    0.00580239   -0.01650356
     atom   31 type  1   force =    -0.00011189    0.00211350    0.04130978
     atom   32 type  1   force =     0.00053066   -0.01544975    0.09256639
     atom   33 type  2   force =    -0.00021087   -0.00073658   -0.00056240
     atom   34 type  2   force =    -0.00141041    0.00202976   -0.07247531
     atom   35 type  2   force =     0.00019461   -0.00080978    0.00005117
     atom   36 type  2   force =    -0.00023620   -0.00092085    0.00010050
     atom   37 type  1   force =    -0.00023248   -0.00112674   -0.00029847
     atom   38 type  1   force =    -0.00008069   -0.00149116    0.00068509
     atom   39 type  2   force =     0.00035851   -0.00048300    0.00005208
     atom   40 type  2   force =    -0.00003558   -0.00068130   -0.00127506
     atom   41 type  2   force =     0.00028337    0.00026807    0.00013107
     atom   42 type  2   force =     0.00001306    0.00036447    0.00062581
     atom   43 type  1   force =    -0.00012660   -0.00002715    0.00072823
     atom   44 type  1   force =    -0.00027311    0.00012593   -0.00077152
     atom   45 type  2   force =     0.00002588    0.00002511    0.09775412
     atom   46 type  2   force =    -0.08227000   -0.00001068   -0.03278603
     atom   47 type  2   force =     0.08212328    0.00043834   -0.03280071
     atom   48 type  3   force =    -0.00019993   -0.00030009    0.00176745
     atom   49 type  3   force =     0.00023633    0.00049669    0.00032348
     atom   50 type  4   force =     0.00562449   -0.00102554   -0.00910120
     atom   51 type  5   force =    -0.00586979    0.00050591    0.00749352
     atom   52 type  2   force =    -0.00041210   -0.00042123   -0.00008742
     atom   53 type  5   force =     0.00018710   -0.00095319    0.00009471

     Total force =     0.412548     Total SCF correction =     0.000761
  @ DRIVER MODE: Message from server: STATUS
  @ DRIVER MODE: Message from server: GETFORCE
  @ DRIVER MODE: Returning v,forces,stress,ensemble

     Writing output data file ./calc.save/
  @ DRIVER MODE: Message from server: EXIT
  @ DRIVE MODE: Exiting

     General routines

     Parallel routines

   This run was terminated on:  17:38:44  22Sep2021

   JOB DONE.