     Program PWSCF v.6.7GPU starts on 24Aug2021 at 17:43:42

     R & G space division:  proc/nbgrp/npool/nimage =       6
     Reading input from /storage/home/hcoda1/3/ntian30/research/carbon/CH3_vib_end_on/ads_slab/CH3N_a/out_0003/pw.inp
Warning: card &CELL ignored
Warning: card   CELL_DYNAMICS='IPI', ignored
Warning: card / ignored

     Current dimensions of program PWSCF are:
     Max number of different atomic species (ntypx) = 10
     Max number of k-points (npk) =  40000
     Max angular momentum in pseudopotentials (lmaxx) =  3
     Presently no symmetry can be used with electric field

     Message from routine cell_base_init:
     DEPRECATED: use true lattice parameter, not A to a.u. conversion factor

     IMPORTANT: XC functional enforced from input :
     Exchange-correlation= BEEF-VDW
                           (   1   4  43  14   2   0   0)
     Any further DFT definition will be discarded
     Please, verify this is what you really want

  @ DRIVER MODE: Connecting to
 qe_1139763_2643872.sched-torque.pace.gatech.edut9_9hsai_scratch
  using UNIX socket
  @ DRIVER MODE: Message from server: STATUS
  @ DRIVER MODE: Message from server: INIT
  @ DRIVER MODE: Receiving replica           0          -1
  @ DRIVER MODE: Receiving encoded integer          25
  @ DRIVER MODE:  SCF:  T  FORCE:  T  STRESS:  F  VC:  F  ENSEMBLE:  F
  @ DRIVER MODE:  SCF:  T  FORCE:  T  STRESS:  F  VC:  F  ENSEMBLE:  F

     Using Slab Decomposition

     bravais-lattice index     =            0
     lattice parameter (alat)  =       1.8897  a.u.
     unit-cell volume          =    6658.9804 (a.u.)^3
     number of atoms/cell      =           52
     number of atomic types    =            5
     number of electrons       =       390.00
     number of Kohn-Sham states=          205
     kinetic-energy cutoff     =      29.3995  Ry
     charge density cutoff     =     293.9946  Ry
     scf convergence threshold =      7.3E-08
     mixing beta               =       0.0500
     number of iterations used =            8  plain     mixing
     Exchange-correlation= BEEF-VDW
                           (   1   4  43  14   2   0   0)

     celldm(1)=   1.889726  celldm(2)=   0.000000  celldm(3)=   0.000000
     celldm(4)=   0.000000  celldm(5)=   0.000000  celldm(6)=   0.000000

     crystal axes: (cart. coord. in units of alat)
               a(1) = (   6.579727   0.000000   0.000000 )
               a(2) = (  -0.000775   5.961596   0.000000 )
               a(3) = (   0.000000   0.000000  25.155947 )

     reciprocal axes: (cart. coord. in units 2 pi/alat)
               b(1) = (  0.151982  0.000020  0.000000 )
               b(2) = (  0.000000  0.167740  0.000000 )
               b(3) = (  0.000000  0.000000  0.039752 )

     PseudoPot. # 1 for Ti read from file:
     /storage/coda1/p-amedford6/0/shared/rich_project_chbe-medford/medford-share/data/pseudos_module/espresso/nninc/pbe/van/Ti.UPF
     MD5 check sum: 8e4df49b7f0d34bbd5052bf3f5ea0213
     Pseudo is Ultrasoft, Zval = 12.0
     Generated by new atomic code, or converted to UPF format
     Using radial grid of  851 points,  6 beta functions with:
                l(1) =   0
                l(2) =   0
                l(3) =   1
                l(4) =   1
                l(5) =   2
                l(6) =   2
     Q(r) pseudized with  8 coefficients,  rinner =    1.000   1.000   1.000
                                                       1.000   1.000

     PseudoPot. # 2 for O  read from file:
     /storage/coda1/p-amedford6/0/shared/rich_project_chbe-medford/medford-share/data/pseudos_module/espresso/nninc/pbe/van/O.UPF
     MD5 check sum: 78c19812648e8988a0fe644b0f25305e
     Pseudo is Ultrasoft, Zval =  6.0
     Generated by new atomic code, or converted to UPF format
     Using radial grid of  737 points,  4 beta functions with:
                l(1) =   0
                l(2) =   0
                l(3) =   1
                l(4) =   1
     Q(r) pseudized with  8 coefficients,  rinner =    0.800   0.800   0.800

     PseudoPot. # 3 for N  read from file:
     /storage/coda1/p-amedford6/0/shared/rich_project_chbe-medford/medford-share/data/pseudos_module/espresso/nninc/pbe/van/N.UPF
     MD5 check sum: 90d10febe142ad51ac9d5be1deb811c4
     Pseudo is Ultrasoft, Zval =  5.0
     Generated by new atomic code, or converted to UPF format
     Using radial grid of  729 points,  4 beta functions with:
                l(1) =   0
                l(2) =   0
                l(3) =   1
                l(4) =   1
     Q(r) pseudized with  8 coefficients,  rinner =    0.800   0.800   0.800

     PseudoPot. # 4 for C  read from file:
     /storage/coda1/p-amedford6/0/shared/rich_project_chbe-medford/medford-share/data/pseudos_module/espresso/nninc/pbe/van/C.UPF
     MD5 check sum: 1a69bf6b8db32088f5b2163dbdb77a27
     Pseudo is Ultrasoft, Zval =  4.0
     Generated by new atomic code, or converted to UPF format
     Using radial grid of  721 points,  4 beta functions with:
                l(1) =   0
                l(2) =   0
                l(3) =   1
                l(4) =   1
     Q(r) pseudized with  8 coefficients,  rinner =    0.800   0.800   0.800

     PseudoPot. # 5 for H  read from file:
     /storage/coda1/p-amedford6/0/shared/rich_project_chbe-medford/medford-share/data/pseudos_module/espresso/nninc/pbe/van/H.UPF
     MD5 check sum: b5ee9d7bfd3a09ee7748110bda690ff7
     Pseudo is Ultrasoft, Zval =  1.0
     Generated by new atomic code, or converted to UPF format
     Using radial grid of  615 points,  1 beta functions with:
                l(1) =   0
     Q(r) pseudized with  8 coefficients,  rinner =    0.800

     atomic species   valence    mass     pseudopotential
        Ti1           12.00    47.86700     Ti( 1.00)
        O1             6.00    15.99900     O ( 1.00)
        N1             5.00    14.00700     N ( 1.00)
        C1             4.00    12.01100     C ( 1.00)
        H1             1.00     1.00800     H ( 1.00)

     No symmetry found

   Cartesian axes

     site n.     atom                  positions (alat units)
         1           Ti1 tau(   1) = (   0.0004258   2.9801865   6.0000000  )
         2           Ti1 tau(   2) = (   3.2906075   1.4906267   6.0002472  )
         3           O1  tau(   3) = (   0.0006271   0.0005054   7.9858123  )
         4           O1  tau(   4) = (   3.2906025   0.0005020   7.3038282  )
         5           O1  tau(   5) = (   4.5942328   1.4918067   9.2879030  )
         6           O1  tau(   6) = (   1.9868534   1.4903216   9.2879459  )
         7           Ti1 tau(   7) = (   3.2907910   2.8959150   9.1758416  )
         8           Ti1 tau(   8) = (   0.0015273   1.4827037   9.2680791  )
         9           O1  tau(   9) = (   3.3018735   5.9614316  11.2970789  )
        10           O1  tau(  10) = (   0.0116148   5.9584955  10.6183126  )
        11           O1  tau(  11) = (   1.3353665   1.4968727  12.6140821  )
        12           O1  tau(  12) = (   5.3123320   1.5002621  12.6324210  )
        13           Ti1 tau(  13) = (   6.4913169   2.9877414  12.7576577  )
        14           Ti1 tau(  14) = (   3.1819880   1.4874128  12.4666476  )
        15           O1  tau(  15) = (   0.0325390   5.9514364  14.5942808  )
        16           O1  tau(  16) = (   3.3157460   0.0104736  13.8786857  )
        17           O1  tau(  17) = (   4.5538541   1.5308062  16.0536203  )
        18           O1  tau(  18) = (   2.1012647   1.5271178  16.0466835  )
        19           Ti1 tau(  19) = (   3.3239613   3.0121693  15.6870930  )
        20           Ti1 tau(  20) = (   0.0188375   1.6096557  16.0875739  )
        21           O1  tau(  21) = (   3.2904802   0.0005063   4.7018136  )
        22           O1  tau(  22) = (   0.0443345   0.0604659  17.2041813  )
        23           O1  tau(  23) = (   1.3043587   1.4918075   6.0039043  )
        24           O1  tau(  24) = (   5.2767064   1.4903225   6.0039473  )
        25           Ti1 tau(  25) = (   0.0000382   5.9609847   6.0000000  )
        26           Ti1 tau(  26) = (   3.2902200   4.4714249   6.0002472  )
        27           O1  tau(  27) = (   0.0002396   2.9813036   7.9858123  )
        28           O1  tau(  28) = (   3.2902150   2.9813002   7.3038282  )
        29           O1  tau(  29) = (   4.5938453   4.4726049   9.2879030  )
        30           O1  tau(  30) = (   1.9864658   4.4711199   9.2879459  )
        31           Ti1 tau(  31) = (   3.2891106   5.8743827   9.1763621  )
        32           Ti1 tau(  32) = (   0.0006254   4.4649316   9.2693709  )
        33           O1  tau(  33) = (   3.3028429   2.9834257  11.2952420  )
        34           O1  tau(  34) = (   0.0092240   2.9805883  10.6323155  )
        35           O1  tau(  35) = (   1.3370139   4.4664586  12.6123119  )
        36           O1  tau(  36) = (   5.3107101   4.4655690  12.6333123  )
        37           Ti1 tau(  37) = (   6.5188704   0.0058144  12.7695920  )
        38           Ti1 tau(  38) = (   3.1805296   4.4670443  12.4671176  )
        39           O1  tau(  39) = (   0.0099197   2.9765079  14.6559069  )
        40           O1  tau(  40) = (   3.3143426   2.9928857  13.8797190  )
        41           O1  tau(  41) = (   4.5573730   4.5089470  16.0521860  )
        42           O1  tau(  42) = (   2.1018054   4.5121927  16.0508938  )
        43           Ti1 tau(  43) = (   3.3145791   0.0316975  15.6896801  )
        44           Ti1 tau(  44) = (   0.0207397   4.5876961  16.1385408  )
        45           O1  tau(  45) = (   3.2900926   2.9813045   4.7018136  )
        46           O1  tau(  46) = (   1.3039711   4.4726057   6.0039043  )
        47           O1  tau(  47) = (   5.2763189   4.4711207   6.0039473  )
        48           N1  tau(  48) = (   0.0936308   3.0133000  17.3257847  )
        49           C1  tau(  49) = (   0.4281149   3.0137428  18.7308649  )
        50           H1  tau(  50) = (   0.7292188   4.0033843  19.0862330  )
        51           H1  tau(  51) = (   6.1445545   2.6862439  19.3232575  )
        52           H1  tau(  52) = (   1.2401080   2.3040860  18.9332505  )

     number of k points=    10  Fermi-Dirac smearing, width (Ry)=  0.0073
                       cart. coord. in units 2pi/alat
        k(    1) = (   0.0000000   0.0000000   0.0000000), wk =   0.1250000
        k(    2) = (   0.0000000   0.0419351   0.0000000), wk =   0.2500000
        k(    3) = (   0.0000000  -0.0838702   0.0000000), wk =   0.1250000
        k(    4) = (   0.0379955   0.0000049   0.0000000), wk =   0.2500000
        k(    5) = (   0.0379955   0.0419400   0.0000000), wk =   0.2500000
        k(    6) = (   0.0379955  -0.0838652   0.0000000), wk =   0.2500000
        k(    7) = (   0.0379955  -0.0419301   0.0000000), wk =   0.2500000
        k(    8) = (  -0.0759910  -0.0000099   0.0000000), wk =   0.1250000
        k(    9) = (  -0.0759910   0.0419252   0.0000000), wk =   0.2500000
        k(   10) = (  -0.0759910  -0.0838800   0.0000000), wk =   0.1250000

     Initial potential from superposition of free atoms

     starting charge  373.99917, renormalised to  390.00000

     negative rho (up, down):  1.729E-02 0.000E+00

     %%%%%%%%%%%%%%%%%%%%%%%%%%%%%%%%%%%%%%%%%%%%%%%%%%%%%%%%%%%%%%%%%%%%%%%%
     %                                                                      %
     % You are using vdW-DF, which was implemented by the Thonhauser group. %
     % Please cite the following two papers that made this development      %
     % possible and the two reviews that describe the various versions:     %
     %                                                                      %
     %   T. Thonhauser et al., PRL 115, 136402 (2015).                      %
     %   T. Thonhauser et al., PRB 76, 125112 (2007).                       %
     %   K. Berland et al., Rep. Prog. Phys. 78, 066501 (2015).             %
     %   D.C. Langreth et al., J. Phys.: Condens. Matter 21, 084203 (2009). %
     %                                                                      %
     %                                                                      %
     % If you are calculating the stress with vdW-DF, please also cite:     %
     %                                                                      %
     %   R. Sabatini et al., J. Phys.: Condens. Matter 24, 424209 (2012).   %
     %                                                                      %
     %%%%%%%%%%%%%%%%%%%%%%%%%%%%%%%%%%%%%%%%%%%%%%%%%%%%%%%%%%%%%%%%%%%%%%%%

     Adding external electric field

     Computed dipole along edir(3) :
        Dipole               -4.6272 Ry au,        -11.7612 Debye
        Dipole field         -0.0087 Ry au,

        Potential amp.        0.8095 Ry
        Total length         46.3494 bohr

     Starting wfcs are  295 atomic wfcs
  @ DRIVER MODE: Message from server: STATUS
  @ DRIVER MODE: Message from server: POSDATA
  @ DRIVER MODE: Reading and sharing cell
  @ DRIVER MODE: Reading and sharing positions
  @ DRIVER MODE: Received positions

     Self-consistent Calculation

     iteration #  1     ecut=    29.40 Ry     beta= 0.05
     Davidson diagonalization with overlap
     c_bands:  4 eigenvalues not converged
     c_bands:  2 eigenvalues not converged
     c_bands:  2 eigenvalues not converged
     c_bands:  4 eigenvalues not converged
     c_bands:  4 eigenvalues not converged
     c_bands:  2 eigenvalues not converged
     c_bands:  2 eigenvalues not converged
     c_bands:  2 eigenvalues not converged
     ethr =  1.00E-05,  avg # of iterations = 19.7

[...]

     total energy              =   -2877.54559137 Ry
     estimated scf accuracy    <     479.92282131 Ry

     iteration #  2     ecut=    29.40 Ry     beta= 0.05
     Davidson diagonalization with overlap
     ethr =  1.00E-02,  avg # of iterations = 13.6

[...]

     iteration # 35     ecut=    29.40 Ry     beta= 0.05
     Davidson diagonalization with overlap
     c_bands:  1 eigenvalues not converged
     ethr =  1.13E-06,  avg # of iterations = 10.0

[...]

     total energy              =   -2919.13183552 Ry
     estimated scf accuracy    <       0.00000016 Ry

     iteration # 65     ecut=    29.40 Ry     beta= 0.05
     Davidson diagonalization with overlap
     ethr =  4.02E-11,  avg # of iterations =  2.2

     negative rho (up, down):  1.787E-02 0.000E+00

     Adding external electric field

     Computed dipole along edir(3) :
        Dipole                0.2608 Ry au,          0.6629 Debye
        Dipole field          0.0005 Ry au,

        Potential amp.       -0.0456 Ry
        Total length         46.3494 bohr

     End of self-consistent calculation

          k = 0.0000 0.0000 0.0000 ( 18029 PWs)   bands (ev):

   -56.8882 -56.8545 -56.0098 -55.9980 -55.9748 -55.9652 -55.8621 -55.8233
   -55.6453 -55.6100 -55.5522 -55.5471 -55.5183 -55.4397 -54.9806 -54.9015
   -33.3161 -33.1629 -33.1348 -33.0642 -32.9732 -32.9421 -32.4807 -32.4744
   -32.4027 -32.2940 -32.2474 -32.2235 -32.2051 -32.1838 -32.1503 -32.1459
   -32.1412 -32.1389 -32.1133 -32.1096 -32.0993 -32.0691 -32.0428 -32.0289
   -32.0159 -31.9963 -31.9890 -31.9655 -31.9445 -31.8907 -31.8766 -31.8666
   -31.7888 -31.7840 -31.7632 -31.7219 -31.7119 -31.6797 -31.6687 -31.6442
   -31.6247 -31.5688 -31.4964 -31.2289 -31.2076 -31.1564 -31.1219 -31.0209
   -17.0522 -16.6164 -16.3857 -16.2506 -16.1830 -16.1288 -16.0847 -15.9592
   -15.8871 -15.8827 -15.8426 -15.8092 -15.7388 -15.6010 -15.5024 -15.4444
   -15.4007 -15.2816 -15.2237 -15.1891 -15.1830 -15.1433 -15.1285 -14.9325
   -14.9067 -14.8185 -14.7977 -14.6720 -14.4383 -14.0508 -13.9407 -13.0833
    -7.8125  -4.6178  -4.1129  -3.8713  -3.7888  -3.6802  -3.6681  -3.5862
    -3.4689  -3.4217  -3.3753  -3.2593  -3.2552  -3.1094  -3.1063  -3.0638
    -3.0609  -3.0247  -2.9638  -2.9415  -2.9044  -2.8932  -2.8851  -2.7327
    -2.6327  -2.5648  -2.5386  -2.5252  -2.4953  -2.4225  -2.3929  -2.3844
    -2.3806  -2.2738  -2.1305  -2.1270  -2.0959  -2.0538  -2.0524  -2.0125
    -1.9995  -1.8760  -1.7851  -1.6786  -1.6665  -1.6290  -1.5679  -1.5614
    -1.4692  -1.3889  -1.3153  -1.3011  -1.1918  -1.1476  -1.1238  -1.0336
    -0.9723  -0.9354  -0.9120  -0.8960  -0.7925  -0.7775  -0.7691  -0.6757
    -0.6634  -0.6205  -0.5272  -0.5041  -0.4987  -0.4164  -0.4094  -0.3033
    -0.2761  -0.2311  -0.1984  -0.0931  -0.0727   0.0250   0.0622   0.0811
     0.2014   0.2208   0.2807   0.3534   0.4179   0.4347   0.4694   0.5007
     0.5167   0.5961   0.7072   0.7137   0.8183   0.8517   1.0220   1.0609
     1.3435   1.3537   2.0447   2.3865   2.5462   2.8446   3.0340   3.1473
     3.3615   3.3769   3.3822   3.5550   3.6065

[...]

          k = 0.0380-0.0419 0.0000 ( 17876 PWs)   bands (ev):

[...]

          k =-0.0760-0.0000 0.0000 ( 17886 PWs)   bands (ev):

[...]

          k =-0.0760-0.0839 0.0000 ( 17948 PWs)   bands (ev):

   -56.8714 -56.8711 -55.9947 -55.9888 -55.9824 -55.9817 -55.8506 -55.8346
   -55.6305 -55.6247 -55.5442 -55.5352 -55.5351 -55.4425 -54.9764 -54.9055
   -33.1487 -33.1485 -33.1330 -33.1328 -33.0173 -33.0170 -32.3106 -32.3082
   -32.2989 -32.2923 -32.2390 -32.2357 -32.1969 -32.1933 -32.1922 -32.1875
   -32.1842 -32.1813 -32.1791 -32.1775 -32.1010 -32.0883 -32.0498 -32.0374
   -31.9810 -31.9726 -31.9127 -31.9070 -31.8797 -31.8795 -31.8725 -31.8291
   -31.8275 -31.7978 -31.7616 -31.7608 -31.7606 -31.7217 -31.7216 -31.7176
   -31.6851 -31.6460 -31.3685 -31.2721 -31.2062 -31.1768 -31.1277 -31.0901
   -16.4009 -16.3988 -16.3661 -16.3658 -16.0968 -16.0933 -16.0466 -16.0432
   -15.8715 -15.8644 -15.6600 -15.6510 -15.6438 -15.6409 -15.5133 -15.5074
   -15.4433 -15.4297 -15.3423 -15.3374 -15.2761 -15.2699 -15.2306 -15.2118
   -14.8998 -14.8849 -14.7711 -14.7475 -14.5831 -14.0442 -14.0442 -13.0998
    -7.8033  -3.4994  -3.4986  -3.4350  -3.4340  -3.3089  -3.3032  -3.2307
    -3.2299  -3.1278  -3.1241  -3.0825  -2.9961  -2.9850  -2.9820  -2.9714
    -2.9606  -2.8295  -2.8280  -2.8166  -2.8010  -2.7451  -2.7429  -2.7287
    -2.6525  -2.6376  -2.6038  -2.5656  -2.4565  -2.4431  -2.4295  -2.3981
    -2.3433  -2.3292  -2.3160  -2.2742  -2.2498  -2.1625  -2.1065  -2.0562
    -1.9392  -1.9362  -1.9272  -1.9116  -1.7605  -1.7199  -1.6911  -1.6846
    -1.6758  -1.6318  -1.5345  -1.5277  -1.3928  -1.3923  -1.3121  -1.2327
    -1.2157  -1.1859  -1.0558  -1.0151  -0.9785  -0.9708  -0.9427  -0.9232
    -0.8995  -0.8622  -0.7209  -0.7088  -0.6703  -0.6354  -0.6297  -0.5747
    -0.5179  -0.4378  -0.3617  -0.3605  -0.3084  -0.2324  -0.1725  -0.0908
    -0.0780  -0.0730   0.2070   0.2860   0.3784   0.4559   0.5235   0.5785
     0.6118   0.6765   0.7158   0.8481   0.8524   0.8701   0.8704   0.9334
     0.9345   1.3346   1.9341   2.9596   2.9599   3.0268   3.0272   3.3508
     3.3566   3.4648   3.4743   3.5861   3.5885

     the Fermi energy is     2.2251 ev

!    total energy              =   -2919.13185749 Ry
     estimated scf accuracy    <       0.00000006 Ry
     smearing contrib. (-TS)   =      -0.00480129 Ry
     internal energy E=F+TS    =   -2919.12705620 Ry

     The total energy is F=E-TS. E is the sum of the following terms:
     one-electron contribution =  -24569.42018942 Ry
     hartree contribution      =   12368.94401097 Ry
     xc contribution           =    -479.90071129 Ry
     ewald contribution        =    9761.24970519 Ry
     electric field correction =       0.00012835 Ry

     convergence has been achieved in  65 iterations

     Forces acting on atoms (cartesian axes, Ry/au):

     atom    1 type  1   force =     0.00004522   -0.00050143    0.12429488
     atom    2 type  1   force =    -0.00009155   -0.00054928   -0.16063448
     atom    3 type  2   force =     0.00022275   -0.00023960   -0.06813260
     atom    4 type  2   force =    -0.00000115   -0.00032062    0.02756514
     atom    5 type  2   force =    -0.01620682    0.00174429   -0.00937334
     atom    6 type  2   force =     0.01826269    0.00228085   -0.00892622
     atom    7 type  1   force =     0.00112890   -0.00381688    0.02208230
     atom    8 type  1   force =    -0.00062271   -0.00323219    0.11126299
     atom    9 type  2   force =    -0.00010311    0.00139669   -0.00039775
     atom   10 type  2   force =    -0.00190683    0.00177824   -0.07346204
     atom   11 type  2   force =     0.00081303    0.00002236    0.00005375
     atom   12 type  2   force =    -0.00067600    0.00013049    0.00013909
     atom   13 type  1   force =     0.00007862    0.00023012   -0.00010733
     atom   14 type  1   force =    -0.00099867   -0.00023547   -0.00045372
     atom   15 type  2   force =    -0.00000132   -0.00149324    0.00058325
     atom   16 type  2   force =    -0.00005840    0.00103075    0.00072133
     atom   17 type  2   force =    -0.00061622   -0.00002006   -0.00070000
     atom   18 type  2   force =     0.00068293    0.00002785   -0.00029028
     atom   19 type  1   force =     0.00014687   -0.00080129   -0.00073256
     atom   20 type  1   force =     0.00013645   -0.00178789   -0.00164069
     atom   21 type  2   force =     0.00004130   -0.00006553    0.09973021
     atom   22 type  2   force =     0.00014574   -0.00269100   -0.00012536
     atom   23 type  2   force =    -0.07920132   -0.00005394   -0.03243318
     atom   24 type  2   force =     0.07907030    0.00038125   -0.03245825
     atom   25 type  1   force =     0.00004486   -0.00049657    0.12373374
     atom   26 type  1   force =    -0.00009672   -0.00050564   -0.16064986
     atom   27 type  2   force =     0.00032564   -0.00048306   -0.06718943
     atom   28 type  2   force =     0.00002759   -0.00014104    0.02725743
     atom   29 type  2   force =    -0.01660615    0.00134447   -0.00957635
     atom   30 type  2   force =     0.01855126    0.00165234   -0.00914364
     atom   31 type  1   force =     0.00110888   -0.00129920    0.02163532
     atom   32 type  1   force =    -0.00052318    0.00067656    0.11192147
     atom   33 type  2   force =    -0.00033687   -0.00116231    0.00010438
     atom   34 type  2   force =    -0.00156140    0.00135796   -0.07247491
     atom   35 type  2   force =    -0.00177669   -0.00016780    0.00025066
     atom   36 type  2   force =     0.00066940   -0.00034764   -0.00006383
     atom   37 type  1   force =     0.00068654   -0.00034844    0.00058239
     atom   38 type  1   force =    -0.00015641    0.00051528    0.00024456
     atom   39 type  2   force =     0.00019329    0.00019215   -0.00079022
     atom   40 type  2   force =     0.00010674   -0.00013228    0.00029314
     atom   41 type  2   force =     0.00066418    0.00034136    0.00014229
     atom   42 type  2   force =    -0.00037918    0.00038464    0.00025265
     atom   43 type  1   force =     0.00039327    0.00095465   -0.00038395
     atom   44 type  1   force =    -0.00006698   -0.00010354    0.00062717
     atom   45 type  2   force =     0.00002408   -0.00007003    0.09974542
     atom   46 type  2   force =    -0.07921028   -0.00000541   -0.03243464
     atom   47 type  2   force =     0.07908160    0.00042471   -0.03245757
     atom   48 type  3   force =     0.00002556    0.00486014    0.00045069
     atom   49 type  4   force =    -0.00059004   -0.00181855    0.00083245
     atom   50 type  5   force =    -0.00088398    0.00026325   -0.00077432
     atom   51 type  5   force =     0.00030116    0.00026459    0.00049316
     atom   52 type  5   force =    -0.00030689    0.00063492    0.00080662

     Total force =     0.424713     Total SCF correction =     0.000564
  @ DRIVER MODE: Message from server: STATUS
  @ DRIVER MODE: Message from server: GETFORCE
  @ DRIVER MODE: Returning v,forces,stress,ensemble

     Writing output data file ./calc.save/
  @ DRIVER MODE: Message from server: EXIT
  @ DRIVE MODE: Exiting

     General routines

     Parallel routines

   This run was terminated on:  18: 8:53  24Aug2021

   JOB DONE.