     Program PWSCF v.6.7GPU starts on 18Oct2021 at 14:59:15

     R & G space division:  proc/nbgrp/npool/nimage =       8
     Reading input from /storage/home/hcoda1/3/ntian30/research/carbon/CxH_vib/Thiel_calc/ads_slab/NH2NH2_perslab/out_0008/pw.inp
Warning: card &CELL ignored
Warning: card   CELL_DYNAMICS='IPI', ignored
Warning: card / ignored

     Current dimensions of program PWSCF are:
     Max number of different atomic species (ntypx) = 10
     Max number of k-points (npk) =  40000
     Max angular momentum in pseudopotentials (lmaxx) =  3
     Presently no symmetry can be used with electric field

     Message from routine cell_base_init:
     DEPRECATED: use true lattice parameter, not A to a.u. conversion factor

     IMPORTANT: XC functional enforced from input :
     Exchange-correlation= BEEF-VDW
                           (   1   4  43  14   2   0   0)
     Any further DFT definition will be discarded
     Please, verify this is what you really want

  @ DRIVER MODE: Connecting to
 qe_1139763_3255136.sched-torque.pace.gatech.edu4n1ceqsp_scratch
  using UNIX socket
  @ DRIVER MODE: Message from server: STATUS
  @ DRIVER MODE: Message from server: INIT
  @ DRIVER MODE: Receiving replica           0          -1
  @ DRIVER MODE: Receiving encoded integer          25
  @ DRIVER MODE:  SCF:  T  FORCE:  T  STRESS:  F  VC:  F  ENSEMBLE:  F
  @ DRIVER MODE:  SCF:  T  FORCE:  T  STRESS:  F  VC:  F  ENSEMBLE:  F

     Using Slab Decomposition

     bravais-lattice index     =            0
     lattice parameter (alat)  =       1.8897  a.u.
     unit-cell volume          =    9988.4706 (a.u.)^3
     number of atoms/cell      =           59
     number of atomic types    =            4
     number of electrons       =       440.00
     number of Kohn-Sham states=          230
     kinetic-energy cutoff     =      29.3995  Ry
     charge density cutoff     =     293.9946  Ry
     scf convergence threshold =      7.3E-08
     mixing beta               =       0.0500
     number of iterations used =            8  plain     mixing
     Exchange-correlation= BEEF-VDW
                           (   1   4  43  14   2   0   0)

     celldm(1)=   1.889726  celldm(2)=   0.000000  celldm(3)=   0.000000
     celldm(4)=   0.000000  celldm(5)=   0.000000  celldm(6)=   0.000000

     crystal axes: (cart. coord. in units of alat)
               a(1) = (   6.579727   0.000000   0.000000 )
               a(2) = (  -0.001163   8.942395   0.000000 )
               a(3) = (   0.000000   0.000000  25.155947 )

     reciprocal axes: (cart. coord. in units 2 pi/alat)
               b(1) = (  0.151982  0.000020  0.000000 )
               b(2) = (  0.000000  0.111827  0.000000 )
               b(3) = (  0.000000  0.000000  0.039752 )

     PseudoPot. # 1 for O  read from file:
     /storage/coda1/p-amedford6/0/shared/rich_project_chbe-medford/medford-share/data/pseudos_module/espresso/nninc/pbe/van/O.UPF
     MD5 check sum: 78c19812648e8988a0fe644b0f25305e
     Pseudo is Ultrasoft, Zval =  6.0
     Generated by new atomic code, or converted to UPF format
     Using radial grid of  737 points,  4 beta functions with:
                l(1) =   0
                l(2) =   0
                l(3) =   1
                l(4) =   1
     Q(r) pseudized with  8 coefficients,  rinner =    0.800   0.800   0.800

     PseudoPot. # 2 for Ti read from file:
     /storage/coda1/p-amedford6/0/shared/rich_project_chbe-medford/medford-share/data/pseudos_module/espresso/nninc/pbe/van/Ti.UPF
     MD5 check sum: 8e4df49b7f0d34bbd5052bf3f5ea0213
     Pseudo is Ultrasoft, Zval = 12.0
     Generated by new atomic code, or converted to UPF format
     Using radial grid of  851 points,  6 beta functions with:
                l(1) =   0
                l(2) =   0
                l(3) =   1
                l(4) =   1
                l(5) =   2
                l(6) =   2
     Q(r) pseudized with  8 coefficients,  rinner =    1.000   1.000   1.000
                                                       1.000   1.000

     PseudoPot. # 3 for N  read from file:
     /storage/coda1/p-amedford6/0/shared/rich_project_chbe-medford/medford-share/data/pseudos_module/espresso/nninc/pbe/van/N.UPF
     MD5 check sum: 90d10febe142ad51ac9d5be1deb811c4
     Pseudo is Ultrasoft, Zval =  5.0
     Generated by new atomic code, or converted to UPF format
     Using radial grid of  729 points,  4 beta functions with:
                l(1) =   0
                l(2) =   0
                l(3) =   1
                l(4) =   1
     Q(r) pseudized with  8 coefficients,  rinner =    0.800   0.800   0.800

     PseudoPot. # 4 for H  read from file:
     /storage/coda1/p-amedford6/0/shared/rich_project_chbe-medford/medford-share/data/pseudos_module/espresso/nninc/pbe/van/H.UPF
     MD5 check sum: b5ee9d7bfd3a09ee7748110bda690ff7
     Pseudo is Ultrasoft, Zval =  1.0
     Generated by new atomic code, or converted to UPF format
     Using radial grid of  615 points,  1 beta functions with:
                l(1) =   0
     Q(r) pseudized with  8 coefficients,  rinner =    0.800

     atomic species   valence    mass     pseudopotential
        O1             6.00    15.99900     O ( 1.00)
        Ti1           12.00    47.86700     Ti( 1.00)
        N1             5.00    14.00700     N ( 1.00)
        H1             1.00     1.00800     H ( 1.00)

     No symmetry found

   Cartesian axes

     site n.     atom                  positions (alat units)
         1           O1  tau(   1) = (   0.0007354   0.0005023  10.5931620  )
         2           O1  tau(   2) = (   3.2892726   8.9022636  13.7900476  )
         3           O1  tau(   3) = (  -0.0000012   0.0159539  17.0845323  )
         4           O1  tau(   4) = (   0.0006271   0.0005054   7.9858123  )
         5           O1  tau(   5) = (   3.2903981   0.0001071  11.1466942  )
         6           O1  tau(   6) = (   6.5796972   0.0370899  14.4522764  )
         7           O1  tau(   7) = (   1.9868534   1.4903216   9.2879459  )
         8           O1  tau(   8) = (   5.2071659   1.5879261  12.5336177  )
         9           O1  tau(   9) = (   2.0150580   1.5800225  15.9505780  )
        10           Ti1 tau(  10) = (   0.0007404   1.4906270   9.2895810  )
        11           Ti1 tau(  11) = (   3.2907621   1.2831726  12.4565622  )
        12           Ti1 tau(  12) = (   6.5792216   1.1939559  15.8009323  )
        13           O1  tau(  13) = (   4.5942328   1.4918067   9.2879030  )
        14           O1  tau(  14) = (   1.3733293   1.5875306  12.5337771  )
        15           O1  tau(  15) = (   4.5635363   1.5794237  15.9511286  )
        16           Ti1 tau(  16) = (   3.2902859   2.9801868   9.2893338  )
        17           Ti1 tau(  17) = (   0.0006963   2.7899128  12.4910476  )
        18           Ti1 tau(  18) = (   3.2889055   2.8853182  15.6510148  )
        19           O1  tau(  19) = (   0.0003479   2.9813005  10.5931620  )
        20           O1  tau(  20) = (   3.2901137   2.9323735  13.8075185  )
        21           O1  tau(  21) = (   0.0002396   2.9813036   7.9858123  )
        22           O1  tau(  22) = (   3.2901566   2.9796509  11.1657827  )
        23           O1  tau(  23) = (  -0.0001005   3.0518452  14.6148139  )
        24           O1  tau(  24) = (   1.9864658   4.4711199   9.2879459  )
        25           O1  tau(  25) = (   5.2244327   4.5330399  12.5550231  )
        26           O1  tau(  26) = (   2.0317078   4.4891842  16.0144209  )
        27           Ti1 tau(  27) = (   0.0003529   4.4714252   9.2895810  )
        28           Ti1 tau(  28) = (   3.2908221   4.3047718  12.5439168  )
        29           Ti1 tau(  29) = (   0.0007318   4.2809743  15.9563396  )
        30           O1  tau(  30) = (   4.5938453   4.4726049   9.2879030  )
        31           O1  tau(  31) = (   1.3553747   4.5324408  12.5551093  )
        32           O1  tau(  32) = (   4.5484712   4.4888783  16.0159471  )
        33           Ti1 tau(  33) = (   3.2898983   5.9609850   9.2893338  )
        34           Ti1 tau(  34) = (   0.0004637   5.7541984  12.5654138  )
        35           Ti1 tau(  35) = (   3.2913524   5.8154114  16.2798070  )
        36           O1  tau(  36) = (  -0.0000397   5.9620987  10.5931620  )
        37           O1  tau(  37) = (   3.2897947   5.8994426  13.7907643  )
        38           O1  tau(  38) = (   0.0001798   5.9238570  17.1594641  )
        39           O1  tau(  39) = (  -0.0001480   5.9621018   7.9858123  )
        40           O1  tau(  40) = (   3.2896433   5.9245955  11.1661191  )
        41           O1  tau(  41) = (   0.0000838   5.9808129  14.5563373  )
        42           O1  tau(  42) = (   1.9860782   7.4519181   9.2879459  )
        43           O1  tau(  43) = (   5.2244350   7.5051086  12.5363475  )
        44           O1  tau(  44) = (   2.0177701   7.5673364  15.9764862  )
        45           Ti1 tau(  45) = (  -0.0000347   7.4522234   9.2895810  )
        46           Ti1 tau(  46) = (   3.2896674   7.1828241  12.5854878  )
        47           Ti1 tau(  47) = (   0.0003403   7.2137487  16.0183084  )
        48           O1  tau(  48) = (   4.5934577   7.4534031   9.2879030  )
        49           O1  tau(  49) = (   1.3543201   7.5047529  12.5365769  )
        50           O1  tau(  50) = (   4.5609347   7.5656990  15.9757490  )
        51           Ti1 tau(  51) = (   3.2895107   8.9417832   9.2893338  )
        52           Ti1 tau(  52) = (  -0.0005834   8.7067995  12.4790564  )
        53           Ti1 tau(  53) = (   3.2900135   8.8028796  15.6464995  )
        54           N1  tau(  54) = (   3.2900669   5.9334594  18.1702238  )
        55           H1  tau(  55) = (   3.3000466   5.1481598  18.8081281  )
        56           H1  tau(  56) = (   3.2872703   6.8047138  18.6863891  )
        57           N1  tau(  57) = (   0.0002662   3.1405291  17.5522950  )
        58           H1  tau(  58) = (   0.0007553   2.2326612  18.0099153  )
        59           H1  tau(  59) = (   6.5771877   3.8386968  18.2941669  )

     number of k points=    10  Fermi-Dirac smearing, width (Ry)=  0.0073
                       cart. coord. in units 2pi/alat
        k(    1) = (   0.0000000   0.0000000   0.0000000), wk =   0.1250000
        k(    2) = (   0.0000000   0.0279567   0.0000000), wk =   0.2500000
        k(    3) = (   0.0000000  -0.0559134   0.0000000), wk =   0.1250000
        k(    4) = (   0.0379955   0.0000049   0.0000000), wk =   0.2500000
        k(    5) = (   0.0379955   0.0279617   0.0000000), wk =   0.2500000
        k(    6) = (   0.0379955  -0.0559085   0.0000000), wk =   0.2500000
        k(    7) = (   0.0379955  -0.0279518   0.0000000), wk =   0.2500000
        k(    8) = (  -0.0759910  -0.0000099   0.0000000), wk =   0.1250000
        k(    9) = (  -0.0759910   0.0279468   0.0000000), wk =   0.2500000
        k(   10) = (  -0.0759910  -0.0559233   0.0000000), wk =   0.1250000

     Initial potential from superposition of free atoms

     starting charge  421.99910, renormalised to  440.00000

     negative rho (up, down):  3.741E-02 0.000E+00

     %%%%%%%%%%%%%%%%%%%%%%%%%%%%%%%%%%%%%%%%%%%%%%%%%%%%%%%%%%%%%%%%%%%%%%%%
     %                                                                      %
     % You are using vdW-DF, which was implemented by the Thonhauser group. %
     % Please cite the following two papers that made this development      %
     % possible and the two reviews that describe the various versions:     %
     %                                                                      %
     %   T. Thonhauser et al., PRL 115, 136402 (2015).                      %
     %   T. Thonhauser et al., PRB 76, 125112 (2007).                       %
     %   K. Berland et al., Rep. Prog. Phys. 78, 066501 (2015).             %
     %   D.C. Langreth et al., J. Phys.: Condens. Matter 21, 084203 (2009). %
     %                                                                      %
     %                                                                      %
     % If you are calculating the stress with vdW-DF, please also cite:     %
     %                                                                      %
     %   R. Sabatini et al., J. Phys.: Condens. Matter 24, 424209 (2012).   %
     %                                                                      %
     %%%%%%%%%%%%%%%%%%%%%%%%%%%%%%%%%%%%%%%%%%%%%%%%%%%%%%%%%%%%%%%%%%%%%%%%

     Adding external electric field

     Computed dipole along edir(3) :
        Dipole               -3.9767 Ry au,        -10.1078 Debye
        Dipole field         -0.0050 Ry au,

        Potential amp.        0.4638 Ry
        Total length         46.3494 bohr

     Starting wfcs are  332 atomic wfcs
  @ DRIVER MODE: Message from server: STATUS
  @ DRIVER MODE: Message from server: POSDATA
  @ DRIVER MODE: Reading and sharing cell
  @ DRIVER MODE: Reading and sharing positions
  @ DRIVER MODE: Received positions

     Self-consistent Calculation

     iteration #  1     ecut=    29.40 Ry     beta= 0.05
     Davidson diagonalization with overlap
     c_bands:  1 eigenvalues not converged
     c_bands:  2 eigenvalues not converged
     c_bands:  3 eigenvalues not converged
     c_bands:  4 eigenvalues not converged
     c_bands:  1 eigenvalues not converged
     c_bands:  3 eigenvalues not converged
     c_bands:  4 eigenvalues not converged
     c_bands:  3 eigenvalues not converged
     c_bands:  3 eigenvalues not converged
     ethr =  1.00E-05,  avg # of iterations = 19.2

[...]

     total energy              =   -3293.79832139 Ry
     estimated scf accuracy    <      28.14713040 Ry

     iteration #  2     ecut=    29.40 Ry     beta= 0.05
     Davidson diagonalization with overlap
     ethr =  6.40E-03,  avg # of iterations =  1.0

[...]

     iteration # 35     ecut=    29.40 Ry     beta= 0.05
     Davidson diagonalization with overlap
     c_bands:  1 eigenvalues not converged
     ethr =  2.38E-08,  avg # of iterations =  3.8

[...]

     total energy              =   -3293.29557522 Ry
     estimated scf accuracy    <       0.00000031 Ry

     iteration # 51     ecut=    29.40 Ry     beta= 0.05
     Davidson diagonalization with overlap
     ethr =  6.30E-11,  avg # of iterations =  6.0

     negative rho (up, down):  3.610E-02 0.000E+00

     Adding external electric field

     Computed dipole along edir(3) :
        Dipole                0.9507 Ry au,          2.4164 Debye
        Dipole field          0.0012 Ry au,

        Potential amp.       -0.1109 Ry
        Total length         46.3494 bohr

     End of self-consistent calculation

          k = 0.0000 0.0000 0.0000 ( 26871 PWs)   bands (ev):

   -58.4701 -58.4466 -58.4407 -58.4027 -58.3579 -58.0054 -57.9663 -57.9632
   -57.8791 -57.7593 -57.6862 -57.5727 -57.4755 -57.2237 -57.1425 -57.0730
   -57.0328 -57.0199 -34.8706 -34.8352 -34.8081 -34.7917 -34.7883 -34.7818
   -34.7330 -34.6725 -34.6456 -34.5947 -34.5822 -34.5797 -34.5739 -34.5520
   -34.5070 -34.4070 -34.3713 -34.3459 -34.3224 -34.3180 -34.2737 -34.2407
   -34.2286 -34.2242 -34.1894 -34.1867 -34.1539 -34.0568 -34.0454 -33.9869
   -33.9832 -33.9543 -33.8986 -33.8831 -33.8638 -33.8047 -33.7409 -33.7265
   -33.6850 -33.6723 -33.5821 -33.4613 -33.4480 -33.4173 -33.4153 -33.3807
   -33.3749 -33.3705 -33.3550 -33.3452 -33.2769 -33.2124 -33.1913 -33.0713
   -19.0220 -18.5590 -18.5000 -18.3506 -18.3016 -18.2813 -18.2752 -18.1244
   -17.9078 -17.8625 -17.8482 -17.8269 -17.7437 -17.7239 -17.7081 -17.6860
   -17.6711 -17.6502 -17.5614 -17.5557 -17.5350 -17.5102 -17.4906 -17.4359
   -17.3765 -17.3546 -17.2666 -17.1918 -17.1516 -16.9286 -16.6713 -16.5918
   -15.5385 -15.4973 -15.4889 -15.2743 -15.1456  -6.7508  -6.5934  -6.3569
    -6.1628  -5.9504  -5.8142  -5.6966  -5.6434  -5.5622  -5.4962  -5.4585
    -5.4564  -5.3957  -5.3490  -5.2550  -5.2488  -5.1568  -5.1072  -5.0908
    -5.0616  -5.0127  -4.9667  -4.9209  -4.9057  -4.8445  -4.8007  -4.7906
    -4.7409  -4.6792  -4.6755  -4.6550  -4.6529  -4.6189  -4.5848  -4.4637
    -4.4603  -4.4154  -4.3521  -4.3006  -4.2635  -4.2230  -4.1899  -4.1893
    -4.1726  -4.1282  -4.0934  -3.9214  -3.8681  -3.8301  -3.7979  -3.7194
    -3.6520  -3.5949  -3.5595  -3.5167  -3.4281  -3.3591  -3.3515  -3.3428
    -3.2763  -3.2331  -3.1955  -3.1642  -3.1457  -3.0826  -3.0299  -3.0295
    -2.9881  -2.9719  -2.9577  -2.9118  -2.8573  -2.8335  -2.8312  -2.7920
    -2.7852  -2.7429  -2.6453  -2.6161  -2.5555  -2.5172  -2.4626  -2.4146
    -2.4083  -2.3736  -2.3364  -2.2681  -2.1759  -2.1257  -1.9948  -1.9898
    -1.9123  -1.9021  -1.8355  -1.8071  -1.7909  -1.7437  -1.7165  -1.6023
    -1.5266  -1.4078  -1.1943  -0.9903  -0.8440  -0.7652  -0.7506  -0.7067
    -0.5677  -0.5486  -0.4627  -0.4518   0.8059   0.9415   1.1013   1.1191
     1.3190   1.4479   1.4661   1.5085   1.5652   1.7165

[...]

          k = 0.0380-0.0280 0.0000 ( 26873 PWs)   bands (ev):

[...]

          k =-0.0760-0.0000 0.0000 ( 26902 PWs)   bands (ev):

[...]

          k =-0.0760-0.0559 0.0000 ( 26868 PWs)   bands (ev):

   -58.4642 -58.4581 -58.4349 -58.4025 -58.3580 -58.0053 -57.9664 -57.9631
   -57.8790 -57.7596 -57.6860 -57.5726 -57.4754 -57.2238 -57.1424 -57.0717
   -57.0368 -57.0172 -34.8986 -34.8831 -34.8389 -34.8105 -34.7791 -34.6884
   -34.6718 -34.6237 -34.6172 -34.6050 -34.6027 -34.5913 -34.5768 -34.5554
   -34.5540 -34.4352 -34.3792 -34.3591 -34.3446 -34.3243 -34.2561 -34.2228
   -34.2191 -34.1889 -34.1803 -34.1641 -34.1177 -34.0646 -34.0568 -34.0304
   -33.9907 -33.9746 -33.9034 -33.8975 -33.8762 -33.7897 -33.7408 -33.7046
   -33.6831 -33.6581 -33.5701 -33.4812 -33.4522 -33.4507 -33.4190 -33.4163
   -33.3859 -33.3673 -33.3654 -33.2687 -33.2339 -33.1830 -33.1811 -33.1522
   -18.8088 -18.6604 -18.4148 -18.3162 -18.1531 -18.1058 -18.0528 -18.0425
   -18.0367 -17.9409 -17.9237 -17.8790 -17.8724 -17.8228 -17.7980 -17.7862
   -17.7794 -17.7476 -17.6803 -17.6241 -17.5388 -17.4466 -17.4342 -17.4185
   -17.4117 -17.3323 -17.2341 -17.1885 -17.1514 -16.9515 -16.6809 -16.5538
   -15.5503 -15.5371 -15.4276 -15.2694 -15.1464  -6.7466  -6.6044  -6.1207
    -5.9257  -5.8940  -5.8531  -5.5355  -5.4927  -5.3881  -5.3590  -5.3554
    -5.3283  -5.2840  -5.2457  -5.1905  -5.1553  -5.1374  -5.1290  -5.1111
    -5.0843  -5.0364  -5.0113  -4.9690  -4.9637  -4.9486  -4.9185  -4.8954
    -4.8463  -4.8372  -4.7658  -4.7563  -4.7222  -4.5277  -4.4737  -4.4117
    -4.3625  -4.2963  -4.2469  -4.1894  -4.1889  -4.1068  -4.1020  -4.0380
    -3.9780  -3.8913  -3.8110  -3.8034  -3.7805  -3.7526  -3.7197  -3.6870
    -3.6637  -3.6434  -3.6041  -3.5561  -3.5184  -3.4449  -3.4122  -3.4061
    -3.3651  -3.3461  -3.3348  -3.3307  -3.3142  -3.2103  -3.2032  -3.1432
    -3.1093  -3.1037  -3.0336  -3.0274  -2.9762  -2.9504  -2.8812  -2.8442
    -2.8342  -2.7455  -2.7382  -2.7344  -2.6526  -2.6432  -2.5432  -2.5099
    -2.4253  -2.3004  -2.1803  -2.1786  -2.1691  -2.0476  -2.0458  -2.0339
    -1.9898  -1.9271  -1.9023  -1.7196  -1.7162  -1.6711  -1.6007  -1.5794
    -1.5553  -1.5405  -1.4242  -1.4025  -0.9978  -0.7161  -0.6826  -0.6775
    -0.6437  -0.6150  -0.5819  -0.5731   0.8575   1.0182   1.0960   1.1616
     1.1871   1.2308   1.2627   1.4371   1.4996   1.5063

     the Fermi energy is     0.2185 ev

!    total energy              =   -3293.29567225 Ry
     estimated scf accuracy    <       0.00000006 Ry
     smearing contrib. (-TS)   =      -0.00052647 Ry
     internal energy E=F+TS    =   -3293.29514578 Ry

     The total energy is F=E-TS. E is the sum of the following terms:
     one-electron contribution =  -34586.26461926 Ry
     hartree contribution      =   17354.97123550 Ry
     xc contribution           =    -542.07675398 Ry
     ewald contribution        =   14480.07385492 Ry
     electric field correction =       0.00113704 Ry

     convergence has been achieved in  51 iterations

     Forces acting on atoms (cartesian axes, Ry/au):

     atom    1 type  1   force =    -0.00000696    0.00891680    0.04220059
     atom    2 type  1   force =     0.00001957   -0.00248189   -0.00299236
     atom    3 type  1   force =    -0.00002881   -0.00629511   -0.00115895
     atom    4 type  1   force =     0.00004718    0.00395284    0.10165731
     atom    5 type  1   force =     0.00002086   -0.00059960    0.00717901
     atom    6 type  1   force =    -0.00002015    0.00084765    0.00283560
     atom    7 type  1   force =     0.07635381    0.00119710   -0.03510018
     atom    8 type  1   force =     0.00753061   -0.02413183    0.00123882
     atom    9 type  1   force =     0.00789601   -0.02072706    0.00176997
     atom   10 type  2   force =    -0.00003488   -0.00384517   -0.16974815
     atom   11 type  2   force =    -0.00011379    0.02223755   -0.00322697
     atom   12 type  2   force =    -0.00000380    0.02019987   -0.00566327
     atom   13 type  1   force =    -0.07644678    0.00074411   -0.03505031
     atom   14 type  1   force =    -0.00761021   -0.02400639    0.00123425
     atom   15 type  1   force =    -0.00782716   -0.02082074    0.00178293
     atom   16 type  2   force =     0.00010319    0.00207328    0.07522042
     atom   17 type  2   force =     0.00020979    0.02912381    0.00188195
     atom   18 type  2   force =    -0.00022068    0.02414078    0.00017443
     atom   19 type  1   force =     0.00000434    0.00222669    0.05609277
     atom   20 type  1   force =     0.00001176   -0.00075446   -0.00272029
     atom   21 type  1   force =     0.00004784   -0.00273756    0.10229164
     atom   22 type  1   force =     0.00000963   -0.00166712    0.00633814
     atom   23 type  1   force =    -0.00003265   -0.00392505    0.00176620
     atom   24 type  1   force =     0.07834533   -0.00055852   -0.03678009
     atom   25 type  1   force =     0.00978022   -0.02949478   -0.00096335
     atom   26 type  1   force =     0.01092434   -0.02700743   -0.00669521
     atom   27 type  2   force =    -0.00005890    0.01458753   -0.15614087
     atom   28 type  2   force =    -0.00014082    0.02622738   -0.00047202
     atom   29 type  2   force =     0.00020665    0.02325354    0.00312903
     atom   30 type  1   force =    -0.07844028   -0.00098708   -0.03672958
     atom   31 type  1   force =    -0.00984419   -0.02934934   -0.00096788
     atom   32 type  1   force =    -0.01101386   -0.02676675   -0.00651774
     atom   33 type  2   force =     0.00010047   -0.00383322    0.07802276
     atom   34 type  2   force =     0.00019815    0.03435655    0.00329459
     atom   35 type  2   force =    -0.00007772    0.03155332    0.00678032
     atom   36 type  1   force =     0.00001942    0.00148773    0.05145737
     atom   37 type  1   force =     0.00003127   -0.00165405   -0.00239510
     atom   38 type  1   force =    -0.00005314   -0.00345613    0.00004369
     atom   39 type  1   force =     0.00004911    0.00037388    0.09991431
     atom   40 type  1   force =     0.00001671   -0.00069676    0.00653002
     atom   41 type  1   force =    -0.00003293   -0.00091309    0.00422469
     atom   42 type  1   force =     0.07942645    0.00172537   -0.03466953
     atom   43 type  1   force =     0.00605986   -0.02325410    0.00044788
     atom   44 type  1   force =     0.00713299   -0.02156552    0.00394997
     atom   45 type  2   force =    -0.00005333   -0.01583564   -0.15542567
     atom   46 type  2   force =    -0.00010799    0.01697256    0.00085773
     atom   47 type  2   force =    -0.00001240    0.02051762   -0.00087265
     atom   48 type  1   force =    -0.07951782    0.00128624   -0.03461553
     atom   49 type  1   force =    -0.00617272   -0.02314078    0.00043957
     atom   50 type  1   force =    -0.00697364   -0.02143861    0.00381998
     atom   51 type  2   force =     0.00008242   -0.00446997    0.06173361
     atom   52 type  2   force =     0.00019917    0.02907815    0.00062396
     atom   53 type  2   force =    -0.00006131    0.02937017    0.00015894
     atom   54 type  3   force =     0.00020434    0.00155905   -0.00117843
     atom   55 type  4   force =     0.00000478   -0.00038698    0.00019005
     atom   56 type  4   force =    -0.00013060   -0.00008055   -0.00008789
     atom   57 type  3   force =    -0.00006778   -0.00119475    0.00119409
     atom   58 type  4   force =     0.00006324    0.00185585   -0.00060148
     atom   59 type  4   force =     0.00000581   -0.00178937    0.00029692

     Total force =     0.439074     Total SCF correction =     0.000979
  @ DRIVER MODE: Message from server: STATUS
  @ DRIVER MODE: Message from server: GETFORCE
  @ DRIVER MODE: Returning v,forces,stress,ensemble

     Writing output data file ./calc.save/
  @ DRIVER MODE: Message from server: EXIT
  @ DRIVE MODE: Exiting

     General routines

     Parallel routines

   This run was terminated on:  15:24:53  18Oct2021

   JOB DONE.