     Program PWSCF v.6.7GPU starts on 24Sep2021 at  0:20:24

     R & G space division:  proc/nbgrp/npool/nimage =       8
     Reading input from /storage/home/hcoda1/3/ntian30/research/carbon/CxH_vib/H2O_calc/ads_slab/CH3NHNH2HO_a/out_0029/pw.inp
Warning: card &CELL ignored
Warning: card   CELL_DYNAMICS='IPI', ignored
Warning: card / ignored

     Current dimensions of program PWSCF are:
     Max number of different atomic species (ntypx) = 10
     Max number of k-points (npk) =  40000
     Max angular momentum in pseudopotentials (lmaxx) =  3
     Presently no symmetry can be used with electric field

     Message from routine cell_base_init:
     DEPRECATED: use true lattice parameter, not A to a.u. conversion factor

     IMPORTANT: XC functional enforced from input :
     Exchange-correlation= BEEF-VDW
                           (   1   4  43  14   2   0   0)
     Any further DFT definition will be discarded
     Please, verify this is what you really want

  @ DRIVER MODE: Connecting to
 qe_1139763_2947307.sched-torque.pace.gatech.edul7jgox0q_scratch
  using UNIX socket
  @ DRIVER MODE: Message from server: STATUS
  @ DRIVER MODE: Message from server: INIT
  @ DRIVER MODE: Receiving replica           0          -1
  @ DRIVER MODE: Receiving encoded integer          25
  @ DRIVER MODE:  SCF:  T  FORCE:  T  STRESS:  F  VC:  F  ENSEMBLE:  F
  @ DRIVER MODE:  SCF:  T  FORCE:  T  STRESS:  F  VC:  F  ENSEMBLE:  F

     Using Slab Decomposition

     bravais-lattice index     =            0
     lattice parameter (alat)  =       1.8897  a.u.
     unit-cell volume          =    6658.9804 (a.u.)^3
     number of atoms/cell      =           58
     number of atomic types    =            5
     number of electrons       =       405.00
     number of Kohn-Sham states=          212
     kinetic-energy cutoff     =      29.3995  Ry
     charge density cutoff     =     293.9946  Ry
     scf convergence threshold =      7.3E-08
     mixing beta               =       0.0500
     number of iterations used =            8  plain     mixing
     Exchange-correlation= BEEF-VDW
                           (   1   4  43  14   2   0   0)

     celldm(1)=   1.889726  celldm(2)=   0.000000  celldm(3)=   0.000000
     celldm(4)=   0.000000  celldm(5)=   0.000000  celldm(6)=   0.000000

     crystal axes: (cart. coord. in units of alat)
               a(1) = (   6.579727   0.000000   0.000000 )
               a(2) = (  -0.000775   5.961596   0.000000 )
               a(3) = (   0.000000   0.000000  25.155947 )

     reciprocal axes: (cart. coord. in units 2 pi/alat)
               b(1) = (  0.151982  0.000020  0.000000 )
               b(2) = (  0.000000  0.167740  0.000000 )
               b(3) = (  0.000000  0.000000  0.039752 )

     PseudoPot. # 1 for Ti read from file:
     /storage/coda1/p-amedford6/0/shared/rich_project_chbe-medford/medford-share/data/pseudos_module/espresso/nninc/pbe/van/Ti.UPF
     MD5 check sum: 8e4df49b7f0d34bbd5052bf3f5ea0213
     Pseudo is Ultrasoft, Zval = 12.0
     Generated by new atomic code, or converted to UPF format
     Using radial grid of  851 points,  6 beta functions with:
                l(1) =   0
                l(2) =   0
                l(3) =   1
                l(4) =   1
                l(5) =   2
                l(6) =   2
     Q(r) pseudized with  8 coefficients,  rinner =    1.000   1.000   1.000
                                                       1.000   1.000

     PseudoPot. # 2 for O  read from file:
     /storage/coda1/p-amedford6/0/shared/rich_project_chbe-medford/medford-share/data/pseudos_module/espresso/nninc/pbe/van/O.UPF
     MD5 check sum: 78c19812648e8988a0fe644b0f25305e
     Pseudo is Ultrasoft, Zval =  6.0
     Generated by new atomic code, or converted to UPF format
     Using radial grid of  737 points,  4 beta functions with:
                l(1) =   0
                l(2) =   0
                l(3) =   1
                l(4) =   1
     Q(r) pseudized with  8 coefficients,  rinner =    0.800   0.800   0.800

     PseudoPot. # 3 for N  read from file:
     /storage/coda1/p-amedford6/0/shared/rich_project_chbe-medford/medford-share/data/pseudos_module/espresso/nninc/pbe/van/N.UPF
     MD5 check sum: 90d10febe142ad51ac9d5be1deb811c4
     Pseudo is Ultrasoft, Zval =  5.0
     Generated by new atomic code, or converted to UPF format
     Using radial grid of  729 points,  4 beta functions with:
                l(1) =   0
                l(2) =   0
                l(3) =   1
                l(4) =   1
     Q(r) pseudized with  8 coefficients,  rinner =    0.800   0.800   0.800

     PseudoPot. # 4 for C  read from file:
     /storage/coda1/p-amedford6/0/shared/rich_project_chbe-medford/medford-share/data/pseudos_module/espresso/nninc/pbe/van/C.UPF
     MD5 check sum: 1a69bf6b8db32088f5b2163dbdb77a27
     Pseudo is Ultrasoft, Zval =  4.0
     Generated by new atomic code, or converted to UPF format
     Using radial grid of  721 points,  4 beta functions with:
                l(1) =   0
                l(2) =   0
                l(3) =   1
                l(4) =   1
     Q(r) pseudized with  8 coefficients,  rinner =    0.800   0.800   0.800

     PseudoPot. # 5 for H  read from file:
     /storage/coda1/p-amedford6/0/shared/rich_project_chbe-medford/medford-share/data/pseudos_module/espresso/nninc/pbe/van/H.UPF
     MD5 check sum: b5ee9d7bfd3a09ee7748110bda690ff7
     Pseudo is Ultrasoft, Zval =  1.0
     Generated by new atomic code, or converted to UPF format
     Using radial grid of  615 points,  1 beta functions with:
                l(1) =   0
     Q(r) pseudized with  8 coefficients,  rinner =    0.800

     atomic species   valence    mass     pseudopotential
        Ti1           12.00    47.86700     Ti( 1.00)
        O1             6.00    15.99900     O ( 1.00)
        N1             5.00    14.00700     N ( 1.00)
        C1             4.00    12.01100     C ( 1.00)
        H1             1.00     1.00800     H ( 1.00)

     No symmetry found

   Cartesian axes

     site n.     atom                  positions (alat units)
         1           Ti1 tau(   1) = (   0.0004258   2.9801865   6.0000000  )
         2           Ti1 tau(   2) = (   3.2906075   1.4906267   6.0002472  )
         3           O1  tau(   3) = (   0.0006271   0.0005054   7.9858123  )
         4           O1  tau(   4) = (   3.2906025   0.0005020   7.3038282  )
         5           O1  tau(   5) = (   4.5942328   1.4918067   9.2879030  )
         6           O1  tau(   6) = (   1.9868534   1.4903216   9.2879459  )
         7           Ti1 tau(   7) = (   3.2907910   2.8959150   9.1758416  )
         8           Ti1 tau(   8) = (   0.0015273   1.4827037   9.2680791  )
         9           O1  tau(   9) = (   3.3003128   0.0493987  11.3625472  )
        10           O1  tau(  10) = (   0.0116148   5.9584955  10.6183126  )
        11           O1  tau(  11) = (   1.2863924   1.5188706  12.6959087  )
        12           O1  tau(  12) = (   5.3173592   1.5183023  12.6957539  )
        13           Ti1 tau(  13) = (   0.0130489   2.9571150  12.5182267  )
        14           Ti1 tau(  14) = (   3.3124343   1.5987737  12.4587140  )
        15           O1  tau(  15) = (   0.0455642   5.8537743  14.6515032  )
        16           O1  tau(  16) = (   3.3135256   5.8999501  14.0036581  )
        17           O1  tau(  17) = (   4.5824137   1.5787328  16.0473457  )
        18           O1  tau(  18) = (   2.0456054   1.5356268  16.0652349  )
        19           Ti1 tau(  19) = (   3.2855744   2.9948502  15.7047272  )
        20           Ti1 tau(  20) = (   0.0729980   1.3194477  15.7501807  )
        21           O1  tau(  21) = (   3.2904802   0.0005063   4.7018136  )
        22           O1  tau(  22) = (   6.5643345   0.1786488  17.1561759  )
        23           O1  tau(  23) = (   1.3043587   1.4918075   6.0039043  )
        24           O1  tau(  24) = (   5.2767064   1.4903225   6.0039473  )
        25           Ti1 tau(  25) = (   0.0000382   5.9609847   6.0000000  )
        26           Ti1 tau(  26) = (   3.2902200   4.4714249   6.0002472  )
        27           O1  tau(  27) = (   0.0002396   2.9813036   7.9858123  )
        28           O1  tau(  28) = (   3.2902150   2.9813002   7.3038282  )
        29           O1  tau(  29) = (   4.5938453   4.4726049   9.2879030  )
        30           O1  tau(  30) = (   1.9864658   4.4711199   9.2879459  )
        31           Ti1 tau(  31) = (   3.2891106   5.8743827   9.1763621  )
        32           Ti1 tau(  32) = (   0.0006254   4.4649316   9.2693709  )
        33           O1  tau(  33) = (   3.3044115   2.9646987  11.3227374  )
        34           O1  tau(  34) = (   0.0092240   2.9805883  10.6323155  )
        35           O1  tau(  35) = (   1.2889249   4.4812606  12.6373974  )
        36           O1  tau(  36) = (   5.3198440   4.4849614  12.6453916  )
        37           Ti1 tau(  37) = (   0.0274371   5.9167426  12.5032498  )
        38           Ti1 tau(  38) = (   3.3124303   4.6827448  12.7121475  )
        39           O1  tau(  39) = (   0.0064664   3.0605765  14.9143048  )
        40           O1  tau(  40) = (   3.2921723   3.0190953  13.9337278  )
        41           O1  tau(  41) = (   4.5343043   4.4484976  16.2223827  )
        42           O1  tau(  42) = (   2.0055671   4.4324605  16.2273083  )
        43           Ti1 tau(  43) = (   3.3963104   0.0511244  16.3072024  )
        44           Ti1 tau(  44) = (   0.1011521   4.5293608  16.0606835  )
        45           O1  tau(  45) = (   3.2900926   2.9813045   4.7018136  )
        46           O1  tau(  46) = (   1.3039711   4.4726057   6.0039043  )
        47           O1  tau(  47) = (   5.2763189   4.4711207   6.0039473  )
        48           N1  tau(  48) = (   0.7799224   3.1460235  19.0808133  )
        49           N1  tau(  49) = (   6.3029119   3.3142126  18.0946246  )
        50           C1  tau(  50) = (   0.9829876   4.3811599  19.8296872  )
        51           H1  tau(  51) = (   0.0599524   4.7630682  20.2995108  )
        52           H1  tau(  52) = (   1.7087173   4.1728717  20.6053690  )
        53           H1  tau(  53) = (   1.3778604   5.1510331  19.1745456  )
        54           H1  tau(  54) = (   0.4845774   2.4057476  19.7140978  )
        55           H1  tau(  55) = (   5.5451363   3.8924421  18.4761980  )
        56           H1  tau(  56) = (   5.8791802   2.3931312  17.9634808  )
        57           O1  tau(  57) = (   3.3895457   0.1916509  18.1699706  )
        58           H1  tau(  58) = (   3.8128180   5.4341384  18.6581559  )

     number of k points=    10  Fermi-Dirac smearing, width (Ry)=  0.0073
                       cart. coord. in units 2pi/alat
        k(    1) = (   0.0000000   0.0000000   0.0000000), wk =   0.1250000
        k(    2) = (   0.0000000   0.0419351   0.0000000), wk =   0.2500000
        k(    3) = (   0.0000000  -0.0838702   0.0000000), wk =   0.1250000
        k(    4) = (   0.0379955   0.0000049   0.0000000), wk =   0.2500000
        k(    5) = (   0.0379955   0.0419400   0.0000000), wk =   0.2500000
        k(    6) = (   0.0379955  -0.0838652   0.0000000), wk =   0.2500000
        k(    7) = (   0.0379955  -0.0419301   0.0000000), wk =   0.2500000
        k(    8) = (  -0.0759910  -0.0000099   0.0000000), wk =   0.1250000
        k(    9) = (  -0.0759910   0.0419252   0.0000000), wk =   0.2500000
        k(   10) = (  -0.0759910  -0.0838800   0.0000000), wk =   0.1250000

     Initial potential from superposition of free atoms

     starting charge  388.99913, renormalised to  405.00000

     negative rho (up, down):  1.369E-02 0.000E+00

     %%%%%%%%%%%%%%%%%%%%%%%%%%%%%%%%%%%%%%%%%%%%%%%%%%%%%%%%%%%%%%%%%%%%%%%%
     %                                                                      %
     % You are using vdW-DF, which was implemented by the Thonhauser group. %
     % Please cite the following two papers that made this development      %
     % possible and the two reviews that describe the various versions:     %
     %                                                                      %
     %   T. Thonhauser et al., PRL 115, 136402 (2015).                      %
     %   T. Thonhauser et al., PRB 76, 125112 (2007).                       %
     %   K. Berland et al., Rep. Prog. Phys. 78, 066501 (2015).             %
     %   D.C. Langreth et al., J. Phys.: Condens. Matter 21, 084203 (2009). %
     %                                                                      %
     %                                                                      %
     % If you are calculating the stress with vdW-DF, please also cite:     %
     %                                                                      %
     %   R. Sabatini et al., J. Phys.: Condens. Matter 24, 424209 (2012).   %
     %                                                                      %
     %%%%%%%%%%%%%%%%%%%%%%%%%%%%%%%%%%%%%%%%%%%%%%%%%%%%%%%%%%%%%%%%%%%%%%%%

     Adding external electric field

     Computed dipole along edir(3) :
        Dipole              -14.8116 Ry au,        -37.6473 Debye
        Dipole field         -0.0280 Ry au,

        Potential amp.        2.5911 Ry
        Total length         46.3494 bohr

     Starting wfcs are  307 atomic wfcs
  @ DRIVER MODE: Message from server: STATUS
  @ DRIVER MODE: Message from server: POSDATA
  @ DRIVER MODE: Reading and sharing cell
  @ DRIVER MODE: Reading and sharing positions
  @ DRIVER MODE: Received positions

     Self-consistent Calculation

     iteration #  1     ecut=    29.40 Ry     beta= 0.05
     Davidson diagonalization with overlap
     c_bands:  4 eigenvalues not converged
     c_bands:  4 eigenvalues not converged
     c_bands:  5 eigenvalues not converged
     c_bands:  2 eigenvalues not converged
     c_bands:  3 eigenvalues not converged
     c_bands:  4 eigenvalues not converged
     c_bands:  2 eigenvalues not converged
     ethr =  1.00E-05,  avg # of iterations = 22.9

[...]

     total energy              =   -2202.91208642 Ry
     estimated scf accuracy    <    8804.46964617 Ry

     iteration #  2     ecut=    29.40 Ry     beta= 0.05
     Davidson diagonalization with overlap
     ethr =  1.00E-02,  avg # of iterations = 29.6

[...]

     iteration # 56     ecut=    29.40 Ry     beta= 0.05
     Davidson diagonalization with overlap
     c_bands:  2 eigenvalues not converged
     ethr =  2.12E-06,  avg # of iterations = 11.6

[...]

     total energy              =   -2976.46397950 Ry
     estimated scf accuracy    <       0.00000010 Ry

     iteration # 79     ecut=    29.40 Ry     beta= 0.05
     Davidson diagonalization with overlap
     ethr =  2.46E-11,  avg # of iterations =  6.2

     negative rho (up, down):  1.443E-02 0.000E+00

     Adding external electric field

     Computed dipole along edir(3) :
        Dipole                1.2261 Ry au,          3.1164 Debye
        Dipole field          0.0023 Ry au,

        Potential amp.       -0.2145 Ry
        Total length         46.3494 bohr

     End of self-consistent calculation

          k = 0.0000 0.0000 0.0000 ( 18029 PWs)   bands (ev):

   -55.4453 -55.3572 -55.3231 -55.2184 -55.2154 -55.1878 -55.1857 -55.1779
   -55.1538 -55.1309 -55.0878 -54.9856 -54.9373 -54.8941 -54.3319 -54.2979
   -31.8424 -31.7916 -31.7221 -31.7046 -31.6906 -31.6759 -31.6553 -31.6480
   -31.6170 -31.6033 -31.5974 -31.5097 -31.4947 -31.4874 -31.4678 -31.4643
   -31.4602 -31.4510 -31.4505 -31.4208 -31.4146 -31.3930 -31.3860 -31.3760
   -31.3712 -31.3551 -31.3541 -31.3223 -31.3216 -31.3153 -31.3145 -31.3088
   -31.3005 -31.2826 -31.2585 -31.2402 -31.1747 -31.1530 -31.1414 -31.1330
   -31.1123 -31.1032 -30.7380 -30.6516 -30.6291 -30.5554 -30.4690 -30.3573
   -17.7421 -16.3685 -16.0114 -15.8476 -15.6328 -15.5401 -15.5130 -15.3142
   -15.2192 -15.1609 -14.9595 -14.9325 -14.8950 -14.8820 -14.8732 -14.8522
   -14.8485 -14.7971 -14.7816 -14.7716 -14.7681 -14.7378 -14.7108 -14.6714
   -14.6118 -14.5981 -14.4957 -14.4401 -14.4002 -14.1589 -14.1386 -13.1802
   -12.8306 -12.7142  -9.4511  -6.4491  -5.7413  -4.2730  -3.9353  -3.3694
    -3.2681  -3.2565  -3.2010  -3.1325  -2.9953  -2.8847  -2.7822  -2.7430
    -2.6113  -2.5986  -2.4927  -2.4441  -2.3709  -2.3247  -2.2836  -2.2489
    -2.2213  -2.1649  -2.1428  -2.1169  -2.1057  -2.0329  -2.0146  -1.9246
    -1.8920  -1.8784  -1.7608  -1.7261  -1.6916  -1.6784  -1.6693  -1.6635
    -1.6195  -1.6089  -1.5983  -1.5567  -1.4557  -1.4477  -1.4302  -1.3395
    -1.2424  -0.9920  -0.9608  -0.9103  -0.8987  -0.8206  -0.7820  -0.7505
    -0.7177  -0.6481  -0.6369  -0.6106  -0.5494  -0.4739  -0.4196  -0.3719
    -0.3377  -0.2259  -0.1759  -0.1320  -0.0992  -0.0625   0.0005   0.0401
     0.0642   0.1073   0.1949   0.2582   0.2857   0.3024   0.3527   0.3946
     0.4325   0.4730   0.5448   0.5673   0.5774   0.6166   0.6253   0.6462
     0.7417   0.7601   0.8196   0.8468   0.9348   0.9657   1.0099   1.1795
     1.2490   1.3074   1.3857   1.4771   1.6398   1.6943   1.7192   1.8883
     2.2617   2.3071   3.7267   3.8740   3.8903   3.9680   3.9849   4.0492
     4.2155   4.2748   4.4122   4.4238

[...]

          k = 0.0380-0.0419 0.0000 ( 17876 PWs)   bands (ev):

[...]

          k =-0.0760-0.0000 0.0000 ( 17886 PWs)   bands (ev):

[...]

          k =-0.0760-0.0839 0.0000 ( 17948 PWs)   bands (ev):

   -55.4445 -55.3402 -55.3400 -55.2171 -55.2037 -55.1895 -55.1864 -55.1720
   -55.1692 -55.1228 -55.0959 -54.9826 -54.9383 -54.8970 -54.3149 -54.3148
   -31.7303 -31.6700 -31.6577 -31.6576 -31.6565 -31.6424 -31.6336 -31.6333
   -31.5763 -31.5311 -31.5098 -31.4990 -31.4936 -31.4885 -31.4658 -31.4600
   -31.4595 -31.4564 -31.4501 -31.4374 -31.4308 -31.4280 -31.4162 -31.3903
   -31.3857 -31.3838 -31.3764 -31.3686 -31.3500 -31.3447 -31.3414 -31.3409
   -31.3380 -31.3181 -31.3164 -31.2517 -31.2348 -31.2069 -31.1789 -31.1553
   -31.1493 -31.1081 -30.6418 -30.6418 -30.5510 -30.5507 -30.5124 -30.5121
   -17.7380 -16.3585 -15.5919 -15.4471 -15.3387 -15.3283 -15.2044 -15.1372
   -15.1275 -15.0938 -15.0710 -15.0491 -15.0306 -15.0155 -14.9606 -14.9210
   -14.8896 -14.8622 -14.8576 -14.8147 -14.8049 -14.7935 -14.7757 -14.7642
   -14.7088 -14.6728 -14.6631 -14.6045 -14.4655 -14.4448 -14.2891 -13.1816
   -12.8161 -12.8159  -9.4701  -6.4338  -5.7474  -4.2587  -3.9239  -2.9839
    -2.8012  -2.6586  -2.6037  -2.5631  -2.4496  -2.4257  -2.3674  -2.3171
    -2.2930  -2.2712  -2.2198  -2.2094  -2.1632  -2.1471  -2.1233  -2.1081
    -2.0917  -2.0852  -2.0573  -2.0416  -2.0312  -2.0182  -1.9912  -1.9802
    -1.9618  -1.9331  -1.9130  -1.9039  -1.8704  -1.8279  -1.7669  -1.6567
    -1.5827  -1.5717  -1.5276  -1.5027  -1.4865  -1.4454  -1.4329  -1.3918
    -1.3744  -1.3082  -1.1503  -1.1251  -1.1106  -0.9682  -0.9610  -0.9321
    -0.8579  -0.8163  -0.7944  -0.7364  -0.7068  -0.6665  -0.5895  -0.5462
    -0.4921  -0.4259  -0.3260  -0.3184  -0.3023  -0.2824  -0.2662  -0.2582
    -0.2251  -0.1879  -0.1148  -0.0683  -0.0597  -0.0536  -0.0025   0.0774
     0.1283   0.2428   0.3889   0.3933   0.4603   0.4612   0.6608   0.6696
     0.7464   0.7817   0.8163   0.8434   0.9372   0.9552   0.9928   1.0756
     1.1392   1.1687   1.1896   1.1944   1.2474   1.4597   2.0567   2.0645
     2.1274   2.1275   3.9678   4.2008   4.2411   4.2542   4.2726   4.2990
     4.3127   4.3270   4.3977   4.4255

     the Fermi energy is     3.7639 ev

!    total energy              =   -2976.46399561 Ry
     estimated scf accuracy    <       0.00000004 Ry
     smearing contrib. (-TS)   =      -0.01955557 Ry
     internal energy E=F+TS    =   -2976.44444005 Ry

     The total energy is F=E-TS. E is the sum of the following terms:
     one-electron contribution =  -23037.67229587 Ry
     hartree contribution      =   11616.55981871 Ry
     xc contribution           =    -495.73058639 Ry
     ewald contribution        =    8940.39578662 Ry
     electric field correction =       0.00283689 Ry

     convergence has been achieved in  79 iterations

     Forces acting on atoms (cartesian axes, Ry/au):

     atom    1 type  1   force =     0.00016379   -0.00023114    0.09414040
     atom    2 type  1   force =    -0.00010285    0.00018019   -0.17539033
     atom    3 type  2   force =     0.00005503   -0.00049343   -0.02103362
     atom    4 type  2   force =    -0.00002452   -0.00093660    0.05424460
     atom    5 type  2   force =    -0.00488738   -0.00216175    0.00106473
     atom    6 type  2   force =     0.00671142   -0.00138694    0.00107991
     atom    7 type  1   force =     0.00006125    0.00330689    0.00865478
     atom    8 type  1   force =    -0.00010048    0.00119472    0.00271832
     atom    9 type  2   force =    -0.00021890   -0.00030222   -0.00059365
     atom   10 type  2   force =    -0.00112033    0.00429132   -0.01025158
     atom   11 type  2   force =    -0.00006816   -0.00055410   -0.00010648
     atom   12 type  2   force =     0.00061179   -0.00031867   -0.00026851
     atom   13 type  1   force =    -0.00142997    0.00019729   -0.00057380
     atom   14 type  1   force =     0.00070675    0.00017233   -0.00047127
     atom   15 type  2   force =     0.00013128   -0.00001248    0.00001983
     atom   16 type  2   force =    -0.00009436   -0.00068279   -0.00029241
     atom   17 type  2   force =    -0.00043696    0.00068556    0.00007853
     atom   18 type  2   force =    -0.00075579    0.00030933   -0.00020928
     atom   19 type  1   force =     0.00040954   -0.00093429    0.00058090
     atom   20 type  1   force =    -0.00069544   -0.00006685    0.00052467
     atom   21 type  2   force =     0.00003728   -0.00000924    0.10322666
     atom   22 type  2   force =    -0.00012431    0.00003854    0.00046587
     atom   23 type  2   force =    -0.07198540   -0.00020011   -0.02725902
     atom   24 type  2   force =     0.07186167    0.00025680   -0.02732941
     atom   25 type  1   force =     0.00007509   -0.00016576    0.09387015
     atom   26 type  1   force =    -0.00012084   -0.00136488   -0.17552808
     atom   27 type  2   force =     0.00011111   -0.00005563   -0.01984146
     atom   28 type  2   force =     0.00006431   -0.00105139    0.04980442
     atom   29 type  2   force =    -0.00746996    0.00209161    0.00338662
     atom   30 type  2   force =     0.00907494    0.00223321    0.00330522
     atom   31 type  1   force =     0.00019705    0.00151443    0.00005065
     atom   32 type  1   force =    -0.00008489   -0.00226202    0.00302781
     atom   33 type  2   force =    -0.00017556   -0.00029796   -0.00003428
     atom   34 type  2   force =    -0.00117037   -0.00218762   -0.00964822
     atom   35 type  2   force =     0.00064803    0.00005175   -0.00022299
     atom   36 type  2   force =     0.00036678    0.00011370   -0.00035131
     atom   37 type  1   force =    -0.00096485    0.00024871    0.00035704
     atom   38 type  1   force =     0.00096477   -0.00023853    0.00019700
     atom   39 type  2   force =    -0.00017211   -0.00053422    0.00007492
     atom   40 type  2   force =    -0.00019875   -0.00019408   -0.00017950
     atom   41 type  2   force =     0.00024874   -0.00031707   -0.00008967
     atom   42 type  2   force =    -0.00064355    0.00006049   -0.00010168
     atom   43 type  1   force =     0.00022375    0.00091900    0.00042523
     atom   44 type  1   force =    -0.00038684    0.00084672    0.00009455
     atom   45 type  2   force =     0.00002412    0.00003379    0.10304081
     atom   46 type  2   force =    -0.07193721   -0.00008045   -0.02721205
     atom   47 type  2   force =     0.07182749    0.00035054   -0.02729643
     atom   48 type  3   force =    -0.00043178   -0.00080983   -0.00133904
     atom   49 type  3   force =    -0.00031818   -0.00040375   -0.00044108
     atom   50 type  4   force =    -0.00462837    0.00124475   -0.00653100
     atom   51 type  5   force =    -0.00068685   -0.00026532    0.00087562
     atom   52 type  5   force =     0.00587715   -0.00147828    0.00778093
     atom   53 type  5   force =    -0.00072627    0.00073088   -0.00092679
     atom   54 type  5   force =     0.00063218   -0.00025174    0.00004935
     atom   55 type  5   force =     0.00053773   -0.00058699    0.00005606
     atom   56 type  5   force =     0.00061300   -0.00000631   -0.00008367
     atom   57 type  2   force =     0.00071326   -0.00117838    0.00020246
     atom   58 type  5   force =    -0.00078809    0.00094827    0.00020856

     Total force =     0.362230     Total SCF correction =     0.000438
  @ DRIVER MODE: Message from server: STATUS
  @ DRIVER MODE: Message from server: GETFORCE
  @ DRIVER MODE: Returning v,forces,stress,ensemble

     Writing output data file ./calc.save/
  @ DRIVER MODE: Message from server: EXIT
  @ DRIVE MODE: Exiting

     General routines

     Parallel routines

   This run was terminated on:   0:54:26  24Sep2021

   JOB DONE.