     Program PWSCF v.6.7GPU starts on 22Sep2021 at 16:29:30

     R & G space division:  proc/nbgrp/npool/nimage =      10
     Reading input from /storage/home/hcoda1/3/ntian30/research/carbon/CxH_vib/CH_calc/ads_slab/CHNHNH2H2O_b/out_0051/pw.inp
Warning: card &CELL ignored
Warning: card   CELL_DYNAMICS='IPI', ignored
Warning: card / ignored

     Current dimensions of program PWSCF are:
     Max number of different atomic species (ntypx) = 10
     Max number of k-points (npk) =  40000
     Max angular momentum in pseudopotentials (lmaxx) =  3
     Presently no symmetry can be used with electric field

     Message from routine cell_base_init:
     DEPRECATED: use true lattice parameter, not A to a.u. conversion factor

     IMPORTANT: XC functional enforced from input :
     Exchange-correlation= BEEF-VDW
                           (   1   4  43  14   2   0   0)
     Any further DFT definition will be discarded
     Please, verify this is what you really want

  @ DRIVER MODE: Connecting to
 qe_1139763_2927425.sched-torque.pace.gatech.eduhdrmkyif_scratch
  using UNIX socket
  @ DRIVER MODE: Message from server: STATUS
  @ DRIVER MODE: Message from server: INIT
  @ DRIVER MODE: Receiving replica           0          -1
  @ DRIVER MODE: Receiving encoded integer          25
  @ DRIVER MODE:  SCF:  T  FORCE:  T  STRESS:  F  VC:  F  ENSEMBLE:  F
  @ DRIVER MODE:  SCF:  T  FORCE:  T  STRESS:  F  VC:  F  ENSEMBLE:  F

     Using Slab Decomposition

     bravais-lattice index     =            0
     lattice parameter (alat)  =       1.8897  a.u.
     unit-cell volume          =    6658.9804 (a.u.)^3
     number of atoms/cell      =           57
     number of atomic types    =            5
     number of electrons       =       404.00
     number of Kohn-Sham states=          212
     kinetic-energy cutoff     =      29.3995  Ry
     charge density cutoff     =     293.9946  Ry
     scf convergence threshold =      7.3E-08
     mixing beta               =       0.0500
     number of iterations used =            8  plain     mixing
     Exchange-correlation= BEEF-VDW
                           (   1   4  43  14   2   0   0)

     celldm(1)=   1.889726  celldm(2)=   0.000000  celldm(3)=   0.000000
     celldm(4)=   0.000000  celldm(5)=   0.000000  celldm(6)=   0.000000

     crystal axes: (cart. coord. in units of alat)
               a(1) = (   6.579727   0.000000   0.000000 )
               a(2) = (  -0.000775   5.961596   0.000000 )
               a(3) = (   0.000000   0.000000  25.155947 )

     reciprocal axes: (cart. coord. in units 2 pi/alat)
               b(1) = (  0.151982  0.000020  0.000000 )
               b(2) = (  0.000000  0.167740  0.000000 )
               b(3) = (  0.000000  0.000000  0.039752 )

     PseudoPot. # 1 for Ti read from file:
     /storage/coda1/p-amedford6/0/shared/rich_project_chbe-medford/medford-share/data/pseudos_module/espresso/nninc/pbe/van/Ti.UPF
     MD5 check sum: 8e4df49b7f0d34bbd5052bf3f5ea0213
     Pseudo is Ultrasoft, Zval = 12.0
     Generated by new atomic code, or converted to UPF format
     Using radial grid of  851 points,  6 beta functions with:
                l(1) =   0
                l(2) =   0
                l(3) =   1
                l(4) =   1
                l(5) =   2
                l(6) =   2
     Q(r) pseudized with  8 coefficients,  rinner =    1.000   1.000   1.000
                                                       1.000   1.000

     PseudoPot. # 2 for O  read from file:
     /storage/coda1/p-amedford6/0/shared/rich_project_chbe-medford/medford-share/data/pseudos_module/espresso/nninc/pbe/van/O.UPF
     MD5 check sum: 78c19812648e8988a0fe644b0f25305e
     Pseudo is Ultrasoft, Zval =  6.0
     Generated by new atomic code, or converted to UPF format
     Using radial grid of  737 points,  4 beta functions with:
                l(1) =   0
                l(2) =   0
                l(3) =   1
                l(4) =   1
     Q(r) pseudized with  8 coefficients,  rinner =    0.800   0.800   0.800

     PseudoPot. # 3 for N  read from file:
     /storage/coda1/p-amedford6/0/shared/rich_project_chbe-medford/medford-share/data/pseudos_module/espresso/nninc/pbe/van/N.UPF
     MD5 check sum: 90d10febe142ad51ac9d5be1deb811c4
     Pseudo is Ultrasoft, Zval =  5.0
     Generated by new atomic code, or converted to UPF format
     Using radial grid of  729 points,  4 beta functions with:
                l(1) =   0
                l(2) =   0
                l(3) =   1
                l(4) =   1
     Q(r) pseudized with  8 coefficients,  rinner =    0.800   0.800   0.800

     PseudoPot. # 4 for C  read from file:
     /storage/coda1/p-amedford6/0/shared/rich_project_chbe-medford/medford-share/data/pseudos_module/espresso/nninc/pbe/van/C.UPF
     MD5 check sum: 1a69bf6b8db32088f5b2163dbdb77a27
     Pseudo is Ultrasoft, Zval =  4.0
     Generated by new atomic code, or converted to UPF format
     Using radial grid of  721 points,  4 beta functions with:
                l(1) =   0
                l(2) =   0
                l(3) =   1
                l(4) =   1
     Q(r) pseudized with  8 coefficients,  rinner =    0.800   0.800   0.800

     PseudoPot. # 5 for H  read from file:
     /storage/coda1/p-amedford6/0/shared/rich_project_chbe-medford/medford-share/data/pseudos_module/espresso/nninc/pbe/van/H.UPF
     MD5 check sum: b5ee9d7bfd3a09ee7748110bda690ff7
     Pseudo is Ultrasoft, Zval =  1.0
     Generated by new atomic code, or converted to UPF format
     Using radial grid of  615 points,  1 beta functions with:
                l(1) =   0
     Q(r) pseudized with  8 coefficients,  rinner =    0.800

     atomic species   valence    mass     pseudopotential
        Ti1           12.00    47.86700     Ti( 1.00)
        O1             6.00    15.99900     O ( 1.00)
        N1             5.00    14.00700     N ( 1.00)
        C1             4.00    12.01100     C ( 1.00)
        H1             1.00     1.00800     H ( 1.00)

     No symmetry found

   Cartesian axes

     site n.     atom                  positions (alat units)
         1           Ti1 tau(   1) = (   0.0004258   2.9801865   6.0000000  )
         2           Ti1 tau(   2) = (   3.2906075   1.4906267   6.0002472  )
         3           O1  tau(   3) = (   0.0006271   0.0005054   7.9858123  )
         4           O1  tau(   4) = (   3.2906025   0.0005020   7.3038282  )
         5           O1  tau(   5) = (   4.5942328   1.4918067   9.2879030  )
         6           O1  tau(   6) = (   1.9868534   1.4903216   9.2879459  )
         7           Ti1 tau(   7) = (   3.2907910   2.8959150   9.1758416  )
         8           Ti1 tau(   8) = (   0.0015273   1.4827037   9.2680791  )
         9           O1  tau(   9) = (   3.3066417   5.9496923  11.3845403  )
        10           O1  tau(  10) = (   0.0116148   5.9584955  10.6183126  )
        11           O1  tau(  11) = (   1.3010148   1.4986442  12.6442229  )
        12           O1  tau(  12) = (   5.3085967   1.5001388  12.6592367  )
        13           Ti1 tau(  13) = (   0.0282779   2.9853959  12.5065338  )
        14           Ti1 tau(  14) = (   3.3279724   1.4707331  12.5413945  )
        15           O1  tau(  15) = (   0.0378505   0.0859181  14.6860672  )
        16           O1  tau(  16) = (   3.3018867   0.0259462  14.0338077  )
        17           O1  tau(  17) = (   4.5998927   1.5484098  16.1661054  )
        18           O1  tau(  18) = (   2.0454451   1.5021798  16.2221046  )
        19           Ti1 tau(  19) = (   3.3206312   2.9825829  15.7321521  )
        20           Ti1 tau(  20) = (   0.0140791   1.4435866  15.9983415  )
        21           O1  tau(  21) = (   3.2904802   0.0005063   4.7018136  )
        22           O1  tau(  22) = (   6.5273045   5.8164216  17.2577718  )
        23           O1  tau(  23) = (   1.3043587   1.4918075   6.0039043  )
        24           O1  tau(  24) = (   5.2767064   1.4903225   6.0039473  )
        25           Ti1 tau(  25) = (   0.0000382   5.9609847   6.0000000  )
        26           Ti1 tau(  26) = (   3.2902200   4.4714249   6.0002472  )
        27           O1  tau(  27) = (   0.0002396   2.9813036   7.9858123  )
        28           O1  tau(  28) = (   3.2902150   2.9813002   7.3038282  )
        29           O1  tau(  29) = (   4.5938453   4.4726049   9.2879030  )
        30           O1  tau(  30) = (   1.9864658   4.4711199   9.2879459  )
        31           Ti1 tau(  31) = (   3.2891106   5.8743827   9.1763621  )
        32           Ti1 tau(  32) = (   0.0006254   4.4649316   9.2693709  )
        33           O1  tau(  33) = (   3.3068470   2.9864458  11.3814114  )
        34           O1  tau(  34) = (   0.0092240   2.9805883  10.6323155  )
        35           O1  tau(  35) = (   1.2982948   4.4740332  12.6840172  )
        36           O1  tau(  36) = (   5.3097620   4.4704985  12.6972095  )
        37           Ti1 tau(  37) = (   0.0348817   0.0130325  12.4954113  )
        38           Ti1 tau(  38) = (   3.3270268   4.4633798  12.5435021  )
        39           O1  tau(  39) = (   0.0563025   2.9439880  14.9425960  )
        40           O1  tau(  40) = (   3.2900316   2.9661073  13.9503945  )
        41           O1  tau(  41) = (   4.5967999   4.4093095  16.0633277  )
        42           O1  tau(  42) = (   2.0412097   4.4536800  16.1303113  )
        43           Ti1 tau(  43) = (   3.2964201   5.9600488  15.8742613  )
        44           Ti1 tau(  44) = (   0.0241369   4.6516137  15.8518307  )
        45           O1  tau(  45) = (   3.2900926   2.9813045   4.7018136  )
        46           O1  tau(  46) = (   1.3039711   4.4726057   6.0039043  )
        47           O1  tau(  47) = (   5.2763189   4.4711207   6.0039473  )
        48           N1  tau(  48) = (   1.4509408   2.7109095  18.7602185  )
        49           N1  tau(  49) = (   0.0917387   2.5303350  18.2207845  )
        50           C1  tau(  50) = (   1.9503960   3.7723240  19.2784661  )
        51           H1  tau(  51) = (   1.1612915   4.5273475  19.4152495  )
        52           H1  tau(  52) = (   2.0208952   1.9183395  18.4664618  )
        53           H1  tau(  53) = (   6.1377449   3.3539424  18.4987646  )
        54           H1  tau(  54) = (   6.2616785   1.7135167  18.6767212  )
        55           O1  tau(  55) = (   3.7012217   5.9496235  18.2853534  )
        56           H1  tau(  56) = (   4.6684668   5.8370116  18.1670174  )
        57           H1  tau(  57) = (   3.3852657   5.1278045  18.7338684  )

     number of k points=    10  Fermi-Dirac smearing, width (Ry)=  0.0073
                       cart. coord. in units 2pi/alat
        k(    1) = (   0.0000000   0.0000000   0.0000000), wk =   0.1250000
        k(    2) = (   0.0000000   0.0419351   0.0000000), wk =   0.2500000
        k(    3) = (   0.0000000  -0.0838702   0.0000000), wk =   0.1250000
        k(    4) = (   0.0379955   0.0000049   0.0000000), wk =   0.2500000
        k(    5) = (   0.0379955   0.0419400   0.0000000), wk =   0.2500000
        k(    6) = (   0.0379955  -0.0838652   0.0000000), wk =   0.2500000
        k(    7) = (   0.0379955  -0.0419301   0.0000000), wk =   0.2500000
        k(    8) = (  -0.0759910  -0.0000099   0.0000000), wk =   0.1250000
        k(    9) = (  -0.0759910   0.0419252   0.0000000), wk =   0.2500000
        k(   10) = (  -0.0759910  -0.0838800   0.0000000), wk =   0.1250000

     Initial potential from superposition of free atoms

     starting charge  387.99913, renormalised to  404.00000

     negative rho (up, down):  1.598E-02 0.000E+00

     %%%%%%%%%%%%%%%%%%%%%%%%%%%%%%%%%%%%%%%%%%%%%%%%%%%%%%%%%%%%%%%%%%%%%%%%
     %                                                                      %
     % You are using vdW-DF, which was implemented by the Thonhauser group. %
     % Please cite the following two papers that made this development      %
     % possible and the two reviews that describe the various versions:     %
     %                                                                      %
     %   T. Thonhauser et al., PRL 115, 136402 (2015).                      %
     %   T. Thonhauser et al., PRB 76, 125112 (2007).                       %
     %   K. Berland et al., Rep. Prog. Phys. 78, 066501 (2015).             %
     %   D.C. Langreth et al., J. Phys.: Condens. Matter 21, 084203 (2009). %
     %                                                                      %
     %                                                                      %
     % If you are calculating the stress with vdW-DF, please also cite:     %
     %                                                                      %
     %   R. Sabatini et al., J. Phys.: Condens. Matter 24, 424209 (2012).   %
     %                                                                      %
     %%%%%%%%%%%%%%%%%%%%%%%%%%%%%%%%%%%%%%%%%%%%%%%%%%%%%%%%%%%%%%%%%%%%%%%%

     Adding external electric field

     Computed dipole along edir(3) :
        Dipole              -14.3585 Ry au,        -36.4957 Debye
        Dipole field         -0.0271 Ry au,

        Potential amp.        2.5118 Ry
        Total length         46.3494 bohr

     Starting wfcs are  306 atomic wfcs
  @ DRIVER MODE: Message from server: STATUS
  @ DRIVER MODE: Message from server: POSDATA
  @ DRIVER MODE: Reading and sharing cell
  @ DRIVER MODE: Reading and sharing positions
  @ DRIVER MODE: Received positions

     Self-consistent Calculation

     iteration #  1     ecut=    29.40 Ry     beta= 0.05
     Davidson diagonalization with overlap
     c_bands:  3 eigenvalues not converged
     c_bands:  4 eigenvalues not converged
     c_bands:  4 eigenvalues not converged
     c_bands:  4 eigenvalues not converged
     c_bands:  5 eigenvalues not converged
     c_bands:  3 eigenvalues not converged
     c_bands:  2 eigenvalues not converged
     c_bands:  4 eigenvalues not converged
     ethr =  1.00E-05,  avg # of iterations = 21.9

[...]

     total energy              =   -2220.94197785 Ry
     estimated scf accuracy    <    8587.37063771 Ry

     iteration #  2     ecut=    29.40 Ry     beta= 0.05
     Davidson diagonalization with overlap
     ethr =  1.00E-02,  avg # of iterations = 27.1

[...]

     iteration # 66     ecut=    29.40 Ry     beta= 0.05
     Davidson diagonalization with overlap
     c_bands:  1 eigenvalues not converged
     ethr =  2.98E-11,  avg # of iterations = 14.5

[...]

     total energy              =   -2975.10526092 Ry
     estimated scf accuracy    <       0.00000013 Ry

     iteration # 67     ecut=    29.40 Ry     beta= 0.05
     Davidson diagonalization with overlap
     ethr =  2.98E-11,  avg # of iterations =  5.0

     negative rho (up, down):  1.579E-02 0.000E+00

     Adding external electric field

     Computed dipole along edir(3) :
        Dipole                1.0240 Ry au,          2.6027 Debye
        Dipole field          0.0019 Ry au,

        Potential amp.       -0.1791 Ry
        Total length         46.3494 bohr

     End of self-consistent calculation

          k = 0.0000 0.0000 0.0000 ( 18029 PWs)   bands (ev):

   -55.3853 -55.3495 -55.3454 -55.3113 -55.3083 -55.3025 -55.2673 -55.2320
   -55.2169 -55.1821 -55.1753 -55.1600 -55.1416 -55.1125 -54.3765 -54.3425
   -31.9443 -31.8803 -31.8380 -31.7570 -31.7082 -31.7055 -31.6813 -31.6783
   -31.6342 -31.5984 -31.5915 -31.5900 -31.5830 -31.5796 -31.5615 -31.5593
   -31.5347 -31.5266 -31.5237 -31.5124 -31.4980 -31.4915 -31.4727 -31.4679
   -31.4594 -31.4465 -31.4458 -31.4171 -31.4026 -31.3989 -31.3959 -31.3737
   -31.3698 -31.3658 -31.3622 -31.3410 -31.3300 -31.3179 -31.3031 -31.3031
   -31.2928 -31.2864 -30.7859 -30.6914 -30.6694 -30.6023 -30.5155 -30.4046
   -18.8807 -18.4572 -16.2201 -15.9728 -15.8367 -15.7323 -15.5948 -15.4968
   -15.3876 -15.2744 -15.2513 -15.1574 -15.0832 -15.0793 -15.0421 -15.0164
   -14.9537 -14.9324 -14.9086 -14.9026 -14.8879 -14.8780 -14.8414 -14.8304
   -14.7975 -14.7864 -14.7691 -14.6487 -14.6267 -14.5519 -14.4812 -14.3442
   -12.8790 -12.7615  -9.8360  -6.9989  -6.3523  -6.0832  -4.4270  -3.7316
    -3.5438  -3.4104  -3.3332  -3.3031  -3.2854  -3.1542  -3.0717  -2.9042
    -2.8648  -2.8087  -2.6738  -2.5979  -2.5916  -2.5040  -2.4312  -2.4078
    -2.3747  -2.2658  -2.2592  -2.2099  -2.1921  -2.1690  -2.1597  -2.1132
    -2.0673  -2.0399  -1.9547  -1.8534  -1.8101  -1.7898  -1.7534  -1.7309
    -1.7261  -1.6822  -1.6759  -1.6525  -1.6138  -1.5893  -1.5439  -1.4320
    -1.3917  -1.2319  -1.1947  -1.0399  -1.0195  -0.9804  -0.9600  -0.9232
    -0.8938  -0.8774  -0.8618  -0.7719  -0.7139  -0.6479  -0.5837  -0.4932
    -0.4824  -0.4081  -0.3826  -0.3176  -0.2298  -0.1853  -0.1757  -0.1510
    -0.1475  -0.0340   0.0109   0.0711   0.0899   0.1472   0.1631   0.1852
     0.2553   0.3089   0.3783   0.4091   0.4882   0.5063   0.5415   0.5507
     0.5829   0.5936   0.6696   0.6845   0.7126   0.8154   0.9127   1.0059
     1.2162   1.2184   1.2529   1.5510   1.5531   1.6465   1.8298   2.2227
     2.2711   3.7045   3.7829   3.8324   3.8501   3.8546   3.9394   4.1940
     4.2082   4.2209   4.2272   4.2683

[...]

          k = 0.0380-0.0419 0.0000 ( 17876 PWs)   bands (ev):

[...]

          k =-0.0760-0.0000 0.0000 ( 17886 PWs)   bands (ev):

[...]

          k =-0.0760-0.0839 0.0000 ( 17948 PWs)   bands (ev):

   -55.3685 -55.3662 -55.3285 -55.3281 -55.3054 -55.3016 -55.2536 -55.2457
   -55.2027 -55.1959 -55.1618 -55.1594 -55.1577 -55.1142 -54.3595 -54.3594
   -31.7950 -31.7568 -31.7427 -31.6533 -31.6529 -31.6387 -31.6268 -31.6196
   -31.6192 -31.5985 -31.5936 -31.5903 -31.5675 -31.5597 -31.5479 -31.5340
   -31.5308 -31.5282 -31.5242 -31.5161 -31.5115 -31.5094 -31.5084 -31.5006
   -31.4688 -31.4674 -31.4482 -31.4478 -31.4476 -31.4427 -31.4400 -31.4355
   -31.4260 -31.4148 -31.4090 -31.3923 -31.3905 -31.3806 -31.3393 -31.3382
   -31.3377 -31.3189 -30.6821 -30.6820 -30.5984 -30.5983 -30.5590 -30.5589
   -18.8748 -18.4596 -15.8397 -15.6530 -15.5017 -15.4299 -15.4096 -15.3263
   -15.2711 -15.2676 -15.1945 -15.1766 -15.1642 -15.1426 -15.1327 -15.0854
   -15.0484 -15.0118 -14.9930 -14.9703 -14.9272 -14.9045 -14.9029 -14.8961
   -14.8884 -14.8481 -14.8428 -14.8395 -14.7477 -14.7458 -14.7078 -14.5598
   -12.8630 -12.8629  -9.8453  -6.9876  -6.3266  -6.0599  -4.4414  -3.6589
    -3.0379  -2.9112  -2.9012  -2.6734  -2.6533  -2.5922  -2.5798  -2.4918
    -2.4761  -2.4155  -2.3919  -2.3423  -2.3189  -2.2812  -2.2673  -2.2454
    -2.2242  -2.2105  -2.1839  -2.1680  -2.1513  -2.1313  -2.1204  -2.1090
    -2.0536  -2.0483  -2.0392  -2.0136  -1.9908  -1.9546  -1.9447  -1.9284
    -1.7730  -1.7576  -1.7366  -1.6004  -1.5961  -1.5621  -1.5219  -1.4943
    -1.4363  -1.4276  -1.3994  -1.3413  -1.1470  -1.1366  -1.1244  -1.1065
    -1.0354  -0.9799  -0.9662  -0.9480  -0.8944  -0.8166  -0.7825  -0.7301
    -0.6411  -0.5891  -0.5795  -0.5537  -0.4325  -0.4095  -0.3671  -0.3488
    -0.3326  -0.2984  -0.2968  -0.2398  -0.1869  -0.1511  -0.1283  -0.1140
    -0.0770   0.0776   0.1297   0.1460   0.2603   0.2897   0.4678   0.5105
     0.5322   0.6373   0.7208   0.7486   0.7632   0.8888   0.9109   0.9132
     0.9815   1.0036   1.0638   1.0696   1.2096   2.0025   2.0038   2.0909
     2.0911   3.8296   3.9523   3.9966   4.0324   4.1085   4.1612   4.2182
     4.2773   4.2890   4.2925   4.3610

     the Fermi energy is     3.7665 ev

!    total energy              =   -2975.10530305 Ry
     estimated scf accuracy    <       0.00000006 Ry
     smearing contrib. (-TS)   =      -0.03671964 Ry
     internal energy E=F+TS    =   -2975.06858342 Ry

     The total energy is F=E-TS. E is the sum of the following terms:
     one-electron contribution =  -23505.42398405 Ry
     hartree contribution      =   11848.72935721 Ry
     xc contribution           =    -494.91741032 Ry
     ewald contribution        =    9176.54147494 Ry
     electric field correction =       0.00197880 Ry

     convergence has been achieved in  67 iterations

     Forces acting on atoms (cartesian axes, Ry/au):

     atom    1 type  1   force =     0.00002914   -0.00025064    0.09310962
     atom    2 type  1   force =    -0.00018037   -0.00032115   -0.17836053
     atom    3 type  2   force =     0.00005964   -0.00017051   -0.02022619
     atom    4 type  2   force =     0.00001718   -0.00203563    0.05926643
     atom    5 type  2   force =    -0.01034275   -0.00110290    0.00808466
     atom    6 type  2   force =     0.01218586   -0.00054887    0.00816254
     atom    7 type  1   force =     0.00014928    0.00329909   -0.01113338
     atom    8 type  1   force =    -0.00030243    0.00052789   -0.00561769
     atom    9 type  2   force =     0.00004285    0.00017931   -0.00013821
     atom   10 type  2   force =    -0.00146526   -0.00003593   -0.00172680
     atom   11 type  2   force =     0.00037747   -0.00003423   -0.00006212
     atom   12 type  2   force =    -0.00009838    0.00010773   -0.00009408
     atom   13 type  1   force =    -0.00010161   -0.00017524   -0.00024245
     atom   14 type  1   force =    -0.00021144   -0.00036320    0.00033961
     atom   15 type  2   force =     0.00007145   -0.00049148    0.00009771
     atom   16 type  2   force =     0.00021798    0.00008479    0.00025338
     atom   17 type  2   force =     0.00035135   -0.00013384    0.00008631
     atom   18 type  2   force =    -0.00005027   -0.00015877   -0.00012103
     atom   19 type  1   force =    -0.00028748   -0.00054614   -0.00000452
     atom   20 type  1   force =     0.00003048    0.00028157    0.00060222
     atom   21 type  2   force =    -0.00000347   -0.00007841    0.10402414
     atom   22 type  2   force =    -0.00009491   -0.00020521   -0.00013950
     atom   23 type  2   force =    -0.07033812   -0.00015759   -0.02683278
     atom   24 type  2   force =     0.07020713    0.00028853   -0.02690737
     atom   25 type  1   force =     0.00002212   -0.00014989    0.09276790
     atom   26 type  1   force =    -0.00015603   -0.00039416   -0.17831032
     atom   27 type  2   force =     0.00010994   -0.00030783   -0.01917057
     atom   28 type  2   force =     0.00004620   -0.00163603    0.05841452
     atom   29 type  2   force =    -0.01029467   -0.00063954    0.00729293
     atom   30 type  2   force =     0.01203200   -0.00030808    0.00742569
     atom   31 type  1   force =     0.00007258    0.00515554   -0.01467216
     atom   32 type  1   force =    -0.00013588   -0.00051987   -0.00596245
     atom   33 type  2   force =     0.00012926   -0.00039568   -0.00022617
     atom   34 type  2   force =    -0.00078862    0.00260841   -0.00104587
     atom   35 type  2   force =    -0.00007313   -0.00011663   -0.00012770
     atom   36 type  2   force =     0.00023439   -0.00000003   -0.00015266
     atom   37 type  1   force =    -0.00044869    0.00007294    0.00002670
     atom   38 type  1   force =    -0.00003025   -0.00024635   -0.00024317
     atom   39 type  2   force =    -0.00030590   -0.00021114   -0.00015389
     atom   40 type  2   force =    -0.00013380   -0.00005646   -0.00004474
     atom   41 type  2   force =    -0.00013502   -0.00013792    0.00044228
     atom   42 type  2   force =    -0.00006245   -0.00025574    0.00011488
     atom   43 type  1   force =     0.00001914   -0.00019323    0.00008226
     atom   44 type  1   force =     0.00007574    0.00000545    0.00014890
     atom   45 type  2   force =     0.00001032   -0.00010978    0.10399557
     atom   46 type  2   force =    -0.07036475   -0.00012155   -0.02685580
     atom   47 type  2   force =     0.07020855    0.00031322   -0.02691591
     atom   48 type  3   force =     0.00010208    0.00091608    0.00036393
     atom   49 type  3   force =    -0.00081002   -0.00078503    0.00021742
     atom   50 type  4   force =     0.00039921    0.00109626    0.00066440
     atom   51 type  5   force =     0.00001230   -0.00064477   -0.00042988
     atom   52 type  5   force =    -0.00007127   -0.00098868   -0.00027837
     atom   53 type  5   force =    -0.00004825    0.00001290    0.00001559
     atom   54 type  5   force =     0.00015760    0.00049645   -0.00008428
     atom   55 type  2   force =     0.00291581   -0.00181175    0.00084842
     atom   56 type  5   force =    -0.00112900    0.00138945   -0.00081715
     atom   57 type  5   force =    -0.00182281    0.00000427    0.00024975

     Total force =     0.366210     Total SCF correction =     0.000716
  @ DRIVER MODE: Message from server: STATUS
  @ DRIVER MODE: Message from server: GETFORCE
  @ DRIVER MODE: Returning v,forces,stress,ensemble

     Writing output data file ./calc.save/
  @ DRIVER MODE: Message from server: EXIT
  @ DRIVE MODE: Exiting

     General routines

     Parallel routines

   This run was terminated on:  16:48:21  22Sep2021

   JOB DONE.