     Program PWSCF v.6.7GPU starts on  2Aug2021 at 12:11:26

     R & G space division:  proc/nbgrp/npool/nimage =      16
     Reading input from /storage/home/hcoda1/3/ntian30/research/carbon/02Aug_spin_polarized/ads_slab/CH3NHHH_a/02Aug_spin_polarized.log/pw.inp
Warning: card &CELL ignored
Warning: card   CELL_DYNAMICS='IPI', ignored
Warning: card / ignored

     Current dimensions of program PWSCF are:
     Max number of different atomic species (ntypx) = 10
     Max number of k-points (npk) =  40000
     Max angular momentum in pseudopotentials (lmaxx) =  3
     Presently no symmetry can be used with electric field

     Message from routine cell_base_init:
     DEPRECATED: use true lattice parameter, not A to a.u. conversion factor

     IMPORTANT: XC functional enforced from input :
     Exchange-correlation= BEEF-VDW
                           (   1   4  43  14   2   0   0)
     Any further DFT definition will be discarded
     Please, verify this is what you really want

  @ DRIVER MODE: Connecting to
 qe_1139763_2482590.sched-torque.pace.gatech.eduvss5unmo_scratch
  using UNIX socket
  @ DRIVER MODE: Message from server: STATUS
  @ DRIVER MODE: Message from server: INIT
  @ DRIVER MODE: Receiving replica           0          -1
  @ DRIVER MODE: Receiving encoded integer          25
  @ DRIVER MODE:  SCF:  T  FORCE:  T  STRESS:  F  VC:  F  ENSEMBLE:  F
  @ DRIVER MODE:  SCF:  T  FORCE:  T  STRESS:  F  VC:  F  ENSEMBLE:  F

     Using Slab Decomposition

     bravais-lattice index     =            0
     lattice parameter (alat)  =       1.8897  a.u.
     unit-cell volume          =    6658.9804 (a.u.)^3
     number of atoms/cell      =           55
     number of atomic types    =            5
     number of electrons       =       393.00
     number of Kohn-Sham states=          206
     kinetic-energy cutoff     =      29.3995  Ry
     charge density cutoff     =     293.9946  Ry
     scf convergence threshold =      7.3E-08
     mixing beta               =       0.0500
     number of iterations used =            8  plain     mixing
     Exchange-correlation= BEEF-VDW
                           (   1   4  43  14   2   0   0)

     celldm(1)=   1.889726  celldm(2)=   0.000000  celldm(3)=   0.000000
     celldm(4)=   0.000000  celldm(5)=   0.000000  celldm(6)=   0.000000

     crystal axes: (cart. coord. in units of alat)
               a(1) = (   6.579727   0.000000   0.000000 )
               a(2) = (  -0.000775   5.961596   0.000000 )
               a(3) = (   0.000000   0.000000  25.155947 )

     reciprocal axes: (cart. coord. in units 2 pi/alat)
               b(1) = (  0.151982  0.000020  0.000000 )
               b(2) = (  0.000000  0.167740  0.000000 )
               b(3) = (  0.000000  0.000000  0.039752 )

     PseudoPot. # 1 for Ti read from file:
     /storage/coda1/p-amedford6/0/shared/rich_project_chbe-medford/medford-share/data/pseudos_module/espresso/nninc/pbe/van/Ti.UPF
     MD5 check sum: 8e4df49b7f0d34bbd5052bf3f5ea0213
     Pseudo is Ultrasoft, Zval = 12.0
     Generated by new atomic code, or converted to UPF format
     Using radial grid of  851 points,  6 beta functions with:
                l(1) =   0
                l(2) =   0
                l(3) =   1
                l(4) =   1
                l(5) =   2
                l(6) =   2
     Q(r) pseudized with  8 coefficients,  rinner =    1.000   1.000   1.000
                                                       1.000   1.000

     PseudoPot. # 2 for O  read from file:
     /storage/coda1/p-amedford6/0/shared/rich_project_chbe-medford/medford-share/data/pseudos_module/espresso/nninc/pbe/van/O.UPF
     MD5 check sum: 78c19812648e8988a0fe644b0f25305e
     Pseudo is Ultrasoft, Zval =  6.0
     Generated by new atomic code, or converted to UPF format
     Using radial grid of  737 points,  4 beta functions with:
                l(1) =   0
                l(2) =   0
                l(3) =   1
                l(4) =   1
     Q(r) pseudized with  8 coefficients,  rinner =    0.800   0.800   0.800

     PseudoPot. # 3 for N  read from file:
     /storage/coda1/p-amedford6/0/shared/rich_project_chbe-medford/medford-share/data/pseudos_module/espresso/nninc/pbe/van/N.UPF
     MD5 check sum: 90d10febe142ad51ac9d5be1deb811c4
     Pseudo is Ultrasoft, Zval =  5.0
     Generated by new atomic code, or converted to UPF format
     Using radial grid of  729 points,  4 beta functions with:
                l(1) =   0
                l(2) =   0
                l(3) =   1
                l(4) =   1
     Q(r) pseudized with  8 coefficients,  rinner =    0.800   0.800   0.800

     PseudoPot. # 4 for C  read from file:
     /storage/coda1/p-amedford6/0/shared/rich_project_chbe-medford/medford-share/data/pseudos_module/espresso/nninc/pbe/van/C.UPF
     MD5 check sum: 1a69bf6b8db32088f5b2163dbdb77a27
     Pseudo is Ultrasoft, Zval =  4.0
     Generated by new atomic code, or converted to UPF format
     Using radial grid of  721 points,  4 beta functions with:
                l(1) =   0
                l(2) =   0
                l(3) =   1
                l(4) =   1
     Q(r) pseudized with  8 coefficients,  rinner =    0.800   0.800   0.800

     PseudoPot. # 5 for H  read from file:
     /storage/coda1/p-amedford6/0/shared/rich_project_chbe-medford/medford-share/data/pseudos_module/espresso/nninc/pbe/van/H.UPF
     MD5 check sum: b5ee9d7bfd3a09ee7748110bda690ff7
     Pseudo is Ultrasoft, Zval =  1.0
     Generated by new atomic code, or converted to UPF format
     Using radial grid of  615 points,  1 beta functions with:
                l(1) =   0
     Q(r) pseudized with  8 coefficients,  rinner =    0.800

     atomic species   valence    mass     pseudopotential
        Ti1           12.00    47.86700     Ti( 1.00)
        O1             6.00    15.99900     O ( 1.00)
        N1             5.00    14.00700     N ( 1.00)
        C1             4.00    12.01100     C ( 1.00)
        H1             1.00     1.00800     H ( 1.00)

     Starting magnetic structure
     atomic species   magnetization
        Ti1          0.000
        O1           0.000
        N1           0.120
        C1           0.150
        H1           0.000

     No symmetry found

   Cartesian axes

     site n.     atom                  positions (alat units)
         1           Ti1 tau(   1) = (   0.0004258   2.9801865   6.0000000  )
         2           Ti1 tau(   2) = (   3.2906075   1.4906267   6.0002472  )
         3           O1  tau(   3) = (   0.0006271   0.0005054   7.9858123  )
         4           O1  tau(   4) = (   3.2906025   0.0005020   7.3038282  )
         5           O1  tau(   5) = (   4.5942328   1.4918067   9.2879030  )
         6           O1  tau(   6) = (   1.9868534   1.4903216   9.2879459  )
         7           Ti1 tau(   7) = (   3.2907910   2.8959150   9.1758416  )
         8           Ti1 tau(   8) = (   0.0015273   1.4827037   9.2680791  )
         9           O1  tau(   9) = (   3.2645489   5.9412042  11.4038015  )
        10           O1  tau(  10) = (   0.0116148   5.9584955  10.6183126  )
        11           O1  tau(  11) = (   1.2645790   1.4851323  12.6898155  )
        12           O1  tau(  12) = (   5.2715186   1.4830296  12.6596527  )
        13           Ti1 tau(  13) = (   6.5573697   2.9647469  12.4957343  )
        14           Ti1 tau(  14) = (   3.2649387   1.4708722  12.5532242  )
        15           O1  tau(  15) = (   6.5245312   5.9588035  14.6835611  )
        16           O1  tau(  16) = (   3.2726992   5.9457856  14.0411355  )
        17           O1  tau(  17) = (   4.5213017   1.4744254  16.2934266  )
        18           O1  tau(  18) = (   1.9433401   1.4798619  16.2413630  )
        19           Ti1 tau(  19) = (   3.2506367   2.9421557  15.8060040  )
        20           Ti1 tau(  20) = (   6.5359891   1.3416091  15.9603167  )
        21           O1  tau(  21) = (   3.2904802   0.0005063   4.7018136  )
        22           O1  tau(  22) = (   6.5326079   5.8900168  17.4297599  )
        23           O1  tau(  23) = (   1.3043587   1.4918075   6.0039043  )
        24           O1  tau(  24) = (   5.2767064   1.4903225   6.0039473  )
        25           Ti1 tau(  25) = (   0.0000382   5.9609847   6.0000000  )
        26           Ti1 tau(  26) = (   3.2902200   4.4714249   6.0002472  )
        27           O1  tau(  27) = (   0.0002396   2.9813036   7.9858123  )
        28           O1  tau(  28) = (   3.2902150   2.9813002   7.3038282  )
        29           O1  tau(  29) = (   4.5938453   4.4726049   9.2879030  )
        30           O1  tau(  30) = (   1.9864658   4.4711199   9.2879459  )
        31           Ti1 tau(  31) = (   3.2891106   5.8743827   9.1763621  )
        32           Ti1 tau(  32) = (   0.0006254   4.4649316   9.2693709  )
        33           O1  tau(  33) = (   3.2661431   2.9655474  11.3966582  )
        34           O1  tau(  34) = (   0.0092240   2.9805883  10.6323155  )
        35           O1  tau(  35) = (   1.2634639   4.4498608  12.7024855  )
        36           O1  tau(  36) = (   5.2717171   4.4508096  12.6716751  )
        37           Ti1 tau(  37) = (   6.5567319   5.9488647  12.5032764  )
        38           Ti1 tau(  38) = (   3.2653088   4.4475300  12.5576797  )
        39           O1  tau(  39) = (   6.5001469   2.9369389  14.9871173  )
        40           O1  tau(  40) = (   3.2742743   2.9536834  14.0077882  )
        41           O1  tau(  41) = (   4.5188486   4.4223494  16.2648515  )
        42           O1  tau(  42) = (   1.9503339   4.4212135  16.2149618  )
        43           Ti1 tau(  43) = (   3.2437237   5.9355098  15.8441963  )
        44           Ti1 tau(  44) = (   6.5553982   4.5528429  15.8874093  )
        45           O1  tau(  45) = (   3.2900926   2.9813045   4.7018136  )
        46           O1  tau(  46) = (   1.3039711   4.4726057   6.0039043  )
        47           O1  tau(  47) = (   5.2763189   4.4711207   6.0039473  )
        48           N1  tau(  48) = (   4.8610398   4.5874730  19.4696787  )
        49           C1  tau(  49) = (   5.7160696   3.4361615  19.7992100  )
        50           H1  tau(  50) = (   6.3167775   3.1708974  18.9278147  )
        51           H1  tau(  51) = (   6.4091998   3.7194322  20.5918753  )
        52           H1  tau(  52) = (   5.1701995   2.5386747  20.1112570  )
        53           H1  tau(  53) = (   5.9097772   5.7398685  18.1722252  )
        54           H1  tau(  54) = (   4.2049604   4.3367293  18.7365089  )
        55           H1  tau(  55) = (   4.3135204   4.8642539  20.2763261  )

     number of k points=    10  Fermi-Dirac smearing, width (Ry)=  0.0073
                       cart. coord. in units 2pi/alat
        k(    1) = (   0.0000000   0.0000000   0.0000000), wk =   0.0625000
        k(    2) = (   0.0000000   0.0419351   0.0000000), wk =   0.1250000
        k(    3) = (   0.0000000  -0.0838702   0.0000000), wk =   0.0625000
        k(    4) = (   0.0379955   0.0000049   0.0000000), wk =   0.1250000
        k(    5) = (   0.0379955   0.0419400   0.0000000), wk =   0.1250000
        k(    6) = (   0.0379955  -0.0838652   0.0000000), wk =   0.1250000
[...]
  @ DRIVER MODE: Reading and sharing positions
  @ DRIVER MODE: Received positions
     NEW-OLD atomic charge density approx. for the potential

[...]

     Generating pointlists ...

[...]

     Generating pointlists ...

     Self-consistent Calculation

[...]

     iteration # 19     ecut=    29.40 Ry     beta= 0.05
     Davidson diagonalization with overlap
     ethr =  1.74E-10,  avg # of iterations =  1.9

[...]

     total energy              =   -2922.77442031 Ry
     estimated scf accuracy    <       0.00000010 Ry

[...]

     iteration # 26     ecut=    29.40 Ry     beta= 0.05
     Davidson diagonalization with overlap
     c_bands:  1 eigenvalues not converged
     c_bands:  1 eigenvalues not converged
     c_bands:  1 eigenvalues not converged
     c_bands:  2 eigenvalues not converged
     ethr =  2.50E-11,  avg # of iterations = 16.6

[...]

     Magnetic moment per site  (integrated on atomic sphere of radius R)
     atom   1 (R=0.742)  charge=  8.0777  magn=  0.0851
     atom   2 (R=0.742)  charge=  8.0588  magn=  0.0038
     atom   3 (R=0.405)  charge=  2.0059  magn= -0.0060
     atom   4 (R=0.405)  charge=  2.0173  magn= -0.0005
     atom   5 (R=0.405)  charge=  2.0089  magn= -0.0014
     atom   6 (R=0.405)  charge=  2.0091  magn= -0.0014
     atom   7 (R=0.742)  charge=  8.0596  magn=  0.0075
     atom   8 (R=0.742)  charge=  8.0626  magn=  0.0883
     atom   9 (R=0.405)  charge=  2.0097  magn= -0.0008
     atom  10 (R=0.405)  charge=  2.0103  magn= -0.0032
     atom  11 (R=0.405)  charge=  2.0075  magn= -0.0013
     atom  12 (R=0.405)  charge=  2.0075  magn= -0.0013
     atom  13 (R=0.742)  charge=  8.0733  magn=  0.0261
     atom  14 (R=0.742)  charge=  8.0659  magn=  0.0141
     atom  15 (R=0.405)  charge=  2.0114  magn= -0.0004
     atom  16 (R=0.405)  charge=  2.0092  magn= -0.0003
     atom  17 (R=0.405)  charge=  1.9991  magn= -0.0000
     atom  18 (R=0.405)  charge=  2.0000  magn= -0.0000
     atom  19 (R=0.742)  charge=  8.1054  magn= -0.0004
     atom  20 (R=0.742)  charge=  8.1232  magn=  0.0011
     atom  21 (R=0.405)  charge=  1.9809  magn= -0.0014
     atom  22 (R=0.405)  charge=  2.0184  magn= -0.0000
     atom  23 (R=0.405)  charge=  2.0062  magn= -0.0042
     atom  24 (R=0.405)  charge=  2.0063  magn= -0.0042
     atom  25 (R=0.742)  charge=  8.0778  magn=  0.0854
     atom  26 (R=0.742)  charge=  8.0588  magn=  0.0038
     atom  27 (R=0.405)  charge=  2.0059  magn= -0.0060
     atom  28 (R=0.405)  charge=  2.0174  magn= -0.0005
     atom  29 (R=0.405)  charge=  2.0091  magn= -0.0014
     atom  30 (R=0.405)  charge=  2.0093  magn= -0.0014
     atom  31 (R=0.742)  charge=  8.0598  magn=  0.0074
     atom  32 (R=0.742)  charge=  8.0625  magn=  0.0877
     atom  33 (R=0.405)  charge=  2.0104  magn= -0.0009
     atom  34 (R=0.405)  charge=  2.0109  magn= -0.0031
     atom  35 (R=0.405)  charge=  2.0064  magn= -0.0013
     atom  36 (R=0.405)  charge=  2.0078  magn= -0.0013
     atom  37 (R=0.742)  charge=  8.0649  magn=  0.0274
     atom  38 (R=0.742)  charge=  8.0661  magn=  0.0141
     atom  39 (R=0.405)  charge=  2.0096  magn= -0.0002
     atom  40 (R=0.405)  charge=  2.0107  magn= -0.0003
     atom  41 (R=0.405)  charge=  2.0002  magn= -0.0000
     atom  42 (R=0.405)  charge=  2.0006  magn= -0.0000
     atom  43 (R=0.742)  charge=  8.1045  magn= -0.0004
     atom  44 (R=0.742)  charge=  8.1257  magn=  0.0007
     atom  45 (R=0.405)  charge=  1.9809  magn= -0.0014
     atom  46 (R=0.405)  charge=  2.0062  magn= -0.0042
     atom  47 (R=0.405)  charge=  2.0063  magn= -0.0042
     atom  48 (R=0.418)  charge=  1.3247  magn=  0.0000
     atom  49 (R=0.450)  charge=  0.8494  magn= -0.0000
     atom  50 (R=0.405)  charge=  0.4129  magn= -0.0000
     atom  51 (R=0.405)  charge=  0.4136  magn= -0.0000
     atom  52 (R=0.405)  charge=  0.4123  magn= -0.0000
     atom  53 (R=0.405)  charge=  0.3965  magn= -0.0000
     atom  54 (R=0.405)  charge=  0.4207  magn=  0.0000
     atom  55 (R=0.405)  charge=  0.4246  magn= -0.0000

     End of self-consistent calculation

 ------ SPIN UP ------------

[...]

 ------ SPIN DOWN ----------

[...]

          k = 0.0380-0.0419 0.0000 ( 17876 PWs)   bands (ev):

[...]

          k =-0.0760-0.0839 0.0000 ( 17948 PWs)   bands (ev):

   -55.2826 -55.2793 -55.1483 -55.1467 -55.1466 -55.1335 -55.1328 -55.1267
   -55.1222 -55.0804 -55.0275 -54.9839 -54.9766 -54.9732 -54.2734 -54.2732
   -31.6797 -31.6744 -31.5877 -31.5850 -31.5532 -31.5213 -31.5201 -31.4956
   -31.4948 -31.4889 -31.4849 -31.4547 -31.4496 -31.4308 -31.4217 -31.4205
   -31.4171 -31.4115 -31.4071 -31.3981 -31.3685 -31.3608 -31.3563 -31.3440
   -31.3402 -31.3278 -31.3268 -31.3261 -31.3243 -31.2970 -31.2825 -31.2781
   -31.2686 -31.2573 -31.2560 -31.2539 -31.2517 -31.2471 -31.2306 -31.1775
   -31.1440 -31.1408 -30.5938 -30.5938 -30.5145 -30.5143 -30.4731 -30.4730
   -16.7669 -15.8218 -15.5957 -15.5441 -15.5035 -15.4079 -15.3298 -15.3027
   -15.2924 -15.2796 -15.1542 -15.1244 -15.1136 -15.0855 -15.0551 -15.0268
   -15.0236 -14.9930 -14.9357 -14.9286 -14.9212 -14.9129 -14.8461 -14.8374
   -14.8337 -14.8276 -14.7587 -14.7564 -14.6745 -14.6726 -12.7829 -12.7828
   -10.0266  -5.8561  -4.8724  -4.4096  -3.5350  -2.8178  -2.7992  -2.7474
    -2.7125  -2.6024  -2.5243  -2.5017  -2.4647  -2.3967  -2.3476  -2.3038
    -2.3032  -2.2712  -2.2424  -2.2296  -2.1867  -2.1597  -2.1383  -2.1206
    -2.1052  -2.0559  -2.0446  -2.0360  -2.0210  -1.9817  -1.9649  -1.9540
    -1.9293  -1.9135  -1.8843  -1.8657  -1.7279  -1.7092  -1.6742  -1.5565
    -1.5301  -1.5267  -1.5005  -1.4561  -1.4303  -1.4150  -1.3380  -1.3336
    -1.3099  -1.1533  -1.0761  -1.0740  -1.0552  -1.0315  -0.9356  -0.8832
    -0.8403  -0.7909  -0.7185  -0.6851  -0.6698  -0.5968  -0.5712  -0.4780
    -0.3904  -0.3575  -0.3495  -0.2697  -0.2676  -0.2356  -0.2223  -0.1557
    -0.0882  -0.0398  -0.0357  -0.0305   0.0904   0.1291   0.2072   0.3210
     0.4001   0.4084   0.4576   0.5195   0.5959   0.6482   0.6627   0.7910
     0.7933   0.9787   0.9833   1.0254   1.0404   1.1261   1.1310   2.0815
     2.0822   2.1768   2.1771   3.7649   3.9420   4.0002   4.0927   4.1141
     4.2049   4.3033   4.3493   4.3650   4.4010   4.4099

     the Fermi energy is     3.8518 ev

!    total energy              =   -2922.77442317 Ry
     estimated scf accuracy    <       0.00000007 Ry
     smearing contrib. (-TS)   =      -0.04436685 Ry
     internal energy E=F+TS    =   -2922.73005632 Ry

     The total energy is F=E-TS. E is the sum of the following terms:
     one-electron contribution =  -23206.05265140 Ry
     hartree contribution      =   11693.33281265 Ry
     xc contribution           =    -482.55565848 Ry
     ewald contribution        =    9072.54168764 Ry
     electric field correction =       0.00375326 Ry

     total magnetization       =     0.60 Bohr mag/cell
     absolute magnetization    =     0.84 Bohr mag/cell

     convergence has been achieved in  26 iterations

     Forces acting on atoms (cartesian axes, Ry/au):

     atom    1 type  1   force =     0.00018953   -0.00008070    0.09311271
     atom    2 type  1   force =     0.00003172   -0.00015342   -0.17907696
     atom    3 type  2   force =     0.00005399   -0.00030648   -0.01999866
     atom    4 type  2   force =     0.00002533   -0.00225305    0.06130670
     atom    5 type  2   force =    -0.01178247   -0.00123901    0.01063542
     atom    6 type  2   force =     0.01279867   -0.00053831    0.00832060
     atom    7 type  1   force =    -0.00112781    0.00336759   -0.01536825
     atom    8 type  1   force =     0.00117404   -0.00366844   -0.00961824
     atom    9 type  2   force =     0.00005352    0.00001650   -0.00016865
     atom   10 type  2   force =    -0.00262939   -0.00060902    0.00226167
     atom   11 type  2   force =    -0.00003125   -0.00013533   -0.00016089
     atom   12 type  2   force =     0.00004707    0.00008930   -0.00004551
     atom   13 type  1   force =    -0.00003697   -0.00014589   -0.00026425
     atom   14 type  1   force =    -0.00018135   -0.00001398    0.00015046
     atom   15 type  2   force =    -0.00002044   -0.00015552   -0.00014420
     atom   16 type  2   force =     0.00014103    0.00017307   -0.00021741
     atom   17 type  2   force =     0.00064940    0.00016571   -0.00036300
     atom   18 type  2   force =    -0.00000332   -0.00020657    0.00000134
     atom   19 type  1   force =     0.00024124    0.00019368   -0.00010943
     atom   20 type  1   force =     0.00021603    0.00015102    0.00027433
     atom   21 type  2   force =     0.00014969   -0.00003098    0.10433650
     atom   22 type  2   force =    -0.00052784   -0.00003568    0.00020537
     atom   23 type  2   force =    -0.06978600   -0.00010112   -0.02683869
     atom   24 type  2   force =     0.06981097    0.00035313   -0.02683482
     atom   25 type  1   force =     0.00020714   -0.00018321    0.09236389
     atom   26 type  1   force =    -0.00004501   -0.00034710   -0.17925332
     atom   27 type  2   force =     0.00008751   -0.00024792   -0.01880226
     atom   28 type  2   force =     0.00009327   -0.00194115    0.06057071
     atom   29 type  2   force =    -0.01194945   -0.00158391    0.01039054
     atom   30 type  2   force =     0.01283528   -0.00118373    0.00804311
     atom   31 type  1   force =    -0.00093500    0.00596402   -0.01619696
     atom   32 type  1   force =     0.00114395    0.00338699   -0.00981891
     atom   33 type  2   force =    -0.00001727    0.00012357   -0.00007372
     atom   34 type  2   force =    -0.00224665   -0.00059981    0.00098004
     atom   35 type  2   force =     0.00004055    0.00002791   -0.00003352
     atom   36 type  2   force =    -0.00000481   -0.00011356    0.00026528
     atom   37 type  1   force =     0.00025012    0.00007953    0.00005049
     atom   38 type  1   force =    -0.00048232   -0.00024239    0.00034613
     atom   39 type  2   force =     0.00028398   -0.00015228    0.00047288
     atom   40 type  2   force =     0.00002678   -0.00008743   -0.00015327
     atom   41 type  2   force =     0.00015506    0.00020783   -0.00026744
     atom   42 type  2   force =     0.00022395    0.00011998   -0.00008035
     atom   43 type  1   force =     0.00012895   -0.00006003   -0.00018706
     atom   44 type  1   force =     0.00012784   -0.00092847    0.00060206
     atom   45 type  2   force =     0.00014466   -0.00004854    0.10428947
     atom   46 type  2   force =    -0.06980295   -0.00006234   -0.02682790
     atom   47 type  2   force =     0.06984248    0.00034220   -0.02684549
     atom   48 type  3   force =     0.00007353   -0.00027786   -0.00056853
     atom   49 type  4   force =     0.00084004    0.00142126   -0.00052331
     atom   50 type  5   force =    -0.00023006    0.00022690    0.00026924
     atom   51 type  5   force =    -0.00060097   -0.00033589    0.00000288
     atom   52 type  5   force =    -0.00011121   -0.00039041    0.00011679
     atom   53 type  5   force =     0.00024754    0.00077038   -0.00075770
     atom   54 type  5   force =     0.00018712    0.00038737   -0.00012439
     atom   55 type  5   force =     0.00003057    0.00089158    0.00035449

     Total force =     0.368094     Total SCF correction =     0.000765
  @ DRIVER MODE: Message from server: STATUS
  @ DRIVER MODE: Message from server: GETFORCE
  @ DRIVER MODE: Returning v,forces,stress,ensemble

     Writing output data file ./calc.save/
  @ DRIVER MODE: Message from server: STATUS
  @ DRIVER MODE: Message from server: INIT
  @ DRIVER MODE: Receiving replica           0           0
  @ DRIVER MODE: Receiving encoded integer           2
  @ DRIVER MODE:  SCF:  T  FORCE:  T  STRESS:  F  VC:  F  ENSEMBLE:  F
  @ DRIVER MODE:  SCF:  F  FORCE:  F  STRESS:  F  VC:  F  ENSEMBLE:  T
  @ DRIVER MODE: Message from server: STATUS
  @ DRIVER MODE: Message from server: POSDATA
  @ DRIVER MODE: Reading and sharing positions
  @ DRIVER MODE: Received positions
     NEW-OLD atomic charge density approx. for the potential

[...]

     Adding external electric field

     Computed dipole along edir(3) :
        Dipole                1.4103 Ry au,          3.5846 Debye
        Dipole field          0.0027 Ry au,

        Potential amp.       -0.2467 Ry
        Total length         46.3494 bohr

     Generating pointlists ...
  @ DRIVER MODE: BEEF-vdw

[...]

     negative rho (up, down):  7.257E-03 7.258E-03

     negative rho (up, down):  7.257E-03 7.258E-03
 BEEFens 2000 ensemble energies
             -0.346408749568890E+02
             -0.200605249832172E+01
             -0.713555568475019E+01
              0.240462830790639E+02
             -0.119147620491569E+02
             -0.920485845877172E+01
             -0.240469642352338E+02
             -0.502685632814943E+02
             -0.214439822331091E+02
             -0.225774567186330E+02
             -0.209614035427629E+02
              0.425248601007453E+01
              0.198204826574509E+01
             -0.106378525887907E+01
              0.172462639650736E+01
              0.264851676550392E+02
             -0.102082956858769E+02
             -0.718610855051151E+01
              0.117190683313302E+02
             -0.618692135441672E+02
              0.310080172946695E+02
             -0.132984650864038E+02
             -0.240643395622168E+01
             -0.560193333242746E+01
             -0.947106268660093E+00
             -0.211849332953183E+01
              0.479813952888397E+02
             -0.150200446707262E+02
             -0.400552044696013E+01
             -0.303307112840149E+02
              0.391975348116778E+02
             -0.432281363821031E+01
             -0.213370109007054E+02
              0.112024454954537E+02
             -0.205315604056986E+01
              0.130105972432820E+02
             -0.545831967958009E+00
              0.271874993227370E+01
              0.189267928010287E+02
             -0.545918980736778E+02
              0.304387065568660E+02
              0.811711506194318E+01
             -0.626205965592771E+01
             -0.174489681520884E+02
              0.689342340697115E+01
             -0.109527568996245E+02
              0.248787245604907E+02
              0.198706208728858E+02
             -0.128059352197666E+02
             -0.163404786403971E+02
             -0.172768241942952E+02
             -0.207832728397744E+02
              0.105692034059540E+02
             -0.270575965449491E+02
              0.829507621960141E+01
              0.345771542435358E+02
              0.398661768942414E+02
              0.185781317348523E+02
              0.829450423712755E+01
              0.173419886230275E+02
[...]
             -0.407662184196077E+02
              0.279762992579322E+01
             -0.144343829255371E+01
             -0.567260657831497E+01
              0.389598149507151E-01
             -0.362869416086889E+02
             -0.699003558832356E+01
              0.493243923512048E+01
              0.742122083302840E+01
              0.272004794762388E+02
             -0.237654171409130E+02
              0.310115659307930E+02
             -0.222146154401613E+02
              0.142909650197485E+02
              0.224698386589731E+02

 BEEF-vdW xc energy contributions
           1 :   -408.781918077838
           2 :    355.925704550012
           3 :   -270.813615495318
           4 :    182.206551078344
           5 :   -112.804602726471
           6 :    71.4374506645124
           7 :   -54.2278074253975
           8 :    51.1215592988416
           9 :   -52.7546824249306
          10 :    53.9365093117301
          11 :   -53.4424193441631
          12 :    51.8205390422106
          13 :   -49.5242829292652
          14 :    46.3386563253621
          15 :   -41.9182019060256
          16 :    36.4481567585775
          17 :   -30.8310691986799
          18 :    26.2468831005257
          19 :   -23.5434861309990
          20 :    22.8476212722488
          21 :   -23.6498049336143
          22 :    25.1582499602968
          23 :   -26.6641163697343
          24 :    27.6745731397135
          25 :   -27.8910671925076
          26 :    27.1418383815209
          27 :   -25.4049656337743
          28 :    22.8713918396272
          29 :   -19.9870342174461
          30 :    17.3545732984001
          31 :   -48.0741966038568
          32 :   -32.5998615087473
  @ DRIVER MODE: Message from server: STATUS
  @ DRIVER MODE: Message from server: GETFORCE
  @ DRIVER MODE: Returning v,forces,stress,ensemble
  @ DRIVE MODE: Returning Ensemble Energies

     Writing output data file ./calc.save/
  @ DRIVER MODE: Message from server: EXIT
  @ DRIVE MODE: Exiting

     General routines

     Parallel routines

   This run was terminated on:  17: 2: 3   2Aug2021

   JOB DONE.