     Program PWSCF v.6.7GPU starts on 19Oct2021 at  3:59:54

     R & G space division:  proc/nbgrp/npool/nimage =       8
     Reading input from /storage/home/hcoda1/3/ntian30/research/carbon/CxH_vib/Thiel_calc/ads_slab/NH2NH2HH_perslab/out_0034/pw.inp
Warning: card &CELL ignored
Warning: card   CELL_DYNAMICS='IPI', ignored
Warning: card / ignored

     Current dimensions of program PWSCF are:
     Max number of different atomic species (ntypx) = 10
     Max number of k-points (npk) =  40000
     Max angular momentum in pseudopotentials (lmaxx) =  3
     Presently no symmetry can be used with electric field

     Message from routine cell_base_init:
     DEPRECATED: use true lattice parameter, not A to a.u. conversion factor

     IMPORTANT: XC functional enforced from input :
     Exchange-correlation= BEEF-VDW
                           (   1   4  43  14   2   0   0)
     Any further DFT definition will be discarded
     Please, verify this is what you really want

  @ DRIVER MODE: Connecting to
 qe_1139763_3255137.sched-torque.pace.gatech.edud8y1lgui_scratch
  using UNIX socket
  @ DRIVER MODE: Message from server: STATUS
  @ DRIVER MODE: Message from server: INIT
  @ DRIVER MODE: Receiving replica           0          -1
  @ DRIVER MODE: Receiving encoded integer          25
  @ DRIVER MODE:  SCF:  T  FORCE:  T  STRESS:  F  VC:  F  ENSEMBLE:  F
  @ DRIVER MODE:  SCF:  T  FORCE:  T  STRESS:  F  VC:  F  ENSEMBLE:  F

     Using Slab Decomposition

     bravais-lattice index     =            0
     lattice parameter (alat)  =       1.8897  a.u.
     unit-cell volume          =    9988.4706 (a.u.)^3
     number of atoms/cell      =           61
     number of atomic types    =            4
     number of electrons       =       442.00
     number of Kohn-Sham states=          231
     kinetic-energy cutoff     =      29.3995  Ry
     charge density cutoff     =     293.9946  Ry
     scf convergence threshold =      7.3E-08
     mixing beta               =       0.0500
     number of iterations used =            8  plain     mixing
     Exchange-correlation= BEEF-VDW
                           (   1   4  43  14   2   0   0)

     celldm(1)=   1.889726  celldm(2)=   0.000000  celldm(3)=   0.000000
     celldm(4)=   0.000000  celldm(5)=   0.000000  celldm(6)=   0.000000

     crystal axes: (cart. coord. in units of alat)
               a(1) = (   6.579727   0.000000   0.000000 )
               a(2) = (  -0.001163   8.942395   0.000000 )
               a(3) = (   0.000000   0.000000  25.155947 )

     reciprocal axes: (cart. coord. in units 2 pi/alat)
               b(1) = (  0.151982  0.000020  0.000000 )
               b(2) = (  0.000000  0.111827  0.000000 )
               b(3) = (  0.000000  0.000000  0.039752 )

     PseudoPot. # 1 for O  read from file:
     /storage/coda1/p-amedford6/0/shared/rich_project_chbe-medford/medford-share/data/pseudos_module/espresso/nninc/pbe/van/O.UPF
     MD5 check sum: 78c19812648e8988a0fe644b0f25305e
     Pseudo is Ultrasoft, Zval =  6.0
     Generated by new atomic code, or converted to UPF format
     Using radial grid of  737 points,  4 beta functions with:
                l(1) =   0
                l(2) =   0
                l(3) =   1
                l(4) =   1
     Q(r) pseudized with  8 coefficients,  rinner =    0.800   0.800   0.800

     PseudoPot. # 2 for Ti read from file:
     /storage/coda1/p-amedford6/0/shared/rich_project_chbe-medford/medford-share/data/pseudos_module/espresso/nninc/pbe/van/Ti.UPF
     MD5 check sum: 8e4df49b7f0d34bbd5052bf3f5ea0213
     Pseudo is Ultrasoft, Zval = 12.0
     Generated by new atomic code, or converted to UPF format
     Using radial grid of  851 points,  6 beta functions with:
                l(1) =   0
                l(2) =   0
                l(3) =   1
                l(4) =   1
                l(5) =   2
                l(6) =   2
     Q(r) pseudized with  8 coefficients,  rinner =    1.000   1.000   1.000
                                                       1.000   1.000

     PseudoPot. # 3 for N  read from file:
     /storage/coda1/p-amedford6/0/shared/rich_project_chbe-medford/medford-share/data/pseudos_module/espresso/nninc/pbe/van/N.UPF
     MD5 check sum: 90d10febe142ad51ac9d5be1deb811c4
     Pseudo is Ultrasoft, Zval =  5.0
     Generated by new atomic code, or converted to UPF format
     Using radial grid of  729 points,  4 beta functions with:
                l(1) =   0
                l(2) =   0
                l(3) =   1
                l(4) =   1
     Q(r) pseudized with  8 coefficients,  rinner =    0.800   0.800   0.800

     PseudoPot. # 4 for H  read from file:
     /storage/coda1/p-amedford6/0/shared/rich_project_chbe-medford/medford-share/data/pseudos_module/espresso/nninc/pbe/van/H.UPF
     MD5 check sum: b5ee9d7bfd3a09ee7748110bda690ff7
     Pseudo is Ultrasoft, Zval =  1.0
     Generated by new atomic code, or converted to UPF format
     Using radial grid of  615 points,  1 beta functions with:
                l(1) =   0
     Q(r) pseudized with  8 coefficients,  rinner =    0.800

     atomic species   valence    mass     pseudopotential
        O1             6.00    15.99900     O ( 1.00)
        Ti1           12.00    47.86700     Ti( 1.00)
        N1             5.00    14.00700     N ( 1.00)
        H1             1.00     1.00800     H ( 1.00)

     No symmetry found

   Cartesian axes

     site n.     atom                  positions (alat units)
         1           O1  tau(   1) = (   0.0007354   0.0005023  10.5931620  )
         2           O1  tau(   2) = (   3.2456387   0.0208629  13.8623892  )
         3           O1  tau(   3) = (   6.5569189   0.0555649  17.3369326  )
         4           O1  tau(   4) = (   0.0006271   0.0005054   7.9858123  )
         5           O1  tau(   5) = (   3.2933513   8.9300833  11.1812556  )
         6           O1  tau(   6) = (   0.0337597   0.0712708  14.6279364  )
         7           O1  tau(   7) = (   1.9868534   1.4903216   9.2879459  )
         8           O1  tau(   8) = (   5.2215124   1.6184176  12.5791628  )
         9           O1  tau(   9) = (   1.9922958   1.5902288  16.0980526  )
        10           Ti1 tau(  10) = (   0.0007404   1.4906270   9.2895810  )
        11           Ti1 tau(  11) = (   3.2860490   1.3455809  12.4359399  )
        12           Ti1 tau(  12) = (   6.5618936   1.3602716  15.8812525  )
        13           O1  tau(  13) = (   4.5942328   1.4918067   9.2879030  )
        14           O1  tau(  14) = (   1.3307156   1.5887400  12.5381291  )
        15           O1  tau(  15) = (   4.5725103   1.6118788  16.0006659  )
        16           Ti1 tau(  16) = (   3.2902859   2.9801868   9.2893338  )
        17           Ti1 tau(  17) = (   0.0046584   2.8227806  12.4510757  )
        18           Ti1 tau(  18) = (   3.2555632   2.8898243  15.6661830  )
        19           O1  tau(  19) = (   0.0003479   2.9813005  10.5931620  )
        20           O1  tau(  20) = (   3.2279248   2.9553539  13.8813459  )
        21           O1  tau(  21) = (   0.0002396   2.9813036   7.9858123  )
        22           O1  tau(  22) = (   3.2889556   2.9859946  11.1941525  )
        23           O1  tau(  23) = (   0.0559812   2.9852445  14.6488683  )
        24           O1  tau(  24) = (   1.9864658   4.4711199   9.2879459  )
        25           O1  tau(  25) = (   5.2314886   4.5920767  12.6107679  )
        26           O1  tau(  26) = (   1.9969377   4.5324570  16.1535429  )
        27           Ti1 tau(  27) = (   0.0003529   4.4714252   9.2895810  )
        28           Ti1 tau(  28) = (   3.2845268   4.3564118  12.5295435  )
        29           Ti1 tau(  29) = (   6.5676402   4.3565080  15.8255799  )
        30           O1  tau(  30) = (   4.5938453   4.4726049   9.2879030  )
        31           O1  tau(  31) = (   1.3315080   4.5776727  12.5731030  )
        32           O1  tau(  32) = (   4.5871741   4.4544688  15.9274438  )
        33           Ti1 tau(  33) = (   3.2898983   5.9609850   9.2893338  )
        34           Ti1 tau(  34) = (   6.5783773   5.8108302  12.4536689  )
        35           Ti1 tau(  35) = (   3.3162440   5.8110762  16.0333210  )
        36           O1  tau(  36) = (  -0.0000397   5.9620987  10.5931620  )
        37           O1  tau(  37) = (   3.2636778   5.9869953  13.9790019  )
        38           O1  tau(  38) = (   6.4104969   6.0475349  17.2872242  )
        39           O1  tau(  39) = (  -0.0001480   5.9621018   7.9858123  )
        40           O1  tau(  40) = (   3.2905218   5.9516507  11.2202175  )
        41           O1  tau(  41) = (   0.0617018   5.9803669  14.6637187  )
        42           O1  tau(  42) = (   1.9860782   7.4519181   9.2879459  )
        43           O1  tau(  43) = (   5.2407037   7.5572870  12.6049163  )
        44           O1  tau(  44) = (   1.9881273   7.5959696  16.0809372  )
        45           Ti1 tau(  45) = (  -0.0000347   7.4522234   9.2895810  )
        46           Ti1 tau(  46) = (   3.2912638   7.2305267  12.6172466  )
        47           Ti1 tau(  47) = (   0.0232661   7.3094817  15.9177444  )
        48           O1  tau(  48) = (   4.5934577   7.4534031   9.2879030  )
        49           O1  tau(  49) = (   1.3287160   7.5404973  12.5734398  )
        50           O1  tau(  50) = (   4.6507959   7.6754627  15.9163669  )
        51           Ti1 tau(  51) = (   3.2895107   8.9417832   9.2893338  )
        52           Ti1 tau(  52) = (   0.0077981   8.7799231  12.4640552  )
        53           Ti1 tau(  53) = (   3.2910717   8.8534038  15.6608489  )
        54           N1  tau(  54) = (   3.7626148   6.0985185  18.0019073  )
        55           H1  tau(  55) = (   3.4663780   5.3841571  18.6619304  )
        56           H1  tau(  56) = (   3.5565419   6.9988739  18.4208443  )
        57           N1  tau(  57) = (   6.5319303   3.0529623  17.4095181  )
        58           H1  tau(  58) = (   5.7013393   3.0140474  17.9904383  )
        59           H1  tau(  59) = (   0.7603229   3.1106543  18.0203722  )
        60           H1  tau(  60) = (   5.4974376   6.0468821  17.7423635  )
        61           H1  tau(  61) = (   0.7324116   0.0679216  17.9402240  )

     number of k points=    10  Fermi-Dirac smearing, width (Ry)=  0.0073
                       cart. coord. in units 2pi/alat
        k(    1) = (   0.0000000   0.0000000   0.0000000), wk =   0.1250000
        k(    2) = (   0.0000000   0.0279567   0.0000000), wk =   0.2500000
        k(    3) = (   0.0000000  -0.0559134   0.0000000), wk =   0.1250000
        k(    4) = (   0.0379955   0.0000049   0.0000000), wk =   0.2500000
        k(    5) = (   0.0379955   0.0279617   0.0000000), wk =   0.2500000
        k(    6) = (   0.0379955  -0.0559085   0.0000000), wk =   0.2500000
        k(    7) = (   0.0379955  -0.0279518   0.0000000), wk =   0.2500000
        k(    8) = (  -0.0759910  -0.0000099   0.0000000), wk =   0.1250000
        k(    9) = (  -0.0759910   0.0279468   0.0000000), wk =   0.2500000
        k(   10) = (  -0.0759910  -0.0559233   0.0000000), wk =   0.1250000

     Initial potential from superposition of free atoms

     starting charge  423.99908, renormalised to  442.00000

     negative rho (up, down):  3.745E-02 0.000E+00

     %%%%%%%%%%%%%%%%%%%%%%%%%%%%%%%%%%%%%%%%%%%%%%%%%%%%%%%%%%%%%%%%%%%%%%%%
     %                                                                      %
     % You are using vdW-DF, which was implemented by the Thonhauser group. %
     % Please cite the following two papers that made this development      %
     % possible and the two reviews that describe the various versions:     %
     %                                                                      %
     %   T. Thonhauser et al., PRL 115, 136402 (2015).                      %
     %   T. Thonhauser et al., PRB 76, 125112 (2007).                       %
     %   K. Berland et al., Rep. Prog. Phys. 78, 066501 (2015).             %
     %   D.C. Langreth et al., J. Phys.: Condens. Matter 21, 084203 (2009). %
     %                                                                      %
     %                                                                      %
     % If you are calculating the stress with vdW-DF, please also cite:     %
     %                                                                      %
     %   R. Sabatini et al., J. Phys.: Condens. Matter 24, 424209 (2012).   %
     %                                                                      %
     %%%%%%%%%%%%%%%%%%%%%%%%%%%%%%%%%%%%%%%%%%%%%%%%%%%%%%%%%%%%%%%%%%%%%%%%

     Adding external electric field

     Computed dipole along edir(3) :
        Dipole               -5.9687 Ry au,        -15.1708 Debye
        Dipole field         -0.0075 Ry au,

        Potential amp.        0.6961 Ry
        Total length         46.3494 bohr

     Starting wfcs are  334 atomic wfcs
  @ DRIVER MODE: Message from server: STATUS
  @ DRIVER MODE: Message from server: POSDATA
  @ DRIVER MODE: Reading and sharing cell
  @ DRIVER MODE: Reading and sharing positions
  @ DRIVER MODE: Received positions

     Self-consistent Calculation

     iteration #  1     ecut=    29.40 Ry     beta= 0.05
     Davidson diagonalization with overlap
     c_bands:  1 eigenvalues not converged
     c_bands:  3 eigenvalues not converged
     c_bands:  5 eigenvalues not converged
     c_bands:  2 eigenvalues not converged
     c_bands:  4 eigenvalues not converged
     c_bands:  4 eigenvalues not converged
     c_bands:  4 eigenvalues not converged
     c_bands:  2 eigenvalues not converged
     c_bands:  5 eigenvalues not converged
     ethr =  1.00E-05,  avg # of iterations = 21.0

[...]

     total energy              =   -3277.93302739 Ry
     estimated scf accuracy    <     239.63075401 Ry

     iteration #  2     ecut=    29.40 Ry     beta= 0.05
     Davidson diagonalization with overlap
     ethr =  1.00E-02,  avg # of iterations = 16.2

[...]

     iteration # 33     ecut=    29.40 Ry     beta= 0.05
     Davidson diagonalization with overlap
     c_bands:  1 eigenvalues not converged
     ethr =  2.17E-06,  avg # of iterations = 13.4

[...]

     total energy              =   -3295.80755499 Ry
     estimated scf accuracy    <       0.00000009 Ry

     iteration # 59     ecut=    29.40 Ry     beta= 0.05
     Davidson diagonalization with overlap
     ethr =  2.13E-11,  avg # of iterations = 11.5

     negative rho (up, down):  3.606E-02 0.000E+00

     Adding external electric field

     Computed dipole along edir(3) :
        Dipole                1.5101 Ry au,          3.8382 Debye
        Dipole field          0.0019 Ry au,

        Potential amp.       -0.1761 Ry
        Total length         46.3494 bohr

     End of self-consistent calculation

          k = 0.0000 0.0000 0.0000 ( 26871 PWs)   bands (ev):

   -57.7247 -57.6990 -57.6889 -57.6628 -57.6535 -57.6203 -57.6066 -57.5986
   -57.5708 -57.5574 -57.5083 -57.4779 -57.4614 -57.4553 -57.4472 -56.7470
   -56.7228 -56.7183 -34.1063 -34.1034 -34.0945 -34.0855 -34.0737 -34.0566
   -34.0561 -34.0420 -34.0289 -34.0176 -33.9877 -33.9697 -33.9500 -33.9438
   -33.9362 -33.9177 -33.9127 -33.9111 -33.8926 -33.8874 -33.8655 -33.8633
   -33.8428 -33.8332 -33.8290 -33.8230 -33.8122 -33.8101 -33.8045 -33.7954
   -33.7838 -33.7819 -33.7677 -33.7323 -33.7228 -33.7189 -33.7040 -33.7033
   -33.6958 -33.6947 -33.6834 -33.6749 -33.6681 -33.6621 -33.6396 -33.0622
   -33.0612 -33.0566 -33.0451 -33.0408 -32.9730 -32.9110 -32.9057 -32.7728
   -19.3014 -18.7617 -18.5257 -18.2272 -18.0164 -17.9739 -17.9410 -17.8196
   -17.7841 -17.7600 -17.6626 -17.6515 -17.5877 -17.5341 -17.5060 -17.4573
   -17.4387 -17.3787 -17.3647 -17.3564 -17.3511 -17.3409 -17.3307 -17.2651
   -17.2380 -17.2100 -17.1710 -17.1553 -17.1486 -17.1412 -17.1188 -16.8461
   -15.4995 -15.2133 -15.1553 -15.1539 -15.0835  -6.9849  -6.8127  -6.6491
    -6.3424  -5.8604  -5.7867  -5.6374  -5.5136  -5.2213  -5.1939  -5.1424
    -5.1156  -5.0866  -5.0221  -5.0020  -4.9890  -4.9336  -4.9162  -4.8438
    -4.8208  -4.7793  -4.7555  -4.7298  -4.6849  -4.6446  -4.6178  -4.6056
    -4.5750  -4.5674  -4.5109  -4.4873  -4.4579  -4.4523  -4.4360  -4.3271
    -4.2947  -4.2383  -4.1692  -4.0918  -4.0394  -4.0314  -3.9747  -3.9557
    -3.9030  -3.8637  -3.8259  -3.8168  -3.7807  -3.7427  -3.6420  -3.6105
    -3.5876  -3.5223  -3.5007  -3.4316  -3.4143  -3.3801  -3.3391  -3.3326
    -3.2965  -3.1983  -3.1641  -3.0842  -3.0274  -2.9741  -2.9355  -2.8901
    -2.8438  -2.8105  -2.7854  -2.7027  -2.6277  -2.5439  -2.4935  -2.4808
    -2.4690  -2.4182  -2.4113  -2.4086  -2.3522  -2.3257  -2.3151  -2.2776
    -2.2257  -2.2030  -2.1409  -2.0958  -2.0608  -1.9930  -1.9775  -1.8968
    -1.8882  -1.8268  -1.7836  -1.7442  -1.6327  -1.5977  -1.5655  -1.5629
    -1.4441  -1.4078  -1.1455  -1.0046  -0.7871  -0.7545  -0.5004  -0.4516
    -0.4488  -0.1857  -0.1824  -0.0541   1.3221   1.5108   1.6445   1.7000
     1.7049   1.7384   1.8045   1.8910   1.9162   1.9635   1.9958

[...]

          k = 0.0380-0.0280 0.0000 ( 26873 PWs)   bands (ev):

[...]

          k =-0.0760-0.0000 0.0000 ( 26902 PWs)   bands (ev):

[...]

          k =-0.0760-0.0559 0.0000 ( 26868 PWs)   bands (ev):

   -57.7212 -57.7067 -57.6846 -57.6617 -57.6534 -57.6210 -57.6079 -57.5983
   -57.5701 -57.5571 -57.5085 -57.4728 -57.4654 -57.4609 -57.4424 -56.7408
   -56.7353 -56.7119 -34.1937 -34.1567 -34.1543 -34.0943 -34.0602 -34.0524
   -34.0419 -34.0393 -34.0018 -33.9678 -33.9343 -33.9206 -33.9148 -33.9135
   -33.9023 -33.9004 -33.8804 -33.8732 -33.8686 -33.8684 -33.8648 -33.8591
   -33.8539 -33.8457 -33.8313 -33.8264 -33.8239 -33.8188 -33.8143 -33.7936
   -33.7929 -33.7707 -33.7639 -33.7565 -33.7506 -33.7323 -33.7257 -33.7206
   -33.7007 -33.7006 -33.6988 -33.6954 -33.6861 -33.6680 -33.6509 -33.1510
   -33.0620 -33.0567 -33.0343 -32.9545 -32.9486 -32.8868 -32.8723 -32.8670
   -19.2879 -18.7361 -18.2719 -18.1351 -17.9633 -17.9223 -17.8480 -17.8348
   -17.8232 -17.7937 -17.7018 -17.6784 -17.6515 -17.5690 -17.5501 -17.5003
   -17.4565 -17.4433 -17.4251 -17.4140 -17.4059 -17.3893 -17.3554 -17.3232
   -17.2904 -17.2387 -17.1768 -17.1580 -17.1094 -17.0948 -17.0640 -16.8799
   -15.4942 -15.2114 -15.2092 -15.0925 -15.0848  -6.9895  -6.8442  -6.6416
    -6.3237  -5.5171  -5.4541  -5.3706  -5.3561  -5.2384  -5.2059  -5.0144
    -5.0043  -4.9897  -4.9574  -4.9255  -4.8896  -4.8629  -4.8386  -4.8250
    -4.8112  -4.7898  -4.7639  -4.7518  -4.7355  -4.6914  -4.6447  -4.6383
    -4.6274  -4.6050  -4.5505  -4.5054  -4.4776  -4.4252  -4.4222  -4.3417
    -4.3181  -4.2999  -4.2258  -4.2177  -4.0967  -3.9484  -3.8873  -3.8672
    -3.8432  -3.7956  -3.7857  -3.7320  -3.7103  -3.6930  -3.5563  -3.4742
    -3.4505  -3.4160  -3.3848  -3.3617  -3.3262  -3.2987  -3.2763  -3.2512
    -3.2350  -3.1819  -3.1654  -3.1225  -3.0802  -2.9987  -2.9548  -2.8971
    -2.8738  -2.8554  -2.8371  -2.8334  -2.8130  -2.7801  -2.7509  -2.6940
    -2.6861  -2.6559  -2.5843  -2.5298  -2.5014  -2.4769  -2.4348  -2.4278
    -2.2729  -2.2538  -2.2205  -2.2084  -2.1347  -2.0916  -1.9995  -1.9733
    -1.9508  -1.8790  -1.8075  -1.7641  -1.7078  -1.5112  -1.5025  -1.3835
    -1.3466  -1.2978  -1.2723  -1.2305  -1.0695  -0.7353  -0.6629  -0.3797
    -0.3685  -0.3424  -0.1870  -0.1807   1.4294   1.4530   1.5380   1.5943
     1.6131   1.6509   1.6637   1.7027   1.7232   1.7798   1.9156

     the Fermi energy is     1.3731 ev

!    total energy              =   -3295.80760271 Ry
     estimated scf accuracy    <       0.00000005 Ry
     smearing contrib. (-TS)   =      -0.03571775 Ry
     internal energy E=F+TS    =   -3295.77188496 Ry

     The total energy is F=E-TS. E is the sum of the following terms:
     one-electron contribution =  -34705.77117578 Ry
     hartree contribution      =   17418.79617162 Ry
     xc contribution           =    -543.86469117 Ry
     ewald contribution        =   14535.06494158 Ry
     electric field correction =       0.00286879 Ry

     convergence has been achieved in  59 iterations

     Forces acting on atoms (cartesian axes, Ry/au):

     atom    1 type  1   force =    -0.00168658    0.00377361    0.05471735
     atom    2 type  1   force =     0.00024554   -0.00250280   -0.00842373
     atom    3 type  1   force =     0.00042348   -0.00358586    0.00024444
     atom    4 type  1   force =     0.00004526   -0.00002443    0.10677541
     atom    5 type  1   force =    -0.00020404    0.00066411    0.00660774
     atom    6 type  1   force =     0.00004058   -0.00441304    0.00380179
     atom    7 type  1   force =     0.06648627    0.00080276   -0.02965056
     atom    8 type  1   force =     0.00659551   -0.02713209    0.00196404
     atom    9 type  1   force =     0.00669885   -0.02256031    0.00502955
     atom   10 type  2   force =    -0.00011318   -0.00451917   -0.18344219
     atom   11 type  2   force =     0.00067253    0.02087302   -0.00413353
     atom   12 type  2   force =    -0.00162230    0.02767676   -0.00645863
     atom   13 type  1   force =    -0.06654391    0.00045942   -0.02979539
     atom   14 type  1   force =    -0.00433711   -0.02770957    0.00254099
     atom   15 type  1   force =    -0.00649934   -0.02332823    0.00505368
     atom   16 type  2   force =     0.00008498    0.00068690    0.06700501
     atom   17 type  2   force =    -0.00238287    0.03352673    0.00349088
     atom   18 type  2   force =     0.00123714    0.02449876   -0.00363858
     atom   19 type  1   force =    -0.00169702    0.00675009    0.05327577
     atom   20 type  1   force =     0.00023889   -0.00116101   -0.00661495
     atom   21 type  1   force =     0.00003487    0.00110153    0.10724453
     atom   22 type  1   force =    -0.00025273   -0.00198277    0.00722015
     atom   23 type  1   force =     0.00070072   -0.00581460    0.00422022
     atom   24 type  1   force =     0.06752503    0.00136805   -0.02905810
     atom   25 type  1   force =     0.00528636   -0.03015638    0.00245895
     atom   26 type  1   force =     0.00668041   -0.02611985   -0.00408188
     atom   27 type  2   force =     0.00011273   -0.00120401   -0.18673261
     atom   28 type  2   force =     0.00008001    0.02386277   -0.00245955
     atom   29 type  2   force =    -0.00127552    0.02212575    0.00052756
     atom   30 type  1   force =    -0.06763038    0.00086543   -0.02891101
     atom   31 type  1   force =    -0.00537678   -0.02962149    0.00280005
     atom   32 type  1   force =    -0.00435991   -0.02243253    0.00253813
     atom   33 type  2   force =    -0.00004531    0.00133421    0.07475418
     atom   34 type  2   force =     0.00092339    0.03692367    0.00407373
     atom   35 type  2   force =    -0.00207684    0.03480287    0.00495016
     atom   36 type  1   force =    -0.00186645    0.00288243    0.05590564
     atom   37 type  1   force =     0.00131922    0.00401031   -0.01132905
     atom   38 type  1   force =     0.00017770   -0.00416197    0.00426148
     atom   39 type  1   force =     0.00002241   -0.00063948    0.10726288
     atom   40 type  1   force =     0.00015786   -0.00141211    0.00716071
     atom   41 type  1   force =    -0.00026599   -0.00390646    0.00183053
     atom   42 type  1   force =     0.06784636   -0.00221918   -0.02969714
     atom   43 type  1   force =     0.00369357   -0.02636194    0.00153469
     atom   44 type  1   force =     0.01001848   -0.01800417    0.00265468
     atom   45 type  2   force =     0.00003078    0.00218084   -0.18329593
     atom   46 type  2   force =    -0.00023704    0.01480115    0.00205363
     atom   47 type  2   force =     0.00297768    0.02651229   -0.00881696
     atom   48 type  1   force =    -0.06791169   -0.00284602   -0.02985393
     atom   49 type  1   force =    -0.00375703   -0.02550653    0.00183471
     atom   50 type  1   force =    -0.00792455   -0.02368712    0.00524403
     atom   51 type  2   force =     0.00045095   -0.00351309    0.06840159
     atom   52 type  2   force =    -0.00011151    0.03119167    0.00595239
     atom   53 type  2   force =    -0.00214234    0.02597501   -0.00056526
     atom   54 type  3   force =     0.00071182   -0.00196574   -0.00087770
     atom   55 type  4   force =    -0.00072527    0.00039689   -0.00050110
     atom   56 type  4   force =     0.00027993    0.00087980    0.00127877
     atom   57 type  3   force =     0.00198257   -0.00224647    0.00016161
     atom   58 type  4   force =     0.00052873    0.00104093   -0.00002124
     atom   59 type  4   force =    -0.00061928   -0.00026796    0.00032766
     atom   60 type  4   force =    -0.00140421    0.00009816    0.00008624
     atom   61 type  4   force =    -0.00124142   -0.00105957    0.00111344

     Total force =     0.459525     Total SCF correction =     0.000433
  @ DRIVER MODE: Message from server: STATUS
  @ DRIVER MODE: Message from server: GETFORCE
  @ DRIVER MODE: Returning v,forces,stress,ensemble

     Writing output data file ./calc.save/
  @ DRIVER MODE: Message from server: EXIT
  @ DRIVE MODE: Exiting

     General routines

     Parallel routines

   This run was terminated on:   4:29: 0  19Oct2021

   JOB DONE.