     Program PWSCF v.6.7GPU starts on 10Sep2021 at  5:42:46

     R & G space division:  proc/nbgrp/npool/nimage =      10
     Reading input from /storage/home/hcoda1/3/ntian30/research/carbon/CxH_vib/CH3_calc/ads_slab/CH3N2OH_l/out_0027/pw.inp
Warning: card &CELL ignored
Warning: card   CELL_DYNAMICS='IPI', ignored
Warning: card / ignored

     Current dimensions of program PWSCF are:
     Max number of different atomic species (ntypx) = 10
     Max number of k-points (npk) =  40000
     Max angular momentum in pseudopotentials (lmaxx) =  3
     Presently no symmetry can be used with electric field

     Message from routine cell_base_init:
     DEPRECATED: use true lattice parameter, not A to a.u. conversion factor

     IMPORTANT: XC functional enforced from input :
     Exchange-correlation= BEEF-VDW
                           (   1   4  43  14   2   0   0)
     Any further DFT definition will be discarded
     Please, verify this is what you really want

  @ DRIVER MODE: Connecting to
 qe_1139763_2779712.sched-torque.pace.gatech.edu3p1_gz5h_scratch
  using UNIX socket
  @ DRIVER MODE: Message from server: STATUS
  @ DRIVER MODE: Message from server: INIT
  @ DRIVER MODE: Receiving replica           0          -1
  @ DRIVER MODE: Receiving encoded integer          25
  @ DRIVER MODE:  SCF:  T  FORCE:  T  STRESS:  F  VC:  F  ENSEMBLE:  F
  @ DRIVER MODE:  SCF:  T  FORCE:  T  STRESS:  F  VC:  F  ENSEMBLE:  F

     Using Slab Decomposition

     bravais-lattice index     =            0
     lattice parameter (alat)  =       1.8897  a.u.
     unit-cell volume          =    6658.9804 (a.u.)^3
     number of atoms/cell      =           55
     number of atomic types    =            5
     number of electrons       =       402.00
     number of Kohn-Sham states=          211
     kinetic-energy cutoff     =      29.3995  Ry
     charge density cutoff     =     293.9946  Ry
     scf convergence threshold =      7.3E-08
     mixing beta               =       0.0500
     number of iterations used =            8  plain     mixing
     Exchange-correlation= BEEF-VDW
                           (   1   4  43  14   2   0   0)

     celldm(1)=   1.889726  celldm(2)=   0.000000  celldm(3)=   0.000000
     celldm(4)=   0.000000  celldm(5)=   0.000000  celldm(6)=   0.000000

     crystal axes: (cart. coord. in units of alat)
               a(1) = (   6.579727   0.000000   0.000000 )
               a(2) = (  -0.000775   5.961596   0.000000 )
               a(3) = (   0.000000   0.000000  25.155947 )

     reciprocal axes: (cart. coord. in units 2 pi/alat)
               b(1) = (  0.151982  0.000020  0.000000 )
               b(2) = (  0.000000  0.167740  0.000000 )
               b(3) = (  0.000000  0.000000  0.039752 )

     PseudoPot. # 1 for Ti read from file:
     /storage/coda1/p-amedford6/0/shared/rich_project_chbe-medford/medford-share/data/pseudos_module/espresso/nninc/pbe/van/Ti.UPF
     MD5 check sum: 8e4df49b7f0d34bbd5052bf3f5ea0213
     Pseudo is Ultrasoft, Zval = 12.0
     Generated by new atomic code, or converted to UPF format
     Using radial grid of  851 points,  6 beta functions with:
                l(1) =   0
                l(2) =   0
                l(3) =   1
                l(4) =   1
                l(5) =   2
                l(6) =   2
     Q(r) pseudized with  8 coefficients,  rinner =    1.000   1.000   1.000
                                                       1.000   1.000

     PseudoPot. # 2 for O  read from file:
     /storage/coda1/p-amedford6/0/shared/rich_project_chbe-medford/medford-share/data/pseudos_module/espresso/nninc/pbe/van/O.UPF
     MD5 check sum: 78c19812648e8988a0fe644b0f25305e
     Pseudo is Ultrasoft, Zval =  6.0
     Generated by new atomic code, or converted to UPF format
     Using radial grid of  737 points,  4 beta functions with:
                l(1) =   0
                l(2) =   0
                l(3) =   1
                l(4) =   1
     Q(r) pseudized with  8 coefficients,  rinner =    0.800   0.800   0.800

     PseudoPot. # 3 for N  read from file:
     /storage/coda1/p-amedford6/0/shared/rich_project_chbe-medford/medford-share/data/pseudos_module/espresso/nninc/pbe/van/N.UPF
     MD5 check sum: 90d10febe142ad51ac9d5be1deb811c4
     Pseudo is Ultrasoft, Zval =  5.0
     Generated by new atomic code, or converted to UPF format
     Using radial grid of  729 points,  4 beta functions with:
                l(1) =   0
                l(2) =   0
                l(3) =   1
                l(4) =   1
     Q(r) pseudized with  8 coefficients,  rinner =    0.800   0.800   0.800

     PseudoPot. # 4 for C  read from file:
     /storage/coda1/p-amedford6/0/shared/rich_project_chbe-medford/medford-share/data/pseudos_module/espresso/nninc/pbe/van/C.UPF
     MD5 check sum: 1a69bf6b8db32088f5b2163dbdb77a27
     Pseudo is Ultrasoft, Zval =  4.0
     Generated by new atomic code, or converted to UPF format
     Using radial grid of  721 points,  4 beta functions with:
                l(1) =   0
                l(2) =   0
                l(3) =   1
                l(4) =   1
     Q(r) pseudized with  8 coefficients,  rinner =    0.800   0.800   0.800

     PseudoPot. # 5 for H  read from file:
     /storage/coda1/p-amedford6/0/shared/rich_project_chbe-medford/medford-share/data/pseudos_module/espresso/nninc/pbe/van/H.UPF
     MD5 check sum: b5ee9d7bfd3a09ee7748110bda690ff7
     Pseudo is Ultrasoft, Zval =  1.0
     Generated by new atomic code, or converted to UPF format
     Using radial grid of  615 points,  1 beta functions with:
                l(1) =   0
     Q(r) pseudized with  8 coefficients,  rinner =    0.800

     atomic species   valence    mass     pseudopotential
        Ti1           12.00    47.86700     Ti( 1.00)
        O1             6.00    15.99900     O ( 1.00)
        N1             5.00    14.00700     N ( 1.00)
        C1             4.00    12.01100     C ( 1.00)
        H1             1.00     1.00800     H ( 1.00)

     No symmetry found

   Cartesian axes

     site n.     atom                  positions (alat units)
         1           Ti1 tau(   1) = (   0.0004258   2.9801865   6.0000000  )
         2           Ti1 tau(   2) = (   3.2906075   1.4906267   6.0002472  )
         3           O1  tau(   3) = (   0.0006271   0.0005054   7.9858123  )
         4           O1  tau(   4) = (   3.2906025   0.0005020   7.3038282  )
         5           O1  tau(   5) = (   4.5942328   1.4918067   9.2879030  )
         6           O1  tau(   6) = (   1.9868534   1.4903216   9.2879459  )
         7           Ti1 tau(   7) = (   3.2907910   2.8959150   9.1758416  )
         8           Ti1 tau(   8) = (   0.0015273   1.4827037   9.2680791  )
         9           O1  tau(   9) = (   3.3074573   5.9346435  11.2963613  )
        10           O1  tau(  10) = (   0.0116148   5.9584955  10.6183126  )
        11           O1  tau(  11) = (   1.3055178   1.4819292  12.6272398  )
        12           O1  tau(  12) = (   5.3158762   1.4804127  12.6185516  )
        13           Ti1 tau(  13) = (   0.0186029   2.8424156  12.6464711  )
        14           Ti1 tau(  14) = (   3.3167612   1.2924093  12.6669032  )
        15           O1  tau(  15) = (   0.0012442   5.9356390  14.6370070  )
        16           O1  tau(  16) = (   3.3127944   0.0275565  13.9018093  )
        17           O1  tau(  17) = (   4.5765900   1.5157235  16.0894388  )
        18           O1  tau(  18) = (   2.0422450   1.5317946  16.0210879  )
        19           Ti1 tau(  19) = (   3.3088329   2.9810726  15.6636066  )
        20           Ti1 tau(  20) = (   0.0236821   1.4688588  15.8133175  )
        21           O1  tau(  21) = (   3.2904802   0.0005063   4.7018136  )
        22           O1  tau(  22) = (   0.0676014   5.9495730  17.1734943  )
        23           O1  tau(  23) = (   1.3043587   1.4918075   6.0039043  )
        24           O1  tau(  24) = (   5.2767064   1.4903225   6.0039473  )
        25           Ti1 tau(  25) = (   0.0000382   5.9609847   6.0000000  )
        26           Ti1 tau(  26) = (   3.2902200   4.4714249   6.0002472  )
        27           O1  tau(  27) = (   0.0002396   2.9813036   7.9858123  )
        28           O1  tau(  28) = (   3.2902150   2.9813002   7.3038282  )
        29           O1  tau(  29) = (   4.5938453   4.4726049   9.2879030  )
        30           O1  tau(  30) = (   1.9864658   4.4711199   9.2879459  )
        31           Ti1 tau(  31) = (   3.2891106   5.8743827   9.1763621  )
        32           Ti1 tau(  32) = (   0.0006254   4.4649316   9.2693709  )
        33           O1  tau(  33) = (   3.3041982   3.0170362  11.2630756  )
        34           O1  tau(  34) = (   0.0092240   2.9805883  10.6323155  )
        35           O1  tau(  35) = (   1.3098214   4.4601496  12.6289764  )
        36           O1  tau(  36) = (   5.3139316   4.4642116  12.6209765  )
        37           Ti1 tau(  37) = (   0.0286784   5.8202107  12.5681754  )
        38           Ti1 tau(  38) = (   3.3194384   4.3879401  12.4232525  )
        39           O1  tau(  39) = (   6.5763552   2.9401740  14.6754030  )
        40           O1  tau(  40) = (   3.3328261   2.9762691  13.8808942  )
        41           O1  tau(  41) = (   4.5658580   4.4380642  16.1332302  )
        42           O1  tau(  42) = (   2.0359873   4.4031365  16.0422930  )
        43           Ti1 tau(  43) = (   3.3255947   5.9578944  16.3175027  )
        44           Ti1 tau(  44) = (   0.0374668   4.6230282  16.0307208  )
        45           O1  tau(  45) = (   3.2900926   2.9813045   4.7018136  )
        46           O1  tau(  46) = (   1.3039711   4.4726057   6.0039043  )
        47           O1  tau(  47) = (   5.2763189   4.4711207   6.0039473  )
        48           N1  tau(  48) = (   0.1245995   2.6662279  18.6673576  )
        49           N1  tau(  49) = (   0.0476076   2.8693738  17.4835824  )
        50           C1  tau(  50) = (   0.1295945   3.7926219  19.6405614  )
        51           H1  tau(  51) = (   6.3015398   4.7065717  19.2118634  )
        52           H1  tau(  52) = (   6.1525190   3.4526129  20.5140504  )
        53           H1  tau(  53) = (   1.1733748   3.9370966  19.9287387  )
        54           O1  tau(  54) = (   3.0981659   0.0197753  18.1302257  )
        55           H1  tau(  55) = (   2.1972620   0.2293568  18.4309947  )

     number of k points=    10  Fermi-Dirac smearing, width (Ry)=  0.0073
                       cart. coord. in units 2pi/alat
        k(    1) = (   0.0000000   0.0000000   0.0000000), wk =   0.1250000
        k(    2) = (   0.0000000   0.0419351   0.0000000), wk =   0.2500000
        k(    3) = (   0.0000000  -0.0838702   0.0000000), wk =   0.1250000
        k(    4) = (   0.0379955   0.0000049   0.0000000), wk =   0.2500000
        k(    5) = (   0.0379955   0.0419400   0.0000000), wk =   0.2500000
        k(    6) = (   0.0379955  -0.0838652   0.0000000), wk =   0.2500000
        k(    7) = (   0.0379955  -0.0419301   0.0000000), wk =   0.2500000
        k(    8) = (  -0.0759910  -0.0000099   0.0000000), wk =   0.1250000
        k(    9) = (  -0.0759910   0.0419252   0.0000000), wk =   0.2500000
        k(   10) = (  -0.0759910  -0.0838800   0.0000000), wk =   0.1250000

     Initial potential from superposition of free atoms

     starting charge  385.99915, renormalised to  402.00000

     negative rho (up, down):  1.432E-02 0.000E+00

     %%%%%%%%%%%%%%%%%%%%%%%%%%%%%%%%%%%%%%%%%%%%%%%%%%%%%%%%%%%%%%%%%%%%%%%%
     %                                                                      %
     % You are using vdW-DF, which was implemented by the Thonhauser group. %
     % Please cite the following two papers that made this development      %
     % possible and the two reviews that describe the various versions:     %
     %                                                                      %
     %   T. Thonhauser et al., PRL 115, 136402 (2015).                      %
     %   T. Thonhauser et al., PRB 76, 125112 (2007).                       %
     %   K. Berland et al., Rep. Prog. Phys. 78, 066501 (2015).             %
     %   D.C. Langreth et al., J. Phys.: Condens. Matter 21, 084203 (2009). %
     %                                                                      %
     %                                                                      %
     % If you are calculating the stress with vdW-DF, please also cite:     %
     %                                                                      %
     %   R. Sabatini et al., J. Phys.: Condens. Matter 24, 424209 (2012).   %
     %                                                                      %
     %%%%%%%%%%%%%%%%%%%%%%%%%%%%%%%%%%%%%%%%%%%%%%%%%%%%%%%%%%%%%%%%%%%%%%%%

     Adding external electric field

     Computed dipole along edir(3) :
        Dipole              -11.9923 Ry au,        -30.4815 Debye
        Dipole field         -0.0226 Ry au,

        Potential amp.        2.0979 Ry
        Total length         46.3494 bohr

     Starting wfcs are  304 atomic wfcs
  @ DRIVER MODE: Message from server: STATUS
  @ DRIVER MODE: Message from server: POSDATA
  @ DRIVER MODE: Reading and sharing cell
  @ DRIVER MODE: Reading and sharing positions
  @ DRIVER MODE: Received positions

     Self-consistent Calculation

     iteration #  1     ecut=    29.40 Ry     beta= 0.05
     Davidson diagonalization with overlap
     c_bands:  3 eigenvalues not converged
     c_bands:  5 eigenvalues not converged
     c_bands:  5 eigenvalues not converged
     c_bands:  4 eigenvalues not converged
     c_bands:  1 eigenvalues not converged
     c_bands:  4 eigenvalues not converged
     c_bands:  2 eigenvalues not converged
     c_bands:  5 eigenvalues not converged
     c_bands:  4 eigenvalues not converged
     ethr =  1.00E-05,  avg # of iterations = 23.8

[...]

     total energy              =   -2400.50144233 Ry
     estimated scf accuracy    <    6448.57113949 Ry

     iteration #  2     ecut=    29.40 Ry     beta= 0.05
     Davidson diagonalization with overlap
     ethr =  1.00E-02,  avg # of iterations = 22.2

[...]

     iteration # 29     ecut=    29.40 Ry     beta= 0.05
     Davidson diagonalization with overlap
     c_bands:  2 eigenvalues not converged
     c_bands:  1 eigenvalues not converged
     c_bands:  2 eigenvalues not converged
     ethr =  1.42E-06,  avg # of iterations = 16.4

[...]

     total energy              =   -2972.75608825 Ry
     estimated scf accuracy    <       0.00000008 Ry

     iteration # 57     ecut=    29.40 Ry     beta= 0.05
     Davidson diagonalization with overlap
     ethr =  2.01E-11,  avg # of iterations =  2.0

     negative rho (up, down):  1.507E-02 0.000E+00

     Adding external electric field

     Computed dipole along edir(3) :
        Dipole                0.5631 Ry au,          1.4312 Debye
        Dipole field          0.0011 Ry au,

        Potential amp.       -0.0985 Ry
        Total length         46.3494 bohr

     End of self-consistent calculation

          k = 0.0000 0.0000 0.0000 ( 18029 PWs)   bands (ev):

   -56.2728 -56.2390 -55.8663 -55.8314 -55.6104 -55.5960 -55.5526 -55.4030
   -55.3553 -55.3461 -55.2320 -55.1821 -55.0710 -55.0436 -55.0396 -55.0056
   -32.7230 -32.5653 -32.5385 -32.4310 -32.3472 -32.3458 -32.3384 -32.0922
   -32.0856 -32.0616 -32.0109 -32.0053 -31.9760 -31.9039 -31.8960 -31.8587
   -31.8332 -31.8311 -31.8202 -31.7751 -31.7560 -31.7490 -31.7163 -31.7152
   -31.6861 -31.6736 -31.6154 -31.5626 -31.5575 -31.5444 -31.5417 -31.5125
   -31.4913 -31.4357 -31.4309 -31.4163 -31.3915 -31.3731 -31.3495 -31.3292
   -31.3042 -31.2815 -31.2811 -31.2740 -31.2591 -31.2546 -31.1701 -31.0581
   -18.9015 -16.5650 -16.3786 -16.2257 -15.9918 -15.8438 -15.7591 -15.7026
   -15.7021 -15.5815 -15.5462 -15.4526 -15.3639 -15.2946 -15.2630 -15.2597
   -15.1660 -15.1044 -15.0552 -15.0325 -15.0020 -14.9815 -14.9682 -14.8883
   -14.8798 -14.8556 -14.8112 -14.6914 -14.6279 -14.3290 -14.3103 -13.5368
   -13.4247 -11.5256  -6.9519  -4.4230  -4.1108  -4.0740  -4.0283  -3.8862
    -3.7770  -3.5695  -3.4527  -3.2669  -3.2506  -3.1506  -2.9846  -2.9762
    -2.9229  -2.8524  -2.7739  -2.7048  -2.6611  -2.6498  -2.5565  -2.4987
    -2.4970  -2.4847  -2.4437  -2.4081  -2.3202  -2.2774  -2.2645  -2.2263
    -2.1820  -2.1333  -2.1297  -2.0829  -2.0582  -1.9975  -1.9339  -1.8970
    -1.8709  -1.8065  -1.7477  -1.7078  -1.6404  -1.5926  -1.5807  -1.5759
    -1.5232  -1.3282  -1.2880  -1.2619  -1.2414  -1.0989  -1.0556  -1.0205
    -0.9565  -0.9396  -0.8498  -0.8245  -0.8076  -0.7820  -0.7110  -0.6975
    -0.6626  -0.6341  -0.4471  -0.4122  -0.3406  -0.3321  -0.2637  -0.2313
    -0.1982  -0.1580  -0.1265  -0.0730  -0.0605  -0.0073   0.0392   0.0675
     0.2088   0.2396   0.3229   0.3307   0.3337   0.3561   0.4336   0.4675
     0.5401   0.5926   0.5985   0.6501   0.7382   0.7776   0.8922   0.9614
     0.9854   1.0069   1.0425   1.0953   1.2157   1.5070   1.5325   1.5713
     2.7052   2.9530   3.0835   3.2300   3.3847   3.4882   3.7957   3.8145
     3.8512   3.8965   3.9957

[...]

          k = 0.0380-0.0419 0.0000 ( 17876 PWs)   bands (ev):

[...]

          k =-0.0760-0.0000 0.0000 ( 17886 PWs)   bands (ev):

[...]

          k =-0.0760-0.0839 0.0000 ( 17948 PWs)   bands (ev):

   -56.2558 -56.2557 -55.8537 -55.8438 -55.6049 -55.5952 -55.5580 -55.3956
   -55.3625 -55.3467 -55.2303 -55.1800 -55.0727 -55.0455 -55.0231 -55.0219
   -32.5509 -32.5508 -32.5391 -32.5389 -32.3831 -32.3828 -32.1728 -32.1638
   -32.0473 -32.0391 -32.0372 -32.0328 -31.9134 -31.8764 -31.8618 -31.8309
   -31.8272 -31.8257 -31.8186 -31.7852 -31.7722 -31.7259 -31.7137 -31.6984
   -31.6361 -31.6335 -31.6284 -31.6017 -31.5975 -31.5944 -31.5551 -31.5490
   -31.4831 -31.4369 -31.4203 -31.4180 -31.3914 -31.3628 -31.3620 -31.3438
   -31.3328 -31.2907 -31.2849 -31.2779 -31.2512 -31.2498 -31.2129 -31.2120
   -18.8986 -16.3633 -15.9757 -15.9675 -15.8366 -15.8311 -15.6583 -15.6463
   -15.6014 -15.5533 -15.5223 -15.4880 -15.3605 -15.3351 -15.2650 -15.2399
   -15.2052 -15.1804 -15.1566 -15.1517 -15.1152 -15.0730 -15.0229 -15.0183
   -14.9689 -14.9674 -14.8424 -14.7664 -14.6885 -14.5111 -14.4641 -13.5280
   -13.5275 -11.5236  -6.9664  -4.3709  -4.0886  -4.0524  -3.8575  -3.1397
    -3.0979  -2.9725  -2.9468  -2.8715  -2.8343  -2.7641  -2.7059  -2.6834
    -2.6705  -2.6597  -2.5949  -2.5659  -2.5605  -2.5186  -2.5034  -2.4965
    -2.4598  -2.4093  -2.3850  -2.3629  -2.3573  -2.3514  -2.2725  -2.2017
    -2.1995  -2.1807  -2.1478  -2.1156  -2.0355  -2.0283  -1.9866  -1.9526
    -1.9217  -1.8309  -1.7901  -1.7431  -1.6970  -1.6582  -1.5851  -1.5821
    -1.5145  -1.4673  -1.3548  -1.3317  -1.3126  -1.2702  -1.2329  -1.1945
    -1.1271  -1.1051  -1.0502  -1.0464  -1.0330  -1.0098  -0.8985  -0.8582
    -0.7655  -0.7248  -0.7019  -0.6776  -0.6350  -0.6280  -0.5573  -0.5344
    -0.4959  -0.4707  -0.4049  -0.3993  -0.3649  -0.3001  -0.1934  -0.0351
     0.0599   0.1025   0.1246   0.1431   0.1886   0.2981   0.3039   0.3782
     0.4503   0.4633   0.4811   0.5099   0.6557   0.7335   0.8404   0.8625
     0.9117   0.9598   1.0193   1.0876   1.3765   1.3840   1.3876   1.3882
     2.7178   3.5039   3.5063   3.5346   3.5458   3.7306   3.7340   3.7517
     3.8969   3.9258   4.1509

     the Fermi energy is     2.8891 ev

!    total energy              =   -2972.75615423 Ry
     estimated scf accuracy    <       0.00000005 Ry
     smearing contrib. (-TS)   =      -0.01287359 Ry
     internal energy E=F+TS    =   -2972.74328064 Ry

     The total energy is F=E-TS. E is the sum of the following terms:
     one-electron contribution =  -23636.59216361 Ry
     hartree contribution      =   11911.33212757 Ry
     xc contribution           =    -493.08017603 Ry
     ewald contribution        =    9245.59633310 Ry
     electric field correction =       0.00059834 Ry

     convergence has been achieved in  57 iterations

     Forces acting on atoms (cartesian axes, Ry/au):

     atom    1 type  1   force =    -0.00000646   -0.00036960    0.10686818
     atom    2 type  1   force =    -0.00004331    0.00019744   -0.16491420
     atom    3 type  2   force =     0.00005589    0.00001856   -0.03812911
     atom    4 type  2   force =     0.00006545   -0.00063955    0.03453574
     atom    5 type  2   force =    -0.00367187   -0.00218186   -0.00717213
     atom    6 type  2   force =     0.00569967   -0.00176780   -0.00684541
     atom    7 type  1   force =     0.00025180   -0.00515885    0.03712091
     atom    8 type  1   force =    -0.00001849    0.01089363    0.05882224
     atom    9 type  2   force =    -0.00043804    0.00029318   -0.00082295
     atom   10 type  2   force =    -0.00076606   -0.00040224   -0.04429188
     atom   11 type  2   force =     0.00029701   -0.00021047    0.00031465
     atom   12 type  2   force =    -0.00063893   -0.00054772   -0.00003873
     atom   13 type  1   force =     0.00005442    0.00033208    0.00051653
     atom   14 type  1   force =    -0.00024471   -0.00006816    0.00052398
     atom   15 type  2   force =    -0.00018600   -0.00035919   -0.00112389
     atom   16 type  2   force =     0.00032529    0.00006955    0.00050699
     atom   17 type  2   force =     0.00002225    0.00038626    0.00016641
     atom   18 type  2   force =     0.00030980    0.00049830   -0.00046905
     atom   19 type  1   force =    -0.00047534   -0.00052903   -0.00036053
     atom   20 type  1   force =     0.00011885   -0.00015643    0.00064325
     atom   21 type  2   force =     0.00004330    0.00021500    0.10036836
     atom   22 type  2   force =     0.00001301   -0.00082148    0.00009687
     atom   23 type  2   force =    -0.07697182   -0.00000761   -0.03003227
     atom   24 type  2   force =     0.07684125    0.00041777   -0.03009231
     atom   25 type  1   force =     0.00005191   -0.00042060    0.10688777
     atom   26 type  1   force =    -0.00016875   -0.00138104   -0.16528221
     atom   27 type  2   force =     0.00012615   -0.00063748   -0.03657560
     atom   28 type  2   force =     0.00003777    0.00111491    0.03011710
     atom   29 type  2   force =    -0.00205344    0.00418118   -0.01015045
     atom   30 type  2   force =     0.00412001    0.00462862   -0.00972465
     atom   31 type  1   force =     0.00022588    0.00323832    0.02266401
     atom   32 type  1   force =    -0.00015180   -0.01397174    0.05886638
     atom   33 type  2   force =    -0.00014007   -0.00117753   -0.00028168
     atom   34 type  2   force =    -0.00070615   -0.00007664   -0.05476047
     atom   35 type  2   force =    -0.00106424    0.00020862    0.00020720
     atom   36 type  2   force =     0.00051812   -0.00001115   -0.00021959
     atom   37 type  1   force =    -0.00013771   -0.00078408    0.00001095
     atom   38 type  1   force =    -0.00057156    0.00000601    0.00004274
     atom   39 type  2   force =    -0.00031227    0.00054072   -0.00005642
     atom   40 type  2   force =    -0.00024903   -0.00047036    0.00017838
     atom   41 type  2   force =    -0.00091257    0.00005370   -0.00008826
     atom   42 type  2   force =    -0.00017975    0.00011109    0.00061591
     atom   43 type  1   force =     0.00076382    0.00102497   -0.00009292
     atom   44 type  1   force =    -0.00016869    0.00157524    0.00069557
     atom   45 type  2   force =     0.00003419   -0.00000148    0.10017277
     atom   46 type  2   force =    -0.07701391    0.00003280   -0.03006442
     atom   47 type  2   force =     0.07690567    0.00045801   -0.03013004
     atom   48 type  3   force =     0.00071011   -0.00061872    0.00037752
     atom   49 type  3   force =    -0.00000817    0.00070863   -0.00088629
     atom   50 type  4   force =    -0.00136435   -0.00136933    0.00242093
     atom   51 type  5   force =    -0.00091604   -0.00053188    0.00107003
     atom   52 type  5   force =     0.00137331    0.00283478   -0.00285882
     atom   53 type  5   force =    -0.00008481    0.00014088    0.00064130
     atom   54 type  2   force =     0.00106570   -0.00041887   -0.00115825
     atom   55 type  5   force =    -0.00036627    0.00091063    0.00116987

     Total force =     0.379808     Total SCF correction =     0.000541
  @ DRIVER MODE: Message from server: STATUS
  @ DRIVER MODE: Message from server: GETFORCE
  @ DRIVER MODE: Returning v,forces,stress,ensemble

     Writing output data file ./calc.save/
  @ DRIVER MODE: Message from server: EXIT
  @ DRIVE MODE: Exiting

     General routines

     Parallel routines

   This run was terminated on:   6: 1:40  10Sep2021

   JOB DONE.