     Program PWSCF v.6.7GPU starts on  2Aug2021 at 15:25:45

     R & G space division:  proc/nbgrp/npool/nimage =      16
     Reading input from /storage/home/hcoda1/3/ntian30/research/carbon/02Aug_vib_paired/ads_slab/CH3NHHH_a/out_0009/pw.inp
Warning: card &CELL ignored
Warning: card   CELL_DYNAMICS='IPI', ignored
Warning: card / ignored

     Current dimensions of program PWSCF are:
     Max number of different atomic species (ntypx) = 10
     Max number of k-points (npk) =  40000
     Max angular momentum in pseudopotentials (lmaxx) =  3
     Presently no symmetry can be used with electric field

     Message from routine cell_base_init:
     DEPRECATED: use true lattice parameter, not A to a.u. conversion factor

     IMPORTANT: XC functional enforced from input :
     Exchange-correlation= BEEF-VDW
                           (   1   4  43  14   2   0   0)
     Any further DFT definition will be discarded
     Please, verify this is what you really want

  @ DRIVER MODE: Connecting to
 qe_1139763_2482537.sched-torque.pace.gatech.edul4ql0neu_scratch
  using UNIX socket
  @ DRIVER MODE: Message from server: STATUS
  @ DRIVER MODE: Message from server: INIT
  @ DRIVER MODE: Receiving replica           0          -1
  @ DRIVER MODE: Receiving encoded integer          25
  @ DRIVER MODE:  SCF:  T  FORCE:  T  STRESS:  F  VC:  F  ENSEMBLE:  F
  @ DRIVER MODE:  SCF:  T  FORCE:  T  STRESS:  F  VC:  F  ENSEMBLE:  F

     Using Slab Decomposition

     bravais-lattice index     =            0
     lattice parameter (alat)  =       1.8897  a.u.
     unit-cell volume          =    6658.9804 (a.u.)^3
     number of atoms/cell      =           55
     number of atomic types    =            5
     number of electrons       =       393.00
     number of Kohn-Sham states=          206
     kinetic-energy cutoff     =      29.3995  Ry
     charge density cutoff     =     293.9946  Ry
     scf convergence threshold =      7.3E-08
     mixing beta               =       0.0500
     number of iterations used =            8  plain     mixing
     Exchange-correlation= BEEF-VDW
                           (   1   4  43  14   2   0   0)

     celldm(1)=   1.889726  celldm(2)=   0.000000  celldm(3)=   0.000000
     celldm(4)=   0.000000  celldm(5)=   0.000000  celldm(6)=   0.000000

     crystal axes: (cart. coord. in units of alat)
               a(1) = (   6.579727   0.000000   0.000000 )
               a(2) = (  -0.000775   5.961596   0.000000 )
               a(3) = (   0.000000   0.000000  25.155947 )

     reciprocal axes: (cart. coord. in units 2 pi/alat)
               b(1) = (  0.151982  0.000020  0.000000 )
               b(2) = (  0.000000  0.167740  0.000000 )
               b(3) = (  0.000000  0.000000  0.039752 )

     PseudoPot. # 1 for Ti read from file:
     /storage/coda1/p-amedford6/0/shared/rich_project_chbe-medford/medford-share/data/pseudos_module/espresso/nninc/pbe/van/Ti.UPF
     MD5 check sum: 8e4df49b7f0d34bbd5052bf3f5ea0213
     Pseudo is Ultrasoft, Zval = 12.0
     Generated by new atomic code, or converted to UPF format
     Using radial grid of  851 points,  6 beta functions with:
                l(1) =   0
                l(2) =   0
                l(3) =   1
                l(4) =   1
                l(5) =   2
                l(6) =   2
     Q(r) pseudized with  8 coefficients,  rinner =    1.000   1.000   1.000
                                                       1.000   1.000

     PseudoPot. # 2 for O  read from file:
     /storage/coda1/p-amedford6/0/shared/rich_project_chbe-medford/medford-share/data/pseudos_module/espresso/nninc/pbe/van/O.UPF
     MD5 check sum: 78c19812648e8988a0fe644b0f25305e
     Pseudo is Ultrasoft, Zval =  6.0
     Generated by new atomic code, or converted to UPF format
     Using radial grid of  737 points,  4 beta functions with:
                l(1) =   0
                l(2) =   0
                l(3) =   1
                l(4) =   1
     Q(r) pseudized with  8 coefficients,  rinner =    0.800   0.800   0.800

     PseudoPot. # 3 for N  read from file:
     /storage/coda1/p-amedford6/0/shared/rich_project_chbe-medford/medford-share/data/pseudos_module/espresso/nninc/pbe/van/N.UPF
     MD5 check sum: 90d10febe142ad51ac9d5be1deb811c4
     Pseudo is Ultrasoft, Zval =  5.0
     Generated by new atomic code, or converted to UPF format
     Using radial grid of  729 points,  4 beta functions with:
                l(1) =   0
                l(2) =   0
                l(3) =   1
                l(4) =   1
     Q(r) pseudized with  8 coefficients,  rinner =    0.800   0.800   0.800

     PseudoPot. # 4 for C  read from file:
     /storage/coda1/p-amedford6/0/shared/rich_project_chbe-medford/medford-share/data/pseudos_module/espresso/nninc/pbe/van/C.UPF
     MD5 check sum: 1a69bf6b8db32088f5b2163dbdb77a27
     Pseudo is Ultrasoft, Zval =  4.0
     Generated by new atomic code, or converted to UPF format
     Using radial grid of  721 points,  4 beta functions with:
                l(1) =   0
                l(2) =   0
                l(3) =   1
                l(4) =   1
     Q(r) pseudized with  8 coefficients,  rinner =    0.800   0.800   0.800

     PseudoPot. # 5 for H  read from file:
     /storage/coda1/p-amedford6/0/shared/rich_project_chbe-medford/medford-share/data/pseudos_module/espresso/nninc/pbe/van/H.UPF
     MD5 check sum: b5ee9d7bfd3a09ee7748110bda690ff7
     Pseudo is Ultrasoft, Zval =  1.0
     Generated by new atomic code, or converted to UPF format
     Using radial grid of  615 points,  1 beta functions with:
                l(1) =   0
     Q(r) pseudized with  8 coefficients,  rinner =    0.800

     atomic species   valence    mass     pseudopotential
        Ti1           12.00    47.86700     Ti( 1.00)
        O1             6.00    15.99900     O ( 1.00)
        N1             5.00    14.00700     N ( 1.00)
        C1             4.00    12.01100     C ( 1.00)
        H1             1.00     1.00800     H ( 1.00)

     No symmetry found

   Cartesian axes

     site n.     atom                  positions (alat units)
         1           Ti1 tau(   1) = (   0.0004258   2.9801865   6.0000000  )
         2           Ti1 tau(   2) = (   3.2906075   1.4906267   6.0002472  )
         3           O1  tau(   3) = (   0.0006271   0.0005054   7.9858123  )
         4           O1  tau(   4) = (   3.2906025   0.0005020   7.3038282  )
         5           O1  tau(   5) = (   4.5942328   1.4918067   9.2879030  )
         6           O1  tau(   6) = (   1.9868534   1.4903216   9.2879459  )
         7           Ti1 tau(   7) = (   3.2907910   2.8959150   9.1758416  )
         8           Ti1 tau(   8) = (   0.0015273   1.4827037   9.2680791  )
         9           O1  tau(   9) = (   3.2636084   5.9406443  11.4082010  )
        10           O1  tau(  10) = (   0.0116148   5.9584955  10.6183126  )
        11           O1  tau(  11) = (   1.2642105   1.4849797  12.6947803  )
        12           O1  tau(  12) = (   5.2691575   1.4821021  12.6650678  )
        13           Ti1 tau(  13) = (   6.5574234   2.9640577  12.4921542  )
        14           Ti1 tau(  14) = (   3.2619390   1.4709553  12.5527290  )
        15           O1  tau(  15) = (   6.5247406   5.9594380  14.6832748  )
        16           O1  tau(  16) = (   3.2695906   5.9428997  14.0562986  )
        17           O1  tau(  17) = (   4.5175969   1.4707097  16.2986306  )
        18           O1  tau(  18) = (   1.9406912   1.4777946  16.2473769  )
        19           Ti1 tau(  19) = (   3.2491105   2.9422209  15.8109686  )
        20           Ti1 tau(  20) = (   6.5361480   1.3378720  15.9626387  )
        21           O1  tau(  21) = (   3.2904802   0.0005063   4.7018136  )
        22           O1  tau(  22) = (   6.5280740   5.8897732  17.4332532  )
        23           O1  tau(  23) = (   1.3043587   1.4918075   6.0039043  )
        24           O1  tau(  24) = (   5.2767064   1.4903225   6.0039473  )
        25           Ti1 tau(  25) = (   0.0000382   5.9609847   6.0000000  )
        26           Ti1 tau(  26) = (   3.2902200   4.4714249   6.0002472  )
        27           O1  tau(  27) = (   0.0002396   2.9813036   7.9858123  )
        28           O1  tau(  28) = (   3.2902150   2.9813002   7.3038282  )
        29           O1  tau(  29) = (   4.5938453   4.4726049   9.2879030  )
        30           O1  tau(  30) = (   1.9864658   4.4711199   9.2879459  )
        31           Ti1 tau(  31) = (   3.2891106   5.8743827   9.1763621  )
        32           Ti1 tau(  32) = (   0.0006254   4.4649316   9.2693709  )
        33           O1  tau(  33) = (   3.2649920   2.9642658  11.3997388  )
        34           O1  tau(  34) = (   0.0092240   2.9805883  10.6323155  )
        35           O1  tau(  35) = (   1.2634527   4.4478426  12.7061968  )
        36           O1  tau(  36) = (   5.2693862   4.4495813  12.6755241  )
        37           Ti1 tau(  37) = (   6.5522441   5.9483113  12.5008436  )
        38           Ti1 tau(  38) = (   3.2626494   4.4468850  12.5575576  )
        39           O1  tau(  39) = (   6.4970557   2.9363996  15.0046851  )
        40           O1  tau(  40) = (   3.2722650   2.9529576  14.0194401  )
        41           O1  tau(  41) = (   4.5170401   4.4205294  16.2730734  )
        42           O1  tau(  42) = (   1.9466746   4.4191161  16.2235312  )
        43           Ti1 tau(  43) = (   3.2419262   5.9323414  15.8513663  )
        44           Ti1 tau(  44) = (   6.5549466   4.5556212  15.8889459  )
        45           O1  tau(  45) = (   3.2900926   2.9813045   4.7018136  )
        46           O1  tau(  46) = (   1.3039711   4.4726057   6.0039043  )
        47           O1  tau(  47) = (   5.2763189   4.4711207   6.0039473  )
        48           N1  tau(  48) = (   4.8657738   4.5798987  19.4796958  )
        49           C1  tau(  49) = (   5.7271871   3.4229544  19.8049648  )
        50           H1  tau(  50) = (   6.3241292   3.1721029  18.9298488  )
        51           H1  tau(  51) = (   6.4229137   3.7195585  20.5942015  )
        52           H1  tau(  52) = (   5.1874390   2.5328885  20.1195193  )
        53           H1  tau(  53) = (   5.9066942   5.7389963  18.1772939  )
        54           H1  tau(  54) = (   4.2103208   4.3266459  18.7469397  )
        55           H1  tau(  55) = (   4.3187305   4.8545830  20.2870342  )

     number of k points=    10  Fermi-Dirac smearing, width (Ry)=  0.0073
                       cart. coord. in units 2pi/alat
        k(    1) = (   0.0000000   0.0000000   0.0000000), wk =   0.1250000
        k(    2) = (   0.0000000   0.0419351   0.0000000), wk =   0.2500000
        k(    3) = (   0.0000000  -0.0838702   0.0000000), wk =   0.1250000
        k(    4) = (   0.0379955   0.0000049   0.0000000), wk =   0.2500000
        k(    5) = (   0.0379955   0.0419400   0.0000000), wk =   0.2500000
        k(    6) = (   0.0379955  -0.0838652   0.0000000), wk =   0.2500000
        k(    7) = (   0.0379955  -0.0419301   0.0000000), wk =   0.2500000
        k(    8) = (  -0.0759910  -0.0000099   0.0000000), wk =   0.1250000
        k(    9) = (  -0.0759910   0.0419252   0.0000000), wk =   0.2500000
        k(   10) = (  -0.0759910  -0.0838800   0.0000000), wk =   0.1250000

     Initial potential from superposition of free atoms

     starting charge  376.99914, renormalised to  393.00000

     negative rho (up, down):  1.330E-02 0.000E+00

     %%%%%%%%%%%%%%%%%%%%%%%%%%%%%%%%%%%%%%%%%%%%%%%%%%%%%%%%%%%%%%%%%%%%%%%%
     %                                                                      %
     % You are using vdW-DF, which was implemented by the Thonhauser group. %
     % Please cite the following two papers that made this development      %
     % possible and the two reviews that describe the various versions:     %
     %                                                                      %
     %   T. Thonhauser et al., PRL 115, 136402 (2015).                      %
     %   T. Thonhauser et al., PRB 76, 125112 (2007).                       %
     %   K. Berland et al., Rep. Prog. Phys. 78, 066501 (2015).             %
     %   D.C. Langreth et al., J. Phys.: Condens. Matter 21, 084203 (2009). %
     %                                                                      %
     %                                                                      %
     % If you are calculating the stress with vdW-DF, please also cite:     %
     %                                                                      %
     %   R. Sabatini et al., J. Phys.: Condens. Matter 24, 424209 (2012).   %
     %                                                                      %
     %%%%%%%%%%%%%%%%%%%%%%%%%%%%%%%%%%%%%%%%%%%%%%%%%%%%%%%%%%%%%%%%%%%%%%%%

     Adding external electric field

     Computed dipole along edir(3) :
        Dipole               -9.4918 Ry au,        -24.1257 Debye
        Dipole field         -0.0179 Ry au,

        Potential amp.        1.6604 Ry
        Total length         46.3494 bohr

     Starting wfcs are  298 atomic wfcs
  @ DRIVER MODE: Message from server: STATUS
  @ DRIVER MODE: Message from server: POSDATA
  @ DRIVER MODE: Reading and sharing cell
  @ DRIVER MODE: Reading and sharing positions
  @ DRIVER MODE: Received positions

     Self-consistent Calculation

     iteration #  1     ecut=    29.40 Ry     beta= 0.05
     Davidson diagonalization with overlap
     c_bands:  2 eigenvalues not converged
     c_bands:  1 eigenvalues not converged
     c_bands:  2 eigenvalues not converged
     c_bands:  3 eigenvalues not converged
     c_bands:  3 eigenvalues not converged
     c_bands:  1 eigenvalues not converged
     ethr =  1.00E-05,  avg # of iterations = 18.9

[...]

     total energy              =   -2620.44295726 Ry
     estimated scf accuracy    <    3390.29806454 Ry

     iteration #  2     ecut=    29.40 Ry     beta= 0.05
     Davidson diagonalization with overlap
     ethr =  1.00E-02,  avg # of iterations = 23.1

[...]

     iteration # 82     ecut=    29.40 Ry     beta= 0.05
     Davidson diagonalization with overlap
     c_bands:  1 eigenvalues not converged
     c_bands:  1 eigenvalues not converged
     ethr =  4.78E-11,  avg # of iterations = 14.6

[...]

     total energy              =   -2922.77363795 Ry
     estimated scf accuracy    <       0.00000008 Ry

     iteration # 87     ecut=    29.40 Ry     beta= 0.05
     Davidson diagonalization with overlap
     ethr =  1.96E-11,  avg # of iterations =  4.1

     negative rho (up, down):  1.444E-02 0.000E+00

     Adding external electric field

     Computed dipole along edir(3) :
        Dipole                1.4068 Ry au,          3.5758 Debye
        Dipole field          0.0027 Ry au,

        Potential amp.       -0.2461 Ry
        Total length         46.3494 bohr

     End of self-consistent calculation

          k = 0.0000 0.0000 0.0000 ( 18029 PWs)   bands (ev):

   -55.3083 -55.2724 -55.2566 -55.2225 -55.1720 -55.1481 -55.1471 -55.1376
   -55.1137 -55.0838 -55.0728 -55.0499 -55.0309 -54.9727 -54.3003 -54.2663
   -31.8752 -31.7509 -31.6885 -31.6603 -31.6360 -31.6152 -31.5908 -31.5501
   -31.5459 -31.5447 -31.5154 -31.5043 -31.5006 -31.4759 -31.4653 -31.4601
   -31.4469 -31.4369 -31.4096 -31.4009 -31.3967 -31.3804 -31.3722 -31.3546
   -31.3522 -31.3147 -31.3139 -31.3042 -31.3022 -31.2893 -31.2844 -31.2824
   -31.2755 -31.2747 -31.2598 -31.2567 -31.2245 -31.2111 -31.1999 -31.1945
   -31.1814 -31.1064 -30.7107 -30.6142 -30.5923 -30.5266 -30.4398 -30.3292
   -16.8228 -16.1471 -15.8909 -15.7699 -15.6605 -15.5463 -15.5203 -15.4412
   -15.3573 -15.2568 -15.1953 -15.0901 -15.0556 -15.0161 -15.0010 -14.9824
   -14.9553 -14.8756 -14.8645 -14.8537 -14.8283 -14.8100 -14.7813 -14.7729
   -14.7661 -14.7269 -14.6895 -14.5770 -14.4867 -14.4013 -12.8038 -12.6860
   -10.0302  -5.8320  -4.7413  -4.4091  -3.5211  -3.4754  -3.3431  -3.2383
    -3.2047  -3.1964  -3.0755  -2.8926  -2.7975  -2.7702  -2.6982  -2.6293
    -2.5335  -2.5297  -2.4893  -2.3890  -2.3512  -2.3246  -2.2413  -2.2146
    -2.1682  -2.1175  -2.1072  -2.1040  -2.0834  -2.0427  -2.0042  -1.8854
    -1.8005  -1.7787  -1.7050  -1.6887  -1.6827  -1.6546  -1.6117  -1.5925
    -1.5431  -1.5260  -1.4854  -1.4164  -1.3554  -1.2730  -1.2362  -1.1990
    -0.9930  -0.9645  -0.9138  -0.9112  -0.8827  -0.8146  -0.7850  -0.7552
    -0.6894  -0.6867  -0.6585  -0.5522  -0.5093  -0.3885  -0.3180  -0.2383
    -0.1167  -0.1035  -0.0795  -0.0299  -0.0064   0.0533   0.1134   0.1500
     0.1894   0.2021   0.2894   0.3185   0.3950   0.4092   0.4455   0.5115
     0.5272   0.5534   0.5681   0.5839   0.6180   0.6339   0.6681   0.7348
     0.7669   0.8684   0.9171   1.2008   1.2860   1.5951   1.6183   1.7217
     1.9030   2.3001   2.3493   3.7860   3.8473   3.8878   3.9304   3.9340
     4.0157   4.1461   4.2893   4.2987   4.3100   4.3169

[...]

          k = 0.0380-0.0419 0.0000 ( 17876 PWs)   bands (ev):

[...]

          k =-0.0760-0.0000 0.0000 ( 17886 PWs)   bands (ev):

[...]

          k =-0.0760-0.0839 0.0000 ( 17948 PWs)   bands (ev):

   -55.2917 -55.2888 -55.2400 -55.2391 -55.1553 -55.1543 -55.1430 -55.1329
   -55.1286 -55.0765 -55.0681 -55.0656 -55.0238 -54.9798 -54.2833 -54.2832
   -31.6829 -31.6779 -31.5877 -31.5821 -31.5662 -31.5657 -31.5566 -31.5304
   -31.5296 -31.5088 -31.5041 -31.5021 -31.4889 -31.4627 -31.4579 -31.4565
   -31.4308 -31.4302 -31.4237 -31.4028 -31.3804 -31.3783 -31.3680 -31.3641
   -31.3635 -31.3594 -31.3587 -31.3496 -31.3479 -31.3422 -31.3384 -31.3230
   -31.3202 -31.3076 -31.3046 -31.2932 -31.2646 -31.2477 -31.2458 -31.2431
   -31.2259 -31.1728 -30.6049 -30.6048 -30.5232 -30.5230 -30.4832 -30.4832
   -16.7613 -15.8199 -15.5513 -15.5360 -15.4985 -15.4043 -15.3306 -15.2995
   -15.2892 -15.2762 -15.1500 -15.1221 -15.1126 -15.0845 -15.0525 -15.0284
   -15.0245 -14.9892 -14.9322 -14.9261 -14.9183 -14.9100 -14.8465 -14.8383
   -14.8345 -14.8277 -14.7622 -14.7598 -14.6779 -14.6759 -12.7874 -12.7874
   -10.0399  -5.8322  -4.8686  -4.3922  -3.5326  -2.8236  -2.7959  -2.7444
    -2.7139  -2.6127  -2.5272  -2.4999  -2.4634  -2.4056  -2.3534  -2.3060
    -2.3038  -2.2681  -2.2487  -2.2298  -2.1861  -2.1646  -2.1421  -2.1238
    -2.1091  -2.0554  -2.0525  -2.0435  -2.0189  -1.9849  -1.9676  -1.9543
    -1.9380  -1.9197  -1.8943  -1.8750  -1.7319  -1.7110  -1.6703  -1.5535
    -1.5353  -1.5319  -1.4987  -1.4551  -1.4303  -1.4227  -1.3489  -1.3418
    -1.3090  -1.1518  -1.0798  -1.0780  -1.0546  -1.0307  -0.9356  -0.8841
    -0.8437  -0.7939  -0.7180  -0.6866  -0.6679  -0.5954  -0.5685  -0.4769
    -0.3875  -0.3608  -0.3526  -0.2753  -0.2738  -0.2404  -0.2272  -0.1581
    -0.0980  -0.0465  -0.0425  -0.0383   0.0904   0.1274   0.2076   0.3217
     0.4020   0.4106   0.4609   0.5219   0.5961   0.6498   0.6637   0.7885
     0.7904   0.9769   0.9801   1.0286   1.0437   1.1240   1.1291   2.0758
     2.0765   2.1689   2.1692   3.7614   3.9446   3.9987   4.0717   4.0971
     4.1952   4.2799   4.3137   4.3438   4.3656   4.3722

     the Fermi energy is     3.8546 ev

!    total energy              =   -2922.77364410 Ry
     estimated scf accuracy    <       0.00000005 Ry
     smearing contrib. (-TS)   =      -0.04551804 Ry
     internal energy E=F+TS    =   -2922.72812606 Ry

     The total energy is F=E-TS. E is the sum of the following terms:
     one-electron contribution =  -23201.55308457 Ry
     hartree contribution      =   11691.06930115 Ry
     xc contribution           =    -482.54728556 Ry
     ewald contribution        =    9070.29920806 Ry
     electric field correction =       0.00373486 Ry

     convergence has been achieved in  87 iterations

     Forces acting on atoms (cartesian axes, Ry/au):

     atom    1 type  1   force =     0.00016848   -0.00007677    0.09298280
     atom    2 type  1   force =     0.00000197   -0.00014857   -0.17881522
     atom    3 type  2   force =     0.00002193   -0.00029676   -0.02021909
     atom    4 type  2   force =    -0.00000241   -0.00223751    0.06097795
     atom    5 type  2   force =    -0.01149666   -0.00128250    0.01055163
     atom    6 type  2   force =     0.01240923   -0.00058640    0.00811570
     atom    7 type  1   force =    -0.00124325    0.00346663   -0.01488853
     atom    8 type  1   force =     0.00123033   -0.00357800   -0.00844918
     atom    9 type  2   force =     0.00001569   -0.00004851   -0.00026354
     atom   10 type  2   force =    -0.00281279   -0.00047879    0.00153185
     atom   11 type  2   force =     0.00013111   -0.00023150   -0.00028756
     atom   12 type  2   force =    -0.00000440    0.00009039   -0.00009921
     atom   13 type  1   force =    -0.00018807   -0.00031641   -0.00061425
     atom   14 type  1   force =    -0.00003676   -0.00003994    0.00020693
     atom   15 type  2   force =    -0.00011081   -0.00022995   -0.00012427
     atom   16 type  2   force =     0.00032493    0.00035126   -0.00010243
     atom   17 type  2   force =     0.00078866    0.00028443   -0.00022624
     atom   18 type  2   force =     0.00008498   -0.00026972   -0.00003097
     atom   19 type  1   force =     0.00028505    0.00048015   -0.00038099
     atom   20 type  1   force =     0.00011968    0.00000484    0.00046501
     atom   21 type  2   force =     0.00012649   -0.00003358    0.10424166
     atom   22 type  2   force =    -0.00050126    0.00019922    0.00014249
     atom   23 type  2   force =    -0.06991294   -0.00011334   -0.02678182
     atom   24 type  2   force =     0.06988623    0.00034488   -0.02678317
     atom   25 type  1   force =     0.00019453   -0.00021407    0.09227334
     atom   26 type  1   force =    -0.00006090   -0.00035816   -0.17901437
     atom   27 type  2   force =     0.00004100   -0.00025887   -0.01894022
     atom   28 type  2   force =     0.00006611   -0.00192617    0.06022771
     atom   29 type  2   force =    -0.01168628   -0.00162536    0.01034481
     atom   30 type  2   force =     0.01247267   -0.00120647    0.00787552
     atom   31 type  1   force =    -0.00101213    0.00608452   -0.01577393
     atom   32 type  1   force =     0.00116393    0.00334842   -0.00863164
     atom   33 type  2   force =     0.00003005    0.00019850   -0.00024940
     atom   34 type  2   force =    -0.00240517   -0.00053653    0.00058587
     atom   35 type  2   force =     0.00001074   -0.00000406    0.00005544
     atom   36 type  2   force =     0.00002960   -0.00007914    0.00036895
     atom   37 type  1   force =     0.00035539   -0.00003368   -0.00004069
     atom   38 type  1   force =    -0.00034117   -0.00031017    0.00045400
     atom   39 type  2   force =     0.00036200   -0.00014183    0.00062548
     atom   40 type  2   force =     0.00025188   -0.00017798    0.00003347
     atom   41 type  2   force =     0.00005677    0.00035813   -0.00044590
     atom   42 type  2   force =     0.00048695    0.00021304   -0.00017807
     atom   43 type  1   force =     0.00027067   -0.00020818   -0.00033787
     atom   44 type  1   force =     0.00011954   -0.00125688    0.00057054
     atom   45 type  2   force =     0.00011862   -0.00005188    0.10417462
     atom   46 type  2   force =    -0.06992955   -0.00005212   -0.02677303
     atom   47 type  2   force =     0.06991857    0.00035370   -0.02679246
     atom   48 type  3   force =     0.00427973   -0.00523859   -0.00096506
     atom   49 type  4   force =     0.00246608    0.01940558    0.00040429
     atom   50 type  5   force =     0.00109607   -0.00207252   -0.00177162
     atom   51 type  5   force =    -0.00240998   -0.00295437   -0.00171045
     atom   52 type  5   force =    -0.00412290   -0.00784215    0.00228384
     atom   53 type  5   force =     0.00014430    0.00060107   -0.00092953
     atom   54 type  5   force =    -0.00067139    0.00033315   -0.00048275
     atom   55 type  5   force =    -0.00058115    0.00039950    0.00160955

     Total force =     0.368289     Total SCF correction =     0.000549
  @ DRIVER MODE: Message from server: STATUS
  @ DRIVER MODE: Message from server: GETFORCE
  @ DRIVER MODE: Returning v,forces,stress,ensemble

     Writing output data file ./calc.save/
  @ DRIVER MODE: Message from server: EXIT
  @ DRIVE MODE: Exiting

     General routines

     Parallel routines

   This run was terminated on:  15:45:16   2Aug2021

   JOB DONE.