     Program PWSCF v.6.7GPU starts on 10Sep2021 at 19:13:22

     R & G space division:  proc/nbgrp/npool/nimage =      10
     Reading input from /storage/home/hcoda1/3/ntian30/research/carbon/CxH_vib/CH2_calc/ads_slab/CH2N2H_e/out_0005/pw.inp
Warning: card &CELL ignored
Warning: card   CELL_DYNAMICS='IPI', ignored
Warning: card / ignored

     Current dimensions of program PWSCF are:
     Max number of different atomic species (ntypx) = 10
     Max number of k-points (npk) =  40000
     Max angular momentum in pseudopotentials (lmaxx) =  3
     Presently no symmetry can be used with electric field

     Message from routine cell_base_init:
     DEPRECATED: use true lattice parameter, not A to a.u. conversion factor

     IMPORTANT: XC functional enforced from input :
     Exchange-correlation= BEEF-VDW
                           (   1   4  43  14   2   0   0)
     Any further DFT definition will be discarded
     Please, verify this is what you really want

  @ DRIVER MODE: Connecting to
 qe_1139763_2792041.sched-torque.pace.gatech.eduj7zpm3lc_scratch
  using UNIX socket
  @ DRIVER MODE: Message from server: STATUS
  @ DRIVER MODE: Message from server: INIT
  @ DRIVER MODE: Receiving replica           0          -1
  @ DRIVER MODE: Receiving encoded integer          25
  @ DRIVER MODE:  SCF:  T  FORCE:  T  STRESS:  F  VC:  F  ENSEMBLE:  F
  @ DRIVER MODE:  SCF:  T  FORCE:  T  STRESS:  F  VC:  F  ENSEMBLE:  F

     Using Slab Decomposition

     bravais-lattice index     =            0
     lattice parameter (alat)  =       1.8897  a.u.
     unit-cell volume          =    6658.9804 (a.u.)^3
     number of atoms/cell      =           53
     number of atomic types    =            5
     number of electrons       =       395.00
     number of Kohn-Sham states=          207
     kinetic-energy cutoff     =      29.3995  Ry
     charge density cutoff     =     293.9946  Ry
     scf convergence threshold =      7.3E-08
     mixing beta               =       0.0500
     number of iterations used =            8  plain     mixing
     Exchange-correlation= BEEF-VDW
                           (   1   4  43  14   2   0   0)

     celldm(1)=   1.889726  celldm(2)=   0.000000  celldm(3)=   0.000000
     celldm(4)=   0.000000  celldm(5)=   0.000000  celldm(6)=   0.000000

     crystal axes: (cart. coord. in units of alat)
               a(1) = (   6.579727   0.000000   0.000000 )
               a(2) = (  -0.000775   5.961596   0.000000 )
               a(3) = (   0.000000   0.000000  25.155947 )

     reciprocal axes: (cart. coord. in units 2 pi/alat)
               b(1) = (  0.151982  0.000020  0.000000 )
               b(2) = (  0.000000  0.167740  0.000000 )
               b(3) = (  0.000000  0.000000  0.039752 )

     PseudoPot. # 1 for Ti read from file:
     /storage/coda1/p-amedford6/0/shared/rich_project_chbe-medford/medford-share/data/pseudos_module/espresso/nninc/pbe/van/Ti.UPF
     MD5 check sum: 8e4df49b7f0d34bbd5052bf3f5ea0213
     Pseudo is Ultrasoft, Zval = 12.0
     Generated by new atomic code, or converted to UPF format
     Using radial grid of  851 points,  6 beta functions with:
                l(1) =   0
                l(2) =   0
                l(3) =   1
                l(4) =   1
                l(5) =   2
                l(6) =   2
     Q(r) pseudized with  8 coefficients,  rinner =    1.000   1.000   1.000
                                                       1.000   1.000

     PseudoPot. # 2 for O  read from file:
     /storage/coda1/p-amedford6/0/shared/rich_project_chbe-medford/medford-share/data/pseudos_module/espresso/nninc/pbe/van/O.UPF
     MD5 check sum: 78c19812648e8988a0fe644b0f25305e
     Pseudo is Ultrasoft, Zval =  6.0
     Generated by new atomic code, or converted to UPF format
     Using radial grid of  737 points,  4 beta functions with:
                l(1) =   0
                l(2) =   0
                l(3) =   1
                l(4) =   1
     Q(r) pseudized with  8 coefficients,  rinner =    0.800   0.800   0.800

     PseudoPot. # 3 for N  read from file:
     /storage/coda1/p-amedford6/0/shared/rich_project_chbe-medford/medford-share/data/pseudos_module/espresso/nninc/pbe/van/N.UPF
     MD5 check sum: 90d10febe142ad51ac9d5be1deb811c4
     Pseudo is Ultrasoft, Zval =  5.0
     Generated by new atomic code, or converted to UPF format
     Using radial grid of  729 points,  4 beta functions with:
                l(1) =   0
                l(2) =   0
                l(3) =   1
                l(4) =   1
     Q(r) pseudized with  8 coefficients,  rinner =    0.800   0.800   0.800

     PseudoPot. # 4 for C  read from file:
     /storage/coda1/p-amedford6/0/shared/rich_project_chbe-medford/medford-share/data/pseudos_module/espresso/nninc/pbe/van/C.UPF
     MD5 check sum: 1a69bf6b8db32088f5b2163dbdb77a27
     Pseudo is Ultrasoft, Zval =  4.0
     Generated by new atomic code, or converted to UPF format
     Using radial grid of  721 points,  4 beta functions with:
                l(1) =   0
                l(2) =   0
                l(3) =   1
                l(4) =   1
     Q(r) pseudized with  8 coefficients,  rinner =    0.800   0.800   0.800

     PseudoPot. # 5 for H  read from file:
     /storage/coda1/p-amedford6/0/shared/rich_project_chbe-medford/medford-share/data/pseudos_module/espresso/nninc/pbe/van/H.UPF
     MD5 check sum: b5ee9d7bfd3a09ee7748110bda690ff7
     Pseudo is Ultrasoft, Zval =  1.0
     Generated by new atomic code, or converted to UPF format
     Using radial grid of  615 points,  1 beta functions with:
                l(1) =   0
     Q(r) pseudized with  8 coefficients,  rinner =    0.800

     atomic species   valence    mass     pseudopotential
        Ti1           12.00    47.86700     Ti( 1.00)
        O1             6.00    15.99900     O ( 1.00)
        N1             5.00    14.00700     N ( 1.00)
        C1             4.00    12.01100     C ( 1.00)
        H1             1.00     1.00800     H ( 1.00)

     No symmetry found

   Cartesian axes

     site n.     atom                  positions (alat units)
         1           Ti1 tau(   1) = (   0.0004258   2.9801865   6.0000000  )
         2           Ti1 tau(   2) = (   3.2906075   1.4906267   6.0002472  )
         3           O1  tau(   3) = (   0.0006271   0.0005054   7.9858123  )
         4           O1  tau(   4) = (   3.2906025   0.0005020   7.3038282  )
         5           O1  tau(   5) = (   4.5942328   1.4918067   9.2879030  )
         6           O1  tau(   6) = (   1.9868534   1.4903216   9.2879459  )
         7           Ti1 tau(   7) = (   3.2907910   2.8959150   9.1758416  )
         8           Ti1 tau(   8) = (   0.0015273   1.4827037   9.2680791  )
         9           O1  tau(   9) = (   3.2922140   0.0036562  11.3253104  )
        10           O1  tau(  10) = (   0.0116148   5.9584955  10.6183126  )
        11           O1  tau(  11) = (   1.2860832   1.4889729  12.6258215  )
        12           O1  tau(  12) = (   5.2729595   1.4828594  12.6177116  )
        13           Ti1 tau(  13) = (   0.0641184   3.0073180  12.5883652  )
        14           Ti1 tau(  14) = (   3.3767723   1.4911129  12.4765728  )
        15           O1  tau(  15) = (   6.5781935   5.9569561  14.6821271  )
        16           O1  tau(  16) = (   3.2819581   0.0025077  13.9050320  )
        17           O1  tau(  17) = (   4.5172158   1.5234625  16.0337941  )
        18           O1  tau(  18) = (   2.0475084   1.5263597  16.0453316  )
        19           Ti1 tau(  19) = (   3.2743797   3.0127756  15.6984511  )
        20           Ti1 tau(  20) = (   6.5512008   1.5842238  15.7855373  )
        21           O1  tau(  21) = (   3.2904802   0.0005063   4.7018136  )
        22           O1  tau(  22) = (   6.5742344   0.0609322  17.2932839  )
        23           O1  tau(  23) = (   1.3043587   1.4918075   6.0039043  )
        24           O1  tau(  24) = (   5.2767064   1.4903225   6.0039473  )
        25           Ti1 tau(  25) = (   0.0000382   5.9609847   6.0000000  )
        26           Ti1 tau(  26) = (   3.2902200   4.4714249   6.0002472  )
        27           O1  tau(  27) = (   0.0002396   2.9813036   7.9858123  )
        28           O1  tau(  28) = (   3.2902150   2.9813002   7.3038282  )
        29           O1  tau(  29) = (   4.5938453   4.4726049   9.2879030  )
        30           O1  tau(  30) = (   1.9864658   4.4711199   9.2879459  )
        31           Ti1 tau(  31) = (   3.2891106   5.8743827   9.1763621  )
        32           Ti1 tau(  32) = (   0.0006254   4.4649316   9.2693709  )
        33           O1  tau(  33) = (   3.2917412   2.9831059  11.3263362  )
        34           O1  tau(  34) = (   0.0092240   2.9805883  10.6323155  )
        35           O1  tau(  35) = (   1.2859270   4.4784489  12.6216084  )
        36           O1  tau(  36) = (   5.2779610   4.4756213  12.6128944  )
        37           Ti1 tau(  37) = (   0.0616295   0.0157230  12.5710002  )
        38           Ti1 tau(  38) = (   3.3796684   4.4726909  12.4790056  )
        39           O1  tau(  39) = (   6.5693437   2.9756239  14.6354252  )
        40           O1  tau(  40) = (   3.2842310   3.0020566  13.9003041  )
        41           O1  tau(  41) = (   4.5171552   4.5052370  16.0986928  )
        42           O1  tau(  42) = (   2.0408908   4.5012300  16.0971631  )
        43           Ti1 tau(  43) = (   3.2680294   0.0293594  15.7040856  )
        44           Ti1 tau(  44) = (   6.5592110   4.6908586  16.1766550  )
        45           O1  tau(  45) = (   3.2900926   2.9813045   4.7018136  )
        46           O1  tau(  46) = (   1.3039711   4.4726057   6.0039043  )
        47           O1  tau(  47) = (   5.2763189   4.4711207   6.0039473  )
        48           N1  tau(  48) = (   0.0931655   2.5901963  18.5487852  )
        49           N1  tau(  49) = (   6.5755498   2.9338716  17.3126873  )
        50           C1  tau(  50) = (   0.1889803   3.3462807  19.6294495  )
        51           H1  tau(  51) = (   0.2540540   2.8541835  20.5836859  )
        52           H1  tau(  52) = (   0.1890997   4.4171571  19.5098884  )
        53           H1  tau(  53) = (   0.0969130   1.5623892  18.6894177  )

     number of k points=    10  Fermi-Dirac smearing, width (Ry)=  0.0073
                       cart. coord. in units 2pi/alat
        k(    1) = (   0.0000000   0.0000000   0.0000000), wk =   0.1250000
        k(    2) = (   0.0000000   0.0419351   0.0000000), wk =   0.2500000
        k(    3) = (   0.0000000  -0.0838702   0.0000000), wk =   0.1250000
        k(    4) = (   0.0379955   0.0000049   0.0000000), wk =   0.2500000
        k(    5) = (   0.0379955   0.0419400   0.0000000), wk =   0.2500000
        k(    6) = (   0.0379955  -0.0838652   0.0000000), wk =   0.2500000
        k(    7) = (   0.0379955  -0.0419301   0.0000000), wk =   0.2500000
        k(    8) = (  -0.0759910  -0.0000099   0.0000000), wk =   0.1250000
        k(    9) = (  -0.0759910   0.0419252   0.0000000), wk =   0.2500000
        k(   10) = (  -0.0759910  -0.0838800   0.0000000), wk =   0.1250000

     Initial potential from superposition of free atoms

     starting charge  378.99916, renormalised to  395.00000

     negative rho (up, down):  1.524E-02 0.000E+00

     %%%%%%%%%%%%%%%%%%%%%%%%%%%%%%%%%%%%%%%%%%%%%%%%%%%%%%%%%%%%%%%%%%%%%%%%
     %                                                                      %
     % You are using vdW-DF, which was implemented by the Thonhauser group. %
     % Please cite the following two papers that made this development      %
     % possible and the two reviews that describe the various versions:     %
     %                                                                      %
     %   T. Thonhauser et al., PRL 115, 136402 (2015).                      %
     %   T. Thonhauser et al., PRB 76, 125112 (2007).                       %
     %   K. Berland et al., Rep. Prog. Phys. 78, 066501 (2015).             %
     %   D.C. Langreth et al., J. Phys.: Condens. Matter 21, 084203 (2009). %
     %                                                                      %
     %                                                                      %
     % If you are calculating the stress with vdW-DF, please also cite:     %
     %                                                                      %
     %   R. Sabatini et al., J. Phys.: Condens. Matter 24, 424209 (2012).   %
     %                                                                      %
     %%%%%%%%%%%%%%%%%%%%%%%%%%%%%%%%%%%%%%%%%%%%%%%%%%%%%%%%%%%%%%%%%%%%%%%%

     Adding external electric field

     Computed dipole along edir(3) :
        Dipole               -8.7445 Ry au,        -22.2263 Debye
        Dipole field         -0.0165 Ry au,

        Potential amp.        1.5297 Ry
        Total length         46.3494 bohr

     Starting wfcs are  299 atomic wfcs
  @ DRIVER MODE: Message from server: STATUS
  @ DRIVER MODE: Message from server: POSDATA
  @ DRIVER MODE: Reading and sharing cell
  @ DRIVER MODE: Reading and sharing positions
  @ DRIVER MODE: Received positions

     Self-consistent Calculation

     iteration #  1     ecut=    29.40 Ry     beta= 0.05
     Davidson diagonalization with overlap
     c_bands:  2 eigenvalues not converged
     c_bands:  1 eigenvalues not converged
     c_bands:  1 eigenvalues not converged
     c_bands:  3 eigenvalues not converged
     c_bands:  2 eigenvalues not converged
     c_bands:  1 eigenvalues not converged
     c_bands:  1 eigenvalues not converged
     ethr =  1.00E-05,  avg # of iterations = 19.1

[...]

     total energy              =   -2616.95252717 Ry
     estimated scf accuracy    <    3577.89166661 Ry

     iteration #  2     ecut=    29.40 Ry     beta= 0.05
     Davidson diagonalization with overlap
     ethr =  1.00E-02,  avg # of iterations = 22.0

[...]

     iteration # 56     ecut=    29.40 Ry     beta= 0.05
     Davidson diagonalization with overlap
     c_bands:  2 eigenvalues not converged
     ethr =  3.16E-10,  avg # of iterations = 14.6

[...]

     total energy              =   -2939.15560870 Ry
     estimated scf accuracy    <       0.00000009 Ry

     iteration # 63     ecut=    29.40 Ry     beta= 0.05
     Davidson diagonalization with overlap
     ethr =  2.25E-11,  avg # of iterations =  6.3

     negative rho (up, down):  1.567E-02 0.000E+00

     Adding external electric field

     Computed dipole along edir(3) :
        Dipole                1.1003 Ry au,          2.7967 Debye
        Dipole field          0.0021 Ry au,

        Potential amp.       -0.1925 Ry
        Total length         46.3494 bohr

     End of self-consistent calculation

          k = 0.0000 0.0000 0.0000 ( 18029 PWs)   bands (ev):

   -55.6002 -55.5974 -55.5661 -55.5615 -55.4683 -55.4494 -55.4320 -55.4143
   -55.4141 -55.3804 -55.3758 -55.3421 -54.9698 -54.8810 -54.5784 -54.5444
   -32.1521 -32.0830 -31.9692 -31.9126 -31.9101 -31.9017 -31.8930 -31.8669
   -31.8441 -31.8247 -31.7927 -31.7831 -31.7767 -31.7524 -31.7502 -31.7373
   -31.7048 -31.6951 -31.6855 -31.6719 -31.6688 -31.6573 -31.6230 -31.6165
   -31.6071 -31.6033 -31.5989 -31.5907 -31.5797 -31.5777 -31.5532 -31.5430
   -31.5295 -31.5240 -31.5162 -31.4886 -31.4760 -31.2089 -31.2016 -31.1615
   -31.1139 -31.0608 -30.9855 -30.8973 -30.8749 -30.8024 -30.7159 -30.6047
   -18.9886 -16.3556 -16.0789 -15.8312 -15.7510 -15.7344 -15.6187 -15.4461
   -15.3297 -15.2786 -15.1754 -15.1746 -15.1377 -15.1038 -15.0559 -15.0524
   -15.0477 -15.0204 -15.0109 -14.9912 -14.9612 -14.9429 -14.9032 -14.8042
   -14.7859 -14.7362 -14.7069 -14.6817 -14.6613 -14.2736 -13.0807 -12.9642
   -12.6871  -8.8490  -6.2917  -4.8469  -3.7309  -3.6628  -3.5731  -3.5080
    -3.4695  -3.4327  -3.2438  -3.2053  -3.1561  -2.8494  -2.7889  -2.7705
    -2.7604  -2.7308  -2.5062  -2.4669  -2.4160  -2.3853  -2.3734  -2.3712
    -2.3697  -2.3395  -2.3215  -2.1804  -2.1458  -2.0553  -2.0153  -2.0095
    -1.9996  -1.9135  -1.8812  -1.8552  -1.8451  -1.8351  -1.8073  -1.7985
    -1.7896  -1.6551  -1.5766  -1.4235  -1.4043  -1.3630  -1.2333  -1.2089
    -1.0769  -1.0597  -1.0309  -0.9939  -0.9742  -0.9054  -0.7848  -0.7632
    -0.7276  -0.7107  -0.6222  -0.5842  -0.5154  -0.4797  -0.4579  -0.4062
    -0.3713  -0.3622  -0.3403  -0.2083  -0.0842  -0.0261  -0.0176   0.0097
     0.0780   0.1159   0.1771   0.2280   0.2367   0.2728   0.3243   0.3689
     0.3808   0.3832   0.3985   0.4367   0.5779   0.5943   0.6598   0.7058
     0.7485   0.8643   0.9161   1.0512   1.1437   1.3012   1.3710   1.4439
     1.5163   1.6360   2.0146   2.0503   2.0604   3.5299   3.6185   3.6626
     3.6678   3.7736   3.8687   3.9814   4.0006   4.0212   4.0765

[...]

          k = 0.0380-0.0419 0.0000 ( 17876 PWs)   bands (ev):

[...]

          k =-0.0760-0.0000 0.0000 ( 17886 PWs)   bands (ev):

[...]

          k =-0.0760-0.0839 0.0000 ( 17948 PWs)   bands (ev):

   -55.5833 -55.5829 -55.5797 -55.5789 -55.4557 -55.4446 -55.4351 -55.4282
   -55.3973 -55.3969 -55.3596 -55.3584 -54.9670 -54.8836 -54.5614 -54.5613
   -31.9555 -31.9538 -31.8985 -31.8980 -31.8787 -31.8781 -31.8517 -31.8515
   -31.8168 -31.8044 -31.7804 -31.7742 -31.7395 -31.7314 -31.7165 -31.7146
   -31.7121 -31.7093 -31.7028 -31.7025 -31.6998 -31.6971 -31.6691 -31.6614
   -31.6431 -31.6409 -31.6338 -31.6284 -31.5979 -31.5964 -31.5913 -31.5898
   -31.5751 -31.5743 -31.5743 -31.5720 -31.3788 -31.2443 -31.2097 -31.1773
   -31.1160 -31.1048 -30.8876 -30.8876 -30.7983 -30.7982 -30.7592 -30.7592
   -18.9847 -15.7858 -15.7711 -15.5447 -15.5293 -15.5185 -15.5095 -15.3619
   -15.3349 -15.2968 -15.2938 -15.2226 -15.1767 -15.1601 -15.1445 -15.1420
   -15.1234 -15.1154 -15.0669 -15.0600 -15.0588 -15.0407 -15.0342 -14.9199
   -14.9159 -14.9079 -14.8553 -14.8063 -14.6891 -14.4007 -13.0661 -13.0660
   -12.6923  -8.8488  -6.2864  -4.8070  -3.6778  -3.3334  -3.0734  -3.0622
    -2.7722  -2.7611  -2.7590  -2.7157  -2.5232  -2.5184  -2.5044  -2.4724
    -2.4389  -2.4275  -2.4176  -2.4035  -2.3979  -2.3494  -2.3275  -2.2824
    -2.2690  -2.2660  -2.2645  -2.2291  -2.2187  -2.1760  -2.1653  -2.1428
    -2.1308  -2.0975  -2.0679  -1.9218  -1.8347  -1.8157  -1.7419  -1.7351
    -1.7023  -1.6655  -1.6517  -1.6075  -1.5723  -1.4557  -1.3432  -1.3018
    -1.2871  -1.1869  -1.1503  -1.1116  -1.0596  -0.9856  -0.9774  -0.9486
    -0.8812  -0.8105  -0.7934  -0.7711  -0.7059  -0.6781  -0.6091  -0.5885
    -0.5632  -0.5583  -0.5013  -0.4333  -0.4203  -0.3687  -0.3605  -0.3194
    -0.2850  -0.2559  -0.2360  -0.0971  -0.0958  -0.0539   0.0807   0.1357
     0.3676   0.4171   0.4371   0.5082   0.6089   0.6576   0.6707   0.7123
     0.7215   0.7367   0.7980   0.9264   0.9319   1.0006   1.0415   1.1411
     1.8078   1.8082   1.8802   1.8803   1.9127   3.8256   3.8521   3.8648
     3.8887   4.0366   4.0466   4.0666   4.0672   4.1887   4.2173

     the Fermi energy is     3.5313 ev

!    total energy              =   -2939.15563723 Ry
     estimated scf accuracy    <       0.00000004 Ry
     smearing contrib. (-TS)   =      -0.02147584 Ry
     internal energy E=F+TS    =   -2939.13416139 Ry

     The total energy is F=E-TS. E is the sum of the following terms:
     one-electron contribution =  -24215.05880326 Ry
     hartree contribution      =   12197.24645982 Ry
     xc contribution           =    -485.25624210 Ry
     ewald contribution        =    9563.93213937 Ry
     electric field correction =       0.00228477 Ry

     convergence has been achieved in  63 iterations

     Forces acting on atoms (cartesian axes, Ry/au):

     atom    1 type  1   force =     0.00008054   -0.00018005    0.09639905
     atom    2 type  1   force =    -0.00018751   -0.00072565   -0.17540089
     atom    3 type  2   force =     0.00004618   -0.00013854   -0.02408934
     atom    4 type  2   force =     0.00007657   -0.00140914    0.05268846
     atom    5 type  2   force =    -0.01131953   -0.00007597    0.00339713
     atom    6 type  2   force =     0.01297258    0.00063834    0.00224048
     atom    7 type  1   force =    -0.00120004    0.00046882   -0.01225028
     atom    8 type  1   force =     0.00042724    0.00234051    0.02519657
     atom    9 type  2   force =    -0.00025067    0.00019512    0.00004545
     atom   10 type  2   force =    -0.00120543    0.00197939   -0.01304078
     atom   11 type  2   force =     0.00057353    0.00015560    0.00024454
     atom   12 type  2   force =    -0.00049687    0.00006058    0.00012075
     atom   13 type  1   force =    -0.00049681    0.00026917    0.00020356
     atom   14 type  1   force =     0.00060488   -0.00036650   -0.00029704
     atom   15 type  2   force =    -0.00006862    0.00028532    0.00009961
     atom   16 type  2   force =    -0.00001856    0.00018524    0.00061217
     atom   17 type  2   force =    -0.00039121    0.00007358    0.00000052
     atom   18 type  2   force =     0.00001822    0.00000100   -0.00024388
     atom   19 type  1   force =     0.00012050    0.00081072    0.00053961
     atom   20 type  1   force =    -0.00005494   -0.00026978   -0.00114983
     atom   21 type  2   force =     0.00009855   -0.00012350    0.10315586
     atom   22 type  2   force =    -0.00028981    0.00002422   -0.00071198
     atom   23 type  2   force =    -0.07149493   -0.00021489   -0.02774410
     atom   24 type  2   force =     0.07149525    0.00024988   -0.02775339
     atom   25 type  1   force =     0.00011883   -0.00024786    0.09594361
     atom   26 type  1   force =    -0.00011001   -0.00043605   -0.17556781
     atom   27 type  2   force =     0.00009720   -0.00012744   -0.02333150
     atom   28 type  2   force =     0.00010981   -0.00121758    0.05265256
     atom   29 type  2   force =    -0.01156616   -0.00030164    0.00347526
     atom   30 type  2   force =     0.01315430    0.00016112    0.00228129
     atom   31 type  1   force =    -0.00120331    0.00346646   -0.01237440
     atom   32 type  1   force =     0.00053711   -0.00378418    0.02548405
     atom   33 type  2   force =     0.00002579   -0.00017778   -0.00001617
     atom   34 type  2   force =    -0.00098377    0.00046670   -0.02168062
     atom   35 type  2   force =     0.00014003    0.00001504    0.00018717
     atom   36 type  2   force =    -0.00014416    0.00002525    0.00007131
     atom   37 type  1   force =    -0.00044520   -0.00032724    0.00014975
     atom   38 type  1   force =     0.00044529    0.00027613   -0.00028350
     atom   39 type  2   force =    -0.00001494   -0.00047956    0.00024487
     atom   40 type  2   force =    -0.00012734   -0.00008771    0.00014823
     atom   41 type  2   force =    -0.00071852   -0.00026966   -0.00022892
     atom   42 type  2   force =     0.00077264   -0.00009037    0.00000016
     atom   43 type  1   force =    -0.00000918   -0.00081308    0.00028821
     atom   44 type  1   force =    -0.00004392    0.00074123   -0.00020646
     atom   45 type  2   force =     0.00010484   -0.00010835    0.10317536
     atom   46 type  2   force =    -0.07149534   -0.00015007   -0.02773308
     atom   47 type  2   force =     0.07150412    0.00029433   -0.02773990
     atom   48 type  3   force =     0.00225059    0.00037691    0.02929150
     atom   49 type  3   force =    -0.00065318    0.00286862   -0.01396242
     atom   50 type  4   force =    -0.00102824   -0.00416863   -0.01060843
     atom   51 type  5   force =     0.00015908   -0.00144631   -0.00071756
     atom   52 type  5   force =     0.00017709   -0.00054878    0.00058581
     atom   53 type  5   force =    -0.00009259    0.00185703   -0.00179061

     Total force =     0.368377     Total SCF correction =     0.000617
  @ DRIVER MODE: Message from server: STATUS
  @ DRIVER MODE: Message from server: GETFORCE
  @ DRIVER MODE: Returning v,forces,stress,ensemble

     Writing output data file ./calc.save/
  @ DRIVER MODE: Message from server: EXIT
  @ DRIVE MODE: Exiting

     General routines

     Parallel routines

   This run was terminated on:  19:31: 3  10Sep2021

   JOB DONE.