     Program PWSCF v.6.7GPU starts on 22Sep2021 at 17:18:33

     R & G space division:  proc/nbgrp/npool/nimage =      10
     Reading input from /storage/home/hcoda1/3/ntian30/research/carbon/CxH_vib/H2O_calc/ads_slab/CH2NHNHO_a/out_0003/pw.inp
Warning: card &CELL ignored
Warning: card   CELL_DYNAMICS='IPI', ignored
Warning: card / ignored

     Current dimensions of program PWSCF are:
     Max number of different atomic species (ntypx) = 10
     Max number of k-points (npk) =  40000
     Max angular momentum in pseudopotentials (lmaxx) =  3
     Presently no symmetry can be used with electric field

     Message from routine cell_base_init:
     DEPRECATED: use true lattice parameter, not A to a.u. conversion factor

     IMPORTANT: XC functional enforced from input :
     Exchange-correlation= BEEF-VDW
                           (   1   4  43  14   2   0   0)
     Any further DFT definition will be discarded
     Please, verify this is what you really want

  @ DRIVER MODE: Connecting to
 qe_1139763_2937322.sched-torque.pace.gatech.edupr5b7uxq_scratch
  using UNIX socket
  @ DRIVER MODE: Message from server: STATUS
  @ DRIVER MODE: Message from server: INIT
  @ DRIVER MODE: Receiving replica           0          -1
  @ DRIVER MODE: Receiving encoded integer          25
  @ DRIVER MODE:  SCF:  T  FORCE:  T  STRESS:  F  VC:  F  ENSEMBLE:  F
  @ DRIVER MODE:  SCF:  T  FORCE:  T  STRESS:  F  VC:  F  ENSEMBLE:  F

     Using Slab Decomposition

     bravais-lattice index     =            0
     lattice parameter (alat)  =       1.8897  a.u.
     unit-cell volume          =    6658.9804 (a.u.)^3
     number of atoms/cell      =           55
     number of atomic types    =            5
     number of electrons       =       402.00
     number of Kohn-Sham states=          211
     kinetic-energy cutoff     =      29.3995  Ry
     charge density cutoff     =     293.9946  Ry
     scf convergence threshold =      7.3E-08
     mixing beta               =       0.0500
     number of iterations used =            8  plain     mixing
     Exchange-correlation= BEEF-VDW
                           (   1   4  43  14   2   0   0)

     celldm(1)=   1.889726  celldm(2)=   0.000000  celldm(3)=   0.000000
     celldm(4)=   0.000000  celldm(5)=   0.000000  celldm(6)=   0.000000

     crystal axes: (cart. coord. in units of alat)
               a(1) = (   6.579727   0.000000   0.000000 )
               a(2) = (  -0.000775   5.961596   0.000000 )
               a(3) = (   0.000000   0.000000  25.155947 )

     reciprocal axes: (cart. coord. in units 2 pi/alat)
               b(1) = (  0.151982  0.000020  0.000000 )
               b(2) = (  0.000000  0.167740  0.000000 )
               b(3) = (  0.000000  0.000000  0.039752 )

     PseudoPot. # 1 for Ti read from file:
     /storage/coda1/p-amedford6/0/shared/rich_project_chbe-medford/medford-share/data/pseudos_module/espresso/nninc/pbe/van/Ti.UPF
     MD5 check sum: 8e4df49b7f0d34bbd5052bf3f5ea0213
     Pseudo is Ultrasoft, Zval = 12.0
     Generated by new atomic code, or converted to UPF format
     Using radial grid of  851 points,  6 beta functions with:
                l(1) =   0
                l(2) =   0
                l(3) =   1
                l(4) =   1
                l(5) =   2
                l(6) =   2
     Q(r) pseudized with  8 coefficients,  rinner =    1.000   1.000   1.000
                                                       1.000   1.000

     PseudoPot. # 2 for O  read from file:
     /storage/coda1/p-amedford6/0/shared/rich_project_chbe-medford/medford-share/data/pseudos_module/espresso/nninc/pbe/van/O.UPF
     MD5 check sum: 78c19812648e8988a0fe644b0f25305e
     Pseudo is Ultrasoft, Zval =  6.0
     Generated by new atomic code, or converted to UPF format
     Using radial grid of  737 points,  4 beta functions with:
                l(1) =   0
                l(2) =   0
                l(3) =   1
                l(4) =   1
     Q(r) pseudized with  8 coefficients,  rinner =    0.800   0.800   0.800

     PseudoPot. # 3 for N  read from file:
     /storage/coda1/p-amedford6/0/shared/rich_project_chbe-medford/medford-share/data/pseudos_module/espresso/nninc/pbe/van/N.UPF
     MD5 check sum: 90d10febe142ad51ac9d5be1deb811c4
     Pseudo is Ultrasoft, Zval =  5.0
     Generated by new atomic code, or converted to UPF format
     Using radial grid of  729 points,  4 beta functions with:
                l(1) =   0
                l(2) =   0
                l(3) =   1
                l(4) =   1
     Q(r) pseudized with  8 coefficients,  rinner =    0.800   0.800   0.800

     PseudoPot. # 4 for C  read from file:
     /storage/coda1/p-amedford6/0/shared/rich_project_chbe-medford/medford-share/data/pseudos_module/espresso/nninc/pbe/van/C.UPF
     MD5 check sum: 1a69bf6b8db32088f5b2163dbdb77a27
     Pseudo is Ultrasoft, Zval =  4.0
     Generated by new atomic code, or converted to UPF format
     Using radial grid of  721 points,  4 beta functions with:
                l(1) =   0
                l(2) =   0
                l(3) =   1
                l(4) =   1
     Q(r) pseudized with  8 coefficients,  rinner =    0.800   0.800   0.800

     PseudoPot. # 5 for H  read from file:
     /storage/coda1/p-amedford6/0/shared/rich_project_chbe-medford/medford-share/data/pseudos_module/espresso/nninc/pbe/van/H.UPF
     MD5 check sum: b5ee9d7bfd3a09ee7748110bda690ff7
     Pseudo is Ultrasoft, Zval =  1.0
     Generated by new atomic code, or converted to UPF format
     Using radial grid of  615 points,  1 beta functions with:
                l(1) =   0
     Q(r) pseudized with  8 coefficients,  rinner =    0.800

     atomic species   valence    mass     pseudopotential
        Ti1           12.00    47.86700     Ti( 1.00)
        O1             6.00    15.99900     O ( 1.00)
        N1             5.00    14.00700     N ( 1.00)
        C1             4.00    12.01100     C ( 1.00)
        H1             1.00     1.00800     H ( 1.00)

     No symmetry found

   Cartesian axes

     site n.     atom                  positions (alat units)
         1           Ti1 tau(   1) = (   0.0004258   2.9801865   6.0000000  )
         2           Ti1 tau(   2) = (   3.2906075   1.4906267   6.0002472  )
         3           O1  tau(   3) = (   0.0006271   0.0005054   7.9858123  )
         4           O1  tau(   4) = (   3.2906025   0.0005020   7.3038282  )
         5           O1  tau(   5) = (   4.5942328   1.4918067   9.2879030  )
         6           O1  tau(   6) = (   1.9868534   1.4903216   9.2879459  )
         7           Ti1 tau(   7) = (   3.2907910   2.8959150   9.1758416  )
         8           Ti1 tau(   8) = (   0.0015273   1.4827037   9.2680791  )
         9           O1  tau(   9) = (   3.2865774   0.0244666  11.2672233  )
        10           O1  tau(  10) = (   0.0116148   5.9584955  10.6183126  )
        11           O1  tau(  11) = (   1.2851059   1.4881214  12.6284388  )
        12           O1  tau(  12) = (   5.2821296   1.4859116  12.6239949  )
        13           Ti1 tau(  13) = (   6.5757640   3.1226837  12.6583379  )
        14           Ti1 tau(  14) = (   3.2808560   1.5553189  12.4169499  )
        15           O1  tau(  15) = (   6.5631415   0.0020138  14.6662933  )
        16           O1  tau(  16) = (   3.2768600   5.9282172  13.8639556  )
        17           O1  tau(  17) = (   4.5247100   1.5609280  15.9911388  )
        18           O1  tau(  18) = (   2.0319249   1.5505618  16.0334288  )
        19           Ti1 tau(  19) = (   3.2655126   3.0139642  15.6417618  )
        20           Ti1 tau(  20) = (   6.4701730   1.5779936  15.7979382  )
        21           O1  tau(  21) = (   3.2904802   0.0005063   4.7018136  )
        22           O1  tau(  22) = (   6.5470303   0.0764028  17.2486596  )
        23           O1  tau(  23) = (   1.3043587   1.4918075   6.0039043  )
        24           O1  tau(  24) = (   5.2767064   1.4903225   6.0039473  )
        25           Ti1 tau(  25) = (   0.0000382   5.9609847   6.0000000  )
        26           Ti1 tau(  26) = (   3.2902200   4.4714249   6.0002472  )
        27           O1  tau(  27) = (   0.0002396   2.9813036   7.9858123  )
        28           O1  tau(  28) = (   3.2902150   2.9813002   7.3038282  )
        29           O1  tau(  29) = (   4.5938453   4.4726049   9.2879030  )
        30           O1  tau(  30) = (   1.9864658   4.4711199   9.2879459  )
        31           Ti1 tau(  31) = (   3.2891106   5.8743827   9.1763621  )
        32           Ti1 tau(  32) = (   0.0006254   4.4649316   9.2693709  )
        33           O1  tau(  33) = (   3.2856154   2.9374191  11.2445503  )
        34           O1  tau(  34) = (   0.0092240   2.9805883  10.6323155  )
        35           O1  tau(  35) = (   1.2776263   4.4762221  12.6158080  )
        36           O1  tau(  36) = (   5.2889682   4.4773653  12.6103441  )
        37           Ti1 tau(  37) = (   6.5721904   0.1276321  12.6579576  )
        38           Ti1 tau(  38) = (   3.2825792   4.6513186  12.6446142  )
        39           O1  tau(  39) = (   6.5601178   2.9984380  14.6401328  )
        40           O1  tau(  40) = (   3.2784952   3.0022753  13.8540846  )
        41           O1  tau(  41) = (   4.5130724   4.4679886  16.1105769  )
        42           O1  tau(  42) = (   2.0068779   4.4712703  16.0772645  )
        43           Ti1 tau(  43) = (   3.1879138   0.0422448  16.2953621  )
        44           Ti1 tau(  44) = (   6.5239028   4.6756254  16.1574449  )
        45           O1  tau(  45) = (   3.2900926   2.9813045   4.7018136  )
        46           O1  tau(  46) = (   1.3039711   4.4726057   6.0039043  )
        47           O1  tau(  47) = (   5.2763189   4.4711207   6.0039473  )
        48           N1  tau(  48) = (   0.1470516   2.5779757  18.5611170  )
        49           N1  tau(  49) = (   6.5778558   2.9357776  17.3215245  )
        50           C1  tau(  50) = (   0.2601206   3.3452726  19.6311682  )
        51           H1  tau(  51) = (   0.3627438   2.8498571  20.5812141  )
        52           H1  tau(  52) = (   0.2464683   4.4174571  19.5160682  )
        53           H1  tau(  53) = (   0.1772712   1.5612145  18.6921905  )
        54           O1  tau(  54) = (   3.2326362   0.0923429  18.1472848  )
        55           H1  tau(  55) = (   3.6209404   5.2806276  18.5811828  )

     number of k points=    10  Fermi-Dirac smearing, width (Ry)=  0.0073
                       cart. coord. in units 2pi/alat
        k(    1) = (   0.0000000   0.0000000   0.0000000), wk =   0.1250000
        k(    2) = (   0.0000000   0.0419351   0.0000000), wk =   0.2500000
        k(    3) = (   0.0000000  -0.0838702   0.0000000), wk =   0.1250000
        k(    4) = (   0.0379955   0.0000049   0.0000000), wk =   0.2500000
        k(    5) = (   0.0379955   0.0419400   0.0000000), wk =   0.2500000
        k(    6) = (   0.0379955  -0.0838652   0.0000000), wk =   0.2500000
        k(    7) = (   0.0379955  -0.0419301   0.0000000), wk =   0.2500000
        k(    8) = (  -0.0759910  -0.0000099   0.0000000), wk =   0.1250000
        k(    9) = (  -0.0759910   0.0419252   0.0000000), wk =   0.2500000
        k(   10) = (  -0.0759910  -0.0838800   0.0000000), wk =   0.1250000

     Initial potential from superposition of free atoms

     starting charge  385.99915, renormalised to  402.00000

     negative rho (up, down):  1.462E-02 0.000E+00

     %%%%%%%%%%%%%%%%%%%%%%%%%%%%%%%%%%%%%%%%%%%%%%%%%%%%%%%%%%%%%%%%%%%%%%%%
     %                                                                      %
     % You are using vdW-DF, which was implemented by the Thonhauser group. %
     % Please cite the following two papers that made this development      %
     % possible and the two reviews that describe the various versions:     %
     %                                                                      %
     %   T. Thonhauser et al., PRL 115, 136402 (2015).                      %
     %   T. Thonhauser et al., PRB 76, 125112 (2007).                       %
     %   K. Berland et al., Rep. Prog. Phys. 78, 066501 (2015).             %
     %   D.C. Langreth et al., J. Phys.: Condens. Matter 21, 084203 (2009). %
     %                                                                      %
     %                                                                      %
     % If you are calculating the stress with vdW-DF, please also cite:     %
     %                                                                      %
     %   R. Sabatini et al., J. Phys.: Condens. Matter 24, 424209 (2012).   %
     %                                                                      %
     %%%%%%%%%%%%%%%%%%%%%%%%%%%%%%%%%%%%%%%%%%%%%%%%%%%%%%%%%%%%%%%%%%%%%%%%

     Adding external electric field

     Computed dipole along edir(3) :
        Dipole              -11.6290 Ry au,        -29.5581 Debye
        Dipole field         -0.0219 Ry au,

        Potential amp.        2.0343 Ry
        Total length         46.3494 bohr

     Starting wfcs are  304 atomic wfcs
  @ DRIVER MODE: Message from server: STATUS
  @ DRIVER MODE: Message from server: POSDATA
  @ DRIVER MODE: Reading and sharing cell
  @ DRIVER MODE: Reading and sharing positions
  @ DRIVER MODE: Received positions

     Self-consistent Calculation

     iteration #  1     ecut=    29.40 Ry     beta= 0.05
     Davidson diagonalization with overlap
     c_bands:  3 eigenvalues not converged
     c_bands:  2 eigenvalues not converged
     c_bands:  3 eigenvalues not converged
     c_bands:  4 eigenvalues not converged
     c_bands:  1 eigenvalues not converged
     c_bands:  4 eigenvalues not converged
     c_bands:  5 eigenvalues not converged
     c_bands:  5 eigenvalues not converged
     c_bands:  5 eigenvalues not converged
     ethr =  1.00E-05,  avg # of iterations = 23.9

[...]

     total energy              =   -2412.16817674 Ry
     estimated scf accuracy    <    6293.17014158 Ry

     iteration #  2     ecut=    29.40 Ry     beta= 0.05
     Davidson diagonalization with overlap
     ethr =  1.00E-02,  avg # of iterations = 22.7

[...]

     iteration # 49     ecut=    29.40 Ry     beta= 0.05
     Davidson diagonalization with overlap
     c_bands:  1 eigenvalues not converged
     ethr =  3.30E-07,  avg # of iterations =  6.5

[...]

     total energy              =   -2972.74085361 Ry
     estimated scf accuracy    <       0.00000008 Ry

     iteration # 69     ecut=    29.40 Ry     beta= 0.05
     Davidson diagonalization with overlap
     ethr =  1.97E-11,  avg # of iterations =  6.1

     negative rho (up, down):  1.520E-02 0.000E+00

     Adding external electric field

     Computed dipole along edir(3) :
        Dipole                0.6676 Ry au,          1.6969 Debye
        Dipole field          0.0013 Ry au,

        Potential amp.       -0.1168 Ry
        Total length         46.3494 bohr

     End of self-consistent calculation

          k = 0.0000 0.0000 0.0000 ( 18029 PWs)   bands (ev):

   -56.4975 -56.4639 -55.6989 -55.6648 -55.4399 -55.3835 -55.1405 -55.1070
   -55.0863 -55.0524 -55.0338 -54.9830 -54.9799 -54.7867 -54.7534 -54.6448
   -32.9213 -32.7752 -32.7472 -32.6712 -32.5806 -32.5478 -32.1823 -31.9210
   -31.9201 -31.8903 -31.8390 -31.8344 -31.8148 -31.6691 -31.6610 -31.6139
   -31.5913 -31.5861 -31.5442 -31.5146 -31.4733 -31.4601 -31.4312 -31.4068
   -31.3729 -31.3726 -31.3693 -31.3578 -31.3050 -31.2931 -31.2729 -31.2491
   -31.2306 -31.2153 -31.2114 -31.2018 -31.1842 -31.1717 -31.1581 -31.0997
   -31.0466 -31.0261 -30.9970 -30.9847 -30.9699 -30.9202 -30.8596 -30.8346
   -18.6231 -16.6326 -16.1266 -16.0805 -15.8350 -15.7739 -15.7173 -15.7127
   -15.6693 -15.4261 -15.3893 -15.3584 -15.3123 -15.2171 -15.0856 -14.9889
   -14.7990 -14.7443 -14.7421 -14.7111 -14.6874 -14.6543 -14.6313 -14.5982
   -14.5946 -14.5615 -14.5055 -14.3340 -14.2700 -14.0597 -14.0445 -13.5839
   -13.4760 -12.3587  -8.6357  -5.9962  -4.5853  -4.1986  -3.6432  -3.6063
    -3.4286  -3.3204  -3.2474  -3.1677  -3.0844  -3.0392  -2.9619  -2.9205
    -2.9041  -2.8442  -2.8154  -2.6524  -2.6267  -2.6079  -2.5201  -2.4921
    -2.3292  -2.3059  -2.2233  -2.1503  -2.1307  -2.0730  -2.0595  -1.9998
    -1.9486  -1.9313  -1.8647  -1.8582  -1.8453  -1.7323  -1.7142  -1.6799
    -1.6331  -1.5699  -1.5623  -1.5070  -1.4220  -1.4086  -1.2767  -1.1909
    -1.1473  -1.1429  -1.1051  -1.0629  -1.0181  -0.8823  -0.8715  -0.7614
    -0.7421  -0.7403  -0.6729  -0.5768  -0.5555  -0.5225  -0.4485  -0.4104
    -0.3654  -0.3179  -0.2617  -0.1404  -0.1335  -0.1171  -0.0711  -0.0293
    -0.0134   0.0603   0.1513   0.1640   0.2730   0.2888   0.3372   0.4299
     0.5124   0.5211   0.5403   0.6020   0.6440   0.6795   0.7542   0.7733
     0.8148   0.8257   0.8743   0.9355   0.9601   1.0611   1.1101   1.1279
     1.1611   1.2112   1.2888   1.3712   1.4703   1.5119   1.5361   1.8118
     2.3318   2.7852   2.9478   3.2254   3.3361   3.6467   3.7723   3.7732
     3.7838   3.9865   4.1352

[...]

          k = 0.0380-0.0419 0.0000 ( 17876 PWs)   bands (ev):

[...]

          k =-0.0760-0.0000 0.0000 ( 17886 PWs)   bands (ev):

[...]

          k =-0.0760-0.0839 0.0000 ( 17948 PWs)   bands (ev):

   -56.4809 -56.4804 -55.6848 -55.6788 -55.4342 -55.3891 -55.1393 -55.1027
   -55.0695 -55.0691 -55.0379 -54.9826 -54.9799 -54.7881 -54.7511 -54.6470
   -32.7611 -32.7607 -32.7386 -32.7381 -32.6247 -32.6242 -32.0047 -31.9999
   -31.8797 -31.8742 -31.8692 -31.8592 -31.7414 -31.7066 -31.6625 -31.6556
   -31.6155 -31.6117 -31.4457 -31.4349 -31.4199 -31.4198 -31.3837 -31.3770
   -31.3625 -31.3544 -31.3417 -31.3214 -31.2998 -31.2911 -31.2904 -31.2743
   -31.2554 -31.2527 -31.2521 -31.2393 -31.2210 -31.1878 -31.1785 -31.1495
   -31.1341 -31.0505 -31.0080 -31.0011 -30.9857 -30.9485 -30.8742 -30.8617
   -18.6194 -16.0712 -16.0017 -15.9990 -15.9386 -15.9368 -15.7043 -15.7004
   -15.4650 -15.4368 -15.2806 -15.1858 -15.1679 -15.1060 -15.0678 -15.0169
   -14.9625 -14.9330 -14.8238 -14.7864 -14.7548 -14.7168 -14.6903 -14.6698
   -14.6087 -14.5722 -14.5500 -14.4510 -14.4258 -14.1917 -14.1839 -13.5802
   -13.5799 -12.3635  -8.6380  -5.9912  -4.5422  -3.6640  -3.3129  -3.0695
    -3.0657  -3.0591  -3.0541  -3.0310  -2.8149  -2.8113  -2.6593  -2.6253
    -2.6137  -2.5882  -2.5574  -2.4538  -2.3780  -2.3605  -2.3590  -2.3546
    -2.3052  -2.2972  -2.2470  -2.1706  -2.1064  -2.0983  -2.0638  -2.0019
    -1.9432  -1.8946  -1.8898  -1.8515  -1.8282  -1.7976  -1.7778  -1.7580
    -1.7132  -1.6297  -1.5047  -1.4287  -1.3973  -1.3794  -1.3416  -1.2955
    -1.2808  -1.2703  -1.2177  -1.2031  -1.1380  -1.1082  -1.0685  -0.9737
    -0.9138  -0.8820  -0.8568  -0.7530  -0.7142  -0.6385  -0.5928  -0.5587
    -0.5258  -0.5000  -0.4386  -0.4278  -0.3456  -0.2783  -0.2509  -0.1946
    -0.1810  -0.1690  -0.1510  -0.1070  -0.0028   0.0146   0.0491   0.1480
     0.2098   0.2825   0.2994   0.3916   0.4218   0.4921   0.6079   0.6449
     0.7139   0.7774   0.8518   0.9369   0.9851   1.0302   1.1358   1.2221
     1.2358   1.2845   1.3121   1.3181   1.3194   1.3717   1.3914   1.5150
     2.1685   3.3686   3.3703   3.4271   3.4318   3.7314   3.7366   3.8428
     3.8463   4.0954   4.1165

     the Fermi energy is     2.5973 ev

!    total energy              =   -2972.74087166 Ry
     estimated scf accuracy    <       0.00000004 Ry
     smearing contrib. (-TS)   =      -0.00422460 Ry
     internal energy E=F+TS    =   -2972.73664706 Ry

     The total energy is F=E-TS. E is the sum of the following terms:
     one-electron contribution =  -23699.92293050 Ry
     hartree contribution      =   11945.27196382 Ry
     xc contribution           =    -493.12026663 Ry
     ewald contribution        =    9275.03374509 Ry
     electric field correction =       0.00084115 Ry

     convergence has been achieved in  69 iterations

     Forces acting on atoms (cartesian axes, Ry/au):

     atom    1 type  1   force =     0.00016626   -0.00043188    0.12194383
     atom    2 type  1   force =    -0.00004191    0.00028360   -0.15642129
     atom    3 type  2   force =     0.00004770   -0.00048022   -0.06046884
     atom    4 type  2   force =     0.00005162    0.00071474    0.01977104
     atom    5 type  2   force =    -0.00084760   -0.00259881   -0.01517940
     atom    6 type  2   force =     0.00220021   -0.00198423   -0.01653979
     atom    7 type  1   force =    -0.00030329   -0.00091130    0.05407651
     atom    8 type  1   force =     0.00082071    0.00108397    0.09000380
     atom    9 type  2   force =    -0.00035952   -0.00027661    0.00011210
     atom   10 type  2   force =    -0.00296051    0.00316896   -0.05924477
     atom   11 type  2   force =    -0.00026108    0.00018999    0.00007159
     atom   12 type  2   force =    -0.00022344    0.00014206   -0.00035900
     atom   13 type  1   force =    -0.00052230    0.00039931    0.00025880
     atom   14 type  1   force =     0.00006622    0.00141416   -0.00116487
     atom   15 type  2   force =     0.00000092   -0.00091165   -0.00133708
     atom   16 type  2   force =     0.00011562    0.00069101    0.00055974
     atom   17 type  2   force =    -0.00088729   -0.00042805   -0.00008053
     atom   18 type  2   force =     0.00046841    0.00010070   -0.00029643
     atom   19 type  1   force =     0.00003439    0.00119235   -0.00016712
     atom   20 type  1   force =     0.00005022    0.00052618   -0.00008417
     atom   21 type  2   force =     0.00009227   -0.00002670    0.09828422
     atom   22 type  2   force =     0.00031425   -0.00086827   -0.00004137
     atom   23 type  2   force =    -0.08161480   -0.00005040   -0.03247553
     atom   24 type  2   force =     0.08159978    0.00036769   -0.03250540
     atom   25 type  1   force =     0.00003080   -0.00029469    0.12162505
     atom   26 type  1   force =     0.00002914   -0.00154818   -0.15644461
     atom   27 type  2   force =     0.00012900    0.00021034   -0.05942842
     atom   28 type  2   force =     0.00005438    0.00038906    0.01463665
     atom   29 type  2   force =    -0.00455543    0.00217992   -0.01161457
     atom   30 type  2   force =     0.00588697    0.00262643   -0.01292328
     atom   31 type  1   force =    -0.00044365   -0.00213925    0.04008784
     atom   32 type  1   force =     0.00078778   -0.00225271    0.09102811
     atom   33 type  2   force =    -0.00012528    0.00036614    0.00012920
     atom   34 type  2   force =    -0.00235104    0.00049368   -0.06875763
     atom   35 type  2   force =    -0.00022208    0.00005223    0.00028029
     atom   36 type  2   force =     0.00059876   -0.00027290    0.00004476
     atom   37 type  1   force =    -0.00002141    0.00021658   -0.00077963
     atom   38 type  1   force =     0.00013166    0.00106950   -0.00052928
     atom   39 type  2   force =    -0.00049845   -0.00124060    0.00053742
     atom   40 type  2   force =    -0.00001640    0.00044021   -0.00003349
     atom   41 type  2   force =     0.00082384   -0.00043522    0.00002160
     atom   42 type  2   force =    -0.00062471   -0.00071936   -0.00069108
     atom   43 type  1   force =    -0.00015813   -0.00121732    0.00000556
     atom   44 type  1   force =    -0.00007703   -0.00058011    0.00061544
     atom   45 type  2   force =     0.00009565    0.00008409    0.09808262
     atom   46 type  2   force =    -0.08156819   -0.00002942   -0.03246962
     atom   47 type  2   force =     0.08155386    0.00041197   -0.03248805
     atom   48 type  3   force =     0.00007132    0.02896757    0.00220617
     atom   49 type  3   force =     0.00026506   -0.00644887    0.00407086
     atom   50 type  4   force =    -0.00022329   -0.00973298   -0.00569460
     atom   51 type  5   force =     0.00075821    0.00073054   -0.00001904
     atom   52 type  5   force =     0.00042404   -0.00174303   -0.00141335
     atom   53 type  5   force =     0.00035491   -0.01187687    0.00115815
     atom   54 type  2   force =    -0.00048962    0.00102528   -0.00093369
     atom   55 type  5   force =     0.00137249   -0.00003865    0.00097453

     Total force =     0.409652     Total SCF correction =     0.000460
  @ DRIVER MODE: Message from server: STATUS
  @ DRIVER MODE: Message from server: GETFORCE
  @ DRIVER MODE: Returning v,forces,stress,ensemble

     Writing output data file ./calc.save/
  @ DRIVER MODE: Message from server: EXIT
  @ DRIVE MODE: Exiting

     General routines

     Parallel routines

   This run was terminated on:  17:37: 1  22Sep2021

   JOB DONE.