     Program PWSCF v.6.7GPU starts on 18Oct2021 at 12:40:31

     R & G space division:  proc/nbgrp/npool/nimage =       8
     Reading input from /storage/home/hcoda1/3/ntian30/research/carbon/CxH_vib/Thiel_calc/ads_slab/HNNH_perslab/out_0002/pw.inp
Warning: card &CELL ignored
Warning: card   CELL_DYNAMICS='IPI', ignored
Warning: card / ignored

     Current dimensions of program PWSCF are:
     Max number of different atomic species (ntypx) = 10
     Max number of k-points (npk) =  40000
     Max angular momentum in pseudopotentials (lmaxx) =  3
     Presently no symmetry can be used with electric field

     Message from routine cell_base_init:
     DEPRECATED: use true lattice parameter, not A to a.u. conversion factor

     IMPORTANT: XC functional enforced from input :
     Exchange-correlation= BEEF-VDW
                           (   1   4  43  14   2   0   0)
     Any further DFT definition will be discarded
     Please, verify this is what you really want

  @ DRIVER MODE: Connecting to
 qe_1139763_3255131.sched-torque.pace.gatech.edu0kidy2g2_scratch
  using UNIX socket
  @ DRIVER MODE: Message from server: STATUS
  @ DRIVER MODE: Message from server: INIT
  @ DRIVER MODE: Receiving replica           0          -1
  @ DRIVER MODE: Receiving encoded integer          25
  @ DRIVER MODE:  SCF:  T  FORCE:  T  STRESS:  F  VC:  F  ENSEMBLE:  F
  @ DRIVER MODE:  SCF:  T  FORCE:  T  STRESS:  F  VC:  F  ENSEMBLE:  F

     Using Slab Decomposition

     bravais-lattice index     =            0
     lattice parameter (alat)  =       1.8897  a.u.
     unit-cell volume          =    9988.4706 (a.u.)^3
     number of atoms/cell      =           57
     number of atomic types    =            4
     number of electrons       =       438.00
     number of Kohn-Sham states=          229
     kinetic-energy cutoff     =      29.3995  Ry
     charge density cutoff     =     293.9946  Ry
     scf convergence threshold =      7.3E-08
     mixing beta               =       0.0500
     number of iterations used =            8  plain     mixing
     Exchange-correlation= BEEF-VDW
                           (   1   4  43  14   2   0   0)

     celldm(1)=   1.889726  celldm(2)=   0.000000  celldm(3)=   0.000000
     celldm(4)=   0.000000  celldm(5)=   0.000000  celldm(6)=   0.000000

     crystal axes: (cart. coord. in units of alat)
               a(1) = (   6.579727   0.000000   0.000000 )
               a(2) = (  -0.001163   8.942395   0.000000 )
               a(3) = (   0.000000   0.000000  25.155947 )

     reciprocal axes: (cart. coord. in units 2 pi/alat)
               b(1) = (  0.151982  0.000020  0.000000 )
               b(2) = (  0.000000  0.111827  0.000000 )
               b(3) = (  0.000000  0.000000  0.039752 )

     PseudoPot. # 1 for O  read from file:
     /storage/coda1/p-amedford6/0/shared/rich_project_chbe-medford/medford-share/data/pseudos_module/espresso/nninc/pbe/van/O.UPF
     MD5 check sum: 78c19812648e8988a0fe644b0f25305e
     Pseudo is Ultrasoft, Zval =  6.0
     Generated by new atomic code, or converted to UPF format
     Using radial grid of  737 points,  4 beta functions with:
                l(1) =   0
                l(2) =   0
                l(3) =   1
                l(4) =   1
     Q(r) pseudized with  8 coefficients,  rinner =    0.800   0.800   0.800

     PseudoPot. # 2 for Ti read from file:
     /storage/coda1/p-amedford6/0/shared/rich_project_chbe-medford/medford-share/data/pseudos_module/espresso/nninc/pbe/van/Ti.UPF
     MD5 check sum: 8e4df49b7f0d34bbd5052bf3f5ea0213
     Pseudo is Ultrasoft, Zval = 12.0
     Generated by new atomic code, or converted to UPF format
     Using radial grid of  851 points,  6 beta functions with:
                l(1) =   0
                l(2) =   0
                l(3) =   1
                l(4) =   1
                l(5) =   2
                l(6) =   2
     Q(r) pseudized with  8 coefficients,  rinner =    1.000   1.000   1.000
                                                       1.000   1.000

     PseudoPot. # 3 for H  read from file:
     /storage/coda1/p-amedford6/0/shared/rich_project_chbe-medford/medford-share/data/pseudos_module/espresso/nninc/pbe/van/H.UPF
     MD5 check sum: b5ee9d7bfd3a09ee7748110bda690ff7
     Pseudo is Ultrasoft, Zval =  1.0
     Generated by new atomic code, or converted to UPF format
     Using radial grid of  615 points,  1 beta functions with:
                l(1) =   0
     Q(r) pseudized with  8 coefficients,  rinner =    0.800

     PseudoPot. # 4 for N  read from file:
     /storage/coda1/p-amedford6/0/shared/rich_project_chbe-medford/medford-share/data/pseudos_module/espresso/nninc/pbe/van/N.UPF
     MD5 check sum: 90d10febe142ad51ac9d5be1deb811c4
     Pseudo is Ultrasoft, Zval =  5.0
     Generated by new atomic code, or converted to UPF format
     Using radial grid of  729 points,  4 beta functions with:
                l(1) =   0
                l(2) =   0
                l(3) =   1
                l(4) =   1
     Q(r) pseudized with  8 coefficients,  rinner =    0.800   0.800   0.800

     atomic species   valence    mass     pseudopotential
        O1             6.00    15.99900     O ( 1.00)
        Ti1           12.00    47.86700     Ti( 1.00)
        H1             1.00     1.00800     H ( 1.00)
        N1             5.00    14.00700     N ( 1.00)

     No symmetry found

   Cartesian axes

     site n.     atom                  positions (alat units)
         1           O1  tau(   1) = (   0.0007354   0.0005023  10.5931620  )
         2           O1  tau(   2) = (   3.2896598   8.9340738  13.9086047  )
         3           O1  tau(   3) = (   6.5779785   8.9335072  17.2267929  )
         4           O1  tau(   4) = (   0.0006271   0.0005054   7.9858123  )
         5           O1  tau(   5) = (   3.2892818   8.9168625  11.1887994  )
         6           O1  tau(   6) = (   0.0000953   0.0200859  14.6187425  )
         7           O1  tau(   7) = (   1.9868534   1.4903216   9.2879459  )
         8           O1  tau(   8) = (   5.2299496   1.5903429  12.5639559  )
         9           O1  tau(   9) = (   2.0057315   1.6103507  16.0678580  )
        10           Ti1 tau(  10) = (   0.0007404   1.4906270   9.2895810  )
        11           Ti1 tau(  11) = (   3.2903845   1.3415648  12.5012035  )
        12           Ti1 tau(  12) = (   0.0001950   1.2451541  15.9845895  )
        13           O1  tau(  13) = (   4.5942328   1.4918067   9.2879030  )
        14           O1  tau(  14) = (   1.3504490   1.5899334  12.5641350  )
        15           O1  tau(  15) = (   4.5723762   1.6092463  16.0679920  )
        16           Ti1 tau(  16) = (   3.2902859   2.9801868   9.2893338  )
        17           Ti1 tau(  17) = (  -0.0000381   2.8017340  12.4757424  )
        18           Ti1 tau(  18) = (   3.2890522   2.9119407  15.7046117  )
        19           O1  tau(  19) = (   0.0003479   2.9813005  10.5931620  )
        20           O1  tau(  20) = (   3.2896940   2.9634103  13.8950687  )
        21           O1  tau(  21) = (   0.0002396   2.9813036   7.9858123  )
        22           O1  tau(  22) = (   3.2899864   2.9652420  11.1892519  )
        23           O1  tau(  23) = (  -0.0000843   3.0239999  14.5506518  )
        24           O1  tau(  24) = (   1.9864658   4.4711199   9.2879459  )
        25           O1  tau(  25) = (   5.2265999   4.6000300  12.5825491  )
        26           O1  tau(  26) = (   2.0173024   4.5375175  16.0298170  )
        27           Ti1 tau(  27) = (   0.0003529   4.4714252   9.2895810  )
        28           Ti1 tau(  28) = (   3.2900658   4.3228872  12.5050252  )
        29           Ti1 tau(  29) = (   0.0015352   4.3959346  15.6897578  )
        30           O1  tau(  30) = (   4.5938453   4.4726049   9.2879030  )
        31           O1  tau(  31) = (   1.3532953   4.6000771  12.5829012  )
        32           O1  tau(  32) = (   4.5620845   4.5358613  16.0300787  )
        33           Ti1 tau(  33) = (   3.2898983   5.9609850   9.2893338  )
        34           Ti1 tau(  34) = (  -0.0003676   5.8120669  12.4544080  )
        35           Ti1 tau(  35) = (   3.2921900   5.8807914  15.7090278  )
        36           O1  tau(  36) = (  -0.0000397   5.9620987  10.5931620  )
        37           O1  tau(  37) = (   3.2903388   5.9631658  13.9136923  )
        38           O1  tau(  38) = (  -0.0000761   5.9602876  17.3216368  )
        39           O1  tau(  39) = (  -0.0001480   5.9621018   7.9858123  )
        40           O1  tau(  40) = (   3.2896813   5.9437884  11.1873515  )
        41           O1  tau(  41) = (  -0.0004454   6.0514558  14.6911356  )
        42           O1  tau(  42) = (   1.9860782   7.4519181   9.2879459  )
        43           O1  tau(  43) = (   5.2331690   7.5528723  12.5749626  )
        44           O1  tau(  44) = (   2.0197658   7.5481525  16.0489791  )
        45           Ti1 tau(  45) = (  -0.0000347   7.4522234   9.2895810  )
        46           Ti1 tau(  46) = (   3.2899396   7.3045924  12.4973202  )
        47           Ti1 tau(  47) = (   0.0022254   7.3576980  16.0878887  )
        48           O1  tau(  48) = (   4.5934577   7.4534031   9.2879030  )
        49           O1  tau(  49) = (   1.3462119   7.5526743  12.5754142  )
        50           O1  tau(  50) = (   4.5579802   7.5455642  16.0489991  )
        51           Ti1 tau(  51) = (   3.2895107   8.9417832   9.2893338  )
        52           Ti1 tau(  52) = (  -0.0004108   8.7719052  12.5005688  )
        53           Ti1 tau(  53) = (   3.2909707   8.8596889  15.7095313  )
        54           H1  tau(  54) = (   0.0073073   5.6246256  18.2315160  )
        55           N1  tau(  55) = (   6.5773047   3.3138987  18.5316601  )
        56           N1  tau(  56) = (   6.5788436   3.1068121  17.3210979  )
        57           H1  tau(  57) = (   6.5767427   2.4184016  19.0716447  )

     number of k points=    10  Fermi-Dirac smearing, width (Ry)=  0.0073
                       cart. coord. in units 2pi/alat
        k(    1) = (   0.0000000   0.0000000   0.0000000), wk =   0.1250000
        k(    2) = (   0.0000000   0.0279567   0.0000000), wk =   0.2500000
        k(    3) = (   0.0000000  -0.0559134   0.0000000), wk =   0.1250000
        k(    4) = (   0.0379955   0.0000049   0.0000000), wk =   0.2500000
        k(    5) = (   0.0379955   0.0279617   0.0000000), wk =   0.2500000
        k(    6) = (   0.0379955  -0.0559085   0.0000000), wk =   0.2500000
        k(    7) = (   0.0379955  -0.0279518   0.0000000), wk =   0.2500000
        k(    8) = (  -0.0759910  -0.0000099   0.0000000), wk =   0.1250000
        k(    9) = (  -0.0759910   0.0279468   0.0000000), wk =   0.2500000
        k(   10) = (  -0.0759910  -0.0559233   0.0000000), wk =   0.1250000

     Initial potential from superposition of free atoms

     starting charge  419.99912, renormalised to  438.00000

     negative rho (up, down):  3.865E-02 0.000E+00

     %%%%%%%%%%%%%%%%%%%%%%%%%%%%%%%%%%%%%%%%%%%%%%%%%%%%%%%%%%%%%%%%%%%%%%%%
     %                                                                      %
     % You are using vdW-DF, which was implemented by the Thonhauser group. %
     % Please cite the following two papers that made this development      %
     % possible and the two reviews that describe the various versions:     %
     %                                                                      %
     %   T. Thonhauser et al., PRL 115, 136402 (2015).                      %
     %   T. Thonhauser et al., PRB 76, 125112 (2007).                       %
     %   K. Berland et al., Rep. Prog. Phys. 78, 066501 (2015).             %
     %   D.C. Langreth et al., J. Phys.: Condens. Matter 21, 084203 (2009). %
     %                                                                      %
     %                                                                      %
     % If you are calculating the stress with vdW-DF, please also cite:     %
     %                                                                      %
     %   R. Sabatini et al., J. Phys.: Condens. Matter 24, 424209 (2012).   %
     %                                                                      %
     %%%%%%%%%%%%%%%%%%%%%%%%%%%%%%%%%%%%%%%%%%%%%%%%%%%%%%%%%%%%%%%%%%%%%%%%

     Adding external electric field

     Computed dipole along edir(3) :
        Dipole               -4.5407 Ry au,        -11.5413 Debye
        Dipole field         -0.0057 Ry au,

        Potential amp.        0.5296 Ry
        Total length         46.3494 bohr

     Starting wfcs are  330 atomic wfcs
  @ DRIVER MODE: Message from server: STATUS
  @ DRIVER MODE: Message from server: POSDATA
  @ DRIVER MODE: Reading and sharing cell
  @ DRIVER MODE: Reading and sharing positions
  @ DRIVER MODE: Received positions

     Self-consistent Calculation

     iteration #  1     ecut=    29.40 Ry     beta= 0.05
     Davidson diagonalization with overlap
     c_bands:  3 eigenvalues not converged
     c_bands:  2 eigenvalues not converged
     c_bands:  3 eigenvalues not converged
     c_bands:  5 eigenvalues not converged
     c_bands:  5 eigenvalues not converged
     c_bands:  1 eigenvalues not converged
     c_bands:  2 eigenvalues not converged
     ethr =  1.00E-05,  avg # of iterations = 24.8

[...]

     total energy              =   -3289.18166452 Ry
     estimated scf accuracy    <      57.48989507 Ry

     iteration #  2     ecut=    29.40 Ry     beta= 0.05
     Davidson diagonalization with overlap
     ethr =  1.00E-02,  avg # of iterations =  5.5

[...]

     iteration # 36     ecut=    29.40 Ry     beta= 0.05
     Davidson diagonalization with overlap
     c_bands:  1 eigenvalues not converged
     c_bands:  1 eigenvalues not converged
     ethr =  5.36E-07,  avg # of iterations = 15.6

[...]

     total energy              =   -3290.76664661 Ry
     estimated scf accuracy    <       0.00000014 Ry

     iteration # 55     ecut=    29.40 Ry     beta= 0.05
     Davidson diagonalization with overlap
     ethr =  3.13E-11,  avg # of iterations = 10.6

     negative rho (up, down):  3.654E-02 0.000E+00

     Adding external electric field

     Computed dipole along edir(3) :
        Dipole                1.2083 Ry au,          3.0711 Debye
        Dipole field          0.0015 Ry au,

        Potential amp.       -0.1409 Ry
        Total length         46.3494 bohr

     End of self-consistent calculation

          k = 0.0000 0.0000 0.0000 ( 26871 PWs)   bands (ev):

   -57.9818 -57.9777 -57.9744 -57.9573 -57.9547 -57.9172 -57.8546 -57.8136
   -57.7897 -57.7804 -57.7100 -57.6879 -57.6556 -57.3922 -57.3674 -56.9217
   -56.8985 -56.8843 -34.3756 -34.3691 -34.3674 -34.3566 -34.3539 -34.3208
   -34.3104 -34.3024 -34.3007 -34.2937 -34.2540 -34.2488 -34.1931 -34.1879
   -34.1787 -34.1782 -34.1652 -34.1559 -34.1511 -34.1480 -34.1274 -34.1068
   -34.0978 -34.0793 -34.0773 -34.0721 -34.0674 -34.0410 -34.0216 -33.9745
   -33.9735 -33.9633 -33.9462 -33.9388 -33.9348 -33.9300 -33.9024 -33.8783
   -33.8680 -33.8243 -33.6897 -33.6724 -33.6335 -33.6078 -33.5797 -33.2436
   -33.2360 -33.2269 -33.2207 -33.2143 -33.1431 -33.0842 -33.0685 -32.9409
   -20.7918 -19.3909 -18.8141 -18.4152 -18.2280 -18.2116 -18.2027 -18.1456
   -18.0693 -18.0656 -17.8849 -17.7948 -17.7722 -17.7459 -17.7278 -17.6950
   -17.6372 -17.6179 -17.5972 -17.5874 -17.5671 -17.5618 -17.4833 -17.4188
   -17.3936 -17.3865 -17.3789 -17.3753 -17.3054 -17.2200 -17.1297 -17.0708
   -17.0370 -15.3863 -15.3329 -15.3275 -11.2617  -7.6594  -7.1709  -6.1366
    -5.9255  -5.8603  -5.7849  -5.4352  -5.4228  -5.4199  -5.3546  -5.3337
    -5.2971  -5.2843  -5.2342  -5.2142  -5.2137  -5.1854  -5.1104  -5.0874
    -5.0609  -4.9856  -4.9393  -4.9083  -4.8579  -4.8441  -4.7447  -4.7434
    -4.7199  -4.7178  -4.7055  -4.6864  -4.6372  -4.6292  -4.5351  -4.5175
    -4.4741  -4.3545  -4.3307  -4.2712  -4.2545  -4.2252  -4.1416  -4.0785
    -4.0674  -4.0489  -4.0148  -3.9825  -3.9476  -3.9144  -3.8645  -3.7848
    -3.7200  -3.6815  -3.5692  -3.5130  -3.4792  -3.4564  -3.3769  -3.3585
    -3.3183  -3.2463  -3.1988  -3.1581  -3.1228  -3.1203  -3.0850  -2.9876
    -2.9800  -2.9030  -2.8206  -2.7942  -2.7158  -2.7047  -2.6968  -2.6796
    -2.6601  -2.6320  -2.6034  -2.5737  -2.4955  -2.4795  -2.4560  -2.4026
    -2.2958  -2.2790  -2.2743  -2.2575  -2.2528  -2.1867  -2.0878  -1.9785
    -1.9783  -1.9701  -1.8267  -1.8000  -1.7469  -1.7435  -1.6952  -1.6245
    -1.5681  -1.1783  -0.9399  -0.6539  -0.6215  -0.6130  -0.3747  -0.3648
    -0.2466   0.0060   0.9956   1.2645   1.3448   1.4318   1.4817   1.4874
     1.6130   1.6355   1.6689   1.7118   1.7219

[...]

          k = 0.0380-0.0280 0.0000 ( 26873 PWs)   bands (ev):

[...]

          k =-0.0760-0.0000 0.0000 ( 26902 PWs)   bands (ev):

[...]

          k =-0.0760-0.0559 0.0000 ( 26868 PWs)   bands (ev):

   -57.9760 -57.9757 -57.9744 -57.9719 -57.9475 -57.9179 -57.8542 -57.8094
   -57.7982 -57.7760 -57.7078 -57.6913 -57.6545 -57.3923 -57.3673 -56.9178
   -56.9057 -56.8809 -34.4483 -34.4352 -34.3807 -34.3689 -34.3353 -34.3141
   -34.3106 -34.2995 -34.2721 -34.2641 -34.2260 -34.2043 -34.2042 -34.1665
   -34.1660 -34.1651 -34.1630 -34.1443 -34.1239 -34.1218 -34.1171 -34.1068
   -34.1067 -34.0676 -34.0645 -34.0550 -34.0348 -34.0295 -34.0069 -34.0009
   -33.9951 -33.9946 -33.9815 -33.9782 -33.9508 -33.9341 -33.9295 -33.8783
   -33.8612 -33.7794 -33.7310 -33.6755 -33.6350 -33.6098 -33.5809 -33.3202
   -33.2453 -33.2339 -33.2108 -33.1286 -33.1139 -33.0555 -33.0439 -33.0304
   -20.7907 -19.3851 -18.5064 -18.4937 -18.1805 -18.1114 -18.0775 -18.0469
   -18.0066 -17.9709 -17.9411 -17.9288 -17.8998 -17.8059 -17.7961 -17.7252
   -17.7007 -17.6779 -17.6647 -17.6366 -17.6018 -17.5977 -17.5842 -17.4763
   -17.4651 -17.3822 -17.3634 -17.3206 -17.2638 -17.2191 -17.1183 -17.1054
   -17.0050 -15.3888 -15.3810 -15.2673 -11.2591  -7.6423  -7.1531  -5.7654
    -5.7595  -5.7246  -5.6999  -5.6404  -5.3716  -5.3447  -5.2178  -5.2137
    -5.2061  -5.1732  -5.1521  -5.1117  -5.0956  -5.0839  -5.0713  -5.0663
    -5.0008  -4.9986  -4.9457  -4.9152  -4.8683  -4.8617  -4.8528  -4.7966
    -4.7717  -4.7345  -4.7291  -4.6936  -4.5743  -4.5536  -4.5294  -4.4886
    -4.4525  -4.4343  -4.3513  -4.2955  -4.2272  -4.1137  -4.0905  -4.0855
    -4.0306  -3.9881  -3.9280  -3.8784  -3.7238  -3.6884  -3.6628  -3.5968
    -3.5686  -3.5545  -3.5388  -3.5176  -3.5035  -3.4514  -3.4455  -3.3915
    -3.3554  -3.3273  -3.3077  -3.2153  -3.1650  -3.1319  -3.0927  -3.0742
    -3.0636  -3.0522  -3.0253  -3.0188  -3.0170  -2.9519  -2.9419  -2.9009
    -2.8560  -2.7686  -2.7386  -2.6996  -2.6417  -2.5368  -2.5182  -2.4675
    -2.4527  -2.3959  -2.2120  -2.1986  -2.1814  -2.1381  -2.0909  -2.0522
    -2.0432  -2.0228  -1.9752  -1.8662  -1.7321  -1.7129  -1.5520  -1.4837
    -1.4764  -1.4557  -1.2543  -0.8374  -0.5530  -0.5250  -0.5198  -0.3781
    -0.3748   0.0083   1.1560   1.1803   1.2471   1.3187   1.3545   1.3626
     1.3830   1.4857   1.4891   1.5913   1.6561

     the Fermi energy is     1.0947 ev

!    total energy              =   -3290.76671599 Ry
     estimated scf accuracy    <       0.00000007 Ry
     smearing contrib. (-TS)   =      -0.03256337 Ry
     internal energy E=F+TS    =   -3290.73415262 Ry

     The total energy is F=E-TS. E is the sum of the following terms:
     one-electron contribution =  -34499.06843041 Ry
     hartree contribution      =   17310.89821647 Ry
     xc contribution           =    -540.51321006 Ry
     ewald contribution        =   14437.94743469 Ry
     electric field correction =       0.00183669 Ry

     convergence has been achieved in  55 iterations

     Forces acting on atoms (cartesian axes, Ry/au):

     atom    1 type  1   force =    -0.00000227    0.00295960    0.06149075
     atom    2 type  1   force =     0.00005483    0.00057623   -0.00874972
     atom    3 type  1   force =     0.00002699   -0.00451266    0.00121955
     atom    4 type  1   force =     0.00004969   -0.00105813    0.10515771
     atom    5 type  1   force =     0.00005011   -0.00000578    0.01003505
     atom    6 type  1   force =    -0.00000267   -0.00427872    0.00690288
     atom    7 type  1   force =     0.07078814   -0.00017806   -0.02970116
     atom    8 type  1   force =     0.00421695   -0.02882709    0.00202499
     atom    9 type  1   force =     0.00640627   -0.02307069    0.00268995
     atom   10 type  2   force =    -0.00005529   -0.00530298   -0.17416024
     atom   11 type  2   force =    -0.00025416    0.02022008   -0.00523706
     atom   12 type  2   force =    -0.00006717    0.02582275   -0.00809301
     atom   13 type  1   force =    -0.07088191   -0.00062728   -0.02964104
     atom   14 type  1   force =    -0.00450938   -0.02853051    0.00199983
     atom   15 type  1   force =    -0.00631017   -0.02313392    0.00265121
     atom   16 type  2   force =     0.00011206   -0.00200069    0.06351013
     atom   17 type  2   force =     0.00047063    0.03497249    0.00376358
     atom   18 type  2   force =    -0.00002966    0.01824019   -0.00076214
     atom   19 type  1   force =    -0.00001181    0.00865398    0.05612919
     atom   20 type  1   force =     0.00003929    0.00030645   -0.00815591
     atom   21 type  1   force =     0.00004720    0.00236608    0.10555122
     atom   22 type  1   force =     0.00004601   -0.00045802    0.00966862
     atom   23 type  1   force =    -0.00000628   -0.00193053    0.00320809
     atom   24 type  1   force =     0.06931025   -0.00029061   -0.02956339
     atom   25 type  1   force =     0.00469942   -0.02810344    0.00244749
     atom   26 type  1   force =     0.00618628   -0.01516920   -0.00028689
     atom   27 type  2   force =    -0.00005295   -0.00798481   -0.18326899
     atom   28 type  2   force =    -0.00026659    0.02039132   -0.00596546
     atom   29 type  2   force =    -0.00014709    0.02373231    0.00534143
     atom   30 type  1   force =    -0.06940633   -0.00074454   -0.02950925
     atom   31 type  1   force =    -0.00496902   -0.02781071    0.00241606
     atom   32 type  1   force =    -0.00594570   -0.01501919   -0.00035954
     atom   33 type  2   force =     0.00007952   -0.00101146    0.06380941
     atom   34 type  2   force =     0.00047141    0.03463254    0.00493642
     atom   35 type  2   force =    -0.00005588    0.02156193    0.00153863
     atom   36 type  1   force =    -0.00001290    0.00376719    0.05850005
     atom   37 type  1   force =     0.00004507   -0.00064446   -0.00669325
     atom   38 type  1   force =     0.00010415   -0.00147942    0.00016959
     atom   39 type  1   force =     0.00005420   -0.00051161    0.10663648
     atom   40 type  1   force =     0.00004744   -0.00050207    0.00898640
     atom   41 type  1   force =    -0.00005140   -0.00417296   -0.00100336
     atom   42 type  1   force =     0.06971227   -0.00119754   -0.03000065
     atom   43 type  1   force =     0.00449592   -0.02930982    0.00149203
     atom   44 type  1   force =     0.00986666   -0.02502908    0.00506079
     atom   45 type  2   force =    -0.00006730    0.00912202   -0.17963144
     atom   46 type  2   force =    -0.00025114    0.02119669   -0.00514959
     atom   47 type  2   force =    -0.00017656    0.02452615   -0.00975187
     atom   48 type  1   force =    -0.06981152   -0.00164939   -0.02995000
     atom   49 type  1   force =    -0.00477765   -0.02900475    0.00146326
     atom   50 type  1   force =    -0.00961239   -0.02492663    0.00503600
     atom   51 type  2   force =     0.00011468   -0.00178722    0.06381319
     atom   52 type  2   force =     0.00047606    0.03634357    0.00329145
     atom   53 type  2   force =    -0.00013324    0.03622266    0.00380976
     atom   54 type  3   force =    -0.00017679   -0.00099568   -0.00100224
     atom   55 type  4   force =     0.00015377    0.00270018    0.00019892
     atom   56 type  4   force =    -0.00002608   -0.00578060    0.00153787
     atom   57 type  3   force =    -0.00005398   -0.00127417    0.00014820

     Total force =     0.453270     Total SCF correction =     0.000571
  @ DRIVER MODE: Message from server: STATUS
  @ DRIVER MODE: Message from server: GETFORCE
  @ DRIVER MODE: Returning v,forces,stress,ensemble

     Writing output data file ./calc.save/
  @ DRIVER MODE: Message from server: EXIT
  @ DRIVE MODE: Exiting

     General routines

     Parallel routines

   This run was terminated on:  13: 9: 2  18Oct2021

   JOB DONE.