     Program PWSCF v.6.7GPU starts on 23Sep2021 at 12:28:52

     R & G space division:  proc/nbgrp/npool/nimage =       8
     Reading input from /storage/home/hcoda1/3/ntian30/research/carbon/CxH_vib/H2O_calc/ads_slab/CH3NHNH2HO_a/out_0004/pw.inp
Warning: card &CELL ignored
Warning: card   CELL_DYNAMICS='IPI', ignored
Warning: card / ignored

     Current dimensions of program PWSCF are:
     Max number of different atomic species (ntypx) = 10
     Max number of k-points (npk) =  40000
     Max angular momentum in pseudopotentials (lmaxx) =  3
     Presently no symmetry can be used with electric field

     Message from routine cell_base_init:
     DEPRECATED: use true lattice parameter, not A to a.u. conversion factor

     IMPORTANT: XC functional enforced from input :
     Exchange-correlation= BEEF-VDW
                           (   1   4  43  14   2   0   0)
     Any further DFT definition will be discarded
     Please, verify this is what you really want

  @ DRIVER MODE: Connecting to
 qe_1139763_2947307.sched-torque.pace.gatech.edu7e6fpung_scratch
  using UNIX socket
  @ DRIVER MODE: Message from server: STATUS
  @ DRIVER MODE: Message from server: INIT
  @ DRIVER MODE: Receiving replica           0          -1
  @ DRIVER MODE: Receiving encoded integer          25
  @ DRIVER MODE:  SCF:  T  FORCE:  T  STRESS:  F  VC:  F  ENSEMBLE:  F
  @ DRIVER MODE:  SCF:  T  FORCE:  T  STRESS:  F  VC:  F  ENSEMBLE:  F

     Using Slab Decomposition

     bravais-lattice index     =            0
     lattice parameter (alat)  =       1.8897  a.u.
     unit-cell volume          =    6658.9804 (a.u.)^3
     number of atoms/cell      =           58
     number of atomic types    =            5
     number of electrons       =       405.00
     number of Kohn-Sham states=          212
     kinetic-energy cutoff     =      29.3995  Ry
     charge density cutoff     =     293.9946  Ry
     scf convergence threshold =      7.3E-08
     mixing beta               =       0.0500
     number of iterations used =            8  plain     mixing
     Exchange-correlation= BEEF-VDW
                           (   1   4  43  14   2   0   0)

     celldm(1)=   1.889726  celldm(2)=   0.000000  celldm(3)=   0.000000
     celldm(4)=   0.000000  celldm(5)=   0.000000  celldm(6)=   0.000000

     crystal axes: (cart. coord. in units of alat)
               a(1) = (   6.579727   0.000000   0.000000 )
               a(2) = (  -0.000775   5.961596   0.000000 )
               a(3) = (   0.000000   0.000000  25.155947 )

     reciprocal axes: (cart. coord. in units 2 pi/alat)
               b(1) = (  0.151982  0.000020  0.000000 )
               b(2) = (  0.000000  0.167740  0.000000 )
               b(3) = (  0.000000  0.000000  0.039752 )

     PseudoPot. # 1 for Ti read from file:
     /storage/coda1/p-amedford6/0/shared/rich_project_chbe-medford/medford-share/data/pseudos_module/espresso/nninc/pbe/van/Ti.UPF
     MD5 check sum: 8e4df49b7f0d34bbd5052bf3f5ea0213
     Pseudo is Ultrasoft, Zval = 12.0
     Generated by new atomic code, or converted to UPF format
     Using radial grid of  851 points,  6 beta functions with:
                l(1) =   0
                l(2) =   0
                l(3) =   1
                l(4) =   1
                l(5) =   2
                l(6) =   2
     Q(r) pseudized with  8 coefficients,  rinner =    1.000   1.000   1.000
                                                       1.000   1.000

     PseudoPot. # 2 for O  read from file:
     /storage/coda1/p-amedford6/0/shared/rich_project_chbe-medford/medford-share/data/pseudos_module/espresso/nninc/pbe/van/O.UPF
     MD5 check sum: 78c19812648e8988a0fe644b0f25305e
     Pseudo is Ultrasoft, Zval =  6.0
     Generated by new atomic code, or converted to UPF format
     Using radial grid of  737 points,  4 beta functions with:
                l(1) =   0
                l(2) =   0
                l(3) =   1
                l(4) =   1
     Q(r) pseudized with  8 coefficients,  rinner =    0.800   0.800   0.800

     PseudoPot. # 3 for N  read from file:
     /storage/coda1/p-amedford6/0/shared/rich_project_chbe-medford/medford-share/data/pseudos_module/espresso/nninc/pbe/van/N.UPF
     MD5 check sum: 90d10febe142ad51ac9d5be1deb811c4
     Pseudo is Ultrasoft, Zval =  5.0
     Generated by new atomic code, or converted to UPF format
     Using radial grid of  729 points,  4 beta functions with:
                l(1) =   0
                l(2) =   0
                l(3) =   1
                l(4) =   1
     Q(r) pseudized with  8 coefficients,  rinner =    0.800   0.800   0.800

     PseudoPot. # 4 for C  read from file:
     /storage/coda1/p-amedford6/0/shared/rich_project_chbe-medford/medford-share/data/pseudos_module/espresso/nninc/pbe/van/C.UPF
     MD5 check sum: 1a69bf6b8db32088f5b2163dbdb77a27
     Pseudo is Ultrasoft, Zval =  4.0
     Generated by new atomic code, or converted to UPF format
     Using radial grid of  721 points,  4 beta functions with:
                l(1) =   0
                l(2) =   0
                l(3) =   1
                l(4) =   1
     Q(r) pseudized with  8 coefficients,  rinner =    0.800   0.800   0.800

     PseudoPot. # 5 for H  read from file:
     /storage/coda1/p-amedford6/0/shared/rich_project_chbe-medford/medford-share/data/pseudos_module/espresso/nninc/pbe/van/H.UPF
     MD5 check sum: b5ee9d7bfd3a09ee7748110bda690ff7
     Pseudo is Ultrasoft, Zval =  1.0
     Generated by new atomic code, or converted to UPF format
     Using radial grid of  615 points,  1 beta functions with:
                l(1) =   0
     Q(r) pseudized with  8 coefficients,  rinner =    0.800

     atomic species   valence    mass     pseudopotential
        Ti1           12.00    47.86700     Ti( 1.00)
        O1             6.00    15.99900     O ( 1.00)
        N1             5.00    14.00700     N ( 1.00)
        C1             4.00    12.01100     C ( 1.00)
        H1             1.00     1.00800     H ( 1.00)

     No symmetry found

   Cartesian axes

     site n.     atom                  positions (alat units)
         1           Ti1 tau(   1) = (   0.0004258   2.9801865   6.0000000  )
         2           Ti1 tau(   2) = (   3.2906075   1.4906267   6.0002472  )
         3           O1  tau(   3) = (   0.0006271   0.0005054   7.9858123  )
         4           O1  tau(   4) = (   3.2906025   0.0005020   7.3038282  )
         5           O1  tau(   5) = (   4.5942328   1.4918067   9.2879030  )
         6           O1  tau(   6) = (   1.9868534   1.4903216   9.2879459  )
         7           Ti1 tau(   7) = (   3.2907910   2.8959150   9.1758416  )
         8           Ti1 tau(   8) = (   0.0015273   1.4827037   9.2680791  )
         9           O1  tau(   9) = (   3.3003128   0.0493987  11.3625472  )
        10           O1  tau(  10) = (   0.0116148   5.9584955  10.6183126  )
        11           O1  tau(  11) = (   1.2863924   1.5188706  12.6959087  )
        12           O1  tau(  12) = (   5.3173592   1.5183023  12.6957539  )
        13           Ti1 tau(  13) = (   0.0130489   2.9571150  12.5182267  )
        14           Ti1 tau(  14) = (   3.3124343   1.5987737  12.4587140  )
        15           O1  tau(  15) = (   0.0455642   5.8537743  14.6515032  )
        16           O1  tau(  16) = (   3.3135256   5.8999501  14.0036581  )
        17           O1  tau(  17) = (   4.5824137   1.5787328  16.0473457  )
        18           O1  tau(  18) = (   2.0456054   1.5356268  16.0652349  )
        19           Ti1 tau(  19) = (   3.2855744   2.9948502  15.7047272  )
        20           Ti1 tau(  20) = (   0.0729980   1.3194477  15.7501807  )
        21           O1  tau(  21) = (   3.2904802   0.0005063   4.7018136  )
        22           O1  tau(  22) = (   6.5643345   0.1786488  17.1561759  )
        23           O1  tau(  23) = (   1.3043587   1.4918075   6.0039043  )
        24           O1  tau(  24) = (   5.2767064   1.4903225   6.0039473  )
        25           Ti1 tau(  25) = (   0.0000382   5.9609847   6.0000000  )
        26           Ti1 tau(  26) = (   3.2902200   4.4714249   6.0002472  )
        27           O1  tau(  27) = (   0.0002396   2.9813036   7.9858123  )
        28           O1  tau(  28) = (   3.2902150   2.9813002   7.3038282  )
        29           O1  tau(  29) = (   4.5938453   4.4726049   9.2879030  )
        30           O1  tau(  30) = (   1.9864658   4.4711199   9.2879459  )
        31           Ti1 tau(  31) = (   3.2891106   5.8743827   9.1763621  )
        32           Ti1 tau(  32) = (   0.0006254   4.4649316   9.2693709  )
        33           O1  tau(  33) = (   3.3044115   2.9646987  11.3227374  )
        34           O1  tau(  34) = (   0.0092240   2.9805883  10.6323155  )
        35           O1  tau(  35) = (   1.2889249   4.4812606  12.6373974  )
        36           O1  tau(  36) = (   5.3198440   4.4849614  12.6453916  )
        37           Ti1 tau(  37) = (   0.0274371   5.9167426  12.5032498  )
        38           Ti1 tau(  38) = (   3.3124303   4.6827448  12.7121475  )
        39           O1  tau(  39) = (   0.0064664   3.0605765  14.9143048  )
        40           O1  tau(  40) = (   3.2921723   3.0190953  13.9337278  )
        41           O1  tau(  41) = (   4.5343043   4.4484976  16.2223827  )
        42           O1  tau(  42) = (   2.0055671   4.4324605  16.2273083  )
        43           Ti1 tau(  43) = (   3.3963104   0.0511244  16.3072024  )
        44           Ti1 tau(  44) = (   0.1011521   4.5293608  16.0606835  )
        45           O1  tau(  45) = (   3.2900926   2.9813045   4.7018136  )
        46           O1  tau(  46) = (   1.3039711   4.4726057   6.0039043  )
        47           O1  tau(  47) = (   5.2763189   4.4711207   6.0039473  )
        48           N1  tau(  48) = (   0.7799224   3.1560235  19.0808133  )
        49           N1  tau(  49) = (   6.3029119   3.3142126  18.0946246  )
        50           C1  tau(  50) = (   0.9829876   4.3811599  19.8296872  )
        51           H1  tau(  51) = (   0.0599524   4.7630682  20.2995108  )
        52           H1  tau(  52) = (   1.7087173   4.1728717  20.6153690  )
        53           H1  tau(  53) = (   1.3778604   5.1510331  19.1745456  )
        54           H1  tau(  54) = (   0.4845774   2.4057476  19.7140978  )
        55           H1  tau(  55) = (   5.5451363   3.8924421  18.4761980  )
        56           H1  tau(  56) = (   5.8791802   2.3931312  17.9634808  )
        57           O1  tau(  57) = (   3.3895457   0.1916509  18.1699706  )
        58           H1  tau(  58) = (   3.8128180   5.4341384  18.6581559  )

     number of k points=    10  Fermi-Dirac smearing, width (Ry)=  0.0073
                       cart. coord. in units 2pi/alat
        k(    1) = (   0.0000000   0.0000000   0.0000000), wk =   0.1250000
        k(    2) = (   0.0000000   0.0419351   0.0000000), wk =   0.2500000
        k(    3) = (   0.0000000  -0.0838702   0.0000000), wk =   0.1250000
        k(    4) = (   0.0379955   0.0000049   0.0000000), wk =   0.2500000
        k(    5) = (   0.0379955   0.0419400   0.0000000), wk =   0.2500000
        k(    6) = (   0.0379955  -0.0838652   0.0000000), wk =   0.2500000
        k(    7) = (   0.0379955  -0.0419301   0.0000000), wk =   0.2500000
        k(    8) = (  -0.0759910  -0.0000099   0.0000000), wk =   0.1250000
        k(    9) = (  -0.0759910   0.0419252   0.0000000), wk =   0.2500000
        k(   10) = (  -0.0759910  -0.0838800   0.0000000), wk =   0.1250000

     Initial potential from superposition of free atoms

     starting charge  388.99913, renormalised to  405.00000

     negative rho (up, down):  1.368E-02 0.000E+00

     %%%%%%%%%%%%%%%%%%%%%%%%%%%%%%%%%%%%%%%%%%%%%%%%%%%%%%%%%%%%%%%%%%%%%%%%
     %                                                                      %
     % You are using vdW-DF, which was implemented by the Thonhauser group. %
     % Please cite the following two papers that made this development      %
     % possible and the two reviews that describe the various versions:     %
     %                                                                      %
     %   T. Thonhauser et al., PRL 115, 136402 (2015).                      %
     %   T. Thonhauser et al., PRB 76, 125112 (2007).                       %
     %   K. Berland et al., Rep. Prog. Phys. 78, 066501 (2015).             %
     %   D.C. Langreth et al., J. Phys.: Condens. Matter 21, 084203 (2009). %
     %                                                                      %
     %                                                                      %
     % If you are calculating the stress with vdW-DF, please also cite:     %
     %                                                                      %
     %   R. Sabatini et al., J. Phys.: Condens. Matter 24, 424209 (2012).   %
     %                                                                      %
     %%%%%%%%%%%%%%%%%%%%%%%%%%%%%%%%%%%%%%%%%%%%%%%%%%%%%%%%%%%%%%%%%%%%%%%%

     Adding external electric field

     Computed dipole along edir(3) :
        Dipole              -14.8124 Ry au,        -37.6493 Debye
        Dipole field         -0.0280 Ry au,

        Potential amp.        2.5912 Ry
        Total length         46.3494 bohr

     Starting wfcs are  307 atomic wfcs
  @ DRIVER MODE: Message from server: STATUS
  @ DRIVER MODE: Message from server: POSDATA
  @ DRIVER MODE: Reading and sharing cell
  @ DRIVER MODE: Reading and sharing positions
  @ DRIVER MODE: Received positions

     Self-consistent Calculation

     iteration #  1     ecut=    29.40 Ry     beta= 0.05
     Davidson diagonalization with overlap
     c_bands:  4 eigenvalues not converged
     c_bands:  4 eigenvalues not converged
     c_bands:  5 eigenvalues not converged
     c_bands:  2 eigenvalues not converged
     c_bands:  3 eigenvalues not converged
     c_bands:  4 eigenvalues not converged
     c_bands:  2 eigenvalues not converged
     ethr =  1.00E-05,  avg # of iterations = 22.9

[...]

     total energy              =   -2202.97199990 Ry
     estimated scf accuracy    <    8803.96777982 Ry

     iteration #  2     ecut=    29.40 Ry     beta= 0.05
     Davidson diagonalization with overlap
     ethr =  1.00E-02,  avg # of iterations = 30.6

[...]

     iteration # 50     ecut=    29.40 Ry     beta= 0.05
     Davidson diagonalization with overlap
     c_bands:  1 eigenvalues not converged
     c_bands:  1 eigenvalues not converged
     c_bands:  1 eigenvalues not converged
     ethr =  3.94E-07,  avg # of iterations = 17.6

[...]

     total energy              =   -2976.46382868 Ry
     estimated scf accuracy    <       0.00000014 Ry

     iteration # 68     ecut=    29.40 Ry     beta= 0.05
     Davidson diagonalization with overlap
     ethr =  2.99E-11,  avg # of iterations = 14.9

     negative rho (up, down):  1.442E-02 0.000E+00

     Adding external electric field

     Computed dipole along edir(3) :
        Dipole                1.2239 Ry au,          3.1109 Debye
        Dipole field          0.0023 Ry au,

        Potential amp.       -0.2141 Ry
        Total length         46.3494 bohr

     End of self-consistent calculation

          k = 0.0000 0.0000 0.0000 ( 18029 PWs)   bands (ev):

   -55.4457 -55.3576 -55.3235 -55.2182 -55.2157 -55.1882 -55.1858 -55.1782
   -55.1542 -55.1313 -55.0882 -54.9863 -54.9377 -54.8942 -54.3324 -54.2984
   -31.8428 -31.7920 -31.7221 -31.7049 -31.6910 -31.6763 -31.6556 -31.6485
   -31.6174 -31.6038 -31.5975 -31.5101 -31.4950 -31.4877 -31.4681 -31.4647
   -31.4605 -31.4509 -31.4505 -31.4211 -31.4150 -31.3932 -31.3863 -31.3763
   -31.3713 -31.3556 -31.3544 -31.3227 -31.3220 -31.3156 -31.3148 -31.3093
   -31.3008 -31.2829 -31.2590 -31.2406 -31.1753 -31.1535 -31.1416 -31.1333
   -31.1126 -31.1033 -30.7385 -30.6521 -30.6297 -30.5559 -30.4696 -30.3578
   -17.7599 -16.3681 -16.0117 -15.8480 -15.6332 -15.5403 -15.5134 -15.3145
   -15.2194 -15.1613 -14.9601 -14.9332 -14.8954 -14.8827 -14.8736 -14.8525
   -14.8488 -14.7974 -14.7820 -14.7719 -14.7684 -14.7381 -14.7111 -14.6717
   -14.6124 -14.5984 -14.4961 -14.4404 -14.4005 -14.1592 -14.1395 -13.2063
   -12.8313 -12.7149  -9.4153  -6.4584  -5.7300  -4.3072  -3.9352  -3.3698
    -3.2684  -3.2568  -3.2008  -3.1330  -3.0116  -2.8849  -2.7821  -2.7430
    -2.6035  -2.5938  -2.4931  -2.4444  -2.3710  -2.3251  -2.2838  -2.2489
    -2.2214  -2.1656  -2.1433  -2.1175  -2.1060  -2.0332  -2.0149  -1.9246
    -1.8924  -1.8789  -1.7611  -1.7265  -1.6915  -1.6783  -1.6696  -1.6610
    -1.6188  -1.6093  -1.5986  -1.5550  -1.4557  -1.4480  -1.4307  -1.3398
    -1.2407  -0.9921  -0.9612  -0.9108  -0.8995  -0.8209  -0.7824  -0.7508
    -0.7180  -0.6476  -0.6369  -0.6109  -0.5496  -0.4742  -0.4200  -0.3723
    -0.3382  -0.2262  -0.1763  -0.1324  -0.0996  -0.0628   0.0001   0.0397
     0.0639   0.1070   0.1945   0.2584   0.2854   0.3022   0.3523   0.3942
     0.4322   0.4727   0.5444   0.5670   0.5771   0.6163   0.6250   0.6459
     0.7414   0.7598   0.8193   0.8465   0.9346   0.9654   1.0096   1.1793
     1.2489   1.3070   1.3873   1.4941   1.6393   1.6937   1.7189   1.8877
     2.2610   2.3064   3.7263   3.8736   3.8899   3.9677   3.9846   4.0489
     4.2151   4.2745   4.4127   4.4228

[...]

          k = 0.0380-0.0419 0.0000 ( 17876 PWs)   bands (ev):

[...]

          k =-0.0760-0.0000 0.0000 ( 17886 PWs)   bands (ev):

[...]

          k =-0.0760-0.0839 0.0000 ( 17948 PWs)   bands (ev):

   -55.4449 -55.3406 -55.3404 -55.2169 -55.2041 -55.1898 -55.1865 -55.1724
   -55.1696 -55.1233 -55.0963 -54.9832 -54.9387 -54.8971 -54.3154 -54.3153
   -31.7307 -31.6704 -31.6582 -31.6580 -31.6567 -31.6424 -31.6341 -31.6338
   -31.5764 -31.5314 -31.5101 -31.4993 -31.4940 -31.4885 -31.4662 -31.4604
   -31.4598 -31.4566 -31.4504 -31.4377 -31.4309 -31.4279 -31.4166 -31.3907
   -31.3858 -31.3842 -31.3768 -31.3689 -31.3503 -31.3450 -31.3418 -31.3414
   -31.3383 -31.3184 -31.3169 -31.2522 -31.2351 -31.2073 -31.1796 -31.1557
   -31.1494 -31.1081 -30.6424 -30.6423 -30.5515 -30.5511 -30.5129 -30.5127
   -17.7559 -16.3581 -15.5922 -15.4473 -15.3390 -15.3287 -15.2047 -15.1377
   -15.1279 -15.0945 -15.0714 -15.0495 -15.0312 -15.0159 -14.9610 -14.9214
   -14.8900 -14.8625 -14.8580 -14.8150 -14.8052 -14.7938 -14.7760 -14.7645
   -14.7091 -14.6731 -14.6635 -14.6050 -14.4657 -14.4460 -14.2894 -13.2077
   -12.8168 -12.8166  -9.4342  -6.4430  -5.7368  -4.2924  -3.9245  -2.9992
    -2.8016  -2.6588  -2.5941  -2.5632  -2.4498  -2.4234  -2.3677  -2.3172
    -2.2929  -2.2714  -2.2193  -2.2095  -2.1637  -2.1476  -2.1231  -2.1086
    -2.0920  -2.0856  -2.0577  -2.0418  -2.0315  -2.0176  -1.9916  -1.9804
    -1.9622  -1.9335  -1.9133  -1.9042  -1.8707  -1.8284  -1.7672  -1.6549
    -1.5819  -1.5698  -1.5275  -1.5030  -1.4868  -1.4457  -1.4332  -1.3921
    -1.3746  -1.3085  -1.1507  -1.1253  -1.1110  -0.9685  -0.9613  -0.9325
    -0.8583  -0.8166  -0.7947  -0.7366  -0.7069  -0.6648  -0.5898  -0.5465
    -0.4923  -0.4261  -0.3262  -0.3187  -0.3027  -0.2827  -0.2665  -0.2586
    -0.2253  -0.1882  -0.1153  -0.0686  -0.0600  -0.0540  -0.0028   0.0772
     0.1281   0.2423   0.3887   0.3930   0.4600   0.4608   0.6605   0.6697
     0.7460   0.7813   0.8158   0.8431   0.9367   0.9547   0.9924   1.0749
     1.1388   1.1685   1.1893   1.1941   1.2472   1.4785   2.0561   2.0639
     2.1267   2.1268   3.9678   4.2004   4.2407   4.2538   4.2722   4.2986
     4.3122   4.3263   4.3935   4.4169

     the Fermi energy is     3.7636 ev

!    total energy              =   -2976.46385528 Ry
     estimated scf accuracy    <       0.00000006 Ry
     smearing contrib. (-TS)   =      -0.01954847 Ry
     internal energy E=F+TS    =   -2976.44430681 Ry

     The total energy is F=E-TS. E is the sum of the following terms:
     one-electron contribution =  -23037.40484835 Ry
     hartree contribution      =   11616.41083672 Ry
     xc contribution           =    -495.72753663 Ry
     ewald contribution        =    8940.27441450 Ry
     electric field correction =       0.00282694 Ry

     convergence has been achieved in  68 iterations

     Forces acting on atoms (cartesian axes, Ry/au):

     atom    1 type  1   force =     0.00015819   -0.00022818    0.09417123
     atom    2 type  1   force =    -0.00010794    0.00018290   -0.17536561
     atom    3 type  2   force =     0.00005298   -0.00049424   -0.02103931
     atom    4 type  2   force =    -0.00002377   -0.00093824    0.05425168
     atom    5 type  2   force =    -0.00489196   -0.00215710    0.00106539
     atom    6 type  2   force =     0.00671459   -0.00138462    0.00108380
     atom    7 type  1   force =     0.00006549    0.00331503    0.00867293
     atom    8 type  1   force =    -0.00010191    0.00120391    0.00272482
     atom    9 type  2   force =    -0.00021911   -0.00031070   -0.00059536
     atom   10 type  2   force =    -0.00112067    0.00429129   -0.01025856
     atom   11 type  2   force =    -0.00007453   -0.00055124   -0.00010534
     atom   12 type  2   force =     0.00061740   -0.00031629   -0.00026966
     atom   13 type  1   force =    -0.00143256    0.00020256   -0.00056733
     atom   14 type  1   force =     0.00070401    0.00018819   -0.00047482
     atom   15 type  2   force =     0.00012305    0.00003417    0.00002452
     atom   16 type  2   force =    -0.00009489   -0.00068891   -0.00029389
     atom   17 type  2   force =    -0.00037259    0.00074202    0.00011347
     atom   18 type  2   force =    -0.00078777    0.00034649   -0.00018914
     atom   19 type  1   force =     0.00041675   -0.00086640    0.00056759
     atom   20 type  1   force =    -0.00067111   -0.00008161    0.00041621
     atom   21 type  2   force =     0.00003832   -0.00001020    0.10320907
     atom   22 type  2   force =    -0.00010179    0.00006644    0.00051234
     atom   23 type  2   force =    -0.07199233   -0.00020059   -0.02726035
     atom   24 type  2   force =     0.07186767    0.00025128   -0.02733107
     atom   25 type  1   force =     0.00008055   -0.00016737    0.09390188
     atom   26 type  1   force =    -0.00011624   -0.00136543   -0.17549111
     atom   27 type  2   force =     0.00011008   -0.00005299   -0.01984686
     atom   28 type  2   force =     0.00006377   -0.00105036    0.04979906
     atom   29 type  2   force =    -0.00747753    0.00209712    0.00339135
     atom   30 type  2   force =     0.00907873    0.00223531    0.00331021
     atom   31 type  1   force =     0.00020166    0.00151739    0.00006373
     atom   32 type  1   force =    -0.00008643   -0.00227208    0.00304430
     atom   33 type  2   force =    -0.00017824   -0.00030654   -0.00002965
     atom   34 type  2   force =    -0.00117294   -0.00218453   -0.00965135
     atom   35 type  2   force =     0.00065012    0.00005389   -0.00022322
     atom   36 type  2   force =     0.00036594    0.00011284   -0.00035182
     atom   37 type  1   force =    -0.00096677    0.00024992    0.00035771
     atom   38 type  1   force =     0.00096758   -0.00025748    0.00019501
     atom   39 type  2   force =    -0.00017054   -0.00054449    0.00009650
     atom   40 type  2   force =    -0.00019990   -0.00018760   -0.00015606
     atom   41 type  2   force =     0.00017314   -0.00029970   -0.00017881
     atom   42 type  2   force =    -0.00067219    0.00004708   -0.00011482
     atom   43 type  1   force =     0.00025448    0.00085528    0.00046196
     atom   44 type  1   force =    -0.00048535    0.00078949    0.00002412
     atom   45 type  2   force =     0.00002426    0.00003461    0.10302656
     atom   46 type  2   force =    -0.07193955   -0.00007530   -0.02721282
     atom   47 type  2   force =     0.07183213    0.00035246   -0.02729617
     atom   48 type  3   force =    -0.00375778   -0.02210433    0.00280600
     atom   49 type  3   force =    -0.00090590    0.00376701   -0.00097352
     atom   50 type  4   force =    -0.00030410    0.00701901    0.00198718
     atom   51 type  5   force =    -0.00121297    0.00068998    0.00113898
     atom   52 type  5   force =     0.00057274   -0.00026409    0.00023478
     atom   53 type  5   force =    -0.00006296    0.00172712    0.00024985
     atom   54 type  5   force =     0.00503128    0.00800080   -0.00631270
     atom   55 type  5   force =    -0.00000092   -0.00051909   -0.00057007
     atom   56 type  5   force =     0.00162702   -0.00032216    0.00091503
     atom   57 type  2   force =     0.00070797   -0.00112034    0.00008906
     atom   58 type  5   force =    -0.00079665    0.00094860    0.00025310

     Total force =     0.362971     Total SCF correction =     0.000763
  @ DRIVER MODE: Message from server: STATUS
  @ DRIVER MODE: Message from server: GETFORCE
  @ DRIVER MODE: Returning v,forces,stress,ensemble

     Writing output data file ./calc.save/
  @ DRIVER MODE: Message from server: EXIT
  @ DRIVE MODE: Exiting

     General routines

     Parallel routines

   This run was terminated on:  12:54:38  23Sep2021

   JOB DONE.