     Program PWSCF v.6.7GPU starts on 28Sep2021 at  5:25:18

     R & G space division:  proc/nbgrp/npool/nimage =       8
     Reading input from /storage/home/hcoda1/3/ntian30/research/carbon/CxH_vib/H2O_calc/ads_slab/CHNHO_a/out_0019/pw.inp
Warning: card &CELL ignored
Warning: card   CELL_DYNAMICS='IPI', ignored
Warning: card / ignored

     Current dimensions of program PWSCF are:
     Max number of different atomic species (ntypx) = 10
     Max number of k-points (npk) =  40000
     Max angular momentum in pseudopotentials (lmaxx) =  3
     Presently no symmetry can be used with electric field

     Message from routine cell_base_init:
     DEPRECATED: use true lattice parameter, not A to a.u. conversion factor

     IMPORTANT: XC functional enforced from input :
     Exchange-correlation= BEEF-VDW
                           (   1   4  43  14   2   0   0)
     Any further DFT definition will be discarded
     Please, verify this is what you really want

  @ DRIVER MODE: Connecting to
 qe_1139763_3003541.sched-torque.pace.gatech.edufjwa05as_scratch
  using UNIX socket
  @ DRIVER MODE: Message from server: STATUS
  @ DRIVER MODE: Message from server: INIT
  @ DRIVER MODE: Receiving replica           0          -1
  @ DRIVER MODE: Receiving encoded integer          25
  @ DRIVER MODE:  SCF:  T  FORCE:  T  STRESS:  F  VC:  F  ENSEMBLE:  F
  @ DRIVER MODE:  SCF:  T  FORCE:  T  STRESS:  F  VC:  F  ENSEMBLE:  F

     Using Slab Decomposition

     bravais-lattice index     =            0
     lattice parameter (alat)  =       1.8897  a.u.
     unit-cell volume          =    6658.9804 (a.u.)^3
     number of atoms/cell      =           52
     number of atomic types    =            5
     number of electrons       =       395.00
     number of Kohn-Sham states=          207
     kinetic-energy cutoff     =      29.3995  Ry
     charge density cutoff     =     293.9946  Ry
     scf convergence threshold =      7.3E-08
     mixing beta               =       0.0500
     number of iterations used =            8  plain     mixing
     Exchange-correlation= BEEF-VDW
                           (   1   4  43  14   2   0   0)

     celldm(1)=   1.889726  celldm(2)=   0.000000  celldm(3)=   0.000000
     celldm(4)=   0.000000  celldm(5)=   0.000000  celldm(6)=   0.000000

     crystal axes: (cart. coord. in units of alat)
               a(1) = (   6.579727   0.000000   0.000000 )
               a(2) = (  -0.000775   5.961596   0.000000 )
               a(3) = (   0.000000   0.000000  25.155947 )

     reciprocal axes: (cart. coord. in units 2 pi/alat)
               b(1) = (  0.151982  0.000020  0.000000 )
               b(2) = (  0.000000  0.167740  0.000000 )
               b(3) = (  0.000000  0.000000  0.039752 )

     PseudoPot. # 1 for Ti read from file:
     /storage/coda1/p-amedford6/0/shared/rich_project_chbe-medford/medford-share/data/pseudos_module/espresso/nninc/pbe/van/Ti.UPF
     MD5 check sum: 8e4df49b7f0d34bbd5052bf3f5ea0213
     Pseudo is Ultrasoft, Zval = 12.0
     Generated by new atomic code, or converted to UPF format
     Using radial grid of  851 points,  6 beta functions with:
                l(1) =   0
                l(2) =   0
                l(3) =   1
                l(4) =   1
                l(5) =   2
                l(6) =   2
     Q(r) pseudized with  8 coefficients,  rinner =    1.000   1.000   1.000
                                                       1.000   1.000

     PseudoPot. # 2 for O  read from file:
     /storage/coda1/p-amedford6/0/shared/rich_project_chbe-medford/medford-share/data/pseudos_module/espresso/nninc/pbe/van/O.UPF
     MD5 check sum: 78c19812648e8988a0fe644b0f25305e
     Pseudo is Ultrasoft, Zval =  6.0
     Generated by new atomic code, or converted to UPF format
     Using radial grid of  737 points,  4 beta functions with:
                l(1) =   0
                l(2) =   0
                l(3) =   1
                l(4) =   1
     Q(r) pseudized with  8 coefficients,  rinner =    0.800   0.800   0.800

     PseudoPot. # 3 for N  read from file:
     /storage/coda1/p-amedford6/0/shared/rich_project_chbe-medford/medford-share/data/pseudos_module/espresso/nninc/pbe/van/N.UPF
     MD5 check sum: 90d10febe142ad51ac9d5be1deb811c4
     Pseudo is Ultrasoft, Zval =  5.0
     Generated by new atomic code, or converted to UPF format
     Using radial grid of  729 points,  4 beta functions with:
                l(1) =   0
                l(2) =   0
                l(3) =   1
                l(4) =   1
     Q(r) pseudized with  8 coefficients,  rinner =    0.800   0.800   0.800

     PseudoPot. # 4 for C  read from file:
     /storage/coda1/p-amedford6/0/shared/rich_project_chbe-medford/medford-share/data/pseudos_module/espresso/nninc/pbe/van/C.UPF
     MD5 check sum: 1a69bf6b8db32088f5b2163dbdb77a27
     Pseudo is Ultrasoft, Zval =  4.0
     Generated by new atomic code, or converted to UPF format
     Using radial grid of  721 points,  4 beta functions with:
                l(1) =   0
                l(2) =   0
                l(3) =   1
                l(4) =   1
     Q(r) pseudized with  8 coefficients,  rinner =    0.800   0.800   0.800

     PseudoPot. # 5 for H  read from file:
     /storage/coda1/p-amedford6/0/shared/rich_project_chbe-medford/medford-share/data/pseudos_module/espresso/nninc/pbe/van/H.UPF
     MD5 check sum: b5ee9d7bfd3a09ee7748110bda690ff7
     Pseudo is Ultrasoft, Zval =  1.0
     Generated by new atomic code, or converted to UPF format
     Using radial grid of  615 points,  1 beta functions with:
                l(1) =   0
     Q(r) pseudized with  8 coefficients,  rinner =    0.800

     atomic species   valence    mass     pseudopotential
        Ti1           12.00    47.86700     Ti( 1.00)
        O1             6.00    15.99900     O ( 1.00)
        N1             5.00    14.00700     N ( 1.00)
        C1             4.00    12.01100     C ( 1.00)
        H1             1.00     1.00800     H ( 1.00)

     No symmetry found

   Cartesian axes

     site n.     atom                  positions (alat units)
         1           Ti1 tau(   1) = (   0.0004258   2.9801865   6.0000000  )
         2           Ti1 tau(   2) = (   3.2906075   1.4906267   6.0002472  )
         3           O1  tau(   3) = (   0.0006271   0.0005054   7.9858123  )
         4           O1  tau(   4) = (   3.2906025   0.0005020   7.3038282  )
         5           O1  tau(   5) = (   4.5942328   1.4918067   9.2879030  )
         6           O1  tau(   6) = (   1.9868534   1.4903216   9.2879459  )
         7           Ti1 tau(   7) = (   3.2907910   2.8959150   9.1758416  )
         8           Ti1 tau(   8) = (   0.0015273   1.4827037   9.2680791  )
         9           O1  tau(   9) = (   3.2959632   0.0395795  11.3506057  )
        10           O1  tau(  10) = (   0.0116148   5.9584955  10.6183126  )
        11           O1  tau(  11) = (   1.2788542   1.5152540  12.6826201  )
        12           O1  tau(  12) = (   5.3118026   1.5181145  12.6771052  )
        13           Ti1 tau(  13) = (   6.5565567   2.9614743  12.5245697  )
        14           Ti1 tau(  14) = (   3.2956814   1.5864178  12.4516600  )
        15           O1  tau(  15) = (   0.0252471   5.9065102  14.6673769  )
        16           O1  tau(  16) = (   3.3061784   5.9134112  13.9760755  )
        17           O1  tau(  17) = (   4.5493393   1.5513651  16.1111979  )
        18           O1  tau(  18) = (   2.0154464   1.5530992  16.0877549  )
        19           Ti1 tau(  19) = (   3.2773477   2.9896638  15.7021987  )
        20           Ti1 tau(  20) = (   0.0480268   1.3694702  15.7882682  )
        21           O1  tau(  21) = (   3.2904802   0.0005063   4.7018136  )
        22           O1  tau(  22) = (   6.5727385   0.1062933  17.1740559  )
        23           O1  tau(  23) = (   1.3043587   1.4918075   6.0039043  )
        24           O1  tau(  24) = (   5.2767064   1.4903225   6.0039473  )
        25           Ti1 tau(  25) = (   0.0000382   5.9609847   6.0000000  )
        26           Ti1 tau(  26) = (   3.2902200   4.4714249   6.0002472  )
        27           O1  tau(  27) = (   0.0002396   2.9813036   7.9858123  )
        28           O1  tau(  28) = (   3.2902150   2.9813002   7.3038282  )
        29           O1  tau(  29) = (   4.5938453   4.4726049   9.2879030  )
        30           O1  tau(  30) = (   1.9864658   4.4711199   9.2879459  )
        31           Ti1 tau(  31) = (   3.2891106   5.8743827   9.1763621  )
        32           Ti1 tau(  32) = (   0.0006254   4.4649316   9.2693709  )
        33           O1  tau(  33) = (   3.2965180   2.9598593  11.3174316  )
        34           O1  tau(  34) = (   0.0092240   2.9805883  10.6323155  )
        35           O1  tau(  35) = (   1.2824442   4.4846720  12.6503842  )
        36           O1  tau(  36) = (   5.3188658   4.4853930  12.6478368  )
        37           Ti1 tau(  37) = (   0.0485215   5.9261111  12.5025588  )
        38           Ti1 tau(  38) = (   3.3111372   4.6778342  12.7091208  )
        39           O1  tau(  39) = (   6.5585416   3.0335453  14.9077256  )
        40           O1  tau(  40) = (   3.2962521   3.0064119  13.9315977  )
        41           O1  tau(  41) = (   4.5433468   4.4479239  16.1972702  )
        42           O1  tau(  42) = (   2.0131479   4.4365031  16.1967174  )
        43           Ti1 tau(  43) = (   3.3705753   0.0290894  16.3529554  )
        44           Ti1 tau(  44) = (   0.0540424   4.5922997  16.0496824  )
        45           O1  tau(  45) = (   3.2900926   2.9813045   4.7018136  )
        46           O1  tau(  46) = (   1.3039711   4.4726057   6.0039043  )
        47           O1  tau(  47) = (   5.2763189   4.4711207   6.0039473  )
        48           N1  tau(  48) = (   6.5754701   3.2032128  17.9785674  )
        49           C1  tau(  49) = (   6.5468619   2.3444050  18.7439128  )
        50           H1  tau(  50) = (   6.5191205   1.5204410  19.4189644  )
        51           O1  tau(  51) = (   3.3083073   0.1146119  18.2142577  )
        52           H1  tau(  52) = (   3.2686675   5.2273609  18.6755658  )

     number of k points=    10  Fermi-Dirac smearing, width (Ry)=  0.0073
                       cart. coord. in units 2pi/alat
        k(    1) = (   0.0000000   0.0000000   0.0000000), wk =   0.1250000
        k(    2) = (   0.0000000   0.0419351   0.0000000), wk =   0.2500000
        k(    3) = (   0.0000000  -0.0838702   0.0000000), wk =   0.1250000
        k(    4) = (   0.0379955   0.0000049   0.0000000), wk =   0.2500000
        k(    5) = (   0.0379955   0.0419400   0.0000000), wk =   0.2500000
        k(    6) = (   0.0379955  -0.0838652   0.0000000), wk =   0.2500000
        k(    7) = (   0.0379955  -0.0419301   0.0000000), wk =   0.2500000
        k(    8) = (  -0.0759910  -0.0000099   0.0000000), wk =   0.1250000
        k(    9) = (  -0.0759910   0.0419252   0.0000000), wk =   0.2500000
        k(   10) = (  -0.0759910  -0.0838800   0.0000000), wk =   0.1250000

     Initial potential from superposition of free atoms

     starting charge  378.99918, renormalised to  395.00000

     negative rho (up, down):  1.718E-02 0.000E+00

     %%%%%%%%%%%%%%%%%%%%%%%%%%%%%%%%%%%%%%%%%%%%%%%%%%%%%%%%%%%%%%%%%%%%%%%%
     %                                                                      %
     % You are using vdW-DF, which was implemented by the Thonhauser group. %
     % Please cite the following two papers that made this development      %
     % possible and the two reviews that describe the various versions:     %
     %                                                                      %
     %   T. Thonhauser et al., PRL 115, 136402 (2015).                      %
     %   T. Thonhauser et al., PRB 76, 125112 (2007).                       %
     %   K. Berland et al., Rep. Prog. Phys. 78, 066501 (2015).             %
     %   D.C. Langreth et al., J. Phys.: Condens. Matter 21, 084203 (2009). %
     %                                                                      %
     %                                                                      %
     % If you are calculating the stress with vdW-DF, please also cite:     %
     %                                                                      %
     %   R. Sabatini et al., J. Phys.: Condens. Matter 24, 424209 (2012).   %
     %                                                                      %
     %%%%%%%%%%%%%%%%%%%%%%%%%%%%%%%%%%%%%%%%%%%%%%%%%%%%%%%%%%%%%%%%%%%%%%%%

     Adding external electric field

     Computed dipole along edir(3) :
        Dipole               -8.1496 Ry au,        -20.7143 Debye
        Dipole field         -0.0154 Ry au,

        Potential amp.        1.4257 Ry
        Total length         46.3494 bohr

     Starting wfcs are  298 atomic wfcs
  @ DRIVER MODE: Message from server: STATUS
  @ DRIVER MODE: Message from server: POSDATA
  @ DRIVER MODE: Reading and sharing cell
  @ DRIVER MODE: Reading and sharing positions
  @ DRIVER MODE: Received positions

     Self-consistent Calculation

     iteration #  1     ecut=    29.40 Ry     beta= 0.05
     Davidson diagonalization with overlap
     c_bands:  1 eigenvalues not converged
     c_bands:  2 eigenvalues not converged
     c_bands:  2 eigenvalues not converged
     c_bands:  3 eigenvalues not converged
     c_bands:  3 eigenvalues not converged
     c_bands:  1 eigenvalues not converged
     c_bands:  1 eigenvalues not converged
     ethr =  1.00E-05,  avg # of iterations = 19.3

[...]

     total energy              =   -2615.12036394 Ry
     estimated scf accuracy    <    3704.54036994 Ry

     iteration #  2     ecut=    29.40 Ry     beta= 0.05
     Davidson diagonalization with overlap
     ethr =  1.00E-02,  avg # of iterations = 22.3

[...]

     iteration # 55     ecut=    29.40 Ry     beta= 0.05
     Davidson diagonalization with overlap
     c_bands:  1 eigenvalues not converged
     c_bands:  1 eigenvalues not converged
     c_bands:  1 eigenvalues not converged
     ethr =  5.73E-07,  avg # of iterations = 16.8

[...]

     total energy              =   -2950.24123293 Ry
     estimated scf accuracy    <       0.00000008 Ry

     iteration # 79     ecut=    29.40 Ry     beta= 0.05
     Davidson diagonalization with overlap
     ethr =  2.04E-11,  avg # of iterations =  2.0

     negative rho (up, down):  1.736E-02 0.000E+00

     Adding external electric field

     Computed dipole along edir(3) :
        Dipole                1.2374 Ry au,          3.1452 Debye
        Dipole field          0.0023 Ry au,

        Potential amp.       -0.2165 Ry
        Total length         46.3494 bohr

     End of self-consistent calculation

          k = 0.0000 0.0000 0.0000 ( 18029 PWs)   bands (ev):

   -55.6689 -55.6176 -55.5835 -55.4462 -55.4422 -55.4414 -55.4096 -55.4090
   -55.4088 -55.3685 -55.3253 -55.2883 -55.2062 -55.0976 -54.5807 -54.5466
   -32.1012 -32.0172 -32.0133 -31.9458 -31.9337 -31.9087 -31.8911 -31.8820
   -31.8633 -31.8553 -31.8195 -31.7701 -31.7296 -31.7233 -31.7146 -31.7084
   -31.6978 -31.6913 -31.6752 -31.6538 -31.6499 -31.6411 -31.6380 -31.6212
   -31.6184 -31.5907 -31.5905 -31.5869 -31.5702 -31.5656 -31.5580 -31.5433
   -31.5416 -31.5215 -31.4901 -31.4789 -31.4760 -31.4197 -31.3998 -31.3491
   -31.3170 -31.3081 -30.9860 -30.9012 -30.8787 -30.8037 -30.7174 -30.6055
   -17.2620 -16.5967 -16.2430 -16.0797 -15.8608 -15.7804 -15.7488 -15.5624
   -15.4507 -15.4023 -15.1917 -15.1490 -15.1327 -15.1146 -15.0908 -15.0863
   -15.0717 -15.0324 -15.0322 -15.0152 -14.9958 -14.9615 -14.9447 -14.8959
   -14.8169 -14.8095 -14.7472 -14.6726 -14.6265 -14.3549 -14.3334 -13.0791
   -12.9629  -8.7389  -4.4756  -4.1510  -3.5984  -3.5152  -3.4868  -3.4411
    -3.3680  -3.2705  -3.0993  -3.0906  -2.9788  -2.9220  -2.8149  -2.7159
    -2.6455  -2.5992  -2.5415  -2.5086  -2.4714  -2.4283  -2.3919  -2.3519
    -2.3255  -2.3161  -2.2574  -2.2286  -2.1311  -2.1243  -2.0866  -1.9938
    -1.9765  -1.9293  -1.9217  -1.9180  -1.8642  -1.8491  -1.8325  -1.7982
    -1.6777  -1.6533  -1.6474  -1.5883  -1.5242  -1.2132  -1.2036  -1.1443
    -1.0683  -1.0369  -1.0107  -0.9926  -0.9314  -0.8934  -0.8789  -0.8605
    -0.7879  -0.6933  -0.6606  -0.6123  -0.4592  -0.4526  -0.3984  -0.3788
    -0.3520  -0.3127  -0.2601  -0.1912  -0.1643  -0.1404  -0.0091   0.0127
     0.0590   0.0710   0.1173   0.1658   0.2004   0.2669   0.3175   0.3390
     0.3564   0.3675   0.4001   0.4200   0.5119   0.5444   0.5943   0.6589
     0.7181   0.7356   0.7883   0.9463   1.0419   1.0695   1.1802   1.3990
     1.4458   1.4983   1.6419   2.0115   2.0564   3.4715   3.6209   3.6379
     3.7272   3.7389   3.8244   3.9589   4.0527   4.1629   4.1737

[...]

          k = 0.0380-0.0419 0.0000 ( 17876 PWs)   bands (ev):

[...]

          k =-0.0760-0.0000 0.0000 ( 17886 PWs)   bands (ev):

[...]

          k =-0.0760-0.0839 0.0000 ( 17948 PWs)   bands (ev):

   -55.6681 -55.6006 -55.6004 -55.4400 -55.4313 -55.4267 -55.4251 -55.4226
   -55.4097 -55.3604 -55.3334 -55.2902 -55.2036 -55.1001 -54.5636 -54.5635
   -31.9563 -31.9440 -31.9166 -31.9165 -31.8942 -31.8940 -31.8934 -31.8703
   -31.7996 -31.7572 -31.7555 -31.7480 -31.7352 -31.7206 -31.7202 -31.7079
   -31.7025 -31.6998 -31.6939 -31.6713 -31.6709 -31.6579 -31.6434 -31.6284
   -31.6267 -31.6239 -31.6154 -31.6063 -31.6050 -31.5983 -31.5954 -31.5801
   -31.5735 -31.5566 -31.5497 -31.5070 -31.4945 -31.4686 -31.4375 -31.4037
   -31.3550 -31.3126 -30.8914 -30.8914 -30.7992 -30.7988 -30.7607 -30.7605
   -17.2548 -16.5879 -15.8706 -15.6504 -15.5806 -15.5754 -15.4405 -15.3704
   -15.3479 -15.3186 -15.3026 -15.2662 -15.2414 -15.2262 -15.1825 -15.1595
   -15.1259 -15.1077 -15.0928 -15.0538 -15.0433 -15.0178 -15.0086 -14.9922
   -14.9352 -14.9133 -14.9043 -14.7716 -14.7370 -14.6647 -14.4736 -13.0649
   -13.0647  -8.7367  -4.4560  -4.1639  -3.3020  -3.1071  -3.0217  -2.8624
    -2.7961  -2.6741  -2.6495  -2.6134  -2.5467  -2.5300  -2.4995  -2.4545
    -2.3945  -2.3729  -2.3674  -2.3427  -2.3325  -2.3017  -2.2860  -2.2761
    -2.2710  -2.2452  -2.2302  -2.2176  -2.1926  -2.1624  -2.1598  -2.1433
    -2.1272  -2.0535  -1.9892  -1.9411  -1.8163  -1.7622  -1.7513  -1.7371
    -1.7220  -1.6844  -1.6778  -1.6391  -1.6136  -1.5021  -1.4219  -1.3785
    -1.3073  -1.1973  -1.1779  -1.1690  -1.1062  -1.0741  -1.0400  -1.0382
    -0.9327  -0.9022  -0.8169  -0.7630  -0.7270  -0.6625  -0.5713  -0.5564
    -0.5467  -0.5238  -0.5041  -0.4883  -0.4619  -0.4243  -0.3429  -0.3055
    -0.3007  -0.2996  -0.2486  -0.1737  -0.1106   0.0755   0.1638   0.1714
     0.2196   0.2571   0.4506   0.4853   0.5147   0.5281   0.5761   0.6284
     0.6923   0.7085   0.7566   0.8217   0.9118   0.9378   0.9706   0.9814
     1.0280   1.8101   1.8177   1.8767   1.8768   3.6415   3.9478   3.9865
     4.0048   4.0130   4.0515   4.0553   4.0747   4.1526   4.1625

     the Fermi energy is     3.5054 ev

!    total energy              =   -2950.24124021 Ry
     estimated scf accuracy    <       0.00000005 Ry
     smearing contrib. (-TS)   =      -0.01957452 Ry
     internal energy E=F+TS    =   -2950.22166569 Ry

     The total energy is F=E-TS. E is the sum of the following terms:
     one-electron contribution =  -23960.75123303 Ry
     hartree contribution      =   12071.35126598 Ry
     xc contribution           =    -486.32624716 Ry
     ewald contribution        =    9425.50165903 Ry
     electric field correction =       0.00288949 Ry

     convergence has been achieved in  79 iterations

     Forces acting on atoms (cartesian axes, Ry/au):

     atom    1 type  1   force =     0.00006989   -0.00023232    0.09442768
     atom    2 type  1   force =     0.00000320    0.00017974   -0.17484406
     atom    3 type  2   force =     0.00002767   -0.00043412   -0.02143760
     atom    4 type  2   force =     0.00004126   -0.00080119    0.05274352
     atom    5 type  2   force =    -0.00430449   -0.00229543    0.00044311
     atom    6 type  2   force =     0.00596748   -0.00164563    0.00007526
     atom    7 type  1   force =    -0.00012339    0.00325803    0.01149720
     atom    8 type  1   force =     0.00013726    0.00254382    0.00477031
     atom    9 type  2   force =    -0.00017436    0.00026547   -0.00022126
     atom   10 type  2   force =    -0.00077765    0.00345111   -0.01161281
     atom   11 type  2   force =     0.00053328   -0.00040088    0.00028327
     atom   12 type  2   force =    -0.00003414   -0.00024805    0.00012258
     atom   13 type  1   force =    -0.00102638   -0.00039359    0.00001066
     atom   14 type  1   force =     0.00081092    0.00052770   -0.00016938
     atom   15 type  2   force =     0.00020727   -0.00010282   -0.00062828
     atom   16 type  2   force =    -0.00033862   -0.00071690    0.00089869
     atom   17 type  2   force =     0.00080879    0.00007465   -0.00044757
     atom   18 type  2   force =    -0.00036021   -0.00010067    0.00002758
     atom   19 type  1   force =     0.00034735    0.00082173    0.00026530
     atom   20 type  1   force =     0.00015157   -0.00026028   -0.00021780
     atom   21 type  2   force =     0.00008881    0.00000662    0.10298989
     atom   22 type  2   force =    -0.00009463    0.00082038   -0.00017131
     atom   23 type  2   force =    -0.07226429   -0.00016907   -0.02735608
     atom   24 type  2   force =     0.07223980    0.00024260   -0.02740360
     atom   25 type  1   force =     0.00014108   -0.00024680    0.09435494
     atom   26 type  1   force =    -0.00008724   -0.00124970   -0.17482352
     atom   27 type  2   force =     0.00020572   -0.00006467   -0.02022691
     atom   28 type  2   force =     0.00009490   -0.00096025    0.04854091
     atom   29 type  2   force =    -0.00683964    0.00193229    0.00270163
     atom   30 type  2   force =     0.00838978    0.00226708    0.00216470
     atom   31 type  1   force =     0.00004646    0.00104108    0.00137427
     atom   32 type  1   force =     0.00009897   -0.00336484    0.00512931
     atom   33 type  2   force =    -0.00015882   -0.00021543    0.00013153
     atom   34 type  2   force =    -0.00192708   -0.00084080   -0.01108687
     atom   35 type  2   force =     0.00067724   -0.00019503    0.00002237
     atom   36 type  2   force =    -0.00005690    0.00011194    0.00002436
     atom   37 type  1   force =    -0.00123795   -0.00011402   -0.00038303
     atom   38 type  1   force =     0.00067508    0.00013061    0.00065611
     atom   39 type  2   force =     0.00021321   -0.00079324    0.00007061
     atom   40 type  2   force =    -0.00034376   -0.00013840    0.00022693
     atom   41 type  2   force =    -0.00093505   -0.00019352    0.00052630
     atom   42 type  2   force =     0.00027787   -0.00078523   -0.00051237
     atom   43 type  1   force =    -0.00028761   -0.00013873    0.00016792
     atom   44 type  1   force =    -0.00056771   -0.00036911    0.00000894
     atom   45 type  2   force =     0.00008193    0.00003840    0.10284109
     atom   46 type  2   force =    -0.07219550   -0.00008972   -0.02728786
     atom   47 type  2   force =     0.07219481    0.00037196   -0.02734104
     atom   48 type  3   force =    -0.00000458    0.00032086   -0.00086686
     atom   49 type  4   force =    -0.00006039   -0.00064011    0.00051652
     atom   50 type  5   force =    -0.00024929    0.00027251    0.00001817
     atom   51 type  2   force =     0.00051129    0.00150470   -0.00196367
     atom   52 type  5   force =    -0.00059325   -0.00198269    0.00097023

     Total force =     0.361551     Total SCF correction =     0.000575
  @ DRIVER MODE: Message from server: STATUS
  @ DRIVER MODE: Message from server: GETFORCE
  @ DRIVER MODE: Returning v,forces,stress,ensemble

     Writing output data file ./calc.save/
  @ DRIVER MODE: Message from server: EXIT
  @ DRIVE MODE: Exiting

     General routines

     Parallel routines

   This run was terminated on:   5:50:19  28Sep2021

   JOB DONE.