     Program PWSCF v.6.7GPU starts on 15Sep2021 at 16: 9:21

     R & G space division:  proc/nbgrp/npool/nimage =      10
     Reading input from /storage/home/hcoda1/3/ntian30/research/carbon/CxH_vib/CH_calc/ads_slab/CHNHNH2_b/out_0021/pw.inp
Warning: card &CELL ignored
Warning: card   CELL_DYNAMICS='IPI', ignored
Warning: card / ignored

     Current dimensions of program PWSCF are:
     Max number of different atomic species (ntypx) = 10
     Max number of k-points (npk) =  40000
     Max angular momentum in pseudopotentials (lmaxx) =  3
     Presently no symmetry can be used with electric field

     Message from routine cell_base_init:
     DEPRECATED: use true lattice parameter, not A to a.u. conversion factor

     IMPORTANT: XC functional enforced from input :
     Exchange-correlation= BEEF-VDW
                           (   1   4  43  14   2   0   0)
     Any further DFT definition will be discarded
     Please, verify this is what you really want

  @ DRIVER MODE: Connecting to
 qe_1139763_2850203.sched-torque.pace.gatech.eduurlhq6gw_scratch
  using UNIX socket
  @ DRIVER MODE: Message from server: STATUS
  @ DRIVER MODE: Message from server: INIT
  @ DRIVER MODE: Receiving replica           0          -1
  @ DRIVER MODE: Receiving encoded integer          25
  @ DRIVER MODE:  SCF:  T  FORCE:  T  STRESS:  F  VC:  F  ENSEMBLE:  F
  @ DRIVER MODE:  SCF:  T  FORCE:  T  STRESS:  F  VC:  F  ENSEMBLE:  F

     Using Slab Decomposition

     bravais-lattice index     =            0
     lattice parameter (alat)  =       1.8897  a.u.
     unit-cell volume          =    6658.9804 (a.u.)^3
     number of atoms/cell      =           54
     number of atomic types    =            5
     number of electrons       =       396.00
     number of Kohn-Sham states=          208
     kinetic-energy cutoff     =      29.3995  Ry
     charge density cutoff     =     293.9946  Ry
     scf convergence threshold =      7.3E-08
     mixing beta               =       0.0500
     number of iterations used =            8  plain     mixing
     Exchange-correlation= BEEF-VDW
                           (   1   4  43  14   2   0   0)

     celldm(1)=   1.889726  celldm(2)=   0.000000  celldm(3)=   0.000000
     celldm(4)=   0.000000  celldm(5)=   0.000000  celldm(6)=   0.000000

     crystal axes: (cart. coord. in units of alat)
               a(1) = (   6.579727   0.000000   0.000000 )
               a(2) = (  -0.000775   5.961596   0.000000 )
               a(3) = (   0.000000   0.000000  25.155947 )

     reciprocal axes: (cart. coord. in units 2 pi/alat)
               b(1) = (  0.151982  0.000020  0.000000 )
               b(2) = (  0.000000  0.167740  0.000000 )
               b(3) = (  0.000000  0.000000  0.039752 )

     PseudoPot. # 1 for Ti read from file:
     /storage/coda1/p-amedford6/0/shared/rich_project_chbe-medford/medford-share/data/pseudos_module/espresso/nninc/pbe/van/Ti.UPF
     MD5 check sum: 8e4df49b7f0d34bbd5052bf3f5ea0213
     Pseudo is Ultrasoft, Zval = 12.0
     Generated by new atomic code, or converted to UPF format
     Using radial grid of  851 points,  6 beta functions with:
                l(1) =   0
                l(2) =   0
                l(3) =   1
                l(4) =   1
                l(5) =   2
                l(6) =   2
     Q(r) pseudized with  8 coefficients,  rinner =    1.000   1.000   1.000
                                                       1.000   1.000

     PseudoPot. # 2 for O  read from file:
     /storage/coda1/p-amedford6/0/shared/rich_project_chbe-medford/medford-share/data/pseudos_module/espresso/nninc/pbe/van/O.UPF
     MD5 check sum: 78c19812648e8988a0fe644b0f25305e
     Pseudo is Ultrasoft, Zval =  6.0
     Generated by new atomic code, or converted to UPF format
     Using radial grid of  737 points,  4 beta functions with:
                l(1) =   0
                l(2) =   0
                l(3) =   1
                l(4) =   1
     Q(r) pseudized with  8 coefficients,  rinner =    0.800   0.800   0.800

     PseudoPot. # 3 for N  read from file:
     /storage/coda1/p-amedford6/0/shared/rich_project_chbe-medford/medford-share/data/pseudos_module/espresso/nninc/pbe/van/N.UPF
     MD5 check sum: 90d10febe142ad51ac9d5be1deb811c4
     Pseudo is Ultrasoft, Zval =  5.0
     Generated by new atomic code, or converted to UPF format
     Using radial grid of  729 points,  4 beta functions with:
                l(1) =   0
                l(2) =   0
                l(3) =   1
                l(4) =   1
     Q(r) pseudized with  8 coefficients,  rinner =    0.800   0.800   0.800

     PseudoPot. # 4 for C  read from file:
     /storage/coda1/p-amedford6/0/shared/rich_project_chbe-medford/medford-share/data/pseudos_module/espresso/nninc/pbe/van/C.UPF
     MD5 check sum: 1a69bf6b8db32088f5b2163dbdb77a27
     Pseudo is Ultrasoft, Zval =  4.0
     Generated by new atomic code, or converted to UPF format
     Using radial grid of  721 points,  4 beta functions with:
                l(1) =   0
                l(2) =   0
                l(3) =   1
                l(4) =   1
     Q(r) pseudized with  8 coefficients,  rinner =    0.800   0.800   0.800

     PseudoPot. # 5 for H  read from file:
     /storage/coda1/p-amedford6/0/shared/rich_project_chbe-medford/medford-share/data/pseudos_module/espresso/nninc/pbe/van/H.UPF
     MD5 check sum: b5ee9d7bfd3a09ee7748110bda690ff7
     Pseudo is Ultrasoft, Zval =  1.0
     Generated by new atomic code, or converted to UPF format
     Using radial grid of  615 points,  1 beta functions with:
                l(1) =   0
     Q(r) pseudized with  8 coefficients,  rinner =    0.800

     atomic species   valence    mass     pseudopotential
        Ti1           12.00    47.86700     Ti( 1.00)
        O1             6.00    15.99900     O ( 1.00)
        N1             5.00    14.00700     N ( 1.00)
        C1             4.00    12.01100     C ( 1.00)
        H1             1.00     1.00800     H ( 1.00)

     No symmetry found

   Cartesian axes

     site n.     atom                  positions (alat units)
         1           Ti1 tau(   1) = (   0.0004258   2.9801865   6.0000000  )
         2           Ti1 tau(   2) = (   3.2906075   1.4906267   6.0002472  )
         3           O1  tau(   3) = (   0.0006271   0.0005054   7.9858123  )
         4           O1  tau(   4) = (   3.2906025   0.0005020   7.3038282  )
         5           O1  tau(   5) = (   4.5942328   1.4918067   9.2879030  )
         6           O1  tau(   6) = (   1.9868534   1.4903216   9.2879459  )
         7           Ti1 tau(   7) = (   3.2907910   2.8959150   9.1758416  )
         8           Ti1 tau(   8) = (   0.0015273   1.4827037   9.2680791  )
         9           O1  tau(   9) = (   3.2793096   0.0109766  11.3808719  )
        10           O1  tau(  10) = (   0.0116148   5.9584955  10.6183126  )
        11           O1  tau(  11) = (   1.2765542   1.4933007  12.7034215  )
        12           O1  tau(  12) = (   5.2857700   1.4936877  12.6893616  )
        13           Ti1 tau(  13) = (   6.5704964   2.9736084  12.5041408  )
        14           Ti1 tau(  14) = (   3.2751742   1.4933391  12.5393049  )
        15           O1  tau(  15) = (   6.5372820   5.8718772  14.6936981  )
        16           O1  tau(  16) = (   3.2837545   5.9462538  13.9991140  )
        17           O1  tau(  17) = (   4.5218413   1.5222141  16.1415557  )
        18           O1  tau(  18) = (   2.0028246   1.5144184  16.0917912  )
        19           Ti1 tau(  19) = (   3.2608137   3.0032599  15.7731319  )
        20           Ti1 tau(  20) = (   6.5347537   1.3176600  15.8357148  )
        21           O1  tau(  21) = (   3.2904802   0.0005063   4.7018136  )
        22           O1  tau(  22) = (   0.0001116   0.1817366  17.2468837  )
        23           O1  tau(  23) = (   1.3043587   1.4918075   6.0039043  )
        24           O1  tau(  24) = (   5.2767064   1.4903225   6.0039473  )
        25           Ti1 tau(  25) = (   0.0000382   5.9609847   6.0000000  )
        26           Ti1 tau(  26) = (   3.2902200   4.4714249   6.0002472  )
        27           O1  tau(  27) = (   0.0002396   2.9813036   7.9858123  )
        28           O1  tau(  28) = (   3.2902150   2.9813002   7.3038282  )
        29           O1  tau(  29) = (   4.5938453   4.4726049   9.2879030  )
        30           O1  tau(  30) = (   1.9864658   4.4711199   9.2879459  )
        31           Ti1 tau(  31) = (   3.2891106   5.8743827   9.1763621  )
        32           Ti1 tau(  32) = (   0.0006254   4.4649316   9.2693709  )
        33           O1  tau(  33) = (   3.2784652   2.9723947  11.3763700  )
        34           O1  tau(  34) = (   0.0092240   2.9805883  10.6323155  )
        35           O1  tau(  35) = (   1.2785823   4.4627939  12.6603399  )
        36           O1  tau(  36) = (   5.2819334   4.4612839  12.6411408  )
        37           Ti1 tau(  37) = (   6.5651122   5.9414744  12.5010122  )
        38           Ti1 tau(  38) = (   3.2748416   4.4711967  12.5285960  )
        39           O1  tau(  39) = (   6.5535135   3.0442902  14.9788272  )
        40           O1  tau(  40) = (   3.2854610   3.0101546  13.9792171  )
        41           O1  tau(  41) = (   4.5276217   4.4805847  16.2446860  )
        42           O1  tau(  42) = (   2.0020726   4.4828838  16.2214318  )
        43           Ti1 tau(  43) = (   3.2599196   0.0196740  15.7976440  )
        44           Ti1 tau(  44) = (   6.5457193   4.5363361  16.0654255  )
        45           O1  tau(  45) = (   3.2900926   2.9813045   4.7018136  )
        46           O1  tau(  46) = (   1.3039711   4.4726057   6.0039043  )
        47           O1  tau(  47) = (   5.2763189   4.4711207   6.0039473  )
        48           N1  tau(  48) = (   1.1367570   2.6896871  18.7516802  )
        49           N1  tau(  49) = (   6.5001796   3.3781512  18.2049158  )
        50           C1  tau(  50) = (   2.1807708   3.2122984  19.2750733  )
        51           H1  tau(  51) = (   2.0427863   4.2979755  19.4133283  )
        52           H1  tau(  52) = (   1.0785778   1.7047639  18.4906217  )
        53           H1  tau(  53) = (   6.4055442   4.2515232  18.7250902  )
        54           H1  tau(  54) = (   5.6874363   2.7987760  18.4315970  )

     number of k points=    10  Fermi-Dirac smearing, width (Ry)=  0.0073
                       cart. coord. in units 2pi/alat
        k(    1) = (   0.0000000   0.0000000   0.0000000), wk =   0.1250000
        k(    2) = (   0.0000000   0.0419351   0.0000000), wk =   0.2500000
        k(    3) = (   0.0000000  -0.0838702   0.0000000), wk =   0.1250000
        k(    4) = (   0.0379955   0.0000049   0.0000000), wk =   0.2500000
        k(    5) = (   0.0379955   0.0419400   0.0000000), wk =   0.2500000
        k(    6) = (   0.0379955  -0.0838652   0.0000000), wk =   0.2500000
        k(    7) = (   0.0379955  -0.0419301   0.0000000), wk =   0.2500000
        k(    8) = (  -0.0759910  -0.0000099   0.0000000), wk =   0.1250000
        k(    9) = (  -0.0759910   0.0419252   0.0000000), wk =   0.2500000
        k(   10) = (  -0.0759910  -0.0838800   0.0000000), wk =   0.1250000

     Initial potential from superposition of free atoms

     starting charge  379.99915, renormalised to  396.00000

     negative rho (up, down):  1.650E-02 0.000E+00

     %%%%%%%%%%%%%%%%%%%%%%%%%%%%%%%%%%%%%%%%%%%%%%%%%%%%%%%%%%%%%%%%%%%%%%%%
     %                                                                      %
     % You are using vdW-DF, which was implemented by the Thonhauser group. %
     % Please cite the following two papers that made this development      %
     % possible and the two reviews that describe the various versions:     %
     %                                                                      %
     %   T. Thonhauser et al., PRL 115, 136402 (2015).                      %
     %   T. Thonhauser et al., PRB 76, 125112 (2007).                       %
     %   K. Berland et al., Rep. Prog. Phys. 78, 066501 (2015).             %
     %   D.C. Langreth et al., J. Phys.: Condens. Matter 21, 084203 (2009). %
     %                                                                      %
     %                                                                      %
     % If you are calculating the stress with vdW-DF, please also cite:     %
     %                                                                      %
     %   R. Sabatini et al., J. Phys.: Condens. Matter 24, 424209 (2012).   %
     %                                                                      %
     %%%%%%%%%%%%%%%%%%%%%%%%%%%%%%%%%%%%%%%%%%%%%%%%%%%%%%%%%%%%%%%%%%%%%%%%

     Adding external electric field

     Computed dipole along edir(3) :
        Dipole               -9.9923 Ry au,        -25.3978 Debye
        Dipole field         -0.0189 Ry au,

        Potential amp.        1.7480 Ry
        Total length         46.3494 bohr

     Starting wfcs are  300 atomic wfcs
  @ DRIVER MODE: Message from server: STATUS
  @ DRIVER MODE: Message from server: POSDATA
  @ DRIVER MODE: Reading and sharing cell
  @ DRIVER MODE: Reading and sharing positions
  @ DRIVER MODE: Received positions

     Self-consistent Calculation

     iteration #  1     ecut=    29.40 Ry     beta= 0.05
     Davidson diagonalization with overlap
     c_bands:  2 eigenvalues not converged
     c_bands:  2 eigenvalues not converged
     c_bands:  3 eigenvalues not converged
     c_bands:  2 eigenvalues not converged
     c_bands:  3 eigenvalues not converged
     c_bands:  1 eigenvalues not converged
     c_bands:  3 eigenvalues not converged
     c_bands:  2 eigenvalues not converged
     c_bands:  1 eigenvalues not converged
     c_bands:  1 eigenvalues not converged
     ethr =  1.00E-05,  avg # of iterations = 20.0

[...]

     total energy              =   -2519.98945137 Ry
     estimated scf accuracy    <    4700.42129111 Ry

     iteration #  2     ecut=    29.40 Ry     beta= 0.05
     Davidson diagonalization with overlap
     ethr =  1.00E-02,  avg # of iterations = 24.9

[...]

     iteration # 61     ecut=    29.40 Ry     beta= 0.05
     Davidson diagonalization with overlap
     c_bands:  1 eigenvalues not converged
     ethr =  1.66E-09,  avg # of iterations = 14.0

[...]

     total energy              =   -2940.25626735 Ry
     estimated scf accuracy    <       0.00000020 Ry

     iteration # 69     ecut=    29.40 Ry     beta= 0.05
     Davidson diagonalization with overlap
     ethr =  4.96E-11,  avg # of iterations = 13.3

     negative rho (up, down):  1.612E-02 0.000E+00

     Adding external electric field

     Computed dipole along edir(3) :
        Dipole                0.8167 Ry au,          2.0757 Debye
        Dipole field          0.0015 Ry au,

        Potential amp.       -0.1429 Ry
        Total length         46.3494 bohr

     End of self-consistent calculation

          k = 0.0000 0.0000 0.0000 ( 18029 PWs)   bands (ev):

   -55.6639 -55.6268 -55.6151 -55.5830 -55.5809 -55.5458 -55.5411 -55.5066
   -55.4873 -55.4769 -55.4529 -55.4466 -55.4129 -55.3288 -54.6471 -54.6130
   -32.2290 -32.1213 -32.1080 -32.0293 -31.9768 -31.9755 -31.9727 -31.9528
   -31.9039 -31.8977 -31.8729 -31.8692 -31.8599 -31.8479 -31.8309 -31.8193
   -31.8173 -31.8088 -31.8007 -31.7833 -31.7677 -31.7649 -31.7294 -31.7293
   -31.7190 -31.7177 -31.7056 -31.6896 -31.6723 -31.6719 -31.6669 -31.6467
   -31.6455 -31.6430 -31.6361 -31.6336 -31.6008 -31.5926 -31.5747 -31.5580
   -31.5369 -31.5243 -31.0566 -30.9620 -30.9399 -30.8729 -30.7861 -30.6753
   -18.4950 -16.4944 -16.2331 -16.0879 -15.9760 -15.8647 -15.7521 -15.7091
   -15.5951 -15.5210 -15.3925 -15.3581 -15.3209 -15.3058 -15.2930 -15.2921
   -15.2114 -15.2056 -15.1869 -15.1626 -15.1596 -15.1162 -15.1050 -15.0644
   -15.0402 -15.0090 -14.9114 -14.8260 -14.7522 -14.5866 -14.5057 -13.1496
   -13.0321  -9.5895  -6.7351  -5.8057  -4.1287  -3.9090  -3.8197  -3.6853
    -3.5801  -3.5571  -3.5020  -3.4201  -3.2462  -3.1104  -3.0587  -2.9529
    -2.8738  -2.8623  -2.8314  -2.7070  -2.6626  -2.6196  -2.5472  -2.5291
    -2.4713  -2.4498  -2.4328  -2.4164  -2.3955  -2.3847  -2.2955  -2.2344
    -2.1355  -2.0858  -2.0675  -2.0184  -2.0038  -1.9773  -1.9543  -1.9449
    -1.8922  -1.8877  -1.8596  -1.8107  -1.6925  -1.5585  -1.5264  -1.4262
    -1.3044  -1.2666  -1.2475  -1.1581  -1.1475  -1.1217  -1.0722  -1.0424
    -1.0063  -0.9290  -0.8762  -0.7854  -0.7440  -0.7380  -0.6745  -0.6536
    -0.5645  -0.4788  -0.4460  -0.4314  -0.4066  -0.2940  -0.2720  -0.2072
    -0.1480  -0.1373  -0.1294  -0.0496  -0.0047   0.0691   0.1016   0.1227
     0.2143   0.2357   0.2659   0.2675   0.2992   0.3201   0.3651   0.4073
     0.4337   0.5209   0.6374   0.8607   0.9456   0.9500   1.2722   1.2801
     1.3757   1.5590   1.6441   1.9523   2.0006   3.4329   3.5044   3.5790
     3.5830   3.5969   3.6689   3.9117   3.9323   3.9397   3.9424   3.9681

[...]

          k = 0.0380-0.0419 0.0000 ( 17876 PWs)   bands (ev):

[...]

          k =-0.0760-0.0000 0.0000 ( 17886 PWs)   bands (ev):

[...]

          k =-0.0760-0.0839 0.0000 ( 17948 PWs)   bands (ev):

   -55.6501 -55.6404 -55.5982 -55.5977 -55.5816 -55.5414 -55.5255 -55.5222
   -55.4813 -55.4714 -55.4684 -55.4301 -55.4295 -55.3300 -54.6301 -54.6298
   -32.0411 -32.0371 -32.0292 -31.9415 -31.9232 -31.9229 -31.9193 -31.8893
   -31.8891 -31.8733 -31.8635 -31.8606 -31.8529 -31.8296 -31.8173 -31.8050
   -31.8039 -31.8002 -31.7971 -31.7891 -31.7875 -31.7840 -31.7441 -31.7415
   -31.7400 -31.7368 -31.7307 -31.7195 -31.7179 -31.7175 -31.7139 -31.7040
   -31.7014 -31.6843 -31.6811 -31.6662 -31.6638 -31.6608 -31.6107 -31.6106
   -31.6014 -31.5416 -30.9527 -30.9524 -30.8692 -30.8690 -30.8296 -30.8294
   -18.4904 -16.0390 -15.8841 -15.8564 -15.7065 -15.6731 -15.6295 -15.6152
   -15.5083 -15.4546 -15.4346 -15.4165 -15.4159 -15.3665 -15.3648 -15.3596
   -15.2876 -15.2687 -15.2659 -15.2401 -15.1844 -15.1779 -15.1713 -15.1662
   -15.1145 -15.1108 -15.0690 -15.0199 -15.0166 -14.8409 -14.5274 -13.1336
   -13.1336  -9.5808  -6.7232  -5.8004  -4.1243  -3.7963  -3.1478  -3.1367
    -3.1168  -2.9217  -2.8529  -2.8231  -2.8197  -2.7267  -2.6859  -2.6482
    -2.6460  -2.5837  -2.5728  -2.5451  -2.5116  -2.4996  -2.4837  -2.4627
    -2.4300  -2.3998  -2.3894  -2.3781  -2.3768  -2.3246  -2.3121  -2.3005
    -2.2677  -2.2478  -2.2286  -2.2177  -2.1490  -2.0488  -2.0316  -1.9481
    -1.8741  -1.8697  -1.7978  -1.7728  -1.7342  -1.7070  -1.6984  -1.6334
    -1.4721  -1.4362  -1.4122  -1.4011  -1.2919  -1.2711  -1.2455  -1.1837
    -1.1710  -1.1498  -1.0226  -0.9870  -0.9739  -0.8898  -0.8793  -0.7993
    -0.7571  -0.6895  -0.6676  -0.6210  -0.6192  -0.5770  -0.5679  -0.5001
    -0.4692  -0.4337  -0.4001  -0.3862  -0.3489  -0.1538  -0.1412  -0.1320
     0.0061   0.0234   0.1872   0.2140   0.2672   0.3638   0.3887   0.4458
     0.4793   0.6214   0.6403   0.6472   0.7091   0.7212   0.7853   0.7967
     1.5386   1.7320   1.7325   1.8205   1.8208   3.5765   3.6885   3.7033
     3.7370   3.8467   3.8725   3.9508   3.9800   4.0177   4.0209   4.0832

     the Fermi energy is     3.4967 ev

!    total energy              =   -2940.25630001 Ry
     estimated scf accuracy    <       0.00000007 Ry
     smearing contrib. (-TS)   =      -0.03710132 Ry
     internal energy E=F+TS    =   -2940.21919869 Ry

     The total energy is F=E-TS. E is the sum of the following terms:
     one-electron contribution =  -23762.37428349 Ry
     hartree contribution      =   11970.09766133 Ry
     xc contribution           =    -485.99109030 Ry
     ewald contribution        =    9338.04725520 Ry
     electric field correction =       0.00125857 Ry

     convergence has been achieved in  69 iterations

     Forces acting on atoms (cartesian axes, Ry/au):

     atom    1 type  1   force =     0.00023125   -0.00025849    0.09313682
     atom    2 type  1   force =    -0.00000197   -0.00049324   -0.17830470
     atom    3 type  2   force =     0.00007900   -0.00040806   -0.02009538
     atom    4 type  2   force =     0.00004031   -0.00192693    0.05908755
     atom    5 type  2   force =    -0.01029635   -0.00073264    0.00827416
     atom    6 type  2   force =     0.01151869   -0.00008242    0.00662029
     atom    7 type  1   force =    -0.00058262    0.00211264   -0.01394219
     atom    8 type  1   force =     0.00069176   -0.00093014   -0.00578883
     atom    9 type  2   force =     0.00007140   -0.00012235    0.00004768
     atom   10 type  2   force =    -0.00259773    0.00236085    0.00052793
     atom   11 type  2   force =    -0.00007192   -0.00005622    0.00006984
     atom   12 type  2   force =     0.00004459    0.00018867   -0.00006265
     atom   13 type  1   force =    -0.00008882    0.00007439    0.00005835
     atom   14 type  1   force =    -0.00010067   -0.00035366   -0.00003354
     atom   15 type  2   force =    -0.00014839    0.00010726    0.00009368
     atom   16 type  2   force =     0.00017429   -0.00003720    0.00020552
     atom   17 type  2   force =    -0.00000321   -0.00002809   -0.00001968
     atom   18 type  2   force =     0.00010864   -0.00012535    0.00028879
     atom   19 type  1   force =     0.00014492   -0.00009132    0.00002572
     atom   20 type  1   force =    -0.00026922    0.00025272   -0.00023431
     atom   21 type  2   force =     0.00014051   -0.00010609    0.10397021
     atom   22 type  2   force =     0.00004507    0.00026098    0.00015862
     atom   23 type  2   force =    -0.07026794   -0.00020009   -0.02687431
     atom   24 type  2   force =     0.07031088    0.00026245   -0.02691115
     atom   25 type  1   force =     0.00023471   -0.00019300    0.09280282
     atom   26 type  1   force =     0.00003064   -0.00045081   -0.17843535
     atom   27 type  2   force =     0.00013039   -0.00024233   -0.01916702
     atom   28 type  2   force =     0.00006826   -0.00174202    0.05852700
     atom   29 type  2   force =    -0.01092716   -0.00101610    0.00903152
     atom   30 type  2   force =     0.01204448   -0.00059709    0.00744701
     atom   31 type  1   force =    -0.00057609    0.00639990   -0.01468104
     atom   32 type  1   force =     0.00075146    0.00032113   -0.00608063
     atom   33 type  2   force =    -0.00008860   -0.00016583    0.00003031
     atom   34 type  2   force =    -0.00184335   -0.00250027   -0.00038734
     atom   35 type  2   force =    -0.00009929    0.00021575   -0.00008665
     atom   36 type  2   force =     0.00013447    0.00009629   -0.00014496
     atom   37 type  1   force =     0.00008117    0.00011972   -0.00000221
     atom   38 type  1   force =     0.00007745   -0.00044154   -0.00000444
     atom   39 type  2   force =     0.00014116    0.00014892   -0.00013764
     atom   40 type  2   force =    -0.00009846   -0.00007042    0.00016420
     atom   41 type  2   force =    -0.00006201    0.00003859    0.00005422
     atom   42 type  2   force =     0.00004569    0.00007054   -0.00001626
     atom   43 type  1   force =     0.00033646   -0.00014282    0.00014646
     atom   44 type  1   force =     0.00022147    0.00019447   -0.00003639
     atom   45 type  2   force =     0.00012884   -0.00011187    0.10393081
     atom   46 type  2   force =    -0.07026516   -0.00011383   -0.02686860
     atom   47 type  2   force =     0.07025297    0.00029339   -0.02688169
     atom   48 type  3   force =    -0.00019386   -0.00024619    0.00074164
     atom   49 type  3   force =    -0.00037355   -0.00044747    0.00036693
     atom   50 type  4   force =    -0.00024215    0.00152486    0.00167824
     atom   51 type  5   force =    -0.00006582   -0.00241272   -0.00181700
     atom   52 type  5   force =     0.00028078    0.00141427   -0.00070471
     atom   53 type  5   force =     0.00052413   -0.00031676    0.00006744
     atom   54 type  5   force =     0.00017850    0.00070556    0.00016491

     Total force =     0.366328     Total SCF correction =     0.000453
  @ DRIVER MODE: Message from server: STATUS
  @ DRIVER MODE: Message from server: GETFORCE
  @ DRIVER MODE: Returning v,forces,stress,ensemble

     Writing output data file ./calc.save/
  @ DRIVER MODE: Message from server: EXIT
  @ DRIVE MODE: Exiting

     General routines

     Parallel routines

   This run was terminated on:  16:28:32  15Sep2021

   JOB DONE.