     Program PWSCF v.6.7GPU starts on 24Sep2021 at  8:49:42

     R & G space division:  proc/nbgrp/npool/nimage =       8
     Reading input from /storage/home/hcoda1/3/ntian30/research/carbon/CxH_vib/H2O_calc/ads_slab/CH2NHNH2HO_a/out_0049/pw.inp
Warning: card &CELL ignored
Warning: card   CELL_DYNAMICS='IPI', ignored
Warning: card / ignored

     Current dimensions of program PWSCF are:
     Max number of different atomic species (ntypx) = 10
     Max number of k-points (npk) =  40000
     Max angular momentum in pseudopotentials (lmaxx) =  3
     Presently no symmetry can be used with electric field

     Message from routine cell_base_init:
     DEPRECATED: use true lattice parameter, not A to a.u. conversion factor

     IMPORTANT: XC functional enforced from input :
     Exchange-correlation= BEEF-VDW
                           (   1   4  43  14   2   0   0)
     Any further DFT definition will be discarded
     Please, verify this is what you really want

  @ DRIVER MODE: Connecting to
 qe_1139763_2947313.sched-torque.pace.gatech.eduiybwme_1_scratch
  using UNIX socket
  @ DRIVER MODE: Message from server: STATUS
  @ DRIVER MODE: Message from server: INIT
  @ DRIVER MODE: Receiving replica           0          -1
  @ DRIVER MODE: Receiving encoded integer          25
  @ DRIVER MODE:  SCF:  T  FORCE:  T  STRESS:  F  VC:  F  ENSEMBLE:  F
  @ DRIVER MODE:  SCF:  T  FORCE:  T  STRESS:  F  VC:  F  ENSEMBLE:  F

     Using Slab Decomposition

     bravais-lattice index     =            0
     lattice parameter (alat)  =       1.8897  a.u.
     unit-cell volume          =    6658.9804 (a.u.)^3
     number of atoms/cell      =           57
     number of atomic types    =            5
     number of electrons       =       404.00
     number of Kohn-Sham states=          212
     kinetic-energy cutoff     =      29.3995  Ry
     charge density cutoff     =     293.9946  Ry
     scf convergence threshold =      7.3E-08
     mixing beta               =       0.0500
     number of iterations used =            8  plain     mixing
     Exchange-correlation= BEEF-VDW
                           (   1   4  43  14   2   0   0)

     celldm(1)=   1.889726  celldm(2)=   0.000000  celldm(3)=   0.000000
     celldm(4)=   0.000000  celldm(5)=   0.000000  celldm(6)=   0.000000

     crystal axes: (cart. coord. in units of alat)
               a(1) = (   6.579727   0.000000   0.000000 )
               a(2) = (  -0.000775   5.961596   0.000000 )
               a(3) = (   0.000000   0.000000  25.155947 )

     reciprocal axes: (cart. coord. in units 2 pi/alat)
               b(1) = (  0.151982  0.000020  0.000000 )
               b(2) = (  0.000000  0.167740  0.000000 )
               b(3) = (  0.000000  0.000000  0.039752 )

     PseudoPot. # 1 for Ti read from file:
     /storage/coda1/p-amedford6/0/shared/rich_project_chbe-medford/medford-share/data/pseudos_module/espresso/nninc/pbe/van/Ti.UPF
     MD5 check sum: 8e4df49b7f0d34bbd5052bf3f5ea0213
     Pseudo is Ultrasoft, Zval = 12.0
     Generated by new atomic code, or converted to UPF format
     Using radial grid of  851 points,  6 beta functions with:
                l(1) =   0
                l(2) =   0
                l(3) =   1
                l(4) =   1
                l(5) =   2
                l(6) =   2
     Q(r) pseudized with  8 coefficients,  rinner =    1.000   1.000   1.000
                                                       1.000   1.000

     PseudoPot. # 2 for O  read from file:
     /storage/coda1/p-amedford6/0/shared/rich_project_chbe-medford/medford-share/data/pseudos_module/espresso/nninc/pbe/van/O.UPF
     MD5 check sum: 78c19812648e8988a0fe644b0f25305e
     Pseudo is Ultrasoft, Zval =  6.0
     Generated by new atomic code, or converted to UPF format
     Using radial grid of  737 points,  4 beta functions with:
                l(1) =   0
                l(2) =   0
                l(3) =   1
                l(4) =   1
     Q(r) pseudized with  8 coefficients,  rinner =    0.800   0.800   0.800

     PseudoPot. # 3 for N  read from file:
     /storage/coda1/p-amedford6/0/shared/rich_project_chbe-medford/medford-share/data/pseudos_module/espresso/nninc/pbe/van/N.UPF
     MD5 check sum: 90d10febe142ad51ac9d5be1deb811c4
     Pseudo is Ultrasoft, Zval =  5.0
     Generated by new atomic code, or converted to UPF format
     Using radial grid of  729 points,  4 beta functions with:
                l(1) =   0
                l(2) =   0
                l(3) =   1
                l(4) =   1
     Q(r) pseudized with  8 coefficients,  rinner =    0.800   0.800   0.800

     PseudoPot. # 4 for C  read from file:
     /storage/coda1/p-amedford6/0/shared/rich_project_chbe-medford/medford-share/data/pseudos_module/espresso/nninc/pbe/van/C.UPF
     MD5 check sum: 1a69bf6b8db32088f5b2163dbdb77a27
     Pseudo is Ultrasoft, Zval =  4.0
     Generated by new atomic code, or converted to UPF format
     Using radial grid of  721 points,  4 beta functions with:
                l(1) =   0
                l(2) =   0
                l(3) =   1
                l(4) =   1
     Q(r) pseudized with  8 coefficients,  rinner =    0.800   0.800   0.800

     PseudoPot. # 5 for H  read from file:
     /storage/coda1/p-amedford6/0/shared/rich_project_chbe-medford/medford-share/data/pseudos_module/espresso/nninc/pbe/van/H.UPF
     MD5 check sum: b5ee9d7bfd3a09ee7748110bda690ff7
     Pseudo is Ultrasoft, Zval =  1.0
     Generated by new atomic code, or converted to UPF format
     Using radial grid of  615 points,  1 beta functions with:
                l(1) =   0
     Q(r) pseudized with  8 coefficients,  rinner =    0.800

     atomic species   valence    mass     pseudopotential
        Ti1           12.00    47.86700     Ti( 1.00)
        O1             6.00    15.99900     O ( 1.00)
        N1             5.00    14.00700     N ( 1.00)
        C1             4.00    12.01100     C ( 1.00)
        H1             1.00     1.00800     H ( 1.00)

     No symmetry found

   Cartesian axes

     site n.     atom                  positions (alat units)
         1           Ti1 tau(   1) = (   0.0004258   2.9801865   6.0000000  )
         2           Ti1 tau(   2) = (   3.2906075   1.4906267   6.0002472  )
         3           O1  tau(   3) = (   0.0006271   0.0005054   7.9858123  )
         4           O1  tau(   4) = (   3.2906025   0.0005020   7.3038282  )
         5           O1  tau(   5) = (   4.5942328   1.4918067   9.2879030  )
         6           O1  tau(   6) = (   1.9868534   1.4903216   9.2879459  )
         7           Ti1 tau(   7) = (   3.2907910   2.8959150   9.1758416  )
         8           Ti1 tau(   8) = (   0.0015273   1.4827037   9.2680791  )
         9           O1  tau(   9) = (   3.2769995   5.9424463  11.3879711  )
        10           O1  tau(  10) = (   0.0116148   5.9584955  10.6183126  )
        11           O1  tau(  11) = (   1.2559300   1.4809235  12.6914295  )
        12           O1  tau(  12) = (   5.2914439   1.4888754  12.6824943  )
        13           Ti1 tau(  13) = (   6.5693074   2.9549812  12.5071532  )
        14           Ti1 tau(  14) = (   3.2720578   1.2926143  12.7373905  )
        15           O1  tau(  15) = (   6.5263330   5.9075480  14.6758232  )
        16           O1  tau(  16) = (   3.2750150   0.0724425  14.0538047  )
        17           O1  tau(  17) = (   4.5404297   1.6145126  16.1214498  )
        18           O1  tau(  18) = (   1.9612862   1.5681812  16.1371236  )
        19           Ti1 tau(  19) = (   3.2615978   3.0295928  15.7214328  )
        20           Ti1 tau(  20) = (   6.4910920   1.3289874  15.8500745  )
        21           O1  tau(  21) = (   3.2904802   0.0005063   4.7018136  )
        22           O1  tau(  22) = (   6.5149858   0.1606772  17.2625446  )
        23           O1  tau(  23) = (   1.3043587   1.4918075   6.0039043  )
        24           O1  tau(  24) = (   5.2767064   1.4903225   6.0039473  )
        25           Ti1 tau(  25) = (   0.0000382   5.9609847   6.0000000  )
        26           Ti1 tau(  26) = (   3.2902200   4.4714249   6.0002472  )
        27           O1  tau(  27) = (   0.0002396   2.9813036   7.9858123  )
        28           O1  tau(  28) = (   3.2902150   2.9813002   7.3038282  )
        29           O1  tau(  29) = (   4.5938453   4.4726049   9.2879030  )
        30           O1  tau(  30) = (   1.9864658   4.4711199   9.2879459  )
        31           Ti1 tau(  31) = (   3.2891106   5.8743827   9.1763621  )
        32           Ti1 tau(  32) = (   0.0006254   4.4649316   9.2693709  )
        33           O1  tau(  33) = (   3.2749377   2.9871965  11.3337082  )
        34           O1  tau(  34) = (   0.0092240   2.9805883  10.6323155  )
        35           O1  tau(  35) = (   1.2597673   4.4587344  12.6634223  )
        36           O1  tau(  36) = (   5.2866262   4.4511231  12.6493885  )
        37           Ti1 tau(  37) = (   6.5604603   5.9292220  12.4937940  )
        38           Ti1 tau(  38) = (   3.2724722   4.3622713  12.4512132  )
        39           O1  tau(  39) = (   6.5737517   3.0258615  14.9025115  )
        40           O1  tau(  40) = (   3.2593133   3.0063273  13.9441864  )
        41           O1  tau(  41) = (   4.5441350   4.4310557  16.1689449  )
        42           O1  tau(  42) = (   1.9655774   4.4762250  16.2070539  )
        43           Ti1 tau(  43) = (   3.1776431   0.0563557  16.2565842  )
        44           Ti1 tau(  44) = (   6.5216753   4.5226504  15.9439936  )
        45           O1  tau(  45) = (   3.2900926   2.9813045   4.7018136  )
        46           O1  tau(  46) = (   1.3039711   4.4726057   6.0039043  )
        47           O1  tau(  47) = (   5.2763189   4.4711207   6.0039473  )
        48           N1  tau(  48) = (   0.8157702   2.5297039  18.7633901  )
        49           N1  tau(  49) = (   6.4302604   3.3580032  18.1334362  )
        50           C1  tau(  50) = (   1.9549655   3.0231469  19.2293773  )
        51           H1  tau(  51) = (   2.0901252   4.0892486  19.3254668  )
        52           H1  tau(  52) = (   2.7239663   2.3052050  19.4587972  )
        53           H1  tau(  53) = (   0.7490178   1.5515861  18.4517582  )
        54           H1  tau(  54) = (   6.4535031   4.2829477  18.5696568  )
        55           H1  tau(  55) = (   5.5068980   2.9516776  18.2836589  )
        56           O1  tau(  56) = (   3.3867406   0.0908776  18.1493316  )
        57           H1  tau(  57) = (   4.3453859   0.1513423  18.3540861  )

     number of k points=    10  Fermi-Dirac smearing, width (Ry)=  0.0073
                       cart. coord. in units 2pi/alat
        k(    1) = (   0.0000000   0.0000000   0.0000000), wk =   0.1250000
        k(    2) = (   0.0000000   0.0419351   0.0000000), wk =   0.2500000
        k(    3) = (   0.0000000  -0.0838702   0.0000000), wk =   0.1250000
        k(    4) = (   0.0379955   0.0000049   0.0000000), wk =   0.2500000
        k(    5) = (   0.0379955   0.0419400   0.0000000), wk =   0.2500000
        k(    6) = (   0.0379955  -0.0838652   0.0000000), wk =   0.2500000
        k(    7) = (   0.0379955  -0.0419301   0.0000000), wk =   0.2500000
        k(    8) = (  -0.0759910  -0.0000099   0.0000000), wk =   0.1250000
        k(    9) = (  -0.0759910   0.0419252   0.0000000), wk =   0.2500000
        k(   10) = (  -0.0759910  -0.0838800   0.0000000), wk =   0.1250000

     Initial potential from superposition of free atoms

     starting charge  387.99913, renormalised to  404.00000

     negative rho (up, down):  1.608E-02 0.000E+00

     %%%%%%%%%%%%%%%%%%%%%%%%%%%%%%%%%%%%%%%%%%%%%%%%%%%%%%%%%%%%%%%%%%%%%%%%
     %                                                                      %
     % You are using vdW-DF, which was implemented by the Thonhauser group. %
     % Please cite the following two papers that made this development      %
     % possible and the two reviews that describe the various versions:     %
     %                                                                      %
     %   T. Thonhauser et al., PRL 115, 136402 (2015).                      %
     %   T. Thonhauser et al., PRB 76, 125112 (2007).                       %
     %   K. Berland et al., Rep. Prog. Phys. 78, 066501 (2015).             %
     %   D.C. Langreth et al., J. Phys.: Condens. Matter 21, 084203 (2009). %
     %                                                                      %
     %                                                                      %
     % If you are calculating the stress with vdW-DF, please also cite:     %
     %                                                                      %
     %   R. Sabatini et al., J. Phys.: Condens. Matter 24, 424209 (2012).   %
     %                                                                      %
     %%%%%%%%%%%%%%%%%%%%%%%%%%%%%%%%%%%%%%%%%%%%%%%%%%%%%%%%%%%%%%%%%%%%%%%%

     Adding external electric field

     Computed dipole along edir(3) :
        Dipole              -13.8429 Ry au,        -35.1851 Debye
        Dipole field         -0.0261 Ry au,

        Potential amp.        2.4216 Ry
        Total length         46.3494 bohr

     Starting wfcs are  306 atomic wfcs
  @ DRIVER MODE: Message from server: STATUS
  @ DRIVER MODE: Message from server: POSDATA
  @ DRIVER MODE: Reading and sharing cell
  @ DRIVER MODE: Reading and sharing positions
  @ DRIVER MODE: Received positions

     Self-consistent Calculation

     iteration #  1     ecut=    29.40 Ry     beta= 0.05
     Davidson diagonalization with overlap
     c_bands:  5 eigenvalues not converged
     c_bands:  1 eigenvalues not converged
     c_bands:  1 eigenvalues not converged
     c_bands:  1 eigenvalues not converged
     c_bands:  2 eigenvalues not converged
     c_bands:  5 eigenvalues not converged
     c_bands:  3 eigenvalues not converged
     ethr =  1.00E-05,  avg # of iterations = 30.7

[...]

     total energy              =   -2231.91211636 Ry
     estimated scf accuracy    <    8426.31585125 Ry

     iteration #  2     ecut=    29.40 Ry     beta= 0.05
     Davidson diagonalization with overlap
     ethr =  1.00E-02,  avg # of iterations = 27.2

[...]

     iteration # 98     ecut=    29.40 Ry     beta= 0.05
     Davidson diagonalization with overlap
     c_bands:  1 eigenvalues not converged
     ethr =  1.90E-08,  avg # of iterations = 13.2

[...]

     total energy              =   -2975.14996068 Ry
     estimated scf accuracy    <       0.00000008 Ry

     iteration #115     ecut=    29.40 Ry     beta= 0.05
     Davidson diagonalization with overlap
     ethr =  1.85E-11,  avg # of iterations = 11.7

     negative rho (up, down):  1.524E-02 0.000E+00

     Adding external electric field

     Computed dipole along edir(3) :
        Dipole                1.1814 Ry au,          3.0028 Debye
        Dipole field          0.0022 Ry au,

        Potential amp.       -0.2067 Ry
        Total length         46.3494 bohr

     End of self-consistent calculation

          k = 0.0000 0.0000 0.0000 ( 18029 PWs)   bands (ev):

   -55.4149 -55.3341 -55.3000 -55.2291 -55.1911 -55.1807 -55.1658 -55.1642
   -55.1494 -55.1296 -55.1015 -55.0296 -55.0232 -54.9952 -54.3284 -54.2944
   -31.8220 -31.7724 -31.7419 -31.7150 -31.6679 -31.6674 -31.6330 -31.6239
   -31.6199 -31.6079 -31.5794 -31.5412 -31.5040 -31.4870 -31.4709 -31.4634
   -31.4471 -31.4438 -31.4424 -31.4086 -31.3916 -31.3802 -31.3751 -31.3707
   -31.3662 -31.3599 -31.3565 -31.3352 -31.3291 -31.3259 -31.3256 -31.3019
   -31.2942 -31.2902 -31.2781 -31.2541 -31.2368 -31.2315 -31.2094 -31.1992
   -31.1975 -31.1924 -30.7355 -30.6465 -30.6242 -30.5528 -30.4662 -30.3546
   -19.3734 -16.2255 -16.0452 -15.8818 -15.6681 -15.6210 -15.5316 -15.3695
   -15.2574 -15.1870 -15.0787 -15.0018 -14.9303 -14.8939 -14.8849 -14.8713
   -14.8660 -14.8149 -14.8059 -14.7922 -14.7817 -14.7716 -14.7647 -14.7304
   -14.6963 -14.6477 -14.6096 -14.4929 -14.4544 -14.4179 -14.2957 -14.2743
   -12.8273 -12.7105 -10.1871  -7.8205  -6.5634  -5.3903  -4.1885  -3.8008
    -3.6464  -3.3919  -3.2834  -3.2520  -3.1888  -3.1570  -2.9023  -2.8033
    -2.7843  -2.6478  -2.5291  -2.4826  -2.4218  -2.3515  -2.3200  -2.2970
    -2.2717  -2.2157  -2.1510  -2.1378  -2.1243  -2.0477  -2.0433  -1.9693
    -1.9187  -1.9069  -1.8021  -1.7295  -1.6980  -1.6849  -1.6735  -1.6569
    -1.6321  -1.6250  -1.6010  -1.5392  -1.4732  -1.4640  -1.3991  -1.3729
    -1.1017  -1.0369  -0.9716  -0.9420  -0.8653  -0.8267  -0.8094  -0.7860
    -0.7425  -0.7392  -0.7186  -0.6590  -0.5596  -0.5045  -0.4757  -0.4548
    -0.4021  -0.2889  -0.2692  -0.1570  -0.1293  -0.1223  -0.0825  -0.0348
     0.0076   0.0461   0.1089   0.1782   0.2284   0.2793   0.3118   0.3372
     0.3784   0.4124   0.4735   0.5511   0.5750   0.6195   0.6494   0.6698
     0.6794   0.7359   0.7527   0.8409   0.9212   0.9329   1.0308   1.0616
     1.1110   1.2978   1.3345   1.6338   1.6803   1.6980   1.8865   2.2678
     2.3142   3.7331   3.8577   3.8875   3.8978   3.9365   3.9700   4.0257
     4.2199   4.2317   4.3434   4.4229

[...]

          k = 0.0380-0.0419 0.0000 ( 17876 PWs)   bands (ev):

[...]

          k =-0.0760-0.0000 0.0000 ( 17886 PWs)   bands (ev):

[...]

          k =-0.0760-0.0839 0.0000 ( 17948 PWs)   bands (ev):

   -55.4140 -55.3173 -55.3167 -55.2178 -55.2022 -55.1783 -55.1667 -55.1467
   -55.1462 -55.1431 -55.1084 -55.0253 -55.0183 -55.0064 -54.3118 -54.3109
   -31.6844 -31.6729 -31.6546 -31.6374 -31.6370 -31.6208 -31.6095 -31.6090
   -31.5681 -31.5367 -31.5211 -31.4961 -31.4867 -31.4786 -31.4673 -31.4541
   -31.4526 -31.4466 -31.4439 -31.4370 -31.4366 -31.4275 -31.4110 -31.4039
   -31.3990 -31.3821 -31.3675 -31.3672 -31.3608 -31.3585 -31.3539 -31.3431
   -31.3291 -31.3249 -31.3236 -31.3198 -31.2865 -31.2844 -31.2452 -31.2402
   -31.2135 -31.2049 -30.6372 -30.6365 -30.5488 -30.5476 -30.5099 -30.5091
   -19.3689 -16.1894 -15.7542 -15.4855 -15.3602 -15.3483 -15.2268 -15.2108
   -15.1476 -15.1398 -15.1106 -15.0976 -15.0872 -15.0429 -15.0145 -14.9305
   -14.9149 -14.8740 -14.8706 -14.8248 -14.8226 -14.8208 -14.7992 -14.7776
   -14.7721 -14.7464 -14.7221 -14.6836 -14.6702 -14.5328 -14.4412 -14.3969
   -12.8125 -12.8119 -10.1583  -7.7867  -6.5555  -5.4738  -4.1466  -3.8181
    -3.6056  -2.8413  -2.6982  -2.5968  -2.4870  -2.4546  -2.4062  -2.3569
    -2.3433  -2.3117  -2.2401  -2.2115  -2.1964  -2.1605  -2.1591  -2.1363
    -2.1264  -2.1066  -2.0784  -2.0585  -2.0487  -2.0421  -2.0153  -1.9999
    -1.9854  -1.9602  -1.9323  -1.9113  -1.8980  -1.8902  -1.8398  -1.7344
    -1.6456  -1.5667  -1.5304  -1.5047  -1.4923  -1.4457  -1.4324  -1.4215
    -1.3852  -1.3618  -1.2276  -1.2057  -1.0673  -1.0121  -0.9783  -0.9321
    -0.8785  -0.8701  -0.8529  -0.8130  -0.7725  -0.6413  -0.6097  -0.5752
    -0.5071  -0.4440  -0.3568  -0.3426  -0.3188  -0.3012  -0.2656  -0.2465
    -0.2321  -0.2027  -0.1738  -0.0954  -0.0610  -0.0484  -0.0292   0.0696
     0.1686   0.2074   0.2724   0.3414   0.3829   0.4075   0.4366   0.6226
     0.6517   0.7952   0.8039   0.8083   0.9534   0.9538   1.0016   1.0499
     1.0817   1.1235   1.1523   1.1672   1.2022   2.0568   2.0652   2.1344
     2.1346   3.7697   3.9354   4.1581   4.1810   4.2393   4.2505   4.2815
     4.3070   4.3364   4.3766   4.3975

     the Fermi energy is     3.7829 ev

!    total energy              =   -2975.14996313 Ry
     estimated scf accuracy    <       0.00000002 Ry
     smearing contrib. (-TS)   =      -0.03328357 Ry
     internal energy E=F+TS    =   -2975.11667956 Ry

     The total energy is F=E-TS. E is the sum of the following terms:
     one-electron contribution =  -23379.75276274 Ry
     hartree contribution      =   11787.13548480 Ry
     xc contribution           =    -494.89465802 Ry
     ewald contribution        =    9112.39262256 Ry
     electric field correction =       0.00263384 Ry

     convergence has been achieved in 115 iterations

     Forces acting on atoms (cartesian axes, Ry/au):

     atom    1 type  1   force =     0.00028107   -0.00019930    0.09345251
     atom    2 type  1   force =    -0.00005850    0.00053162   -0.17634475
     atom    3 type  2   force =     0.00004247   -0.00028878   -0.02070778
     atom    4 type  2   force =     0.00001744   -0.00222139    0.05686416
     atom    5 type  2   force =    -0.00785043   -0.00263290    0.00513083
     atom    6 type  2   force =     0.00891738   -0.00211925    0.00325090
     atom    7 type  1   force =    -0.00078018   -0.00334648    0.00576435
     atom    8 type  1   force =     0.00086468    0.00108133   -0.00172642
     atom    9 type  2   force =    -0.00018583    0.00013349    0.00003499
     atom   10 type  2   force =    -0.00341698    0.00105965   -0.00643844
     atom   11 type  2   force =     0.00018002   -0.00013063    0.00032160
     atom   12 type  2   force =    -0.00011910   -0.00022836    0.00004856
     atom   13 type  1   force =     0.00001300   -0.00007501   -0.00022744
     atom   14 type  1   force =     0.00052027   -0.00044586   -0.00020156
     atom   15 type  2   force =    -0.00003585   -0.00098276   -0.00044752
     atom   16 type  2   force =     0.00019096    0.00065597    0.00059350
     atom   17 type  2   force =    -0.00132307    0.00018216   -0.00012497
     atom   18 type  2   force =     0.00122728    0.00016368   -0.00097611
     atom   19 type  1   force =    -0.00020784    0.00059573   -0.00005512
     atom   20 type  1   force =     0.00072134    0.00031212   -0.00062963
     atom   21 type  2   force =     0.00011572    0.00005345    0.10358392
     atom   22 type  2   force =    -0.00013025    0.00005911    0.00082631
     atom   23 type  2   force =    -0.07136264   -0.00017184   -0.02700319
     atom   24 type  2   force =     0.07135756    0.00027307   -0.02703546
     atom   25 type  1   force =     0.00007924   -0.00017553    0.09322915
     atom   26 type  1   force =     0.00008820   -0.00126328   -0.17654055
     atom   27 type  2   force =     0.00007807   -0.00015589   -0.01947358
     atom   28 type  2   force =     0.00001831   -0.00060030    0.05222962
     atom   29 type  2   force =    -0.00742523    0.00176914    0.00489036
     atom   30 type  2   force =     0.00835443    0.00235199    0.00299385
     atom   31 type  1   force =    -0.00098111    0.00885526   -0.00435339
     atom   32 type  1   force =     0.00095012   -0.00221722   -0.00238853
     atom   33 type  2   force =    -0.00022204   -0.00134060   -0.00065795
     atom   34 type  2   force =    -0.00214347   -0.00210829   -0.00764462
     atom   35 type  2   force =    -0.00001620    0.00016390    0.00027413
     atom   36 type  2   force =     0.00017181    0.00015858    0.00021522
     atom   37 type  1   force =     0.00004376   -0.00030413    0.00012729
     atom   38 type  1   force =     0.00035255    0.00052215    0.00019072
     atom   39 type  2   force =    -0.00004796    0.00073140   -0.00017742
     atom   40 type  2   force =     0.00023081   -0.00015967    0.00044542
     atom   41 type  2   force =    -0.00050997    0.00006142    0.00047838
     atom   42 type  2   force =     0.00073011   -0.00042339   -0.00019110
     atom   43 type  1   force =    -0.00018422   -0.00067467   -0.00072293
     atom   44 type  1   force =     0.00027097    0.00086204    0.00019855
     atom   45 type  2   force =     0.00010344   -0.00009018    0.10334313
     atom   46 type  2   force =    -0.07139715   -0.00002871   -0.02704046
     atom   47 type  2   force =     0.07137467    0.00038139   -0.02707217
     atom   48 type  3   force =    -0.00082990   -0.00008457   -0.00009006
     atom   49 type  3   force =     0.00043680    0.00057943    0.00041358
     atom   50 type  4   force =     0.00046787    0.00039796    0.00007334
     atom   51 type  5   force =     0.00051194   -0.00092488   -0.00049454
     atom   52 type  5   force =    -0.00012316    0.00010798   -0.00010636
     atom   53 type  5   force =    -0.00009763    0.00047323    0.00001535
     atom   54 type  5   force =    -0.00014668    0.00023504   -0.00036383
     atom   55 type  5   force =     0.00002338    0.00039226    0.00051386
     atom   56 type  2   force =     0.01875181    0.00198990    0.00401793
     atom   57 type  5   force =    -0.01789210   -0.00174054   -0.00428565

     Total force =     0.364070     Total SCF correction =     0.000360
  @ DRIVER MODE: Message from server: STATUS
  @ DRIVER MODE: Message from server: GETFORCE
  @ DRIVER MODE: Returning v,forces,stress,ensemble

     Writing output data file ./calc.save/
  @ DRIVER MODE: Message from server: EXIT
  @ DRIVE MODE: Exiting

     General routines

     Parallel routines

   This run was terminated on:   9:25:19  24Sep2021

   JOB DONE.