     Program PWSCF v.6.7GPU starts on 23Sep2021 at 12:47:21

     R & G space division:  proc/nbgrp/npool/nimage =       8
     Reading input from /storage/home/hcoda1/3/ntian30/research/carbon/CxH_vib/H2O_calc/ads_slab/CH2NNHHHHO_a/out_0005/pw.inp
Warning: card &CELL ignored
Warning: card   CELL_DYNAMICS='IPI', ignored
Warning: card / ignored

     Current dimensions of program PWSCF are:
     Max number of different atomic species (ntypx) = 10
     Max number of k-points (npk) =  40000
     Max angular momentum in pseudopotentials (lmaxx) =  3
     Presently no symmetry can be used with electric field

     Message from routine cell_base_init:
     DEPRECATED: use true lattice parameter, not A to a.u. conversion factor

     IMPORTANT: XC functional enforced from input :
     Exchange-correlation= BEEF-VDW
                           (   1   4  43  14   2   0   0)
     Any further DFT definition will be discarded
     Please, verify this is what you really want

  @ DRIVER MODE: Connecting to
 qe_1139763_2947316.sched-torque.pace.gatech.edum8z99dt2_scratch
  using UNIX socket
  @ DRIVER MODE: Message from server: STATUS
  @ DRIVER MODE: Message from server: INIT
  @ DRIVER MODE: Receiving replica           0          -1
  @ DRIVER MODE: Receiving encoded integer          25
  @ DRIVER MODE:  SCF:  T  FORCE:  T  STRESS:  F  VC:  F  ENSEMBLE:  F
  @ DRIVER MODE:  SCF:  T  FORCE:  T  STRESS:  F  VC:  F  ENSEMBLE:  F

     Using Slab Decomposition

     bravais-lattice index     =            0
     lattice parameter (alat)  =       1.8897  a.u.
     unit-cell volume          =    6658.9804 (a.u.)^3
     number of atoms/cell      =           57
     number of atomic types    =            5
     number of electrons       =       404.00
     number of Kohn-Sham states=          212
     kinetic-energy cutoff     =      29.3995  Ry
     charge density cutoff     =     293.9946  Ry
     scf convergence threshold =      7.3E-08
     mixing beta               =       0.0500
     number of iterations used =            8  plain     mixing
     Exchange-correlation= BEEF-VDW
                           (   1   4  43  14   2   0   0)

     celldm(1)=   1.889726  celldm(2)=   0.000000  celldm(3)=   0.000000
     celldm(4)=   0.000000  celldm(5)=   0.000000  celldm(6)=   0.000000

     crystal axes: (cart. coord. in units of alat)
               a(1) = (   6.579727   0.000000   0.000000 )
               a(2) = (  -0.000775   5.961596   0.000000 )
               a(3) = (   0.000000   0.000000  25.155947 )

     reciprocal axes: (cart. coord. in units 2 pi/alat)
               b(1) = (  0.151982  0.000020  0.000000 )
               b(2) = (  0.000000  0.167740  0.000000 )
               b(3) = (  0.000000  0.000000  0.039752 )

     PseudoPot. # 1 for Ti read from file:
     /storage/coda1/p-amedford6/0/shared/rich_project_chbe-medford/medford-share/data/pseudos_module/espresso/nninc/pbe/van/Ti.UPF
     MD5 check sum: 8e4df49b7f0d34bbd5052bf3f5ea0213
     Pseudo is Ultrasoft, Zval = 12.0
     Generated by new atomic code, or converted to UPF format
     Using radial grid of  851 points,  6 beta functions with:
                l(1) =   0
                l(2) =   0
                l(3) =   1
                l(4) =   1
                l(5) =   2
                l(6) =   2
     Q(r) pseudized with  8 coefficients,  rinner =    1.000   1.000   1.000
                                                       1.000   1.000

     PseudoPot. # 2 for O  read from file:
     /storage/coda1/p-amedford6/0/shared/rich_project_chbe-medford/medford-share/data/pseudos_module/espresso/nninc/pbe/van/O.UPF
     MD5 check sum: 78c19812648e8988a0fe644b0f25305e
     Pseudo is Ultrasoft, Zval =  6.0
     Generated by new atomic code, or converted to UPF format
     Using radial grid of  737 points,  4 beta functions with:
                l(1) =   0
                l(2) =   0
                l(3) =   1
                l(4) =   1
     Q(r) pseudized with  8 coefficients,  rinner =    0.800   0.800   0.800

     PseudoPot. # 3 for N  read from file:
     /storage/coda1/p-amedford6/0/shared/rich_project_chbe-medford/medford-share/data/pseudos_module/espresso/nninc/pbe/van/N.UPF
     MD5 check sum: 90d10febe142ad51ac9d5be1deb811c4
     Pseudo is Ultrasoft, Zval =  5.0
     Generated by new atomic code, or converted to UPF format
     Using radial grid of  729 points,  4 beta functions with:
                l(1) =   0
                l(2) =   0
                l(3) =   1
                l(4) =   1
     Q(r) pseudized with  8 coefficients,  rinner =    0.800   0.800   0.800

     PseudoPot. # 4 for C  read from file:
     /storage/coda1/p-amedford6/0/shared/rich_project_chbe-medford/medford-share/data/pseudos_module/espresso/nninc/pbe/van/C.UPF
     MD5 check sum: 1a69bf6b8db32088f5b2163dbdb77a27
     Pseudo is Ultrasoft, Zval =  4.0
     Generated by new atomic code, or converted to UPF format
     Using radial grid of  721 points,  4 beta functions with:
                l(1) =   0
                l(2) =   0
                l(3) =   1
                l(4) =   1
     Q(r) pseudized with  8 coefficients,  rinner =    0.800   0.800   0.800

     PseudoPot. # 5 for H  read from file:
     /storage/coda1/p-amedford6/0/shared/rich_project_chbe-medford/medford-share/data/pseudos_module/espresso/nninc/pbe/van/H.UPF
     MD5 check sum: b5ee9d7bfd3a09ee7748110bda690ff7
     Pseudo is Ultrasoft, Zval =  1.0
     Generated by new atomic code, or converted to UPF format
     Using radial grid of  615 points,  1 beta functions with:
                l(1) =   0
     Q(r) pseudized with  8 coefficients,  rinner =    0.800

     atomic species   valence    mass     pseudopotential
        Ti1           12.00    47.86700     Ti( 1.00)
        O1             6.00    15.99900     O ( 1.00)
        N1             5.00    14.00700     N ( 1.00)
        C1             4.00    12.01100     C ( 1.00)
        H1             1.00     1.00800     H ( 1.00)

     No symmetry found

   Cartesian axes

     site n.     atom                  positions (alat units)
         1           Ti1 tau(   1) = (   0.0004258   2.9801865   6.0000000  )
         2           Ti1 tau(   2) = (   3.2906075   1.4906267   6.0002472  )
         3           O1  tau(   3) = (   0.0006271   0.0005054   7.9858123  )
         4           O1  tau(   4) = (   3.2906025   0.0005020   7.3038282  )
         5           O1  tau(   5) = (   4.5942328   1.4918067   9.2879030  )
         6           O1  tau(   6) = (   1.9868534   1.4903216   9.2879459  )
         7           Ti1 tau(   7) = (   3.2907910   2.8959150   9.1758416  )
         8           Ti1 tau(   8) = (   0.0015273   1.4827037   9.2680791  )
         9           O1  tau(   9) = (   3.3027076   5.9092304  11.3732431  )
        10           O1  tau(  10) = (   0.0116148   5.9584955  10.6183126  )
        11           O1  tau(  11) = (   1.2953868   1.4751764  12.6403503  )
        12           O1  tau(  12) = (   5.3168701   1.4807623  12.6366210  )
        13           Ti1 tau(  13) = (   0.0172323   2.9996225  12.5311828  )
        14           Ti1 tau(  14) = (   3.3257086   1.2755711  12.7138078  )
        15           O1  tau(  15) = (   6.5733368   0.1082846  14.6600873  )
        16           O1  tau(  16) = (   3.3238075   0.0838359  14.0473399  )
        17           O1  tau(  17) = (   4.5575128   1.5393005  16.2317518  )
        18           O1  tau(  18) = (   2.0302387   1.4963625  16.2670071  )
        19           Ti1 tau(  19) = (   3.2366114   2.9448900  15.6849520  )
        20           Ti1 tau(  20) = (   6.5300729   1.3987400  16.1165465  )
        21           O1  tau(  21) = (   3.2904802   0.0005063   4.7018136  )
        22           O1  tau(  22) = (   0.0022030   5.7760056  17.1861099  )
        23           O1  tau(  23) = (   1.3043587   1.4918075   6.0039043  )
        24           O1  tau(  24) = (   5.2767064   1.4903225   6.0039473  )
        25           Ti1 tau(  25) = (   0.0000382   5.9609847   6.0000000  )
        26           Ti1 tau(  26) = (   3.2902200   4.4714249   6.0002472  )
        27           O1  tau(  27) = (   0.0002396   2.9813036   7.9858123  )
        28           O1  tau(  28) = (   3.2902150   2.9813002   7.3038282  )
        29           O1  tau(  29) = (   4.5938453   4.4726049   9.2879030  )
        30           O1  tau(  30) = (   1.9864658   4.4711199   9.2879459  )
        31           Ti1 tau(  31) = (   3.2891106   5.8743827   9.1763621  )
        32           Ti1 tau(  32) = (   0.0006254   4.4649316   9.2693709  )
        33           O1  tau(  33) = (   3.3012885   2.9833904  11.3212188  )
        34           O1  tau(  34) = (   0.0092240   2.9805883  10.6323155  )
        35           O1  tau(  35) = (   1.2895456   4.4501540  12.7025460  )
        36           O1  tau(  36) = (   5.3143371   4.4382646  12.6927937  )
        37           Ti1 tau(  37) = (   0.0343555   0.0433052  12.5107970  )
        38           Ti1 tau(  38) = (   3.3217552   4.3482123  12.4486840  )
        39           O1  tau(  39) = (   0.0141661   2.9064423  14.8877341  )
        40           O1  tau(  40) = (   3.2920978   2.9424077  13.9176102  )
        41           O1  tau(  41) = (   4.5506947   4.3398720  16.1100615  )
        42           O1  tau(  42) = (   2.0210198   4.4131678  16.0160425  )
        43           Ti1 tau(  43) = (   3.3132698   5.9358869  16.2610495  )
        44           Ti1 tau(  44) = (   0.0826266   4.5979890  15.7080129  )
        45           O1  tau(  45) = (   3.2900926   2.9813045   4.7018136  )
        46           O1  tau(  46) = (   1.3039711   4.4726057   6.0039043  )
        47           O1  tau(  47) = (   5.2763189   4.4711207   6.0039473  )
        48           N1  tau(  48) = (   6.5643472   2.7424576  18.0525816  )
        49           C1  tau(  49) = (   0.8744728   2.5686873  19.0232366  )
        50           H1  tau(  50) = (   0.8543601   3.1364980  19.9465443  )
        51           H1  tau(  51) = (   1.6733950   1.8773151  18.8242213  )
        52           N1  tau(  52) = (   5.5366205   3.6779994  18.4753393  )
        53           H1  tau(  53) = (   5.9486539   4.6347284  18.5635686  )
        54           H1  tau(  54) = (   4.8775701   3.8234783  17.6645784  )
        55           H1  tau(  55) = (   5.0440791   3.3775604  19.3232938  )
        56           O1  tau(  56) = (   3.4091604   5.6710612  18.1544331  )
        57           H1  tau(  57) = (   3.1368125   0.4262250  18.7404830  )

     number of k points=    10  Fermi-Dirac smearing, width (Ry)=  0.0073
                       cart. coord. in units 2pi/alat
        k(    1) = (   0.0000000   0.0000000   0.0000000), wk =   0.1250000
        k(    2) = (   0.0000000   0.0419351   0.0000000), wk =   0.2500000
        k(    3) = (   0.0000000  -0.0838702   0.0000000), wk =   0.1250000
        k(    4) = (   0.0379955   0.0000049   0.0000000), wk =   0.2500000
        k(    5) = (   0.0379955   0.0419400   0.0000000), wk =   0.2500000
        k(    6) = (   0.0379955  -0.0838652   0.0000000), wk =   0.2500000
        k(    7) = (   0.0379955  -0.0419301   0.0000000), wk =   0.2500000
        k(    8) = (  -0.0759910  -0.0000099   0.0000000), wk =   0.1250000
        k(    9) = (  -0.0759910   0.0419252   0.0000000), wk =   0.2500000
        k(   10) = (  -0.0759910  -0.0838800   0.0000000), wk =   0.1250000

     Initial potential from superposition of free atoms

     starting charge  387.99913, renormalised to  404.00000

     negative rho (up, down):  1.546E-02 0.000E+00

     %%%%%%%%%%%%%%%%%%%%%%%%%%%%%%%%%%%%%%%%%%%%%%%%%%%%%%%%%%%%%%%%%%%%%%%%
     %                                                                      %
     % You are using vdW-DF, which was implemented by the Thonhauser group. %
     % Please cite the following two papers that made this development      %
     % possible and the two reviews that describe the various versions:     %
     %                                                                      %
     %   T. Thonhauser et al., PRL 115, 136402 (2015).                      %
     %   T. Thonhauser et al., PRB 76, 125112 (2007).                       %
     %   K. Berland et al., Rep. Prog. Phys. 78, 066501 (2015).             %
     %   D.C. Langreth et al., J. Phys.: Condens. Matter 21, 084203 (2009). %
     %                                                                      %
     %                                                                      %
     % If you are calculating the stress with vdW-DF, please also cite:     %
     %                                                                      %
     %   R. Sabatini et al., J. Phys.: Condens. Matter 24, 424209 (2012).   %
     %                                                                      %
     %%%%%%%%%%%%%%%%%%%%%%%%%%%%%%%%%%%%%%%%%%%%%%%%%%%%%%%%%%%%%%%%%%%%%%%%

     Adding external electric field

     Computed dipole along edir(3) :
        Dipole              -13.5823 Ry au,        -34.5227 Debye
        Dipole field         -0.0256 Ry au,

        Potential amp.        2.3760 Ry
        Total length         46.3494 bohr

     Starting wfcs are  306 atomic wfcs
  @ DRIVER MODE: Message from server: STATUS
  @ DRIVER MODE: Message from server: POSDATA
  @ DRIVER MODE: Reading and sharing cell
  @ DRIVER MODE: Reading and sharing positions
  @ DRIVER MODE: Received positions

     Self-consistent Calculation

     iteration #  1     ecut=    29.40 Ry     beta= 0.05
     Davidson diagonalization with overlap
     c_bands:  4 eigenvalues not converged
     c_bands:  1 eigenvalues not converged
     c_bands:  1 eigenvalues not converged
     c_bands:  1 eigenvalues not converged
     c_bands:  2 eigenvalues not converged
     c_bands:  4 eigenvalues not converged
     c_bands:  5 eigenvalues not converged
     c_bands:  2 eigenvalues not converged
     ethr =  1.00E-05,  avg # of iterations = 29.7

[...]

     total energy              =   -2247.90834495 Ry
     estimated scf accuracy    <    8242.04317571 Ry

     iteration #  2     ecut=    29.40 Ry     beta= 0.05
     Davidson diagonalization with overlap
     ethr =  1.00E-02,  avg # of iterations = 26.1

[...]

     iteration # 66     ecut=    29.40 Ry     beta= 0.05
     Davidson diagonalization with overlap
     c_bands:  4 eigenvalues not converged
     c_bands:  1 eigenvalues not converged
     c_bands:  1 eigenvalues not converged
     ethr =  2.86E-06,  avg # of iterations = 18.3

[...]

     total energy              =   -2975.12433454 Ry
     estimated scf accuracy    <       0.00000009 Ry

     iteration # 99     ecut=    29.40 Ry     beta= 0.05
     Davidson diagonalization with overlap
     ethr =  2.26E-11,  avg # of iterations =  3.6

     negative rho (up, down):  1.385E-02 0.000E+00

     Adding external electric field

     Computed dipole along edir(3) :
        Dipole                1.3669 Ry au,          3.4744 Debye
        Dipole field          0.0026 Ry au,

        Potential amp.       -0.2391 Ry
        Total length         46.3494 bohr

     End of self-consistent calculation

          k = 0.0000 0.0000 0.0000 ( 18029 PWs)   bands (ev):

   -55.3931 -55.2534 -55.2194 -55.1275 -55.0922 -55.0852 -55.0830 -55.0490
   -55.0425 -54.9943 -54.9621 -54.9292 -54.8766 -54.7447 -54.2339 -54.1999
   -31.7389 -31.7221 -31.6195 -31.6123 -31.5907 -31.5849 -31.5444 -31.5339
   -31.5262 -31.4994 -31.4524 -31.4498 -31.4060 -31.3777 -31.3761 -31.3667
   -31.3607 -31.3189 -31.3108 -31.3074 -31.2900 -31.2814 -31.2767 -31.2716
   -31.2692 -31.2300 -31.2265 -31.2263 -31.2190 -31.2103 -31.2003 -31.1958
   -31.1884 -31.1504 -31.1486 -31.1164 -31.1087 -31.0895 -31.0866 -31.0827
   -31.0063 -30.9116 -30.6403 -30.5530 -30.5306 -30.4577 -30.3712 -30.2596
   -19.1301 -16.3107 -15.9302 -15.7735 -15.5916 -15.4548 -15.4139 -15.1910
   -15.1340 -15.0492 -15.0166 -14.9063 -14.7945 -14.7941 -14.7725 -14.7663
   -14.7463 -14.7061 -14.6996 -14.6828 -14.6793 -14.6571 -14.6361 -14.6263
   -14.5890 -14.5473 -14.3971 -14.3605 -14.3187 -14.3115 -14.1754 -13.9988
   -12.7327 -12.6162  -9.1652  -7.6551  -6.8632  -6.0885  -4.2802  -3.5739
    -3.2797  -3.1819  -3.1601  -3.1465  -3.0162  -2.8451  -2.6501  -2.5871
    -2.5263  -2.4111  -2.3822  -2.2863  -2.2624  -2.2241  -2.1666  -2.1431
    -2.1172  -2.0605  -2.0497  -2.0415  -1.9514  -1.9320  -1.8279  -1.8085
    -1.7776  -1.7153  -1.6794  -1.6233  -1.5914  -1.5700  -1.5669  -1.5597
    -1.5349  -1.5226  -1.5002  -1.4421  -1.4072  -1.3534  -1.2813  -1.2114
    -1.1304  -0.9134  -0.8704  -0.8461  -0.7966  -0.7561  -0.6954  -0.6656
    -0.6513  -0.6364  -0.5649  -0.4564  -0.4091  -0.3657  -0.3137  -0.2895
    -0.2540  -0.1519  -0.0743  -0.0565  -0.0123   0.0267   0.0543   0.1218
     0.1549   0.1960   0.2669   0.2794   0.3551   0.3985   0.4175   0.4672
     0.5049   0.5698   0.6133   0.6610   0.6694   0.7007   0.7154   0.7474
     0.8336   0.8530   0.8925   0.9285   0.9877   1.0424   1.0666   1.2436
     1.3688   1.3988   1.4706   1.7347   1.7924   1.8093   1.9831   2.3606
     2.4063   3.8328   3.9733   3.9858   3.9918   4.0607   4.1128   4.1355
     4.3190   4.3601   4.4776   4.5192

[...]

          k = 0.0380-0.0419 0.0000 ( 17876 PWs)   bands (ev):

[...]

          k =-0.0760-0.0000 0.0000 ( 17886 PWs)   bands (ev):

[...]

          k =-0.0760-0.0839 0.0000 ( 17948 PWs)   bands (ev):

   -55.3924 -55.2365 -55.2361 -55.1130 -55.1065 -55.0857 -55.0662 -55.0654
   -55.0358 -55.0012 -54.9608 -54.9234 -54.8823 -54.7459 -54.2172 -54.2165
   -31.6618 -31.6029 -31.5936 -31.5543 -31.5540 -31.5301 -31.5296 -31.5070
   -31.4469 -31.4216 -31.4003 -31.3891 -31.3839 -31.3791 -31.3746 -31.3565
   -31.3557 -31.3518 -31.3480 -31.3372 -31.3343 -31.3157 -31.3083 -31.2862
   -31.2752 -31.2678 -31.2613 -31.2519 -31.2430 -31.2411 -31.2372 -31.2266
   -31.2226 -31.2162 -31.1899 -31.1487 -31.1261 -31.1130 -31.0966 -31.0891
   -31.0080 -30.9839 -30.5436 -30.5431 -30.4537 -30.4525 -30.4147 -30.4142
   -19.1262 -16.2975 -15.4604 -15.4114 -15.2283 -15.2234 -15.1926 -15.1366
   -15.0946 -15.0444 -15.0295 -14.9931 -14.9546 -14.9399 -14.9116 -14.8437
   -14.7999 -14.7737 -14.7622 -14.7257 -14.7106 -14.7095 -14.6781 -14.6557
   -14.6450 -14.5797 -14.5673 -14.4599 -14.4428 -14.4130 -14.2877 -14.2112
   -12.7182 -12.7178  -9.1531  -7.6666  -6.8484  -6.0973  -4.3089  -3.5640
    -2.6518  -2.6484  -2.4512  -2.4166  -2.3546  -2.2786  -2.2471  -2.2271
    -2.1796  -2.1717  -2.1332  -2.1107  -2.0744  -2.0446  -2.0383  -2.0208
    -2.0052  -1.9815  -1.9609  -1.9436  -1.9381  -1.9075  -1.8868  -1.8764
    -1.8343  -1.8259  -1.8024  -1.7824  -1.7450  -1.6841  -1.6237  -1.5040
    -1.4648  -1.4362  -1.4173  -1.3978  -1.3568  -1.3397  -1.3240  -1.3007
    -1.2773  -1.2666  -1.1520  -1.0074  -0.9907  -0.9046  -0.8684  -0.8623
    -0.7582  -0.7272  -0.6929  -0.6631  -0.6120  -0.5681  -0.4730  -0.4597
    -0.4179  -0.3502  -0.2544  -0.2446  -0.2296  -0.2017  -0.1778  -0.1715
    -0.1123  -0.0744  -0.0379   0.0139   0.0325   0.0546   0.0894   0.1857
     0.2121   0.3298   0.4491   0.4886   0.5144   0.5423   0.6792   0.7350
     0.7759   0.8498   0.9113   0.9323   1.0353   1.0527   1.0854   1.1441
     1.2132   1.2600   1.2758   1.3049   1.3169   2.1534   2.1615   2.2264
     2.2268   3.7882   3.9993   4.2492   4.3216   4.3420   4.3714   4.3938
     4.4258   4.4522   4.4953   4.5101

     the Fermi energy is     3.8685 ev

!    total energy              =   -2975.12433873 Ry
     estimated scf accuracy    <       0.00000006 Ry
     smearing contrib. (-TS)   =      -0.03092112 Ry
     internal energy E=F+TS    =   -2975.09341761 Ry

     The total energy is F=E-TS. E is the sum of the following terms:
     one-electron contribution =  -23512.50892353 Ry
     hartree contribution      =   11854.51168145 Ry
     xc contribution           =    -494.84784003 Ry
     ewald contribution        =    9177.74813840 Ry
     electric field correction =       0.00352610 Ry

     convergence has been achieved in  99 iterations

     Forces acting on atoms (cartesian axes, Ry/au):

     atom    1 type  1   force =     0.00013828   -0.00020559    0.09451154
     atom    2 type  1   force =    -0.00007394    0.00040333   -0.17566280
     atom    3 type  2   force =     0.00003196   -0.00002711   -0.02144507
     atom    4 type  2   force =     0.00000273   -0.00223122    0.05509059
     atom    5 type  2   force =    -0.00783049   -0.00313881    0.00367771
     atom    6 type  2   force =     0.00955073   -0.00256715    0.00356978
     atom    7 type  1   force =     0.00003423   -0.00299574    0.00581372
     atom    8 type  1   force =    -0.00023066    0.00257963    0.00567103
     atom    9 type  2   force =    -0.00035221   -0.00028480   -0.00002258
     atom   10 type  2   force =    -0.00116243   -0.00257033   -0.00863556
     atom   11 type  2   force =    -0.00073243   -0.00071082   -0.00018052
     atom   12 type  2   force =     0.00033026   -0.00071430   -0.00009893
     atom   13 type  1   force =     0.00009770    0.00007578    0.00064911
     atom   14 type  1   force =    -0.00015974   -0.00036443    0.00028179
     atom   15 type  2   force =     0.00012364   -0.00063754   -0.00016504
     atom   16 type  2   force =     0.00005546   -0.00069459   -0.00040058
     atom   17 type  2   force =    -0.00019253    0.00016978   -0.00056386
     atom   18 type  2   force =    -0.00021824    0.00016650   -0.00066171
     atom   19 type  1   force =     0.00029726    0.00043369    0.00023365
     atom   20 type  1   force =     0.00011527   -0.00005875    0.00029077
     atom   21 type  2   force =     0.00005412    0.00002577    0.10330054
     atom   22 type  2   force =     0.00001233    0.00095705   -0.00127192
     atom   23 type  2   force =    -0.07177030   -0.00019750   -0.02724817
     atom   24 type  2   force =     0.07160510    0.00024488   -0.02731094
     atom   25 type  1   force =     0.00006237   -0.00034566    0.09389284
     atom   26 type  1   force =    -0.00017090   -0.00123336   -0.17593674
     atom   27 type  2   force =     0.00013543   -0.00024445   -0.02017006
     atom   28 type  2   force =     0.00003568   -0.00055885    0.05061073
     atom   29 type  2   force =    -0.00678067    0.00148267    0.00204097
     atom   30 type  2   force =     0.00847447    0.00183758    0.00195569
     atom   31 type  1   force =     0.00015389    0.00699513   -0.00365420
     atom   32 type  1   force =    -0.00027391   -0.00258254    0.00514917
     atom   33 type  2   force =    -0.00000621    0.00031392   -0.00016255
     atom   34 type  2   force =    -0.00012217    0.00278642   -0.00837879
     atom   35 type  2   force =     0.00025105    0.00067029   -0.00034382
     atom   36 type  2   force =    -0.00100960    0.00054095   -0.00049237
     atom   37 type  1   force =     0.00014663   -0.00041446    0.00032618
     atom   38 type  1   force =    -0.00014528   -0.00010978   -0.00001631
     atom   39 type  2   force =    -0.00009775   -0.00004030   -0.00034767
     atom   40 type  2   force =    -0.00046992    0.00012809   -0.00013943
     atom   41 type  2   force =    -0.00029168    0.00043283   -0.00065835
     atom   42 type  2   force =     0.00067725    0.00036649    0.00005946
     atom   43 type  1   force =     0.00033374    0.00050703    0.00071614
     atom   44 type  1   force =    -0.00008487   -0.00064669    0.00064437
     atom   45 type  2   force =     0.00001818   -0.00011034    0.10304748
     atom   46 type  2   force =    -0.07183714   -0.00004241   -0.02730539
     atom   47 type  2   force =     0.07167173    0.00035339   -0.02734443
     atom   48 type  3   force =     0.00606533    0.00179698    0.01325086
     atom   49 type  4   force =    -0.00464432   -0.00066176   -0.00960541
     atom   50 type  5   force =    -0.00060136   -0.00018141   -0.00154626
     atom   51 type  5   force =    -0.00108616    0.00035445   -0.00003753
     atom   52 type  3   force =    -0.00030377   -0.00045114   -0.00474807
     atom   53 type  5   force =    -0.00055806   -0.00007194   -0.00052114
     atom   54 type  5   force =     0.00000041    0.00075306    0.00186366
     atom   55 type  5   force =     0.00106629   -0.00058335   -0.00028191
     atom   56 type  2   force =     0.00038352    0.00154819   -0.00025583
     atom   57 type  5   force =    -0.00071833   -0.00024679   -0.00103382

     Total force =     0.363211     Total SCF correction =     0.000531
  @ DRIVER MODE: Message from server: STATUS
  @ DRIVER MODE: Message from server: GETFORCE
  @ DRIVER MODE: Returning v,forces,stress,ensemble

     Writing output data file ./calc.save/
  @ DRIVER MODE: Message from server: EXIT
  @ DRIVE MODE: Exiting

     General routines

     Parallel routines

   This run was terminated on:  13:20: 3  23Sep2021

   JOB DONE.