     Program PWSCF v.6.7GPU starts on  9Sep2021 at  6:59:42

     R & G space division:  proc/nbgrp/npool/nimage =      10
     Reading input from /storage/home/hcoda1/3/ntian30/research/carbon/CxH_vib/C_calc/ads_slab/CN2_a/out_0017/pw.inp
Warning: card &CELL ignored
Warning: card   CELL_DYNAMICS='IPI', ignored
Warning: card / ignored

     Current dimensions of program PWSCF are:
     Max number of different atomic species (ntypx) = 10
     Max number of k-points (npk) =  40000
     Max angular momentum in pseudopotentials (lmaxx) =  3
     Presently no symmetry can be used with electric field

     Message from routine cell_base_init:
     DEPRECATED: use true lattice parameter, not A to a.u. conversion factor

     IMPORTANT: XC functional enforced from input :
     Exchange-correlation= BEEF-VDW
                           (   1   4  43  14   2   0   0)
     Any further DFT definition will be discarded
     Please, verify this is what you really want

  @ DRIVER MODE: Connecting to
 qe_1139763_2767375.sched-torque.pace.gatech.edul33gd33h_scratch
  using UNIX socket
  @ DRIVER MODE: Message from server: STATUS
  @ DRIVER MODE: Message from server: INIT
  @ DRIVER MODE: Receiving replica           0          -1
  @ DRIVER MODE: Receiving encoded integer          25
  @ DRIVER MODE:  SCF:  T  FORCE:  T  STRESS:  F  VC:  F  ENSEMBLE:  F
  @ DRIVER MODE:  SCF:  T  FORCE:  T  STRESS:  F  VC:  F  ENSEMBLE:  F

     Using Slab Decomposition

     bravais-lattice index     =            0
     lattice parameter (alat)  =       1.8897  a.u.
     unit-cell volume          =    6658.9804 (a.u.)^3
     number of atoms/cell      =           50
     number of atomic types    =            4
     number of electrons       =       392.00
     number of Kohn-Sham states=          206
     kinetic-energy cutoff     =      29.3995  Ry
     charge density cutoff     =     293.9946  Ry
     scf convergence threshold =      7.3E-08
     mixing beta               =       0.0500
     number of iterations used =            8  plain     mixing
     Exchange-correlation= BEEF-VDW
                           (   1   4  43  14   2   0   0)

     celldm(1)=   1.889726  celldm(2)=   0.000000  celldm(3)=   0.000000
     celldm(4)=   0.000000  celldm(5)=   0.000000  celldm(6)=   0.000000

     crystal axes: (cart. coord. in units of alat)
               a(1) = (   6.579727   0.000000   0.000000 )
               a(2) = (  -0.000775   5.961596   0.000000 )
               a(3) = (   0.000000   0.000000  25.155947 )

     reciprocal axes: (cart. coord. in units 2 pi/alat)
               b(1) = (  0.151982  0.000020  0.000000 )
               b(2) = (  0.000000  0.167740  0.000000 )
               b(3) = (  0.000000  0.000000  0.039752 )

     PseudoPot. # 1 for Ti read from file:
     /storage/coda1/p-amedford6/0/shared/rich_project_chbe-medford/medford-share/data/pseudos_module/espresso/nninc/pbe/van/Ti.UPF
     MD5 check sum: 8e4df49b7f0d34bbd5052bf3f5ea0213
     Pseudo is Ultrasoft, Zval = 12.0
     Generated by new atomic code, or converted to UPF format
     Using radial grid of  851 points,  6 beta functions with:
                l(1) =   0
                l(2) =   0
                l(3) =   1
                l(4) =   1
                l(5) =   2
                l(6) =   2
     Q(r) pseudized with  8 coefficients,  rinner =    1.000   1.000   1.000
                                                       1.000   1.000

     PseudoPot. # 2 for O  read from file:
     /storage/coda1/p-amedford6/0/shared/rich_project_chbe-medford/medford-share/data/pseudos_module/espresso/nninc/pbe/van/O.UPF
     MD5 check sum: 78c19812648e8988a0fe644b0f25305e
     Pseudo is Ultrasoft, Zval =  6.0
     Generated by new atomic code, or converted to UPF format
     Using radial grid of  737 points,  4 beta functions with:
                l(1) =   0
                l(2) =   0
                l(3) =   1
                l(4) =   1
     Q(r) pseudized with  8 coefficients,  rinner =    0.800   0.800   0.800

     PseudoPot. # 3 for N  read from file:
     /storage/coda1/p-amedford6/0/shared/rich_project_chbe-medford/medford-share/data/pseudos_module/espresso/nninc/pbe/van/N.UPF
     MD5 check sum: 90d10febe142ad51ac9d5be1deb811c4
     Pseudo is Ultrasoft, Zval =  5.0
     Generated by new atomic code, or converted to UPF format
     Using radial grid of  729 points,  4 beta functions with:
                l(1) =   0
                l(2) =   0
                l(3) =   1
                l(4) =   1
     Q(r) pseudized with  8 coefficients,  rinner =    0.800   0.800   0.800

     PseudoPot. # 4 for C  read from file:
     /storage/coda1/p-amedford6/0/shared/rich_project_chbe-medford/medford-share/data/pseudos_module/espresso/nninc/pbe/van/C.UPF
     MD5 check sum: 1a69bf6b8db32088f5b2163dbdb77a27
     Pseudo is Ultrasoft, Zval =  4.0
     Generated by new atomic code, or converted to UPF format
     Using radial grid of  721 points,  4 beta functions with:
                l(1) =   0
                l(2) =   0
                l(3) =   1
                l(4) =   1
     Q(r) pseudized with  8 coefficients,  rinner =    0.800   0.800   0.800

     atomic species   valence    mass     pseudopotential
        Ti1           12.00    47.86700     Ti( 1.00)
        O1             6.00    15.99900     O ( 1.00)
        N1             5.00    14.00700     N ( 1.00)
        C1             4.00    12.01100     C ( 1.00)

     No symmetry found

   Cartesian axes

     site n.     atom                  positions (alat units)
         1           Ti1 tau(   1) = (   0.0004258   2.9801865   6.0000000  )
         2           Ti1 tau(   2) = (   3.2906075   1.4906267   6.0002472  )
         3           O1  tau(   3) = (   0.0006271   0.0005054   7.9858123  )
         4           O1  tau(   4) = (   3.2906025   0.0005020   7.3038282  )
         5           O1  tau(   5) = (   4.5942328   1.4918067   9.2879030  )
         6           O1  tau(   6) = (   1.9868534   1.4903216   9.2879459  )
         7           Ti1 tau(   7) = (   3.2907910   2.8959150   9.1758416  )
         8           Ti1 tau(   8) = (   0.0015273   1.4827037   9.2680791  )
         9           O1  tau(   9) = (   3.2889285   5.9572048  11.3040972  )
        10           O1  tau(  10) = (   0.0116148   5.9584955  10.6183126  )
        11           O1  tau(  11) = (   1.3189323   1.4942761  12.6130295  )
        12           O1  tau(  12) = (   5.2997964   1.4884099  12.6250597  )
        13           Ti1 tau(  13) = (   6.4939836   2.9824287  12.7561987  )
        14           Ti1 tau(  14) = (   3.1682086   1.4887373  12.4699270  )
        15           O1  tau(  15) = (   0.0224291   5.9581829  14.5926458  )
        16           O1  tau(  16) = (   3.2893302   5.9536121  13.8847677  )
        17           O1  tau(  17) = (   4.5439212   1.4834749  16.0328965  )
        18           O1  tau(  18) = (   2.0755535   1.4836234  16.0228809  )
        19           Ti1 tau(  19) = (   3.3005686   2.9659170  15.6894391  )
        20           Ti1 tau(  20) = (   6.5401575   1.4426905  16.0647633  )
        21           O1  tau(  21) = (   3.2904802   0.0005063   4.7018136  )
        22           O1  tau(  22) = (   0.0258419   5.9532685  17.1653534  )
        23           O1  tau(  23) = (   1.3043587   1.4918075   6.0039043  )
        24           O1  tau(  24) = (   5.2767064   1.4903225   6.0039473  )
        25           Ti1 tau(  25) = (   0.0000382   5.9609847   6.0000000  )
        26           Ti1 tau(  26) = (   3.2902200   4.4714249   6.0002472  )
        27           O1  tau(  27) = (   0.0002396   2.9813036   7.9858123  )
        28           O1  tau(  28) = (   3.2902150   2.9813002   7.3038282  )
        29           O1  tau(  29) = (   4.5938453   4.4726049   9.2879030  )
        30           O1  tau(  30) = (   1.9864658   4.4711199   9.2879459  )
        31           Ti1 tau(  31) = (   3.2891106   5.8743827   9.1763621  )
        32           Ti1 tau(  32) = (   0.0006254   4.4649316   9.2693709  )
        33           O1  tau(  33) = (   3.2925136   2.9767646  11.3039470  )
        34           O1  tau(  34) = (   0.0092240   2.9805883  10.6323155  )
        35           O1  tau(  35) = (   1.3189435   4.4587261  12.6131553  )
        36           O1  tau(  36) = (   5.2992261   4.4686972  12.6254714  )
        37           Ti1 tau(  37) = (   6.4933837   0.0018553  12.7120694  )
        38           Ti1 tau(  38) = (   3.1687038   4.4682667  12.4696446  )
        39           O1  tau(  39) = (   6.5575253   2.9777116  14.6451287  )
        40           O1  tau(  40) = (   3.3026008   2.9720648  13.8804781  )
        41           O1  tau(  41) = (   4.5428380   4.4591099  16.0310608  )
        42           O1  tau(  42) = (   2.0745367   4.4570417  16.0198975  )
        43           Ti1 tau(  43) = (   3.2480854   5.9464808  15.6958456  )
        44           Ti1 tau(  44) = (   6.5385164   4.5051388  16.0519081  )
        45           O1  tau(  45) = (   3.2900926   2.9813045   4.7018136  )
        46           O1  tau(  46) = (   1.3039711   4.4726057   6.0039043  )
        47           O1  tau(  47) = (   5.2763189   4.4711207   6.0039473  )
        48           N1  tau(  48) = (   0.6627575   2.9932433  18.4779999  )
        49           C1  tau(  49) = (   1.2395031   3.0150465  19.5213309  )
        50           N1  tau(  50) = (   0.0963922   2.9773862  17.3083823  )

     number of k points=    10  Fermi-Dirac smearing, width (Ry)=  0.0073
                       cart. coord. in units 2pi/alat
        k(    1) = (   0.0000000   0.0000000   0.0000000), wk =   0.1250000
        k(    2) = (   0.0000000   0.0419351   0.0000000), wk =   0.2500000
        k(    3) = (   0.0000000  -0.0838702   0.0000000), wk =   0.1250000
        k(    4) = (   0.0379955   0.0000049   0.0000000), wk =   0.2500000
        k(    5) = (   0.0379955   0.0419400   0.0000000), wk =   0.2500000
        k(    6) = (   0.0379955  -0.0838652   0.0000000), wk =   0.2500000
        k(    7) = (   0.0379955  -0.0419301   0.0000000), wk =   0.2500000
        k(    8) = (  -0.0759910  -0.0000099   0.0000000), wk =   0.1250000
        k(    9) = (  -0.0759910   0.0419252   0.0000000), wk =   0.2500000
        k(   10) = (  -0.0759910  -0.0838800   0.0000000), wk =   0.1250000

     Initial potential from superposition of free atoms

     starting charge  375.99919, renormalised to  392.00000

     negative rho (up, down):  1.741E-02 0.000E+00

     %%%%%%%%%%%%%%%%%%%%%%%%%%%%%%%%%%%%%%%%%%%%%%%%%%%%%%%%%%%%%%%%%%%%%%%%
     %                                                                      %
     % You are using vdW-DF, which was implemented by the Thonhauser group. %
     % Please cite the following two papers that made this development      %
     % possible and the two reviews that describe the various versions:     %
     %                                                                      %
     %   T. Thonhauser et al., PRL 115, 136402 (2015).                      %
     %   T. Thonhauser et al., PRB 76, 125112 (2007).                       %
     %   K. Berland et al., Rep. Prog. Phys. 78, 066501 (2015).             %
     %   D.C. Langreth et al., J. Phys.: Condens. Matter 21, 084203 (2009). %
     %                                                                      %
     %                                                                      %
     % If you are calculating the stress with vdW-DF, please also cite:     %
     %                                                                      %
     %   R. Sabatini et al., J. Phys.: Condens. Matter 24, 424209 (2012).   %
     %                                                                      %
     %%%%%%%%%%%%%%%%%%%%%%%%%%%%%%%%%%%%%%%%%%%%%%%%%%%%%%%%%%%%%%%%%%%%%%%%

     Adding external electric field

     Computed dipole along edir(3) :
        Dipole               -5.9970 Ry au,        -15.2427 Debye
        Dipole field         -0.0113 Ry au,

        Potential amp.        1.0491 Ry
        Total length         46.3494 bohr

     Starting wfcs are  296 atomic wfcs
  @ DRIVER MODE: Message from server: STATUS
  @ DRIVER MODE: Message from server: POSDATA
  @ DRIVER MODE: Reading and sharing cell
  @ DRIVER MODE: Reading and sharing positions
  @ DRIVER MODE: Received positions

     Self-consistent Calculation

     iteration #  1     ecut=    29.40 Ry     beta= 0.05
     Davidson diagonalization with overlap
     c_bands:  3 eigenvalues not converged
     c_bands:  1 eigenvalues not converged
     c_bands:  3 eigenvalues not converged
     c_bands:  1 eigenvalues not converged
     c_bands:  1 eigenvalues not converged
     c_bands:  3 eigenvalues not converged
     ethr =  1.00E-05,  avg # of iterations = 19.5

[...]

     total energy              =   -2797.86211121 Ry
     estimated scf accuracy    <    1528.39647298 Ry

[...]

     iteration #  3     ecut=    29.40 Ry     beta= 0.05
     Davidson diagonalization with overlap
     ethr =  1.00E-02,  avg # of iterations = 13.3

[...]

     iteration # 60     ecut=    29.40 Ry     beta= 0.05
     Davidson diagonalization with overlap
     c_bands:  1 eigenvalues not converged
     ethr =  5.06E-07,  avg # of iterations = 10.6

[...]

     total energy              =   -2935.33669827 Ry
     estimated scf accuracy    <       0.00000011 Ry

     iteration # 81     ecut=    29.40 Ry     beta= 0.05
     Davidson diagonalization with overlap
     ethr =  2.75E-11,  avg # of iterations =  6.0

     negative rho (up, down):  1.700E-02 0.000E+00

     Adding external electric field

     Computed dipole along edir(3) :
        Dipole               -0.7975 Ry au,         -2.0271 Debye
        Dipole field         -0.0015 Ry au,

        Potential amp.        0.1395 Ry
        Total length         46.3494 bohr

     End of self-consistent calculation

          k = 0.0000 0.0000 0.0000 ( 18029 PWs)   bands (ev):

   -57.3207 -57.2870 -56.6554 -56.6213 -56.6177 -56.5841 -56.5529 -56.5174
   -56.3387 -56.3039 -56.2689 -56.2292 -56.0685 -56.0346 -55.8098 -55.7705
   -33.7601 -33.6053 -33.5771 -33.4881 -33.3961 -33.3850 -33.1205 -33.1013
   -33.0935 -32.9243 -32.8787 -32.8686 -32.8258 -32.8206 -32.8174 -32.8052
   -32.7878 -32.7838 -32.7750 -32.7677 -32.7672 -32.7546 -32.7328 -32.7252
   -32.7158 -32.6857 -32.6774 -32.6560 -32.5745 -32.5151 -32.4789 -32.4656
   -32.4465 -32.4425 -32.4164 -32.4067 -32.4016 -32.3854 -32.3778 -32.3509
   -32.2834 -32.1987 -32.0878 -32.0382 -32.0344 -32.0220 -31.9798 -31.8777
   -17.8082 -17.5588 -17.2536 -17.0234 -16.7836 -16.7279 -16.6558 -16.6497
   -16.6066 -16.5305 -16.5133 -16.4579 -16.3494 -16.3202 -16.2298 -16.1318
   -16.1167 -16.0777 -16.0113 -15.9080 -15.9021 -15.8979 -15.8533 -15.8293
   -15.7004 -15.6503 -15.5272 -15.5085 -15.4165 -15.1791 -14.5683 -14.4564
   -12.8592  -5.8736  -5.0986  -4.7510  -4.5444  -4.4488  -4.3335  -4.2721
    -4.2404  -4.0210  -3.9546  -3.9495  -3.8827  -3.8291  -3.6810  -3.6767
    -3.6224  -3.6020  -3.5664  -3.5301  -3.5083  -3.4645  -3.4512  -3.2683
    -3.2275  -3.2211  -3.2128  -3.2034  -3.1020  -3.0392  -3.0275  -3.0160
    -3.0120  -2.9844  -2.8472  -2.7939  -2.7611  -2.7420  -2.7354  -2.6044
    -2.6035  -2.5808  -2.4754  -2.4615  -2.3900  -2.3045  -2.1974  -2.1359
    -2.0949  -2.0510  -2.0297  -1.8860  -1.8443  -1.8013  -1.7247  -1.6985
    -1.6219  -1.6084  -1.5725  -1.5514  -1.4986  -1.4056  -1.3538  -1.3064
    -1.2564  -1.2492  -1.1103  -1.0959  -1.0846  -1.0615  -1.0130  -0.9428
    -0.9182  -0.8724  -0.8697  -0.8398  -0.7439  -0.6392  -0.6244  -0.5682
    -0.4546  -0.4487  -0.3777  -0.3450  -0.2519  -0.2188  -0.1466  -0.0856
    -0.0471  -0.0457   0.0065   0.1272   0.1738   0.1821   0.5086   0.5491
     0.6588   0.8611   1.2399   1.6904   1.9313   2.0686   2.3766   2.4258
     2.5355   2.8626   2.8710   2.9846   3.0151   3.0400

[...]

          k = 0.0380-0.0419 0.0000 ( 17876 PWs)   bands (ev):

[...]

          k =-0.0760-0.0000 0.0000 ( 17886 PWs)   bands (ev):

[...]

          k =-0.0760-0.0839 0.0000 ( 17948 PWs)   bands (ev):

   -57.3038 -57.3037 -56.6408 -56.6354 -56.6017 -56.6003 -56.5359 -56.5342
   -56.3216 -56.3208 -56.2588 -56.2392 -56.0515 -56.0514 -55.7990 -55.7812
   -33.5910 -33.5907 -33.5765 -33.5765 -33.4405 -33.4403 -32.9448 -32.9392
   -32.9339 -32.9316 -32.9039 -32.9028 -32.8375 -32.8353 -32.8302 -32.8241
   -32.8226 -32.8197 -32.8134 -32.8125 -32.7832 -32.7815 -32.7421 -32.7399
   -32.6672 -32.6652 -32.6071 -32.6050 -32.5877 -32.5704 -32.5281 -32.5190
   -32.4920 -32.4789 -32.4312 -32.4207 -32.3908 -32.3907 -32.2803 -32.2802
   -32.2434 -32.2412 -32.2412 -32.0974 -32.0170 -31.9978 -31.9925 -31.9711
   -17.7968 -16.9199 -16.9159 -16.8643 -16.8637 -16.6876 -16.6841 -16.6276
   -16.6232 -16.5006 -16.4905 -16.2918 -16.2807 -16.2724 -16.2716 -16.1723
   -16.1591 -16.1534 -16.1491 -16.0357 -16.0311 -15.9904 -15.9890 -15.9688
   -15.9231 -15.6717 -15.6003 -15.5432 -15.4358 -15.3898 -14.5595 -14.5594
   -12.8638  -5.7923  -4.0471  -4.0420  -4.0016  -3.9930  -3.9104  -3.9051
    -3.7635  -3.7599  -3.7284  -3.7242  -3.6102  -3.5840  -3.5776  -3.5759
    -3.4814  -3.4547  -3.4513  -3.4207  -3.3924  -3.3686  -3.3410  -3.3334
    -3.3010  -3.2955  -3.2303  -3.2270  -3.1646  -3.1568  -3.1153  -3.0943
    -3.0405  -2.9624  -2.9452  -2.9417  -2.9208  -2.8725  -2.8364  -2.6491
    -2.6454  -2.6044  -2.5380  -2.5328  -2.4468  -2.3612  -2.3513  -2.2876
    -2.2323  -2.2190  -2.0687  -2.0627  -2.0339  -2.0281  -1.9967  -1.9071
    -1.8682  -1.8131  -1.7210  -1.6822  -1.6470  -1.6189  -1.6004  -1.5915
    -1.5679  -1.5577  -1.4150  -1.4082  -1.3549  -1.3344  -1.2929  -1.2644
    -1.1437  -1.1242  -1.0221  -0.9182  -0.9063  -0.8760  -0.8658  -0.7404
    -0.6622  -0.6534  -0.4419  -0.3741  -0.2795  -0.2396  -0.2179  -0.0854
    -0.0697  -0.0299  -0.0179   0.1803   0.2350   0.3476   0.3528   0.3625
     0.3630   0.8735   1.2255   1.6319   2.4819   2.4825   2.5392   2.5394
     2.8433   2.8471   2.9279   2.9426   2.9759   2.9778

     the Fermi energy is     1.8422 ev

!    total energy              =   -2935.33670595 Ry
     estimated scf accuracy    <       0.00000006 Ry
     smearing contrib. (-TS)   =      -0.00913922 Ry
     internal energy E=F+TS    =   -2935.32756673 Ry

     The total energy is F=E-TS. E is the sum of the following terms:
     one-electron contribution =  -24518.69172605 Ry
     hartree contribution      =   12337.40645584 Ry
     xc contribution           =    -482.58512412 Ry
     ewald contribution        =    9728.54162730 Ry
     electric field correction =       0.00120030 Ry

     convergence has been achieved in  81 iterations

     Forces acting on atoms (cartesian axes, Ry/au):

     atom    1 type  1   force =     0.00004421   -0.00041195    0.11641711
     atom    2 type  1   force =    -0.00008575   -0.00059062   -0.16467257
     atom    3 type  2   force =     0.00017651   -0.00006913   -0.05613156
     atom    4 type  2   force =    -0.00003846   -0.00056361    0.03419510
     atom    5 type  2   force =    -0.01581368    0.00099726   -0.00652250
     atom    6 type  2   force =     0.01749723    0.00173388   -0.00697044
     atom    7 type  1   force =     0.00078387   -0.00317467    0.01403867
     atom    8 type  1   force =    -0.00038660    0.00376032    0.09621227
     atom    9 type  2   force =    -0.00003054    0.00004573   -0.00035175
     atom   10 type  2   force =    -0.00226598    0.00158409   -0.06024332
     atom   11 type  2   force =    -0.00014158   -0.00014858   -0.00007717
     atom   12 type  2   force =     0.00003664   -0.00055437   -0.00012651
     atom   13 type  1   force =    -0.00024404   -0.00012367    0.00150894
     atom   14 type  1   force =     0.00007719   -0.00046980    0.00052709
     atom   15 type  2   force =    -0.00031191   -0.00014393   -0.00136022
     atom   16 type  2   force =     0.00016149    0.00015583   -0.00085666
     atom   17 type  2   force =     0.00016054    0.00002142   -0.00003454
     atom   18 type  2   force =     0.00009557   -0.00020867   -0.00057237
     atom   19 type  1   force =    -0.00039323    0.00010086    0.00092955
     atom   20 type  1   force =     0.00034832   -0.00078274   -0.00138308
     atom   21 type  2   force =     0.00005768    0.00001550    0.10058819
     atom   22 type  2   force =    -0.00011897    0.00017115   -0.00067766
     atom   23 type  2   force =    -0.07678152   -0.00002565   -0.03127909
     atom   24 type  2   force =     0.07663949    0.00039401   -0.03129358
     atom   25 type  1   force =     0.00008010   -0.00041990    0.11620274
     atom   26 type  1   force =    -0.00009219   -0.00033759   -0.16466108
     atom   27 type  2   force =     0.00033936   -0.00031514   -0.05503376
     atom   28 type  2   force =    -0.00001928   -0.00039074    0.03416177
     atom   29 type  2   force =    -0.01623707    0.00135410   -0.00661504
     atom   30 type  2   force =     0.01781499    0.00154721   -0.00710496
     atom   31 type  1   force =     0.00067866   -0.00041860    0.01330217
     atom   32 type  1   force =    -0.00027327   -0.00631619    0.09683165
     atom   33 type  2   force =    -0.00016755   -0.00011910   -0.00103256
     atom   34 type  2   force =    -0.00266851    0.00109425   -0.06892106
     atom   35 type  2   force =    -0.00008849    0.00033438    0.00006111
     atom   36 type  2   force =    -0.00004949    0.00037890   -0.00006618
     atom   37 type  1   force =    -0.00009684   -0.00021595    0.00085347
     atom   38 type  1   force =    -0.00015326   -0.00016935    0.00072145
     atom   39 type  2   force =    -0.00018552   -0.00022140   -0.00135326
     atom   40 type  2   force =    -0.00008400    0.00009258   -0.00064083
     atom   41 type  2   force =     0.00013770    0.00037904    0.00001606
     atom   42 type  2   force =     0.00013791    0.00057825   -0.00053001
     atom   43 type  1   force =    -0.00010630    0.00045296    0.00108437
     atom   44 type  1   force =     0.00026816    0.00078541   -0.00072310
     atom   45 type  2   force =     0.00005660   -0.00000040    0.10058604
     atom   46 type  2   force =    -0.07678663    0.00000682   -0.03125673
     atom   47 type  2   force =     0.07662884    0.00044530   -0.03128144
     atom   48 type  3   force =    -0.00409559   -0.00019542   -0.01028039
     atom   49 type  4   force =    -0.00059711   -0.00023860   -0.00235203
     atom   50 type  3   force =     0.00609225    0.00019654    0.01616768

     Total force =     0.408332     Total SCF correction =     0.000825
  @ DRIVER MODE: Message from server: STATUS
  @ DRIVER MODE: Message from server: GETFORCE
  @ DRIVER MODE: Returning v,forces,stress,ensemble

     Writing output data file ./calc.save/
  @ DRIVER MODE: Message from server: EXIT
  @ DRIVE MODE: Exiting

     General routines

     Parallel routines

   This run was terminated on:   7:35:23   9Sep2021

   JOB DONE.