     Program PWSCF v.6.7GPU starts on 10Sep2021 at  8: 9:41

     R & G space division:  proc/nbgrp/npool/nimage =      10
     Reading input from /storage/home/hcoda1/3/ntian30/research/carbon/CxH_vib/CH3_calc/ads_slab/CH3N2H2O_g/out_0034/pw.inp
Warning: card &CELL ignored
Warning: card   CELL_DYNAMICS='IPI', ignored
Warning: card / ignored

     Current dimensions of program PWSCF are:
     Max number of different atomic species (ntypx) = 10
     Max number of k-points (npk) =  40000
     Max angular momentum in pseudopotentials (lmaxx) =  3
     Presently no symmetry can be used with electric field

     Message from routine cell_base_init:
     DEPRECATED: use true lattice parameter, not A to a.u. conversion factor

     IMPORTANT: XC functional enforced from input :
     Exchange-correlation= BEEF-VDW
                           (   1   4  43  14   2   0   0)
     Any further DFT definition will be discarded
     Please, verify this is what you really want

  @ DRIVER MODE: Connecting to
 qe_1139763_2779714.sched-torque.pace.gatech.edui6r3gh8d_scratch
  using UNIX socket
  @ DRIVER MODE: Message from server: STATUS
  @ DRIVER MODE: Message from server: INIT
  @ DRIVER MODE: Receiving replica           0          -1
  @ DRIVER MODE: Receiving encoded integer          25
  @ DRIVER MODE:  SCF:  T  FORCE:  T  STRESS:  F  VC:  F  ENSEMBLE:  F
  @ DRIVER MODE:  SCF:  T  FORCE:  T  STRESS:  F  VC:  F  ENSEMBLE:  F

     Using Slab Decomposition

     bravais-lattice index     =            0
     lattice parameter (alat)  =       1.8897  a.u.
     unit-cell volume          =    6658.9804 (a.u.)^3
     number of atoms/cell      =           56
     number of atomic types    =            5
     number of electrons       =       403.00
     number of Kohn-Sham states=          211
     kinetic-energy cutoff     =      29.3995  Ry
     charge density cutoff     =     293.9946  Ry
     scf convergence threshold =      7.3E-08
     mixing beta               =       0.0500
     number of iterations used =            8  plain     mixing
     Exchange-correlation= BEEF-VDW
                           (   1   4  43  14   2   0   0)

     celldm(1)=   1.889726  celldm(2)=   0.000000  celldm(3)=   0.000000
     celldm(4)=   0.000000  celldm(5)=   0.000000  celldm(6)=   0.000000

     crystal axes: (cart. coord. in units of alat)
               a(1) = (   6.579727   0.000000   0.000000 )
               a(2) = (  -0.000775   5.961596   0.000000 )
               a(3) = (   0.000000   0.000000  25.155947 )

     reciprocal axes: (cart. coord. in units 2 pi/alat)
               b(1) = (  0.151982  0.000020  0.000000 )
               b(2) = (  0.000000  0.167740  0.000000 )
               b(3) = (  0.000000  0.000000  0.039752 )

     PseudoPot. # 1 for Ti read from file:
     /storage/coda1/p-amedford6/0/shared/rich_project_chbe-medford/medford-share/data/pseudos_module/espresso/nninc/pbe/van/Ti.UPF
     MD5 check sum: 8e4df49b7f0d34bbd5052bf3f5ea0213
     Pseudo is Ultrasoft, Zval = 12.0
     Generated by new atomic code, or converted to UPF format
     Using radial grid of  851 points,  6 beta functions with:
                l(1) =   0
                l(2) =   0
                l(3) =   1
                l(4) =   1
                l(5) =   2
                l(6) =   2
     Q(r) pseudized with  8 coefficients,  rinner =    1.000   1.000   1.000
                                                       1.000   1.000

     PseudoPot. # 2 for O  read from file:
     /storage/coda1/p-amedford6/0/shared/rich_project_chbe-medford/medford-share/data/pseudos_module/espresso/nninc/pbe/van/O.UPF
     MD5 check sum: 78c19812648e8988a0fe644b0f25305e
     Pseudo is Ultrasoft, Zval =  6.0
     Generated by new atomic code, or converted to UPF format
     Using radial grid of  737 points,  4 beta functions with:
                l(1) =   0
                l(2) =   0
                l(3) =   1
                l(4) =   1
     Q(r) pseudized with  8 coefficients,  rinner =    0.800   0.800   0.800

     PseudoPot. # 3 for N  read from file:
     /storage/coda1/p-amedford6/0/shared/rich_project_chbe-medford/medford-share/data/pseudos_module/espresso/nninc/pbe/van/N.UPF
     MD5 check sum: 90d10febe142ad51ac9d5be1deb811c4
     Pseudo is Ultrasoft, Zval =  5.0
     Generated by new atomic code, or converted to UPF format
     Using radial grid of  729 points,  4 beta functions with:
                l(1) =   0
                l(2) =   0
                l(3) =   1
                l(4) =   1
     Q(r) pseudized with  8 coefficients,  rinner =    0.800   0.800   0.800

     PseudoPot. # 4 for C  read from file:
     /storage/coda1/p-amedford6/0/shared/rich_project_chbe-medford/medford-share/data/pseudos_module/espresso/nninc/pbe/van/C.UPF
     MD5 check sum: 1a69bf6b8db32088f5b2163dbdb77a27
     Pseudo is Ultrasoft, Zval =  4.0
     Generated by new atomic code, or converted to UPF format
     Using radial grid of  721 points,  4 beta functions with:
                l(1) =   0
                l(2) =   0
                l(3) =   1
                l(4) =   1
     Q(r) pseudized with  8 coefficients,  rinner =    0.800   0.800   0.800

     PseudoPot. # 5 for H  read from file:
     /storage/coda1/p-amedford6/0/shared/rich_project_chbe-medford/medford-share/data/pseudos_module/espresso/nninc/pbe/van/H.UPF
     MD5 check sum: b5ee9d7bfd3a09ee7748110bda690ff7
     Pseudo is Ultrasoft, Zval =  1.0
     Generated by new atomic code, or converted to UPF format
     Using radial grid of  615 points,  1 beta functions with:
                l(1) =   0
     Q(r) pseudized with  8 coefficients,  rinner =    0.800

     atomic species   valence    mass     pseudopotential
        Ti1           12.00    47.86700     Ti( 1.00)
        O1             6.00    15.99900     O ( 1.00)
        N1             5.00    14.00700     N ( 1.00)
        C1             4.00    12.01100     C ( 1.00)
        H1             1.00     1.00800     H ( 1.00)

     No symmetry found

   Cartesian axes

     site n.     atom                  positions (alat units)
         1           Ti1 tau(   1) = (   0.0004258   2.9801865   6.0000000  )
         2           Ti1 tau(   2) = (   3.2906075   1.4906267   6.0002472  )
         3           O1  tau(   3) = (   0.0006271   0.0005054   7.9858123  )
         4           O1  tau(   4) = (   3.2906025   0.0005020   7.3038282  )
         5           O1  tau(   5) = (   4.5942328   1.4918067   9.2879030  )
         6           O1  tau(   6) = (   1.9868534   1.4903216   9.2879459  )
         7           Ti1 tau(   7) = (   3.2907910   2.8959150   9.1758416  )
         8           Ti1 tau(   8) = (   0.0015273   1.4827037   9.2680791  )
         9           O1  tau(   9) = (   3.3002115   5.9463602  11.3460011  )
        10           O1  tau(  10) = (   0.0116148   5.9584955  10.6183126  )
        11           O1  tau(  11) = (   1.3192008   1.4768417  12.6238339  )
        12           O1  tau(  12) = (   5.3062067   1.4698383  12.6193417  )
        13           Ti1 tau(  13) = (   6.5330844   2.9444840  12.6148558  )
        14           Ti1 tau(  14) = (   3.2222230   1.4676475  12.5013840  )
        15           O1  tau(  15) = (   0.0064324   5.9471174  14.6352917  )
        16           O1  tau(  16) = (   3.3028336   5.9445487  13.9678148  )
        17           O1  tau(  17) = (   4.5628415   1.5226527  16.0793330  )
        18           O1  tau(  18) = (   2.0474444   1.5206590  16.0184434  )
        19           Ti1 tau(  19) = (   3.3141275   2.9607752  15.6908890  )
        20           Ti1 tau(  20) = (   6.5660065   1.5097775  15.7997320  )
        21           O1  tau(  21) = (   3.2904802   0.0005063   4.7018136  )
        22           O1  tau(  22) = (   0.0269361   0.0086655  17.1987262  )
        23           O1  tau(  23) = (   1.3043587   1.4918075   6.0039043  )
        24           O1  tau(  24) = (   5.2767064   1.4903225   6.0039473  )
        25           Ti1 tau(  25) = (   0.0000382   5.9609847   6.0000000  )
        26           Ti1 tau(  26) = (   3.2902200   4.4714249   6.0002472  )
        27           O1  tau(  27) = (   0.0002396   2.9813036   7.9858123  )
        28           O1  tau(  28) = (   3.2902150   2.9813002   7.3038282  )
        29           O1  tau(  29) = (   4.5938453   4.4726049   9.2879030  )
        30           O1  tau(  30) = (   1.9864658   4.4711199   9.2879459  )
        31           Ti1 tau(  31) = (   3.2891106   5.8743827   9.1763621  )
        32           Ti1 tau(  32) = (   0.0006254   4.4649316   9.2693709  )
        33           O1  tau(  33) = (   3.2944391   2.9688829  11.3444728  )
        34           O1  tau(  34) = (   0.0092240   2.9805883  10.6323155  )
        35           O1  tau(  35) = (   1.3142520   4.4635248  12.6275686  )
        36           O1  tau(  36) = (   5.3078217   4.4601700  12.6226734  )
        37           Ti1 tau(  37) = (   6.5374036   5.9186568  12.5467527  )
        38           Ti1 tau(  38) = (   3.2213306   4.4595164  12.5065882  )
        39           O1  tau(  39) = (   6.5756885   2.9534048  14.6511233  )
        40           O1  tau(  40) = (   3.3206316   2.9687378  13.8980937  )
        41           O1  tau(  41) = (   4.5543359   4.4428353  16.0905846  )
        42           O1  tau(  42) = (   2.0427057   4.4323087  16.0570365  )
        43           Ti1 tau(  43) = (   3.2570595   5.9269474  15.8069103  )
        44           Ti1 tau(  44) = (   6.5609319   4.6488967  16.0725391  )
        45           O1  tau(  45) = (   3.2900926   2.9813045   4.7018136  )
        46           O1  tau(  46) = (   1.3039711   4.4726057   6.0039043  )
        47           O1  tau(  47) = (   5.2763189   4.4711207   6.0039473  )
        48           N1  tau(  48) = (   0.2492319   2.6641403  18.6309932  )
        49           N1  tau(  49) = (   0.0782707   2.8835230  17.4382120  )
        50           C1  tau(  50) = (   0.2622466   3.8234900  19.5663878  )
        51           H1  tau(  51) = (   6.1755609   4.6233469  19.2444151  )
        52           H1  tau(  52) = (   6.5754044   3.4477461  20.5519103  )
        53           H1  tau(  53) = (   1.2857956   4.2173973  19.6006198  )
        54           O1  tau(  54) = (   3.1761146   0.0362278  18.2233714  )
        55           H1  tau(  55) = (   3.9097821   0.6076051  18.5038283  )
        56           H1  tau(  56) = (   2.3516031   0.5117379  18.4309238  )

     number of k points=    10  Fermi-Dirac smearing, width (Ry)=  0.0073
                       cart. coord. in units 2pi/alat
        k(    1) = (   0.0000000   0.0000000   0.0000000), wk =   0.1250000
        k(    2) = (   0.0000000   0.0419351   0.0000000), wk =   0.2500000
        k(    3) = (   0.0000000  -0.0838702   0.0000000), wk =   0.1250000
        k(    4) = (   0.0379955   0.0000049   0.0000000), wk =   0.2500000
        k(    5) = (   0.0379955   0.0419400   0.0000000), wk =   0.2500000
        k(    6) = (   0.0379955  -0.0838652   0.0000000), wk =   0.2500000
        k(    7) = (   0.0379955  -0.0419301   0.0000000), wk =   0.2500000
        k(    8) = (  -0.0759910  -0.0000099   0.0000000), wk =   0.1250000
        k(    9) = (  -0.0759910   0.0419252   0.0000000), wk =   0.2500000
        k(   10) = (  -0.0759910  -0.0838800   0.0000000), wk =   0.1250000

     Initial potential from superposition of free atoms

     starting charge  386.99914, renormalised to  403.00000

     negative rho (up, down):  1.449E-02 0.000E+00

     %%%%%%%%%%%%%%%%%%%%%%%%%%%%%%%%%%%%%%%%%%%%%%%%%%%%%%%%%%%%%%%%%%%%%%%%
     %                                                                      %
     % You are using vdW-DF, which was implemented by the Thonhauser group. %
     % Please cite the following two papers that made this development      %
     % possible and the two reviews that describe the various versions:     %
     %                                                                      %
     %   T. Thonhauser et al., PRL 115, 136402 (2015).                      %
     %   T. Thonhauser et al., PRB 76, 125112 (2007).                       %
     %   K. Berland et al., Rep. Prog. Phys. 78, 066501 (2015).             %
     %   D.C. Langreth et al., J. Phys.: Condens. Matter 21, 084203 (2009). %
     %                                                                      %
     %                                                                      %
     % If you are calculating the stress with vdW-DF, please also cite:     %
     %                                                                      %
     %   R. Sabatini et al., J. Phys.: Condens. Matter 24, 424209 (2012).   %
     %                                                                      %
     %%%%%%%%%%%%%%%%%%%%%%%%%%%%%%%%%%%%%%%%%%%%%%%%%%%%%%%%%%%%%%%%%%%%%%%%

     Adding external electric field

     Computed dipole along edir(3) :
        Dipole              -13.2089 Ry au,        -33.5737 Debye
        Dipole field         -0.0249 Ry au,

        Potential amp.        2.3107 Ry
        Total length         46.3494 bohr

     Starting wfcs are  305 atomic wfcs
  @ DRIVER MODE: Message from server: STATUS
  @ DRIVER MODE: Message from server: POSDATA
  @ DRIVER MODE: Reading and sharing cell
  @ DRIVER MODE: Reading and sharing positions
  @ DRIVER MODE: Received positions

     Self-consistent Calculation

     iteration #  1     ecut=    29.40 Ry     beta= 0.05
     Davidson diagonalization with overlap
     c_bands:  4 eigenvalues not converged
     c_bands:  2 eigenvalues not converged
     c_bands:  2 eigenvalues not converged
     c_bands:  5 eigenvalues not converged
     c_bands:  1 eigenvalues not converged
     c_bands:  1 eigenvalues not converged
     c_bands:  4 eigenvalues not converged
     c_bands:  1 eigenvalues not converged
     c_bands:  1 eigenvalues not converged
     ethr =  1.00E-05,  avg # of iterations = 28.0

[...]

     total energy              =   -2367.57914413 Ry
     estimated scf accuracy    <    6916.06567889 Ry

     iteration #  2     ecut=    29.40 Ry     beta= 0.05
     Davidson diagonalization with overlap
     ethr =  1.00E-02,  avg # of iterations = 23.1

[...]

     iteration # 66     ecut=    29.40 Ry     beta= 0.05
     Davidson diagonalization with overlap
     c_bands:  1 eigenvalues not converged
     ethr =  8.39E-11,  avg # of iterations =  9.3

[...]

     total energy              =   -2974.00269651 Ry
     estimated scf accuracy    <       0.00000020 Ry

     iteration # 68     ecut=    29.40 Ry     beta= 0.05
     Davidson diagonalization with overlap
     ethr =  4.86E-11,  avg # of iterations = 13.0

     negative rho (up, down):  1.476E-02 0.000E+00

     Adding external electric field

     Computed dipole along edir(3) :
        Dipole                0.8895 Ry au,          2.2610 Debye
        Dipole field          0.0017 Ry au,

        Potential amp.       -0.1556 Ry
        Total length         46.3494 bohr

     End of self-consistent calculation

          k = 0.0000 0.0000 0.0000 ( 18029 PWs)   bands (ev):

   -55.6203 -55.5862 -55.5787 -55.5615 -55.5421 -55.4486 -55.4302 -55.4094
   -55.3963 -55.3953 -55.3669 -55.3615 -55.0040 -54.8635 -54.5992 -54.5651
   -32.1208 -32.1027 -31.9630 -31.9460 -31.9289 -31.9132 -31.8848 -31.8793
   -31.8631 -31.8097 -31.8035 -31.7851 -31.7726 -31.7570 -31.7406 -31.7320
   -31.7246 -31.7116 -31.7062 -31.6775 -31.6687 -31.6515 -31.6226 -31.6185
   -31.6028 -31.6002 -31.5996 -31.5943 -31.5702 -31.5655 -31.5626 -31.5577
   -31.5479 -31.5433 -31.5368 -31.5098 -31.5069 -31.2741 -31.1996 -31.1239
   -31.1069 -31.0725 -31.0064 -30.9178 -30.8953 -30.8230 -30.7365 -30.6256
   -18.8645 -18.3056 -16.3122 -16.0838 -15.8540 -15.7664 -15.7177 -15.5181
   -15.4162 -15.3437 -15.2212 -15.1586 -15.1465 -15.1323 -15.1133 -15.1112
   -15.0590 -15.0521 -15.0479 -15.0403 -15.0070 -14.9666 -14.9516 -14.9410
   -14.8471 -14.7738 -14.7566 -14.7327 -14.6872 -14.6709 -14.1976 -13.1017
   -12.9853 -11.2466  -6.8738  -6.6389  -4.2037  -3.8252  -3.7964  -3.6849
    -3.5575  -3.5243  -3.4425  -3.3684  -3.2324  -3.1993  -3.0377  -2.8477
    -2.7871  -2.7610  -2.7081  -2.6415  -2.5277  -2.4685  -2.4241  -2.4167
    -2.3996  -2.3912  -2.3683  -2.3557  -2.2542  -2.2328  -2.1536  -2.1490
    -2.0986  -1.9817  -1.9668  -1.9325  -1.9192  -1.8961  -1.8738  -1.8536
    -1.8434  -1.8192  -1.7683  -1.6985  -1.6324  -1.5958  -1.5072  -1.4386
    -1.3976  -1.3509  -1.2303  -1.1370  -1.1024  -1.0614  -1.0537  -1.0405
    -1.0122  -0.9943  -0.8815  -0.7675  -0.7504  -0.6852  -0.6253  -0.5442
    -0.5173  -0.4378  -0.3839  -0.3655  -0.3620  -0.3162  -0.2862  -0.2270
    -0.0936  -0.0421  -0.0081   0.0011   0.0602   0.1036   0.1321   0.2196
     0.2260   0.2711   0.3092   0.3417   0.3548   0.3700   0.3885   0.4180
     0.4327   0.6243   0.6605   0.6996   0.7373   0.7801   0.9185   0.9429
     1.0407   1.1502   1.3491   1.4227   1.5280   1.6149   1.9944   2.0402
     2.7439   3.5150   3.6021   3.6471   3.6759   3.7597   3.7740   3.9698
     3.9856   4.0239   4.0935

[...]

          k = 0.0380-0.0419 0.0000 ( 17876 PWs)   bands (ev):

[...]

          k =-0.0760-0.0000 0.0000 ( 17886 PWs)   bands (ev):

[...]

          k =-0.0760-0.0839 0.0000 ( 17948 PWs)   bands (ev):

   -55.6038 -55.6026 -55.5645 -55.5599 -55.5560 -55.4383 -55.4199 -55.4139
   -55.4120 -55.3802 -55.3769 -55.3683 -55.0020 -54.8653 -54.5822 -54.5820
   -31.9344 -31.9184 -31.9183 -31.9175 -31.8991 -31.8979 -31.8485 -31.8424
   -31.8215 -31.7962 -31.7841 -31.7749 -31.7707 -31.7326 -31.7279 -31.7263
   -31.7234 -31.7222 -31.7199 -31.7171 -31.7146 -31.7090 -31.6726 -31.6555
   -31.6369 -31.6326 -31.6252 -31.6132 -31.6128 -31.6098 -31.6042 -31.5948
   -31.5913 -31.5806 -31.5797 -31.5712 -31.4209 -31.2759 -31.2155 -31.1630
   -31.1250 -31.0990 -30.9081 -30.9079 -30.8193 -30.8191 -30.7798 -30.7798
   -18.8634 -18.3020 -15.7706 -15.6602 -15.5696 -15.5354 -15.4779 -15.4088
   -15.4011 -15.3143 -15.2984 -15.2953 -15.2294 -15.2088 -15.1715 -15.1646
   -15.1419 -15.1261 -15.1197 -15.0701 -15.0582 -15.0553 -15.0484 -15.0436
   -14.9674 -14.9370 -14.9332 -14.9241 -14.7964 -14.6718 -14.3692 -13.0872
   -13.0870 -11.2443  -6.9013  -6.6158  -4.1300  -3.8569  -3.7592  -3.2159
    -3.0531  -2.8395  -2.8206  -2.7248  -2.7129  -2.6784  -2.5474  -2.5068
    -2.4658  -2.4495  -2.4307  -2.4293  -2.4119  -2.4063  -2.3846  -2.3580
    -2.3349  -2.3148  -2.2861  -2.2826  -2.2697  -2.2567  -2.2334  -2.2213
    -2.2049  -2.1743  -2.1484  -2.1324  -2.0651  -1.9929  -1.8331  -1.7947
    -1.7556  -1.7493  -1.7324  -1.7015  -1.6862  -1.6683  -1.6212  -1.5852
    -1.4989  -1.3571  -1.3387  -1.3147  -1.2927  -1.2830  -1.2112  -1.1029
    -1.0839  -1.0127  -1.0042  -0.8979  -0.8898  -0.8046  -0.7964  -0.7857
    -0.7114  -0.6844  -0.6693  -0.5808  -0.5786  -0.5544  -0.5052  -0.4777
    -0.4132  -0.3711  -0.3405  -0.3371  -0.2911  -0.2689  -0.2248  -0.1579
    -0.1049  -0.0688   0.0276   0.1319   0.2325   0.3478   0.4627   0.4769
     0.5591   0.5923   0.6772   0.6928   0.7012   0.7736   0.7784   0.8773
     0.9219   0.9364   0.9769   1.0995   1.7860   1.7874   1.8598   1.8600
     2.7683   3.7322   3.8523   3.8945   3.9122   3.9865   4.0292   4.0487
     4.0510   4.0850   4.1947

     the Fermi energy is     3.5137 ev

!    total energy              =   -2974.00272122 Ry
     estimated scf accuracy    <       0.00000007 Ry
     smearing contrib. (-TS)   =      -0.02182682 Ry
     internal energy E=F+TS    =   -2973.98089440 Ry

     The total energy is F=E-TS. E is the sum of the following terms:
     one-electron contribution =  -23847.93709290 Ry
     hartree contribution      =   12018.37373953 Ry
     xc contribution           =    -494.02625334 Ry
     ewald contribution        =    9349.60721910 Ry
     electric field correction =       0.00149321 Ry

     convergence has been achieved in  68 iterations

     Forces acting on atoms (cartesian axes, Ry/au):

     atom    1 type  1   force =     0.00003481   -0.00024109    0.09648723
     atom    2 type  1   force =     0.00005758   -0.00043902   -0.17543086
     atom    3 type  2   force =     0.00011461   -0.00009397   -0.02475359
     atom    4 type  2   force =     0.00004314   -0.00157747    0.05350025
     atom    5 type  2   force =    -0.01197820   -0.00100198    0.00308524
     atom    6 type  2   force =     0.01372255   -0.00064356    0.00292254
     atom    7 type  1   force =     0.00074711    0.00068849   -0.00681608
     atom    8 type  1   force =     0.00021771    0.00948982    0.02714305
     atom    9 type  2   force =    -0.00014429   -0.00006345   -0.00007597
     atom   10 type  2   force =    -0.00204770    0.00048964   -0.01820816
     atom   11 type  2   force =    -0.00058389    0.00033148    0.00011468
     atom   12 type  2   force =     0.00068509    0.00013468    0.00030671
     atom   13 type  1   force =    -0.00015670   -0.00009470   -0.00014237
     atom   14 type  1   force =    -0.00040214   -0.00015011    0.00025344
     atom   15 type  2   force =     0.00003186   -0.00059790    0.00069155
     atom   16 type  2   force =    -0.00025896   -0.00007243   -0.00036600
     atom   17 type  2   force =    -0.00023645    0.00017431   -0.00031064
     atom   18 type  2   force =    -0.00001162    0.00019551   -0.00029547
     atom   19 type  1   force =    -0.00031158    0.00018123   -0.00001928
     atom   20 type  1   force =    -0.00046623    0.00000226    0.00035984
     atom   21 type  2   force =     0.00008346    0.00001556    0.10324653
     atom   22 type  2   force =     0.00014267    0.00039813    0.00001774
     atom   23 type  2   force =    -0.07145090   -0.00008114   -0.02773135
     atom   24 type  2   force =     0.07140706    0.00037315   -0.02780281
     atom   25 type  1   force =     0.00017935   -0.00033934    0.09616451
     atom   26 type  1   force =     0.00000909   -0.00037578   -0.17575849
     atom   27 type  2   force =     0.00021112   -0.00020869   -0.02375282
     atom   28 type  2   force =     0.00002531   -0.00128236    0.05296795
     atom   29 type  2   force =    -0.01222077    0.00023765    0.00291442
     atom   30 type  2   force =     0.01388463    0.00081845    0.00273203
     atom   31 type  1   force =     0.00041786    0.00343624   -0.00983694
     atom   32 type  1   force =     0.00036405   -0.01131368    0.02755137
     atom   33 type  2   force =     0.00010393    0.00014683   -0.00001650
     atom   34 type  2   force =    -0.00188650   -0.00045571   -0.02415422
     atom   35 type  2   force =     0.00040230    0.00002894   -0.00027366
     atom   36 type  2   force =    -0.00029723   -0.00006818    0.00007348
     atom   37 type  1   force =    -0.00030844   -0.00013688    0.00009673
     atom   38 type  1   force =    -0.00078981    0.00013326   -0.00049842
     atom   39 type  2   force =     0.00008992   -0.00030730   -0.00022482
     atom   40 type  2   force =     0.00020087    0.00034425    0.00045359
     atom   41 type  2   force =     0.00024227    0.00010478   -0.00032876
     atom   42 type  2   force =    -0.00042272   -0.00007127   -0.00034955
     atom   43 type  1   force =     0.00031745    0.00077733    0.00035446
     atom   44 type  1   force =    -0.00010096    0.00106611   -0.00068138
     atom   45 type  2   force =     0.00008474   -0.00002778    0.10323999
     atom   46 type  2   force =    -0.07145345   -0.00003335   -0.02774170
     atom   47 type  2   force =     0.07141074    0.00039092   -0.02780084
     atom   48 type  3   force =     0.00019168    0.00053769   -0.00122815
     atom   49 type  3   force =    -0.00002441   -0.00038201    0.00117609
     atom   50 type  4   force =     0.00329796    0.00322187    0.00043547
     atom   51 type  5   force =     0.00031794   -0.00109162   -0.00032791
     atom   52 type  5   force =     0.00027086    0.00026510   -0.00017470
     atom   53 type  5   force =    -0.00345701   -0.00364043   -0.00003113
     atom   54 type  2   force =     0.00014211    0.00058564   -0.00080044
     atom   55 type  5   force =    -0.00007134   -0.00008372   -0.00002602
     atom   56 type  5   force =    -0.00037053    0.00030560   -0.00032987

     Total force =     0.368037     Total SCF correction =     0.000687
  @ DRIVER MODE: Message from server: STATUS
  @ DRIVER MODE: Message from server: GETFORCE
  @ DRIVER MODE: Returning v,forces,stress,ensemble

     Writing output data file ./calc.save/
  @ DRIVER MODE: Message from server: EXIT
  @ DRIVE MODE: Exiting

     General routines

     Parallel routines

   This run was terminated on:   8:29: 9  10Sep2021

   JOB DONE.