     Program PWSCF v.6.7GPU starts on 24Sep2021 at  6:18:42

     R & G space division:  proc/nbgrp/npool/nimage =       8
     Reading input from /storage/home/hcoda1/3/ntian30/research/carbon/CxH_vib/H2O_calc/ads_slab/CH2NNHHHHO_a/out_0044/pw.inp
Warning: card &CELL ignored
Warning: card   CELL_DYNAMICS='IPI', ignored
Warning: card / ignored

     Current dimensions of program PWSCF are:
     Max number of different atomic species (ntypx) = 10
     Max number of k-points (npk) =  40000
     Max angular momentum in pseudopotentials (lmaxx) =  3
     Presently no symmetry can be used with electric field

     Message from routine cell_base_init:
     DEPRECATED: use true lattice parameter, not A to a.u. conversion factor

     IMPORTANT: XC functional enforced from input :
     Exchange-correlation= BEEF-VDW
                           (   1   4  43  14   2   0   0)
     Any further DFT definition will be discarded
     Please, verify this is what you really want

  @ DRIVER MODE: Connecting to
 qe_1139763_2947316.sched-torque.pace.gatech.eduaaobj3fg_scratch
  using UNIX socket
  @ DRIVER MODE: Message from server: STATUS
  @ DRIVER MODE: Message from server: INIT
  @ DRIVER MODE: Receiving replica           0          -1
  @ DRIVER MODE: Receiving encoded integer          25
  @ DRIVER MODE:  SCF:  T  FORCE:  T  STRESS:  F  VC:  F  ENSEMBLE:  F
  @ DRIVER MODE:  SCF:  T  FORCE:  T  STRESS:  F  VC:  F  ENSEMBLE:  F

     Using Slab Decomposition

     bravais-lattice index     =            0
     lattice parameter (alat)  =       1.8897  a.u.
     unit-cell volume          =    6658.9804 (a.u.)^3
     number of atoms/cell      =           57
     number of atomic types    =            5
     number of electrons       =       404.00
     number of Kohn-Sham states=          212
     kinetic-energy cutoff     =      29.3995  Ry
     charge density cutoff     =     293.9946  Ry
     scf convergence threshold =      7.3E-08
     mixing beta               =       0.0500
     number of iterations used =            8  plain     mixing
     Exchange-correlation= BEEF-VDW
                           (   1   4  43  14   2   0   0)

     celldm(1)=   1.889726  celldm(2)=   0.000000  celldm(3)=   0.000000
     celldm(4)=   0.000000  celldm(5)=   0.000000  celldm(6)=   0.000000

     crystal axes: (cart. coord. in units of alat)
               a(1) = (   6.579727   0.000000   0.000000 )
               a(2) = (  -0.000775   5.961596   0.000000 )
               a(3) = (   0.000000   0.000000  25.155947 )

     reciprocal axes: (cart. coord. in units 2 pi/alat)
               b(1) = (  0.151982  0.000020  0.000000 )
               b(2) = (  0.000000  0.167740  0.000000 )
               b(3) = (  0.000000  0.000000  0.039752 )

     PseudoPot. # 1 for Ti read from file:
     /storage/coda1/p-amedford6/0/shared/rich_project_chbe-medford/medford-share/data/pseudos_module/espresso/nninc/pbe/van/Ti.UPF
     MD5 check sum: 8e4df49b7f0d34bbd5052bf3f5ea0213
     Pseudo is Ultrasoft, Zval = 12.0
     Generated by new atomic code, or converted to UPF format
     Using radial grid of  851 points,  6 beta functions with:
                l(1) =   0
                l(2) =   0
                l(3) =   1
                l(4) =   1
                l(5) =   2
                l(6) =   2
     Q(r) pseudized with  8 coefficients,  rinner =    1.000   1.000   1.000
                                                       1.000   1.000

     PseudoPot. # 2 for O  read from file:
     /storage/coda1/p-amedford6/0/shared/rich_project_chbe-medford/medford-share/data/pseudos_module/espresso/nninc/pbe/van/O.UPF
     MD5 check sum: 78c19812648e8988a0fe644b0f25305e
     Pseudo is Ultrasoft, Zval =  6.0
     Generated by new atomic code, or converted to UPF format
     Using radial grid of  737 points,  4 beta functions with:
                l(1) =   0
                l(2) =   0
                l(3) =   1
                l(4) =   1
     Q(r) pseudized with  8 coefficients,  rinner =    0.800   0.800   0.800

     PseudoPot. # 3 for N  read from file:
     /storage/coda1/p-amedford6/0/shared/rich_project_chbe-medford/medford-share/data/pseudos_module/espresso/nninc/pbe/van/N.UPF
     MD5 check sum: 90d10febe142ad51ac9d5be1deb811c4
     Pseudo is Ultrasoft, Zval =  5.0
     Generated by new atomic code, or converted to UPF format
     Using radial grid of  729 points,  4 beta functions with:
                l(1) =   0
                l(2) =   0
                l(3) =   1
                l(4) =   1
     Q(r) pseudized with  8 coefficients,  rinner =    0.800   0.800   0.800

     PseudoPot. # 4 for C  read from file:
     /storage/coda1/p-amedford6/0/shared/rich_project_chbe-medford/medford-share/data/pseudos_module/espresso/nninc/pbe/van/C.UPF
     MD5 check sum: 1a69bf6b8db32088f5b2163dbdb77a27
     Pseudo is Ultrasoft, Zval =  4.0
     Generated by new atomic code, or converted to UPF format
     Using radial grid of  721 points,  4 beta functions with:
                l(1) =   0
                l(2) =   0
                l(3) =   1
                l(4) =   1
     Q(r) pseudized with  8 coefficients,  rinner =    0.800   0.800   0.800

     PseudoPot. # 5 for H  read from file:
     /storage/coda1/p-amedford6/0/shared/rich_project_chbe-medford/medford-share/data/pseudos_module/espresso/nninc/pbe/van/H.UPF
     MD5 check sum: b5ee9d7bfd3a09ee7748110bda690ff7
     Pseudo is Ultrasoft, Zval =  1.0
     Generated by new atomic code, or converted to UPF format
     Using radial grid of  615 points,  1 beta functions with:
                l(1) =   0
     Q(r) pseudized with  8 coefficients,  rinner =    0.800

     atomic species   valence    mass     pseudopotential
        Ti1           12.00    47.86700     Ti( 1.00)
        O1             6.00    15.99900     O ( 1.00)
        N1             5.00    14.00700     N ( 1.00)
        C1             4.00    12.01100     C ( 1.00)
        H1             1.00     1.00800     H ( 1.00)

     No symmetry found

   Cartesian axes

     site n.     atom                  positions (alat units)
         1           Ti1 tau(   1) = (   0.0004258   2.9801865   6.0000000  )
         2           Ti1 tau(   2) = (   3.2906075   1.4906267   6.0002472  )
         3           O1  tau(   3) = (   0.0006271   0.0005054   7.9858123  )
         4           O1  tau(   4) = (   3.2906025   0.0005020   7.3038282  )
         5           O1  tau(   5) = (   4.5942328   1.4918067   9.2879030  )
         6           O1  tau(   6) = (   1.9868534   1.4903216   9.2879459  )
         7           Ti1 tau(   7) = (   3.2907910   2.8959150   9.1758416  )
         8           Ti1 tau(   8) = (   0.0015273   1.4827037   9.2680791  )
         9           O1  tau(   9) = (   3.3027076   5.9092304  11.3732431  )
        10           O1  tau(  10) = (   0.0116148   5.9584955  10.6183126  )
        11           O1  tau(  11) = (   1.2953868   1.4751764  12.6403503  )
        12           O1  tau(  12) = (   5.3168701   1.4807623  12.6366210  )
        13           Ti1 tau(  13) = (   0.0172323   2.9996225  12.5311828  )
        14           Ti1 tau(  14) = (   3.3257086   1.2755711  12.7138078  )
        15           O1  tau(  15) = (   6.5733368   0.1082846  14.6600873  )
        16           O1  tau(  16) = (   3.3238075   0.0838359  14.0473399  )
        17           O1  tau(  17) = (   4.5575128   1.5393005  16.2317518  )
        18           O1  tau(  18) = (   2.0302387   1.4963625  16.2670071  )
        19           Ti1 tau(  19) = (   3.2366114   2.9448900  15.6849520  )
        20           Ti1 tau(  20) = (   6.5300729   1.3987400  16.1165465  )
        21           O1  tau(  21) = (   3.2904802   0.0005063   4.7018136  )
        22           O1  tau(  22) = (   0.0022030   5.7760056  17.1861099  )
        23           O1  tau(  23) = (   1.3043587   1.4918075   6.0039043  )
        24           O1  tau(  24) = (   5.2767064   1.4903225   6.0039473  )
        25           Ti1 tau(  25) = (   0.0000382   5.9609847   6.0000000  )
        26           Ti1 tau(  26) = (   3.2902200   4.4714249   6.0002472  )
        27           O1  tau(  27) = (   0.0002396   2.9813036   7.9858123  )
        28           O1  tau(  28) = (   3.2902150   2.9813002   7.3038282  )
        29           O1  tau(  29) = (   4.5938453   4.4726049   9.2879030  )
        30           O1  tau(  30) = (   1.9864658   4.4711199   9.2879459  )
        31           Ti1 tau(  31) = (   3.2891106   5.8743827   9.1763621  )
        32           Ti1 tau(  32) = (   0.0006254   4.4649316   9.2693709  )
        33           O1  tau(  33) = (   3.3012885   2.9833904  11.3212188  )
        34           O1  tau(  34) = (   0.0092240   2.9805883  10.6323155  )
        35           O1  tau(  35) = (   1.2895456   4.4501540  12.7025460  )
        36           O1  tau(  36) = (   5.3143371   4.4382646  12.6927937  )
        37           Ti1 tau(  37) = (   0.0343555   0.0433052  12.5107970  )
        38           Ti1 tau(  38) = (   3.3217552   4.3482123  12.4486840  )
        39           O1  tau(  39) = (   0.0141661   2.9064423  14.8877341  )
        40           O1  tau(  40) = (   3.2920978   2.9424077  13.9176102  )
        41           O1  tau(  41) = (   4.5506947   4.3398720  16.1100615  )
        42           O1  tau(  42) = (   2.0210198   4.4131678  16.0160425  )
        43           Ti1 tau(  43) = (   3.3132698   5.9358869  16.2610495  )
        44           Ti1 tau(  44) = (   0.0826266   4.5979890  15.7080129  )
        45           O1  tau(  45) = (   3.2900926   2.9813045   4.7018136  )
        46           O1  tau(  46) = (   1.3039711   4.4726057   6.0039043  )
        47           O1  tau(  47) = (   5.2763189   4.4711207   6.0039473  )
        48           N1  tau(  48) = (   6.5643472   2.7424576  18.0625816  )
        49           C1  tau(  49) = (   0.8744728   2.5686873  19.0232366  )
        50           H1  tau(  50) = (   0.8543601   3.1364980  19.9465443  )
        51           H1  tau(  51) = (   1.6733950   1.8773151  18.8242213  )
        52           N1  tau(  52) = (   5.5366205   3.6779994  18.4753393  )
        53           H1  tau(  53) = (   5.9486539   4.6347284  18.5635686  )
        54           H1  tau(  54) = (   4.8775701   3.8234783  17.6645784  )
        55           H1  tau(  55) = (   5.0540791   3.3775604  19.3232938  )
        56           O1  tau(  56) = (   3.4091604   5.6710612  18.1544331  )
        57           H1  tau(  57) = (   3.1368125   0.4262250  18.7404830  )

     number of k points=    10  Fermi-Dirac smearing, width (Ry)=  0.0073
                       cart. coord. in units 2pi/alat
        k(    1) = (   0.0000000   0.0000000   0.0000000), wk =   0.1250000
        k(    2) = (   0.0000000   0.0419351   0.0000000), wk =   0.2500000
        k(    3) = (   0.0000000  -0.0838702   0.0000000), wk =   0.1250000
        k(    4) = (   0.0379955   0.0000049   0.0000000), wk =   0.2500000
        k(    5) = (   0.0379955   0.0419400   0.0000000), wk =   0.2500000
        k(    6) = (   0.0379955  -0.0838652   0.0000000), wk =   0.2500000
        k(    7) = (   0.0379955  -0.0419301   0.0000000), wk =   0.2500000
        k(    8) = (  -0.0759910  -0.0000099   0.0000000), wk =   0.1250000
        k(    9) = (  -0.0759910   0.0419252   0.0000000), wk =   0.2500000
        k(   10) = (  -0.0759910  -0.0838800   0.0000000), wk =   0.1250000

     Initial potential from superposition of free atoms

     starting charge  387.99913, renormalised to  404.00000

     negative rho (up, down):  1.546E-02 0.000E+00

     %%%%%%%%%%%%%%%%%%%%%%%%%%%%%%%%%%%%%%%%%%%%%%%%%%%%%%%%%%%%%%%%%%%%%%%%
     %                                                                      %
     % You are using vdW-DF, which was implemented by the Thonhauser group. %
     % Please cite the following two papers that made this development      %
     % possible and the two reviews that describe the various versions:     %
     %                                                                      %
     %   T. Thonhauser et al., PRL 115, 136402 (2015).                      %
     %   T. Thonhauser et al., PRB 76, 125112 (2007).                       %
     %   K. Berland et al., Rep. Prog. Phys. 78, 066501 (2015).             %
     %   D.C. Langreth et al., J. Phys.: Condens. Matter 21, 084203 (2009). %
     %                                                                      %
     %                                                                      %
     % If you are calculating the stress with vdW-DF, please also cite:     %
     %                                                                      %
     %   R. Sabatini et al., J. Phys.: Condens. Matter 24, 424209 (2012).   %
     %                                                                      %
     %%%%%%%%%%%%%%%%%%%%%%%%%%%%%%%%%%%%%%%%%%%%%%%%%%%%%%%%%%%%%%%%%%%%%%%%

     Adding external electric field

     Computed dipole along edir(3) :
        Dipole              -13.5862 Ry au,        -34.5326 Debye
        Dipole field         -0.0256 Ry au,

        Potential amp.        2.3767 Ry
        Total length         46.3494 bohr

     Starting wfcs are  306 atomic wfcs
  @ DRIVER MODE: Message from server: STATUS
  @ DRIVER MODE: Message from server: POSDATA
  @ DRIVER MODE: Reading and sharing cell
  @ DRIVER MODE: Reading and sharing positions
  @ DRIVER MODE: Received positions

     Self-consistent Calculation

     iteration #  1     ecut=    29.40 Ry     beta= 0.05
     Davidson diagonalization with overlap
     c_bands:  4 eigenvalues not converged
     c_bands:  1 eigenvalues not converged
     c_bands:  1 eigenvalues not converged
     c_bands:  1 eigenvalues not converged
     c_bands:  3 eigenvalues not converged
     c_bands:  4 eigenvalues not converged
     c_bands:  5 eigenvalues not converged
     c_bands:  2 eigenvalues not converged
     ethr =  1.00E-05,  avg # of iterations = 29.7

[...]

     total energy              =   -2247.83628069 Ry
     estimated scf accuracy    <    8242.59177644 Ry

     iteration #  2     ecut=    29.40 Ry     beta= 0.05
     Davidson diagonalization with overlap
     ethr =  1.00E-02,  avg # of iterations = 24.7

[...]

     iteration # 44     ecut=    29.40 Ry     beta= 0.05
     Davidson diagonalization with overlap
     c_bands:  1 eigenvalues not converged
     ethr =  6.34E-07,  avg # of iterations = 16.4

[...]

     total energy              =   -2975.12439505 Ry
     estimated scf accuracy    <       0.00000008 Ry

     iteration # 68     ecut=    29.40 Ry     beta= 0.05
     Davidson diagonalization with overlap
     ethr =  2.03E-11,  avg # of iterations = 12.9

     negative rho (up, down):  1.381E-02 0.000E+00

     Adding external electric field

     Computed dipole along edir(3) :
        Dipole                1.3740 Ry au,          3.4923 Debye
        Dipole field          0.0026 Ry au,

        Potential amp.       -0.2404 Ry
        Total length         46.3494 bohr

     End of self-consistent calculation

          k = 0.0000 0.0000 0.0000 ( 18029 PWs)   bands (ev):

   -55.3849 -55.2448 -55.2108 -55.1195 -55.0843 -55.0786 -55.0740 -55.0400
   -55.0339 -54.9857 -54.9578 -54.9218 -54.8695 -54.7402 -54.2252 -54.1912
   -31.7303 -31.7140 -31.6116 -31.6044 -31.5834 -31.5759 -31.5357 -31.5276
   -31.5176 -31.4907 -31.4476 -31.4436 -31.3973 -31.3697 -31.3682 -31.3579
   -31.3522 -31.3111 -31.3022 -31.3006 -31.2835 -31.2725 -31.2682 -31.2630
   -31.2612 -31.2222 -31.2183 -31.2177 -31.2140 -31.2014 -31.1923 -31.1867
   -31.1797 -31.1466 -31.1399 -31.1092 -31.1012 -31.0853 -31.0794 -31.0754
   -31.0016 -30.9078 -30.6316 -30.5443 -30.5219 -30.4490 -30.3625 -30.2509
   -19.2011 -16.3131 -15.9238 -15.7677 -15.5868 -15.4479 -15.4074 -15.1840
   -15.1283 -15.0415 -15.0220 -14.9036 -14.7867 -14.7860 -14.7654 -14.7585
   -14.7432 -14.6978 -14.6926 -14.6903 -14.6708 -14.6493 -14.6286 -14.6187
   -14.5811 -14.5398 -14.3889 -14.3717 -14.3497 -14.3058 -14.1691 -14.0020
   -12.7242 -12.6077  -9.1963  -7.7201  -6.8966  -6.1357  -4.3101  -3.6081
    -3.2721  -3.1746  -3.1517  -3.1419  -3.0084  -2.8381  -2.6429  -2.5812
    -2.5186  -2.4038  -2.3753  -2.2794  -2.2573  -2.2167  -2.1607  -2.1380
    -2.1099  -2.0559  -2.0425  -2.0343  -1.9441  -1.9244  -1.8225  -1.8009
    -1.7678  -1.7095  -1.6831  -1.6161  -1.5842  -1.5616  -1.5598  -1.5517
    -1.5287  -1.5149  -1.4928  -1.4404  -1.4095  -1.3465  -1.2817  -1.2054
    -1.1321  -0.9087  -0.8619  -0.8435  -0.7888  -0.7502  -0.6874  -0.6636
    -0.6429  -0.6307  -0.5620  -0.4515  -0.4034  -0.3629  -0.3075  -0.2830
    -0.2524  -0.1455  -0.0688  -0.0504  -0.0050   0.0346   0.0600   0.1252
     0.1605   0.2021   0.2706   0.2841   0.3616   0.4010   0.4245   0.4716
     0.5111   0.5749   0.6199   0.6694   0.6765   0.7059   0.7238   0.7551
     0.8409   0.8581   0.8998   0.9335   0.9944   1.0487   1.0735   1.2472
     1.3718   1.4072   1.4762   1.7433   1.8010   1.8168   1.9917   2.3692
     2.4148   3.8414   3.9817   3.9922   4.0003   4.0692   4.1226   4.1451
     4.3274   4.3669   4.4850   4.5275

[...]

          k = 0.0380-0.0419 0.0000 ( 17876 PWs)   bands (ev):

[...]

          k =-0.0760-0.0000 0.0000 ( 17886 PWs)   bands (ev):

[...]

          k =-0.0760-0.0839 0.0000 ( 17948 PWs)   bands (ev):

   -55.3841 -55.2279 -55.2276 -55.1050 -55.0987 -55.0792 -55.0572 -55.0564
   -55.0271 -54.9926 -54.9566 -54.9160 -54.8751 -54.7414 -54.2085 -54.2078
   -31.6535 -31.5949 -31.5864 -31.5458 -31.5455 -31.5214 -31.5209 -31.5008
   -31.4391 -31.4138 -31.3925 -31.3803 -31.3775 -31.3734 -31.3659 -31.3478
   -31.3471 -31.3431 -31.3405 -31.3298 -31.3263 -31.3078 -31.3004 -31.2796
   -31.2663 -31.2590 -31.2528 -31.2432 -31.2342 -31.2323 -31.2292 -31.2218
   -31.2139 -31.2087 -31.1821 -31.1448 -31.1190 -31.1055 -31.0926 -31.0818
   -31.0033 -30.9800 -30.5349 -30.5344 -30.4450 -30.4439 -30.4061 -30.4055
   -19.1974 -16.2999 -15.4556 -15.4079 -15.2213 -15.2179 -15.1927 -15.1295
   -15.0911 -15.0395 -15.0228 -14.9871 -14.9487 -14.9321 -14.9073 -14.8358
   -14.7922 -14.7659 -14.7545 -14.7183 -14.7022 -14.7016 -14.6699 -14.6475
   -14.6374 -14.5712 -14.5588 -14.4954 -14.4357 -14.4109 -14.2822 -14.2418
   -12.7097 -12.7092  -9.1842  -7.7312  -6.8820  -6.1444  -4.3404  -3.5966
    -2.6454  -2.6410  -2.4426  -2.4099  -2.3441  -2.2739  -2.2398  -2.2199
    -2.1727  -2.1658  -2.1263  -2.1039  -2.0673  -2.0391  -2.0317  -2.0140
    -1.9974  -1.9749  -1.9529  -1.9356  -1.9298  -1.9004  -1.8792  -1.8688
    -1.8262  -1.8190  -1.7942  -1.7761  -1.7417  -1.6787  -1.6174  -1.4983
    -1.4591  -1.4312  -1.4103  -1.3958  -1.3677  -1.3316  -1.3159  -1.3026
    -1.2725  -1.2594  -1.1514  -1.0029  -0.9913  -0.8966  -0.8624  -0.8574
    -0.7516  -0.7193  -0.6858  -0.6603  -0.6086  -0.5670  -0.4663  -0.4548
    -0.4131  -0.3451  -0.2483  -0.2383  -0.2226  -0.1937  -0.1704  -0.1639
    -0.1058  -0.0677  -0.0314   0.0204   0.0406   0.0630   0.0949   0.1885
     0.2188   0.3322   0.4557   0.4933   0.5185   0.5493   0.6830   0.7370
     0.7818   0.8558   0.9191   0.9390   1.0423   1.0607   1.0922   1.1469
     1.2178   1.2677   1.2838   1.3119   1.3248   2.1619   2.1700   2.2350
     2.2353   3.7987   4.0044   4.2556   4.3291   4.3505   4.3799   4.4020
     4.4343   4.4604   4.5036   4.5188

     the Fermi energy is     3.8771 ev

!    total energy              =   -2975.12442032 Ry
     estimated scf accuracy    <       0.00000006 Ry
     smearing contrib. (-TS)   =      -0.03102731 Ry
     internal energy E=F+TS    =   -2975.09339301 Ry

     The total energy is F=E-TS. E is the sum of the following terms:
     one-electron contribution =  -23510.34730880 Ry
     hartree contribution      =   11853.48623066 Ry
     xc contribution           =    -494.86209109 Ry
     ewald contribution        =    9176.62621377 Ry
     electric field correction =       0.00356245 Ry

     convergence has been achieved in  68 iterations

     Forces acting on atoms (cartesian axes, Ry/au):

     atom    1 type  1   force =     0.00014046   -0.00020997    0.09452900
     atom    2 type  1   force =    -0.00007555    0.00040281   -0.17562973
     atom    3 type  2   force =     0.00003409   -0.00002729   -0.02144154
     atom    4 type  2   force =     0.00000388   -0.00223541    0.05509229
     atom    5 type  2   force =    -0.00783983   -0.00313453    0.00367090
     atom    6 type  2   force =     0.00956132   -0.00256148    0.00356195
     atom    7 type  1   force =     0.00003018   -0.00298344    0.00577217
     atom    8 type  1   force =    -0.00023106    0.00256737    0.00564727
     atom    9 type  2   force =    -0.00035276   -0.00027285    0.00001241
     atom   10 type  2   force =    -0.00116222   -0.00256955   -0.00859981
     atom   11 type  2   force =    -0.00070759   -0.00069386   -0.00016630
     atom   12 type  2   force =     0.00030590   -0.00070132   -0.00008167
     atom   13 type  1   force =     0.00008844    0.00005887    0.00043158
     atom   14 type  1   force =    -0.00015347   -0.00033899    0.00014538
     atom   15 type  2   force =     0.00012869   -0.00042176    0.00003325
     atom   16 type  2   force =     0.00006190   -0.00074230   -0.00026919
     atom   17 type  2   force =     0.00009974    0.00032192   -0.00028062
     atom   18 type  2   force =    -0.00045432    0.00031975   -0.00042370
     atom   19 type  1   force =     0.00028676    0.00026423   -0.00008396
     atom   20 type  1   force =     0.00020974   -0.00043214   -0.00005470
     atom   21 type  2   force =     0.00005499    0.00002665    0.10334382
     atom   22 type  2   force =    -0.00002191    0.00079524   -0.00065585
     atom   23 type  2   force =    -0.07179222   -0.00019573   -0.02725435
     atom   24 type  2   force =     0.07162711    0.00024590   -0.02731786
     atom   25 type  1   force =     0.00006415   -0.00034106    0.09392544
     atom   26 type  1   force =    -0.00016727   -0.00123574   -0.17590832
     atom   27 type  2   force =     0.00013733   -0.00024185   -0.02016746
     atom   28 type  2   force =     0.00003590   -0.00056171    0.05061593
     atom   29 type  2   force =    -0.00679207    0.00148003    0.00203319
     atom   30 type  2   force =     0.00848799    0.00183563    0.00194800
     atom   31 type  1   force =     0.00014987    0.00700953   -0.00368636
     atom   32 type  1   force =    -0.00028078   -0.00257740    0.00511216
     atom   33 type  2   force =    -0.00000565    0.00032005   -0.00013462
     atom   34 type  2   force =    -0.00012135    0.00279359   -0.00832588
     atom   35 type  2   force =     0.00025694    0.00066951   -0.00031654
     atom   36 type  2   force =    -0.00101536    0.00054560   -0.00046176
     atom   37 type  1   force =     0.00013512   -0.00044652    0.00013271
     atom   38 type  1   force =    -0.00015856   -0.00009732   -0.00009826
     atom   39 type  2   force =    -0.00009877    0.00000466    0.00014075
     atom   40 type  2   force =    -0.00046945    0.00014070   -0.00003656
     atom   41 type  2   force =     0.00009391    0.00023511   -0.00009653
     atom   42 type  2   force =     0.00041951    0.00027398    0.00026383
     atom   43 type  1   force =     0.00026004    0.00068221    0.00004382
     atom   44 type  1   force =    -0.00004611   -0.00035812   -0.00008150
     atom   45 type  2   force =     0.00001631   -0.00011031    0.10310833
     atom   46 type  2   force =    -0.07185692   -0.00004492   -0.02731060
     atom   47 type  2   force =     0.07169507    0.00034986   -0.02734974
     atom   48 type  3   force =     0.00093656    0.00007377   -0.00167451
     atom   49 type  4   force =     0.00025070    0.00009930   -0.00022830
     atom   50 type  5   force =     0.00030017   -0.00034148   -0.00065830
     atom   51 type  5   force =    -0.00123065    0.00027070   -0.00031832
     atom   52 type  3   force =     0.00455186    0.00184993   -0.00517504
     atom   53 type  5   force =    -0.00047365    0.00062524   -0.00094884
     atom   54 type  5   force =    -0.00033963    0.00004692    0.00121590
     atom   55 type  5   force =    -0.00433446   -0.00153948    0.00522483
     atom   56 type  2   force =     0.00042366    0.00138467    0.00026839
     atom   57 type  5   force =    -0.00066667   -0.00027722   -0.00103657

     Total force =     0.362884     Total SCF correction =     0.001172
  @ DRIVER MODE: Message from server: STATUS
  @ DRIVER MODE: Message from server: GETFORCE
  @ DRIVER MODE: Returning v,forces,stress,ensemble

     Writing output data file ./calc.save/
  @ DRIVER MODE: Message from server: EXIT
  @ DRIVE MODE: Exiting

     General routines

     Parallel routines

   This run was terminated on:   6:43:28  24Sep2021

   JOB DONE.