     Program PWSCF v.6.7GPU starts on 16Sep2021 at  0:30:51

     R & G space division:  proc/nbgrp/npool/nimage =      10
     Reading input from /storage/home/hcoda1/3/ntian30/research/carbon/CxH_vib/H2O_calc/ads_slab/CH2NNHHHH2O_a/out_0025/pw.inp
Warning: card &CELL ignored
Warning: card   CELL_DYNAMICS='IPI', ignored
Warning: card / ignored

     Current dimensions of program PWSCF are:
     Max number of different atomic species (ntypx) = 10
     Max number of k-points (npk) =  40000
     Max angular momentum in pseudopotentials (lmaxx) =  3
     Presently no symmetry can be used with electric field

     Message from routine cell_base_init:
     DEPRECATED: use true lattice parameter, not A to a.u. conversion factor

     IMPORTANT: XC functional enforced from input :
     Exchange-correlation= BEEF-VDW
                           (   1   4  43  14   2   0   0)
     Any further DFT definition will be discarded
     Please, verify this is what you really want

  @ DRIVER MODE: Connecting to
 qe_1139763_2852612.sched-torque.pace.gatech.eduzqdfv4si_scratch
  using UNIX socket
  @ DRIVER MODE: Message from server: STATUS
  @ DRIVER MODE: Message from server: INIT
  @ DRIVER MODE: Receiving replica           0          -1
  @ DRIVER MODE: Receiving encoded integer          25
  @ DRIVER MODE:  SCF:  T  FORCE:  T  STRESS:  F  VC:  F  ENSEMBLE:  F
  @ DRIVER MODE:  SCF:  T  FORCE:  T  STRESS:  F  VC:  F  ENSEMBLE:  F

     Using Slab Decomposition

     bravais-lattice index     =            0
     lattice parameter (alat)  =       1.8897  a.u.
     unit-cell volume          =    6658.9804 (a.u.)^3
     number of atoms/cell      =           58
     number of atomic types    =            5
     number of electrons       =       405.00
     number of Kohn-Sham states=          212
     kinetic-energy cutoff     =      29.3995  Ry
     charge density cutoff     =     293.9946  Ry
     scf convergence threshold =      7.3E-08
     mixing beta               =       0.0500
     number of iterations used =            8  plain     mixing
     Exchange-correlation= BEEF-VDW
                           (   1   4  43  14   2   0   0)

     celldm(1)=   1.889726  celldm(2)=   0.000000  celldm(3)=   0.000000
     celldm(4)=   0.000000  celldm(5)=   0.000000  celldm(6)=   0.000000

     crystal axes: (cart. coord. in units of alat)
               a(1) = (   6.579727   0.000000   0.000000 )
               a(2) = (  -0.000775   5.961596   0.000000 )
               a(3) = (   0.000000   0.000000  25.155947 )

     reciprocal axes: (cart. coord. in units 2 pi/alat)
               b(1) = (  0.151982  0.000020  0.000000 )
               b(2) = (  0.000000  0.167740  0.000000 )
               b(3) = (  0.000000  0.000000  0.039752 )

     PseudoPot. # 1 for Ti read from file:
     /storage/coda1/p-amedford6/0/shared/rich_project_chbe-medford/medford-share/data/pseudos_module/espresso/nninc/pbe/van/Ti.UPF
     MD5 check sum: 8e4df49b7f0d34bbd5052bf3f5ea0213
     Pseudo is Ultrasoft, Zval = 12.0
     Generated by new atomic code, or converted to UPF format
     Using radial grid of  851 points,  6 beta functions with:
                l(1) =   0
                l(2) =   0
                l(3) =   1
                l(4) =   1
                l(5) =   2
                l(6) =   2
     Q(r) pseudized with  8 coefficients,  rinner =    1.000   1.000   1.000
                                                       1.000   1.000

     PseudoPot. # 2 for O  read from file:
     /storage/coda1/p-amedford6/0/shared/rich_project_chbe-medford/medford-share/data/pseudos_module/espresso/nninc/pbe/van/O.UPF
     MD5 check sum: 78c19812648e8988a0fe644b0f25305e
     Pseudo is Ultrasoft, Zval =  6.0
     Generated by new atomic code, or converted to UPF format
     Using radial grid of  737 points,  4 beta functions with:
                l(1) =   0
                l(2) =   0
                l(3) =   1
                l(4) =   1
     Q(r) pseudized with  8 coefficients,  rinner =    0.800   0.800   0.800

     PseudoPot. # 3 for N  read from file:
     /storage/coda1/p-amedford6/0/shared/rich_project_chbe-medford/medford-share/data/pseudos_module/espresso/nninc/pbe/van/N.UPF
     MD5 check sum: 90d10febe142ad51ac9d5be1deb811c4
     Pseudo is Ultrasoft, Zval =  5.0
     Generated by new atomic code, or converted to UPF format
     Using radial grid of  729 points,  4 beta functions with:
                l(1) =   0
                l(2) =   0
                l(3) =   1
                l(4) =   1
     Q(r) pseudized with  8 coefficients,  rinner =    0.800   0.800   0.800

     PseudoPot. # 4 for C  read from file:
     /storage/coda1/p-amedford6/0/shared/rich_project_chbe-medford/medford-share/data/pseudos_module/espresso/nninc/pbe/van/C.UPF
     MD5 check sum: 1a69bf6b8db32088f5b2163dbdb77a27
     Pseudo is Ultrasoft, Zval =  4.0
     Generated by new atomic code, or converted to UPF format
     Using radial grid of  721 points,  4 beta functions with:
                l(1) =   0
                l(2) =   0
                l(3) =   1
                l(4) =   1
     Q(r) pseudized with  8 coefficients,  rinner =    0.800   0.800   0.800

     PseudoPot. # 5 for H  read from file:
     /storage/coda1/p-amedford6/0/shared/rich_project_chbe-medford/medford-share/data/pseudos_module/espresso/nninc/pbe/van/H.UPF
     MD5 check sum: b5ee9d7bfd3a09ee7748110bda690ff7
     Pseudo is Ultrasoft, Zval =  1.0
     Generated by new atomic code, or converted to UPF format
     Using radial grid of  615 points,  1 beta functions with:
                l(1) =   0
     Q(r) pseudized with  8 coefficients,  rinner =    0.800

     atomic species   valence    mass     pseudopotential
        Ti1           12.00    47.86700     Ti( 1.00)
        O1             6.00    15.99900     O ( 1.00)
        N1             5.00    14.00700     N ( 1.00)
        C1             4.00    12.01100     C ( 1.00)
        H1             1.00     1.00800     H ( 1.00)

     No symmetry found

   Cartesian axes

     site n.     atom                  positions (alat units)
         1           Ti1 tau(   1) = (   0.0004258   2.9801865   6.0000000  )
         2           Ti1 tau(   2) = (   3.2906075   1.4906267   6.0002472  )
         3           O1  tau(   3) = (   0.0006271   0.0005054   7.9858123  )
         4           O1  tau(   4) = (   3.2906025   0.0005020   7.3038282  )
         5           O1  tau(   5) = (   4.5942328   1.4918067   9.2879030  )
         6           O1  tau(   6) = (   1.9868534   1.4903216   9.2879459  )
         7           Ti1 tau(   7) = (   3.2907910   2.8959150   9.1758416  )
         8           Ti1 tau(   8) = (   0.0015273   1.4827037   9.2680791  )
         9           O1  tau(   9) = (   3.2987819   5.9401718  11.3551833  )
        10           O1  tau(  10) = (   0.0116148   5.9584955  10.6183126  )
        11           O1  tau(  11) = (   1.3094369   1.4889762  12.6418845  )
        12           O1  tau(  12) = (   5.3041503   1.4933078  12.6143371  )
        13           Ti1 tau(  13) = (   0.0302489   2.9730182  12.5448133  )
        14           Ti1 tau(  14) = (   3.3273137   1.4751619  12.4920661  )
        15           O1  tau(  15) = (   6.5331299   0.0759724  14.6728253  )
        16           O1  tau(  16) = (   3.3443954   0.0128112  13.9985917  )
        17           O1  tau(  17) = (   4.5384157   1.5150964  16.2525342  )
        18           O1  tau(  18) = (   2.0107438   1.5096167  16.1239609  )
        19           Ti1 tau(  19) = (   3.2468703   2.9375149  15.6823127  )
        20           Ti1 tau(  20) = (   6.5402329   1.3810098  16.1103674  )
        21           O1  tau(  21) = (   3.2904802   0.0005063   4.7018136  )
        22           O1  tau(  22) = (   0.0855018   5.8309792  17.2460454  )
        23           O1  tau(  23) = (   1.3043587   1.4918075   6.0039043  )
        24           O1  tau(  24) = (   5.2767064   1.4903225   6.0039473  )
        25           Ti1 tau(  25) = (   0.0000382   5.9609847   6.0000000  )
        26           Ti1 tau(  26) = (   3.2902200   4.4714249   6.0002472  )
        27           O1  tau(  27) = (   0.0002396   2.9813036   7.9858123  )
        28           O1  tau(  28) = (   3.2902150   2.9813002   7.3038282  )
        29           O1  tau(  29) = (   4.5938453   4.4726049   9.2879030  )
        30           O1  tau(  30) = (   1.9864658   4.4711199   9.2879459  )
        31           Ti1 tau(  31) = (   3.2891106   5.8743827   9.1763621  )
        32           Ti1 tau(  32) = (   0.0006254   4.4649316   9.2693709  )
        33           O1  tau(  33) = (   3.2978634   2.9839445  11.3486163  )
        34           O1  tau(  34) = (   0.0092240   2.9805883  10.6323155  )
        35           O1  tau(  35) = (   1.3057425   4.4725738  12.6940039  )
        36           O1  tau(  36) = (   5.3035974   4.4670288  12.6562451  )
        37           Ti1 tau(  37) = (   0.0240142   0.0094741  12.5095027  )
        38           Ti1 tau(  38) = (   3.3290383   4.4615466  12.5202027  )
        39           O1  tau(  39) = (   6.5484913   2.9337383  14.8377676  )
        40           O1  tau(  40) = (   3.3243726   2.9440003  13.9069550  )
        41           O1  tau(  41) = (   4.5478640   4.3999133  16.1372545  )
        42           O1  tau(  42) = (   2.0209518   4.4226222  15.9786897  )
        43           Ti1 tau(  43) = (   3.3220059   5.9437776  15.8132296  )
        44           Ti1 tau(  44) = (   0.0730556   4.5544523  15.7304118  )
        45           O1  tau(  45) = (   3.2900926   2.9813045   4.7018136  )
        46           O1  tau(  46) = (   1.3039711   4.4726057   6.0039043  )
        47           O1  tau(  47) = (   5.2763189   4.4711207   6.0039473  )
        48           N1  tau(  48) = (   0.0453545   2.8788619  17.9090770  )
        49           C1  tau(  49) = (   1.0089482   2.8008358  18.8431878  )
        50           H1  tau(  50) = (   1.0080222   3.4413729  19.7168629  )
        51           H1  tau(  51) = (   1.8954070   2.2543435  18.5800802  )
        52           N1  tau(  52) = (   5.5220326   3.6725468  18.4365114  )
        53           H1  tau(  53) = (   5.8975581   4.6271042  18.6377988  )
        54           H1  tau(  54) = (   4.8553295   3.8628436  17.6443034  )
        55           H1  tau(  55) = (   5.1025442   3.2364756  19.2632064  )
        56           O1  tau(  56) = (   2.8928424   5.6518753  18.2681889  )
        57           H1  tau(  57) = (   3.0708471   0.5134993  18.7460362  )
        58           H1  tau(  58) = (   1.9180978   5.6479514  18.1114729  )

     number of k points=    10  Fermi-Dirac smearing, width (Ry)=  0.0073
                       cart. coord. in units 2pi/alat
        k(    1) = (   0.0000000   0.0000000   0.0000000), wk =   0.1250000
        k(    2) = (   0.0000000   0.0419351   0.0000000), wk =   0.2500000
        k(    3) = (   0.0000000  -0.0838702   0.0000000), wk =   0.1250000
        k(    4) = (   0.0379955   0.0000049   0.0000000), wk =   0.2500000
        k(    5) = (   0.0379955   0.0419400   0.0000000), wk =   0.2500000
        k(    6) = (   0.0379955  -0.0838652   0.0000000), wk =   0.2500000
        k(    7) = (   0.0379955  -0.0419301   0.0000000), wk =   0.2500000
        k(    8) = (  -0.0759910  -0.0000099   0.0000000), wk =   0.1250000
        k(    9) = (  -0.0759910   0.0419252   0.0000000), wk =   0.2500000
        k(   10) = (  -0.0759910  -0.0838800   0.0000000), wk =   0.1250000

     Initial potential from superposition of free atoms

     starting charge  388.99913, renormalised to  405.00000

     negative rho (up, down):  1.580E-02 0.000E+00

     %%%%%%%%%%%%%%%%%%%%%%%%%%%%%%%%%%%%%%%%%%%%%%%%%%%%%%%%%%%%%%%%%%%%%%%%
     %                                                                      %
     % You are using vdW-DF, which was implemented by the Thonhauser group. %
     % Please cite the following two papers that made this development      %
     % possible and the two reviews that describe the various versions:     %
     %                                                                      %
     %   T. Thonhauser et al., PRL 115, 136402 (2015).                      %
     %   T. Thonhauser et al., PRB 76, 125112 (2007).                       %
     %   K. Berland et al., Rep. Prog. Phys. 78, 066501 (2015).             %
     %   D.C. Langreth et al., J. Phys.: Condens. Matter 21, 084203 (2009). %
     %                                                                      %
     %                                                                      %
     % If you are calculating the stress with vdW-DF, please also cite:     %
     %                                                                      %
     %   R. Sabatini et al., J. Phys.: Condens. Matter 24, 424209 (2012).   %
     %                                                                      %
     %%%%%%%%%%%%%%%%%%%%%%%%%%%%%%%%%%%%%%%%%%%%%%%%%%%%%%%%%%%%%%%%%%%%%%%%

     Adding external electric field

     Computed dipole along edir(3) :
        Dipole              -14.4816 Ry au,        -36.8086 Debye
        Dipole field         -0.0273 Ry au,

        Potential amp.        2.5333 Ry
        Total length         46.3494 bohr

     Starting wfcs are  307 atomic wfcs
  @ DRIVER MODE: Message from server: STATUS
  @ DRIVER MODE: Message from server: POSDATA
  @ DRIVER MODE: Reading and sharing cell
  @ DRIVER MODE: Reading and sharing positions
  @ DRIVER MODE: Received positions

     Self-consistent Calculation

     iteration #  1     ecut=    29.40 Ry     beta= 0.05
     Davidson diagonalization with overlap
     c_bands:  2 eigenvalues not converged
     c_bands:  5 eigenvalues not converged
     c_bands:  1 eigenvalues not converged
     c_bands:  2 eigenvalues not converged
     c_bands:  3 eigenvalues not converged
     c_bands:  4 eigenvalues not converged
     ethr =  1.00E-05,  avg # of iterations = 27.0

[...]

     total energy              =   -2173.29472616 Ry
     estimated scf accuracy    <    9121.03419536 Ry

     iteration #  2     ecut=    29.40 Ry     beta= 0.05
     Davidson diagonalization with overlap
     ethr =  1.00E-02,  avg # of iterations = 27.6

[...]

     iteration # 68     ecut=    29.40 Ry     beta= 0.05
     Davidson diagonalization with overlap
     ethr =  4.04E-11,  avg # of iterations =  7.5

[...]

     total energy              =   -2976.32700468 Ry
     estimated scf accuracy    <       0.00000012 Ry

     iteration # 69     ecut=    29.40 Ry     beta= 0.05
     Davidson diagonalization with overlap
     c_bands:  1 eigenvalues not converged
     ethr =  2.92E-11,  avg # of iterations = 11.7

     negative rho (up, down):  1.314E-02 0.000E+00

     Adding external electric field

     Computed dipole along edir(3) :
        Dipole                1.3431 Ry au,          3.4138 Debye
        Dipole field          0.0025 Ry au,

        Potential amp.       -0.2350 Ry
        Total length         46.3494 bohr

     End of self-consistent calculation

          k = 0.0000 0.0000 0.0000 ( 18029 PWs)   bands (ev):

   -55.1692 -55.1400 -55.1282 -55.1059 -55.0898 -55.0463 -55.0053 -54.9790
   -54.9682 -54.9527 -54.9435 -54.9354 -54.8689 -54.7216 -54.1520 -54.1180
   -31.7358 -31.6297 -31.5337 -31.5001 -31.4788 -31.4713 -31.4681 -31.4298
   -31.4068 -31.3850 -31.3789 -31.3766 -31.3640 -31.3435 -31.3170 -31.3141
   -31.3041 -31.2927 -31.2867 -31.2822 -31.2513 -31.2339 -31.2275 -31.2082
   -31.1969 -31.1791 -31.1771 -31.1766 -31.1673 -31.1649 -31.1481 -31.1392
   -31.1291 -31.1276 -31.1057 -31.0984 -31.0943 -31.0766 -31.0499 -31.0136
   -30.9984 -30.8676 -30.5605 -30.4686 -30.4464 -30.3771 -30.2904 -30.1793
   -19.0508 -18.8002 -16.0058 -15.7479 -15.6207 -15.4435 -15.3639 -15.2100
   -15.1399 -15.0574 -15.0297 -14.9659 -14.9276 -14.8967 -14.7838 -14.7765
   -14.7038 -14.7033 -14.6950 -14.6622 -14.6587 -14.6551 -14.5985 -14.5958
   -14.5565 -14.5453 -14.5328 -14.3907 -14.3159 -14.2590 -14.1000 -13.9814
   -12.6545 -12.5374  -8.9803  -7.7165  -6.9559  -6.5511  -5.7466  -3.8196
    -3.3440  -3.2109  -3.1728  -3.1143  -3.0695  -2.9901  -2.8922  -2.7705
    -2.5521  -2.4751  -2.4349  -2.3859  -2.3776  -2.3307  -2.2432  -2.1581
    -2.1256  -2.0898  -2.0411  -2.0254  -1.9843  -1.9580  -1.9388  -1.8971
    -1.8885  -1.7416  -1.6833  -1.6256  -1.5780  -1.5585  -1.5550  -1.4988
    -1.4851  -1.4637  -1.4609  -1.4505  -1.4206  -1.3825  -1.3790  -1.3253
    -1.2886  -1.1617  -1.0874  -0.9739  -0.9128  -0.8815  -0.7980  -0.7290
    -0.7130  -0.6408  -0.5764  -0.5573  -0.4997  -0.4620  -0.3719  -0.3380
    -0.2892  -0.2621  -0.1536  -0.1410  -0.1249  -0.0545   0.0353   0.0438
     0.0681   0.1135   0.1980   0.2328   0.2864   0.3129   0.4127   0.4439
     0.4859   0.5033   0.5295   0.6104   0.6817   0.7184   0.7792   0.7886
     0.8234   0.8284   0.8514   0.9457   0.9765   0.9813   1.0294   1.1962
     1.2532   1.4525   1.4547   1.7847   1.8206   1.8708   2.0571   2.4446
     2.4919   3.9298   3.9961   4.0449   4.0616   4.0800   4.1379   4.1726
     4.4003   4.4233   4.4374   4.4503

[...]

          k = 0.0380-0.0419 0.0000 ( 17876 PWs)   bands (ev):

[...]

          k =-0.0760-0.0000 0.0000 ( 17886 PWs)   bands (ev):

[...]

          k =-0.0760-0.0839 0.0000 ( 17948 PWs)   bands (ev):

   -55.1585 -55.1387 -55.1229 -55.1228 -55.0876 -55.0370 -55.0145 -54.9635
   -54.9577 -54.9547 -54.9533 -54.9513 -54.8672 -54.7233 -54.1349 -54.1349
   -31.5469 -31.5320 -31.4449 -31.4448 -31.4447 -31.4350 -31.4153 -31.4151
   -31.3806 -31.3752 -31.3656 -31.3639 -31.3337 -31.3052 -31.2982 -31.2959
   -31.2935 -31.2898 -31.2873 -31.2826 -31.2731 -31.2595 -31.2456 -31.2422
   -31.2421 -31.2399 -31.2373 -31.2113 -31.1967 -31.1886 -31.1778 -31.1733
   -31.1727 -31.1722 -31.1530 -31.1520 -31.1332 -31.1306 -31.0678 -31.0060
   -31.0023 -30.9414 -30.4591 -30.4590 -30.3731 -30.3730 -30.3338 -30.3338
   -19.0425 -18.8040 -15.5078 -15.3712 -15.3328 -15.2419 -15.1609 -15.1449
   -15.1371 -15.1025 -15.0506 -14.9911 -14.9461 -14.9114 -14.8707 -14.8692
   -14.8564 -14.7558 -14.7448 -14.7372 -14.7203 -14.6723 -14.6625 -14.6458
   -14.6206 -14.6189 -14.5936 -14.5132 -14.5122 -14.4133 -14.3093 -14.0551
   -12.6390 -12.6389  -8.9673  -7.7326  -6.9130  -6.5400  -5.7612  -3.9011
    -3.0101  -2.7658  -2.5710  -2.5429  -2.4238  -2.3725  -2.3262  -2.3054
    -2.2187  -2.1782  -2.1614  -2.1559  -2.1357  -2.0803  -2.0574  -2.0184
    -1.9987  -1.9845  -1.9764  -1.9513  -1.9468  -1.9159  -1.8992  -1.8802
    -1.8744  -1.8379  -1.7992  -1.7880  -1.7504  -1.7305  -1.7215  -1.6641
    -1.5647  -1.5306  -1.4877  -1.4217  -1.3590  -1.3553  -1.2878  -1.2655
    -1.2472  -1.2290  -1.1932  -1.1809  -1.0702  -1.0103  -0.9071  -0.8945
    -0.8885  -0.7842  -0.7490  -0.7079  -0.6779  -0.6401  -0.5848  -0.5061
    -0.5002  -0.4243  -0.3865  -0.3746  -0.3560  -0.2167  -0.1849  -0.1515
    -0.1275  -0.1230  -0.0695  -0.0258   0.0045   0.0419   0.0689   0.1017
     0.1179   0.1940   0.3302   0.3629   0.4050   0.5373   0.5650   0.6805
     0.7055   0.8258   0.8995   0.9442   0.9642   1.0420   1.1189   1.1407
     1.1465   1.2573   1.3080   1.3101   1.3276   2.2295   2.2310   2.3119
     2.3121   3.7831   4.0754   4.2008   4.2175   4.2583   4.3821   4.4473
     4.4827   4.5049   4.5078   4.5927

     the Fermi energy is     3.9787 ev

!    total energy              =   -2976.32703758 Ry
     estimated scf accuracy    <       0.00000005 Ry
     smearing contrib. (-TS)   =      -0.04068220 Ry
     internal energy E=F+TS    =   -2976.28635538 Ry

     The total energy is F=E-TS. E is the sum of the following terms:
     one-electron contribution =  -23820.55758623 Ry
     hartree contribution      =   12009.14733072 Ry
     xc contribution           =    -495.75664119 Ry
     ewald contribution        =    9330.87713706 Ry
     electric field correction =       0.00340426 Ry

     convergence has been achieved in  69 iterations

     Forces acting on atoms (cartesian axes, Ry/au):

     atom    1 type  1   force =     0.00016612   -0.00019819    0.09425019
     atom    2 type  1   force =    -0.00011410   -0.00036054   -0.17723696
     atom    3 type  2   force =     0.00008659    0.00003643   -0.02133303
     atom    4 type  2   force =     0.00001962   -0.00174335    0.05668456
     atom    5 type  2   force =    -0.01044471   -0.00127867    0.00673853
     atom    6 type  2   force =     0.01220546   -0.00072241    0.00625350
     atom    7 type  1   force =    -0.00028233    0.00287875   -0.01264039
     atom    8 type  1   force =    -0.00013645    0.00439337    0.00454604
     atom    9 type  2   force =    -0.00036233    0.00008991    0.00075894
     atom   10 type  2   force =    -0.00008345   -0.00089314   -0.00640600
     atom   11 type  2   force =    -0.00041847   -0.00033221    0.00005930
     atom   12 type  2   force =    -0.00032168   -0.00042697    0.00014584
     atom   13 type  1   force =    -0.00035538   -0.00015976   -0.00031992
     atom   14 type  1   force =     0.00003283   -0.00044727   -0.00034447
     atom   15 type  2   force =    -0.00017898   -0.00007422    0.00002851
     atom   16 type  2   force =    -0.00066911    0.00025309   -0.00035076
     atom   17 type  2   force =    -0.00013642    0.00005559    0.00020447
     atom   18 type  2   force =     0.00031230   -0.00005755    0.00037224
     atom   19 type  1   force =     0.00031172   -0.00085023   -0.00008349
     atom   20 type  1   force =     0.00018664   -0.00004506    0.00055836
     atom   21 type  2   force =     0.00004807    0.00001664    0.10362789
     atom   22 type  2   force =    -0.00038750   -0.00019012    0.00098881
     atom   23 type  2   force =    -0.07083473   -0.00011656   -0.02715011
     atom   24 type  2   force =     0.07073585    0.00032282   -0.02717990
     atom   25 type  1   force =    -0.00008275   -0.00022314    0.09369352
     atom   26 type  1   force =    -0.00014316   -0.00041569   -0.17735172
     atom   27 type  2   force =     0.00015106   -0.00039111   -0.02028882
     atom   28 type  2   force =     0.00005511   -0.00137857    0.05583554
     atom   29 type  2   force =    -0.01031226   -0.00030013    0.00539145
     atom   30 type  2   force =     0.01198562    0.00009801    0.00502868
     atom   31 type  1   force =    -0.00016917    0.00358545   -0.01532304
     atom   32 type  1   force =    -0.00018748   -0.00485443    0.00439710
     atom   33 type  2   force =    -0.00006443   -0.00017170    0.00031433
     atom   34 type  2   force =     0.00120638    0.00258635   -0.00429902
     atom   35 type  2   force =    -0.00070839   -0.00016026    0.00017658
     atom   36 type  2   force =    -0.00001135   -0.00002709    0.00044801
     atom   37 type  1   force =     0.00037889    0.00040445   -0.00028466
     atom   38 type  1   force =    -0.00000314    0.00053633   -0.00157176
     atom   39 type  2   force =     0.00028985   -0.00045323   -0.00021976
     atom   40 type  2   force =     0.00004267    0.00003976    0.00057508
     atom   41 type  2   force =    -0.00028454   -0.00002765   -0.00077512
     atom   42 type  2   force =     0.00047733   -0.00035953    0.00006957
     atom   43 type  1   force =    -0.00053892    0.00052743    0.00053609
     atom   44 type  1   force =    -0.00022092   -0.00011497   -0.00001263
     atom   45 type  2   force =     0.00003992   -0.00002546    0.10362952
     atom   46 type  2   force =    -0.07086735   -0.00005855   -0.02714634
     atom   47 type  2   force =     0.07076802    0.00034456   -0.02717887
     atom   48 type  3   force =    -0.00369632    0.00119951   -0.00078417
     atom   49 type  4   force =    -0.00141217    0.00077499    0.00120117
     atom   50 type  5   force =     0.00127121   -0.00007936   -0.00018550
     atom   51 type  5   force =    -0.00094936    0.00077565   -0.00070293
     atom   52 type  3   force =     0.01970377    0.00250922    0.00193226
     atom   53 type  5   force =    -0.00464059   -0.00345269   -0.00057958
     atom   54 type  5   force =    -0.00545937    0.00025638   -0.00356131
     atom   55 type  5   force =    -0.00429211   -0.00210572    0.00371473
     atom   56 type  2   force =    -0.00032137    0.00126226   -0.00048184
     atom   57 type  5   force =    -0.00026486   -0.00080250    0.00036962
     atom   58 type  5   force =    -0.00111933    0.00035110    0.00126169

     Total force =     0.366034     Total SCF correction =     0.000672
  @ DRIVER MODE: Message from server: STATUS
  @ DRIVER MODE: Message from server: GETFORCE
  @ DRIVER MODE: Returning v,forces,stress,ensemble

     Writing output data file ./calc.save/
  @ DRIVER MODE: Message from server: EXIT
  @ DRIVE MODE: Exiting

     General routines

     Parallel routines

   This run was terminated on:   0:50:29  16Sep2021

   JOB DONE.