     Program PWSCF v.6.7GPU starts on  2Aug2021 at 14:30:28

     R & G space division:  proc/nbgrp/npool/nimage =      16
     Reading input from /storage/home/hcoda1/3/ntian30/research/carbon/02Aug_vib_paired/ads_slab/CH3NHHH_a/out_0006/pw.inp
Warning: card &CELL ignored
Warning: card   CELL_DYNAMICS='IPI', ignored
Warning: card / ignored

     Current dimensions of program PWSCF are:
     Max number of different atomic species (ntypx) = 10
     Max number of k-points (npk) =  40000
     Max angular momentum in pseudopotentials (lmaxx) =  3
     Presently no symmetry can be used with electric field

     Message from routine cell_base_init:
     DEPRECATED: use true lattice parameter, not A to a.u. conversion factor

     IMPORTANT: XC functional enforced from input :
     Exchange-correlation= BEEF-VDW
                           (   1   4  43  14   2   0   0)
     Any further DFT definition will be discarded
     Please, verify this is what you really want

  @ DRIVER MODE: Connecting to
 qe_1139763_2482537.sched-torque.pace.gatech.eduwixs8udh_scratch
  using UNIX socket
  @ DRIVER MODE: Message from server: STATUS
  @ DRIVER MODE: Message from server: INIT
  @ DRIVER MODE: Receiving replica           0          -1
  @ DRIVER MODE: Receiving encoded integer          25
  @ DRIVER MODE:  SCF:  T  FORCE:  T  STRESS:  F  VC:  F  ENSEMBLE:  F
  @ DRIVER MODE:  SCF:  T  FORCE:  T  STRESS:  F  VC:  F  ENSEMBLE:  F

     Using Slab Decomposition

     bravais-lattice index     =            0
     lattice parameter (alat)  =       1.8897  a.u.
     unit-cell volume          =    6658.9804 (a.u.)^3
     number of atoms/cell      =           55
     number of atomic types    =            5
     number of electrons       =       393.00
     number of Kohn-Sham states=          206
     kinetic-energy cutoff     =      29.3995  Ry
     charge density cutoff     =     293.9946  Ry
     scf convergence threshold =      7.3E-08
     mixing beta               =       0.0500
     number of iterations used =            8  plain     mixing
     Exchange-correlation= BEEF-VDW
                           (   1   4  43  14   2   0   0)

     celldm(1)=   1.889726  celldm(2)=   0.000000  celldm(3)=   0.000000
     celldm(4)=   0.000000  celldm(5)=   0.000000  celldm(6)=   0.000000

     crystal axes: (cart. coord. in units of alat)
               a(1) = (   6.579727   0.000000   0.000000 )
               a(2) = (  -0.000775   5.961596   0.000000 )
               a(3) = (   0.000000   0.000000  25.155947 )

     reciprocal axes: (cart. coord. in units 2 pi/alat)
               b(1) = (  0.151982  0.000020  0.000000 )
               b(2) = (  0.000000  0.167740  0.000000 )
               b(3) = (  0.000000  0.000000  0.039752 )

     PseudoPot. # 1 for Ti read from file:
     /storage/coda1/p-amedford6/0/shared/rich_project_chbe-medford/medford-share/data/pseudos_module/espresso/nninc/pbe/van/Ti.UPF
     MD5 check sum: 8e4df49b7f0d34bbd5052bf3f5ea0213
     Pseudo is Ultrasoft, Zval = 12.0
     Generated by new atomic code, or converted to UPF format
     Using radial grid of  851 points,  6 beta functions with:
                l(1) =   0
                l(2) =   0
                l(3) =   1
                l(4) =   1
                l(5) =   2
                l(6) =   2
     Q(r) pseudized with  8 coefficients,  rinner =    1.000   1.000   1.000
                                                       1.000   1.000

     PseudoPot. # 2 for O  read from file:
     /storage/coda1/p-amedford6/0/shared/rich_project_chbe-medford/medford-share/data/pseudos_module/espresso/nninc/pbe/van/O.UPF
     MD5 check sum: 78c19812648e8988a0fe644b0f25305e
     Pseudo is Ultrasoft, Zval =  6.0
     Generated by new atomic code, or converted to UPF format
     Using radial grid of  737 points,  4 beta functions with:
                l(1) =   0
                l(2) =   0
                l(3) =   1
                l(4) =   1
     Q(r) pseudized with  8 coefficients,  rinner =    0.800   0.800   0.800

     PseudoPot. # 3 for N  read from file:
     /storage/coda1/p-amedford6/0/shared/rich_project_chbe-medford/medford-share/data/pseudos_module/espresso/nninc/pbe/van/N.UPF
     MD5 check sum: 90d10febe142ad51ac9d5be1deb811c4
     Pseudo is Ultrasoft, Zval =  5.0
     Generated by new atomic code, or converted to UPF format
     Using radial grid of  729 points,  4 beta functions with:
                l(1) =   0
                l(2) =   0
                l(3) =   1
                l(4) =   1
     Q(r) pseudized with  8 coefficients,  rinner =    0.800   0.800   0.800

     PseudoPot. # 4 for C  read from file:
     /storage/coda1/p-amedford6/0/shared/rich_project_chbe-medford/medford-share/data/pseudos_module/espresso/nninc/pbe/van/C.UPF
     MD5 check sum: 1a69bf6b8db32088f5b2163dbdb77a27
     Pseudo is Ultrasoft, Zval =  4.0
     Generated by new atomic code, or converted to UPF format
     Using radial grid of  721 points,  4 beta functions with:
                l(1) =   0
                l(2) =   0
                l(3) =   1
                l(4) =   1
     Q(r) pseudized with  8 coefficients,  rinner =    0.800   0.800   0.800

     PseudoPot. # 5 for H  read from file:
     /storage/coda1/p-amedford6/0/shared/rich_project_chbe-medford/medford-share/data/pseudos_module/espresso/nninc/pbe/van/H.UPF
     MD5 check sum: b5ee9d7bfd3a09ee7748110bda690ff7
     Pseudo is Ultrasoft, Zval =  1.0
     Generated by new atomic code, or converted to UPF format
     Using radial grid of  615 points,  1 beta functions with:
                l(1) =   0
     Q(r) pseudized with  8 coefficients,  rinner =    0.800

     atomic species   valence    mass     pseudopotential
        Ti1           12.00    47.86700     Ti( 1.00)
        O1             6.00    15.99900     O ( 1.00)
        N1             5.00    14.00700     N ( 1.00)
        C1             4.00    12.01100     C ( 1.00)
        H1             1.00     1.00800     H ( 1.00)

     No symmetry found

   Cartesian axes

     site n.     atom                  positions (alat units)
         1           Ti1 tau(   1) = (   0.0004258   2.9801865   6.0000000  )
         2           Ti1 tau(   2) = (   3.2906075   1.4906267   6.0002472  )
         3           O1  tau(   3) = (   0.0006271   0.0005054   7.9858123  )
         4           O1  tau(   4) = (   3.2906025   0.0005020   7.3038282  )
         5           O1  tau(   5) = (   4.5942328   1.4918067   9.2879030  )
         6           O1  tau(   6) = (   1.9868534   1.4903216   9.2879459  )
         7           Ti1 tau(   7) = (   3.2907910   2.8959150   9.1758416  )
         8           Ti1 tau(   8) = (   0.0015273   1.4827037   9.2680791  )
         9           O1  tau(   9) = (   3.2636084   5.9406443  11.4082010  )
        10           O1  tau(  10) = (   0.0116148   5.9584955  10.6183126  )
        11           O1  tau(  11) = (   1.2642105   1.4849797  12.6947803  )
        12           O1  tau(  12) = (   5.2691575   1.4821021  12.6650678  )
        13           Ti1 tau(  13) = (   6.5574234   2.9640577  12.4921542  )
        14           Ti1 tau(  14) = (   3.2619390   1.4709553  12.5527290  )
        15           O1  tau(  15) = (   6.5247406   5.9594380  14.6832748  )
        16           O1  tau(  16) = (   3.2695906   5.9428997  14.0562986  )
        17           O1  tau(  17) = (   4.5175969   1.4707097  16.2986306  )
        18           O1  tau(  18) = (   1.9406912   1.4777946  16.2473769  )
        19           Ti1 tau(  19) = (   3.2491105   2.9422209  15.8109686  )
        20           Ti1 tau(  20) = (   6.5361480   1.3378720  15.9626387  )
        21           O1  tau(  21) = (   3.2904802   0.0005063   4.7018136  )
        22           O1  tau(  22) = (   6.5280740   5.8897732  17.4332532  )
        23           O1  tau(  23) = (   1.3043587   1.4918075   6.0039043  )
        24           O1  tau(  24) = (   5.2767064   1.4903225   6.0039473  )
        25           Ti1 tau(  25) = (   0.0000382   5.9609847   6.0000000  )
        26           Ti1 tau(  26) = (   3.2902200   4.4714249   6.0002472  )
        27           O1  tau(  27) = (   0.0002396   2.9813036   7.9858123  )
        28           O1  tau(  28) = (   3.2902150   2.9813002   7.3038282  )
        29           O1  tau(  29) = (   4.5938453   4.4726049   9.2879030  )
        30           O1  tau(  30) = (   1.9864658   4.4711199   9.2879459  )
        31           Ti1 tau(  31) = (   3.2891106   5.8743827   9.1763621  )
        32           Ti1 tau(  32) = (   0.0006254   4.4649316   9.2693709  )
        33           O1  tau(  33) = (   3.2649920   2.9642658  11.3997388  )
        34           O1  tau(  34) = (   0.0092240   2.9805883  10.6323155  )
        35           O1  tau(  35) = (   1.2634527   4.4478426  12.7061968  )
        36           O1  tau(  36) = (   5.2693862   4.4495813  12.6755241  )
        37           Ti1 tau(  37) = (   6.5522441   5.9483113  12.5008436  )
        38           Ti1 tau(  38) = (   3.2626494   4.4468850  12.5575576  )
        39           O1  tau(  39) = (   6.4970557   2.9363996  15.0046851  )
        40           O1  tau(  40) = (   3.2722650   2.9529576  14.0194401  )
        41           O1  tau(  41) = (   4.5170401   4.4205294  16.2730734  )
        42           O1  tau(  42) = (   1.9466746   4.4191161  16.2235312  )
        43           Ti1 tau(  43) = (   3.2419262   5.9323414  15.8513663  )
        44           Ti1 tau(  44) = (   6.5549466   4.5556212  15.8889459  )
        45           O1  tau(  45) = (   3.2900926   2.9813045   4.7018136  )
        46           O1  tau(  46) = (   1.3039711   4.4726057   6.0039043  )
        47           O1  tau(  47) = (   5.2763189   4.4711207   6.0039473  )
        48           N1  tau(  48) = (   4.8657738   4.5798987  19.4896958  )
        49           C1  tau(  49) = (   5.7271871   3.4329544  19.8049648  )
        50           H1  tau(  50) = (   6.3241292   3.1721029  18.9298488  )
        51           H1  tau(  51) = (   6.4229137   3.7195585  20.5942015  )
        52           H1  tau(  52) = (   5.1874390   2.5328885  20.1195193  )
        53           H1  tau(  53) = (   5.9066942   5.7389963  18.1772939  )
        54           H1  tau(  54) = (   4.2103208   4.3266459  18.7469397  )
        55           H1  tau(  55) = (   4.3187305   4.8545830  20.2870342  )

     number of k points=    10  Fermi-Dirac smearing, width (Ry)=  0.0073
                       cart. coord. in units 2pi/alat
        k(    1) = (   0.0000000   0.0000000   0.0000000), wk =   0.1250000
        k(    2) = (   0.0000000   0.0419351   0.0000000), wk =   0.2500000
        k(    3) = (   0.0000000  -0.0838702   0.0000000), wk =   0.1250000
        k(    4) = (   0.0379955   0.0000049   0.0000000), wk =   0.2500000
        k(    5) = (   0.0379955   0.0419400   0.0000000), wk =   0.2500000
        k(    6) = (   0.0379955  -0.0838652   0.0000000), wk =   0.2500000
        k(    7) = (   0.0379955  -0.0419301   0.0000000), wk =   0.2500000
        k(    8) = (  -0.0759910  -0.0000099   0.0000000), wk =   0.1250000
        k(    9) = (  -0.0759910   0.0419252   0.0000000), wk =   0.2500000
        k(   10) = (  -0.0759910  -0.0838800   0.0000000), wk =   0.1250000

     Initial potential from superposition of free atoms

     starting charge  376.99914, renormalised to  393.00000

     negative rho (up, down):  1.330E-02 0.000E+00

     %%%%%%%%%%%%%%%%%%%%%%%%%%%%%%%%%%%%%%%%%%%%%%%%%%%%%%%%%%%%%%%%%%%%%%%%
     %                                                                      %
     % You are using vdW-DF, which was implemented by the Thonhauser group. %
     % Please cite the following two papers that made this development      %
     % possible and the two reviews that describe the various versions:     %
     %                                                                      %
     %   T. Thonhauser et al., PRL 115, 136402 (2015).                      %
     %   T. Thonhauser et al., PRB 76, 125112 (2007).                       %
     %   K. Berland et al., Rep. Prog. Phys. 78, 066501 (2015).             %
     %   D.C. Langreth et al., J. Phys.: Condens. Matter 21, 084203 (2009). %
     %                                                                      %
     %                                                                      %
     % If you are calculating the stress with vdW-DF, please also cite:     %
     %                                                                      %
     %   R. Sabatini et al., J. Phys.: Condens. Matter 24, 424209 (2012).   %
     %                                                                      %
     %%%%%%%%%%%%%%%%%%%%%%%%%%%%%%%%%%%%%%%%%%%%%%%%%%%%%%%%%%%%%%%%%%%%%%%%

     Adding external electric field

     Computed dipole along edir(3) :
        Dipole               -9.4958 Ry au,        -24.1358 Debye
        Dipole field         -0.0179 Ry au,

        Potential amp.        1.6611 Ry
        Total length         46.3494 bohr

     Starting wfcs are  298 atomic wfcs
  @ DRIVER MODE: Message from server: STATUS
  @ DRIVER MODE: Message from server: POSDATA
  @ DRIVER MODE: Reading and sharing cell
  @ DRIVER MODE: Reading and sharing positions
  @ DRIVER MODE: Received positions

     Self-consistent Calculation

     iteration #  1     ecut=    29.40 Ry     beta= 0.05
     Davidson diagonalization with overlap
     c_bands:  2 eigenvalues not converged
     c_bands:  1 eigenvalues not converged
     c_bands:  2 eigenvalues not converged
     c_bands:  3 eigenvalues not converged
     c_bands:  3 eigenvalues not converged
     c_bands:  1 eigenvalues not converged
     ethr =  1.00E-05,  avg # of iterations = 18.9

[...]

     total energy              =   -2620.44275837 Ry
     estimated scf accuracy    <    3390.36851795 Ry

[...]

     iteration #  3     ecut=    29.40 Ry     beta= 0.05
     Davidson diagonalization with overlap
     ethr =  1.00E-02,  avg # of iterations = 14.5

[...]

     iteration # 60     ecut=    29.40 Ry     beta= 0.05
     Davidson diagonalization with overlap
     c_bands:  1 eigenvalues not converged
     ethr =  1.36E-10,  avg # of iterations =  8.4

[...]

     total energy              =   -2922.77356511 Ry
     estimated scf accuracy    <       0.00000009 Ry

     iteration # 66     ecut=    29.40 Ry     beta= 0.05
     Davidson diagonalization with overlap
     ethr =  2.22E-11,  avg # of iterations =  2.6

     negative rho (up, down):  1.446E-02 0.000E+00

     Adding external electric field

     Computed dipole along edir(3) :
        Dipole                1.3977 Ry au,          3.5526 Debye
        Dipole field          0.0026 Ry au,

        Potential amp.       -0.2445 Ry
        Total length         46.3494 bohr

     End of self-consistent calculation

          k = 0.0000 0.0000 0.0000 ( 18029 PWs)   bands (ev):

   -55.3123 -55.2764 -55.2603 -55.2262 -55.1763 -55.1521 -55.1511 -55.1419
   -55.1177 -55.0877 -55.0769 -55.0538 -55.0351 -54.9770 -54.3042 -54.2701
   -31.8792 -31.7546 -31.6927 -31.6647 -31.6400 -31.6192 -31.5947 -31.5541
   -31.5499 -31.5484 -31.5195 -31.5084 -31.5044 -31.4798 -31.4693 -31.4643
   -31.4509 -31.4409 -31.4133 -31.4051 -31.4008 -31.3844 -31.3758 -31.3589
   -31.3562 -31.3187 -31.3176 -31.3086 -31.3064 -31.2932 -31.2884 -31.2864
   -31.2798 -31.2790 -31.2638 -31.2609 -31.2286 -31.2151 -31.2041 -31.1984
   -31.1856 -31.1108 -30.7145 -30.6180 -30.5960 -30.5304 -30.4436 -30.3330
   -16.8297 -16.1513 -15.8949 -15.7741 -15.6649 -15.5936 -15.5242 -15.4453
   -15.3614 -15.2608 -15.1994 -15.0945 -15.0595 -15.0201 -15.0056 -14.9864
   -14.9595 -14.8794 -14.8684 -14.8579 -14.8322 -14.8137 -14.7857 -14.7768
   -14.7700 -14.7307 -14.6932 -14.5812 -14.4906 -14.4049 -12.8074 -12.6897
   -10.0086  -5.8583  -4.7400  -4.4318  -3.5254  -3.4786  -3.3471  -3.2420
    -3.2084  -3.2000  -3.0795  -2.8964  -2.8014  -2.7741  -2.6820  -2.6329
    -2.5370  -2.5335  -2.4934  -2.3930  -2.3552  -2.3285  -2.2452  -2.2183
    -2.1721  -2.1212  -2.1111  -2.1079  -2.0873  -2.0471  -2.0082  -1.8893
    -1.8045  -1.7826  -1.7091  -1.6928  -1.6867  -1.6585  -1.6154  -1.5961
    -1.5470  -1.5300  -1.4892  -1.4206  -1.3593  -1.2769  -1.2401  -1.2032
    -0.9974  -0.9682  -0.9177  -0.9153  -0.8867  -0.8185  -0.7891  -0.7595
    -0.6930  -0.6910  -0.6624  -0.5561  -0.5133  -0.3924  -0.3218  -0.2424
    -0.1204  -0.1074  -0.0834  -0.0338  -0.0102   0.0493   0.1094   0.1460
     0.1855   0.1981   0.2854   0.3153   0.3935   0.4089   0.4505   0.5082
     0.5258   0.5512   0.5736   0.5808   0.6143   0.6302   0.6643   0.7309
     0.7630   0.8643   0.9131   1.1968   1.2823   1.5912   1.6146   1.7180
     1.8993   2.2965   2.3457   3.7821   3.8432   3.8838   3.9265   3.9301
     4.0118   4.1426   4.2852   4.2949   4.3060   4.3128

[...]

          k = 0.0380-0.0419 0.0000 ( 17876 PWs)   bands (ev):

[...]

          k =-0.0760-0.0000 0.0000 ( 17886 PWs)   bands (ev):

[...]

          k =-0.0760-0.0839 0.0000 ( 17948 PWs)   bands (ev):

   -55.2957 -55.2928 -55.2436 -55.2427 -55.1596 -55.1586 -55.1471 -55.1369
   -55.1326 -55.0806 -55.0720 -55.0695 -55.0280 -54.9841 -54.2871 -54.2871
   -31.6869 -31.6818 -31.5917 -31.5864 -31.5699 -31.5693 -31.5606 -31.5341
   -31.5333 -31.5130 -31.5080 -31.5062 -31.4929 -31.4667 -31.4618 -31.4607
   -31.4349 -31.4343 -31.4278 -31.4068 -31.3844 -31.3822 -31.3720 -31.3682
   -31.3675 -31.3631 -31.3623 -31.3540 -31.3523 -31.3462 -31.3424 -31.3271
   -31.3243 -31.3116 -31.3085 -31.2974 -31.2688 -31.2517 -31.2497 -31.2472
   -31.2302 -31.1772 -30.6087 -30.6086 -30.5269 -30.5268 -30.4871 -30.4869
   -16.7684 -15.8241 -15.5947 -15.5438 -15.5030 -15.4084 -15.3346 -15.3035
   -15.2935 -15.2803 -15.1542 -15.1260 -15.1167 -15.0886 -15.0568 -15.0322
   -15.0284 -14.9936 -14.9364 -14.9303 -14.9224 -14.9142 -14.8504 -14.8422
   -14.8384 -14.8316 -14.7659 -14.7635 -14.6817 -14.6797 -12.7910 -12.7910
   -10.0184  -5.8583  -4.8680  -4.4124  -3.5384  -2.8276  -2.7999  -2.7476
    -2.6989  -2.6167  -2.5311  -2.5037  -2.4673  -2.4096  -2.3573  -2.3100
    -2.3079  -2.2721  -2.2526  -2.2337  -2.1901  -2.1684  -2.1459  -2.1278
    -2.1131  -2.0594  -2.0565  -2.0474  -2.0230  -1.9888  -1.9714  -1.9582
    -1.9418  -1.9235  -1.8980  -1.8787  -1.7358  -1.7150  -1.6743  -1.5571
    -1.5392  -1.5358  -1.5028  -1.4590  -1.4342  -1.4266  -1.3526  -1.3456
    -1.3136  -1.1560  -1.0836  -1.0819  -1.0586  -1.0347  -0.9395  -0.8882
    -0.8476  -0.7977  -0.7219  -0.6907  -0.6719  -0.5993  -0.5726  -0.4810
    -0.3915  -0.3648  -0.3566  -0.2791  -0.2776  -0.2442  -0.2311  -0.1621
    -0.1018  -0.0503  -0.0463  -0.0422   0.0865   0.1234   0.2034   0.3175
     0.3980   0.4062   0.4587   0.5179   0.6128   0.6485   0.6708   0.7846
     0.7866   0.9731   0.9764   1.0247   1.0397   1.1201   1.1253   2.0721
     2.0728   2.1653   2.1656   3.7573   3.9405   3.9947   4.0676   4.0930
     4.1911   4.2759   4.3097   4.3396   4.3620   4.3679

     the Fermi energy is     3.8506 ev

!    total energy              =   -2922.77358963 Ry
     estimated scf accuracy    <       0.00000004 Ry
     smearing contrib. (-TS)   =      -0.04551619 Ry
     internal energy E=F+TS    =   -2922.72807344 Ry

     The total energy is F=E-TS. E is the sum of the following terms:
     one-electron contribution =  -23199.61029335 Ry
     hartree contribution      =   11690.05428231 Ry
     xc contribution           =    -482.55014174 Ry
     ewald contribution        =    9069.37439267 Ry
     electric field correction =       0.00368665 Ry

     convergence has been achieved in  66 iterations

     Forces acting on atoms (cartesian axes, Ry/au):

     atom    1 type  1   force =     0.00017039   -0.00008457    0.09300216
     atom    2 type  1   force =    -0.00000677   -0.00013620   -0.17879021
     atom    3 type  2   force =     0.00001889   -0.00029651   -0.02021478
     atom    4 type  2   force =    -0.00000255   -0.00223504    0.06098535
     atom    5 type  2   force =    -0.01150723   -0.00128402    0.01054074
     atom    6 type  2   force =     0.01241640   -0.00058578    0.00810414
     atom    7 type  1   force =    -0.00125322    0.00347019   -0.01488650
     atom    8 type  1   force =     0.00122613   -0.00358393   -0.00846212
     atom    9 type  2   force =     0.00001510   -0.00004837   -0.00024813
     atom   10 type  2   force =    -0.00281518   -0.00047957    0.00152844
     atom   11 type  2   force =     0.00010916   -0.00023546   -0.00030530
     atom   12 type  2   force =     0.00001489    0.00008724   -0.00011240
     atom   13 type  1   force =    -0.00017733   -0.00030331   -0.00062423
     atom   14 type  1   force =    -0.00003541   -0.00003903    0.00020173
     atom   15 type  2   force =    -0.00012255   -0.00024897   -0.00013327
     atom   16 type  2   force =     0.00032548    0.00034752   -0.00010575
     atom   17 type  2   force =     0.00079387    0.00026288   -0.00027179
     atom   18 type  2   force =     0.00007102   -0.00028740   -0.00006198
     atom   19 type  1   force =     0.00023909    0.00041497   -0.00032068
     atom   20 type  1   force =     0.00010513    0.00012489    0.00048020
     atom   21 type  2   force =     0.00012390   -0.00003578    0.10428284
     atom   22 type  2   force =    -0.00079920   -0.00005074    0.00051743
     atom   23 type  2   force =    -0.06992202   -0.00011141   -0.02679551
     atom   24 type  2   force =     0.06989044    0.00034566   -0.02679794
     atom   25 type  1   force =     0.00019790   -0.00021101    0.09230479
     atom   26 type  1   force =    -0.00008255   -0.00036832   -0.17900805
     atom   27 type  2   force =     0.00004041   -0.00025819   -0.01894605
     atom   28 type  2   force =     0.00006516   -0.00193390    0.06022916
     atom   29 type  2   force =    -0.01169513   -0.00162468    0.01033415
     atom   30 type  2   force =     0.01247677   -0.00120782    0.00786669
     atom   31 type  1   force =    -0.00101133    0.00609421   -0.01577716
     atom   32 type  1   force =     0.00116370    0.00333859   -0.00864474
     atom   33 type  2   force =     0.00003238    0.00019864   -0.00023208
     atom   34 type  2   force =    -0.00240843   -0.00053803    0.00058605
     atom   35 type  2   force =    -0.00000961   -0.00000387    0.00003711
     atom   36 type  2   force =     0.00004909   -0.00007901    0.00035454
     atom   37 type  1   force =     0.00035357   -0.00003183   -0.00003204
     atom   38 type  1   force =    -0.00035185   -0.00029984    0.00046808
     atom   39 type  2   force =     0.00035935   -0.00016182    0.00061998
     atom   40 type  2   force =     0.00025323   -0.00017504    0.00002951
     atom   41 type  2   force =     0.00008568    0.00037988   -0.00031382
     atom   42 type  2   force =     0.00048108    0.00023328   -0.00021820
     atom   43 type  1   force =     0.00022728   -0.00017285   -0.00030177
     atom   44 type  1   force =     0.00020330   -0.00133842    0.00058559
     atom   45 type  2   force =     0.00011758   -0.00005140    0.10422508
     atom   46 type  2   force =    -0.06993341   -0.00005335   -0.02678714
     atom   47 type  2   force =     0.06992088    0.00034990   -0.02680728
     atom   48 type  3   force =    -0.00000712   -0.00501195   -0.02498220
     atom   49 type  4   force =     0.00102326    0.00080147    0.00321107
     atom   50 type  5   force =    -0.00050599    0.00092162   -0.00044095
     atom   51 type  5   force =    -0.00000489   -0.00126123    0.00041939
     atom   52 type  5   force =     0.00017027   -0.00072137    0.00029079
     atom   53 type  5   force =     0.00037791    0.00097527   -0.00111882
     atom   54 type  5   force =     0.00646437    0.00398747    0.00796291
     atom   55 type  5   force =    -0.00693133    0.00321633    0.01257299

     Total force =     0.368948     Total SCF correction =     0.000640
  @ DRIVER MODE: Message from server: STATUS
  @ DRIVER MODE: Message from server: GETFORCE
  @ DRIVER MODE: Returning v,forces,stress,ensemble

     Writing output data file ./calc.save/
  @ DRIVER MODE: Message from server: EXIT
  @ DRIVE MODE: Exiting

     General routines

     Parallel routines

   This run was terminated on:  14:47:29   2Aug2021

   JOB DONE.