     Program PWSCF v.6.7GPU starts on 16Sep2021 at  6:24:50

     R & G space division:  proc/nbgrp/npool/nimage =      10
     Reading input from /storage/home/hcoda1/3/ntian30/research/carbon/CxH_vib/H2O_calc/ads_slab/CH2NHNH2O_a/out_0047/pw.inp
Warning: card &CELL ignored
Warning: card   CELL_DYNAMICS='IPI', ignored
Warning: card / ignored

     Current dimensions of program PWSCF are:
     Max number of different atomic species (ntypx) = 10
     Max number of k-points (npk) =  40000
     Max angular momentum in pseudopotentials (lmaxx) =  3
     Presently no symmetry can be used with electric field

     Message from routine cell_base_init:
     DEPRECATED: use true lattice parameter, not A to a.u. conversion factor

     IMPORTANT: XC functional enforced from input :
     Exchange-correlation= BEEF-VDW
                           (   1   4  43  14   2   0   0)
     Any further DFT definition will be discarded
     Please, verify this is what you really want

  @ DRIVER MODE: Connecting to
 qe_1139763_2852610.sched-torque.pace.gatech.eduff5obcw4_scratch
  using UNIX socket
  @ DRIVER MODE: Message from server: STATUS
  @ DRIVER MODE: Message from server: INIT
  @ DRIVER MODE: Receiving replica           0          -1
  @ DRIVER MODE: Receiving encoded integer          25
  @ DRIVER MODE:  SCF:  T  FORCE:  T  STRESS:  F  VC:  F  ENSEMBLE:  F
  @ DRIVER MODE:  SCF:  T  FORCE:  T  STRESS:  F  VC:  F  ENSEMBLE:  F

     Using Slab Decomposition

     bravais-lattice index     =            0
     lattice parameter (alat)  =       1.8897  a.u.
     unit-cell volume          =    6658.9804 (a.u.)^3
     number of atoms/cell      =           56
     number of atomic types    =            5
     number of electrons       =       403.00
     number of Kohn-Sham states=          211
     kinetic-energy cutoff     =      29.3995  Ry
     charge density cutoff     =     293.9946  Ry
     scf convergence threshold =      7.3E-08
     mixing beta               =       0.0500
     number of iterations used =            8  plain     mixing
     Exchange-correlation= BEEF-VDW
                           (   1   4  43  14   2   0   0)

     celldm(1)=   1.889726  celldm(2)=   0.000000  celldm(3)=   0.000000
     celldm(4)=   0.000000  celldm(5)=   0.000000  celldm(6)=   0.000000

     crystal axes: (cart. coord. in units of alat)
               a(1) = (   6.579727   0.000000   0.000000 )
               a(2) = (  -0.000775   5.961596   0.000000 )
               a(3) = (   0.000000   0.000000  25.155947 )

     reciprocal axes: (cart. coord. in units 2 pi/alat)
               b(1) = (  0.151982  0.000020  0.000000 )
               b(2) = (  0.000000  0.167740  0.000000 )
               b(3) = (  0.000000  0.000000  0.039752 )

     PseudoPot. # 1 for Ti read from file:
     /storage/coda1/p-amedford6/0/shared/rich_project_chbe-medford/medford-share/data/pseudos_module/espresso/nninc/pbe/van/Ti.UPF
     MD5 check sum: 8e4df49b7f0d34bbd5052bf3f5ea0213
     Pseudo is Ultrasoft, Zval = 12.0
     Generated by new atomic code, or converted to UPF format
     Using radial grid of  851 points,  6 beta functions with:
                l(1) =   0
                l(2) =   0
                l(3) =   1
                l(4) =   1
                l(5) =   2
                l(6) =   2
     Q(r) pseudized with  8 coefficients,  rinner =    1.000   1.000   1.000
                                                       1.000   1.000

     PseudoPot. # 2 for O  read from file:
     /storage/coda1/p-amedford6/0/shared/rich_project_chbe-medford/medford-share/data/pseudos_module/espresso/nninc/pbe/van/O.UPF
     MD5 check sum: 78c19812648e8988a0fe644b0f25305e
     Pseudo is Ultrasoft, Zval =  6.0
     Generated by new atomic code, or converted to UPF format
     Using radial grid of  737 points,  4 beta functions with:
                l(1) =   0
                l(2) =   0
                l(3) =   1
                l(4) =   1
     Q(r) pseudized with  8 coefficients,  rinner =    0.800   0.800   0.800

     PseudoPot. # 3 for H  read from file:
     /storage/coda1/p-amedford6/0/shared/rich_project_chbe-medford/medford-share/data/pseudos_module/espresso/nninc/pbe/van/H.UPF
     MD5 check sum: b5ee9d7bfd3a09ee7748110bda690ff7
     Pseudo is Ultrasoft, Zval =  1.0
     Generated by new atomic code, or converted to UPF format
     Using radial grid of  615 points,  1 beta functions with:
                l(1) =   0
     Q(r) pseudized with  8 coefficients,  rinner =    0.800

     PseudoPot. # 4 for N  read from file:
     /storage/coda1/p-amedford6/0/shared/rich_project_chbe-medford/medford-share/data/pseudos_module/espresso/nninc/pbe/van/N.UPF
     MD5 check sum: 90d10febe142ad51ac9d5be1deb811c4
     Pseudo is Ultrasoft, Zval =  5.0
     Generated by new atomic code, or converted to UPF format
     Using radial grid of  729 points,  4 beta functions with:
                l(1) =   0
                l(2) =   0
                l(3) =   1
                l(4) =   1
     Q(r) pseudized with  8 coefficients,  rinner =    0.800   0.800   0.800

     PseudoPot. # 5 for C  read from file:
     /storage/coda1/p-amedford6/0/shared/rich_project_chbe-medford/medford-share/data/pseudos_module/espresso/nninc/pbe/van/C.UPF
     MD5 check sum: 1a69bf6b8db32088f5b2163dbdb77a27
     Pseudo is Ultrasoft, Zval =  4.0
     Generated by new atomic code, or converted to UPF format
     Using radial grid of  721 points,  4 beta functions with:
                l(1) =   0
                l(2) =   0
                l(3) =   1
                l(4) =   1
     Q(r) pseudized with  8 coefficients,  rinner =    0.800   0.800   0.800

     atomic species   valence    mass     pseudopotential
        Ti1           12.00    47.86700     Ti( 1.00)
        O1             6.00    15.99900     O ( 1.00)
        H1             1.00     1.00800     H ( 1.00)
        N1             5.00    14.00700     N ( 1.00)
        C1             4.00    12.01100     C ( 1.00)

     No symmetry found

   Cartesian axes

     site n.     atom                  positions (alat units)
         1           Ti1 tau(   1) = (   0.0004258   2.9801865   6.0000000  )
         2           Ti1 tau(   2) = (   3.2906075   1.4906267   6.0002472  )
         3           O1  tau(   3) = (   0.0006271   0.0005054   7.9858123  )
         4           O1  tau(   4) = (   3.2906025   0.0005020   7.3038282  )
         5           O1  tau(   5) = (   4.5942328   1.4918067   9.2879030  )
         6           O1  tau(   6) = (   1.9868534   1.4903216   9.2879459  )
         7           Ti1 tau(   7) = (   3.2907910   2.8959150   9.1758416  )
         8           Ti1 tau(   8) = (   0.0015273   1.4827037   9.2680791  )
         9           O1  tau(   9) = (   3.2960012   0.0062018  11.3595187  )
        10           O1  tau(  10) = (   0.0116148   5.9584955  10.6183126  )
        11           O1  tau(  11) = (   1.2731109   1.5057875  12.6314550  )
        12           O1  tau(  12) = (   5.2959999   1.4755877  12.6679080  )
        13           Ti1 tau(  13) = (   0.0553992   2.9538365  12.5526742  )
        14           Ti1 tau(  14) = (   3.3268292   1.5427496  12.5634199  )
        15           O1  tau(  15) = (   0.1371361   5.9015051  14.6217027  )
        16           O1  tau(  16) = (   3.1880369   0.0098958  13.9252199  )
        17           O1  tau(  17) = (   4.6462182   1.4014471  15.8552565  )
        18           O1  tau(  18) = (   2.0822703   1.5558083  16.1249119  )
        19           Ti1 tau(  19) = (   3.3548958   3.0525267  15.8597497  )
        20           Ti1 tau(  20) = (   0.0948755   1.3182250  15.7908873  )
        21           O1  tau(  21) = (   3.2904802   0.0005063   4.7018136  )
        22           O1  tau(  22) = (   0.0722171   0.0319689  17.1393915  )
        23           O1  tau(  23) = (   1.3043587   1.4918075   6.0039043  )
        24           O1  tau(  24) = (   5.2767064   1.4903225   6.0039473  )
        25           Ti1 tau(  25) = (   0.0000382   5.9609847   6.0000000  )
        26           Ti1 tau(  26) = (   3.2902200   4.4714249   6.0002472  )
        27           O1  tau(  27) = (   0.0002396   2.9813036   7.9858123  )
        28           O1  tau(  28) = (   3.2902150   2.9813002   7.3038282  )
        29           O1  tau(  29) = (   4.5938453   4.4726049   9.2879030  )
        30           O1  tau(  30) = (   1.9864658   4.4711199   9.2879459  )
        31           Ti1 tau(  31) = (   3.2891106   5.8743827   9.1763621  )
        32           Ti1 tau(  32) = (   0.0006254   4.4649316   9.2693709  )
        33           O1  tau(  33) = (   3.2982667   2.9897935  11.3544942  )
        34           O1  tau(  34) = (   0.0092240   2.9805883  10.6323155  )
        35           O1  tau(  35) = (   1.2737041   4.4504026  12.6113924  )
        36           O1  tau(  36) = (   5.2903739   4.4874249  12.6576873  )
        37           Ti1 tau(  37) = (   6.5697415   5.9260651  12.4959683  )
        38           Ti1 tau(  38) = (   3.3125242   4.5024033  12.5372123  )
        39           O1  tau(  39) = (   0.0674008   2.9793056  14.8363759  )
        40           O1  tau(  40) = (   3.2999477   2.9756493  13.9369993  )
        41           O1  tau(  41) = (   4.6108370   4.5787535  15.7719701  )
        42           O1  tau(  42) = (   2.0428421   4.3627697  16.1441833  )
        43           Ti1 tau(  43) = (   3.3552955   0.0804576  15.7648105  )
        44           Ti1 tau(  44) = (   6.5672415   4.5273692  15.9765751  )
        45           O1  tau(  45) = (   3.2900926   2.9813045   4.7018136  )
        46           O1  tau(  46) = (   1.3039711   4.4726057   6.0039043  )
        47           O1  tau(  47) = (   5.2763189   4.4711207   6.0039473  )
        48           H1  tau(  48) = (   4.1035413   2.4672077  18.5646977  )
        49           N1  tau(  49) = (   5.6961598   3.2907635  17.7856741  )
        50           C1  tau(  50) = (   6.4968133   2.7471819  18.6454045  )
        51           H1  tau(  51) = (   6.1325458   2.1374441  19.4677963  )
        52           H1  tau(  52) = (   0.9799315   2.9096255  18.5325614  )
        53           N1  tau(  53) = (   4.3409097   3.1788467  17.8642182  )
        54           O1  tau(  54) = (   3.3174094   5.8609012  18.0981057  )
        55           H1  tau(  55) = (   3.6736973   4.9388346  18.2101127  )
        56           H1  tau(  56) = (   2.3597147   5.7972335  18.2603650  )

     number of k points=    10  Fermi-Dirac smearing, width (Ry)=  0.0073
                       cart. coord. in units 2pi/alat
        k(    1) = (   0.0000000   0.0000000   0.0000000), wk =   0.1250000
        k(    2) = (   0.0000000   0.0419351   0.0000000), wk =   0.2500000
        k(    3) = (   0.0000000  -0.0838702   0.0000000), wk =   0.1250000
        k(    4) = (   0.0379955   0.0000049   0.0000000), wk =   0.2500000
        k(    5) = (   0.0379955   0.0419400   0.0000000), wk =   0.2500000
        k(    6) = (   0.0379955  -0.0838652   0.0000000), wk =   0.2500000
        k(    7) = (   0.0379955  -0.0419301   0.0000000), wk =   0.2500000
        k(    8) = (  -0.0759910  -0.0000099   0.0000000), wk =   0.1250000
        k(    9) = (  -0.0759910   0.0419252   0.0000000), wk =   0.2500000
        k(   10) = (  -0.0759910  -0.0838800   0.0000000), wk =   0.1250000

     Initial potential from superposition of free atoms

     starting charge  386.99914, renormalised to  403.00000

     negative rho (up, down):  1.703E-02 0.000E+00

     %%%%%%%%%%%%%%%%%%%%%%%%%%%%%%%%%%%%%%%%%%%%%%%%%%%%%%%%%%%%%%%%%%%%%%%%
     %                                                                      %
     % You are using vdW-DF, which was implemented by the Thonhauser group. %
     % Please cite the following two papers that made this development      %
     % possible and the two reviews that describe the various versions:     %
     %                                                                      %
     %   T. Thonhauser et al., PRL 115, 136402 (2015).                      %
     %   T. Thonhauser et al., PRB 76, 125112 (2007).                       %
     %   K. Berland et al., Rep. Prog. Phys. 78, 066501 (2015).             %
     %   D.C. Langreth et al., J. Phys.: Condens. Matter 21, 084203 (2009). %
     %                                                                      %
     %                                                                      %
     % If you are calculating the stress with vdW-DF, please also cite:     %
     %                                                                      %
     %   R. Sabatini et al., J. Phys.: Condens. Matter 24, 424209 (2012).   %
     %                                                                      %
     %%%%%%%%%%%%%%%%%%%%%%%%%%%%%%%%%%%%%%%%%%%%%%%%%%%%%%%%%%%%%%%%%%%%%%%%

     Adding external electric field

     Computed dipole along edir(3) :
        Dipole              -12.3729 Ry au,        -31.4487 Debye
        Dipole field         -0.0233 Ry au,

        Potential amp.        2.1644 Ry
        Total length         46.3494 bohr

     Starting wfcs are  305 atomic wfcs
  @ DRIVER MODE: Message from server: STATUS
  @ DRIVER MODE: Message from server: POSDATA
  @ DRIVER MODE: Reading and sharing cell
  @ DRIVER MODE: Reading and sharing positions
  @ DRIVER MODE: Received positions

     Self-consistent Calculation

     iteration #  1     ecut=    29.40 Ry     beta= 0.05
     Davidson diagonalization with overlap
     c_bands:  4 eigenvalues not converged
     c_bands:  3 eigenvalues not converged
     c_bands:  3 eigenvalues not converged
     c_bands:  1 eigenvalues not converged
     c_bands:  1 eigenvalues not converged
     c_bands:  4 eigenvalues not converged
     c_bands:  3 eigenvalues not converged
     ethr =  1.00E-05,  avg # of iterations = 27.4

[...]

     total energy              =   -2355.29068545 Ry
     estimated scf accuracy    <    7011.02157798 Ry

     iteration #  2     ecut=    29.40 Ry     beta= 0.05
     Davidson diagonalization with overlap
     ethr =  1.00E-02,  avg # of iterations = 26.2

[...]

     iteration # 69     ecut=    29.40 Ry     beta= 0.05
     Davidson diagonalization with overlap
     ethr =  4.99E-11,  avg # of iterations =  4.0

[...]

     total energy              =   -2973.97651584 Ry
     estimated scf accuracy    <       0.00000017 Ry

     iteration # 70     ecut=    29.40 Ry     beta= 0.05
     Davidson diagonalization with overlap
     c_bands:  1 eigenvalues not converged
     ethr =  4.34E-11,  avg # of iterations = 12.7

     negative rho (up, down):  1.700E-02 0.000E+00

     Adding external electric field

     Computed dipole along edir(3) :
        Dipole                0.9041 Ry au,          2.2980 Debye
        Dipole field          0.0017 Ry au,

        Potential amp.       -0.1582 Ry
        Total length         46.3494 bohr

     End of self-consistent calculation

          k = 0.0000 0.0000 0.0000 ( 18029 PWs)   bands (ev):

   -55.6386 -55.6045 -55.5203 -55.4844 -55.4781 -55.4651 -55.4434 -55.4313
   -55.4263 -55.4088 -55.3922 -55.3915 -55.3579 -55.2405 -54.6246 -54.5906
   -32.1242 -32.0261 -31.9727 -31.9671 -31.9593 -31.9297 -31.9160 -31.8979
   -31.8843 -31.7912 -31.7851 -31.7792 -31.7516 -31.7461 -31.7410 -31.7066
   -31.6960 -31.6829 -31.6778 -31.6700 -31.6633 -31.6616 -31.6460 -31.6430
   -31.6368 -31.6272 -31.6248 -31.6204 -31.6149 -31.6091 -31.6041 -31.5949
   -31.5849 -31.5826 -31.5821 -31.5801 -31.5743 -31.5391 -31.5308 -31.5156
   -31.4413 -31.3690 -31.0316 -30.9430 -30.9207 -30.8485 -30.7621 -30.6508
   -18.4445 -17.7393 -16.3017 -16.1112 -15.8859 -15.7840 -15.7441 -15.5708
   -15.4402 -15.3974 -15.2709 -15.2059 -15.1815 -15.1627 -15.1489 -15.1165
   -15.0931 -15.0693 -15.0674 -15.0481 -15.0238 -15.0011 -14.9731 -14.9551
   -14.9127 -14.7873 -14.7794 -14.7678 -14.7299 -14.6925 -14.2933 -13.1248
   -13.0082 -12.3743  -7.9260  -6.2216  -5.4265  -4.8392  -3.6730  -3.5812
    -3.5485  -3.5258  -3.4468  -3.3273  -3.2312  -3.0368  -2.9275  -2.8975
    -2.8743  -2.7901  -2.7073  -2.6666  -2.5646  -2.5325  -2.5222  -2.4774
    -2.4227  -2.4084  -2.3776  -2.3644  -2.3282  -2.1957  -2.1764  -2.1375
    -2.0268  -2.0103  -2.0021  -1.9597  -1.9562  -1.9259  -1.9154  -1.8977
    -1.8806  -1.8688  -1.8016  -1.7200  -1.6875  -1.6382  -1.5834  -1.5796
    -1.2761  -1.2591  -1.1923  -1.1603  -1.0897  -1.0564  -1.0418  -1.0272
    -0.9959  -0.8959  -0.8059  -0.7870  -0.7238  -0.6626  -0.5636  -0.5490
    -0.4481  -0.3995  -0.3938  -0.3807  -0.3488  -0.2904  -0.2330  -0.1768
    -0.1265  -0.0438   0.0105   0.0192   0.0610   0.1051   0.1345   0.1928
     0.2553   0.2827   0.3158   0.3311   0.3723   0.4324   0.4539   0.4668
     0.5450   0.5854   0.6104   0.7084   0.7177   0.7566   0.8283   1.0131
     1.0587   1.1979   1.3368   1.4001   1.4658   1.5922   1.8686   1.9702
     2.0164   3.4515   3.5854   3.6064   3.6419   3.7137   3.7600   3.9332
     4.0289   4.0507   4.1115

[...]

          k = 0.0380-0.0419 0.0000 ( 17876 PWs)   bands (ev):

[...]

          k =-0.0760-0.0000 0.0000 ( 17886 PWs)   bands (ev):

[...]

          k =-0.0760-0.0839 0.0000 ( 17948 PWs)   bands (ev):

   -55.6215 -55.6214 -55.5055 -55.4988 -55.4629 -55.4588 -55.4481 -55.4478
   -55.4122 -55.4065 -55.4064 -55.3755 -55.3740 -55.2423 -54.6077 -54.6073
   -31.9395 -31.9395 -31.9153 -31.9152 -31.8851 -31.8493 -31.8205 -31.8020
   -31.7913 -31.7763 -31.7670 -31.7546 -31.7503 -31.7412 -31.7410 -31.7338
   -31.7334 -31.7212 -31.7184 -31.7116 -31.6856 -31.6832 -31.6780 -31.6721
   -31.6574 -31.6550 -31.6541 -31.6405 -31.6347 -31.6327 -31.6292 -31.6290
   -31.6250 -31.6222 -31.6218 -31.6172 -31.6156 -31.6042 -31.5889 -31.5383
   -31.4513 -31.4482 -30.9336 -30.9332 -30.8445 -30.8441 -30.8055 -30.8052
   -18.4371 -17.7398 -15.8525 -15.6087 -15.5950 -15.5585 -15.5396 -15.4206
   -15.3755 -15.3713 -15.3504 -15.2958 -15.2596 -15.2226 -15.1914 -15.1735
   -15.1501 -15.1389 -15.0976 -15.0942 -15.0871 -15.0652 -15.0239 -15.0132
   -14.9888 -14.9683 -14.9638 -14.9514 -14.9191 -14.7509 -14.6415 -13.1100
   -13.1099 -12.3902  -7.8859  -6.2064  -5.4851  -4.7610  -3.1466  -3.0666
    -3.0153  -2.8017  -2.7574  -2.7391  -2.7031  -2.6432  -2.5903  -2.5728
    -2.5542  -2.5259  -2.5162  -2.4637  -2.4379  -2.4120  -2.3873  -2.3717
    -2.3620  -2.3490  -2.3228  -2.3036  -2.2803  -2.2713  -2.2479  -2.2370
    -2.2152  -2.2071  -2.1928  -2.1709  -2.0824  -1.9995  -1.8980  -1.8391
    -1.7957  -1.7952  -1.7648  -1.7359  -1.7080  -1.7032  -1.6640  -1.6349
    -1.5635  -1.5046  -1.3205  -1.3069  -1.2623  -1.1789  -1.1767  -1.1293
    -1.1210  -1.0699  -1.0419  -0.9950  -0.9455  -0.9131  -0.8248  -0.6712
    -0.6227  -0.6026  -0.5968  -0.5815  -0.5409  -0.5264  -0.4742  -0.4569
    -0.4401  -0.3742  -0.3435  -0.3395  -0.2886  -0.2707  -0.1586  -0.0610
    -0.0332   0.0208   0.0603   0.1798   0.2916   0.3612   0.4625   0.4767
     0.4955   0.5490   0.6572   0.6669   0.7122   0.7741   0.8397   0.8452
     0.8758   0.9398   0.9518   0.9887   1.7630   1.7647   1.8177   1.8364
     1.8365   3.8600   3.9009   3.9514   3.9575   3.9814   4.0315   4.0388
     4.0696   4.1198   4.1356

     the Fermi energy is     3.4839 ev

!    total energy              =   -2973.97653766 Ry
     estimated scf accuracy    <       0.00000005 Ry
     smearing contrib. (-TS)   =      -0.01978352 Ry
     internal energy E=F+TS    =   -2973.95675414 Ry

     The total energy is F=E-TS. E is the sum of the following terms:
     one-electron contribution =  -24368.16852442 Ry
     hartree contribution      =   12278.62281489 Ry
     xc contribution           =    -494.13308323 Ry
     ewald contribution        =    9609.72049613 Ry
     electric field correction =       0.00154250 Ry

     convergence has been achieved in  70 iterations

     Forces acting on atoms (cartesian axes, Ry/au):

     atom    1 type  1   force =     0.00016194   -0.00030813    0.09440580
     atom    2 type  1   force =    -0.00007484   -0.00076925   -0.17587685
     atom    3 type  2   force =     0.00005751   -0.00019650   -0.02181653
     atom    4 type  2   force =     0.00003707   -0.00134690    0.05334297
     atom    5 type  2   force =    -0.00870342   -0.00018340    0.00366719
     atom    6 type  2   force =     0.01037029    0.00046941    0.00302052
     atom    7 type  1   force =    -0.00045188    0.00081022   -0.00104907
     atom    8 type  1   force =     0.00044570    0.00750735    0.00863274
     atom    9 type  2   force =     0.00046924    0.00015026    0.00005425
     atom   10 type  2   force =    -0.00262773    0.00131449   -0.01724280
     atom   11 type  2   force =    -0.00009151    0.00008845   -0.00040458
     atom   12 type  2   force =     0.00031019    0.00007189   -0.00007998
     atom   13 type  1   force =    -0.00040628   -0.00038524   -0.00021886
     atom   14 type  1   force =     0.00035407    0.00008033    0.00020771
     atom   15 type  2   force =     0.00012676   -0.00008199   -0.00030548
     atom   16 type  2   force =     0.00019832    0.00017791    0.00002706
     atom   17 type  2   force =    -0.00006215   -0.00008445    0.00006029
     atom   18 type  2   force =     0.00000087   -0.00000209   -0.00014651
     atom   19 type  1   force =    -0.00049519    0.00005203   -0.00076189
     atom   20 type  1   force =     0.00016344   -0.00013078    0.00007460
     atom   21 type  2   force =     0.00006725   -0.00000761    0.10329421
     atom   22 type  2   force =    -0.00027574   -0.00044923   -0.00006520
     atom   23 type  2   force =    -0.07154357   -0.00011290   -0.02735367
     atom   24 type  2   force =     0.07148056    0.00037524   -0.02736513
     atom   25 type  1   force =     0.00004455   -0.00021390    0.09439252
     atom   26 type  1   force =    -0.00013554   -0.00029669   -0.17599834
     atom   27 type  2   force =     0.00003679   -0.00018694   -0.02071787
     atom   28 type  2   force =     0.00009419   -0.00112480    0.05373358
     atom   29 type  2   force =    -0.00878451   -0.00002240    0.00343263
     atom   30 type  2   force =     0.01029801    0.00036591    0.00286509
     atom   31 type  1   force =    -0.00032489    0.00464877    0.00188864
     atom   32 type  1   force =     0.00043028   -0.00852426    0.00858553
     atom   33 type  2   force =    -0.00003758    0.00003200   -0.00001493
     atom   34 type  2   force =    -0.00403241   -0.00112038   -0.01184259
     atom   35 type  2   force =     0.00013730    0.00007849    0.00033439
     atom   36 type  2   force =     0.00053583    0.00006110   -0.00022241
     atom   37 type  1   force =     0.00061827   -0.00019860   -0.00000416
     atom   38 type  1   force =     0.00022053   -0.00015336   -0.00012288
     atom   39 type  2   force =    -0.00014877   -0.00000949   -0.00022462
     atom   40 type  2   force =     0.00047070    0.00001256    0.00039339
     atom   41 type  2   force =    -0.00015928    0.00048632    0.00013048
     atom   42 type  2   force =     0.00017899    0.00020590   -0.00008141
     atom   43 type  1   force =    -0.00038296    0.00017670   -0.00028798
     atom   44 type  1   force =     0.00033330    0.00052338    0.00090862
     atom   45 type  2   force =     0.00004961    0.00000243    0.10336527
     atom   46 type  2   force =    -0.07153832   -0.00004265   -0.02734367
     atom   47 type  2   force =     0.07147829    0.00035285   -0.02736888
     atom   48 type  3   force =     0.00038141   -0.00042870   -0.00064318
     atom   49 type  4   force =     0.00022965    0.00014143   -0.00043731
     atom   50 type  5   force =    -0.00001663   -0.00160058   -0.00101232
     atom   51 type  3   force =    -0.00042875    0.00043632    0.00100535
     atom   52 type  3   force =    -0.00006646   -0.00025051    0.00003995
     atom   53 type  4   force =     0.00001851    0.00016319    0.00069966
     atom   54 type  2   force =     0.00002352    0.00126872   -0.00022441
     atom   55 type  3   force =    -0.00002510   -0.00153345    0.00098149
     atom   56 type  3   force =     0.00099054   -0.00028847   -0.00031043

     Total force =     0.363830     Total SCF correction =     0.000857
  @ DRIVER MODE: Message from server: STATUS
  @ DRIVER MODE: Message from server: GETFORCE
  @ DRIVER MODE: Returning v,forces,stress,ensemble

     Writing output data file ./calc.save/
  @ DRIVER MODE: Message from server: EXIT
  @ DRIVE MODE: Exiting

     General routines

     Parallel routines

   This run was terminated on:   6:44:29  16Sep2021

   JOB DONE.