     Program PWSCF v.6.7GPU starts on  9Sep2021 at  9:38:10

     R & G space division:  proc/nbgrp/npool/nimage =      10
     Reading input from /storage/home/hcoda1/3/ntian30/research/carbon/CxH_vib/CH3_calc/ads_slab/CH3NNHHH_a/out_0035/pw.inp
Warning: card &CELL ignored
Warning: card   CELL_DYNAMICS='IPI', ignored
Warning: card / ignored

     Current dimensions of program PWSCF are:
     Max number of different atomic species (ntypx) = 10
     Max number of k-points (npk) =  40000
     Max angular momentum in pseudopotentials (lmaxx) =  3
     Presently no symmetry can be used with electric field

     Message from routine cell_base_init:
     DEPRECATED: use true lattice parameter, not A to a.u. conversion factor

     IMPORTANT: XC functional enforced from input :
     Exchange-correlation= BEEF-VDW
                           (   1   4  43  14   2   0   0)
     Any further DFT definition will be discarded
     Please, verify this is what you really want

  @ DRIVER MODE: Connecting to
 qe_1139763_2767399.sched-torque.pace.gatech.edutzsw2f8p_scratch
  using UNIX socket
  @ DRIVER MODE: Message from server: STATUS
  @ DRIVER MODE: Message from server: INIT
  @ DRIVER MODE: Receiving replica           0          -1
  @ DRIVER MODE: Receiving encoded integer          25
  @ DRIVER MODE:  SCF:  T  FORCE:  T  STRESS:  F  VC:  F  ENSEMBLE:  F
  @ DRIVER MODE:  SCF:  T  FORCE:  T  STRESS:  F  VC:  F  ENSEMBLE:  F

     Using Slab Decomposition

     bravais-lattice index     =            0
     lattice parameter (alat)  =       1.8897  a.u.
     unit-cell volume          =    6658.9804 (a.u.)^3
     number of atoms/cell      =           56
     number of atomic types    =            5
     number of electrons       =       398.00
     number of Kohn-Sham states=          209
     kinetic-energy cutoff     =      29.3995  Ry
     charge density cutoff     =     293.9946  Ry
     scf convergence threshold =      7.3E-08
     mixing beta               =       0.0500
     number of iterations used =            8  plain     mixing
     Exchange-correlation= BEEF-VDW
                           (   1   4  43  14   2   0   0)

     celldm(1)=   1.889726  celldm(2)=   0.000000  celldm(3)=   0.000000
     celldm(4)=   0.000000  celldm(5)=   0.000000  celldm(6)=   0.000000

     crystal axes: (cart. coord. in units of alat)
               a(1) = (   6.579727   0.000000   0.000000 )
               a(2) = (  -0.000775   5.961596   0.000000 )
               a(3) = (   0.000000   0.000000  25.155947 )

     reciprocal axes: (cart. coord. in units 2 pi/alat)
               b(1) = (  0.151982  0.000020  0.000000 )
               b(2) = (  0.000000  0.167740  0.000000 )
               b(3) = (  0.000000  0.000000  0.039752 )

     PseudoPot. # 1 for Ti read from file:
     /storage/coda1/p-amedford6/0/shared/rich_project_chbe-medford/medford-share/data/pseudos_module/espresso/nninc/pbe/van/Ti.UPF
     MD5 check sum: 8e4df49b7f0d34bbd5052bf3f5ea0213
     Pseudo is Ultrasoft, Zval = 12.0
     Generated by new atomic code, or converted to UPF format
     Using radial grid of  851 points,  6 beta functions with:
                l(1) =   0
                l(2) =   0
                l(3) =   1
                l(4) =   1
                l(5) =   2
                l(6) =   2
     Q(r) pseudized with  8 coefficients,  rinner =    1.000   1.000   1.000
                                                       1.000   1.000

     PseudoPot. # 2 for O  read from file:
     /storage/coda1/p-amedford6/0/shared/rich_project_chbe-medford/medford-share/data/pseudos_module/espresso/nninc/pbe/van/O.UPF
     MD5 check sum: 78c19812648e8988a0fe644b0f25305e
     Pseudo is Ultrasoft, Zval =  6.0
     Generated by new atomic code, or converted to UPF format
     Using radial grid of  737 points,  4 beta functions with:
                l(1) =   0
                l(2) =   0
                l(3) =   1
                l(4) =   1
     Q(r) pseudized with  8 coefficients,  rinner =    0.800   0.800   0.800

     PseudoPot. # 3 for N  read from file:
     /storage/coda1/p-amedford6/0/shared/rich_project_chbe-medford/medford-share/data/pseudos_module/espresso/nninc/pbe/van/N.UPF
     MD5 check sum: 90d10febe142ad51ac9d5be1deb811c4
     Pseudo is Ultrasoft, Zval =  5.0
     Generated by new atomic code, or converted to UPF format
     Using radial grid of  729 points,  4 beta functions with:
                l(1) =   0
                l(2) =   0
                l(3) =   1
                l(4) =   1
     Q(r) pseudized with  8 coefficients,  rinner =    0.800   0.800   0.800

     PseudoPot. # 4 for C  read from file:
     /storage/coda1/p-amedford6/0/shared/rich_project_chbe-medford/medford-share/data/pseudos_module/espresso/nninc/pbe/van/C.UPF
     MD5 check sum: 1a69bf6b8db32088f5b2163dbdb77a27
     Pseudo is Ultrasoft, Zval =  4.0
     Generated by new atomic code, or converted to UPF format
     Using radial grid of  721 points,  4 beta functions with:
                l(1) =   0
                l(2) =   0
                l(3) =   1
                l(4) =   1
     Q(r) pseudized with  8 coefficients,  rinner =    0.800   0.800   0.800

     PseudoPot. # 5 for H  read from file:
     /storage/coda1/p-amedford6/0/shared/rich_project_chbe-medford/medford-share/data/pseudos_module/espresso/nninc/pbe/van/H.UPF
     MD5 check sum: b5ee9d7bfd3a09ee7748110bda690ff7
     Pseudo is Ultrasoft, Zval =  1.0
     Generated by new atomic code, or converted to UPF format
     Using radial grid of  615 points,  1 beta functions with:
                l(1) =   0
     Q(r) pseudized with  8 coefficients,  rinner =    0.800

     atomic species   valence    mass     pseudopotential
        Ti1           12.00    47.86700     Ti( 1.00)
        O1             6.00    15.99900     O ( 1.00)
        N1             5.00    14.00700     N ( 1.00)
        C1             4.00    12.01100     C ( 1.00)
        H1             1.00     1.00800     H ( 1.00)

     No symmetry found

   Cartesian axes

     site n.     atom                  positions (alat units)
         1           Ti1 tau(   1) = (   0.0004258   2.9801865   6.0000000  )
         2           Ti1 tau(   2) = (   3.2906075   1.4906267   6.0002472  )
         3           O1  tau(   3) = (   0.0006271   0.0005054   7.9858123  )
         4           O1  tau(   4) = (   3.2906025   0.0005020   7.3038282  )
         5           O1  tau(   5) = (   4.5942328   1.4918067   9.2879030  )
         6           O1  tau(   6) = (   1.9868534   1.4903216   9.2879459  )
         7           Ti1 tau(   7) = (   3.2907910   2.8959150   9.1758416  )
         8           Ti1 tau(   8) = (   0.0015273   1.4827037   9.2680791  )
         9           O1  tau(   9) = (   3.3120675   0.0079458  11.3762204  )
        10           O1  tau(  10) = (   0.0116148   5.9584955  10.6183126  )
        11           O1  tau(  11) = (   1.3148726   1.5133626  12.6447579  )
        12           O1  tau(  12) = (   5.3140862   1.5122126  12.6508301  )
        13           Ti1 tau(  13) = (   0.0289753   2.9995974  12.5105963  )
        14           Ti1 tau(  14) = (   3.3300932   1.5144954  12.5190352  )
        15           O1  tau(  15) = (   0.0303621   0.0967028  14.6836000  )
        16           O1  tau(  16) = (   3.3188409   0.0235386  14.0025835  )
        17           O1  tau(  17) = (   4.5661268   1.5053193  16.2317874  )
        18           O1  tau(  18) = (   2.0488868   1.5039614  16.2002260  )
        19           Ti1 tau(  19) = (   3.3211226   2.9745325  15.7560014  )
        20           Ti1 tau(  20) = (   0.0641794   1.4487855  16.0607878  )
        21           O1  tau(  21) = (   3.2904802   0.0005063   4.7018136  )
        22           O1  tau(  22) = (   0.0207051   5.8381987  17.2232637  )
        23           O1  tau(  23) = (   1.3043587   1.4918075   6.0039043  )
        24           O1  tau(  24) = (   5.2767064   1.4903225   6.0039473  )
        25           Ti1 tau(  25) = (   0.0000382   5.9609847   6.0000000  )
        26           Ti1 tau(  26) = (   3.2902200   4.4714249   6.0002472  )
        27           O1  tau(  27) = (   0.0002396   2.9813036   7.9858123  )
        28           O1  tau(  28) = (   3.2902150   2.9813002   7.3038282  )
        29           O1  tau(  29) = (   4.5938453   4.4726049   9.2879030  )
        30           O1  tau(  30) = (   1.9864658   4.4711199   9.2879459  )
        31           Ti1 tau(  31) = (   3.2891106   5.8743827   9.1763621  )
        32           Ti1 tau(  32) = (   0.0006254   4.4649316   9.2693709  )
        33           O1  tau(  33) = (   3.3137607   3.0039157  11.3695003  )
        34           O1  tau(  34) = (   0.0092240   2.9805883  10.6323155  )
        35           O1  tau(  35) = (   1.3103219   4.4840529  12.6837359  )
        36           O1  tau(  36) = (   5.3166572   4.4842854  12.6901167  )
        37           Ti1 tau(  37) = (   0.0376818   0.0300362  12.4998423  )
        38           Ti1 tau(  38) = (   3.3279277   4.4933691  12.5326681  )
        39           O1  tau(  39) = (   0.0236785   2.9473731  14.9547601  )
        40           O1  tau(  40) = (   3.3158584   2.9778716  13.9675922  )
        41           O1  tau(  41) = (   4.5769684   4.4551829  16.1482216  )
        42           O1  tau(  42) = (   2.0574928   4.4544973  16.1629196  )
        43           Ti1 tau(  43) = (   3.3270828   0.0048838  15.7999907  )
        44           Ti1 tau(  44) = (   0.0216784   4.6657176  15.8371636  )
        45           O1  tau(  45) = (   3.2900926   2.9813045   4.7018136  )
        46           O1  tau(  46) = (   1.3039711   4.4726057   6.0039043  )
        47           O1  tau(  47) = (   5.2763189   4.4711207   6.0039473  )
        48           N1  tau(  48) = (   1.0300599   3.1028741  18.8625222  )
        49           N1  tau(  49) = (   6.4529598   2.6395754  18.1308714  )
        50           C1  tau(  50) = (   0.6566364   3.8075245  20.0867497  )
        51           H1  tau(  51) = (   6.5334193   4.6337433  19.9095685  )
        52           H1  tau(  52) = (   0.2127083   3.1054723  20.7945791  )
        53           H1  tau(  53) = (   1.5644534   4.2160081  20.5187796  )
        54           H1  tau(  54) = (   5.6912064   3.3271340  18.1715891  )
        55           H1  tau(  55) = (   6.1153184   1.7991689  18.5966666  )
        56           H1  tau(  56) = (   1.4989484   3.7555826  18.2384742  )

     number of k points=    10  Fermi-Dirac smearing, width (Ry)=  0.0073
                       cart. coord. in units 2pi/alat
        k(    1) = (   0.0000000   0.0000000   0.0000000), wk =   0.1250000
        k(    2) = (   0.0000000   0.0419351   0.0000000), wk =   0.2500000
        k(    3) = (   0.0000000  -0.0838702   0.0000000), wk =   0.1250000
        k(    4) = (   0.0379955   0.0000049   0.0000000), wk =   0.2500000
        k(    5) = (   0.0379955   0.0419400   0.0000000), wk =   0.2500000
        k(    6) = (   0.0379955  -0.0838652   0.0000000), wk =   0.2500000
        k(    7) = (   0.0379955  -0.0419301   0.0000000), wk =   0.2500000
        k(    8) = (  -0.0759910  -0.0000099   0.0000000), wk =   0.1250000
        k(    9) = (  -0.0759910   0.0419252   0.0000000), wk =   0.2500000
        k(   10) = (  -0.0759910  -0.0838800   0.0000000), wk =   0.1250000

     Initial potential from superposition of free atoms

     starting charge  381.99914, renormalised to  398.00000

     negative rho (up, down):  1.341E-02 0.000E+00

     %%%%%%%%%%%%%%%%%%%%%%%%%%%%%%%%%%%%%%%%%%%%%%%%%%%%%%%%%%%%%%%%%%%%%%%%
     %                                                                      %
     % You are using vdW-DF, which was implemented by the Thonhauser group. %
     % Please cite the following two papers that made this development      %
     % possible and the two reviews that describe the various versions:     %
     %                                                                      %
     %   T. Thonhauser et al., PRL 115, 136402 (2015).                      %
     %   T. Thonhauser et al., PRB 76, 125112 (2007).                       %
     %   K. Berland et al., Rep. Prog. Phys. 78, 066501 (2015).             %
     %   D.C. Langreth et al., J. Phys.: Condens. Matter 21, 084203 (2009). %
     %                                                                      %
     %                                                                      %
     % If you are calculating the stress with vdW-DF, please also cite:     %
     %                                                                      %
     %   R. Sabatini et al., J. Phys.: Condens. Matter 24, 424209 (2012).   %
     %                                                                      %
     %%%%%%%%%%%%%%%%%%%%%%%%%%%%%%%%%%%%%%%%%%%%%%%%%%%%%%%%%%%%%%%%%%%%%%%%

     Adding external electric field

     Computed dipole along edir(3) :
        Dipole              -11.7456 Ry au,        -29.8544 Debye
        Dipole field         -0.0222 Ry au,

        Potential amp.        2.0547 Ry
        Total length         46.3494 bohr

     Starting wfcs are  302 atomic wfcs
  @ DRIVER MODE: Message from server: STATUS
  @ DRIVER MODE: Message from server: POSDATA
  @ DRIVER MODE: Reading and sharing cell
  @ DRIVER MODE: Reading and sharing positions
  @ DRIVER MODE: Received positions

     Self-consistent Calculation

     iteration #  1     ecut=    29.40 Ry     beta= 0.05
     Davidson diagonalization with overlap
     c_bands:  1 eigenvalues not converged
     c_bands:  1 eigenvalues not converged
     c_bands:  1 eigenvalues not converged
     c_bands:  3 eigenvalues not converged
     c_bands:  3 eigenvalues not converged
     c_bands:  3 eigenvalues not converged
     c_bands:  4 eigenvalues not converged
     c_bands:  2 eigenvalues not converged
     ethr =  1.00E-05,  avg # of iterations = 21.6

[...]

     total energy              =   -2428.07988062 Ry
     estimated scf accuracy    <    5789.74749531 Ry

     iteration #  2     ecut=    29.40 Ry     beta= 0.05
     Davidson diagonalization with overlap
     ethr =  1.00E-02,  avg # of iterations = 22.1

[...]

     iteration # 65     ecut=    29.40 Ry     beta= 0.05
     Davidson diagonalization with overlap
     c_bands:  1 eigenvalues not converged
     c_bands:  1 eigenvalues not converged
     ethr =  6.24E-10,  avg # of iterations = 14.9

[...]

     total energy              =   -2942.85971739 Ry
     estimated scf accuracy    <       0.00000008 Ry

     iteration # 72     ecut=    29.40 Ry     beta= 0.05
     Davidson diagonalization with overlap
     ethr =  2.11E-11,  avg # of iterations =  2.0

     negative rho (up, down):  1.465E-02 0.000E+00

     Adding external electric field

     Computed dipole along edir(3) :
        Dipole                1.2216 Ry au,          3.1051 Debye
        Dipole field          0.0023 Ry au,

        Potential amp.       -0.2137 Ry
        Total length         46.3494 bohr

     End of self-consistent calculation

          k = 0.0000 0.0000 0.0000 ( 18029 PWs)   bands (ev):

   -55.3486 -55.3116 -55.3005 -55.2697 -55.2664 -55.2324 -55.2251 -55.1898
   -55.1688 -55.1451 -55.1344 -55.1324 -55.0988 -55.0267 -54.3302 -54.2961
   -31.9171 -31.8014 -31.7930 -31.7137 -31.6642 -31.6582 -31.6515 -31.6381
   -31.5897 -31.5892 -31.5581 -31.5528 -31.5454 -31.5298 -31.5185 -31.5110
   -31.5039 -31.4885 -31.4860 -31.4661 -31.4530 -31.4453 -31.4186 -31.4144
   -31.4033 -31.4011 -31.3997 -31.3715 -31.3577 -31.3557 -31.3508 -31.3314
   -31.3281 -31.3200 -31.3188 -31.3167 -31.2826 -31.2685 -31.2608 -31.2438
   -31.2330 -31.2085 -30.7396 -30.6453 -30.6232 -30.5559 -30.4692 -30.3583
   -17.7987 -16.1849 -15.9172 -15.7773 -15.6675 -15.5483 -15.4299 -15.4105
   -15.2783 -15.1954 -15.0755 -15.0525 -15.0262 -15.0071 -14.9946 -14.9798
   -14.8939 -14.8879 -14.8708 -14.8431 -14.8369 -14.7942 -14.7867 -14.7470
   -14.7259 -14.7242 -14.5960 -14.5081 -14.4362 -14.2001 -13.1823 -12.8330
   -12.7156  -9.7355  -6.3725  -5.3978  -4.8830  -3.5362  -3.4936  -3.3686
    -3.2786  -3.2639  -3.2414  -3.1053  -2.9524  -2.7846  -2.7795  -2.7633
    -2.6388  -2.5609  -2.5547  -2.5300  -2.3785  -2.3569  -2.3059  -2.2405
    -2.2127  -2.1649  -2.1538  -2.1324  -2.1132  -2.0934  -2.0851  -1.9713
    -1.9201  -1.8276  -1.7717  -1.7444  -1.7086  -1.6808  -1.6656  -1.6382
    -1.6301  -1.5878  -1.5610  -1.5390  -1.4877  -1.3756  -1.2670  -1.2366
    -1.1394  -0.9869  -0.9532  -0.9409  -0.9298  -0.8532  -0.8359  -0.7876
    -0.7349  -0.7268  -0.6961  -0.5853  -0.5269  -0.4619  -0.3953  -0.3837
    -0.3367  -0.2752  -0.1626  -0.1384  -0.1158  -0.0908   0.0028   0.0423
     0.0872   0.1621   0.1814   0.1950   0.3018   0.3096   0.3895   0.4017
     0.4473   0.5339   0.5681   0.5904   0.5943   0.6077   0.6379   0.7048
     0.7291   0.7555   0.8304   0.9544   1.0239   1.1864   1.2494   1.2632
     1.5928   1.5971   1.6923   1.8761   2.2685   2.3167   3.7489   3.8184
     3.8932   3.8999   3.9119   3.9856   4.2228   4.2391   4.2515   4.2577
     4.2924

[...]

          k = 0.0380-0.0419 0.0000 ( 17876 PWs)   bands (ev):

[...]

          k =-0.0760-0.0000 0.0000 ( 17886 PWs)   bands (ev):

[...]

          k =-0.0760-0.0839 0.0000 ( 17948 PWs)   bands (ev):

   -55.3344 -55.3256 -55.2835 -55.2833 -55.2682 -55.2290 -55.2116 -55.2033
   -55.1533 -55.1495 -55.1484 -55.1159 -55.1156 -55.0280 -54.3131 -54.3130
   -31.7243 -31.7215 -31.7177 -31.6341 -31.6082 -31.6080 -31.6056 -31.5748
   -31.5748 -31.5568 -31.5495 -31.5471 -31.5411 -31.5112 -31.5043 -31.4862
   -31.4859 -31.4819 -31.4786 -31.4733 -31.4703 -31.4694 -31.4325 -31.4273
   -31.4252 -31.4205 -31.4164 -31.4049 -31.4032 -31.4030 -31.3962 -31.3868
   -31.3825 -31.3664 -31.3629 -31.3470 -31.3462 -31.3369 -31.2968 -31.2966
   -31.2864 -31.2378 -30.6359 -30.6358 -30.5521 -30.5520 -30.5126 -30.5125
   -17.7940 -15.7082 -15.5964 -15.5501 -15.3768 -15.3545 -15.3321 -15.3173
   -15.1893 -15.1710 -15.1430 -15.1165 -15.0915 -15.0639 -15.0526 -15.0477
   -14.9653 -14.9534 -14.9460 -14.9299 -14.8618 -14.8588 -14.8546 -14.8487
   -14.7979 -14.7953 -14.7148 -14.7014 -14.7000 -14.5025 -13.1833 -12.8171
   -12.8170  -9.7320  -6.3601  -5.3975  -4.8889  -3.4652  -2.8651  -2.8300
    -2.8078  -2.8036  -2.5923  -2.5544  -2.5174  -2.5050  -2.4058  -2.3636
    -2.3460  -2.3388  -2.2683  -2.2651  -2.2342  -2.2040  -2.1829  -2.1659
    -2.1521  -2.1303  -2.1056  -2.0760  -2.0699  -2.0548  -2.0008  -1.9981
    -1.9825  -1.9604  -1.9429  -1.9220  -1.9052  -1.8487  -1.7265  -1.7163
    -1.6622  -1.5556  -1.5511  -1.4709  -1.4657  -1.4216  -1.3941  -1.3817
    -1.3544  -1.1747  -1.1211  -1.0946  -1.0871  -1.0751  -0.9669  -0.9327
    -0.8746  -0.8589  -0.8328  -0.7351  -0.6844  -0.6801  -0.5982  -0.5671
    -0.5276  -0.4861  -0.3852  -0.3554  -0.3354  -0.3064  -0.3030  -0.2495
    -0.2441  -0.1675  -0.1196  -0.0835  -0.0691  -0.0381   0.1613   0.1710
     0.1892   0.3362   0.3588   0.4990   0.5431   0.5849   0.6456   0.6973
     0.7634   0.8041   0.9309   0.9588   0.9595   1.0297   1.0502   1.0546
     1.1080   1.1099   2.0488   2.0494   2.1366   2.1369   3.8919   3.9964
     4.0112   4.0566   4.1664   4.2402   4.2634   4.2903   4.3332   4.3360
     4.4006

     the Fermi energy is     3.8116 ev

!    total energy              =   -2942.85973551 Ry
     estimated scf accuracy    <       0.00000007 Ry
     smearing contrib. (-TS)   =      -0.03701613 Ry
     internal energy E=F+TS    =   -2942.82271938 Ry

     The total energy is F=E-TS. E is the sum of the following terms:
     one-electron contribution =  -23389.84368947 Ry
     hartree contribution      =   11787.46410240 Ry
     xc contribution           =    -487.75939358 Ry
     ewald contribution        =    9147.31344489 Ry
     electric field correction =       0.00281638 Ry

     convergence has been achieved in  72 iterations

     Forces acting on atoms (cartesian axes, Ry/au):

     atom    1 type  1   force =     0.00000209   -0.00025595    0.09310363
     atom    2 type  1   force =    -0.00014450   -0.00043149   -0.17826468
     atom    3 type  2   force =     0.00007491   -0.00008905   -0.02025214
     atom    4 type  2   force =     0.00001465   -0.00186652    0.05881197
     atom    5 type  2   force =    -0.01020387   -0.00054282    0.00773412
     atom    6 type  2   force =     0.01225402    0.00007507    0.00819308
     atom    7 type  1   force =     0.00038657    0.00327925   -0.01427408
     atom    8 type  1   force =    -0.00045526    0.00045754   -0.00456622
     atom    9 type  2   force =    -0.00002709   -0.00061531   -0.00037147
     atom   10 type  2   force =    -0.00059834    0.00091390   -0.00141593
     atom   11 type  2   force =    -0.00037478   -0.00012143    0.00023683
     atom   12 type  2   force =     0.00006675   -0.00006906    0.00004522
     atom   13 type  1   force =     0.00005277   -0.00032473    0.00018032
     atom   14 type  1   force =    -0.00036215    0.00013428    0.00041785
     atom   15 type  2   force =    -0.00015924    0.00079460    0.00022970
     atom   16 type  2   force =    -0.00008873   -0.00018431    0.00032221
     atom   17 type  2   force =    -0.00047231    0.00004531    0.00041076
     atom   18 type  2   force =     0.00014949   -0.00020568   -0.00008797
     atom   19 type  1   force =     0.00035122    0.00027234    0.00089533
     atom   20 type  1   force =    -0.00063936   -0.00066241    0.00033185
     atom   21 type  2   force =     0.00000072   -0.00010353    0.10396666
     atom   22 type  2   force =    -0.00018558    0.00001796   -0.00061389
     atom   23 type  2   force =    -0.07035296   -0.00023006   -0.02686160
     atom   24 type  2   force =     0.07024986    0.00019596   -0.02694126
     atom   25 type  1   force =     0.00002046   -0.00026521    0.09276281
     atom   26 type  1   force =    -0.00012377   -0.00044709   -0.17829380
     atom   27 type  2   force =     0.00013912   -0.00032805   -0.01927524
     atom   28 type  2   force =     0.00008096   -0.00155042    0.05820745
     atom   29 type  2   force =    -0.01020974   -0.00033056    0.00695390
     atom   30 type  2   force =     0.01215787   -0.00008774    0.00748704
     atom   31 type  1   force =     0.00039844    0.00495866   -0.01541136
     atom   32 type  1   force =    -0.00037719   -0.00033355   -0.00467602
     atom   33 type  2   force =    -0.00021984   -0.00047886    0.00015441
     atom   34 type  2   force =    -0.00014168    0.00364159   -0.00060487
     atom   35 type  2   force =     0.00003666   -0.00056004    0.00032369
     atom   36 type  2   force =    -0.00019203   -0.00052958   -0.00002556
     atom   37 type  1   force =    -0.00026153   -0.00049377    0.00049084
     atom   38 type  1   force =    -0.00019220   -0.00089786    0.00045731
     atom   39 type  2   force =    -0.00047574   -0.00053330    0.00052170
     atom   40 type  2   force =     0.00001481   -0.00048728   -0.00041349
     atom   41 type  2   force =    -0.00081042   -0.00011438   -0.00012263
     atom   42 type  2   force =     0.00031207   -0.00025864   -0.00030122
     atom   43 type  1   force =     0.00006376   -0.00030355   -0.00007938
     atom   44 type  1   force =    -0.00008282   -0.00065047    0.00069191
     atom   45 type  2   force =     0.00000994   -0.00014398    0.10392212
     atom   46 type  2   force =    -0.07040347   -0.00017616   -0.02687916
     atom   47 type  2   force =     0.07026519    0.00026404   -0.02695087
     atom   48 type  3   force =    -0.00022611    0.00112887   -0.00088352
     atom   49 type  3   force =     0.00017007    0.00086531   -0.00052200
     atom   50 type  4   force =    -0.00488620   -0.00134806   -0.00315740
     atom   51 type  5   force =    -0.00075155   -0.00000190    0.00001719
     atom   52 type  5   force =     0.00093842    0.00015524    0.00069988
     atom   53 type  5   force =     0.00455990    0.00199986    0.00454068
     atom   54 type  5   force =     0.00004578   -0.00054291   -0.00040859
     atom   55 type  5   force =     0.00053147   -0.00176071   -0.00033844
     atom   56 type  5   force =     0.00007051   -0.00087334   -0.00011766

     Total force =     0.366246     Total SCF correction =     0.000711
  @ DRIVER MODE: Message from server: STATUS
  @ DRIVER MODE: Message from server: GETFORCE
  @ DRIVER MODE: Returning v,forces,stress,ensemble

     Writing output data file ./calc.save/
  @ DRIVER MODE: Message from server: EXIT
  @ DRIVE MODE: Exiting

     General routines

     Parallel routines

   This run was terminated on:   9:57:29   9Sep2021

   JOB DONE.