     Program PWSCF v.6.7GPU starts on 24Aug2021 at 13:47:17

     R & G space division:  proc/nbgrp/npool/nimage =      72
     Reading input from /storage/home/hcoda1/3/ntian30/research/carbon/CH2_vib/ads_slab/CH2NNH3_a/out_0011/pw.inp
Warning: card &CELL ignored
Warning: card   CELL_DYNAMICS='IPI', ignored
Warning: card / ignored

     Current dimensions of program PWSCF are:
     Max number of different atomic species (ntypx) = 10
     Max number of k-points (npk) =  40000
     Max angular momentum in pseudopotentials (lmaxx) =  3
     Presently no symmetry can be used with electric field

     Message from routine cell_base_init:
     DEPRECATED: use true lattice parameter, not A to a.u. conversion factor

     IMPORTANT: XC functional enforced from input :
     Exchange-correlation= BEEF-VDW
                           (   1   4  43  14   2   0   0)
     Any further DFT definition will be discarded
     Please, verify this is what you really want

  @ DRIVER MODE: Connecting to
 qe_1139763_2641442.sched-torque.pace.gatech.edu64l7n4mx_scratch
  using UNIX socket
  @ DRIVER MODE: Message from server: STATUS
  @ DRIVER MODE: Message from server: INIT
  @ DRIVER MODE: Receiving replica           0          -1
  @ DRIVER MODE: Receiving encoded integer          25
  @ DRIVER MODE:  SCF:  T  FORCE:  T  STRESS:  F  VC:  F  ENSEMBLE:  F
  @ DRIVER MODE:  SCF:  T  FORCE:  T  STRESS:  F  VC:  F  ENSEMBLE:  F

     Using Slab Decomposition

     bravais-lattice index     =            0
     lattice parameter (alat)  =       1.8897  a.u.
     unit-cell volume          =    6658.9804 (a.u.)^3
     number of atoms/cell      =           55
     number of atomic types    =            5
     number of electrons       =       397.00
     number of Kohn-Sham states=          208
     kinetic-energy cutoff     =      29.3995  Ry
     charge density cutoff     =     293.9946  Ry
     scf convergence threshold =      7.3E-08
     mixing beta               =       0.0500
     number of iterations used =            8  plain     mixing
     Exchange-correlation= BEEF-VDW
                           (   1   4  43  14   2   0   0)

     celldm(1)=   1.889726  celldm(2)=   0.000000  celldm(3)=   0.000000
     celldm(4)=   0.000000  celldm(5)=   0.000000  celldm(6)=   0.000000

     crystal axes: (cart. coord. in units of alat)
               a(1) = (   6.579727   0.000000   0.000000 )
               a(2) = (  -0.000775   5.961596   0.000000 )
               a(3) = (   0.000000   0.000000  25.155947 )

     reciprocal axes: (cart. coord. in units 2 pi/alat)
               b(1) = (  0.151982  0.000020  0.000000 )
               b(2) = (  0.000000  0.167740  0.000000 )
               b(3) = (  0.000000  0.000000  0.039752 )

     PseudoPot. # 1 for Ti read from file:
     /storage/coda1/p-amedford6/0/shared/rich_project_chbe-medford/medford-share/data/pseudos_module/espresso/nninc/pbe/van/Ti.UPF
     MD5 check sum: 8e4df49b7f0d34bbd5052bf3f5ea0213
     Pseudo is Ultrasoft, Zval = 12.0
     Generated by new atomic code, or converted to UPF format
     Using radial grid of  851 points,  6 beta functions with:
                l(1) =   0
                l(2) =   0
                l(3) =   1
                l(4) =   1
                l(5) =   2
                l(6) =   2
     Q(r) pseudized with  8 coefficients,  rinner =    1.000   1.000   1.000
                                                       1.000   1.000

     PseudoPot. # 2 for O  read from file:
     /storage/coda1/p-amedford6/0/shared/rich_project_chbe-medford/medford-share/data/pseudos_module/espresso/nninc/pbe/van/O.UPF
     MD5 check sum: 78c19812648e8988a0fe644b0f25305e
     Pseudo is Ultrasoft, Zval =  6.0
     Generated by new atomic code, or converted to UPF format
     Using radial grid of  737 points,  4 beta functions with:
                l(1) =   0
                l(2) =   0
                l(3) =   1
                l(4) =   1
     Q(r) pseudized with  8 coefficients,  rinner =    0.800   0.800   0.800

     PseudoPot. # 3 for N  read from file:
     /storage/coda1/p-amedford6/0/shared/rich_project_chbe-medford/medford-share/data/pseudos_module/espresso/nninc/pbe/van/N.UPF
     MD5 check sum: 90d10febe142ad51ac9d5be1deb811c4
     Pseudo is Ultrasoft, Zval =  5.0
     Generated by new atomic code, or converted to UPF format
     Using radial grid of  729 points,  4 beta functions with:
                l(1) =   0
                l(2) =   0
                l(3) =   1
                l(4) =   1
     Q(r) pseudized with  8 coefficients,  rinner =    0.800   0.800   0.800

     PseudoPot. # 4 for C  read from file:
     /storage/coda1/p-amedford6/0/shared/rich_project_chbe-medford/medford-share/data/pseudos_module/espresso/nninc/pbe/van/C.UPF
     MD5 check sum: 1a69bf6b8db32088f5b2163dbdb77a27
     Pseudo is Ultrasoft, Zval =  4.0
     Generated by new atomic code, or converted to UPF format
     Using radial grid of  721 points,  4 beta functions with:
                l(1) =   0
                l(2) =   0
                l(3) =   1
                l(4) =   1
     Q(r) pseudized with  8 coefficients,  rinner =    0.800   0.800   0.800

     PseudoPot. # 5 for H  read from file:
     /storage/coda1/p-amedford6/0/shared/rich_project_chbe-medford/medford-share/data/pseudos_module/espresso/nninc/pbe/van/H.UPF
     MD5 check sum: b5ee9d7bfd3a09ee7748110bda690ff7
     Pseudo is Ultrasoft, Zval =  1.0
     Generated by new atomic code, or converted to UPF format
     Using radial grid of  615 points,  1 beta functions with:
                l(1) =   0
     Q(r) pseudized with  8 coefficients,  rinner =    0.800

     atomic species   valence    mass     pseudopotential
        Ti1           12.00    47.86700     Ti( 1.00)
        O1             6.00    15.99900     O ( 1.00)
        N1             5.00    14.00700     N ( 1.00)
        C1             4.00    12.01100     C ( 1.00)
        H1             1.00     1.00800     H ( 1.00)

     No symmetry found

   Cartesian axes

     site n.     atom                  positions (alat units)
         1           Ti1 tau(   1) = (   0.0004258   2.9801865   6.0000000  )
         2           Ti1 tau(   2) = (   3.2906075   1.4906267   6.0002472  )
         3           O1  tau(   3) = (   0.0006271   0.0005054   7.9858123  )
         4           O1  tau(   4) = (   3.2906025   0.0005020   7.3038282  )
         5           O1  tau(   5) = (   4.5942328   1.4918067   9.2879030  )
         6           O1  tau(   6) = (   1.9868534   1.4903216   9.2879459  )
         7           Ti1 tau(   7) = (   3.2907910   2.8959150   9.1758416  )
         8           Ti1 tau(   8) = (   0.0015273   1.4827037   9.2680791  )
         9           O1  tau(   9) = (   3.2870044   0.0008392  11.3329265  )
        10           O1  tau(  10) = (   0.0116148   5.9584955  10.6183126  )
        11           O1  tau(  11) = (   1.3103063   1.4923116  12.6208530  )
        12           O1  tau(  12) = (   5.2933663   1.4849185  12.6124200  )
        13           Ti1 tau(  13) = (   6.5212574   2.9536302  12.6166858  )
        14           Ti1 tau(  14) = (   3.2058376   1.4897313  12.4816367  )
        15           O1  tau(  15) = (   6.5713238   0.0136578  14.6546308  )
        16           O1  tau(  16) = (   3.3039920   0.0133407  13.9274802  )
        17           O1  tau(  17) = (   4.5398155   1.5323753  16.0810081  )
        18           O1  tau(  18) = (   2.0543055   1.5218724  16.0470058  )
        19           Ti1 tau(  19) = (   3.2774803   3.0107093  15.7022328  )
        20           Ti1 tau(  20) = (   6.5342633   1.5374647  15.8423947  )
        21           O1  tau(  21) = (   3.2904802   0.0005063   4.7018136  )
        22           O1  tau(  22) = (   0.0034288   0.0322173  17.2228558  )
        23           O1  tau(  23) = (   1.3043587   1.4918075   6.0039043  )
        24           O1  tau(  24) = (   5.2767064   1.4903225   6.0039473  )
        25           Ti1 tau(  25) = (   0.0000382   5.9609847   6.0000000  )
        26           Ti1 tau(  26) = (   3.2902200   4.4714249   6.0002472  )
        27           O1  tau(  27) = (   0.0002396   2.9813036   7.9858123  )
        28           O1  tau(  28) = (   3.2902150   2.9813002   7.3038282  )
        29           O1  tau(  29) = (   4.5938453   4.4726049   9.2879030  )
        30           O1  tau(  30) = (   1.9864658   4.4711199   9.2879459  )
        31           Ti1 tau(  31) = (   3.2891106   5.8743827   9.1763621  )
        32           Ti1 tau(  32) = (   0.0006254   4.4649316   9.2693709  )
        33           O1  tau(  33) = (   3.2848367   2.9872869  11.3311783  )
        34           O1  tau(  34) = (   0.0092240   2.9805883  10.6323155  )
        35           O1  tau(  35) = (   1.3050274   4.4824158  12.6313026  )
        36           O1  tau(  36) = (   5.2955027   4.4751037  12.6224712  )
        37           Ti1 tau(  37) = (   6.5218534   5.9301143  12.5590122  )
        38           Ti1 tau(  38) = (   3.2037265   4.4702053  12.4865905  )
        39           O1  tau(  39) = (   6.5652647   2.9430126  14.6458727  )
        40           O1  tau(  40) = (   3.3006234   2.9978660  13.9063397  )
        41           O1  tau(  41) = (   4.5289998   4.4870283  16.1192093  )
        42           O1  tau(  42) = (   2.0463452   4.4937679  16.0531255  )
        43           Ti1 tau(  43) = (   3.2679282   0.0255942  15.7259849  )
        44           Ti1 tau(  44) = (   6.5624932   4.6695214  16.1100661  )
        45           O1  tau(  45) = (   3.2900926   2.9813045   4.7018136  )
        46           O1  tau(  46) = (   1.3039711   4.4726057   6.0039043  )
        47           O1  tau(  47) = (   5.2763189   4.4711207   6.0039473  )
        48           N1  tau(  48) = (   0.0665130   2.9625449  17.3937163  )
        49           C1  tau(  49) = (   0.2662726   2.8715582  18.6242609  )
        50           H1  tau(  50) = (   0.3859136   3.7587535  19.2661104  )
        51           H1  tau(  51) = (   0.3502417   1.8926937  19.1273272  )
        52           N1  tau(  52) = (   3.5829462   4.8819607  19.5834040  )
        53           H1  tau(  53) = (   4.1394342   5.6873527  19.8504637  )
        54           H1  tau(  54) = (   4.0752263   4.4438539  18.8113048  )
        55           H1  tau(  55) = (   3.6086599   4.2347498  20.3655469  )

     number of k points=    10  Fermi-Dirac smearing, width (Ry)=  0.0073
                       cart. coord. in units 2pi/alat
        k(    1) = (   0.0000000   0.0000000   0.0000000), wk =   0.1250000
        k(    2) = (   0.0000000   0.0419351   0.0000000), wk =   0.2500000
        k(    3) = (   0.0000000  -0.0838702   0.0000000), wk =   0.1250000
        k(    4) = (   0.0379955   0.0000049   0.0000000), wk =   0.2500000
        k(    5) = (   0.0379955   0.0419400   0.0000000), wk =   0.2500000
        k(    6) = (   0.0379955  -0.0838652   0.0000000), wk =   0.2500000
        k(    7) = (   0.0379955  -0.0419301   0.0000000), wk =   0.2500000
        k(    8) = (  -0.0759910  -0.0000099   0.0000000), wk =   0.1250000
        k(    9) = (  -0.0759910   0.0419252   0.0000000), wk =   0.2500000
        k(   10) = (  -0.0759910  -0.0838800   0.0000000), wk =   0.1250000

     Initial potential from superposition of free atoms

     starting charge  380.99914, renormalised to  397.00000

     negative rho (up, down):  1.456E-02 0.000E+00

     %%%%%%%%%%%%%%%%%%%%%%%%%%%%%%%%%%%%%%%%%%%%%%%%%%%%%%%%%%%%%%%%%%%%%%%%
     %                                                                      %
     % You are using vdW-DF, which was implemented by the Thonhauser group. %
     % Please cite the following two papers that made this development      %
     % possible and the two reviews that describe the various versions:     %
     %                                                                      %
     %   T. Thonhauser et al., PRL 115, 136402 (2015).                      %
     %   T. Thonhauser et al., PRB 76, 125112 (2007).                       %
     %   K. Berland et al., Rep. Prog. Phys. 78, 066501 (2015).             %
     %   D.C. Langreth et al., J. Phys.: Condens. Matter 21, 084203 (2009). %
     %                                                                      %
     %                                                                      %
     % If you are calculating the stress with vdW-DF, please also cite:     %
     %                                                                      %
     %   R. Sabatini et al., J. Phys.: Condens. Matter 24, 424209 (2012).   %
     %                                                                      %
     %%%%%%%%%%%%%%%%%%%%%%%%%%%%%%%%%%%%%%%%%%%%%%%%%%%%%%%%%%%%%%%%%%%%%%%%

     Adding external electric field

     Computed dipole along edir(3) :
        Dipole              -10.1071 Ry au,        -25.6896 Debye
        Dipole field         -0.0191 Ry au,

        Potential amp.        1.7681 Ry
        Total length         46.3494 bohr

     Starting wfcs are  301 atomic wfcs
  @ DRIVER MODE: Message from server: STATUS
  @ DRIVER MODE: Message from server: POSDATA
  @ DRIVER MODE: Reading and sharing cell
  @ DRIVER MODE: Reading and sharing positions
  @ DRIVER MODE: Received positions

     Self-consistent Calculation

     iteration #  1     ecut=    29.40 Ry     beta= 0.05
     Davidson diagonalization with overlap
     c_bands:  2 eigenvalues not converged
     c_bands:  1 eigenvalues not converged
     c_bands:  1 eigenvalues not converged
     c_bands:  1 eigenvalues not converged
     c_bands:  1 eigenvalues not converged
     c_bands:  1 eigenvalues not converged
     c_bands:  1 eigenvalues not converged
     c_bands:  2 eigenvalues not converged
     ethr =  1.00E-05,  avg # of iterations = 19.0

[...]

     total energy              =   -2537.43851774 Ry
     estimated scf accuracy    <    4508.81240816 Ry

     iteration #  2     ecut=    29.40 Ry     beta= 0.05
     Davidson diagonalization with overlap
     ethr =  1.00E-02,  avg # of iterations = 24.5

[...]

     iteration # 78     ecut=    29.40 Ry     beta= 0.05
     Davidson diagonalization with overlap
     c_bands:  1 eigenvalues not converged
     ethr =  1.50E-10,  avg # of iterations = 11.7

[...]

     total energy              =   -2941.70764454 Ry
     estimated scf accuracy    <       0.00000052 Ry

     iteration # 83     ecut=    29.40 Ry     beta= 0.05
     Davidson diagonalization with overlap
     ethr =  3.10E-11,  avg # of iterations =  8.3

     negative rho (up, down):  1.502E-02 0.000E+00

     Adding external electric field

     Computed dipole along edir(3) :
        Dipole                0.8792 Ry au,          2.2346 Debye
        Dipole field          0.0017 Ry au,

        Potential amp.       -0.1538 Ry
        Total length         46.3494 bohr

     End of self-consistent calculation

          k = 0.0000 0.0000 0.0000 ( 18029 PWs)   bands (ev):

   -55.7637 -55.7551 -55.7296 -55.7191 -55.6499 -55.6088 -55.5932 -55.5743
   -55.5721 -55.5382 -55.5362 -55.5026 -55.2842 -55.0328 -54.7408 -54.7068
   -32.3081 -32.2461 -32.1101 -32.0998 -32.0710 -32.0679 -32.0566 -32.0267
   -32.0061 -31.9825 -31.9757 -31.9556 -31.9348 -31.9157 -31.9072 -31.8942
   -31.8809 -31.8680 -31.8531 -31.8207 -31.8181 -31.8154 -31.7746 -31.7674
   -31.7666 -31.7651 -31.7600 -31.7509 -31.7382 -31.7237 -31.7165 -31.7115
   -31.7073 -31.7025 -31.6892 -31.6794 -31.6484 -31.5387 -31.4655 -31.3136
   -31.2867 -31.2407 -31.1480 -31.0596 -31.0372 -30.9646 -30.8781 -30.7672
   -16.5040 -16.2386 -16.0232 -15.9175 -15.8822 -15.7666 -15.6024 -15.4830
   -15.4308 -15.3329 -15.3189 -15.2993 -15.2658 -15.2512 -15.2333 -15.2109
   -15.2049 -15.1877 -15.1743 -15.1225 -15.0997 -15.0631 -14.9668 -14.9359
   -14.8982 -14.8831 -14.8244 -14.8184 -14.7621 -14.3380 -14.0358 -13.2431
   -13.1267  -7.2501  -4.1657  -4.1162  -4.0005  -3.8801  -3.7805  -3.7174
    -3.6688  -3.6087  -3.4054  -3.3138  -3.2934  -2.9907  -2.9452  -2.9300
    -2.9081  -2.8826  -2.6629  -2.6078  -2.5766  -2.5605  -2.5448  -2.5315
    -2.5239  -2.5050  -2.4703  -2.3736  -2.3238  -2.3041  -2.1813  -2.1525
    -2.0933  -2.0755  -2.0286  -2.0144  -2.0008  -1.9968  -1.9687  -1.9518
    -1.9291  -1.8497  -1.7327  -1.5799  -1.5615  -1.5283  -1.4275  -1.3704
    -1.3066  -1.2239  -1.2050  -1.1887  -1.1546  -1.1446  -1.0637  -0.9514
    -0.9108  -0.9025  -0.8000  -0.7598  -0.7387  -0.6348  -0.6109  -0.5419
    -0.5260  -0.5159  -0.4828  -0.3208  -0.2687  -0.2321  -0.1658  -0.1433
    -0.0923  -0.0662  -0.0358   0.0477   0.0939   0.1224   0.1253   0.1726
     0.2114   0.2279   0.2316   0.2470   0.2665   0.4338   0.5100   0.5239
     0.5933   0.6053   0.7674   0.8115   0.8940   0.9961   1.0481   1.2070
     1.2813   1.3707   1.4736   1.6916   1.8527   1.8983   3.3735   3.4568
     3.5053   3.5175   3.6159   3.6562   3.8263   3.8352   3.8449   3.9193

[...]

          k = 0.0380-0.0419 0.0000 ( 17876 PWs)   bands (ev):

[...]

          k =-0.0760-0.0000 0.0000 ( 17886 PWs)   bands (ev):

[...]

          k =-0.0760-0.0839 0.0000 ( 17948 PWs)   bands (ev):

   -55.7470 -55.7461 -55.7378 -55.7362 -55.6440 -55.5990 -55.5933 -55.5898
   -55.5559 -55.5540 -55.5202 -55.5189 -55.2831 -55.0337 -54.7238 -54.7237
   -32.1131 -32.1103 -32.0617 -32.0610 -32.0424 -32.0414 -32.0268 -32.0146
   -31.9619 -31.9579 -31.9534 -31.9494 -31.9150 -31.8878 -31.8869 -31.8831
   -31.8737 -31.8678 -31.8664 -31.8655 -31.8590 -31.8566 -31.8472 -31.8125
   -31.8063 -31.7999 -31.7868 -31.7741 -31.7547 -31.7543 -31.7514 -31.7503
   -31.7347 -31.7340 -31.7290 -31.7262 -31.6478 -31.5411 -31.4620 -31.3804
   -31.2884 -31.2627 -31.0500 -31.0499 -30.9608 -30.9606 -30.9214 -30.9214
   -15.9434 -15.9120 -15.7066 -15.6797 -15.6762 -15.6601 -15.5353 -15.4725
   -15.4587 -15.4564 -15.3932 -15.3729 -15.3364 -15.3097 -15.2939 -15.2841
   -15.2792 -15.2729 -15.2229 -15.2171 -15.1994 -15.1922 -15.0894 -15.0795
   -15.0756 -15.0215 -14.9403 -14.8098 -14.7753 -14.5097 -14.0355 -13.2286
   -13.2285  -7.2463  -4.1818  -4.0864  -4.0140  -3.4673  -3.2332  -3.1959
    -2.9365  -2.9183  -2.9048  -2.8497  -2.6769  -2.6594  -2.6380  -2.6201
    -2.5863  -2.5852  -2.5661  -2.5647  -2.5535  -2.5239  -2.5081  -2.4777
    -2.4403  -2.4295  -2.4180  -2.4170  -2.3864  -2.3767  -2.3381  -2.3088
    -2.2996  -2.2811  -2.2666  -2.0988  -1.9885  -1.9632  -1.8998  -1.8920
    -1.8635  -1.8271  -1.8199  -1.7998  -1.7483  -1.6662  -1.4954  -1.4628
    -1.4450  -1.3948  -1.3653  -1.3156  -1.2345  -1.1618  -1.1383  -1.1332
    -1.0833  -0.9737  -0.9524  -0.9433  -0.8734  -0.8319  -0.8191  -0.7854
    -0.7562  -0.7229  -0.7187  -0.6267  -0.5776  -0.5342  -0.5292  -0.4808
    -0.4137  -0.4025  -0.3733  -0.2649  -0.2419  -0.2012  -0.1484  -0.0393
     0.0256   0.2214   0.2753   0.3117   0.3685   0.4437   0.5268   0.5415
     0.5459   0.5564   0.6118   0.6653   0.7703   0.7792   0.8340   0.9411
     1.0153   1.6149   1.6451   1.6457   1.7181   1.7182   3.6562   3.6674
     3.7064   3.7271   3.8666   3.8808   3.9046   3.9054   3.9611   4.0425

     the Fermi energy is     3.3708 ev

!    total energy              =   -2941.70765379 Ry
     estimated scf accuracy    <       0.00000006 Ry
     smearing contrib. (-TS)   =      -0.02185274 Ry
     internal energy E=F+TS    =   -2941.68580105 Ry

     The total energy is F=E-TS. E is the sum of the following terms:
     one-electron contribution =  -23927.23366860 Ry
     hartree contribution      =   12053.19884644 Ry
     xc contribution           =    -486.77205294 Ry
     ewald contribution        =    9419.11961543 Ry
     electric field correction =       0.00145861 Ry

     convergence has been achieved in  83 iterations

     Forces acting on atoms (cartesian axes, Ry/au):

     atom    1 type  1   force =     0.00002602   -0.00026054    0.09661332
     atom    2 type  1   force =     0.00003997   -0.00057708   -0.17537018
     atom    3 type  2   force =     0.00011523   -0.00004400   -0.02486896
     atom    4 type  2   force =     0.00000113   -0.00141795    0.05292354
     atom    5 type  2   force =    -0.01225938   -0.00027122    0.00349899
     atom    6 type  2   force =     0.01361356    0.00025692    0.00257635
     atom    7 type  1   force =     0.00031565    0.00057835   -0.01138487
     atom    8 type  1   force =     0.00052179    0.00783498    0.02844126
     atom    9 type  2   force =     0.00020505    0.00041383    0.00052301
     atom   10 type  2   force =    -0.00292046    0.00138114   -0.01551427
     atom   11 type  2   force =     0.00066876   -0.00001145    0.00000991
     atom   12 type  2   force =    -0.00009871   -0.00014228   -0.00011193
     atom   13 type  1   force =    -0.00018324   -0.00031818    0.00094027
     atom   14 type  1   force =     0.00019184   -0.00007362   -0.00022429
     atom   15 type  2   force =     0.00017560    0.00045814    0.00034171
     atom   16 type  2   force =    -0.00033234   -0.00035893   -0.00026052
     atom   17 type  2   force =    -0.00057591    0.00004653   -0.00044716
     atom   18 type  2   force =     0.00029027    0.00048255   -0.00003199
     atom   19 type  1   force =    -0.00047610   -0.00078086   -0.00027966
     atom   20 type  1   force =     0.00039087    0.00068277   -0.00177823
     atom   21 type  2   force =     0.00005427   -0.00006308    0.10317433
     atom   22 type  2   force =    -0.00080657    0.00007608    0.00045260
     atom   23 type  2   force =    -0.07148263   -0.00013921   -0.02772369
     atom   24 type  2   force =     0.07141080    0.00032115   -0.02779724
     atom   25 type  1   force =     0.00016276   -0.00024603    0.09626184
     atom   26 type  1   force =     0.00008810   -0.00022825   -0.17560393
     atom   27 type  2   force =     0.00017045   -0.00019203   -0.02391938
     atom   28 type  2   force =     0.00000053   -0.00117523    0.05283847
     atom   29 type  2   force =    -0.01238835    0.00038871    0.00319432
     atom   30 type  2   force =     0.01364363    0.00085174    0.00223984
     atom   31 type  1   force =     0.00028635    0.00323810   -0.01197312
     atom   32 type  1   force =     0.00065459   -0.01006446    0.02884791
     atom   33 type  2   force =     0.00024259   -0.00024682    0.00065645
     atom   34 type  2   force =    -0.00237941    0.00102344   -0.02366769
     atom   35 type  2   force =     0.00059482   -0.00070880   -0.00006448
     atom   36 type  2   force =    -0.00017589   -0.00079307    0.00020084
     atom   37 type  1   force =    -0.00017954   -0.00014161    0.00041645
     atom   38 type  1   force =     0.00031611    0.00037759   -0.00066926
     atom   39 type  2   force =    -0.00008988   -0.00075263    0.00121891
     atom   40 type  2   force =     0.00026638   -0.00062518   -0.00008862
     atom   41 type  2   force =    -0.00016653   -0.00065407   -0.00002181
     atom   42 type  2   force =    -0.00044629   -0.00028900   -0.00000537
     atom   43 type  1   force =    -0.00047794    0.00070461    0.00006753
     atom   44 type  1   force =    -0.00021822    0.00052302   -0.00085916
     atom   45 type  2   force =     0.00007573   -0.00006970    0.10320317
     atom   46 type  2   force =    -0.07151614   -0.00009024   -0.02774559
     atom   47 type  2   force =     0.07142488    0.00033222   -0.02781085
     atom   48 type  3   force =    -0.00367714    0.00074368   -0.02461803
     atom   49 type  4   force =     0.00494986   -0.00162854    0.03259798
     atom   50 type  5   force =    -0.00092736   -0.00297560   -0.00311594
     atom   51 type  5   force =    -0.00052316    0.00351838   -0.00366180
     atom   52 type  3   force =    -0.00158099    0.00029918   -0.00068676
     atom   53 type  5   force =     0.00140100    0.00073803   -0.00011453
     atom   54 type  5   force =     0.00140492   -0.00039604    0.00105576
     atom   55 type  5   force =     0.00017870    0.00046456   -0.00187545

     Total force =     0.370388     Total SCF correction =     0.000757
  @ DRIVER MODE: Message from server: STATUS
  @ DRIVER MODE: Message from server: GETFORCE
  @ DRIVER MODE: Returning v,forces,stress,ensemble

     Writing output data file ./calc.save/
  @ DRIVER MODE: Message from server: EXIT
  @ DRIVE MODE: Exiting

     General routines

     Parallel routines

   This run was terminated on:  14:14:19  24Aug2021

   JOB DONE.