     Program PWSCF v.6.7GPU starts on 23Sep2021 at  3:54: 4

     R & G space division:  proc/nbgrp/npool/nimage =      10
     Reading input from /storage/home/hcoda1/3/ntian30/research/carbon/CxH_vib/H2O_calc/ads_slab/CHNHNHHO_b/out_0036/pw.inp
Warning: card &CELL ignored
Warning: card   CELL_DYNAMICS='IPI', ignored
Warning: card / ignored

     Current dimensions of program PWSCF are:
     Max number of different atomic species (ntypx) = 10
     Max number of k-points (npk) =  40000
     Max angular momentum in pseudopotentials (lmaxx) =  3
     Presently no symmetry can be used with electric field

     Message from routine cell_base_init:
     DEPRECATED: use true lattice parameter, not A to a.u. conversion factor

     IMPORTANT: XC functional enforced from input :
     Exchange-correlation= BEEF-VDW
                           (   1   4  43  14   2   0   0)
     Any further DFT definition will be discarded
     Please, verify this is what you really want

  @ DRIVER MODE: Connecting to
 qe_1139763_2937316.sched-torque.pace.gatech.edu0206m3t1_scratch
  using UNIX socket
  @ DRIVER MODE: Message from server: STATUS
  @ DRIVER MODE: Message from server: INIT
  @ DRIVER MODE: Receiving replica           0          -1
  @ DRIVER MODE: Receiving encoded integer          25
  @ DRIVER MODE:  SCF:  T  FORCE:  T  STRESS:  F  VC:  F  ENSEMBLE:  F
  @ DRIVER MODE:  SCF:  T  FORCE:  T  STRESS:  F  VC:  F  ENSEMBLE:  F

     Using Slab Decomposition

     bravais-lattice index     =            0
     lattice parameter (alat)  =       1.8897  a.u.
     unit-cell volume          =    6658.9804 (a.u.)^3
     number of atoms/cell      =           55
     number of atomic types    =            5
     number of electrons       =       402.00
     number of Kohn-Sham states=          211
     kinetic-energy cutoff     =      29.3995  Ry
     charge density cutoff     =     293.9946  Ry
     scf convergence threshold =      7.3E-08
     mixing beta               =       0.0500
     number of iterations used =            8  plain     mixing
     Exchange-correlation= BEEF-VDW
                           (   1   4  43  14   2   0   0)

     celldm(1)=   1.889726  celldm(2)=   0.000000  celldm(3)=   0.000000
     celldm(4)=   0.000000  celldm(5)=   0.000000  celldm(6)=   0.000000

     crystal axes: (cart. coord. in units of alat)
               a(1) = (   6.579727   0.000000   0.000000 )
               a(2) = (  -0.000775   5.961596   0.000000 )
               a(3) = (   0.000000   0.000000  25.155947 )

     reciprocal axes: (cart. coord. in units 2 pi/alat)
               b(1) = (  0.151982  0.000020  0.000000 )
               b(2) = (  0.000000  0.167740  0.000000 )
               b(3) = (  0.000000  0.000000  0.039752 )

     PseudoPot. # 1 for Ti read from file:
     /storage/coda1/p-amedford6/0/shared/rich_project_chbe-medford/medford-share/data/pseudos_module/espresso/nninc/pbe/van/Ti.UPF
     MD5 check sum: 8e4df49b7f0d34bbd5052bf3f5ea0213
     Pseudo is Ultrasoft, Zval = 12.0
     Generated by new atomic code, or converted to UPF format
     Using radial grid of  851 points,  6 beta functions with:
                l(1) =   0
                l(2) =   0
                l(3) =   1
                l(4) =   1
                l(5) =   2
                l(6) =   2
     Q(r) pseudized with  8 coefficients,  rinner =    1.000   1.000   1.000
                                                       1.000   1.000

     PseudoPot. # 2 for O  read from file:
     /storage/coda1/p-amedford6/0/shared/rich_project_chbe-medford/medford-share/data/pseudos_module/espresso/nninc/pbe/van/O.UPF
     MD5 check sum: 78c19812648e8988a0fe644b0f25305e
     Pseudo is Ultrasoft, Zval =  6.0
     Generated by new atomic code, or converted to UPF format
     Using radial grid of  737 points,  4 beta functions with:
                l(1) =   0
                l(2) =   0
                l(3) =   1
                l(4) =   1
     Q(r) pseudized with  8 coefficients,  rinner =    0.800   0.800   0.800

     PseudoPot. # 3 for N  read from file:
     /storage/coda1/p-amedford6/0/shared/rich_project_chbe-medford/medford-share/data/pseudos_module/espresso/nninc/pbe/van/N.UPF
     MD5 check sum: 90d10febe142ad51ac9d5be1deb811c4
     Pseudo is Ultrasoft, Zval =  5.0
     Generated by new atomic code, or converted to UPF format
     Using radial grid of  729 points,  4 beta functions with:
                l(1) =   0
                l(2) =   0
                l(3) =   1
                l(4) =   1
     Q(r) pseudized with  8 coefficients,  rinner =    0.800   0.800   0.800

     PseudoPot. # 4 for C  read from file:
     /storage/coda1/p-amedford6/0/shared/rich_project_chbe-medford/medford-share/data/pseudos_module/espresso/nninc/pbe/van/C.UPF
     MD5 check sum: 1a69bf6b8db32088f5b2163dbdb77a27
     Pseudo is Ultrasoft, Zval =  4.0
     Generated by new atomic code, or converted to UPF format
     Using radial grid of  721 points,  4 beta functions with:
                l(1) =   0
                l(2) =   0
                l(3) =   1
                l(4) =   1
     Q(r) pseudized with  8 coefficients,  rinner =    0.800   0.800   0.800

     PseudoPot. # 5 for H  read from file:
     /storage/coda1/p-amedford6/0/shared/rich_project_chbe-medford/medford-share/data/pseudos_module/espresso/nninc/pbe/van/H.UPF
     MD5 check sum: b5ee9d7bfd3a09ee7748110bda690ff7
     Pseudo is Ultrasoft, Zval =  1.0
     Generated by new atomic code, or converted to UPF format
     Using radial grid of  615 points,  1 beta functions with:
                l(1) =   0
     Q(r) pseudized with  8 coefficients,  rinner =    0.800

     atomic species   valence    mass     pseudopotential
        Ti1           12.00    47.86700     Ti( 1.00)
        O1             6.00    15.99900     O ( 1.00)
        N1             5.00    14.00700     N ( 1.00)
        C1             4.00    12.01100     C ( 1.00)
        H1             1.00     1.00800     H ( 1.00)

     No symmetry found

   Cartesian axes

     site n.     atom                  positions (alat units)
         1           Ti1 tau(   1) = (   0.0004258   2.9801865   6.0000000  )
         2           Ti1 tau(   2) = (   3.2906075   1.4906267   6.0002472  )
         3           O1  tau(   3) = (   0.0006271   0.0005054   7.9858123  )
         4           O1  tau(   4) = (   3.2906025   0.0005020   7.3038282  )
         5           O1  tau(   5) = (   4.5942328   1.4918067   9.2879030  )
         6           O1  tau(   6) = (   1.9868534   1.4903216   9.2879459  )
         7           Ti1 tau(   7) = (   3.2907910   2.8959150   9.1758416  )
         8           Ti1 tau(   8) = (   0.0015273   1.4827037   9.2680791  )
         9           O1  tau(   9) = (   3.2644249   0.0086278  11.2869930  )
        10           O1  tau(  10) = (   0.0116148   5.9584955  10.6183126  )
        11           O1  tau(  11) = (   1.2700591   1.4733127  12.6309263  )
        12           O1  tau(  12) = (   5.2751843   1.4954020  12.5848179  )
        13           Ti1 tau(  13) = (   6.5455424   3.1153876  12.7101385  )
        14           Ti1 tau(  14) = (   3.2833704   1.6184148  12.4736748  )
        15           O1  tau(  15) = (   6.4599305   0.0050319  14.6091115  )
        16           O1  tau(  16) = (   3.3300269   5.9263713  13.9180617  )
        17           O1  tau(  17) = (   4.5165145   1.5716339  16.0125648  )
        18           O1  tau(  18) = (   1.9127028   1.4417528  15.8564018  )
        19           Ti1 tau(  19) = (   3.2288969   3.0847727  15.7886749  )
        20           Ti1 tau(  20) = (   6.4478006   1.4606891  15.8161894  )
        21           O1  tau(  21) = (   3.2904802   0.0005063   4.7018136  )
        22           O1  tau(  22) = (   6.4882405   0.0114324  17.1415363  )
        23           O1  tau(  23) = (   1.3043587   1.4918075   6.0039043  )
        24           O1  tau(  24) = (   5.2767064   1.4903225   6.0039473  )
        25           Ti1 tau(  25) = (   0.0000382   5.9609847   6.0000000  )
        26           Ti1 tau(  26) = (   3.2902200   4.4714249   6.0002472  )
        27           O1  tau(  27) = (   0.0002396   2.9813036   7.9858123  )
        28           O1  tau(  28) = (   3.2902150   2.9813002   7.3038282  )
        29           O1  tau(  29) = (   4.5938453   4.4726049   9.2879030  )
        30           O1  tau(  30) = (   1.9864658   4.4711199   9.2879459  )
        31           Ti1 tau(  31) = (   3.2891106   5.8743827   9.1763621  )
        32           Ti1 tau(  32) = (   0.0006254   4.4649316   9.2693709  )
        33           O1  tau(  33) = (   3.2692249   2.9538419  11.2423542  )
        34           O1  tau(  34) = (   0.0092240   2.9805883  10.6323155  )
        35           O1  tau(  35) = (   1.2565178   4.4877289  12.6449601  )
        36           O1  tau(  36) = (   5.2732762   4.4628510  12.5929129  )
        37           Ti1 tau(  37) = (   6.5734634   0.1294159  12.5697125  )
        38           Ti1 tau(  38) = (   3.2704022   4.6437612  12.6513646  )
        39           O1  tau(  39) = (   6.5063912   2.9643141  14.6466205  )
        40           O1  tau(  40) = (   3.2471416   2.9787476  13.8564769  )
        41           O1  tau(  41) = (   4.5405411   4.3625105  16.0593999  )
        42           O1  tau(  42) = (   1.9254132   4.5167653  15.8604027  )
        43           Ti1 tau(  43) = (   3.1528194   0.1083906  16.0566338  )
        44           Ti1 tau(  44) = (   6.5270785   4.6226534  15.9816197  )
        45           O1  tau(  45) = (   3.2900926   2.9813045   4.7018136  )
        46           O1  tau(  46) = (   1.3039711   4.4726057   6.0039043  )
        47           O1  tau(  47) = (   5.2763189   4.4711207   6.0039473  )
        48           N1  tau(  48) = (   1.2829970   2.9130689  18.3045482  )
        49           N1  tau(  49) = (   0.1654257   2.9641015  17.4510142  )
        50           C1  tau(  50) = (   2.5260228   2.9473648  17.9488278  )
        51           H1  tau(  51) = (   3.1619500   2.8785295  18.8336233  )
        52           H1  tau(  52) = (   1.0209804   2.8219014  19.2831343  )
        53           H1  tau(  53) = (   5.9303595   2.9248499  18.0683253  )
        54           O1  tau(  54) = (   3.2854906   0.0173217  17.9285145  )
        55           H1  tau(  55) = (   4.1908827   5.7946650  18.2246816  )

     number of k points=    10  Fermi-Dirac smearing, width (Ry)=  0.0073
                       cart. coord. in units 2pi/alat
        k(    1) = (   0.0000000   0.0000000   0.0000000), wk =   0.1250000
        k(    2) = (   0.0000000   0.0419351   0.0000000), wk =   0.2500000
        k(    3) = (   0.0000000  -0.0838702   0.0000000), wk =   0.1250000
        k(    4) = (   0.0379955   0.0000049   0.0000000), wk =   0.2500000
        k(    5) = (   0.0379955   0.0419400   0.0000000), wk =   0.2500000
        k(    6) = (   0.0379955  -0.0838652   0.0000000), wk =   0.2500000
        k(    7) = (   0.0379955  -0.0419301   0.0000000), wk =   0.2500000
        k(    8) = (  -0.0759910  -0.0000099   0.0000000), wk =   0.1250000
        k(    9) = (  -0.0759910   0.0419252   0.0000000), wk =   0.2500000
        k(   10) = (  -0.0759910  -0.0838800   0.0000000), wk =   0.1250000

     Initial potential from superposition of free atoms

     starting charge  385.99915, renormalised to  402.00000

     negative rho (up, down):  1.797E-02 0.000E+00

     %%%%%%%%%%%%%%%%%%%%%%%%%%%%%%%%%%%%%%%%%%%%%%%%%%%%%%%%%%%%%%%%%%%%%%%%
     %                                                                      %
     % You are using vdW-DF, which was implemented by the Thonhauser group. %
     % Please cite the following two papers that made this development      %
     % possible and the two reviews that describe the various versions:     %
     %                                                                      %
     %   T. Thonhauser et al., PRL 115, 136402 (2015).                      %
     %   T. Thonhauser et al., PRB 76, 125112 (2007).                       %
     %   K. Berland et al., Rep. Prog. Phys. 78, 066501 (2015).             %
     %   D.C. Langreth et al., J. Phys.: Condens. Matter 21, 084203 (2009). %
     %                                                                      %
     %                                                                      %
     % If you are calculating the stress with vdW-DF, please also cite:     %
     %                                                                      %
     %   R. Sabatini et al., J. Phys.: Condens. Matter 24, 424209 (2012).   %
     %                                                                      %
     %%%%%%%%%%%%%%%%%%%%%%%%%%%%%%%%%%%%%%%%%%%%%%%%%%%%%%%%%%%%%%%%%%%%%%%%

     Adding external electric field

     Computed dipole along edir(3) :
        Dipole              -10.6959 Ry au,        -27.1862 Debye
        Dipole field         -0.0202 Ry au,

        Potential amp.        1.8711 Ry
        Total length         46.3494 bohr

     Starting wfcs are  304 atomic wfcs
  @ DRIVER MODE: Message from server: STATUS
  @ DRIVER MODE: Message from server: POSDATA
  @ DRIVER MODE: Reading and sharing cell
  @ DRIVER MODE: Reading and sharing positions
  @ DRIVER MODE: Received positions

     Self-consistent Calculation

     iteration #  1     ecut=    29.40 Ry     beta= 0.05
     Davidson diagonalization with overlap
     c_bands:  2 eigenvalues not converged
     c_bands:  4 eigenvalues not converged
     c_bands:  4 eigenvalues not converged
     c_bands:  3 eigenvalues not converged
     c_bands:  3 eigenvalues not converged
     c_bands:  3 eigenvalues not converged
     c_bands:  2 eigenvalues not converged
     c_bands:  4 eigenvalues not converged
     c_bands:  4 eigenvalues not converged
     ethr =  1.00E-05,  avg # of iterations = 21.7

[...]

     total energy              =   -2414.33386553 Ry
     estimated scf accuracy    <    6226.66367483 Ry

     iteration #  2     ecut=    29.40 Ry     beta= 0.05
     Davidson diagonalization with overlap
     ethr =  1.00E-02,  avg # of iterations = 25.8

[...]

     iteration # 32     ecut=    29.40 Ry     beta= 0.05
     Davidson diagonalization with overlap
     c_bands:  1 eigenvalues not converged
     ethr =  1.63E-06,  avg # of iterations =  9.2

[...]

     total energy              =   -2972.68735755 Ry
     estimated scf accuracy    <       0.00000011 Ry

     iteration # 57     ecut=    29.40 Ry     beta= 0.05
     Davidson diagonalization with overlap
     ethr =  2.68E-11,  avg # of iterations =  3.8

     negative rho (up, down):  1.822E-02 0.000E+00

     Adding external electric field

     Computed dipole along edir(3) :
        Dipole                0.6948 Ry au,          1.7660 Debye
        Dipole field          0.0013 Ry au,

        Potential amp.       -0.1215 Ry
        Total length         46.3494 bohr

     End of self-consistent calculation

          k = 0.0000 0.0000 0.0000 ( 18029 PWs)   bands (ev):

   -56.6064 -56.5729 -55.7182 -55.6844 -55.4146 -55.3707 -55.1427 -55.1089
   -54.9718 -54.9631 -54.9323 -54.8933 -54.8129 -54.7844 -54.7817 -54.7094
   -33.0247 -32.8788 -32.8508 -32.7846 -32.6945 -32.6518 -32.2067 -31.9407
   -31.9027 -31.9013 -31.8650 -31.8535 -31.8285 -31.6436 -31.6342 -31.6067
   -31.5719 -31.5273 -31.5142 -31.4911 -31.4674 -31.4666 -31.4487 -31.3785
   -31.3454 -31.2873 -31.2752 -31.2661 -31.2324 -31.2285 -31.1776 -31.1645
   -31.1544 -31.1130 -31.1081 -31.0948 -31.0683 -31.0620 -31.0603 -31.0235
   -31.0082 -31.0049 -30.9974 -30.9861 -30.9426 -30.9207 -30.9167 -30.9021
   -18.0628 -16.7067 -16.1529 -15.9191 -15.7965 -15.7785 -15.7694 -15.7529
   -15.5607 -15.5100 -15.4068 -15.3287 -15.3057 -15.0723 -15.0474 -14.9751
   -14.8435 -14.8085 -14.7248 -14.6986 -14.6892 -14.6089 -14.5936 -14.5086
   -14.4585 -14.4413 -14.3529 -14.2453 -14.1918 -14.0803 -14.0362 -13.6402
   -13.5337 -12.9444  -8.2586  -6.7462  -4.2806  -3.8272  -3.6180  -3.4602
    -3.2994  -3.2658  -3.1174  -3.0853  -3.0426  -3.0113  -2.9528  -2.9367
    -2.8640  -2.8440  -2.7427  -2.7093  -2.6583  -2.6395  -2.4087  -2.3506
    -2.3144  -2.3127  -2.2089  -2.1331  -2.1106  -2.1058  -2.0370  -1.9662
    -1.9084  -1.8629  -1.8449  -1.8239  -1.7999  -1.7004  -1.6151  -1.6026
    -1.5967  -1.5538  -1.4438  -1.4141  -1.3925  -1.3313  -1.2671  -1.2058
    -1.1736  -1.1509  -1.0518  -1.0412  -0.9383  -0.9106  -0.8752  -0.8199
    -0.7411  -0.7144  -0.5952  -0.5846  -0.4771  -0.4700  -0.4428  -0.4367
    -0.3372  -0.2571  -0.2032  -0.1511  -0.1269  -0.1057  -0.0469  -0.0405
    -0.0034   0.0325   0.1083   0.2010   0.2635   0.2989   0.3416   0.4967
     0.5382   0.5686   0.5824   0.6709   0.7147   0.7366   0.7698   0.8476
     0.8748   0.8784   0.9769   1.0148   1.0550   1.0789   1.1381   1.1749
     1.2035   1.3807   1.4129   1.4339   1.4548   1.5304   1.7658   1.8000
     1.9345   2.6882   2.8616   3.1310   3.2874   3.6537   3.6740   3.6923
     3.6935   3.9716   4.1417

[...]

          k = 0.0380-0.0419 0.0000 ( 17876 PWs)   bands (ev):

[...]

          k =-0.0760-0.0000 0.0000 ( 17886 PWs)   bands (ev):

[...]

          k =-0.0760-0.0839 0.0000 ( 17948 PWs)   bands (ev):

   -56.5899 -56.5893 -55.7030 -55.6995 -55.4066 -55.3787 -55.1258 -55.1257
   -54.9700 -54.9587 -54.9306 -54.8976 -54.8102 -54.7848 -54.7844 -54.7120
   -32.8648 -32.8643 -32.8424 -32.8415 -32.7382 -32.7381 -32.0295 -32.0253
   -31.9003 -31.8924 -31.8767 -31.8758 -31.7194 -31.6979 -31.6315 -31.6235
   -31.6052 -31.6001 -31.4797 -31.4797 -31.3856 -31.3449 -31.3445 -31.3063
   -31.3059 -31.2912 -31.2703 -31.2458 -31.2224 -31.2080 -31.1950 -31.1888
   -31.1724 -31.1464 -31.1439 -31.1328 -31.1188 -31.0997 -31.0784 -31.0618
   -31.0494 -31.0398 -31.0256 -31.0143 -31.0091 -30.9610 -30.9217 -30.9094
   -18.0577 -16.0715 -16.0684 -16.0167 -16.0160 -15.7689 -15.7615 -15.7017
   -15.4582 -15.4529 -15.2656 -15.1526 -15.1306 -15.0723 -15.0684 -14.9362
   -14.9163 -14.8981 -14.8104 -14.7596 -14.7271 -14.7051 -14.6405 -14.5719
   -14.4609 -14.4433 -14.4292 -14.3934 -14.3377 -14.2441 -14.2059 -13.6386
   -13.6376 -12.9651  -8.2509  -6.6634  -3.9794  -3.2939  -3.1350  -3.1340
    -3.1334  -3.1121  -2.9086  -2.8928  -2.8844  -2.7140  -2.6204  -2.6148
    -2.6117  -2.4738  -2.4418  -2.4326  -2.4166  -2.4006  -2.3273  -2.3129
    -2.3091  -2.2738  -2.2515  -2.0971  -2.0889  -2.0399  -1.9718  -1.9622
    -1.9398  -1.9059  -1.8411  -1.8035  -1.7988  -1.7813  -1.7635  -1.7436
    -1.6982  -1.6484  -1.4468  -1.3998  -1.3830  -1.3633  -1.3186  -1.3095
    -1.2906  -1.2322  -1.1948  -1.1854  -1.1607  -1.1327  -1.0598  -1.0404
    -0.9947  -0.8623  -0.8144  -0.7866  -0.7509  -0.6576  -0.6177  -0.5891
    -0.5564  -0.4697  -0.4126  -0.3793  -0.3015  -0.2639  -0.2185  -0.1931
    -0.1693  -0.1238  -0.1051   0.0027   0.0590   0.0906   0.1135   0.1987
     0.3283   0.3443   0.3980   0.4468   0.5392   0.5781   0.6559   0.6983
     0.7809   0.8588   0.9294   1.0800   1.1156   1.1711   1.2379   1.2550
     1.2568   1.2857   1.2966   1.3401   1.3616   1.4456   1.5207   1.6802
     1.7013   3.2831   3.2846   3.3422   3.3457   3.6510   3.6572   3.7600
     3.7670   4.0780   4.1282

     the Fermi energy is     2.3654 ev

!    total energy              =   -2972.68742438 Ry
     estimated scf accuracy    <       0.00000005 Ry
     smearing contrib. (-TS)   =      -0.00152210 Ry
     internal energy E=F+TS    =   -2972.68590229 Ry

     The total energy is F=E-TS. E is the sum of the following terms:
     one-electron contribution =  -24519.04428465 Ry
     hartree contribution      =   12355.83459150 Ry
     xc contribution           =    -493.18730857 Ry
     ewald contribution        =    9683.71018844 Ry
     electric field correction =       0.00091099 Ry

     convergence has been achieved in  57 iterations

     Forces acting on atoms (cartesian axes, Ry/au):

     atom    1 type  1   force =     0.00015585   -0.00061482    0.12521967
     atom    2 type  1   force =     0.00002804    0.00003305   -0.15412603
     atom    3 type  2   force =    -0.00003075   -0.00028293   -0.06550275
     atom    4 type  2   force =    -0.00011557    0.00074192    0.01448909
     atom    5 type  2   force =     0.00023064   -0.00325713   -0.01521076
     atom    6 type  2   force =     0.00028025   -0.00242118   -0.01817209
     atom    7 type  1   force =    -0.00129936   -0.00081690    0.06316301
     atom    8 type  1   force =     0.00165271    0.01846709    0.09183556
     atom    9 type  2   force =     0.00018118   -0.00019934   -0.00009323
     atom   10 type  2   force =    -0.00307777    0.00126164   -0.06785680
     atom   11 type  2   force =    -0.00036019   -0.00020500   -0.00021926
     atom   12 type  2   force =    -0.00028516    0.00043265    0.00015281
     atom   13 type  1   force =     0.00102232    0.00024531   -0.00006911
     atom   14 type  1   force =    -0.00051512    0.00061929   -0.00058077
     atom   15 type  2   force =    -0.00004052    0.00064043    0.00018599
     atom   16 type  2   force =     0.00007108    0.00018971   -0.00020578
     atom   17 type  2   force =    -0.00033793    0.00014483   -0.00020044
     atom   18 type  2   force =     0.00077201   -0.00058177    0.00005357
     atom   19 type  1   force =    -0.00022753   -0.00034441   -0.00012953
     atom   20 type  1   force =     0.00043893   -0.00045208   -0.00013521
     atom   21 type  2   force =     0.00008000    0.00004921    0.09751390
     atom   22 type  2   force =    -0.00020323    0.00020182    0.00042770
     atom   23 type  2   force =    -0.08326934    0.00000942   -0.03312697
     atom   24 type  2   force =     0.08318025    0.00045423   -0.03315008
     atom   25 type  1   force =     0.00015027   -0.00036399    0.12543764
     atom   26 type  1   force =    -0.00001861   -0.00123057   -0.15381136
     atom   27 type  2   force =    -0.00002284   -0.00014792   -0.06358842
     atom   28 type  2   force =     0.00000140    0.00071092    0.01024398
     atom   29 type  2   force =    -0.00228302    0.00250955   -0.01350366
     atom   30 type  2   force =     0.00266898    0.00282573   -0.01638383
     atom   31 type  1   force =    -0.00126662   -0.00142604    0.06109000
     atom   32 type  1   force =     0.00157910   -0.01943291    0.09388419
     atom   33 type  2   force =     0.00026053    0.00000508   -0.00020822
     atom   34 type  2   force =    -0.00076087    0.00124505   -0.07928139
     atom   35 type  2   force =     0.00028533   -0.00003278    0.00008976
     atom   36 type  2   force =    -0.00052871    0.00016201    0.00040276
     atom   37 type  1   force =     0.00094418    0.00011887    0.00033307
     atom   38 type  1   force =    -0.00055788   -0.00028647   -0.00005777
     atom   39 type  2   force =     0.00037271    0.00014234    0.00005208
     atom   40 type  2   force =    -0.00015741    0.00011036    0.00041021
     atom   41 type  2   force =    -0.00027967   -0.00001922   -0.00045765
     atom   42 type  2   force =     0.00043860   -0.00028222    0.00027466
     atom   43 type  1   force =    -0.00092446   -0.00039031   -0.00050777
     atom   44 type  1   force =     0.00012388    0.00096450   -0.00017388
     atom   45 type  2   force =     0.00007296    0.00006067    0.09737080
     atom   46 type  2   force =    -0.08320955   -0.00003651   -0.03311277
     atom   47 type  2   force =     0.08315649    0.00037886   -0.03311912
     atom   48 type  3   force =     0.00186901   -0.00011072   -0.00008503
     atom   49 type  3   force =    -0.00710531   -0.00057054    0.00774778
     atom   50 type  4   force =     0.00044071   -0.00026406    0.00016757
     atom   51 type  5   force =    -0.00016862   -0.00022686   -0.00033823
     atom   52 type  5   force =     0.00026651   -0.00013382   -0.00065607
     atom   53 type  5   force =     0.00596576    0.00017262   -0.00696113
     atom   54 type  2   force =     0.00008537    0.00045983    0.00060093
     atom   55 type  5   force =     0.00027101    0.00077350   -0.00012163

     Total force =     0.420025     Total SCF correction =     0.000742
  @ DRIVER MODE: Message from server: STATUS
  @ DRIVER MODE: Message from server: GETFORCE
  @ DRIVER MODE: Returning v,forces,stress,ensemble

     Writing output data file ./calc.save/
  @ DRIVER MODE: Message from server: EXIT
  @ DRIVE MODE: Exiting

     General routines

     Parallel routines

   This run was terminated on:   4:10:39  23Sep2021

   JOB DONE.