     Program PWSCF v.6.7GPU starts on 21Jul2021 at 13:30:31

     R & G space division:  proc/nbgrp/npool/nimage =      16
     Reading input from /storage/home/hcoda1/3/ntian30/research/carbon/15Jul_vib/ads_slab/CH3NHH_a/out_0040/pw.inp
Warning: card &CELL ignored
Warning: card   CELL_DYNAMICS='IPI', ignored
Warning: card / ignored

     Current dimensions of program PWSCF are:
     Max number of different atomic species (ntypx) = 10
     Max number of k-points (npk) =  40000
     Max angular momentum in pseudopotentials (lmaxx) =  3
     Presently no symmetry can be used with electric field

     Message from routine cell_base_init:
     DEPRECATED: use true lattice parameter, not A to a.u. conversion factor

     IMPORTANT: XC functional enforced from input :
     Exchange-correlation= BEEF-VDW
                           (   1   4  43  14   2   0   0)
     Any further DFT definition will be discarded
     Please, verify this is what you really want

  @ DRIVER MODE: Connecting to
 qe_1139763_2382402.sched-torque.pace.gatech.eduiq2c7wkt_scratch
  using UNIX socket
  @ DRIVER MODE: Message from server: STATUS
  @ DRIVER MODE: Message from server: INIT
  @ DRIVER MODE: Receiving replica           0          -1
  @ DRIVER MODE: Receiving encoded integer          25
  @ DRIVER MODE:  SCF:  T  FORCE:  T  STRESS:  F  VC:  F  ENSEMBLE:  F
  @ DRIVER MODE:  SCF:  T  FORCE:  T  STRESS:  F  VC:  F  ENSEMBLE:  F

     Using Slab Decomposition

     bravais-lattice index     =            0
     lattice parameter (alat)  =       1.8897  a.u.
     unit-cell volume          =    6658.9804 (a.u.)^3
     number of atoms/cell      =           54
     number of atomic types    =            5
     number of electrons       =       392.00
     number of Kohn-Sham states=          206
     kinetic-energy cutoff     =      29.3995  Ry
     charge density cutoff     =     293.9946  Ry
     scf convergence threshold =      7.3E-08
     mixing beta               =       0.0500
     number of iterations used =            8  plain     mixing
     Exchange-correlation= BEEF-VDW
                           (   1   4  43  14   2   0   0)

     celldm(1)=   1.889726  celldm(2)=   0.000000  celldm(3)=   0.000000
     celldm(4)=   0.000000  celldm(5)=   0.000000  celldm(6)=   0.000000

     crystal axes: (cart. coord. in units of alat)
               a(1) = (   6.579727   0.000000   0.000000 )
               a(2) = (  -0.000775   5.961596   0.000000 )
               a(3) = (   0.000000   0.000000  25.155947 )

     reciprocal axes: (cart. coord. in units 2 pi/alat)
               b(1) = (  0.151982  0.000020  0.000000 )
               b(2) = (  0.000000  0.167740  0.000000 )
               b(3) = (  0.000000  0.000000  0.039752 )

     PseudoPot. # 1 for Ti read from file:
     /storage/coda1/p-amedford6/0/shared/rich_project_chbe-medford/medford-share/data/pseudos_module/espresso/nninc/pbe/van/Ti.UPF
     MD5 check sum: 8e4df49b7f0d34bbd5052bf3f5ea0213
     Pseudo is Ultrasoft, Zval = 12.0
     Generated by new atomic code, or converted to UPF format
     Using radial grid of  851 points,  6 beta functions with:
                l(1) =   0
                l(2) =   0
                l(3) =   1
                l(4) =   1
                l(5) =   2
                l(6) =   2
     Q(r) pseudized with  8 coefficients,  rinner =    1.000   1.000   1.000
                                                       1.000   1.000

     PseudoPot. # 2 for O  read from file:
     /storage/coda1/p-amedford6/0/shared/rich_project_chbe-medford/medford-share/data/pseudos_module/espresso/nninc/pbe/van/O.UPF
     MD5 check sum: 78c19812648e8988a0fe644b0f25305e
     Pseudo is Ultrasoft, Zval =  6.0
     Generated by new atomic code, or converted to UPF format
     Using radial grid of  737 points,  4 beta functions with:
                l(1) =   0
                l(2) =   0
                l(3) =   1
                l(4) =   1
     Q(r) pseudized with  8 coefficients,  rinner =    0.800   0.800   0.800

     PseudoPot. # 3 for N  read from file:
     /storage/coda1/p-amedford6/0/shared/rich_project_chbe-medford/medford-share/data/pseudos_module/espresso/nninc/pbe/van/N.UPF
     MD5 check sum: 90d10febe142ad51ac9d5be1deb811c4
     Pseudo is Ultrasoft, Zval =  5.0
     Generated by new atomic code, or converted to UPF format
     Using radial grid of  729 points,  4 beta functions with:
                l(1) =   0
                l(2) =   0
                l(3) =   1
                l(4) =   1
     Q(r) pseudized with  8 coefficients,  rinner =    0.800   0.800   0.800

     PseudoPot. # 4 for C  read from file:
     /storage/coda1/p-amedford6/0/shared/rich_project_chbe-medford/medford-share/data/pseudos_module/espresso/nninc/pbe/van/C.UPF
     MD5 check sum: 1a69bf6b8db32088f5b2163dbdb77a27
     Pseudo is Ultrasoft, Zval =  4.0
     Generated by new atomic code, or converted to UPF format
     Using radial grid of  721 points,  4 beta functions with:
                l(1) =   0
                l(2) =   0
                l(3) =   1
                l(4) =   1
     Q(r) pseudized with  8 coefficients,  rinner =    0.800   0.800   0.800

     PseudoPot. # 5 for H  read from file:
     /storage/coda1/p-amedford6/0/shared/rich_project_chbe-medford/medford-share/data/pseudos_module/espresso/nninc/pbe/van/H.UPF
     MD5 check sum: b5ee9d7bfd3a09ee7748110bda690ff7
     Pseudo is Ultrasoft, Zval =  1.0
     Generated by new atomic code, or converted to UPF format
     Using radial grid of  615 points,  1 beta functions with:
                l(1) =   0
     Q(r) pseudized with  8 coefficients,  rinner =    0.800

     atomic species   valence    mass     pseudopotential
        Ti1           12.00    47.86700     Ti( 1.00)
        O1             6.00    15.99900     O ( 1.00)
        N1             5.00    14.00700     N ( 1.00)
        C1             4.00    12.01100     C ( 1.00)
        H1             1.00     1.00800     H ( 1.00)

     Starting magnetic structure
     atomic species   magnetization
        Ti1          0.000
        O1           0.000
        N1           0.000
        C1           0.025
        H1           0.000

     No symmetry found

   Cartesian axes

     site n.     atom                  positions (alat units)
         1           Ti1 tau(   1) = (   0.0004258   2.9801865   6.0000000  )
         2           Ti1 tau(   2) = (   3.2906075   1.4906267   6.0002472  )
         3           O1  tau(   3) = (   0.0006271   0.0005054   7.9858123  )
         4           O1  tau(   4) = (   3.2906025   0.0005020   7.3038282  )
         5           O1  tau(   5) = (   4.5942328   1.4918067   9.2879030  )
         6           O1  tau(   6) = (   1.9868534   1.4903216   9.2879459  )
         7           Ti1 tau(   7) = (   3.2907910   2.8959150   9.1758416  )
         8           Ti1 tau(   8) = (   0.0015273   1.4827037   9.2680791  )
         9           O1  tau(   9) = (   3.2893523   5.9576907  11.3759447  )
        10           O1  tau(  10) = (   0.0116148   5.9584955  10.6183126  )
        11           O1  tau(  11) = (   1.2892553   1.4862333  12.6941169  )
        12           O1  tau(  12) = (   5.2958346   1.4833122  12.6807028  )
        13           Ti1 tau(  13) = (   0.0095698   2.9692159  12.5083673  )
        14           Ti1 tau(  14) = (   3.3108451   1.4743585  12.5306019  )
        15           O1  tau(  15) = (   6.5736105   5.8801748  14.6991865  )
        16           O1  tau(  16) = (   3.2979610   5.9450902  14.0010558  )
        17           O1  tau(  17) = (   4.5273680   1.5185660  16.1654609  )
        18           O1  tau(  18) = (   2.0122787   1.5163527  16.1384539  )
        19           Ti1 tau(  19) = (   3.2802752   2.9921964  15.7561315  )
        20           Ti1 tau(  20) = (   0.0093588   1.3049760  15.8672178  )
        21           O1  tau(  21) = (   3.2904802   0.0005063   4.7018136  )
        22           O1  tau(  22) = (   6.5538635   0.1342075  17.2452287  )
        23           O1  tau(  23) = (   1.3043587   1.4918075   6.0039043  )
        24           O1  tau(  24) = (   5.2767064   1.4903225   6.0039473  )
        25           Ti1 tau(  25) = (   0.0000382   5.9609847   6.0000000  )
        26           Ti1 tau(  26) = (   3.2902200   4.4714249   6.0002472  )
        27           O1  tau(  27) = (   0.0002396   2.9813036   7.9858123  )
        28           O1  tau(  28) = (   3.2902150   2.9813002   7.3038282  )
        29           O1  tau(  29) = (   4.5938453   4.4726049   9.2879030  )
        30           O1  tau(  30) = (   1.9864658   4.4711199   9.2879459  )
        31           Ti1 tau(  31) = (   3.2891106   5.8743827   9.1763621  )
        32           Ti1 tau(  32) = (   0.0006254   4.4649316   9.2693709  )
        33           O1  tau(  33) = (   3.2933707   2.9638296  11.3700534  )
        34           O1  tau(  34) = (   0.0092240   2.9805883  10.6323155  )
        35           O1  tau(  35) = (   1.2923283   4.4540072  12.6594629  )
        36           O1  tau(  36) = (   5.2938616   4.4568750  12.6477176  )
        37           Ti1 tau(  37) = (   0.0202681   5.9396231  12.5027719  )
        38           Ti1 tau(  38) = (   3.3116628   4.4527548  12.5215617  )
        39           O1  tau(  39) = (   6.5466975   3.0260875  14.9671898  )
        40           O1  tau(  40) = (   3.2966604   2.9917109  13.9679302  )
        41           O1  tau(  41) = (   4.5116687   4.4737236  16.2360857  )
        42           O1  tau(  42) = (   2.0028912   4.4646324  16.2202640  )
        43           Ti1 tau(  43) = (   3.2937213   0.0113368  15.7972781  )
        44           Ti1 tau(  44) = (   0.0208052   4.5175143  16.0574476  )
        45           O1  tau(  45) = (   3.2900926   2.9813045   4.7018136  )
        46           O1  tau(  46) = (   1.3039711   4.4726057   6.0039043  )
        47           O1  tau(  47) = (   5.2763189   4.4711207   6.0039473  )
        48           N1  tau(  48) = (   6.3337458   3.3624127  18.1270434  )
        49           C1  tau(  49) = (   0.8795605   3.2639204  19.0799812  )
        50           H1  tau(  50) = (   1.4196110   4.2071110  19.0760701  )
        51           H1  tau(  51) = (   0.5395241   3.0459488  20.0957609  )
        52           H1  tau(  52) = (   1.5475163   2.4696122  18.7548312  )
        53           H1  tau(  53) = (   5.6940081   4.0973896  18.4182617  )
        54           H1  tau(  54) = (   5.7906660   2.5098151  18.1411682  )

     number of k points=    10  Fermi-Dirac smearing, width (Ry)=  0.0073
                       cart. coord. in units 2pi/alat
        k(    1) = (   0.0000000   0.0000000   0.0000000), wk =   0.0625000
        k(    2) = (   0.0000000   0.0419351   0.0000000), wk =   0.1250000
        k(    3) = (   0.0000000  -0.0838702   0.0000000), wk =   0.0625000
        k(    4) = (   0.0379955   0.0000049   0.0000000), wk =   0.1250000
        k(    5) = (   0.0379955   0.0419400   0.0000000), wk =   0.1250000
        k(    6) = (   0.0379955  -0.0838652   0.0000000), wk =   0.1250000
        k(    7) = (   0.0379955  -0.0419301   0.0000000), wk =   0.1250000
[...]
        k(   10) = (  -0.0759910  -0.0838800   0.0000000), wk =   0.0625000

     Initial potential from superposition of free atoms

     starting charge  375.99915, renormalised to  392.00000

     negative rho (up, down):  8.110E-03 8.117E-03

     %%%%%%%%%%%%%%%%%%%%%%%%%%%%%%%%%%%%%%%%%%%%%%%%%%%%%%%%%%%%%%%%%%%%%%%%
     %                                                                      %
     % You are using vdW-DF, which was implemented by the Thonhauser group. %
     % Please cite the following two papers that made this development      %
     % possible and the two reviews that describe the various versions:     %
     %                                                                      %
     %   T. Thonhauser et al., PRL 115, 136402 (2015).                      %
     %   T. Thonhauser et al., PRB 76, 125112 (2007).                       %
     %   K. Berland et al., Rep. Prog. Phys. 78, 066501 (2015).             %
     %   D.C. Langreth et al., J. Phys.: Condens. Matter 21, 084203 (2009). %
     %                                                                      %
     %                                                                      %
     % If you are calculating the stress with vdW-DF, please also cite:     %
     %                                                                      %
     %   R. Sabatini et al., J. Phys.: Condens. Matter 24, 424209 (2012).   %
     %                                                                      %
     %%%%%%%%%%%%%%%%%%%%%%%%%%%%%%%%%%%%%%%%%%%%%%%%%%%%%%%%%%%%%%%%%%%%%%%%

     Adding external electric field

     Computed dipole along edir(3) :
        Dipole               -7.5471 Ry au,        -19.1827 Debye
        Dipole field         -0.0142 Ry au,

        Potential amp.        1.3202 Ry
        Total length         46.3494 bohr

[...]

     Starting wfcs are  297 atomic wfcs
  @ DRIVER MODE: Message from server: STATUS
  @ DRIVER MODE: Message from server: POSDATA
  @ DRIVER MODE: Reading and sharing cell
  @ DRIVER MODE: Reading and sharing positions
  @ DRIVER MODE: Received positions

     Self-consistent Calculation

     iteration #  1     ecut=    29.40 Ry     beta= 0.05
     Davidson diagonalization with overlap
     c_bands:  1 eigenvalues not converged
     c_bands:  2 eigenvalues not converged
     c_bands:  1 eigenvalues not converged
     c_bands:  1 eigenvalues not converged
     c_bands:  1 eigenvalues not converged
     c_bands:  1 eigenvalues not converged
     c_bands:  1 eigenvalues not converged
     c_bands:  2 eigenvalues not converged
     c_bands:  1 eigenvalues not converged
     c_bands:  1 eigenvalues not converged
     c_bands:  1 eigenvalues not converged
     c_bands:  1 eigenvalues not converged
     ethr =  1.00E-05,  avg # of iterations = 19.6

[...]

     total energy              =   -2679.37640739 Ry
     estimated scf accuracy    <    2680.72577606 Ry

     total magnetization       =     0.00 Bohr mag/cell
     absolute magnetization    =     0.01 Bohr mag/cell

[...]

     iteration #  3     ecut=    29.40 Ry     beta= 0.05
     Davidson diagonalization with overlap
     ethr =  1.00E-02,  avg # of iterations = 15.2

[...]

     iteration #287     ecut=    29.40 Ry     beta= 0.05
     Davidson diagonalization with overlap
     ethr =  2.22E-11,  avg # of iterations =  7.8

[...]

     total energy              =   -2921.63322503 Ry
     estimated scf accuracy    <       0.00000008 Ry

[...]

     iteration #291     ecut=    29.40 Ry     beta= 0.05
     Davidson diagonalization with overlap
     c_bands:  1 eigenvalues not converged
     c_bands:  1 eigenvalues not converged
     c_bands:  3 eigenvalues not converged
     ethr =  1.94E-11,  avg # of iterations = 14.9

     negative rho (up, down):  8.595E-03 8.569E-03

[...]

     Adding external electric field

     Computed dipole along edir(3) :
        Dipole                1.3025 Ry au,          3.3107 Debye
        Dipole field          0.0025 Ry au,

        Potential amp.       -0.2279 Ry
        Total length         46.3494 bohr

     Magnetic moment per site  (integrated on atomic sphere of radius R)
     atom   1 (R=0.738)  charge=  8.0429  magn= -0.0739
     atom   2 (R=0.738)  charge=  8.0243  magn= -0.0032
     atom   3 (R=0.738)  charge=  5.0120  magn=  0.0096
     atom   4 (R=0.738)  charge=  5.0489  magn=  0.0009
     atom   5 (R=0.738)  charge=  5.0183  magn=  0.0023
     atom   6 (R=0.738)  charge=  5.0186  magn=  0.0023
     atom   7 (R=0.738)  charge=  8.0243  magn= -0.0057
     atom   8 (R=0.738)  charge=  8.0259  magn= -0.0698
     atom   9 (R=0.738)  charge=  5.0259  magn=  0.0011
     atom  10 (R=0.738)  charge=  5.0261  magn=  0.0046
     atom  11 (R=0.738)  charge=  5.0131  magn=  0.0018
     atom  12 (R=0.738)  charge=  5.0142  magn=  0.0018
     atom  13 (R=0.738)  charge=  8.0322  magn= -0.0191
     atom  14 (R=0.738)  charge=  8.0300  magn= -0.0090
     atom  15 (R=0.738)  charge=  5.0263  magn=  0.0006
     atom  16 (R=0.738)  charge=  5.0222  magn=  0.0003
     atom  17 (R=0.738)  charge=  4.9995  magn= -0.0001
     atom  18 (R=0.738)  charge=  5.0035  magn= -0.0001
     atom  19 (R=0.738)  charge=  8.0638  magn= -0.0000
     atom  20 (R=0.738)  charge=  8.0765  magn= -0.0012
     atom  21 (R=0.738)  charge=  4.8972  magn=  0.0027
     atom  22 (R=0.738)  charge=  4.9759  magn= -0.0001
     atom  23 (R=0.738)  charge=  5.0094  magn=  0.0076
     atom  24 (R=0.738)  charge=  5.0095  magn=  0.0076
     atom  25 (R=0.738)  charge=  8.0429  magn= -0.0740
     atom  26 (R=0.738)  charge=  8.0243  magn= -0.0032
     atom  27 (R=0.738)  charge=  5.0118  magn=  0.0097
     atom  28 (R=0.738)  charge=  5.0492  magn=  0.0009
     atom  29 (R=0.738)  charge=  5.0191  magn=  0.0023
     atom  30 (R=0.738)  charge=  5.0194  magn=  0.0023
     atom  31 (R=0.738)  charge=  8.0245  magn= -0.0057
     atom  32 (R=0.738)  charge=  8.0260  magn= -0.0704
     atom  33 (R=0.738)  charge=  5.0253  magn=  0.0011
     atom  34 (R=0.738)  charge=  5.0228  magn=  0.0048
     atom  35 (R=0.738)  charge=  5.0162  magn=  0.0019
     atom  36 (R=0.738)  charge=  5.0179  magn=  0.0019
     atom  37 (R=0.738)  charge=  8.0279  magn= -0.0193
     atom  38 (R=0.738)  charge=  8.0303  magn= -0.0092
     atom  39 (R=0.738)  charge=  5.0063  magn=  0.0005
     atom  40 (R=0.738)  charge=  5.0343  magn=  0.0003
     atom  41 (R=0.738)  charge=  4.9975  magn= -0.0001
     atom  42 (R=0.738)  charge=  5.0021  magn= -0.0000
     atom  43 (R=0.738)  charge=  8.0613  magn=  0.0002
     atom  44 (R=0.738)  charge=  8.0414  magn= -0.0028
     atom  45 (R=0.738)  charge=  4.8972  magn=  0.0027
     atom  46 (R=0.738)  charge=  5.0094  magn=  0.0076
     atom  47 (R=0.738)  charge=  5.0095  magn=  0.0076
     atom  48 (R=0.417)  charge=  1.3206  magn=  0.0000
     atom  49 (R=0.448)  charge=  0.8444  magn=  0.0000
     atom  50 (R=0.417)  charge=  0.4390  magn= -0.0000
     atom  51 (R=0.417)  charge=  0.4399  magn= -0.0000
     atom  52 (R=0.417)  charge=  0.4385  magn= -0.0000
     atom  53 (R=0.417)  charge=  0.4449  magn= -0.0000
     atom  54 (R=0.417)  charge=  0.4511  magn= -0.0000

     End of self-consistent calculation

 ------ SPIN UP ------------

          k = 0.0000 0.0000 0.0000 ( 18029 PWs)   bands (ev):

   -55.4281 -55.3916 -55.3579 -55.3205 -55.3057 -55.2974 -55.2714 -55.2629
   -55.2477 -55.2410 -55.2134 -55.1437 -55.1176 -55.1098 -54.4059 -54.3719
   -32.0010 -31.8894 -31.8391 -31.7914 -31.7485 -31.7460 -31.7381 -31.6747
   -31.6474 -31.6433 -31.6348 -31.6179 -31.6021 -31.5975 -31.5871 -31.5820
   -31.5645 -31.5574 -31.5399 -31.5329 -31.5123 -31.5102 -31.4853 -31.4782
   -31.4768 -31.4595 -31.4501 -31.4488 -31.4276 -31.4159 -31.4093 -31.4052
   -31.3784 -31.3704 -31.3626 -31.3615 -31.3514 -31.3359 -31.3246 -31.3006
   -31.2608 -31.2511 -30.8165 -30.7194 -30.6981 -30.6315 -30.5447 -30.4351
   -16.3009 -16.1848 -15.9793 -15.8358 -15.7523 -15.6308 -15.5191 -15.5031
   -15.3648 -15.2829 -15.1653 -15.1408 -15.1217 -15.0988 -15.0872 -15.0718
   -14.9754 -14.9712 -14.9609 -14.9257 -14.9228 -14.8785 -14.8709 -14.8279
   -14.8131 -14.8063 -14.6869 -14.5915 -14.5177 -14.2830 -12.9136 -12.7961
   -10.2532  -6.3014  -4.8528  -3.9711  -3.6070  -3.4502  -3.3590  -3.3403
    -3.3146  -3.1790  -3.0449  -2.8991  -2.8418  -2.8385  -2.7192  -2.6431
    -2.6353  -2.6185  -2.4625  -2.4277  -2.3865  -2.3415  -2.2948  -2.2357
    -2.2222  -2.2155  -2.2000  -2.1821  -2.1708  -2.0558  -1.9967  -1.9149
    -1.8538  -1.8372  -1.7840  -1.7564  -1.7405  -1.7165  -1.7002  -1.6660
    -1.6609  -1.6243  -1.5681  -1.4531  -1.3638  -1.3074  -1.1943  -1.0666
    -1.0257  -1.0184  -0.9813  -0.9378  -0.9178  -0.8556  -0.8007  -0.7791
    -0.7255  -0.6621  -0.6020  -0.5531  -0.4787  -0.4700  -0.4158  -0.3689
    -0.2536  -0.2131  -0.1968  -0.1730  -0.0829  -0.0448  -0.0010   0.0812
     0.0933   0.1092   0.2077   0.2215   0.2904   0.3366   0.3543   0.4497
     0.4853   0.4938   0.5036   0.5255   0.5529   0.6025   0.6435   0.6704
     0.7393   0.8646   1.0787   1.1531   1.1831   1.5050   1.5185   1.6131
     1.7961   2.1879   2.2391   3.7200   3.7784   3.8292   3.8453   3.8955
     3.9489   4.1439   4.1677   4.1797   4.2048   4.2226

[...]

          k =-0.0760-0.0000 0.0000 ( 17886 PWs)   bands (ev):

[...]

 ------ SPIN DOWN ----------

[...]

          k = 0.0380-0.0419 0.0000 ( 17876 PWs)   bands (ev):

[...]

          k =-0.0760-0.0839 0.0000 ( 17948 PWs)   bands (ev):

   -55.4288 -55.4225 -55.4206 -55.4203 -55.3610 -55.3159 -55.3152 -55.3126
   -55.2526 -55.2514 -55.2435 -55.2426 -55.2388 -55.1208 -54.3949 -54.3947
   -31.8149 -31.8120 -31.8102 -31.7240 -31.7228 -31.7227 -31.7087 -31.7085
   -31.7009 -31.6558 -31.6484 -31.6419 -31.6342 -31.6102 -31.6020 -31.5955
   -31.5922 -31.5770 -31.5727 -31.5727 -31.5688 -31.5654 -31.5568 -31.5540
   -31.5513 -31.5510 -31.5182 -31.5154 -31.5099 -31.5094 -31.5058 -31.4756
   -31.4718 -31.4573 -31.4567 -31.4541 -31.4529 -31.4404 -31.4394 -31.4326
   -31.3824 -31.3303 -30.7178 -30.7176 -30.6323 -30.6322 -30.5943 -30.5942
   -16.1660 -15.7812 -15.6890 -15.6413 -15.4598 -15.4295 -15.4211 -15.4063
   -15.2709 -15.2565 -15.2325 -15.1980 -15.1781 -15.1451 -15.1313 -15.1298
   -15.0509 -15.0394 -15.0314 -15.0173 -14.9453 -14.9362 -14.9332 -14.9260
   -14.8684 -14.8652 -14.8180 -14.7790 -14.7761 -14.5732 -12.8924 -12.8923
   -10.2564  -6.2726  -4.8497  -3.9342  -2.9614  -2.9405  -2.8970  -2.8941
    -2.6861  -2.6424  -2.6065  -2.5821  -2.4931  -2.4483  -2.4368  -2.4284
    -2.3579  -2.3408  -2.3215  -2.2747  -2.2685  -2.2559  -2.2334  -2.2061
    -2.1839  -2.1627  -2.1533  -2.1361  -2.0868  -2.0757  -2.0541  -2.0365
    -2.0332  -2.0169  -1.9848  -1.9408  -1.8167  -1.8083  -1.7422  -1.6386
    -1.6338  -1.5579  -1.5450  -1.5117  -1.4840  -1.4600  -1.4217  -1.2521
    -1.2084  -1.1778  -1.1687  -1.1166  -1.0493  -1.0244  -0.9556  -0.9382
    -0.9188  -0.8178  -0.7737  -0.7577  -0.6690  -0.6575  -0.5789  -0.5142
    -0.4705  -0.4416  -0.3990  -0.3828  -0.3797  -0.3360  -0.3283  -0.2496
    -0.2017  -0.1624  -0.1485  -0.1233   0.0719   0.0834   0.1092   0.2528
     0.2776   0.4014   0.4375   0.4881   0.5627   0.5952   0.6823   0.7169
     0.8432   0.8808   0.8843   0.9537   0.9640   1.0252   1.0347   1.9718
     1.9725   2.0603   2.0604   3.8169   3.8945   3.9082   3.9498   4.0674
     4.1393   4.1463   4.1706   4.2291   4.2321   4.2627

     the Fermi energy is     3.7256 ev

!    total energy              =   -2921.63322523 Ry
     estimated scf accuracy    <       0.00000007 Ry
     smearing contrib. (-TS)   =      -0.03623241 Ry
     internal energy E=F+TS    =   -2921.59699283 Ry

     The total energy is F=E-TS. E is the sum of the following terms:
     one-electron contribution =  -24028.68227406 Ry
     hartree contribution      =   12103.43142492 Ry
     xc contribution           =    -481.75975562 Ry
     ewald contribution        =    9485.41041030 Ry
     electric field correction =       0.00320164 Ry

     total magnetization       =    -0.49 Bohr mag/cell
     absolute magnetization    =     0.68 Bohr mag/cell

     convergence has been achieved in 291 iterations

     Forces acting on atoms (cartesian axes, Ry/au):

     atom    1 type  1   force =     0.00003446   -0.00022041    0.09327346
     atom    2 type  1   force =    -0.00018945   -0.00036024   -0.17846963
     atom    3 type  2   force =     0.00002883   -0.00039104   -0.02001666
     atom    4 type  2   force =    -0.00002761   -0.00195931    0.05904023
     atom    5 type  2   force =    -0.01048620   -0.00107778    0.00784848
     atom    6 type  2   force =     0.01195926   -0.00035986    0.00701427
     atom    7 type  1   force =    -0.00048729    0.00202428   -0.01489339
     atom    8 type  1   force =     0.00024084   -0.00045740   -0.00523210
     atom    9 type  2   force =     0.00015376    0.00011585    0.00008325
     atom   10 type  2   force =    -0.00113397    0.00135208    0.00114396
     atom   11 type  2   force =    -0.00008362    0.00015399    0.00014176
     atom   12 type  2   force =    -0.00005173    0.00036142    0.00031522
     atom   13 type  1   force =    -0.00003672   -0.00019522   -0.00070587
     atom   14 type  1   force =    -0.00015344    0.00010911    0.00016434
     atom   15 type  2   force =    -0.00021220   -0.00033094    0.00016534
     atom   16 type  2   force =    -0.00022172    0.00019188    0.00022369
     atom   17 type  2   force =     0.00013637   -0.00006793    0.00009788
     atom   18 type  2   force =    -0.00003953   -0.00019624    0.00018970
     atom   19 type  1   force =    -0.00031696    0.00027693    0.00033157
     atom   20 type  1   force =    -0.00007204   -0.00015587   -0.00022319
     atom   21 type  2   force =     0.00002997   -0.00006404    0.10397095
     atom   22 type  2   force =     0.00030134    0.00038375   -0.00009258
     atom   23 type  2   force =    -0.07034092   -0.00015862   -0.02695377
     atom   24 type  2   force =     0.07018191    0.00028182   -0.02700223
     atom   25 type  1   force =    -0.00001159   -0.00013938    0.09280266
     atom   26 type  1   force =    -0.00020871   -0.00048571   -0.17848394
     atom   27 type  2   force =     0.00008764   -0.00026744   -0.01910648
     atom   28 type  2   force =     0.00004297   -0.00172553    0.05838018
     atom   29 type  2   force =    -0.01100805   -0.00107415    0.00840860
     atom   30 type  2   force =     0.01235428   -0.00079755    0.00753029
     atom   31 type  1   force =    -0.00039901    0.00586607   -0.01577229
     atom   32 type  1   force =     0.00022088   -0.00006443   -0.00561234
     atom   33 type  2   force =    -0.00007663    0.00001636    0.00023340
     atom   34 type  2   force =    -0.00101487   -0.00248295    0.00061982
     atom   35 type  2   force =    -0.00003351    0.00023817    0.00002111
     atom   36 type  2   force =    -0.00015000    0.00009314    0.00008169
     atom   37 type  1   force =    -0.00002082    0.00006770   -0.00074770
     atom   38 type  1   force =    -0.00007800    0.00000800   -0.00001641
     atom   39 type  2   force =     0.00021498    0.00000349    0.00021907
     atom   40 type  2   force =    -0.00030137    0.00024551   -0.00000756
     atom   41 type  2   force =     0.00020632    0.00040688    0.00014644
     atom   42 type  2   force =    -0.00006520    0.00012147    0.00037537
     atom   43 type  1   force =    -0.00031453    0.00032956    0.00004341
     atom   44 type  1   force =    -0.00003442   -0.00011729    0.00003464
     atom   45 type  2   force =     0.00002087   -0.00007405    0.10394971
     atom   46 type  2   force =    -0.07031754   -0.00009770   -0.02690962
     atom   47 type  2   force =     0.07016488    0.00032748   -0.02695986
     atom   48 type  3   force =     0.00566368    0.01046456   -0.00029944
     atom   49 type  4   force =    -0.00041228   -0.00056364   -0.00019078
     atom   50 type  5   force =     0.00060751    0.00092691   -0.00011857
     atom   51 type  5   force =     0.00021293    0.00024887   -0.00053779
     atom   52 type  5   force =     0.00014410   -0.00040794    0.00004202
     atom   53 type  5   force =     0.00079933    0.00169845    0.00143522
     atom   54 type  5   force =    -0.00550718   -0.01202108    0.00002450

     Total force =     0.366916     Total SCF correction =     0.000301
  @ DRIVER MODE: Message from server: STATUS
  @ DRIVER MODE: Message from server: GETFORCE
  @ DRIVER MODE: Returning v,forces,stress,ensemble

     Writing output data file ./calc.save/
  @ DRIVER MODE: Message from server: EXIT
  @ DRIVE MODE: Exiting

     General routines

     Parallel routines

   This run was terminated on:  16: 6:32  21Jul2021

   JOB DONE.