     Program PWSCF v.6.7GPU starts on 22Sep2021 at 17: 6:25

     R & G space division:  proc/nbgrp/npool/nimage =      10
     Reading input from /storage/home/hcoda1/3/ntian30/research/carbon/CxH_vib/H2O_calc/ads_slab/CHON2HO_d/out_0002/pw.inp
Warning: card &CELL ignored
Warning: card   CELL_DYNAMICS='IPI', ignored
Warning: card / ignored

     Current dimensions of program PWSCF are:
     Max number of different atomic species (ntypx) = 10
     Max number of k-points (npk) =  40000
     Max angular momentum in pseudopotentials (lmaxx) =  3
     Presently no symmetry can be used with electric field

     Message from routine cell_base_init:
     DEPRECATED: use true lattice parameter, not A to a.u. conversion factor

     IMPORTANT: XC functional enforced from input :
     Exchange-correlation= BEEF-VDW
                           (   1   4  43  14   2   0   0)
     Any further DFT definition will be discarded
     Please, verify this is what you really want

  @ DRIVER MODE: Connecting to
 qe_1139763_2937317.sched-torque.pace.gatech.edu66pcgt0t_scratch
  using UNIX socket
  @ DRIVER MODE: Message from server: STATUS
  @ DRIVER MODE: Message from server: INIT
  @ DRIVER MODE: Receiving replica           0          -1
  @ DRIVER MODE: Receiving encoded integer          25
  @ DRIVER MODE:  SCF:  T  FORCE:  T  STRESS:  F  VC:  F  ENSEMBLE:  F
  @ DRIVER MODE:  SCF:  T  FORCE:  T  STRESS:  F  VC:  F  ENSEMBLE:  F

     Using Slab Decomposition

     bravais-lattice index     =            0
     lattice parameter (alat)  =       1.8897  a.u.
     unit-cell volume          =    6658.9804 (a.u.)^3
     number of atoms/cell      =           54
     number of atomic types    =            5
     number of electrons       =       406.00
     number of Kohn-Sham states=          213
     kinetic-energy cutoff     =      29.3995  Ry
     charge density cutoff     =     293.9946  Ry
     scf convergence threshold =      7.3E-08
     mixing beta               =       0.0500
     number of iterations used =            8  plain     mixing
     Exchange-correlation= BEEF-VDW
                           (   1   4  43  14   2   0   0)

     celldm(1)=   1.889726  celldm(2)=   0.000000  celldm(3)=   0.000000
     celldm(4)=   0.000000  celldm(5)=   0.000000  celldm(6)=   0.000000

     crystal axes: (cart. coord. in units of alat)
               a(1) = (   6.579727   0.000000   0.000000 )
               a(2) = (  -0.000775   5.961596   0.000000 )
               a(3) = (   0.000000   0.000000  25.155947 )

     reciprocal axes: (cart. coord. in units 2 pi/alat)
               b(1) = (  0.151982  0.000020  0.000000 )
               b(2) = (  0.000000  0.167740  0.000000 )
               b(3) = (  0.000000  0.000000  0.039752 )

     PseudoPot. # 1 for O  read from file:
     /storage/coda1/p-amedford6/0/shared/rich_project_chbe-medford/medford-share/data/pseudos_module/espresso/nninc/pbe/van/O.UPF
     MD5 check sum: 78c19812648e8988a0fe644b0f25305e
     Pseudo is Ultrasoft, Zval =  6.0
     Generated by new atomic code, or converted to UPF format
     Using radial grid of  737 points,  4 beta functions with:
                l(1) =   0
                l(2) =   0
                l(3) =   1
                l(4) =   1
     Q(r) pseudized with  8 coefficients,  rinner =    0.800   0.800   0.800

     PseudoPot. # 2 for Ti read from file:
     /storage/coda1/p-amedford6/0/shared/rich_project_chbe-medford/medford-share/data/pseudos_module/espresso/nninc/pbe/van/Ti.UPF
     MD5 check sum: 8e4df49b7f0d34bbd5052bf3f5ea0213
     Pseudo is Ultrasoft, Zval = 12.0
     Generated by new atomic code, or converted to UPF format
     Using radial grid of  851 points,  6 beta functions with:
                l(1) =   0
                l(2) =   0
                l(3) =   1
                l(4) =   1
                l(5) =   2
                l(6) =   2
     Q(r) pseudized with  8 coefficients,  rinner =    1.000   1.000   1.000
                                                       1.000   1.000

     PseudoPot. # 3 for C  read from file:
     /storage/coda1/p-amedford6/0/shared/rich_project_chbe-medford/medford-share/data/pseudos_module/espresso/nninc/pbe/van/C.UPF
     MD5 check sum: 1a69bf6b8db32088f5b2163dbdb77a27
     Pseudo is Ultrasoft, Zval =  4.0
     Generated by new atomic code, or converted to UPF format
     Using radial grid of  721 points,  4 beta functions with:
                l(1) =   0
                l(2) =   0
                l(3) =   1
                l(4) =   1
     Q(r) pseudized with  8 coefficients,  rinner =    0.800   0.800   0.800

     PseudoPot. # 4 for H  read from file:
     /storage/coda1/p-amedford6/0/shared/rich_project_chbe-medford/medford-share/data/pseudos_module/espresso/nninc/pbe/van/H.UPF
     MD5 check sum: b5ee9d7bfd3a09ee7748110bda690ff7
     Pseudo is Ultrasoft, Zval =  1.0
     Generated by new atomic code, or converted to UPF format
     Using radial grid of  615 points,  1 beta functions with:
                l(1) =   0
     Q(r) pseudized with  8 coefficients,  rinner =    0.800

     PseudoPot. # 5 for N  read from file:
     /storage/coda1/p-amedford6/0/shared/rich_project_chbe-medford/medford-share/data/pseudos_module/espresso/nninc/pbe/van/N.UPF
     MD5 check sum: 90d10febe142ad51ac9d5be1deb811c4
     Pseudo is Ultrasoft, Zval =  5.0
     Generated by new atomic code, or converted to UPF format
     Using radial grid of  729 points,  4 beta functions with:
                l(1) =   0
                l(2) =   0
                l(3) =   1
                l(4) =   1
     Q(r) pseudized with  8 coefficients,  rinner =    0.800   0.800   0.800

     atomic species   valence    mass     pseudopotential
        O1             6.00    15.99900     O ( 1.00)
        Ti1           12.00    47.86700     Ti( 1.00)
        C1             4.00    12.01100     C ( 1.00)
        H1             1.00     1.00800     H ( 1.00)
        N1             5.00    14.00700     N ( 1.00)

     No symmetry found

   Cartesian axes

     site n.     atom                  positions (alat units)
         1           O1  tau(   1) = (   3.2904802   0.0005063   4.7018136  )
         2           O1  tau(   2) = (   3.2900926   2.9813045   4.7018136  )
         3           Ti1 tau(   3) = (   0.0004258   2.9801865   6.0000000  )
         4           Ti1 tau(   4) = (   0.0000382   5.9609847   6.0000000  )
         5           Ti1 tau(   5) = (   3.2906075   1.4906267   6.0002472  )
         6           Ti1 tau(   6) = (   3.2902200   4.4714249   6.0002472  )
         7           O1  tau(   7) = (   1.3043587   1.4918075   6.0039043  )
         8           O1  tau(   8) = (   1.3039711   4.4726057   6.0039043  )
         9           O1  tau(   9) = (   5.2767064   1.4903225   6.0039473  )
        10           O1  tau(  10) = (   5.2763189   4.4711207   6.0039473  )
        11           O1  tau(  11) = (   3.2906025   0.0005020   7.3038282  )
        12           O1  tau(  12) = (   3.2902150   2.9813002   7.3038282  )
        13           O1  tau(  13) = (   0.0006271   0.0005054   7.9858123  )
        14           O1  tau(  14) = (   0.0002396   2.9813036   7.9858123  )
        15           Ti1 tau(  15) = (   3.2350752   0.0608747   9.1773017  )
        16           Ti1 tau(  16) = (   3.2297482   3.0449837   9.2258248  )
        17           Ti1 tau(  17) = (   6.5035314   4.4790947   9.3419400  )
        18           O1  tau(  18) = (   4.5942328   1.4918067   9.2879030  )
        19           O1  tau(  19) = (   4.5938453   4.4726049   9.2879030  )
        20           O1  tau(  20) = (   1.9868534   1.4903216   9.2879459  )
        21           O1  tau(  21) = (   1.9864658   4.4711199   9.2879459  )
        22           Ti1 tau(  22) = (   6.5047199   1.5482117   9.3251357  )
        23           O1  tau(  23) = (   6.5709586   2.9893791  10.5365161  )
        24           O1  tau(  24) = (   6.5791863   0.0068326  10.5847705  )
        25           O1  tau(  25) = (   3.2737170   2.9471243  11.2864913  )
        26           O1  tau(  26) = (   3.2757665   0.0160177  11.3056520  )
        27           Ti1 tau(  27) = (   3.3024496   1.5456137  12.4328335  )
        28           Ti1 tau(  28) = (   0.0381823   0.0558990  12.5328616  )
        29           Ti1 tau(  29) = (   3.2867454   4.6490159  12.6676011  )
        30           O1  tau(  30) = (   1.2579511   1.4933188  12.6274103  )
        31           O1  tau(  31) = (   5.2930440   1.4968169  12.6131059  )
        32           O1  tau(  32) = (   1.2503383   4.4760527  12.6363980  )
        33           O1  tau(  33) = (   5.2887019   4.4660859  12.6249461  )
        34           Ti1 tau(  34) = (   6.5320965   3.0346479  12.8073368  )
        35           O1  tau(  35) = (   3.2762579   2.9735537  13.8874883  )
        36           O1  tau(  36) = (   3.2793791   5.9387796  13.8789893  )
        37           O1  tau(  37) = (   6.5412754   2.9812497  14.6926498  )
        38           O1  tau(  38) = (   6.5531526   0.0082392  14.6823945  )
        39           Ti1 tau(  39) = (   3.2668636   2.9663550  15.6683660  )
        40           Ti1 tau(  40) = (   3.2982107   5.9440960  16.3508785  )
        41           Ti1 tau(  41) = (   0.0141158   4.5598071  15.9269461  )
        42           O1  tau(  42) = (   4.5124726   4.4172202  16.0573870  )
        43           O1  tau(  43) = (   1.9821766   4.4208814  16.0404589  )
        44           O1  tau(  44) = (   4.4954461   1.5000296  16.1066544  )
        45           O1  tau(  45) = (   1.9782815   1.5221889  16.0619205  )
        46           Ti1 tau(  46) = (   0.0269324   1.3869748  16.0447141  )
        47           O1  tau(  47) = (   6.5379229   5.9414530  17.1901000  )
        48           O1  tau(  48) = (   6.5275113   2.9840192  17.3772383  )
        49           C1  tau(  49) = (   5.9742390   3.1768082  18.5865123  )
        50           H1  tau(  50) = (   5.8341806   4.1706531  18.9840957  )
        51           N1  tau(  51) = (   5.5886240   2.1683037  19.3003467  )
        52           N1  tau(  52) = (   5.2398892   1.2394158  19.8970451  )
        53           O1  tau(  53) = (   3.2183551   5.8834210  18.1446619  )
        54           H1  tau(  54) = (   3.7026433   0.4006729  18.8445816  )

     number of k points=    10  Fermi-Dirac smearing, width (Ry)=  0.0073
                       cart. coord. in units 2pi/alat
        k(    1) = (   0.0000000   0.0000000   0.0000000), wk =   0.1250000
        k(    2) = (   0.0000000   0.0419351   0.0000000), wk =   0.2500000
        k(    3) = (   0.0000000  -0.0838702   0.0000000), wk =   0.1250000
        k(    4) = (   0.0379955   0.0000049   0.0000000), wk =   0.2500000
        k(    5) = (   0.0379955   0.0419400   0.0000000), wk =   0.2500000
        k(    6) = (   0.0379955  -0.0838652   0.0000000), wk =   0.2500000
        k(    7) = (   0.0379955  -0.0419301   0.0000000), wk =   0.2500000
        k(    8) = (  -0.0759910  -0.0000099   0.0000000), wk =   0.1250000
        k(    9) = (  -0.0759910   0.0419252   0.0000000), wk =   0.2500000
        k(   10) = (  -0.0759910  -0.0838800   0.0000000), wk =   0.1250000

     Initial potential from superposition of free atoms

     starting charge  389.99917, renormalised to  406.00000

     negative rho (up, down):  1.659E-02 0.000E+00

     %%%%%%%%%%%%%%%%%%%%%%%%%%%%%%%%%%%%%%%%%%%%%%%%%%%%%%%%%%%%%%%%%%%%%%%%
     %                                                                      %
     % You are using vdW-DF, which was implemented by the Thonhauser group. %
     % Please cite the following two papers that made this development      %
     % possible and the two reviews that describe the various versions:     %
     %                                                                      %
     %   T. Thonhauser et al., PRL 115, 136402 (2015).                      %
     %   T. Thonhauser et al., PRB 76, 125112 (2007).                       %
     %   K. Berland et al., Rep. Prog. Phys. 78, 066501 (2015).             %
     %   D.C. Langreth et al., J. Phys.: Condens. Matter 21, 084203 (2009). %
     %                                                                      %
     %                                                                      %
     % If you are calculating the stress with vdW-DF, please also cite:     %
     %                                                                      %
     %   R. Sabatini et al., J. Phys.: Condens. Matter 24, 424209 (2012).   %
     %                                                                      %
     %%%%%%%%%%%%%%%%%%%%%%%%%%%%%%%%%%%%%%%%%%%%%%%%%%%%%%%%%%%%%%%%%%%%%%%%

     Adding external electric field

     Computed dipole along edir(3) :
        Dipole              -13.7787 Ry au,        -35.0219 Debye
        Dipole field         -0.0260 Ry au,

        Potential amp.        2.4104 Ry
        Total length         46.3494 bohr

     Starting wfcs are  306 atomic wfcs
  @ DRIVER MODE: Message from server: STATUS
  @ DRIVER MODE: Message from server: POSDATA
  @ DRIVER MODE: Reading and sharing cell
  @ DRIVER MODE: Reading and sharing positions
  @ DRIVER MODE: Received positions

     Self-consistent Calculation

     iteration #  1     ecut=    29.40 Ry     beta= 0.05
     Davidson diagonalization with overlap
     c_bands:  1 eigenvalues not converged
     c_bands:  1 eigenvalues not converged
     c_bands:  5 eigenvalues not converged
     c_bands:  5 eigenvalues not converged
     ethr =  1.00E-05,  avg # of iterations = 30.7

[...]

     total energy              =   -2308.87153840 Ry
     estimated scf accuracy    <    7885.51212526 Ry

     iteration #  2     ecut=    29.40 Ry     beta= 0.05
     Davidson diagonalization with overlap
     ethr =  1.00E-02,  avg # of iterations = 25.6

[...]

     iteration # 44     ecut=    29.40 Ry     beta= 0.05
     Davidson diagonalization with overlap
     c_bands:  1 eigenvalues not converged
     c_bands:  1 eigenvalues not converged
     c_bands:  1 eigenvalues not converged
     ethr =  3.39E-06,  avg # of iterations = 10.7

[...]

     total energy              =   -3002.64635891 Ry
     estimated scf accuracy    <       0.00000015 Ry

     iteration # 68     ecut=    29.40 Ry     beta= 0.05
     Davidson diagonalization with overlap
     ethr =  3.71E-11,  avg # of iterations =  5.0

     negative rho (up, down):  1.646E-02 0.000E+00

     Adding external electric field

     Computed dipole along edir(3) :
        Dipole                0.4139 Ry au,          1.0520 Debye
        Dipole field          0.0008 Ry au,

        Potential amp.       -0.0724 Ry
        Total length         46.3494 bohr

     End of self-consistent calculation

          k = 0.0000 0.0000 0.0000 ( 18029 PWs)   bands (ev):

   -56.2550 -56.1982 -55.7646 -55.7103 -55.7076 -55.6883 -55.6599 -55.6505
   -55.6202 -55.6137 -55.5730 -55.5536 -55.4899 -55.3187 -54.9048 -54.8709
   -32.6698 -32.5309 -32.4653 -32.4251 -32.3266 -32.2945 -32.2440 -32.2184
   -32.2011 -32.1005 -32.0660 -32.0056 -32.0017 -31.9946 -31.9830 -31.9611
   -31.9535 -31.9505 -31.9292 -31.9198 -31.8681 -31.8654 -31.8616 -31.8564
   -31.8541 -31.8359 -31.8354 -31.8154 -31.8145 -31.8103 -31.8039 -31.7715
   -31.7709 -31.7699 -31.7431 -31.7318 -31.7253 -31.7206 -31.6915 -31.5786
   -31.5373 -31.5287 -31.3015 -31.2427 -31.2185 -31.1179 -31.0327 -30.9215
   -20.5431 -18.6410 -16.5040 -16.4666 -16.3094 -16.1035 -15.9427 -15.8711
   -15.6798 -15.5937 -15.5311 -15.5026 -15.4723 -15.3883 -15.3555 -15.3021
   -15.2583 -15.2434 -15.2165 -15.2024 -15.1900 -15.1886 -15.1867 -15.1553
   -15.1138 -15.0167 -14.9482 -14.9105 -14.8911 -14.8816 -14.8416 -14.5328
   -13.5425 -13.4069 -13.2973  -6.9265  -5.8785  -4.9222  -4.3593  -3.9627
    -3.7864  -3.6935  -3.6352  -3.5666  -3.5300  -3.3398  -3.3012  -3.1501
    -3.0278  -2.9459  -2.8733  -2.8561  -2.8324  -2.7942  -2.7336  -2.7004
    -2.6693  -2.6355  -2.5813  -2.5420  -2.5120  -2.4816  -2.4689  -2.4325
    -2.4128  -2.4100  -2.2665  -2.2206  -2.1784  -2.1716  -2.1469  -2.1257
    -2.1023  -2.0701  -2.0578  -2.0045  -1.9289  -1.8435  -1.8282  -1.7409
    -1.7107  -1.5370  -1.4766  -1.4009  -1.3695  -1.2022  -1.1760  -1.1696
    -1.1468  -1.1259  -1.0025  -0.9710  -0.9360  -0.9241  -0.8890  -0.8675
    -0.8412  -0.7366  -0.6707  -0.6310  -0.6164  -0.5513  -0.4538  -0.3807
    -0.3544  -0.3211  -0.2874  -0.1857  -0.1544  -0.1124  -0.1051  -0.0436
    -0.0088   0.0133   0.0698   0.0974   0.1515   0.1671   0.1846   0.2250
     0.2349   0.2805   0.3495   0.4130   0.5095   0.5305   0.5553   0.5919
     0.6732   0.7469   0.8266   1.0095   1.1130   1.1534   1.3187   1.3634
     1.6637   1.7113   2.5232   3.0360   3.1881   3.4524   3.5040   3.5404
     3.5824   3.6371   3.7681   3.8811   3.9362

[...]

          k = 0.0380-0.0419 0.0000 ( 17876 PWs)   bands (ev):

[...]

          k =-0.0760-0.0000 0.0000 ( 17886 PWs)   bands (ev):

[...]

          k =-0.0760-0.0839 0.0000 ( 17948 PWs)   bands (ev):

   -56.2495 -56.2036 -55.7620 -55.7089 -55.6999 -55.6839 -55.6674 -55.6529
   -55.6247 -55.6047 -55.5820 -55.5547 -55.4882 -55.3202 -54.8880 -54.8876
   -32.5273 -32.5055 -32.4679 -32.4664 -32.3934 -32.3553 -32.1476 -32.0666
   -32.0585 -32.0207 -32.0122 -31.9792 -31.9786 -31.9741 -31.9511 -31.9471
   -31.9358 -31.9324 -31.9308 -31.9215 -31.9084 -31.9041 -31.8795 -31.8772
   -31.8733 -31.8683 -31.8665 -31.8586 -31.8439 -31.8363 -31.8219 -31.8206
   -31.8177 -31.8077 -31.7980 -31.7753 -31.7580 -31.7245 -31.6952 -31.6528
   -31.5774 -31.5314 -31.2316 -31.2314 -31.1170 -31.1148 -31.0747 -31.0736
   -20.5417 -18.6289 -16.4822 -15.8318 -15.8215 -15.7914 -15.7512 -15.7043
   -15.6896 -15.6208 -15.6127 -15.5836 -15.5042 -15.4411 -15.3862 -15.3619
   -15.3590 -15.3364 -15.3084 -15.2688 -15.2463 -15.2383 -15.2272 -15.1728
   -15.1515 -15.1471 -15.1231 -15.1017 -15.0747 -15.0350 -14.8974 -14.6908
   -13.5498 -13.4018 -13.3999  -6.8984  -5.8937  -4.9208  -4.3481  -3.6104
    -3.2865  -3.0903  -3.0604  -2.9810  -2.9243  -2.8266  -2.8058  -2.7843
    -2.7734  -2.7585  -2.7341  -2.7036  -2.6538  -2.6268  -2.5921  -2.5819
    -2.5736  -2.5541  -2.5453  -2.5145  -2.4984  -2.4808  -2.4623  -2.4445
    -2.4286  -2.4159  -2.3440  -2.3120  -2.2751  -2.1119  -2.1010  -2.0983
    -2.0713  -2.0524  -2.0423  -1.9819  -1.9207  -1.9117  -1.8598  -1.8454
    -1.7605  -1.7000  -1.5344  -1.4991  -1.4735  -1.3965  -1.3382  -1.3032
    -1.2816  -1.2484  -1.2151  -1.2030  -1.1631  -1.1112  -1.0340  -1.0101
    -0.9622  -0.9529  -0.9439  -0.8606  -0.7890  -0.7719  -0.7280  -0.7086
    -0.6851  -0.6466  -0.5929  -0.5590  -0.5456  -0.5314  -0.4353  -0.3846
    -0.3304  -0.2262  -0.1913  -0.1323  -0.0198   0.0623   0.0746   0.1718
     0.2139   0.3125   0.3518   0.4042   0.4425   0.4697   0.4999   0.6167
     0.6355   0.6811   0.7597   0.7760   0.8049   0.8542   1.5020   1.5093
     1.5199   1.5213   2.4436   3.5582   3.5861   3.6047   3.6437   3.8432
     3.8738   3.8906   3.9206   3.9370   3.9917

     the Fermi energy is     2.8368 ev

!    total energy              =   -3002.64638635 Ry
     estimated scf accuracy    <       0.00000007 Ry
     smearing contrib. (-TS)   =      -0.00421443 Ry
     internal energy E=F+TS    =   -3002.64217192 Ry

     The total energy is F=E-TS. E is the sum of the following terms:
     one-electron contribution =  -23370.12977518 Ry
     hartree contribution      =   11778.91907240 Ry
     xc contribution           =    -498.78590756 Ry
     ewald contribution        =    9087.35411517 Ry
     electric field correction =       0.00032326 Ry

     convergence has been achieved in  68 iterations

     Forces acting on atoms (cartesian axes, Ry/au):

     atom    1 type  1   force =     0.00016584    0.00010405    0.09955366
     atom    2 type  1   force =     0.00015011    0.00020836    0.09905372
     atom    3 type  2   force =     0.00018846    0.00034677    0.12397190
     atom    4 type  2   force =     0.00044477    0.00003960    0.13854416
     atom    5 type  2   force =    -0.00009944    0.00965967   -0.15995850
     atom    6 type  2   force =     0.00009473   -0.00874225   -0.15975238
     atom    7 type  1   force =    -0.07912069    0.00146578   -0.03323291
     atom    8 type  1   force =    -0.07915013   -0.00182074   -0.03327258
     atom    9 type  1   force =     0.07907837    0.00179730   -0.03331166
     atom   10 type  1   force =     0.07910800   -0.00147654   -0.03329262
     atom   11 type  1   force =    -0.00114186    0.00062903    0.04288694
     atom   12 type  1   force =    -0.00114894    0.00003665    0.04553833
     atom   13 type  1   force =    -0.00039397   -0.00173500   -0.05070818
     atom   14 type  1   force =    -0.00085773    0.00123853   -0.04791903
     atom   15 type  2   force =    -0.00033652   -0.00004528    0.00015710
     atom   16 type  2   force =    -0.00033377    0.00005243   -0.00011931
     atom   17 type  2   force =     0.00023054   -0.00038673   -0.00010077
     atom   18 type  1   force =    -0.01154872   -0.00690144   -0.00025617
     atom   19 type  1   force =    -0.01367680    0.00098419    0.00210018
     atom   20 type  1   force =     0.01285145   -0.00248902   -0.00227486
     atom   21 type  1   force =     0.01410662    0.00576649    0.00035249
     atom   22 type  2   force =     0.00031280    0.00004946    0.00031407
     atom   23 type  1   force =    -0.00010100   -0.00009047   -0.00015340
     atom   24 type  1   force =    -0.00026024   -0.00000450    0.00025657
     atom   25 type  1   force =     0.00023710    0.00033540   -0.00024502
     atom   26 type  1   force =     0.00035341    0.00012788   -0.00040398
     atom   27 type  2   force =    -0.00030741   -0.00043948    0.00041155
     atom   28 type  2   force =     0.00052290   -0.00030118    0.00011918
     atom   29 type  2   force =    -0.00015448    0.00023146    0.00024775
     atom   30 type  1   force =    -0.00031244   -0.00036708   -0.00027803
     atom   31 type  1   force =     0.00047130   -0.00005590    0.00009440
     atom   32 type  1   force =    -0.00028668    0.00041591   -0.00002479
     atom   33 type  1   force =     0.00022029    0.00035987    0.00007596
     atom   34 type  2   force =     0.00041707    0.00016858   -0.00014295
     atom   35 type  1   force =     0.00006419   -0.00011548   -0.00049176
     atom   36 type  1   force =     0.00010228   -0.00004696    0.00021990
     atom   37 type  1   force =    -0.00004666   -0.00021152    0.00026069
     atom   38 type  1   force =     0.00005033    0.00045012   -0.00032637
     atom   39 type  2   force =    -0.00022448    0.00038595    0.00053363
     atom   40 type  2   force =    -0.00035315   -0.00027610   -0.00024436
     atom   41 type  2   force =    -0.00002501    0.00032971    0.00016238
     atom   42 type  1   force =     0.00060823   -0.00000558    0.00005570
     atom   43 type  1   force =    -0.00008942    0.00031582   -0.00036671
     atom   44 type  1   force =     0.00080318    0.00019398    0.00067777
     atom   45 type  1   force =    -0.00038484   -0.00016440    0.00014334
     atom   46 type  2   force =     0.00028241    0.00030326    0.00005996
     atom   47 type  1   force =    -0.00007908    0.00025430    0.00003606
     atom   48 type  1   force =    -0.00366759    0.00050040    0.00450332
     atom   49 type  3   force =     0.00239732   -0.00047819   -0.00388426
     atom   50 type  4   force =    -0.00010802    0.00024383    0.00026357
     atom   51 type  5   force =     0.00020771   -0.00060294   -0.00050710
     atom   52 type  5   force =     0.00033491   -0.00011922   -0.00000540
     atom   53 type  1   force =     0.00047584    0.00041428    0.00057954
     atom   54 type  4   force =    -0.00007109   -0.00053306    0.00009928

     Total force =     0.380364     Total SCF correction =     0.000754
  @ DRIVER MODE: Message from server: STATUS
  @ DRIVER MODE: Message from server: GETFORCE
  @ DRIVER MODE: Returning v,forces,stress,ensemble

     Writing output data file ./calc.save/
  @ DRIVER MODE: Message from server: EXIT
  @ DRIVE MODE: Exiting

     General routines

     Parallel routines

   This run was terminated on:  17:25: 1  22Sep2021

   JOB DONE.