     Program PWSCF v.6.7GPU starts on 16Sep2021 at  1:52:21

     R & G space division:  proc/nbgrp/npool/nimage =      10
     Reading input from /storage/home/hcoda1/3/ntian30/research/carbon/CxH_vib/H2O_calc/ads_slab/CHOHH2O_a/out_0030/pw.inp
Warning: card &CELL ignored
Warning: card   CELL_DYNAMICS='IPI', ignored
Warning: card / ignored

     Current dimensions of program PWSCF are:
     Max number of different atomic species (ntypx) = 10
     Max number of k-points (npk) =  40000
     Max angular momentum in pseudopotentials (lmaxx) =  3
     Presently no symmetry can be used with electric field

     Message from routine cell_base_init:
     DEPRECATED: use true lattice parameter, not A to a.u. conversion factor

     IMPORTANT: XC functional enforced from input :
     Exchange-correlation= BEEF-VDW
                           (   1   4  43  14   2   0   0)
     Any further DFT definition will be discarded
     Please, verify this is what you really want

  @ DRIVER MODE: Connecting to
 qe_1139763_2852632.sched-torque.pace.gatech.eduhgo3nsk0_scratch
  using UNIX socket
  @ DRIVER MODE: Message from server: STATUS
  @ DRIVER MODE: Message from server: INIT
  @ DRIVER MODE: Receiving replica           0          -1
  @ DRIVER MODE: Receiving encoded integer          25
  @ DRIVER MODE:  SCF:  T  FORCE:  T  STRESS:  F  VC:  F  ENSEMBLE:  F
  @ DRIVER MODE:  SCF:  T  FORCE:  T  STRESS:  F  VC:  F  ENSEMBLE:  F

     Using Slab Decomposition

     bravais-lattice index     =            0
     lattice parameter (alat)  =       1.8897  a.u.
     unit-cell volume          =    6658.9804 (a.u.)^3
     number of atoms/cell      =           54
     number of atomic types    =            4
     number of electrons       =       398.00
     number of Kohn-Sham states=          209
     kinetic-energy cutoff     =      29.3995  Ry
     charge density cutoff     =     293.9946  Ry
     scf convergence threshold =      7.3E-08
     mixing beta               =       0.0500
     number of iterations used =            8  plain     mixing
     Exchange-correlation= BEEF-VDW
                           (   1   4  43  14   2   0   0)

     celldm(1)=   1.889726  celldm(2)=   0.000000  celldm(3)=   0.000000
     celldm(4)=   0.000000  celldm(5)=   0.000000  celldm(6)=   0.000000

     crystal axes: (cart. coord. in units of alat)
               a(1) = (   6.579727   0.000000   0.000000 )
               a(2) = (  -0.000775   5.961596   0.000000 )
               a(3) = (   0.000000   0.000000  25.155947 )

     reciprocal axes: (cart. coord. in units 2 pi/alat)
               b(1) = (  0.151982  0.000020  0.000000 )
               b(2) = (  0.000000  0.167740  0.000000 )
               b(3) = (  0.000000  0.000000  0.039752 )

     PseudoPot. # 1 for Ti read from file:
     /storage/coda1/p-amedford6/0/shared/rich_project_chbe-medford/medford-share/data/pseudos_module/espresso/nninc/pbe/van/Ti.UPF
     MD5 check sum: 8e4df49b7f0d34bbd5052bf3f5ea0213
     Pseudo is Ultrasoft, Zval = 12.0
     Generated by new atomic code, or converted to UPF format
     Using radial grid of  851 points,  6 beta functions with:
                l(1) =   0
                l(2) =   0
                l(3) =   1
                l(4) =   1
                l(5) =   2
                l(6) =   2
     Q(r) pseudized with  8 coefficients,  rinner =    1.000   1.000   1.000
                                                       1.000   1.000

     PseudoPot. # 2 for O  read from file:
     /storage/coda1/p-amedford6/0/shared/rich_project_chbe-medford/medford-share/data/pseudos_module/espresso/nninc/pbe/van/O.UPF
     MD5 check sum: 78c19812648e8988a0fe644b0f25305e
     Pseudo is Ultrasoft, Zval =  6.0
     Generated by new atomic code, or converted to UPF format
     Using radial grid of  737 points,  4 beta functions with:
                l(1) =   0
                l(2) =   0
                l(3) =   1
                l(4) =   1
     Q(r) pseudized with  8 coefficients,  rinner =    0.800   0.800   0.800

     PseudoPot. # 3 for C  read from file:
     /storage/coda1/p-amedford6/0/shared/rich_project_chbe-medford/medford-share/data/pseudos_module/espresso/nninc/pbe/van/C.UPF
     MD5 check sum: 1a69bf6b8db32088f5b2163dbdb77a27
     Pseudo is Ultrasoft, Zval =  4.0
     Generated by new atomic code, or converted to UPF format
     Using radial grid of  721 points,  4 beta functions with:
                l(1) =   0
                l(2) =   0
                l(3) =   1
                l(4) =   1
     Q(r) pseudized with  8 coefficients,  rinner =    0.800   0.800   0.800

     PseudoPot. # 4 for H  read from file:
     /storage/coda1/p-amedford6/0/shared/rich_project_chbe-medford/medford-share/data/pseudos_module/espresso/nninc/pbe/van/H.UPF
     MD5 check sum: b5ee9d7bfd3a09ee7748110bda690ff7
     Pseudo is Ultrasoft, Zval =  1.0
     Generated by new atomic code, or converted to UPF format
     Using radial grid of  615 points,  1 beta functions with:
                l(1) =   0
     Q(r) pseudized with  8 coefficients,  rinner =    0.800

     atomic species   valence    mass     pseudopotential
        Ti1           12.00    47.86700     Ti( 1.00)
        O1             6.00    15.99900     O ( 1.00)
        C1             4.00    12.01100     C ( 1.00)
        H1             1.00     1.00800     H ( 1.00)

     No symmetry found

   Cartesian axes

     site n.     atom                  positions (alat units)
         1           Ti1 tau(   1) = (   0.0004258   2.9801865   6.0000000  )
         2           Ti1 tau(   2) = (   3.2906075   1.4906267   6.0002472  )
         3           O1  tau(   3) = (   0.0006271   0.0005054   7.9858123  )
         4           O1  tau(   4) = (   3.2906025   0.0005020   7.3038282  )
         5           O1  tau(   5) = (   4.5942328   1.4918067   9.2879030  )
         6           O1  tau(   6) = (   1.9868534   1.4903216   9.2879459  )
         7           Ti1 tau(   7) = (   3.3203992   3.0065636   9.1614972  )
         8           Ti1 tau(   8) = (   0.0364112   1.5055733   9.2692997  )
         9           O1  tau(   9) = (   3.3037507   0.0048223  11.3846665  )
        10           O1  tau(  10) = (   0.0023770   0.0017864  10.5989407  )
        11           O1  tau(  11) = (   1.2986710   1.4943985  12.6419360  )
        12           O1  tau(  12) = (   5.3019195   1.4930987  12.6558330  )
        13           Ti1 tau(  13) = (   0.0201679   2.9954199  12.5459836  )
        14           Ti1 tau(  14) = (   3.3085843   1.4996073  12.5278567  )
        15           O1  tau(  15) = (   0.0306707   0.0063333  14.6434371  )
        16           O1  tau(  16) = (   3.2901280   5.9588824  14.0411263  )
        17           O1  tau(  17) = (   4.5937705   1.5245028  16.1210063  )
        18           O1  tau(  18) = (   2.0412355   1.5396885  16.1535958  )
        19           Ti1 tau(  19) = (   3.3250740   2.9785215  15.7238461  )
        20           Ti1 tau(  20) = (   0.0142243   1.3716099  15.9029131  )
        21           O1  tau(  21) = (   3.2904802   0.0005063   4.7018136  )
        22           O1  tau(  22) = (   0.0234726   5.9563001  17.1693433  )
        23           O1  tau(  23) = (   1.3043587   1.4918075   6.0039043  )
        24           O1  tau(  24) = (   5.2767064   1.4903225   6.0039473  )
        25           Ti1 tau(  25) = (   0.0000382   5.9609847   6.0000000  )
        26           Ti1 tau(  26) = (   3.2902200   4.4714249   6.0002472  )
        27           O1  tau(  27) = (   0.0002396   2.9813036   7.9858123  )
        28           O1  tau(  28) = (   3.2902150   2.9813002   7.3038282  )
        29           O1  tau(  29) = (   4.5938453   4.4726049   9.2879030  )
        30           O1  tau(  30) = (   1.9864658   4.4711199   9.2879459  )
        31           Ti1 tau(  31) = (   3.3166040   0.0254347   9.1556988  )
        32           Ti1 tau(  32) = (   0.0362352   4.4699824   9.2670842  )
        33           O1  tau(  33) = (   3.3035804   2.9865095  11.3763011  )
        34           O1  tau(  34) = (   0.0042610   2.9829788  10.6236548  )
        35           O1  tau(  35) = (   1.2977823   4.4749822  12.6434080  )
        36           O1  tau(  36) = (   5.3021498   4.4756442  12.6578133  )
        37           Ti1 tau(  37) = (   0.0128731   0.0155586  12.4748574  )
        38           Ti1 tau(  38) = (   3.3087006   4.4877506  12.5360639  )
        39           O1  tau(  39) = (   0.0289868   2.9802581  14.8446641  )
        40           O1  tau(  40) = (   3.2975897   2.9808645  13.9396156  )
        41           O1  tau(  41) = (   4.5936103   4.4348319  16.1149158  )
        42           O1  tau(  42) = (   2.0365336   4.4144103  16.1518429  )
        43           Ti1 tau(  43) = (   3.2980932   5.9591119  15.8729608  )
        44           Ti1 tau(  44) = (   0.0070259   4.5936845  15.8821292  )
        45           O1  tau(  45) = (   3.2900926   2.9813045   4.7018136  )
        46           O1  tau(  46) = (   1.3039711   4.4726057   6.0039043  )
        47           O1  tau(  47) = (   5.2763189   4.4711207   6.0039473  )
        48           C1  tau(  48) = (   6.0563806   2.9601134  19.0478501  )
        49           O1  tau(  49) = (   0.1703025   2.9720528  17.8813388  )
        50           H1  tau(  50) = (   5.0099104   2.8626262  18.6876999  )
        51           H1  tau(  51) = (   1.1251272   3.0566160  18.0647747  )
        52           O1  tau(  52) = (   3.2803433   5.9178330  18.3083259  )
        53           H1  tau(  53) = (   4.0549949   5.9397654  18.8787675  )
        54           H1  tau(  54) = (   2.4787048   0.0262026  18.8357284  )

     number of k points=    10  Fermi-Dirac smearing, width (Ry)=  0.0073
                       cart. coord. in units 2pi/alat
        k(    1) = (   0.0000000   0.0000000   0.0000000), wk =   0.1250000
        k(    2) = (   0.0000000   0.0419351   0.0000000), wk =   0.2500000
        k(    3) = (   0.0000000  -0.0838702   0.0000000), wk =   0.1250000
        k(    4) = (   0.0379955   0.0000049   0.0000000), wk =   0.2500000
        k(    5) = (   0.0379955   0.0419400   0.0000000), wk =   0.2500000
        k(    6) = (   0.0379955  -0.0838652   0.0000000), wk =   0.2500000
        k(    7) = (   0.0379955  -0.0419301   0.0000000), wk =   0.2500000
        k(    8) = (  -0.0759910  -0.0000099   0.0000000), wk =   0.1250000
        k(    9) = (  -0.0759910   0.0419252   0.0000000), wk =   0.2500000
        k(   10) = (  -0.0759910  -0.0838800   0.0000000), wk =   0.1250000

     Initial potential from superposition of free atoms

     starting charge  381.99917, renormalised to  398.00000

     negative rho (up, down):  1.670E-02 0.000E+00

     %%%%%%%%%%%%%%%%%%%%%%%%%%%%%%%%%%%%%%%%%%%%%%%%%%%%%%%%%%%%%%%%%%%%%%%%
     %                                                                      %
     % You are using vdW-DF, which was implemented by the Thonhauser group. %
     % Please cite the following two papers that made this development      %
     % possible and the two reviews that describe the various versions:     %
     %                                                                      %
     %   T. Thonhauser et al., PRL 115, 136402 (2015).                      %
     %   T. Thonhauser et al., PRB 76, 125112 (2007).                       %
     %   K. Berland et al., Rep. Prog. Phys. 78, 066501 (2015).             %
     %   D.C. Langreth et al., J. Phys.: Condens. Matter 21, 084203 (2009). %
     %                                                                      %
     %                                                                      %
     % If you are calculating the stress with vdW-DF, please also cite:     %
     %                                                                      %
     %   R. Sabatini et al., J. Phys.: Condens. Matter 24, 424209 (2012).   %
     %                                                                      %
     %%%%%%%%%%%%%%%%%%%%%%%%%%%%%%%%%%%%%%%%%%%%%%%%%%%%%%%%%%%%%%%%%%%%%%%%

     Adding external electric field

     Computed dipole along edir(3) :
        Dipole              -10.5178 Ry au,        -26.7336 Debye
        Dipole field         -0.0198 Ry au,

        Potential amp.        1.8399 Ry
        Total length         46.3494 bohr

     Starting wfcs are  300 atomic wfcs
  @ DRIVER MODE: Message from server: STATUS
  @ DRIVER MODE: Message from server: POSDATA
  @ DRIVER MODE: Reading and sharing cell
  @ DRIVER MODE: Reading and sharing positions
  @ DRIVER MODE: Received positions

     Self-consistent Calculation

     iteration #  1     ecut=    29.40 Ry     beta= 0.05
     Davidson diagonalization with overlap
     c_bands:  2 eigenvalues not converged
     c_bands:  3 eigenvalues not converged
     c_bands:  1 eigenvalues not converged
     c_bands:  4 eigenvalues not converged
     c_bands:  4 eigenvalues not converged
     c_bands:  4 eigenvalues not converged
     c_bands:  1 eigenvalues not converged
     c_bands:  3 eigenvalues not converged
     c_bands:  4 eigenvalues not converged
     ethr =  1.00E-05,  avg # of iterations = 19.9

[...]

     total energy              =   -2479.41218243 Ry
     estimated scf accuracy    <    5441.17465230 Ry

     iteration #  2     ecut=    29.40 Ry     beta= 0.05
     Davidson diagonalization with overlap
     ethr =  1.00E-02,  avg # of iterations = 25.4

[...]

     iteration # 61     ecut=    29.40 Ry     beta= 0.05
     Davidson diagonalization with overlap
     c_bands:  1 eigenvalues not converged
     ethr =  6.04E-10,  avg # of iterations = 15.3

[...]

     total energy              =   -2964.77933423 Ry
     estimated scf accuracy    <       0.00000019 Ry

     iteration # 65     ecut=    29.40 Ry     beta= 0.05
     Davidson diagonalization with overlap
     ethr =  3.96E-11,  avg # of iterations = 10.6

     negative rho (up, down):  1.518E-02 0.000E+00

     Adding external electric field

     Computed dipole along edir(3) :
        Dipole                0.7083 Ry au,          1.8003 Debye
        Dipole field          0.0013 Ry au,

        Potential amp.       -0.1239 Ry
        Total length         46.3494 bohr

     End of self-consistent calculation

          k = 0.0000 0.0000 0.0000 ( 18029 PWs)   bands (ev):

   -55.7065 -55.6935 -55.6702 -55.6684 -55.6591 -55.6081 -55.5566 -55.5551
   -55.5429 -55.5222 -55.5095 -55.4881 -55.4874 -55.4756 -54.7742 -54.7402
   -32.2671 -32.1876 -32.1844 -32.0893 -32.0521 -32.0322 -32.0211 -32.0111
   -31.9824 -31.9474 -31.9371 -31.9223 -31.8979 -31.8908 -31.8836 -31.8646
   -31.8471 -31.8465 -31.8433 -31.8357 -31.8200 -31.8086 -31.8086 -31.7991
   -31.7973 -31.7818 -31.7786 -31.7505 -31.7386 -31.7248 -31.7135 -31.7125
   -31.7077 -31.7034 -31.6970 -31.6890 -31.6568 -31.6554 -31.6504 -31.6467
   -31.6203 -31.5643 -31.1860 -31.0845 -31.0628 -31.0022 -30.9158 -30.8048
   -21.1397 -19.2989 -16.5254 -16.2832 -16.1405 -16.0375 -15.9324 -15.8000
   -15.7132 -15.5898 -15.5264 -15.3996 -15.3602 -15.3549 -15.3482 -15.3198
   -15.2988 -15.2754 -15.2517 -15.2107 -15.2063 -15.2027 -15.1740 -15.1615
   -15.1039 -15.0912 -15.0476 -14.9293 -14.8777 -14.8166 -14.4987 -13.2751
   -13.1560 -10.3438  -7.3137  -5.7037  -4.7284  -4.0184  -3.9162  -3.8008
    -3.7190  -3.6504  -3.6129  -3.5386  -3.4646  -3.2625  -3.1322  -3.1242
    -2.9916  -2.9546  -2.9104  -2.8090  -2.7431  -2.6810  -2.6708  -2.5944
    -2.5910  -2.5827  -2.5694  -2.4768  -2.4705  -2.4227  -2.3809  -2.3018
    -2.2662  -2.1488  -2.1183  -2.1093  -2.0655  -2.0498  -2.0430  -2.0305
    -1.9809  -1.9552  -1.9374  -1.9360  -1.7940  -1.7521  -1.6057  -1.4812
    -1.4487  -1.4347  -1.3032  -1.2682  -1.2518  -1.1944  -1.1737  -1.1637
    -1.1247  -1.0438  -0.9608  -0.9366  -0.8646  -0.8216  -0.7173  -0.6234
    -0.5788  -0.5314  -0.5075  -0.4980  -0.4787  -0.4148  -0.3664  -0.2797
    -0.2256  -0.1627  -0.1359  -0.1288  -0.0741  -0.0440   0.0357   0.0827
     0.1172   0.1308   0.2170   0.2316   0.2441   0.2754   0.2777   0.3908
     0.4447   0.5007   0.5082   0.6565   0.8234   0.8490   0.9282   1.1429
     1.2513   1.2537   1.4146   1.4717   1.8363   1.8906   3.3811   3.4511
     3.4857   3.4998   3.5089   3.5869   3.8169   3.8690   3.9004   3.9192
     3.9288

[...]

          k = 0.0380-0.0419 0.0000 ( 17876 PWs)   bands (ev):

[...]

          k =-0.0760-0.0000 0.0000 ( 17886 PWs)   bands (ev):

[...]

          k =-0.0760-0.0839 0.0000 ( 17948 PWs)   bands (ev):

   -55.6910 -55.6856 -55.6784 -55.6740 -55.6667 -55.6019 -55.5614 -55.5412
   -55.5371 -55.5361 -55.4942 -55.4936 -55.4915 -55.4896 -54.7572 -54.7571
   -32.1094 -32.0773 -32.0663 -32.0046 -32.0004 -31.9818 -31.9724 -31.9634
   -31.9613 -31.9368 -31.9356 -31.9109 -31.9017 -31.8733 -31.8597 -31.8578
   -31.8563 -31.8481 -31.8432 -31.8392 -31.8314 -31.8240 -31.8067 -31.8038
   -31.8010 -31.7988 -31.7986 -31.7975 -31.7942 -31.7861 -31.7840 -31.7544
   -31.7397 -31.7393 -31.7241 -31.7150 -31.7131 -31.7078 -31.6825 -31.6776
   -31.6764 -31.6535 -31.0754 -31.0754 -30.9988 -30.9984 -30.9591 -30.9589
   -21.1384 -19.2985 -16.1562 -15.9611 -15.8108 -15.7262 -15.7195 -15.6605
   -15.5807 -15.5393 -15.4935 -15.4816 -15.4712 -15.4367 -15.4278 -15.4164
   -15.3540 -15.3035 -15.3001 -15.2846 -15.2357 -15.2279 -15.2173 -15.2117
   -15.2029 -15.1599 -15.1557 -15.1411 -15.1303 -14.9870 -14.8304 -13.2574
   -13.2567 -10.3471  -7.3114  -5.7068  -4.7072  -3.9480  -3.8222  -3.2363
    -3.2337  -2.9713  -2.9498  -2.8914  -2.8798  -2.8156  -2.7844  -2.7086
    -2.7022  -2.6571  -2.6165  -2.6084  -2.5954  -2.5712  -2.5378  -2.5235
    -2.4824  -2.4730  -2.4470  -2.4426  -2.4232  -2.4073  -2.3823  -2.3764
    -2.3442  -2.3238  -2.3162  -2.3117  -2.2358  -2.1734  -2.0504  -2.0283
    -1.9880  -1.9385  -1.9229  -1.8524  -1.8166  -1.8019  -1.7442  -1.7099
    -1.6832  -1.5100  -1.4981  -1.4778  -1.3869  -1.3544  -1.3407  -1.3130
    -1.2570  -1.2280  -1.2242  -1.1466  -1.0352  -1.0125  -0.9143  -0.8685
    -0.8672  -0.7787  -0.7449  -0.7065  -0.7044  -0.6678  -0.6108  -0.5891
    -0.5321  -0.5276  -0.4794  -0.4581  -0.4346  -0.4038  -0.2313  -0.1763
    -0.1204  -0.0231   0.0054   0.2330   0.2641   0.2707   0.3368   0.3674
     0.4730   0.4943   0.5578   0.5730   0.6742   0.7049   0.7226   0.7275
     0.7735   1.4785   1.6031   1.6057   1.7046   1.7083   3.5307   3.5441
     3.6462   3.6981   3.7354   3.8391   3.8879   3.9202   3.9278   3.9429
     4.0168

     the Fermi energy is     3.4291 ev

!    total energy              =   -2964.77936974 Ry
     estimated scf accuracy    <       0.00000005 Ry
     smearing contrib. (-TS)   =      -0.03746139 Ry
     internal energy E=F+TS    =   -2964.74190835 Ry

     The total energy is F=E-TS. E is the sum of the following terms:
     one-electron contribution =  -24109.37390517 Ry
     hartree contribution      =   12144.87788710 Ry
     xc contribution           =    -490.03027879 Ry
     ewald contribution        =    9489.78344176 Ry
     electric field correction =       0.00094675 Ry

     convergence has been achieved in  65 iterations

     Forces acting on atoms (cartesian axes, Ry/au):

     atom    1 type  1   force =    -0.00035512   -0.00002235    0.09254674
     atom    2 type  1   force =    -0.00033165    0.00121497   -0.18262130
     atom    3 type  2   force =     0.00043723    0.00023022   -0.02455741
     atom    4 type  2   force =     0.00073448    0.00044849    0.05163853
     atom    5 type  2   force =    -0.01466796   -0.00007454    0.00466682
     atom    6 type  2   force =     0.01553970   -0.00056701    0.00542130
     atom    7 type  1   force =    -0.00050795   -0.00017610    0.00010066
     atom    8 type  1   force =     0.00022270    0.00004260    0.00018594
     atom    9 type  2   force =    -0.00017118   -0.00017667   -0.00028572
     atom   10 type  2   force =     0.00006351   -0.00004652    0.00031530
     atom   11 type  2   force =    -0.00030724    0.00020631    0.00003997
     atom   12 type  2   force =     0.00037732    0.00007798   -0.00020543
     atom   13 type  1   force =    -0.00020703   -0.00025704    0.00020668
     atom   14 type  1   force =     0.00013970   -0.00018479   -0.00051370
     atom   15 type  2   force =    -0.00032146    0.00033081   -0.00011408
     atom   16 type  2   force =     0.00008262    0.00001994   -0.00008076
     atom   17 type  2   force =    -0.00017737   -0.00022195    0.00030073
     atom   18 type  2   force =     0.00022080   -0.00019047   -0.00012646
     atom   19 type  1   force =    -0.00095518    0.00008265   -0.00034047
     atom   20 type  1   force =     0.00037051    0.00006264   -0.00002380
     atom   21 type  2   force =    -0.00009783    0.00005771    0.10488528
     atom   22 type  2   force =    -0.00033037   -0.00001358    0.00042818
     atom   23 type  2   force =    -0.06834042    0.00002142   -0.02692992
     atom   24 type  2   force =     0.06803478    0.00045439   -0.02700626
     atom   25 type  1   force =    -0.00031048   -0.00001573    0.09721431
     atom   26 type  1   force =    -0.00030594   -0.00120401   -0.18265930
     atom   27 type  2   force =     0.00035082    0.00024059   -0.02296959
     atom   28 type  2   force =     0.00081342    0.00042764    0.05202863
     atom   29 type  2   force =    -0.01465086    0.00064804    0.00459571
     atom   30 type  2   force =     0.01566497    0.00039864    0.00532275
     atom   31 type  1   force =    -0.00046434   -0.00000369    0.00011228
     atom   32 type  1   force =     0.00022257    0.00007173    0.00017583
     atom   33 type  2   force =    -0.00008604    0.00013012    0.00019042
     atom   34 type  2   force =     0.00001150    0.00001937    0.00016087
     atom   35 type  2   force =    -0.00014570   -0.00030132    0.00012831
     atom   36 type  2   force =     0.00021220   -0.00019671   -0.00010171
     atom   37 type  1   force =    -0.00030244    0.00016511   -0.00047213
     atom   38 type  1   force =     0.00012707    0.00034058   -0.00041107
     atom   39 type  2   force =    -0.00035591   -0.00027882   -0.00016786
     atom   40 type  2   force =     0.00018088   -0.00008357   -0.00000225
     atom   41 type  2   force =    -0.00041649   -0.00002815   -0.00006262
     atom   42 type  2   force =     0.00045333   -0.00004556   -0.00046194
     atom   43 type  1   force =    -0.00090091   -0.00029626    0.00018673
     atom   44 type  1   force =     0.00035756   -0.00062615    0.00004757
     atom   45 type  2   force =    -0.00007226    0.00005407    0.10478269
     atom   46 type  2   force =    -0.06833097   -0.00059586   -0.02692010
     atom   47 type  2   force =     0.06802624   -0.00012993   -0.02699490
     atom   48 type  3   force =    -0.00000642   -0.00009222   -0.00037599
     atom   49 type  2   force =    -0.00018459   -0.00000696    0.00006483
     atom   50 type  4   force =     0.00017914    0.00018780   -0.00015353
     atom   51 type  4   force =     0.00020614   -0.00007934   -0.00011427
     atom   52 type  2   force =    -0.00032783   -0.00235417   -0.01602701
     atom   53 type  4   force =     0.00733261    0.00100801    0.00802176
     atom   54 type  4   force =    -0.00672984    0.00132761    0.00693075

     Total force =     0.369089     Total SCF correction =     0.000523
  @ DRIVER MODE: Message from server: STATUS
  @ DRIVER MODE: Message from server: GETFORCE
  @ DRIVER MODE: Returning v,forces,stress,ensemble

     Writing output data file ./calc.save/
  @ DRIVER MODE: Message from server: EXIT
  @ DRIVE MODE: Exiting

     General routines

     Parallel routines

   This run was terminated on:   2: 9:52  16Sep2021

   JOB DONE.