     Program PWSCF v.6.7GPU starts on 23Sep2021 at  9: 9: 6

     R & G space division:  proc/nbgrp/npool/nimage =      10
     Reading input from /storage/home/hcoda1/3/ntian30/research/carbon/CxH_vib/H2O_calc/ads_slab/CH3NNH3HO_a/out_0049/pw.inp
Warning: card &CELL ignored
Warning: card   CELL_DYNAMICS='IPI', ignored
Warning: card / ignored

     Current dimensions of program PWSCF are:
     Max number of different atomic species (ntypx) = 10
     Max number of k-points (npk) =  40000
     Max angular momentum in pseudopotentials (lmaxx) =  3
     Presently no symmetry can be used with electric field

     Message from routine cell_base_init:
     DEPRECATED: use true lattice parameter, not A to a.u. conversion factor

     IMPORTANT: XC functional enforced from input :
     Exchange-correlation= BEEF-VDW
                           (   1   4  43  14   2   0   0)
     Any further DFT definition will be discarded
     Please, verify this is what you really want

  @ DRIVER MODE: Connecting to
 qe_1139763_2937318.sched-torque.pace.gatech.edu_q1ia9wc_scratch
  using UNIX socket
  @ DRIVER MODE: Message from server: STATUS
  @ DRIVER MODE: Message from server: INIT
  @ DRIVER MODE: Receiving replica           0          -1
  @ DRIVER MODE: Receiving encoded integer          25
  @ DRIVER MODE:  SCF:  T  FORCE:  T  STRESS:  F  VC:  F  ENSEMBLE:  F
  @ DRIVER MODE:  SCF:  T  FORCE:  T  STRESS:  F  VC:  F  ENSEMBLE:  F

     Using Slab Decomposition

     bravais-lattice index     =            0
     lattice parameter (alat)  =       1.8897  a.u.
     unit-cell volume          =    6658.9804 (a.u.)^3
     number of atoms/cell      =           58
     number of atomic types    =            5
     number of electrons       =       405.00
     number of Kohn-Sham states=          212
     kinetic-energy cutoff     =      29.3995  Ry
     charge density cutoff     =     293.9946  Ry
     scf convergence threshold =      7.3E-08
     mixing beta               =       0.0500
     number of iterations used =            8  plain     mixing
     Exchange-correlation= BEEF-VDW
                           (   1   4  43  14   2   0   0)

     celldm(1)=   1.889726  celldm(2)=   0.000000  celldm(3)=   0.000000
     celldm(4)=   0.000000  celldm(5)=   0.000000  celldm(6)=   0.000000

     crystal axes: (cart. coord. in units of alat)
               a(1) = (   6.579727   0.000000   0.000000 )
               a(2) = (  -0.000775   5.961596   0.000000 )
               a(3) = (   0.000000   0.000000  25.155947 )

     reciprocal axes: (cart. coord. in units 2 pi/alat)
               b(1) = (  0.151982  0.000020  0.000000 )
               b(2) = (  0.000000  0.167740  0.000000 )
               b(3) = (  0.000000  0.000000  0.039752 )

     PseudoPot. # 1 for Ti read from file:
     /storage/coda1/p-amedford6/0/shared/rich_project_chbe-medford/medford-share/data/pseudos_module/espresso/nninc/pbe/van/Ti.UPF
     MD5 check sum: 8e4df49b7f0d34bbd5052bf3f5ea0213
     Pseudo is Ultrasoft, Zval = 12.0
     Generated by new atomic code, or converted to UPF format
     Using radial grid of  851 points,  6 beta functions with:
                l(1) =   0
                l(2) =   0
                l(3) =   1
                l(4) =   1
                l(5) =   2
                l(6) =   2
     Q(r) pseudized with  8 coefficients,  rinner =    1.000   1.000   1.000
                                                       1.000   1.000

     PseudoPot. # 2 for O  read from file:
     /storage/coda1/p-amedford6/0/shared/rich_project_chbe-medford/medford-share/data/pseudos_module/espresso/nninc/pbe/van/O.UPF
     MD5 check sum: 78c19812648e8988a0fe644b0f25305e
     Pseudo is Ultrasoft, Zval =  6.0
     Generated by new atomic code, or converted to UPF format
     Using radial grid of  737 points,  4 beta functions with:
                l(1) =   0
                l(2) =   0
                l(3) =   1
                l(4) =   1
     Q(r) pseudized with  8 coefficients,  rinner =    0.800   0.800   0.800

     PseudoPot. # 3 for N  read from file:
     /storage/coda1/p-amedford6/0/shared/rich_project_chbe-medford/medford-share/data/pseudos_module/espresso/nninc/pbe/van/N.UPF
     MD5 check sum: 90d10febe142ad51ac9d5be1deb811c4
     Pseudo is Ultrasoft, Zval =  5.0
     Generated by new atomic code, or converted to UPF format
     Using radial grid of  729 points,  4 beta functions with:
                l(1) =   0
                l(2) =   0
                l(3) =   1
                l(4) =   1
     Q(r) pseudized with  8 coefficients,  rinner =    0.800   0.800   0.800

     PseudoPot. # 4 for C  read from file:
     /storage/coda1/p-amedford6/0/shared/rich_project_chbe-medford/medford-share/data/pseudos_module/espresso/nninc/pbe/van/C.UPF
     MD5 check sum: 1a69bf6b8db32088f5b2163dbdb77a27
     Pseudo is Ultrasoft, Zval =  4.0
     Generated by new atomic code, or converted to UPF format
     Using radial grid of  721 points,  4 beta functions with:
                l(1) =   0
                l(2) =   0
                l(3) =   1
                l(4) =   1
     Q(r) pseudized with  8 coefficients,  rinner =    0.800   0.800   0.800

     PseudoPot. # 5 for H  read from file:
     /storage/coda1/p-amedford6/0/shared/rich_project_chbe-medford/medford-share/data/pseudos_module/espresso/nninc/pbe/van/H.UPF
     MD5 check sum: b5ee9d7bfd3a09ee7748110bda690ff7
     Pseudo is Ultrasoft, Zval =  1.0
     Generated by new atomic code, or converted to UPF format
     Using radial grid of  615 points,  1 beta functions with:
                l(1) =   0
     Q(r) pseudized with  8 coefficients,  rinner =    0.800

     atomic species   valence    mass     pseudopotential
        Ti1           12.00    47.86700     Ti( 1.00)
        O1             6.00    15.99900     O ( 1.00)
        N1             5.00    14.00700     N ( 1.00)
        C1             4.00    12.01100     C ( 1.00)
        H1             1.00     1.00800     H ( 1.00)

     No symmetry found

   Cartesian axes

     site n.     atom                  positions (alat units)
         1           Ti1 tau(   1) = (   0.0004258   2.9801865   6.0000000  )
         2           Ti1 tau(   2) = (   3.2906075   1.4906267   6.0002472  )
         3           O1  tau(   3) = (   0.0006271   0.0005054   7.9858123  )
         4           O1  tau(   4) = (   3.2906025   0.0005020   7.3038282  )
         5           O1  tau(   5) = (   4.5942328   1.4918067   9.2879030  )
         6           O1  tau(   6) = (   1.9868534   1.4903216   9.2879459  )
         7           Ti1 tau(   7) = (   3.2907910   2.8959150   9.1758416  )
         8           Ti1 tau(   8) = (   0.0015273   1.4827037   9.2680791  )
         9           O1  tau(   9) = (   3.2949357   5.9297256  11.2770696  )
        10           O1  tau(  10) = (   0.0116148   5.9584955  10.6183126  )
        11           O1  tau(  11) = (   1.2901270   1.4659759  12.6218969  )
        12           O1  tau(  12) = (   5.3029181   1.4690452  12.6271982  )
        13           Ti1 tau(  13) = (   6.5637346   3.0486055  12.7052252  )
        14           Ti1 tau(  14) = (   3.3207578   1.2909511  12.6638180  )
        15           O1  tau(  15) = (   0.0081040   5.9567798  14.6379979  )
        16           O1  tau(  16) = (   3.2944190   0.0149942  13.8863584  )
        17           O1  tau(  17) = (   4.5334936   1.5584448  16.0391558  )
        18           O1  tau(  18) = (   2.0244848   1.5379376  16.0854781  )
        19           Ti1 tau(  19) = (   3.2579824   3.0118882  15.6538344  )
        20           Ti1 tau(  20) = (   6.4918182   1.5199401  15.8876453  )
        21           O1  tau(  21) = (   3.2904802   0.0005063   4.7018136  )
        22           O1  tau(  22) = (   6.5166677   0.0216046  17.1949088  )
        23           O1  tau(  23) = (   1.3043587   1.4918075   6.0039043  )
        24           O1  tau(  24) = (   5.2767064   1.4903225   6.0039473  )
        25           Ti1 tau(  25) = (   0.0000382   5.9609847   6.0000000  )
        26           Ti1 tau(  26) = (   3.2902200   4.4714249   6.0002472  )
        27           O1  tau(  27) = (   0.0002396   2.9813036   7.9858123  )
        28           O1  tau(  28) = (   3.2902150   2.9813002   7.3038282  )
        29           O1  tau(  29) = (   4.5938453   4.4726049   9.2879030  )
        30           O1  tau(  30) = (   1.9864658   4.4711199   9.2879459  )
        31           Ti1 tau(  31) = (   3.2891106   5.8743827   9.1763621  )
        32           Ti1 tau(  32) = (   0.0006254   4.4649316   9.2693709  )
        33           O1  tau(  33) = (   3.2959121   3.0085915  11.2438341  )
        34           O1  tau(  34) = (   0.0092240   2.9805883  10.6323155  )
        35           O1  tau(  35) = (   1.2849535   4.4488585  12.6204231  )
        36           O1  tau(  36) = (   5.2878833   4.4365118  12.6243745  )
        37           Ti1 tau(  37) = (   0.0500071   0.0677371  12.6535751  )
        38           Ti1 tau(  38) = (   3.3027700   4.3871210  12.4110406  )
        39           O1  tau(  39) = (   6.5685058   2.9535060  14.6525041  )
        40           O1  tau(  40) = (   3.2696111   2.9719761  13.8704823  )
        41           O1  tau(  41) = (   4.5209813   4.4409030  16.0696701  )
        42           O1  tau(  42) = (   2.0131998   4.4599944  16.0916020  )
        43           Ti1 tau(  43) = (   3.2138439   0.0230873  16.3295100  )
        44           Ti1 tau(  44) = (   6.5234412   4.6200706  16.0754176  )
        45           O1  tau(  45) = (   3.2900926   2.9813045   4.7018136  )
        46           O1  tau(  46) = (   1.3039711   4.4726057   6.0039043  )
        47           O1  tau(  47) = (   5.2763189   4.4711207   6.0039473  )
        48           N1  tau(  48) = (   0.0251376   2.9556585  17.3246074  )
        49           N1  tau(  49) = (   6.3772498   2.5461882  22.2688425  )
        50           C1  tau(  50) = (   0.2111848   2.8484408  18.7116211  )
        51           H1  tau(  51) = (   0.3920758   3.8074029  19.2116250  )
        52           H1  tau(  52) = (   5.9044209   2.3708277  19.1722604  )
        53           H1  tau(  53) = (   1.0233575   2.1342068  18.9364007  )
        54           H1  tau(  54) = (   6.0930523   3.2289774  22.9628454  )
        55           H1  tau(  55) = (   0.2277240   1.7755739  22.7685771  )
        56           H1  tau(  56) = (   0.5182093   2.9785696  21.7129995  )
        57           O1  tau(  57) = (   3.3838229   0.0530270  18.1522483  )
        58           H1  tau(  58) = (   4.2718821   5.8932998  18.5223319  )

     number of k points=    10  Fermi-Dirac smearing, width (Ry)=  0.0073
                       cart. coord. in units 2pi/alat
        k(    1) = (   0.0000000   0.0000000   0.0000000), wk =   0.1250000
        k(    2) = (   0.0000000   0.0419351   0.0000000), wk =   0.2500000
        k(    3) = (   0.0000000  -0.0838702   0.0000000), wk =   0.1250000
        k(    4) = (   0.0379955   0.0000049   0.0000000), wk =   0.2500000
        k(    5) = (   0.0379955   0.0419400   0.0000000), wk =   0.2500000
        k(    6) = (   0.0379955  -0.0838652   0.0000000), wk =   0.2500000
        k(    7) = (   0.0379955  -0.0419301   0.0000000), wk =   0.2500000
        k(    8) = (  -0.0759910  -0.0000099   0.0000000), wk =   0.1250000
        k(    9) = (  -0.0759910   0.0419252   0.0000000), wk =   0.2500000
        k(   10) = (  -0.0759910  -0.0838800   0.0000000), wk =   0.1250000

     Initial potential from superposition of free atoms

     starting charge  388.99913, renormalised to  405.00000

     negative rho (up, down):  7.831E-03 0.000E+00

     %%%%%%%%%%%%%%%%%%%%%%%%%%%%%%%%%%%%%%%%%%%%%%%%%%%%%%%%%%%%%%%%%%%%%%%%
     %                                                                      %
     % You are using vdW-DF, which was implemented by the Thonhauser group. %
     % Please cite the following two papers that made this development      %
     % possible and the two reviews that describe the various versions:     %
     %                                                                      %
     %   T. Thonhauser et al., PRL 115, 136402 (2015).                      %
     %   T. Thonhauser et al., PRB 76, 125112 (2007).                       %
     %   K. Berland et al., Rep. Prog. Phys. 78, 066501 (2015).             %
     %   D.C. Langreth et al., J. Phys.: Condens. Matter 21, 084203 (2009). %
     %                                                                      %
     %                                                                      %
     % If you are calculating the stress with vdW-DF, please also cite:     %
     %                                                                      %
     %   R. Sabatini et al., J. Phys.: Condens. Matter 24, 424209 (2012).   %
     %                                                                      %
     %%%%%%%%%%%%%%%%%%%%%%%%%%%%%%%%%%%%%%%%%%%%%%%%%%%%%%%%%%%%%%%%%%%%%%%%

     Adding external electric field

     Computed dipole along edir(3) :
        Dipole              -15.1933 Ry au,        -38.6176 Debye
        Dipole field         -0.0287 Ry au,

        Potential amp.        2.6578 Ry
        Total length         46.3494 bohr

     Starting wfcs are  307 atomic wfcs
  @ DRIVER MODE: Message from server: STATUS
  @ DRIVER MODE: Message from server: POSDATA
  @ DRIVER MODE: Reading and sharing cell
  @ DRIVER MODE: Reading and sharing positions
  @ DRIVER MODE: Received positions

     Self-consistent Calculation

     iteration #  1     ecut=    29.40 Ry     beta= 0.05
     Davidson diagonalization with overlap
     c_bands:  4 eigenvalues not converged
     c_bands:  1 eigenvalues not converged
     c_bands:  1 eigenvalues not converged
     c_bands:  2 eigenvalues not converged
     c_bands:  1 eigenvalues not converged
     c_bands:  2 eigenvalues not converged
     ethr =  1.00E-05,  avg # of iterations = 31.5

[...]

     total energy              =   -2295.04806050 Ry
     estimated scf accuracy    <    7743.75940028 Ry

     iteration #  2     ecut=    29.40 Ry     beta= 0.05
     Davidson diagonalization with overlap
     ethr =  1.00E-02,  avg # of iterations = 23.0

[...]

     iteration # 47     ecut=    29.40 Ry     beta= 0.05
     Davidson diagonalization with overlap
     c_bands:  1 eigenvalues not converged
     ethr =  4.06E-08,  avg # of iterations =  6.6

[...]

     total energy              =   -2976.42341247 Ry
     estimated scf accuracy    <       0.00000013 Ry

     iteration # 61     ecut=    29.40 Ry     beta= 0.05
     Davidson diagonalization with overlap
     ethr =  2.78E-11,  avg # of iterations =  5.2

     negative rho (up, down):  9.599E-03 0.000E+00

     Adding external electric field

     Computed dipole along edir(3) :
        Dipole                0.6338 Ry au,          1.6110 Debye
        Dipole field          0.0012 Ry au,

        Potential amp.       -0.1109 Ry
        Total length         46.3494 bohr

     End of self-consistent calculation

          k = 0.0000 0.0000 0.0000 ( 18029 PWs)   bands (ev):

   -56.5667 -56.5331 -55.6423 -55.6072 -55.4265 -55.3600 -55.2310 -55.1179
   -55.0840 -55.0361 -55.0040 -54.9698 -54.9117 -54.8178 -54.7467 -54.6143
   -32.9854 -32.8371 -32.8090 -32.7461 -32.6559 -32.6125 -32.1241 -31.9014
   -31.8626 -31.8411 -31.7865 -31.7787 -31.7534 -31.6599 -31.6395 -31.5949
   -31.5631 -31.5467 -31.5233 -31.5110 -31.5051 -31.4955 -31.4650 -31.4630
   -31.4404 -31.4214 -31.3561 -31.3219 -31.2995 -31.2933 -31.2416 -31.2337
   -31.2165 -31.1948 -31.1825 -31.1672 -31.1601 -31.1302 -31.1244 -31.0926
   -31.0481 -31.0038 -31.0027 -30.9817 -30.9487 -30.8885 -30.8518 -30.8013
   -16.6701 -16.1120 -16.0882 -15.8833 -15.7608 -15.7555 -15.7123 -15.6434
   -15.4744 -15.4056 -15.3771 -15.3161 -15.1717 -15.0561 -14.9589 -14.7789
   -14.7053 -14.6999 -14.6813 -14.6736 -14.6567 -14.6359 -14.5770 -14.5184
   -14.4760 -14.4111 -14.3674 -14.2215 -14.0210 -13.9957 -13.9717 -13.6154
   -13.5085 -13.5038  -7.7391  -4.2455  -4.0568  -4.0271  -3.6987  -3.5787
    -3.4061  -3.2535  -3.2032  -3.1450  -3.0855  -3.0760  -2.9284  -2.9268
    -2.9150  -2.9081  -2.8300  -2.7714  -2.7065  -2.6196  -2.6040  -2.5093
    -2.4626  -2.3033  -2.2773  -2.1763  -2.1042  -2.0987  -2.0326  -2.0097
    -1.9624  -1.9173  -1.9079  -1.8733  -1.8297  -1.7828  -1.7646  -1.6532
    -1.6454  -1.5808  -1.5741  -1.5513  -1.4379  -1.4179  -1.3480  -1.2029
    -1.1816  -1.1782  -1.1312  -1.1138  -1.0322  -0.9359  -0.8688  -0.8422
    -0.7862  -0.6975  -0.6509  -0.6291  -0.5566  -0.5372  -0.4631  -0.4192
    -0.4066  -0.3861  -0.3438  -0.2296  -0.1427  -0.1098  -0.0561  -0.0307
     0.0020   0.0292   0.0481   0.0968   0.1666   0.2525   0.2735   0.4122
     0.4643   0.5011   0.5767   0.6109   0.6174   0.7066   0.7380   0.7677
     0.8141   0.8888   0.9032   0.9043   0.9633   1.0473   1.1022   1.1616
     1.1674   1.2023   1.2106   1.2614   1.3499   1.3705   1.4396   1.4947
     1.8187   1.8810   2.4832   2.7277   2.8992   3.1761   3.3680   3.6714
     3.7136   3.7315   3.7316   4.0374

[...]

          k = 0.0380-0.0419 0.0000 ( 17876 PWs)   bands (ev):

[...]

          k =-0.0760-0.0000 0.0000 ( 17886 PWs)   bands (ev):

[...]

          k =-0.0760-0.0839 0.0000 ( 17948 PWs)   bands (ev):

   -56.5505 -56.5491 -55.6299 -55.6195 -55.4219 -55.3645 -55.2302 -55.1016
   -55.1003 -55.0313 -55.0046 -54.9744 -54.9100 -54.8163 -54.7482 -54.6156
   -32.8236 -32.8221 -32.8034 -32.8019 -32.7002 -32.6991 -31.9486 -31.9395
   -31.8244 -31.8191 -31.8132 -31.8115 -31.7213 -31.6784 -31.6531 -31.6401
   -31.5904 -31.5887 -31.5019 -31.4748 -31.4650 -31.4540 -31.4530 -31.3701
   -31.3510 -31.3217 -31.3201 -31.3025 -31.2952 -31.2853 -31.2817 -31.2813
   -31.2528 -31.2337 -31.2156 -31.2011 -31.1970 -31.1591 -31.1589 -31.1030
   -31.0918 -31.0511 -31.0076 -30.9959 -30.9599 -30.9535 -30.8538 -30.8368
   -16.0760 -16.0286 -16.0267 -15.9832 -15.9817 -15.7198 -15.7154 -15.4650
   -15.4357 -15.2562 -15.1524 -15.1283 -15.0849 -15.0432 -14.9720 -14.9177
   -14.8881 -14.8560 -14.8300 -14.7679 -14.7381 -14.6336 -14.6008 -14.5535
   -14.5171 -14.4552 -14.4143 -14.3651 -14.1775 -14.1340 -13.9711 -13.6130
   -13.6125 -13.5287  -7.7382  -4.0608  -4.0340  -3.6899  -3.1598  -3.1045
    -3.1001  -3.0677  -3.0604  -2.9751  -2.8539  -2.8508  -2.7562  -2.6486
    -2.6222  -2.5992  -2.5386  -2.5293  -2.4291  -2.3795  -2.3746  -2.3602
    -2.3239  -2.2944  -2.2879  -2.2279  -2.0893  -2.0733  -2.0241  -1.9700
    -1.8955  -1.8870  -1.8778  -1.8409  -1.7993  -1.7739  -1.7628  -1.7358
    -1.7310  -1.7265  -1.6170  -1.5121  -1.4648  -1.3713  -1.3671  -1.3582
    -1.3204  -1.2933  -1.2597  -1.2534  -1.2245  -1.1445  -1.1184  -1.0485
    -0.9346  -0.9168  -0.8751  -0.8268  -0.7230  -0.7047  -0.6150  -0.5788
    -0.5674  -0.5079  -0.4789  -0.4628  -0.4046  -0.3654  -0.2337  -0.1939
    -0.1824  -0.1654  -0.1431  -0.1069  -0.0456   0.0158   0.0476   0.0495
     0.1541   0.2539   0.3418   0.4109   0.4203   0.4435   0.5300   0.6354
     0.6764   0.7010   0.7494   0.8730   0.9909   1.0205   1.1277   1.1544
     1.1642   1.2622   1.2799   1.2850   1.3051   1.3142   1.3494   1.4159
     1.4768   1.7634   2.3162   3.3202   3.3234   3.3815   3.3871   3.6979
     3.7002   3.8114   3.8165   4.1418

     the Fermi energy is     2.3931 ev

!    total energy              =   -2976.42347728 Ry
     estimated scf accuracy    <       0.00000004 Ry
     smearing contrib. (-TS)   =      -0.01084047 Ry
     internal energy E=F+TS    =   -2976.41263681 Ry

     The total energy is F=E-TS. E is the sum of the following terms:
     one-electron contribution =  -22707.58018144 Ry
     hartree contribution      =   11450.13294050 Ry
     xc contribution           =    -495.34949094 Ry
     ewald contribution        =    8776.38333699 Ry
     electric field correction =       0.00075808 Ry

     convergence has been achieved in  61 iterations

     Forces acting on atoms (cartesian axes, Ry/au):

     atom    1 type  1   force =     0.00002319   -0.00053393    0.12631933
     atom    2 type  1   force =    -0.00009944    0.00041231   -0.15468941
     atom    3 type  2   force =     0.00002663    0.00002581   -0.06829848
     atom    4 type  2   force =     0.00005781   -0.00010852    0.01703100
     atom    5 type  2   force =    -0.00488065   -0.00242641   -0.01323722
     atom    6 type  2   force =     0.00655844   -0.00180496   -0.01375284
     atom    7 type  1   force =    -0.00029816   -0.00661112    0.05923011
     atom    8 type  1   force =     0.00039311    0.00687096    0.10030380
     atom    9 type  2   force =    -0.00002594    0.00065737    0.00130910
     atom   10 type  2   force =    -0.00261639   -0.00001258   -0.06338079
     atom   11 type  2   force =     0.00043698   -0.00068613   -0.00027335
     atom   12 type  2   force =    -0.00085346   -0.00112445   -0.00108507
     atom   13 type  1   force =    -0.00030297    0.00070254   -0.00137732
     atom   14 type  1   force =    -0.00032982   -0.00038894   -0.00024235
     atom   15 type  2   force =    -0.00066499   -0.00038637   -0.00058402
     atom   16 type  2   force =     0.00019660    0.00093042   -0.00031099
     atom   17 type  2   force =     0.00079191    0.00008794   -0.00055634
     atom   18 type  2   force =    -0.00023287   -0.00015359   -0.00003919
     atom   19 type  1   force =    -0.00018690   -0.00013054   -0.00093247
     atom   20 type  1   force =     0.00068320    0.00082053   -0.00046452
     atom   21 type  2   force =     0.00005860    0.00015546    0.09776997
     atom   22 type  2   force =     0.00040676   -0.00032250    0.00143516
     atom   23 type  2   force =    -0.08276169    0.00005474   -0.03314626
     atom   24 type  2   force =     0.08270189    0.00050223   -0.03322132
     atom   25 type  1   force =     0.00007182   -0.00035990    0.12645763
     atom   26 type  1   force =    -0.00010883   -0.00149723   -0.15486625
     atom   27 type  2   force =     0.00011279   -0.00046741   -0.06667499
     atom   28 type  2   force =     0.00004771    0.00167426    0.01197267
     atom   29 type  2   force =    -0.00343293    0.00422294   -0.01620838
     atom   30 type  2   force =     0.00505835    0.00456706   -0.01661214
     atom   31 type  1   force =    -0.00016115    0.00218488    0.04256640
     atom   32 type  1   force =     0.00043656   -0.00894408    0.10087514
     atom   33 type  2   force =    -0.00048592   -0.00013094   -0.00039463
     atom   34 type  2   force =    -0.00212705   -0.00026109   -0.07625007
     atom   35 type  2   force =    -0.00009693    0.00070373    0.00087102
     atom   36 type  2   force =    -0.00050048    0.00052042    0.00039629
     atom   37 type  1   force =     0.00044736    0.00061960   -0.00018007
     atom   38 type  1   force =    -0.00042161   -0.00067779   -0.00066154
     atom   39 type  2   force =     0.00044493   -0.00032514   -0.00040935
     atom   40 type  2   force =     0.00037190   -0.00062337   -0.00000440
     atom   41 type  2   force =     0.00026544    0.00048288   -0.00003689
     atom   42 type  2   force =    -0.00020147   -0.00018382    0.00011567
     atom   43 type  1   force =     0.00052456    0.00135003   -0.00094960
     atom   44 type  1   force =    -0.00024472   -0.00104291    0.00083455
     atom   45 type  2   force =     0.00009193   -0.00001497    0.09761540
     atom   46 type  2   force =    -0.08280601    0.00003930   -0.03319567
     atom   47 type  2   force =     0.08271122    0.00045657   -0.03320287
     atom   48 type  3   force =     0.00000867    0.00040602    0.00041566
     atom   49 type  3   force =    -0.00868357   -0.00428034    0.00620229
     atom   50 type  4   force =     0.00075333    0.00034988    0.00062396
     atom   51 type  5   force =     0.00000497   -0.00027613   -0.00056164
     atom   52 type  5   force =     0.00008552    0.00089977   -0.00057023
     atom   53 type  5   force =    -0.00018060    0.00033806    0.00040085
     atom   54 type  5   force =    -0.00049952   -0.00041079    0.00008067
     atom   55 type  5   force =     0.00067737    0.00053754   -0.00046144
     atom   56 type  5   force =     0.00901998    0.00417955   -0.00646758
     atom   57 type  2   force =    -0.00180338   -0.00056755    0.00034187
     atom   58 type  5   force =     0.00153791    0.00000070    0.00013116

     Total force =     0.420990     Total SCF correction =     0.000592
  @ DRIVER MODE: Message from server: STATUS
  @ DRIVER MODE: Message from server: GETFORCE
  @ DRIVER MODE: Returning v,forces,stress,ensemble

     Writing output data file ./calc.save/
  @ DRIVER MODE: Message from server: EXIT
  @ DRIVE MODE: Exiting

     General routines

     Parallel routines

   This run was terminated on:   9:25:47  23Sep2021

   JOB DONE.