     Program PWSCF v.6.7GPU starts on 15Sep2021 at 22:43:47

     R & G space division:  proc/nbgrp/npool/nimage =      10
     Reading input from /storage/home/hcoda1/3/ntian30/research/carbon/CxH_vib/H2O_calc/ads_slab/CH3OHH2O_e/out_0022/pw.inp
Warning: card &CELL ignored
Warning: card   CELL_DYNAMICS='IPI', ignored
Warning: card / ignored

     Current dimensions of program PWSCF are:
     Max number of different atomic species (ntypx) = 10
     Max number of k-points (npk) =  40000
     Max angular momentum in pseudopotentials (lmaxx) =  3
     Presently no symmetry can be used with electric field

     Message from routine cell_base_init:
     DEPRECATED: use true lattice parameter, not A to a.u. conversion factor

     IMPORTANT: XC functional enforced from input :
     Exchange-correlation= BEEF-VDW
                           (   1   4  43  14   2   0   0)
     Any further DFT definition will be discarded
     Please, verify this is what you really want

  @ DRIVER MODE: Connecting to
 qe_1139763_2852623.sched-torque.pace.gatech.eduj1prnruo_scratch
  using UNIX socket
  @ DRIVER MODE: Message from server: STATUS
  @ DRIVER MODE: Message from server: INIT
  @ DRIVER MODE: Receiving replica           0          -1
  @ DRIVER MODE: Receiving encoded integer          25
  @ DRIVER MODE:  SCF:  T  FORCE:  T  STRESS:  F  VC:  F  ENSEMBLE:  F
  @ DRIVER MODE:  SCF:  T  FORCE:  T  STRESS:  F  VC:  F  ENSEMBLE:  F

     Using Slab Decomposition

     bravais-lattice index     =            0
     lattice parameter (alat)  =       1.8897  a.u.
     unit-cell volume          =    6658.9804 (a.u.)^3
     number of atoms/cell      =           56
     number of atomic types    =            4
     number of electrons       =       400.00
     number of Kohn-Sham states=          210
     kinetic-energy cutoff     =      29.3995  Ry
     charge density cutoff     =     293.9946  Ry
     scf convergence threshold =      7.3E-08
     mixing beta               =       0.0500
     number of iterations used =            8  plain     mixing
     Exchange-correlation= BEEF-VDW
                           (   1   4  43  14   2   0   0)

     celldm(1)=   1.889726  celldm(2)=   0.000000  celldm(3)=   0.000000
     celldm(4)=   0.000000  celldm(5)=   0.000000  celldm(6)=   0.000000

     crystal axes: (cart. coord. in units of alat)
               a(1) = (   6.579727   0.000000   0.000000 )
               a(2) = (  -0.000775   5.961596   0.000000 )
               a(3) = (   0.000000   0.000000  25.155947 )

     reciprocal axes: (cart. coord. in units 2 pi/alat)
               b(1) = (  0.151982  0.000020  0.000000 )
               b(2) = (  0.000000  0.167740  0.000000 )
               b(3) = (  0.000000  0.000000  0.039752 )

     PseudoPot. # 1 for Ti read from file:
     /storage/coda1/p-amedford6/0/shared/rich_project_chbe-medford/medford-share/data/pseudos_module/espresso/nninc/pbe/van/Ti.UPF
     MD5 check sum: 8e4df49b7f0d34bbd5052bf3f5ea0213
     Pseudo is Ultrasoft, Zval = 12.0
     Generated by new atomic code, or converted to UPF format
     Using radial grid of  851 points,  6 beta functions with:
                l(1) =   0
                l(2) =   0
                l(3) =   1
                l(4) =   1
                l(5) =   2
                l(6) =   2
     Q(r) pseudized with  8 coefficients,  rinner =    1.000   1.000   1.000
                                                       1.000   1.000

     PseudoPot. # 2 for O  read from file:
     /storage/coda1/p-amedford6/0/shared/rich_project_chbe-medford/medford-share/data/pseudos_module/espresso/nninc/pbe/van/O.UPF
     MD5 check sum: 78c19812648e8988a0fe644b0f25305e
     Pseudo is Ultrasoft, Zval =  6.0
     Generated by new atomic code, or converted to UPF format
     Using radial grid of  737 points,  4 beta functions with:
                l(1) =   0
                l(2) =   0
                l(3) =   1
                l(4) =   1
     Q(r) pseudized with  8 coefficients,  rinner =    0.800   0.800   0.800

     PseudoPot. # 3 for C  read from file:
     /storage/coda1/p-amedford6/0/shared/rich_project_chbe-medford/medford-share/data/pseudos_module/espresso/nninc/pbe/van/C.UPF
     MD5 check sum: 1a69bf6b8db32088f5b2163dbdb77a27
     Pseudo is Ultrasoft, Zval =  4.0
     Generated by new atomic code, or converted to UPF format
     Using radial grid of  721 points,  4 beta functions with:
                l(1) =   0
                l(2) =   0
                l(3) =   1
                l(4) =   1
     Q(r) pseudized with  8 coefficients,  rinner =    0.800   0.800   0.800

     PseudoPot. # 4 for H  read from file:
     /storage/coda1/p-amedford6/0/shared/rich_project_chbe-medford/medford-share/data/pseudos_module/espresso/nninc/pbe/van/H.UPF
     MD5 check sum: b5ee9d7bfd3a09ee7748110bda690ff7
     Pseudo is Ultrasoft, Zval =  1.0
     Generated by new atomic code, or converted to UPF format
     Using radial grid of  615 points,  1 beta functions with:
                l(1) =   0
     Q(r) pseudized with  8 coefficients,  rinner =    0.800

     atomic species   valence    mass     pseudopotential
        Ti1           12.00    47.86700     Ti( 1.00)
        O1             6.00    15.99900     O ( 1.00)
        C1             4.00    12.01100     C ( 1.00)
        H1             1.00     1.00800     H ( 1.00)

     No symmetry found

   Cartesian axes

     site n.     atom                  positions (alat units)
         1           Ti1 tau(   1) = (   0.0004258   2.9801865   6.0000000  )
         2           Ti1 tau(   2) = (   3.2906075   1.4906267   6.0002472  )
         3           O1  tau(   3) = (   0.0006271   0.0005054   7.9858123  )
         4           O1  tau(   4) = (   3.2906025   0.0005020   7.3038282  )
         5           O1  tau(   5) = (   4.5942328   1.4918067   9.2879030  )
         6           O1  tau(   6) = (   1.9868534   1.4903216   9.2879459  )
         7           Ti1 tau(   7) = (   3.3179988   2.9667087   9.1587561  )
         8           Ti1 tau(   8) = (   0.0368451   1.4888401   9.2646154  )
         9           O1  tau(   9) = (   3.2981896   5.9413050  11.3756853  )
        10           O1  tau(  10) = (   0.0022081   5.9550161  10.6068466  )
        11           O1  tau(  11) = (   1.2930414   1.4711740  12.6526869  )
        12           O1  tau(  12) = (   5.2963464   1.4745835  12.6500758  )
        13           Ti1 tau(  13) = (   0.0229324   2.9590759  12.5385950  )
        14           Ti1 tau(  14) = (   3.3157970   1.4644123  12.5194148  )
        15           O1  tau(  15) = (   6.5691168   5.9481840  14.6869282  )
        16           O1  tau(  16) = (   3.2964787   5.9455965  14.0277316  )
        17           O1  tau(  17) = (   4.5665908   1.5027878  16.2081754  )
        18           O1  tau(  18) = (   2.0283028   1.5092035  16.1774433  )
        19           Ti1 tau(  19) = (   3.2999954   2.9453206  15.7178785  )
        20           Ti1 tau(  20) = (   6.5724188   1.3235339  15.9896992  )
        21           O1  tau(  21) = (   3.2904802   0.0005063   4.7018136  )
        22           O1  tau(  22) = (   0.0286320   5.9425150  17.2304330  )
        23           O1  tau(  23) = (   1.3043587   1.4918075   6.0039043  )
        24           O1  tau(  24) = (   5.2767064   1.4903225   6.0039473  )
        25           Ti1 tau(  25) = (   0.0000382   5.9609847   6.0000000  )
        26           Ti1 tau(  26) = (   3.2902200   4.4714249   6.0002472  )
        27           O1  tau(  27) = (   0.0002396   2.9813036   7.9858123  )
        28           O1  tau(  28) = (   3.2902150   2.9813002   7.3038282  )
        29           O1  tau(  29) = (   4.5938453   4.4726049   9.2879030  )
        30           O1  tau(  30) = (   1.9864658   4.4711199   9.2879459  )
        31           Ti1 tau(  31) = (   3.3176359   5.9492212   9.1540102  )
        32           Ti1 tau(  32) = (   0.0367062   4.4560090   9.2708352  )
        33           O1  tau(  33) = (   3.2951800   2.9650663  11.3684769  )
        34           O1  tau(  34) = (   0.0080098   2.9764013  10.6279654  )
        35           O1  tau(  35) = (   1.2931912   4.4560454  12.6592269  )
        36           O1  tau(  36) = (   5.2946864   4.4524020  12.6579832  )
        37           Ti1 tau(  37) = (   0.0159028   5.9413441  12.4831893  )
        38           Ti1 tau(  38) = (   3.3151975   4.4500431  12.5204281  )
        39           O1  tau(  39) = (   0.0034497   2.9621527  14.8596962  )
        40           O1  tau(  40) = (   3.2989893   2.9535984  13.9376031  )
        41           O1  tau(  41) = (   4.5724332   4.4114593  16.1445292  )
        42           O1  tau(  42) = (   2.0255208   4.3883007  16.1585022  )
        43           Ti1 tau(  43) = (   3.2821299   5.9114753  15.8432964  )
        44           Ti1 tau(  44) = (   6.5414858   4.5242847  15.8739915  )
        45           O1  tau(  45) = (   3.2900926   2.9813045   4.7018136  )
        46           O1  tau(  46) = (   1.3039711   4.4726057   6.0039043  )
        47           O1  tau(  47) = (   5.2763189   4.4711207   6.0039473  )
        48           C1  tau(  48) = (   5.9754720   3.1749164  18.9278073  )
        49           O1  tau(  49) = (   0.1533887   3.0270296  17.7012840  )
        50           H1  tau(  50) = (   4.9293134   3.0706859  18.6584277  )
        51           H1  tau(  51) = (   1.0910173   3.2566920  17.8500278  )
        52           H1  tau(  52) = (   6.2690755   2.3937635  19.6305738  )
        53           H1  tau(  53) = (   6.1431946   4.1694627  19.3379575  )
        54           O1  tau(  54) = (   3.1723115   5.9428592  18.3689464  )
        55           H1  tau(  55) = (   3.8852673   0.6353712  18.4582360  )
        56           H1  tau(  56) = (   2.3406934   0.4831942  18.3201771  )

     number of k points=    10  Fermi-Dirac smearing, width (Ry)=  0.0073
                       cart. coord. in units 2pi/alat
        k(    1) = (   0.0000000   0.0000000   0.0000000), wk =   0.1250000
        k(    2) = (   0.0000000   0.0419351   0.0000000), wk =   0.2500000
        k(    3) = (   0.0000000  -0.0838702   0.0000000), wk =   0.1250000
        k(    4) = (   0.0379955   0.0000049   0.0000000), wk =   0.2500000
        k(    5) = (   0.0379955   0.0419400   0.0000000), wk =   0.2500000
        k(    6) = (   0.0379955  -0.0838652   0.0000000), wk =   0.2500000
        k(    7) = (   0.0379955  -0.0419301   0.0000000), wk =   0.2500000
        k(    8) = (  -0.0759910  -0.0000099   0.0000000), wk =   0.1250000
        k(    9) = (  -0.0759910   0.0419252   0.0000000), wk =   0.2500000
        k(   10) = (  -0.0759910  -0.0838800   0.0000000), wk =   0.1250000

     Initial potential from superposition of free atoms

     starting charge  383.99915, renormalised to  400.00000

     negative rho (up, down):  1.599E-02 0.000E+00

     %%%%%%%%%%%%%%%%%%%%%%%%%%%%%%%%%%%%%%%%%%%%%%%%%%%%%%%%%%%%%%%%%%%%%%%%
     %                                                                      %
     % You are using vdW-DF, which was implemented by the Thonhauser group. %
     % Please cite the following two papers that made this development      %
     % possible and the two reviews that describe the various versions:     %
     %                                                                      %
     %   T. Thonhauser et al., PRL 115, 136402 (2015).                      %
     %   T. Thonhauser et al., PRB 76, 125112 (2007).                       %
     %   K. Berland et al., Rep. Prog. Phys. 78, 066501 (2015).             %
     %   D.C. Langreth et al., J. Phys.: Condens. Matter 21, 084203 (2009). %
     %                                                                      %
     %                                                                      %
     % If you are calculating the stress with vdW-DF, please also cite:     %
     %                                                                      %
     %   R. Sabatini et al., J. Phys.: Condens. Matter 24, 424209 (2012).   %
     %                                                                      %
     %%%%%%%%%%%%%%%%%%%%%%%%%%%%%%%%%%%%%%%%%%%%%%%%%%%%%%%%%%%%%%%%%%%%%%%%

     Adding external electric field

     Computed dipole along edir(3) :
        Dipole              -11.7400 Ry au,        -29.8402 Debye
        Dipole field         -0.0222 Ry au,

        Potential amp.        2.0537 Ry
        Total length         46.3494 bohr

     Starting wfcs are  302 atomic wfcs
  @ DRIVER MODE: Message from server: STATUS
  @ DRIVER MODE: Message from server: POSDATA
  @ DRIVER MODE: Reading and sharing cell
  @ DRIVER MODE: Reading and sharing positions
  @ DRIVER MODE: Received positions

     Self-consistent Calculation

     iteration #  1     ecut=    29.40 Ry     beta= 0.05
     Davidson diagonalization with overlap
     c_bands:  2 eigenvalues not converged
     c_bands:  2 eigenvalues not converged
     c_bands:  4 eigenvalues not converged
     c_bands:  3 eigenvalues not converged
     c_bands:  4 eigenvalues not converged
     c_bands:  4 eigenvalues not converged
     c_bands:  3 eigenvalues not converged
     c_bands:  2 eigenvalues not converged
     ethr =  1.00E-05,  avg # of iterations = 21.3

[...]

     total energy              =   -2420.23131903 Ry
     estimated scf accuracy    <    6189.12819087 Ry

     iteration #  2     ecut=    29.40 Ry     beta= 0.05
     Davidson diagonalization with overlap
     ethr =  1.00E-02,  avg # of iterations = 28.7

[...]

     iteration # 45     ecut=    29.40 Ry     beta= 0.05
     Davidson diagonalization with overlap
     c_bands:  1 eigenvalues not converged
     ethr =  6.86E-09,  avg # of iterations = 15.4

[...]

     total energy              =   -2967.47596638 Ry
     estimated scf accuracy    <       0.00000014 Ry

     iteration # 58     ecut=    29.40 Ry     beta= 0.05
     Davidson diagonalization with overlap
     ethr =  3.36E-11,  avg # of iterations =  2.3

     negative rho (up, down):  1.588E-02 0.000E+00

     Adding external electric field

     Computed dipole along edir(3) :
        Dipole                1.3753 Ry au,          3.4958 Debye
        Dipole field          0.0026 Ry au,

        Potential amp.       -0.2406 Ry
        Total length         46.3494 bohr

     End of self-consistent calculation

          k = 0.0000 0.0000 0.0000 ( 18029 PWs)   bands (ev):

   -55.2510 -55.2234 -55.2149 -55.1890 -55.1575 -55.1494 -55.1440 -55.0970
   -55.0966 -55.0906 -55.0564 -55.0385 -55.0088 -55.0045 -54.3131 -54.2790
   -31.8176 -31.7670 -31.7185 -31.6283 -31.5660 -31.5558 -31.5512 -31.5486
   -31.5122 -31.4829 -31.4666 -31.4643 -31.4531 -31.4433 -31.4291 -31.4148
   -31.3974 -31.3912 -31.3880 -31.3836 -31.3772 -31.3687 -31.3461 -31.3412
   -31.3394 -31.3195 -31.3169 -31.3150 -31.2941 -31.2804 -31.2648 -31.2444
   -31.2428 -31.2421 -31.2309 -31.2217 -31.2032 -31.1899 -31.1780 -31.1733
   -31.1604 -31.1496 -30.7251 -30.6227 -30.6011 -30.5414 -30.4551 -30.3440
   -20.1568 -19.0853 -16.0804 -15.8333 -15.6935 -15.5950 -15.4741 -15.3406
   -15.2805 -15.1657 -15.0746 -14.9845 -14.9697 -14.9513 -14.9219 -14.8992
   -14.8744 -14.8361 -14.8099 -14.7663 -14.7574 -14.7410 -14.7341 -14.6974
   -14.6943 -14.6493 -14.6409 -14.4840 -14.4137 -14.3536 -14.1318 -12.8135
   -12.6941 -11.1790  -6.9194  -6.8512  -5.1339  -5.0141  -3.4198  -3.2633
    -3.2259  -3.2025  -3.1839  -3.1434  -3.0588  -2.9609  -2.7897  -2.6799
    -2.5426  -2.5353  -2.4888  -2.4620  -2.4049  -2.3223  -2.2347  -2.2081
    -2.1728  -2.1398  -2.1366  -2.1205  -2.1102  -2.0542  -2.0188  -1.9609
    -1.8639  -1.8143  -1.7733  -1.7555  -1.6958  -1.6521  -1.6172  -1.5896
    -1.5830  -1.5764  -1.5179  -1.5159  -1.5077  -1.4966  -1.4789  -1.2902
    -1.2499  -1.1180  -1.0272  -0.9864  -0.9726  -0.8184  -0.8117  -0.7673
    -0.7340  -0.6999  -0.6593  -0.6018  -0.5043  -0.4732  -0.4219  -0.3841
    -0.2760  -0.2438  -0.2130  -0.1580  -0.0508  -0.0425  -0.0167   0.0027
     0.0767   0.1724   0.2017   0.2229   0.2998   0.3050   0.3662   0.4068
     0.4406   0.5154   0.5607   0.5719   0.6635   0.6806   0.6942   0.7207
     0.7241   0.8227   0.8588   0.9034   0.9218   1.0734   1.1677   1.3072
     1.3360   1.6025   1.6978   1.7131   1.8735   2.2991   2.3539   3.8402
     3.9085   3.9468   3.9546   3.9679   4.0475   4.3312   4.3465   4.3584
     4.3680   4.3861

[...]

          k = 0.0380-0.0419 0.0000 ( 17876 PWs)   bands (ev):

[...]

          k =-0.0760-0.0000 0.0000 ( 17886 PWs)   bands (ev):

[...]

          k =-0.0760-0.0839 0.0000 ( 17948 PWs)   bands (ev):

   -55.2339 -55.2318 -55.2080 -55.2042 -55.1545 -55.1435 -55.1367 -55.1044
   -55.1033 -55.0748 -55.0719 -55.0233 -55.0197 -55.0107 -54.2960 -54.2960
   -31.6840 -31.6247 -31.6177 -31.5353 -31.5316 -31.5179 -31.5063 -31.5013
   -31.4939 -31.4731 -31.4548 -31.4495 -31.4453 -31.4317 -31.4060 -31.4035
   -31.3920 -31.3895 -31.3823 -31.3815 -31.3779 -31.3746 -31.3620 -31.3482
   -31.3401 -31.3353 -31.3344 -31.3277 -31.3248 -31.3245 -31.3241 -31.3060
   -31.2985 -31.2959 -31.2776 -31.2730 -31.2725 -31.2484 -31.2446 -31.2095
   -31.2052 -31.1924 -30.6136 -30.6136 -30.5379 -30.5376 -30.4983 -30.4982
   -20.1535 -19.0846 -15.6387 -15.5400 -15.3897 -15.2665 -15.2542 -15.2417
   -15.1894 -15.1249 -15.1114 -15.0611 -15.0490 -15.0175 -15.0017 -14.9956
   -14.9598 -14.8513 -14.8472 -14.8369 -14.8161 -14.7711 -14.7601 -14.7530
   -14.7407 -14.7047 -14.6963 -14.6821 -14.6717 -14.5796 -14.4414 -12.7954
   -12.7948 -11.1808  -6.9153  -6.8518  -5.1351  -4.9928  -3.1812  -2.9834
    -2.8081  -2.7291  -2.6316  -2.4844  -2.4697  -2.3886  -2.3767  -2.3262
    -2.2555  -2.2524  -2.2488  -2.1674  -2.1554  -2.1553  -2.1340  -2.1142
    -2.0740  -2.0653  -2.0415  -2.0316  -1.9902  -1.9595  -1.9464  -1.9292
    -1.9189  -1.9150  -1.8839  -1.8690  -1.8538  -1.8118  -1.7891  -1.7291
    -1.6410  -1.6040  -1.4811  -1.4786  -1.4409  -1.4136  -1.3881  -1.3475
    -1.3276  -1.2800  -1.2591  -1.2341  -1.0507  -1.0348  -0.9800  -0.9401
    -0.9209  -0.9069  -0.8451  -0.7732  -0.7464  -0.7150  -0.6489  -0.5760
    -0.4800  -0.4559  -0.4473  -0.3415  -0.2892  -0.2497  -0.2452  -0.2359
    -0.2118  -0.1635  -0.1437  -0.0818  -0.0428   0.0008   0.0262   0.0431
     0.2242   0.2626   0.3210   0.4123   0.4411   0.5865   0.6344   0.6867
     0.7472   0.8235   0.8346   0.9006   1.0149   1.0270   1.0568   1.1340
     1.1773   1.1830   1.2081   2.0644   2.0665   2.1681   2.1711   3.9701
     4.0774   4.0960   4.1749   4.2413   4.3492   4.3623   4.3916   4.4020
     4.4470   4.4789

     the Fermi energy is     3.8966 ev

!    total energy              =   -2967.47601668 Ry
     estimated scf accuracy    <       0.00000006 Ry
     smearing contrib. (-TS)   =      -0.03654104 Ry
     internal energy E=F+TS    =   -2967.43947563 Ry

     The total energy is F=E-TS. E is the sum of the following terms:
     one-electron contribution =  -23962.77759163 Ry
     hartree contribution      =   12076.98406856 Ry
     xc contribution           =    -491.85791811 Ry
     ewald contribution        =    9410.20839594 Ry
     electric field correction =       0.00356961 Ry

     convergence has been achieved in  58 iterations

     Forces acting on atoms (cartesian axes, Ry/au):

     atom    1 type  1   force =    -0.00026658    0.00018757    0.09244821
     atom    2 type  1   force =    -0.00035764    0.00104194   -0.18341367
     atom    3 type  2   force =     0.00050678   -0.00072585   -0.02349317
     atom    4 type  2   force =     0.00072334   -0.00018562    0.05069750
     atom    5 type  2   force =    -0.01406131   -0.00131512    0.00494462
     atom    6 type  2   force =     0.01522575   -0.00064987    0.00508484
     atom    7 type  1   force =    -0.00049254    0.00106564   -0.00011417
     atom    8 type  1   force =     0.00016618   -0.00052896    0.00040291
     atom    9 type  2   force =    -0.00043925    0.00017813    0.00039416
     atom   10 type  2   force =     0.00040821    0.00016174    0.00045855
     atom   11 type  2   force =     0.00036184    0.00043624    0.00033257
     atom   12 type  2   force =     0.00005241    0.00013626    0.00026197
     atom   13 type  1   force =    -0.00089452   -0.00118242   -0.00009863
     atom   14 type  1   force =     0.00059395   -0.00005730    0.00022270
     atom   15 type  2   force =     0.00051557    0.00076910    0.00003591
     atom   16 type  2   force =    -0.00061480   -0.00038081    0.00003910
     atom   17 type  2   force =     0.00007147    0.00021633   -0.00039346
     atom   18 type  2   force =    -0.00005115    0.00019855   -0.00031447
     atom   19 type  1   force =     0.00063445   -0.00020793   -0.00024346
     atom   20 type  1   force =     0.00014891    0.00029870   -0.00006723
     atom   21 type  2   force =    -0.00003918    0.00015681    0.10500365
     atom   22 type  2   force =    -0.00032349    0.00047302   -0.00080686
     atom   23 type  2   force =    -0.06800019    0.00012620   -0.02681976
     atom   24 type  2   force =     0.06772123    0.00053023   -0.02688469
     atom   25 type  1   force =    -0.00038920   -0.00007549    0.09625520
     atom   26 type  1   force =    -0.00036451   -0.00099003   -0.18319764
     atom   27 type  2   force =     0.00042144   -0.00125246   -0.02225841
     atom   28 type  2   force =     0.00070037   -0.00033222    0.05101647
     atom   29 type  2   force =    -0.01424720   -0.00105821    0.00465660
     atom   30 type  2   force =     0.01519595    0.00021710    0.00484104
     atom   31 type  1   force =    -0.00050303   -0.00146350    0.00019081
     atom   32 type  1   force =     0.00014473    0.00070622   -0.00027002
     atom   33 type  2   force =     0.00002112   -0.00020579    0.00005545
     atom   34 type  2   force =     0.00002395   -0.00006519   -0.00010049
     atom   35 type  2   force =     0.00021638    0.00009240    0.00030060
     atom   36 type  2   force =     0.00039632    0.00045864    0.00004366
     atom   37 type  1   force =    -0.00107298    0.00125446   -0.00004903
     atom   38 type  1   force =     0.00038709    0.00011505   -0.00042869
     atom   39 type  2   force =     0.00039513    0.00022560   -0.00034324
     atom   40 type  2   force =    -0.00008176    0.00020793    0.00005531
     atom   41 type  2   force =    -0.00023576    0.00019970   -0.00052572
     atom   42 type  2   force =    -0.00000585   -0.00005950    0.00039135
     atom   43 type  1   force =    -0.00057010    0.00029282    0.00021852
     atom   44 type  1   force =    -0.00029011    0.00005733   -0.00107477
     atom   45 type  2   force =    -0.00005403    0.00015491    0.10493316
     atom   46 type  2   force =    -0.06803994   -0.00038137   -0.02681123
     atom   47 type  2   force =     0.06775903    0.00005185   -0.02689348
     atom   48 type  3   force =    -0.00027442    0.00050729   -0.00027130
     atom   49 type  2   force =     0.00293891    0.00164799    0.00183328
     atom   50 type  4   force =     0.00042405    0.00057067    0.00013753
     atom   51 type  4   force =    -0.00293577   -0.00041330   -0.00096500
     atom   52 type  4   force =    -0.00039665    0.00060972   -0.00022320
     atom   53 type  4   force =    -0.00022856   -0.00026893    0.00011600
     atom   54 type  2   force =     0.00085263   -0.00027106    0.00108617
     atom   55 type  4   force =    -0.00084602   -0.00037145   -0.00056793
     atom   56 type  4   force =    -0.00093066   -0.00090379    0.00017186

     Total force =     0.368245     Total SCF correction =     0.000860
  @ DRIVER MODE: Message from server: STATUS
  @ DRIVER MODE: Message from server: GETFORCE
  @ DRIVER MODE: Returning v,forces,stress,ensemble

     Writing output data file ./calc.save/
  @ DRIVER MODE: Message from server: EXIT
  @ DRIVE MODE: Exiting

     General routines

     Parallel routines

   This run was terminated on:  22:59:35  15Sep2021

   JOB DONE.