     Program PWSCF v.6.7GPU starts on 18Oct2021 at 19:33:48

     R & G space division:  proc/nbgrp/npool/nimage =       8
     Reading input from /storage/home/hcoda1/3/ntian30/research/carbon/CxH_vib/Thiel_calc/ads_slab/NNH2HH_perslab/out_0016/pw.inp
Warning: card &CELL ignored
Warning: card   CELL_DYNAMICS='IPI', ignored
Warning: card / ignored

     Current dimensions of program PWSCF are:
     Max number of different atomic species (ntypx) = 10
     Max number of k-points (npk) =  40000
     Max angular momentum in pseudopotentials (lmaxx) =  3
     Presently no symmetry can be used with electric field

     Message from routine cell_base_init:
     DEPRECATED: use true lattice parameter, not A to a.u. conversion factor

     IMPORTANT: XC functional enforced from input :
     Exchange-correlation= BEEF-VDW
                           (   1   4  43  14   2   0   0)
     Any further DFT definition will be discarded
     Please, verify this is what you really want

  @ DRIVER MODE: Connecting to
 qe_1139763_3255133.sched-torque.pace.gatech.eduiiua7vp1_scratch
  using UNIX socket
  @ DRIVER MODE: Message from server: STATUS
  @ DRIVER MODE: Message from server: INIT
  @ DRIVER MODE: Receiving replica           0          -1
  @ DRIVER MODE: Receiving encoded integer          25
  @ DRIVER MODE:  SCF:  T  FORCE:  T  STRESS:  F  VC:  F  ENSEMBLE:  F
  @ DRIVER MODE:  SCF:  T  FORCE:  T  STRESS:  F  VC:  F  ENSEMBLE:  F

     Using Slab Decomposition

     bravais-lattice index     =            0
     lattice parameter (alat)  =       1.8897  a.u.
     unit-cell volume          =    9988.4706 (a.u.)^3
     number of atoms/cell      =           59
     number of atomic types    =            4
     number of electrons       =       440.00
     number of Kohn-Sham states=          230
     kinetic-energy cutoff     =      29.3995  Ry
     charge density cutoff     =     293.9946  Ry
     scf convergence threshold =      7.3E-08
     mixing beta               =       0.0500
     number of iterations used =            8  plain     mixing
     Exchange-correlation= BEEF-VDW
                           (   1   4  43  14   2   0   0)

     celldm(1)=   1.889726  celldm(2)=   0.000000  celldm(3)=   0.000000
     celldm(4)=   0.000000  celldm(5)=   0.000000  celldm(6)=   0.000000

     crystal axes: (cart. coord. in units of alat)
               a(1) = (   6.579727   0.000000   0.000000 )
               a(2) = (  -0.001163   8.942395   0.000000 )
               a(3) = (   0.000000   0.000000  25.155947 )

     reciprocal axes: (cart. coord. in units 2 pi/alat)
               b(1) = (  0.151982  0.000020  0.000000 )
               b(2) = (  0.000000  0.111827  0.000000 )
               b(3) = (  0.000000  0.000000  0.039752 )

     PseudoPot. # 1 for O  read from file:
     /storage/coda1/p-amedford6/0/shared/rich_project_chbe-medford/medford-share/data/pseudos_module/espresso/nninc/pbe/van/O.UPF
     MD5 check sum: 78c19812648e8988a0fe644b0f25305e
     Pseudo is Ultrasoft, Zval =  6.0
     Generated by new atomic code, or converted to UPF format
     Using radial grid of  737 points,  4 beta functions with:
                l(1) =   0
                l(2) =   0
                l(3) =   1
                l(4) =   1
     Q(r) pseudized with  8 coefficients,  rinner =    0.800   0.800   0.800

     PseudoPot. # 2 for Ti read from file:
     /storage/coda1/p-amedford6/0/shared/rich_project_chbe-medford/medford-share/data/pseudos_module/espresso/nninc/pbe/van/Ti.UPF
     MD5 check sum: 8e4df49b7f0d34bbd5052bf3f5ea0213
     Pseudo is Ultrasoft, Zval = 12.0
     Generated by new atomic code, or converted to UPF format
     Using radial grid of  851 points,  6 beta functions with:
                l(1) =   0
                l(2) =   0
                l(3) =   1
                l(4) =   1
                l(5) =   2
                l(6) =   2
     Q(r) pseudized with  8 coefficients,  rinner =    1.000   1.000   1.000
                                                       1.000   1.000

     PseudoPot. # 3 for H  read from file:
     /storage/coda1/p-amedford6/0/shared/rich_project_chbe-medford/medford-share/data/pseudos_module/espresso/nninc/pbe/van/H.UPF
     MD5 check sum: b5ee9d7bfd3a09ee7748110bda690ff7
     Pseudo is Ultrasoft, Zval =  1.0
     Generated by new atomic code, or converted to UPF format
     Using radial grid of  615 points,  1 beta functions with:
                l(1) =   0
     Q(r) pseudized with  8 coefficients,  rinner =    0.800

     PseudoPot. # 4 for N  read from file:
     /storage/coda1/p-amedford6/0/shared/rich_project_chbe-medford/medford-share/data/pseudos_module/espresso/nninc/pbe/van/N.UPF
     MD5 check sum: 90d10febe142ad51ac9d5be1deb811c4
     Pseudo is Ultrasoft, Zval =  5.0
     Generated by new atomic code, or converted to UPF format
     Using radial grid of  729 points,  4 beta functions with:
                l(1) =   0
                l(2) =   0
                l(3) =   1
                l(4) =   1
     Q(r) pseudized with  8 coefficients,  rinner =    0.800   0.800   0.800

     atomic species   valence    mass     pseudopotential
        O1             6.00    15.99900     O ( 1.00)
        Ti1           12.00    47.86700     Ti( 1.00)
        H1             1.00     1.00800     H ( 1.00)
        N1             5.00    14.00700     N ( 1.00)

     No symmetry found

   Cartesian axes

     site n.     atom                  positions (alat units)
         1           O1  tau(   1) = (   0.0007354   0.0005023  10.5931620  )
         2           O1  tau(   2) = (   3.3122003   8.9411730  13.9078397  )
         3           O1  tau(   3) = (   0.0119464   0.1585559  17.3480684  )
         4           O1  tau(   4) = (   0.0006271   0.0005054   7.9858123  )
         5           O1  tau(   5) = (   3.2844644   8.9346379  11.1901754  )
         6           O1  tau(   6) = (   6.5618141   0.0157575  14.6617184  )
         7           O1  tau(   7) = (   1.9868534   1.4903216   9.2879459  )
         8           O1  tau(   8) = (   5.2413352   1.5994427  12.5710249  )
         9           O1  tau(   9) = (   2.0249271   1.5994163  16.0383581  )
        10           Ti1 tau(  10) = (   0.0007404   1.4906270   9.2895810  )
        11           Ti1 tau(  11) = (   3.2875257   1.3541315  12.5031546  )
        12           Ti1 tau(  12) = (   0.1037617   1.4803996  15.8781706  )
        13           O1  tau(  13) = (   4.5942328   1.4918067   9.2879030  )
        14           O1  tau(  14) = (   1.3445879   1.6225681  12.6047105  )
        15           O1  tau(  15) = (   4.5270247   1.5277052  16.0690704  )
        16           Ti1 tau(  16) = (   3.2902859   2.9801868   9.2893338  )
        17           Ti1 tau(  17) = (   6.5717848   2.8351652  12.4611715  )
        18           Ti1 tau(  18) = (   3.3615503   2.9380122  15.7113248  )
        19           O1  tau(  19) = (   0.0003479   2.9813005  10.5931620  )
        20           O1  tau(  20) = (   3.3257229   2.9884659  13.9122956  )
        21           O1  tau(  21) = (   0.0002396   2.9813036   7.9858123  )
        22           O1  tau(  22) = (   3.2846765   2.9682620  11.1924388  )
        23           O1  tau(  23) = (   6.5193973   3.0012958  14.6893217  )
        24           O1  tau(  24) = (   1.9864658   4.4711199   9.2879459  )
        25           O1  tau(  25) = (   5.2358842   4.5821056  12.5715879  )
        26           O1  tau(  26) = (   1.9668816   4.5963109  15.9958849  )
        27           Ti1 tau(  27) = (   0.0003529   4.4714252   9.2895810  )
        28           Ti1 tau(  28) = (   3.2817300   4.3379106  12.5030846  )
        29           Ti1 tau(  29) = (   6.5286400   4.3105241  16.0387364  )
        30           O1  tau(  30) = (   4.5938453   4.4726049   9.2879030  )
        31           O1  tau(  31) = (   1.3350840   4.5883300  12.6034823  )
        32           O1  tau(  32) = (   4.4768606   4.5746599  16.1328061  )
        33           Ti1 tau(  33) = (   3.2898983   5.9609850   9.2893338  )
        34           Ti1 tau(  34) = (   6.5687693   5.8095266  12.4696282  )
        35           Ti1 tau(  35) = (   3.1936624   5.9077503  15.7132784  )
        36           O1  tau(  36) = (  -0.0000397   5.9620987  10.5931620  )
        37           O1  tau(  37) = (   3.2950800   5.9615338  13.9080848  )
        38           O1  tau(  38) = (   6.5705097   6.0321180  17.3127682  )
        39           O1  tau(  39) = (  -0.0001480   5.9621018   7.9858123  )
        40           O1  tau(  40) = (   3.2829949   5.9473389  11.1919414  )
        41           O1  tau(  41) = (   6.5313079   6.0695169  14.6234680  )
        42           O1  tau(  42) = (   1.9860782   7.4519181   9.2879459  )
        43           O1  tau(  43) = (   5.2305909   7.5696458  12.5615615  )
        44           O1  tau(  44) = (   1.9930026   7.5537276  16.0441964  )
        45           Ti1 tau(  45) = (  -0.0000347   7.4522234   9.2895810  )
        46           Ti1 tau(  46) = (   3.2809715   7.3153274  12.5063831  )
        47           Ti1 tau(  47) = (  -0.0000777   7.3827053  15.8005402  )
        48           O1  tau(  48) = (   4.5934577   7.4534031   9.2879030  )
        49           O1  tau(  49) = (   1.3440923   7.5800077  12.5804573  )
        50           O1  tau(  50) = (   4.5564015   7.5743432  16.1458831  )
        51           Ti1 tau(  51) = (   3.2895107   8.9417832   9.2893338  )
        52           Ti1 tau(  52) = (   6.5681474   8.7932977  12.4619754  )
        53           Ti1 tau(  53) = (   3.3227810   8.9003220  15.7121742  )
        54           H1  tau(  54) = (   5.8375475   6.1301351  17.9339333  )
        55           H1  tau(  55) = (   5.7673184   0.1799947  17.8523786  )
        56           H1  tau(  56) = (   0.0490247   3.6254164  19.2291769  )
        57           N1  tau(  57) = (   6.4107751   2.7916545  18.6713363  )
        58           N1  tau(  58) = (   6.5444414   3.0434393  17.3342366  )
        59           H1  tau(  59) = (   0.3957958   1.9971216  18.9670883  )

     number of k points=    10  Fermi-Dirac smearing, width (Ry)=  0.0073
                       cart. coord. in units 2pi/alat
        k(    1) = (   0.0000000   0.0000000   0.0000000), wk =   0.1250000
        k(    2) = (   0.0000000   0.0279567   0.0000000), wk =   0.2500000
        k(    3) = (   0.0000000  -0.0559134   0.0000000), wk =   0.1250000
        k(    4) = (   0.0379955   0.0000049   0.0000000), wk =   0.2500000
        k(    5) = (   0.0379955   0.0279617   0.0000000), wk =   0.2500000
        k(    6) = (   0.0379955  -0.0559085   0.0000000), wk =   0.2500000
        k(    7) = (   0.0379955  -0.0279518   0.0000000), wk =   0.2500000
        k(    8) = (  -0.0759910  -0.0000099   0.0000000), wk =   0.1250000
        k(    9) = (  -0.0759910   0.0279468   0.0000000), wk =   0.2500000
        k(   10) = (  -0.0759910  -0.0559233   0.0000000), wk =   0.1250000

     Initial potential from superposition of free atoms

     starting charge  421.99910, renormalised to  440.00000

     negative rho (up, down):  3.725E-02 0.000E+00

     %%%%%%%%%%%%%%%%%%%%%%%%%%%%%%%%%%%%%%%%%%%%%%%%%%%%%%%%%%%%%%%%%%%%%%%%
     %                                                                      %
     % You are using vdW-DF, which was implemented by the Thonhauser group. %
     % Please cite the following two papers that made this development      %
     % possible and the two reviews that describe the various versions:     %
     %                                                                      %
     %   T. Thonhauser et al., PRL 115, 136402 (2015).                      %
     %   T. Thonhauser et al., PRB 76, 125112 (2007).                       %
     %   K. Berland et al., Rep. Prog. Phys. 78, 066501 (2015).             %
     %   D.C. Langreth et al., J. Phys.: Condens. Matter 21, 084203 (2009). %
     %                                                                      %
     %                                                                      %
     % If you are calculating the stress with vdW-DF, please also cite:     %
     %                                                                      %
     %   R. Sabatini et al., J. Phys.: Condens. Matter 24, 424209 (2012).   %
     %                                                                      %
     %%%%%%%%%%%%%%%%%%%%%%%%%%%%%%%%%%%%%%%%%%%%%%%%%%%%%%%%%%%%%%%%%%%%%%%%

     Adding external electric field

     Computed dipole along edir(3) :
        Dipole               -5.7841 Ry au,        -14.7017 Debye
        Dipole field         -0.0073 Ry au,

        Potential amp.        0.6746 Ry
        Total length         46.3494 bohr

     Starting wfcs are  332 atomic wfcs
  @ DRIVER MODE: Message from server: STATUS
  @ DRIVER MODE: Message from server: POSDATA
  @ DRIVER MODE: Reading and sharing cell
  @ DRIVER MODE: Reading and sharing positions
  @ DRIVER MODE: Received positions

     Self-consistent Calculation

     iteration #  1     ecut=    29.40 Ry     beta= 0.05
     Davidson diagonalization with overlap
     c_bands:  1 eigenvalues not converged
     c_bands:  2 eigenvalues not converged
     c_bands:  4 eigenvalues not converged
     c_bands:  1 eigenvalues not converged
     c_bands:  1 eigenvalues not converged
     c_bands:  5 eigenvalues not converged
     c_bands:  1 eigenvalues not converged
     c_bands:  4 eigenvalues not converged
     c_bands:  4 eigenvalues not converged
     c_bands:  4 eigenvalues not converged
     ethr =  1.00E-05,  avg # of iterations = 20.0

[...]

     total energy              =   -3276.44565478 Ry
     estimated scf accuracy    <     229.17178663 Ry

     iteration #  2     ecut=    29.40 Ry     beta= 0.05
     Davidson diagonalization with overlap
     ethr =  1.00E-02,  avg # of iterations = 16.2

[...]

     iteration # 48     ecut=    29.40 Ry     beta= 0.05
     Davidson diagonalization with overlap
     c_bands:  1 eigenvalues not converged
     ethr =  8.35E-11,  avg # of iterations = 14.4

[...]

     total energy              =   -3293.24422888 Ry
     estimated scf accuracy    <       0.00000007 Ry

     iteration # 52     ecut=    29.40 Ry     beta= 0.05
     Davidson diagonalization with overlap
     ethr =  1.70E-11,  avg # of iterations = 10.6

     negative rho (up, down):  3.571E-02 0.000E+00

     Adding external electric field

     Computed dipole along edir(3) :
        Dipole                1.5610 Ry au,          3.9677 Debye
        Dipole field          0.0020 Ry au,

        Potential amp.       -0.1821 Ry
        Total length         46.3494 bohr

     End of self-consistent calculation

          k = 0.0000 0.0000 0.0000 ( 26871 PWs)   bands (ev):

   -57.7051 -57.6980 -57.6802 -57.6784 -57.6547 -57.6131 -57.5663 -57.5278
   -57.5039 -57.5000 -57.4995 -57.4952 -57.4669 -57.4568 -56.7850 -56.7260
   -56.7019 -56.6983 -34.1021 -34.0876 -34.0857 -34.0839 -34.0599 -34.0417
   -34.0361 -34.0220 -34.0172 -33.9983 -33.9653 -33.9620 -33.9522 -33.9465
   -33.9015 -33.8986 -33.8923 -33.8853 -33.8721 -33.8490 -33.8430 -33.8312
   -33.8275 -33.8221 -33.8017 -33.8004 -33.7982 -33.7813 -33.7660 -33.7435
   -33.7395 -33.7351 -33.7237 -33.7161 -33.7075 -33.6928 -33.6883 -33.6870
   -33.6839 -33.6784 -33.6721 -33.6438 -33.2412 -33.0407 -33.0405 -33.0364
   -33.0249 -33.0217 -32.9940 -32.9796 -32.9522 -32.8895 -32.8854 -32.7517
   -19.1747 -19.0091 -18.8548 -18.5633 -18.1600 -17.9927 -17.9701 -17.9522
   -17.9122 -17.8128 -17.8116 -17.6323 -17.5741 -17.5415 -17.5121 -17.5061
   -17.4348 -17.3971 -17.3816 -17.3633 -17.3573 -17.3510 -17.3339 -17.2896
   -17.2534 -17.1987 -17.1837 -17.1480 -17.1367 -17.1351 -17.1337 -17.0648
   -16.8299 -15.1924 -15.1347 -15.1330 -12.0837  -7.8822  -6.7951  -6.5432
    -6.3273  -5.8919  -5.6748  -5.6227  -5.5414  -5.1852  -5.1713  -5.1032
    -5.0913  -5.0646  -4.9979  -4.9838  -4.9800  -4.9652  -4.8836  -4.8475
    -4.8353  -4.7871  -4.7693  -4.7111  -4.6465  -4.6367  -4.5766  -4.5402
    -4.5049  -4.4993  -4.4940  -4.4853  -4.4693  -4.4355  -4.3616  -4.3110
    -4.1765  -4.1705  -4.1176  -4.0522  -4.0245  -4.0162  -3.9554  -3.8805
    -3.8382  -3.8303  -3.7888  -3.7595  -3.7238  -3.7025  -3.6776  -3.5859
    -3.4928  -3.4587  -3.4541  -3.4124  -3.3997  -3.3467  -3.2316  -3.1785
    -3.1112  -3.0490  -2.9872  -2.9640  -2.9233  -2.8694  -2.8465  -2.7962
    -2.7749  -2.7228  -2.6780  -2.6271  -2.5352  -2.4769  -2.4716  -2.4597
    -2.4036  -2.3877  -2.3735  -2.3508  -2.3256  -2.2706  -2.2381  -2.2066
    -2.1734  -2.1424  -2.0975  -2.0624  -2.0515  -1.9432  -1.9092  -1.8810
    -1.7556  -1.7301  -1.6856  -1.6545  -1.5614  -1.5463  -1.5453  -1.4306
    -1.4150  -1.0957  -1.0011  -0.7465  -0.4756  -0.4303  -0.4295  -0.1658
    -0.1630  -0.0337   0.5265   1.2663   1.5214   1.6676   1.7258   1.7432
     1.7902   1.8750   1.8916   1.9222   1.9401   1.9753

[...]

          k = 0.0380-0.0280 0.0000 ( 26873 PWs)   bands (ev):

[...]

          k =-0.0760-0.0000 0.0000 ( 26902 PWs)   bands (ev):

[...]

          k =-0.0760-0.0559 0.0000 ( 26868 PWs)   bands (ev):

   -57.6973 -57.6972 -57.6956 -57.6708 -57.6560 -57.6124 -57.5662 -57.5212
   -57.5164 -57.4996 -57.4934 -57.4932 -57.4732 -57.4531 -56.7849 -56.7190
   -56.7156 -56.6915 -34.1801 -34.1725 -34.0872 -34.0610 -34.0516 -34.0368
   -34.0315 -34.0294 -33.9978 -33.9874 -33.9541 -33.9311 -33.9042 -33.8963
   -33.8942 -33.8807 -33.8742 -33.8462 -33.8453 -33.8410 -33.8371 -33.8350
   -33.8239 -33.8132 -33.7890 -33.7875 -33.7793 -33.7775 -33.7746 -33.7655
   -33.7562 -33.7495 -33.7350 -33.7335 -33.7211 -33.7189 -33.7158 -33.7103
   -33.6935 -33.6760 -33.6692 -33.6679 -33.2476 -33.1302 -33.0408 -33.0377
   -33.0146 -32.9951 -32.9808 -32.9328 -32.9286 -32.8658 -32.8506 -32.8467
   -19.0986 -19.0804 -18.8412 -18.2570 -18.2401 -17.9268 -17.8847 -17.8361
   -17.8318 -17.8078 -17.7375 -17.7208 -17.6871 -17.6232 -17.5400 -17.5105
   -17.4839 -17.4514 -17.4376 -17.4306 -17.4208 -17.3982 -17.3568 -17.3531
   -17.3022 -17.2558 -17.2207 -17.1708 -17.1403 -17.0903 -17.0648 -17.0376
   -16.8637 -15.1906 -15.1884 -15.0717 -12.0822  -7.8853  -6.7878  -6.5667
    -6.2846  -5.5050  -5.4957  -5.4877  -5.4391  -5.1485  -5.0397  -4.9925
    -4.9882  -4.9617  -4.9040  -4.8893  -4.8766  -4.8609  -4.8496  -4.8136
    -4.8088  -4.7647  -4.7527  -4.7391  -4.6892  -4.6313  -4.6258  -4.6013
    -4.5923  -4.5183  -4.5108  -4.4603  -4.3657  -4.3217  -4.3029  -4.2978
    -4.2595  -4.2266  -4.2189  -4.1475  -3.8996  -3.8905  -3.8677  -3.8495
    -3.8115  -3.7640  -3.7337  -3.7142  -3.6554  -3.5516  -3.4273  -3.3937
    -3.3806  -3.3638  -3.3388  -3.2992  -3.2875  -3.2770  -3.2328  -3.2015
    -3.1990  -3.1562  -3.1137  -3.0246  -2.9898  -2.9332  -2.8876  -2.8452
    -2.8333  -2.8216  -2.8151  -2.7982  -2.7690  -2.7542  -2.7402  -2.7020
    -2.6852  -2.6207  -2.5684  -2.5064  -2.4846  -2.4291  -2.3579  -2.2773
    -2.2538  -2.1913  -2.0984  -2.0411  -2.0010  -1.9683  -1.9493  -1.9285
    -1.8488  -1.8241  -1.7966  -1.7829  -1.5200  -1.5169  -1.3720  -1.3384
    -1.2874  -1.2793  -1.2098  -1.0528  -0.6419  -0.3562  -0.3493  -0.3210
    -0.1654  -0.1652   0.4768   1.4375   1.5023   1.5149   1.6063   1.6132
     1.6277   1.7245   1.7655   1.7691   1.9046   1.9763

     the Fermi energy is     1.3762 ev

!    total energy              =   -3293.24431765 Ry
     estimated scf accuracy    <       0.00000005 Ry
     smearing contrib. (-TS)   =      -0.03194764 Ry
     internal energy E=F+TS    =   -3293.21237001 Ry

     The total energy is F=E-TS. E is the sum of the following terms:
     one-electron contribution =  -34434.90955173 Ry
     hartree contribution      =   17282.61494561 Ry
     xc contribution           =    -542.28788481 Ry
     ewald contribution        =   14401.36705519 Ry
     electric field correction =       0.00306572 Ry

     convergence has been achieved in  52 iterations

     Forces acting on atoms (cartesian axes, Ry/au):

     atom    1 type  1   force =     0.00085041    0.00631792    0.05753616
     atom    2 type  1   force =    -0.00003956   -0.00069544   -0.00478392
     atom    3 type  1   force =    -0.00003406   -0.00170842   -0.00120480
     atom    4 type  1   force =     0.00006779    0.00076367    0.10713582
     atom    5 type  1   force =    -0.00015377   -0.00057621    0.00933315
     atom    6 type  1   force =     0.00134656   -0.00281521    0.00345642
     atom    7 type  1   force =     0.06706798   -0.00001062   -0.02955565
     atom    8 type  1   force =     0.00333623   -0.02852945    0.00244652
     atom    9 type  1   force =     0.01228546   -0.01755459    0.00143529
     atom   10 type  2   force =     0.00007296   -0.00242405   -0.18535056
     atom   11 type  2   force =     0.00015247    0.02112462   -0.00708557
     atom   12 type  2   force =    -0.00544369    0.01503769   -0.00303325
     atom   13 type  1   force =    -0.06728386   -0.00040151   -0.02895359
     atom   14 type  1   force =    -0.00360096   -0.02912007    0.00250065
     atom   15 type  1   force =    -0.00691520   -0.01133941    0.00263390
     atom   16 type  2   force =    -0.00021374   -0.00128100    0.06488046
     atom   17 type  2   force =     0.00029966    0.03525997    0.00393942
     atom   18 type  2   force =    -0.00263334    0.02262430    0.00152550
     atom   19 type  1   force =     0.00074741    0.00408690    0.06080973
     atom   20 type  1   force =     0.00002637   -0.00008133   -0.00398628
     atom   21 type  1   force =     0.00005731   -0.00004710    0.10729800
     atom   22 type  1   force =     0.00002997   -0.00085745    0.00939252
     atom   23 type  1   force =    -0.00004684   -0.00354653    0.00453634
     atom   24 type  1   force =     0.06733638   -0.00051783   -0.02946929
     atom   25 type  1   force =     0.00347941   -0.02947304    0.00311821
     atom   26 type  1   force =     0.00656006   -0.02210848    0.00391240
     atom   27 type  2   force =    -0.00000793    0.00172077   -0.18404250
     atom   28 type  2   force =    -0.00038919    0.02140179   -0.00706771
     atom   29 type  2   force =    -0.00118651    0.02328733   -0.00336828
     atom   30 type  1   force =    -0.06753636   -0.00098022   -0.02878139
     atom   31 type  1   force =    -0.00416288   -0.02931324    0.00228077
     atom   32 type  1   force =    -0.00651096   -0.01859867   -0.00036722
     atom   33 type  2   force =    -0.00033222   -0.00092328    0.06449974
     atom   34 type  2   force =     0.00043965    0.03629082    0.00380947
     atom   35 type  2   force =     0.00232120    0.02408767    0.00261090
     atom   36 type  1   force =     0.00068385    0.00483163    0.05916865
     atom   37 type  1   force =    -0.00015357    0.00146876   -0.00767086
     atom   38 type  1   force =    -0.00035696   -0.00314274    0.00082693
     atom   39 type  1   force =     0.00010757   -0.00015985    0.10688656
     atom   40 type  1   force =     0.00007744   -0.00089381    0.00975652
     atom   41 type  1   force =     0.00078148   -0.00211042    0.00141063
     atom   42 type  1   force =     0.06758966   -0.00028974   -0.02942849
     atom   43 type  1   force =     0.00370241   -0.02887819    0.00185885
     atom   44 type  1   force =     0.00875440   -0.01707278    0.00064978
     atom   45 type  2   force =     0.00023699   -0.00246339   -0.18294989
     atom   46 type  2   force =     0.00024418    0.01986462   -0.00665072
     atom   47 type  2   force =    -0.00011010    0.02235369    0.00170241
     atom   48 type  1   force =    -0.06773900   -0.00078548   -0.02868802
     atom   49 type  1   force =    -0.00361399   -0.02859816    0.00242706
     atom   50 type  1   force =    -0.00822899   -0.01839044   -0.00138008
     atom   51 type  2   force =    -0.00035828   -0.00110194    0.06450089
     atom   52 type  2   force =    -0.00016786    0.03595112    0.00437263
     atom   53 type  2   force =    -0.00166984    0.01466467   -0.00202620
     atom   54 type  3   force =    -0.00070886   -0.00020073    0.00050854
     atom   55 type  3   force =    -0.00088398   -0.00083095    0.00173057
     atom   56 type  3   force =    -0.00071496   -0.01251872   -0.00591571
     atom   57 type  4   force =     0.00213296    0.01260894    0.00677579
     atom   58 type  4   force =     0.00034200   -0.00361929   -0.00095501
     atom   59 type  3   force =     0.00006721    0.00021293    0.00104782

     Total force =     0.456093     Total SCF correction =     0.000838
  @ DRIVER MODE: Message from server: STATUS
  @ DRIVER MODE: Message from server: GETFORCE
  @ DRIVER MODE: Returning v,forces,stress,ensemble

     Writing output data file ./calc.save/
  @ DRIVER MODE: Message from server: EXIT
  @ DRIVE MODE: Exiting

     General routines

     Parallel routines

   This run was terminated on:  20: 0:44  18Oct2021

   JOB DONE.