     Program PWSCF v.6.7GPU starts on 22Sep2021 at 15:48:30

     R & G space division:  proc/nbgrp/npool/nimage =      10
     Reading input from /storage/home/hcoda1/3/ntian30/research/carbon/CxH_vib/H2O_calc/ads_slab/CH3NHHH2O_a/out_0000/pw.inp
Warning: card &CELL ignored
Warning: card   CELL_DYNAMICS='IPI', ignored
Warning: card / ignored

     Current dimensions of program PWSCF are:
     Max number of different atomic species (ntypx) = 10
     Max number of k-points (npk) =  40000
     Max angular momentum in pseudopotentials (lmaxx) =  3
     Presently no symmetry can be used with electric field

     Message from routine cell_base_init:
     DEPRECATED: use true lattice parameter, not A to a.u. conversion factor

     IMPORTANT: XC functional enforced from input :
     Exchange-correlation= BEEF-VDW
                           (   1   4  43  14   2   0   0)
     Any further DFT definition will be discarded
     Please, verify this is what you really want

  @ DRIVER MODE: Connecting to
 qe_1139763_2937309.sched-torque.pace.gatech.eduddftyrio_scratch
  using UNIX socket
  @ DRIVER MODE: Message from server: STATUS
  @ DRIVER MODE: Message from server: INIT
  @ DRIVER MODE: Receiving replica           0          -1
  @ DRIVER MODE: Receiving encoded integer          25
  @ DRIVER MODE:  SCF:  T  FORCE:  T  STRESS:  F  VC:  F  ENSEMBLE:  F
  @ DRIVER MODE:  SCF:  T  FORCE:  T  STRESS:  F  VC:  F  ENSEMBLE:  F

     Using Slab Decomposition

     bravais-lattice index     =            0
     lattice parameter (alat)  =       1.8897  a.u.
     unit-cell volume          =    6658.9804 (a.u.)^3
     number of atoms/cell      =           57
     number of atomic types    =            5
     number of electrons       =       400.00
     number of Kohn-Sham states=          210
     kinetic-energy cutoff     =      29.3995  Ry
     charge density cutoff     =     293.9946  Ry
     scf convergence threshold =      7.3E-08
     mixing beta               =       0.0500
     number of iterations used =            8  plain     mixing
     Exchange-correlation= BEEF-VDW
                           (   1   4  43  14   2   0   0)

     celldm(1)=   1.889726  celldm(2)=   0.000000  celldm(3)=   0.000000
     celldm(4)=   0.000000  celldm(5)=   0.000000  celldm(6)=   0.000000

     crystal axes: (cart. coord. in units of alat)
               a(1) = (   6.579727   0.000000   0.000000 )
               a(2) = (  -0.000775   5.961596   0.000000 )
               a(3) = (   0.000000   0.000000  25.155947 )

     reciprocal axes: (cart. coord. in units 2 pi/alat)
               b(1) = (  0.151982  0.000020  0.000000 )
               b(2) = (  0.000000  0.167740  0.000000 )
               b(3) = (  0.000000  0.000000  0.039752 )

     PseudoPot. # 1 for Ti read from file:
     /storage/coda1/p-amedford6/0/shared/rich_project_chbe-medford/medford-share/data/pseudos_module/espresso/nninc/pbe/van/Ti.UPF
     MD5 check sum: 8e4df49b7f0d34bbd5052bf3f5ea0213
     Pseudo is Ultrasoft, Zval = 12.0
     Generated by new atomic code, or converted to UPF format
     Using radial grid of  851 points,  6 beta functions with:
                l(1) =   0
                l(2) =   0
                l(3) =   1
                l(4) =   1
                l(5) =   2
                l(6) =   2
     Q(r) pseudized with  8 coefficients,  rinner =    1.000   1.000   1.000
                                                       1.000   1.000

     PseudoPot. # 2 for O  read from file:
     /storage/coda1/p-amedford6/0/shared/rich_project_chbe-medford/medford-share/data/pseudos_module/espresso/nninc/pbe/van/O.UPF
     MD5 check sum: 78c19812648e8988a0fe644b0f25305e
     Pseudo is Ultrasoft, Zval =  6.0
     Generated by new atomic code, or converted to UPF format
     Using radial grid of  737 points,  4 beta functions with:
                l(1) =   0
                l(2) =   0
                l(3) =   1
                l(4) =   1
     Q(r) pseudized with  8 coefficients,  rinner =    0.800   0.800   0.800

     PseudoPot. # 3 for N  read from file:
     /storage/coda1/p-amedford6/0/shared/rich_project_chbe-medford/medford-share/data/pseudos_module/espresso/nninc/pbe/van/N.UPF
     MD5 check sum: 90d10febe142ad51ac9d5be1deb811c4
     Pseudo is Ultrasoft, Zval =  5.0
     Generated by new atomic code, or converted to UPF format
     Using radial grid of  729 points,  4 beta functions with:
                l(1) =   0
                l(2) =   0
                l(3) =   1
                l(4) =   1
     Q(r) pseudized with  8 coefficients,  rinner =    0.800   0.800   0.800

     PseudoPot. # 4 for C  read from file:
     /storage/coda1/p-amedford6/0/shared/rich_project_chbe-medford/medford-share/data/pseudos_module/espresso/nninc/pbe/van/C.UPF
     MD5 check sum: 1a69bf6b8db32088f5b2163dbdb77a27
     Pseudo is Ultrasoft, Zval =  4.0
     Generated by new atomic code, or converted to UPF format
     Using radial grid of  721 points,  4 beta functions with:
                l(1) =   0
                l(2) =   0
                l(3) =   1
                l(4) =   1
     Q(r) pseudized with  8 coefficients,  rinner =    0.800   0.800   0.800

     PseudoPot. # 5 for H  read from file:
     /storage/coda1/p-amedford6/0/shared/rich_project_chbe-medford/medford-share/data/pseudos_module/espresso/nninc/pbe/van/H.UPF
     MD5 check sum: b5ee9d7bfd3a09ee7748110bda690ff7
     Pseudo is Ultrasoft, Zval =  1.0
     Generated by new atomic code, or converted to UPF format
     Using radial grid of  615 points,  1 beta functions with:
                l(1) =   0
     Q(r) pseudized with  8 coefficients,  rinner =    0.800

     atomic species   valence    mass     pseudopotential
        Ti1           12.00    47.86700     Ti( 1.00)
        O1             6.00    15.99900     O ( 1.00)
        N1             5.00    14.00700     N ( 1.00)
        C1             4.00    12.01100     C ( 1.00)
        H1             1.00     1.00800     H ( 1.00)

     No symmetry found

   Cartesian axes

     site n.     atom                  positions (alat units)
         1           Ti1 tau(   1) = (   0.0004258   2.9801865   6.0000000  )
         2           Ti1 tau(   2) = (   3.2906075   1.4906267   6.0002472  )
         3           O1  tau(   3) = (   0.0006271   0.0005054   7.9858123  )
         4           O1  tau(   4) = (   3.2906025   0.0005020   7.3038282  )
         5           O1  tau(   5) = (   4.5942328   1.4918067   9.2879030  )
         6           O1  tau(   6) = (   1.9868534   1.4903216   9.2879459  )
         7           Ti1 tau(   7) = (   3.2907910   2.8959150   9.1758416  )
         8           Ti1 tau(   8) = (   0.0015273   1.4827037   9.2680791  )
         9           O1  tau(   9) = (   3.2912042   0.0294118  11.3810798  )
        10           O1  tau(  10) = (   0.0116148   5.9584955  10.6183126  )
        11           O1  tau(  11) = (   1.2906363   1.5151137  12.6946382  )
        12           O1  tau(  12) = (   5.2977377   1.5118052  12.6897239  )
        13           Ti1 tau(  13) = (   0.0154927   3.0055723  12.5114375  )
        14           Ti1 tau(  14) = (   3.3120461   1.5076926  12.5412499  )
        15           O1  tau(  15) = (   0.0087391   5.9056098  14.6936070  )
        16           O1  tau(  16) = (   3.3000944   0.0090435  14.0218108  )
        17           O1  tau(  17) = (   4.5606481   1.5918460  16.0876707  )
        18           O1  tau(  18) = (   2.0070218   1.5857768  16.0794533  )
        19           Ti1 tau(  19) = (   3.2835068   3.0412122  15.7371975  )
        20           Ti1 tau(  20) = (   0.0166266   1.3536260  15.8406240  )
        21           O1  tau(  21) = (   3.2904802   0.0005063   4.7018136  )
        22           O1  tau(  22) = (   6.5628702   0.1917167  17.2472498  )
        23           O1  tau(  23) = (   1.3043587   1.4918075   6.0039043  )
        24           O1  tau(  24) = (   5.2767064   1.4903225   6.0039473  )
        25           Ti1 tau(  25) = (   0.0000382   5.9609847   6.0000000  )
        26           Ti1 tau(  26) = (   3.2902200   4.4714249   6.0002472  )
        27           O1  tau(  27) = (   0.0002396   2.9813036   7.9858123  )
        28           O1  tau(  28) = (   3.2902150   2.9813002   7.3038282  )
        29           O1  tau(  29) = (   4.5938453   4.4726049   9.2879030  )
        30           O1  tau(  30) = (   1.9864658   4.4711199   9.2879459  )
        31           Ti1 tau(  31) = (   3.2891106   5.8743827   9.1763621  )
        32           Ti1 tau(  32) = (   0.0006254   4.4649316   9.2693709  )
        33           O1  tau(  33) = (   3.2975917   2.9887808  11.3748511  )
        34           O1  tau(  34) = (   0.0092240   2.9805883  10.6323155  )
        35           O1  tau(  35) = (   1.2927870   4.4849180  12.6503915  )
        36           O1  tau(  36) = (   5.2959677   4.4879952  12.6460094  )
        37           Ti1 tau(  37) = (   0.0189062   0.0134437  12.4995343  )
        38           Ti1 tau(  38) = (   3.3131396   4.4925875  12.5257625  )
        39           O1  tau(  39) = (   6.5658147   3.0796170  14.9398047  )
        40           O1  tau(  40) = (   3.2912769   3.0351834  13.9531456  )
        41           O1  tau(  41) = (   4.5372935   4.5058929  16.2491503  )
        42           O1  tau(  42) = (   2.0060561   4.4992570  16.2466123  )
        43           Ti1 tau(  43) = (   3.3106529   0.0781036  15.8389635  )
        44           Ti1 tau(  44) = (   0.0259428   4.5566345  16.0434284  )
        45           O1  tau(  45) = (   3.2900926   2.9813045   4.7018136  )
        46           O1  tau(  46) = (   1.3039711   4.4726057   6.0039043  )
        47           O1  tau(  47) = (   5.2763189   4.4711207   6.0039473  )
        48           N1  tau(  48) = (   6.3514164   3.3085518  18.1544664  )
        49           C1  tau(  49) = (   0.8695967   3.1501053  19.1301808  )
        50           H1  tau(  50) = (   1.3785670   4.1052268  19.2416751  )
        51           H1  tau(  51) = (   0.5086663   2.8389580  20.1145987  )
        52           H1  tau(  52) = (   1.5779067   2.4119510  18.7640910  )
        53           H1  tau(  53) = (   5.7211048   4.0382881  18.4729098  )
        54           H1  tau(  54) = (   5.7931489   2.4557210  18.1309407  )
        55           O1  tau(  55) = (   3.2817172   0.3149129  18.3340421  )
        56           H1  tau(  56) = (   4.0380937   5.6864266  18.4726034  )
        57           H1  tau(  57) = (   2.4816286   5.7371253  18.4434621  )

     number of k points=    10  Fermi-Dirac smearing, width (Ry)=  0.0073
                       cart. coord. in units 2pi/alat
        k(    1) = (   0.0000000   0.0000000   0.0000000), wk =   0.1250000
        k(    2) = (   0.0000000   0.0419351   0.0000000), wk =   0.2500000
        k(    3) = (   0.0000000  -0.0838702   0.0000000), wk =   0.1250000
        k(    4) = (   0.0379955   0.0000049   0.0000000), wk =   0.2500000
        k(    5) = (   0.0379955   0.0419400   0.0000000), wk =   0.2500000
        k(    6) = (   0.0379955  -0.0838652   0.0000000), wk =   0.2500000
        k(    7) = (   0.0379955  -0.0419301   0.0000000), wk =   0.2500000
        k(    8) = (  -0.0759910  -0.0000099   0.0000000), wk =   0.1250000
        k(    9) = (  -0.0759910   0.0419252   0.0000000), wk =   0.2500000
        k(   10) = (  -0.0759910  -0.0838800   0.0000000), wk =   0.1250000

     Initial potential from superposition of free atoms

     starting charge  383.99913, renormalised to  400.00000

     negative rho (up, down):  1.554E-02 0.000E+00

     %%%%%%%%%%%%%%%%%%%%%%%%%%%%%%%%%%%%%%%%%%%%%%%%%%%%%%%%%%%%%%%%%%%%%%%%
     %                                                                      %
     % You are using vdW-DF, which was implemented by the Thonhauser group. %
     % Please cite the following two papers that made this development      %
     % possible and the two reviews that describe the various versions:     %
     %                                                                      %
     %   T. Thonhauser et al., PRL 115, 136402 (2015).                      %
     %   T. Thonhauser et al., PRB 76, 125112 (2007).                       %
     %   K. Berland et al., Rep. Prog. Phys. 78, 066501 (2015).             %
     %   D.C. Langreth et al., J. Phys.: Condens. Matter 21, 084203 (2009). %
     %                                                                      %
     %                                                                      %
     % If you are calculating the stress with vdW-DF, please also cite:     %
     %                                                                      %
     %   R. Sabatini et al., J. Phys.: Condens. Matter 24, 424209 (2012).   %
     %                                                                      %
     %%%%%%%%%%%%%%%%%%%%%%%%%%%%%%%%%%%%%%%%%%%%%%%%%%%%%%%%%%%%%%%%%%%%%%%%

     Adding external electric field

     Computed dipole along edir(3) :
        Dipole              -12.0858 Ry au,        -30.7189 Debye
        Dipole field         -0.0228 Ry au,

        Potential amp.        2.1142 Ry
        Total length         46.3494 bohr

     Starting wfcs are  303 atomic wfcs
  @ DRIVER MODE: Message from server: STATUS
  @ DRIVER MODE: Message from server: POSDATA
  @ DRIVER MODE: Reading and sharing cell
  @ DRIVER MODE: Reading and sharing positions
  @ DRIVER MODE: Received positions

     Self-consistent Calculation

     iteration #  1     ecut=    29.40 Ry     beta= 0.05
     Davidson diagonalization with overlap
     ethr =  1.00E-02,  avg # of iterations =  3.1

[...]

     total energy              =   -2433.71257741 Ry
     estimated scf accuracy    <    5939.53770201 Ry

[...]

     iteration #  5     ecut=    29.40 Ry     beta= 0.05
     Davidson diagonalization with overlap
     c_bands:  2 eigenvalues not converged
     ethr =  1.00E-02,  avg # of iterations =  4.5

[...]

     iteration # 70     ecut=    29.40 Ry     beta= 0.05
     Davidson diagonalization with overlap
     ethr =  1.01E-10,  avg # of iterations = 13.2

[...]

     total energy              =   -2956.45487678 Ry
     estimated scf accuracy    <       0.00000022 Ry

     iteration # 73     ecut=    29.40 Ry     beta= 0.05
     Davidson diagonalization with overlap
     c_bands:  1 eigenvalues not converged
     ethr =  3.61E-11,  avg # of iterations = 13.0

     negative rho (up, down):  1.589E-02 0.000E+00

     Adding external electric field

     Computed dipole along edir(3) :
        Dipole                1.4044 Ry au,          3.5697 Debye
        Dipole field          0.0027 Ry au,

        Potential amp.       -0.2457 Ry
        Total length         46.3494 bohr

     End of self-consistent calculation

          k = 0.0000 0.0000 0.0000 ( 18029 PWs)   bands (ev):

   -55.2159 -55.1786 -55.1731 -55.1473 -55.1389 -55.1187 -55.0971 -55.0621
   -55.0418 -55.0071 -55.0039 -54.9947 -54.9702 -54.9348 -54.2034 -54.1693
   -31.7793 -31.6896 -31.6655 -31.5858 -31.5307 -31.5256 -31.5170 -31.5094
   -31.4621 -31.4386 -31.4270 -31.4179 -31.4136 -31.4117 -31.3878 -31.3847
   -31.3623 -31.3611 -31.3538 -31.3384 -31.3257 -31.3178 -31.3025 -31.2934
   -31.2869 -31.2744 -31.2721 -31.2431 -31.2303 -31.2280 -31.2227 -31.2026
   -31.1997 -31.1921 -31.1879 -31.1711 -31.1550 -31.1408 -31.1331 -31.1319
   -31.1150 -31.1127 -30.6128 -30.5185 -30.4964 -30.4291 -30.3424 -30.2315
   -19.2346 -16.1561 -16.0247 -15.7760 -15.6342 -15.5397 -15.4196 -15.3042
   -15.2396 -15.1257 -15.0675 -14.9322 -14.9169 -14.9050 -14.8803 -14.8469
   -14.8084 -14.7606 -14.7593 -14.7356 -14.7151 -14.7065 -14.6647 -14.6573
   -14.6176 -14.5963 -14.5953 -14.4599 -14.3787 -14.3084 -14.1229 -12.7059
   -12.5884 -10.2748  -7.0288  -6.2726  -4.8292  -3.9418  -3.4025  -3.3426
    -3.2377  -3.1487  -3.1258  -3.1134  -2.9764  -2.8830  -2.7470  -2.6667
    -2.6345  -2.4981  -2.4247  -2.4135  -2.3808  -2.2656  -2.2134  -2.1868
    -2.1540  -2.0825  -2.0343  -2.0237  -2.0058  -1.9750  -1.9599  -1.9257
    -1.8720  -1.7870  -1.7560  -1.6530  -1.6151  -1.5856  -1.5755  -1.5510
    -1.5339  -1.5092  -1.5028  -1.4424  -1.4389  -1.4091  -1.3628  -1.2482
    -1.0856  -1.0223  -0.9508  -0.8581  -0.8101  -0.7964  -0.7272  -0.7168
    -0.7032  -0.5994  -0.5666  -0.5541  -0.4570  -0.4255  -0.3869  -0.3144
    -0.2430  -0.2151  -0.2020  -0.0866  -0.0216  -0.0035   0.0162   0.0233
     0.1130   0.1861   0.2338   0.2854   0.3262   0.3334   0.3992   0.4314
     0.4992   0.5511   0.5690   0.6562   0.7011   0.7137   0.7200   0.7532
     0.7652   0.8269   0.8632   0.8876   0.9742   1.0894   1.2417   1.3832
     1.3911   1.7241   1.7250   1.8194   2.0033   2.3958   2.4441   3.8772
     3.9499   4.0091   4.0225   4.0279   4.1131   4.3595   4.3817   4.3874
     4.3975   4.4259

[...]

          k = 0.0380-0.0419 0.0000 ( 17876 PWs)   bands (ev):

[...]

          k =-0.0760-0.0000 0.0000 ( 17886 PWs)   bands (ev):

[...]

          k =-0.0760-0.0839 0.0000 ( 17948 PWs)   bands (ev):

   -55.2023 -55.1920 -55.1561 -55.1557 -55.1456 -55.1164 -55.0828 -55.0763
   -55.0272 -55.0212 -54.9970 -54.9874 -54.9868 -54.9363 -54.1865 -54.1861
   -31.6082 -31.5882 -31.5793 -31.4808 -31.4805 -31.4769 -31.4693 -31.4474
   -31.4472 -31.4276 -31.4198 -31.4131 -31.4057 -31.3912 -31.3737 -31.3589
   -31.3561 -31.3537 -31.3518 -31.3498 -31.3423 -31.3398 -31.3228 -31.3168
   -31.2962 -31.2958 -31.2770 -31.2759 -31.2755 -31.2737 -31.2686 -31.2604
   -31.2528 -31.2401 -31.2343 -31.2199 -31.2168 -31.1991 -31.1724 -31.1680
   -31.1670 -31.1464 -30.5092 -30.5089 -30.4254 -30.4252 -30.3858 -30.3857
   -19.2337 -16.1103 -15.5983 -15.4844 -15.3584 -15.2487 -15.2279 -15.1813
   -15.1326 -15.0823 -15.0303 -15.0018 -14.9810 -14.9720 -14.9292 -14.9188
   -14.8997 -14.8341 -14.8187 -14.8076 -14.7837 -14.7364 -14.7281 -14.7204
   -14.7164 -14.6706 -14.6665 -14.6185 -14.5750 -14.5712 -14.3915 -12.6899
   -12.6898 -10.2765  -7.0552  -6.2057  -4.8298  -3.9573  -3.2413  -2.9811
    -2.7498  -2.6979  -2.6095  -2.4659  -2.4220  -2.3771  -2.3460  -2.2845
    -2.2338  -2.2189  -2.2070  -2.1307  -2.1038  -2.0958  -2.0628  -2.0511
    -2.0410  -2.0029  -1.9823  -1.9569  -1.9485  -1.9378  -1.9351  -1.9256
    -1.8676  -1.8550  -1.8443  -1.8405  -1.7818  -1.7704  -1.7557  -1.7414
    -1.5970  -1.5788  -1.4280  -1.4245  -1.4023  -1.3497  -1.3381  -1.2974
    -1.2541  -1.2448  -1.2181  -0.9739  -0.9649  -0.9617  -0.9300  -0.8963
    -0.8585  -0.7968  -0.7678  -0.6979  -0.6897  -0.5737  -0.5576  -0.4423
    -0.4338  -0.4212  -0.3383  -0.2894  -0.2410  -0.2020  -0.1850  -0.1744
    -0.1577  -0.1212  -0.1189  -0.0216   0.0145   0.0453   0.0587   0.0982
     0.2749   0.3037   0.3193   0.4634   0.4710   0.6304   0.6813   0.7095
     0.7999   0.8601   0.8946   0.9385   1.0744   1.0876   1.1053   1.1598
     1.1830   1.2322   1.2454   2.1756   2.1769   2.2640   2.2641   4.0223
     4.1315   4.1407   4.1985   4.3098   4.3186   4.3923   4.4234   4.4609
     4.4647   4.5294

     the Fermi energy is     3.9394 ev

!    total energy              =   -2956.45489115 Ry
     estimated scf accuracy    <       0.00000005 Ry
     smearing contrib. (-TS)   =      -0.03685522 Ry
     internal energy E=F+TS    =   -2956.41803593 Ry

     The total energy is F=E-TS. E is the sum of the following terms:
     one-electron contribution =  -23693.61128477 Ry
     hartree contribution      =   11942.30508958 Ry
     xc contribution           =    -490.61307320 Ry
     ewald contribution        =    9285.49751018 Ry
     electric field correction =       0.00372229 Ry

     convergence has been achieved in  73 iterations

     Forces acting on atoms (cartesian axes, Ry/au):

     atom    1 type  1   force =    -0.00000276   -0.00027130    0.09333881
     atom    2 type  1   force =    -0.00007109   -0.00035715   -0.17816489
     atom    3 type  2   force =     0.00004587   -0.00030606   -0.02033076
     atom    4 type  2   force =    -0.00003521   -0.00185058    0.05915667
     atom    5 type  2   force =    -0.01020677   -0.00060809    0.00752356
     atom    6 type  2   force =     0.01173334    0.00022188    0.00685241
     atom    7 type  1   force =    -0.00030809    0.00187316   -0.01237715
     atom    8 type  1   force =     0.00016162    0.00083930   -0.00449292
     atom    9 type  2   force =     0.00038564   -0.00015383   -0.00080663
     atom   10 type  2   force =    -0.00141623    0.00414686   -0.00109151
     atom   11 type  2   force =    -0.00086995   -0.00030275    0.00019270
     atom   12 type  2   force =     0.00087896   -0.00005689    0.00005236
     atom   13 type  1   force =    -0.00012518   -0.00021729    0.00010505
     atom   14 type  1   force =    -0.00004653   -0.00010022    0.00002421
     atom   15 type  2   force =    -0.00066681   -0.00002818   -0.00007147
     atom   16 type  2   force =    -0.00010828    0.00022755   -0.00040617
     atom   17 type  2   force =     0.00029427   -0.00072169   -0.00000675
     atom   18 type  2   force =     0.00079742   -0.00064009   -0.00026437
     atom   19 type  1   force =    -0.00079983    0.00014792    0.00148533
     atom   20 type  1   force =     0.00077383   -0.00074231    0.00038004
     atom   21 type  2   force =     0.00002001   -0.00010930    0.10397337
     atom   22 type  2   force =     0.00008880   -0.00063113    0.00033749
     atom   23 type  2   force =    -0.07040260   -0.00021183   -0.02690897
     atom   24 type  2   force =     0.07023727    0.00022827   -0.02696148
     atom   25 type  1   force =    -0.00004872   -0.00020994    0.09285469
     atom   26 type  1   force =    -0.00020333   -0.00052842   -0.17843026
     atom   27 type  2   force =     0.00007160   -0.00013813   -0.01930575
     atom   28 type  2   force =     0.00005478   -0.00157454    0.05816720
     atom   29 type  2   force =    -0.01090905   -0.00007092    0.00844424
     atom   30 type  2   force =     0.01231434    0.00011854    0.00772938
     atom   31 type  1   force =    -0.00029372    0.00668494   -0.01504821
     atom   32 type  1   force =     0.00010986   -0.00073949   -0.00469431
     atom   33 type  2   force =    -0.00022021    0.00035168   -0.00052197
     atom   34 type  2   force =    -0.00111110   -0.00023133   -0.00039684
     atom   35 type  2   force =    -0.00019884   -0.00012067   -0.00015782
     atom   36 type  2   force =     0.00027634   -0.00036593   -0.00025679
     atom   37 type  1   force =     0.00023643   -0.00018787    0.00021599
     atom   38 type  1   force =    -0.00011436    0.00067988    0.00063249
     atom   39 type  2   force =     0.00013204   -0.00111800    0.00100868
     atom   40 type  2   force =     0.00026328    0.00099896   -0.00062542
     atom   41 type  2   force =    -0.00021039    0.00020476   -0.00027498
     atom   42 type  2   force =     0.00118613    0.00019375   -0.00047394
     atom   43 type  1   force =    -0.00113149    0.00003300    0.00035417
     atom   44 type  1   force =     0.00036189   -0.00118879    0.00104384
     atom   45 type  2   force =     0.00001428   -0.00011444    0.10392701
     atom   46 type  2   force =    -0.07037778   -0.00012260   -0.02687630
     atom   47 type  2   force =     0.07023192    0.00028992   -0.02694447
     atom   48 type  3   force =     0.00074766    0.00008951   -0.00053806
     atom   49 type  4   force =    -0.00000480   -0.00011510    0.00001762
     atom   50 type  5   force =    -0.00016853   -0.00075448    0.00013552
     atom   51 type  5   force =    -0.00003515   -0.00057029   -0.00061638
     atom   52 type  5   force =    -0.00003576    0.00007212   -0.00046775
     atom   53 type  5   force =     0.00002044    0.00014100   -0.00062578
     atom   54 type  5   force =     0.00006166   -0.00018678   -0.00066681
     atom   55 type  2   force =     0.00034145   -0.00083598    0.00061361
     atom   56 type  5   force =    -0.00074964   -0.00017175    0.00015663
     atom   57 type  5   force =    -0.00096894   -0.00088887    0.00008183

     Total force =     0.366258     Total SCF correction =     0.000483
  @ DRIVER MODE: Message from server: STATUS
  @ DRIVER MODE: Message from server: GETFORCE
  @ DRIVER MODE: Returning v,forces,stress,ensemble

     Writing output data file ./calc.save/
  @ DRIVER MODE: Message from server: EXIT
  @ DRIVE MODE: Exiting

     General routines

     Parallel routines

   This run was terminated on:  16: 8:32  22Sep2021

   JOB DONE.