     Program PWSCF v.6.7GPU starts on  1Oct2021 at 18: 3:46

     R & G space division:  proc/nbgrp/npool/nimage =       8
     Reading input from /storage/home/hcoda1/3/ntian30/research/carbon/CxH_vib/pristine/ads_slab/CHHNN_a/out_0022/pw.inp
Warning: card &CELL ignored
Warning: card   CELL_DYNAMICS='IPI', ignored
Warning: card / ignored

     Current dimensions of program PWSCF are:
     Max number of different atomic species (ntypx) = 10
     Max number of k-points (npk) =  40000
     Max angular momentum in pseudopotentials (lmaxx) =  3
     Presently no symmetry can be used with electric field

     Message from routine cell_base_init:
     DEPRECATED: use true lattice parameter, not A to a.u. conversion factor

     IMPORTANT: XC functional enforced from input :
     Exchange-correlation= BEEF-VDW
                           (   1   4  43  14   2   0   0)
     Any further DFT definition will be discarded
     Please, verify this is what you really want

  @ DRIVER MODE: Connecting to
 qe_1139763_3035467.sched-torque.pace.gatech.edusxsgb1bg_scratch
  using UNIX socket
  @ DRIVER MODE: Message from server: STATUS
  @ DRIVER MODE: Message from server: INIT
  @ DRIVER MODE: Receiving replica           0          -1
  @ DRIVER MODE: Receiving encoded integer          25
  @ DRIVER MODE:  SCF:  T  FORCE:  T  STRESS:  F  VC:  F  ENSEMBLE:  F
  @ DRIVER MODE:  SCF:  T  FORCE:  T  STRESS:  F  VC:  F  ENSEMBLE:  F

     Using Slab Decomposition

     bravais-lattice index     =            0
     lattice parameter (alat)  =       1.8897  a.u.
     unit-cell volume          =    6658.9804 (a.u.)^3
     number of atoms/cell      =           53
     number of atomic types    =            5
     number of electrons       =       400.00
     number of Kohn-Sham states=          210
     kinetic-energy cutoff     =      29.3995  Ry
     charge density cutoff     =     293.9946  Ry
     scf convergence threshold =      7.3E-08
     mixing beta               =       0.0500
     number of iterations used =            8  plain     mixing
     Exchange-correlation= BEEF-VDW
                           (   1   4  43  14   2   0   0)

     celldm(1)=   1.889726  celldm(2)=   0.000000  celldm(3)=   0.000000
     celldm(4)=   0.000000  celldm(5)=   0.000000  celldm(6)=   0.000000

     crystal axes: (cart. coord. in units of alat)
               a(1) = (   6.579727   0.000000   0.000000 )
               a(2) = (  -0.000775   5.961596   0.000000 )
               a(3) = (   0.000000   0.000000  25.155947 )

     reciprocal axes: (cart. coord. in units 2 pi/alat)
               b(1) = (  0.151982  0.000020  0.000000 )
               b(2) = (  0.000000  0.167740  0.000000 )
               b(3) = (  0.000000  0.000000  0.039752 )

     PseudoPot. # 1 for Ti read from file:
     /storage/coda1/p-amedford6/0/shared/rich_project_chbe-medford/medford-share/data/pseudos_module/espresso/nninc/pbe/van/Ti.UPF
     MD5 check sum: 8e4df49b7f0d34bbd5052bf3f5ea0213
     Pseudo is Ultrasoft, Zval = 12.0
     Generated by new atomic code, or converted to UPF format
     Using radial grid of  851 points,  6 beta functions with:
                l(1) =   0
                l(2) =   0
                l(3) =   1
                l(4) =   1
                l(5) =   2
                l(6) =   2
     Q(r) pseudized with  8 coefficients,  rinner =    1.000   1.000   1.000
                                                       1.000   1.000

     PseudoPot. # 2 for O  read from file:
     /storage/coda1/p-amedford6/0/shared/rich_project_chbe-medford/medford-share/data/pseudos_module/espresso/nninc/pbe/van/O.UPF
     MD5 check sum: 78c19812648e8988a0fe644b0f25305e
     Pseudo is Ultrasoft, Zval =  6.0
     Generated by new atomic code, or converted to UPF format
     Using radial grid of  737 points,  4 beta functions with:
                l(1) =   0
                l(2) =   0
                l(3) =   1
                l(4) =   1
     Q(r) pseudized with  8 coefficients,  rinner =    0.800   0.800   0.800

     PseudoPot. # 3 for N  read from file:
     /storage/coda1/p-amedford6/0/shared/rich_project_chbe-medford/medford-share/data/pseudos_module/espresso/nninc/pbe/van/N.UPF
     MD5 check sum: 90d10febe142ad51ac9d5be1deb811c4
     Pseudo is Ultrasoft, Zval =  5.0
     Generated by new atomic code, or converted to UPF format
     Using radial grid of  729 points,  4 beta functions with:
                l(1) =   0
                l(2) =   0
                l(3) =   1
                l(4) =   1
     Q(r) pseudized with  8 coefficients,  rinner =    0.800   0.800   0.800

     PseudoPot. # 4 for C  read from file:
     /storage/coda1/p-amedford6/0/shared/rich_project_chbe-medford/medford-share/data/pseudos_module/espresso/nninc/pbe/van/C.UPF
     MD5 check sum: 1a69bf6b8db32088f5b2163dbdb77a27
     Pseudo is Ultrasoft, Zval =  4.0
     Generated by new atomic code, or converted to UPF format
     Using radial grid of  721 points,  4 beta functions with:
                l(1) =   0
                l(2) =   0
                l(3) =   1
                l(4) =   1
     Q(r) pseudized with  8 coefficients,  rinner =    0.800   0.800   0.800

     PseudoPot. # 5 for H  read from file:
     /storage/coda1/p-amedford6/0/shared/rich_project_chbe-medford/medford-share/data/pseudos_module/espresso/nninc/pbe/van/H.UPF
     MD5 check sum: b5ee9d7bfd3a09ee7748110bda690ff7
     Pseudo is Ultrasoft, Zval =  1.0
     Generated by new atomic code, or converted to UPF format
     Using radial grid of  615 points,  1 beta functions with:
                l(1) =   0
     Q(r) pseudized with  8 coefficients,  rinner =    0.800

     atomic species   valence    mass     pseudopotential
        Ti1           12.00    47.86700     Ti( 1.00)
        O1             6.00    15.99900     O ( 1.00)
        N1             5.00    14.00700     N ( 1.00)
        C1             4.00    12.01100     C ( 1.00)
        H1             1.00     1.00800     H ( 1.00)

     No symmetry found

   Cartesian axes

     site n.     atom                  positions (alat units)
         1           Ti1 tau(   1) = (   0.0004258   2.9801865   6.0000000  )
         2           Ti1 tau(   2) = (   3.2906075   1.4906267   6.0002472  )
         3           O1  tau(   3) = (   0.0006271   0.0005054   7.9858123  )
         4           O1  tau(   4) = (   3.2906025   0.0005020   7.3038282  )
         5           O1  tau(   5) = (   4.5942328   1.4918067   9.2879030  )
         6           O1  tau(   6) = (   1.9868534   1.4903216   9.2879459  )
         7           Ti1 tau(   7) = (   3.2961651   2.9340025   9.1571600  )
         8           Ti1 tau(   8) = (   0.0257383   1.5005952   9.3383585  )
         9           O1  tau(   9) = (   3.3091981   5.9584344  11.3361002  )
        10           O1  tau(  10) = (   6.5780281   5.9600862  10.6016087  )
        11           O1  tau(  11) = (   1.3203574   1.4925043  12.6130903  )
        12           O1  tau(  12) = (   5.3210186   1.4819496  12.6412376  )
        13           Ti1 tau(  13) = (   6.5659556   2.9650791  12.8176139  )
        14           Ti1 tau(  14) = (   3.2164003   1.4877187  12.4769567  )
        15           O1  tau(  15) = (   0.0404395   5.9536100  14.6624943  )
        16           O1  tau(  16) = (   3.3074673   5.9584959  13.9062718  )
        17           O1  tau(  17) = (   4.5856532   1.4904827  16.0465219  )
        18           O1  tau(  18) = (   2.1034043   1.4884928  16.0442595  )
        19           Ti1 tau(  19) = (   3.2939248   2.9785878  15.7144947  )
        20           Ti1 tau(  20) = (   6.5451327   1.4142704  16.0395912  )
        21           O1  tau(  21) = (   3.2904802   0.0005063   4.7018136  )
        22           O1  tau(  22) = (   0.0457580   0.0044623  17.2034710  )
        23           O1  tau(  23) = (   1.3043587   1.4918075   6.0039043  )
        24           O1  tau(  24) = (   5.2767064   1.4903225   6.0039473  )
        25           Ti1 tau(  25) = (   0.0000382   5.9609847   6.0000000  )
        26           Ti1 tau(  26) = (   3.2902200   4.4714249   6.0002472  )
        27           O1  tau(  27) = (   0.0002396   2.9813036   7.9858123  )
        28           O1  tau(  28) = (   3.2902150   2.9813002   7.3038282  )
        29           O1  tau(  29) = (   4.5938453   4.4726049   9.2879030  )
        30           O1  tau(  30) = (   1.9864658   4.4711199   9.2879459  )
        31           Ti1 tau(  31) = (   3.3296195   5.9152860   9.1560537  )
        32           Ti1 tau(  32) = (   0.0304643   4.4420822   9.3322224  )
        33           O1  tau(  33) = (   3.3127198   2.9780151  11.3348310  )
        34           O1  tau(  34) = (   0.0025308   2.9791118  10.5479895  )
        35           O1  tau(  35) = (   1.3183054   4.4635934  12.6126975  )
        36           O1  tau(  36) = (   5.3202651   4.4673696  12.6407401  )
        37           Ti1 tau(  37) = (   6.5108624   5.9459213  12.5946634  )
        38           Ti1 tau(  38) = (   3.2137380   4.4666137  12.4775098  )
        39           O1  tau(  39) = (   0.0464109   2.9731917  14.6594554  )
        40           O1  tau(  40) = (   3.3098714   2.9789900  13.9126757  )
        41           O1  tau(  41) = (   4.5859750   4.4686661  16.0488133  )
        42           O1  tau(  42) = (   2.1005049   4.4706468  16.0453856  )
        43           Ti1 tau(  43) = (   3.2853703   5.9589473  15.7052640  )
        44           Ti1 tau(  44) = (   6.5509595   4.5658457  16.0514827  )
        45           O1  tau(  45) = (   3.2900926   2.9813045   4.7018136  )
        46           O1  tau(  46) = (   0.0949885   2.9744829  17.2486893  )
        47           O1  tau(  47) = (   1.3039711   4.4726057   6.0039043  )
        48           O1  tau(  48) = (   5.2763189   4.4711207   6.0039473  )
        49           N1  tau(  49) = (   0.3730515   3.1615268  19.4484725  )
        50           N1  tau(  50) = (   6.0186590   2.9946300  18.5893579  )
        51           C1  tau(  51) = (   0.0316377   3.3059097  20.7092049  )
        52           H1  tau(  52) = (   5.5749133   3.3561147  21.0318256  )
        53           H1  tau(  53) = (   0.8315635   3.3875449  21.4270997  )

     number of k points=    10  Fermi-Dirac smearing, width (Ry)=  0.0073
                       cart. coord. in units 2pi/alat
        k(    1) = (   0.0000000   0.0000000   0.0000000), wk =   0.1250000
        k(    2) = (   0.0000000   0.0419351   0.0000000), wk =   0.2500000
        k(    3) = (   0.0000000  -0.0838702   0.0000000), wk =   0.1250000
        k(    4) = (   0.0379955   0.0000049   0.0000000), wk =   0.2500000
        k(    5) = (   0.0379955   0.0419400   0.0000000), wk =   0.2500000
        k(    6) = (   0.0379955  -0.0838652   0.0000000), wk =   0.2500000
        k(    7) = (   0.0379955  -0.0419301   0.0000000), wk =   0.2500000
        k(    8) = (  -0.0759910  -0.0000099   0.0000000), wk =   0.1250000
        k(    9) = (  -0.0759910   0.0419252   0.0000000), wk =   0.2500000
        k(   10) = (  -0.0759910  -0.0838800   0.0000000), wk =   0.1250000

     Initial potential from superposition of free atoms

     starting charge  383.99917, renormalised to  400.00000

     negative rho (up, down):  1.225E-02 0.000E+00

     %%%%%%%%%%%%%%%%%%%%%%%%%%%%%%%%%%%%%%%%%%%%%%%%%%%%%%%%%%%%%%%%%%%%%%%%
     %                                                                      %
     % You are using vdW-DF, which was implemented by the Thonhauser group. %
     % Please cite the following two papers that made this development      %
     % possible and the two reviews that describe the various versions:     %
     %                                                                      %
     %   T. Thonhauser et al., PRL 115, 136402 (2015).                      %
     %   T. Thonhauser et al., PRB 76, 125112 (2007).                       %
     %   K. Berland et al., Rep. Prog. Phys. 78, 066501 (2015).             %
     %   D.C. Langreth et al., J. Phys.: Condens. Matter 21, 084203 (2009). %
     %                                                                      %
     %                                                                      %
     % If you are calculating the stress with vdW-DF, please also cite:     %
     %                                                                      %
     %   R. Sabatini et al., J. Phys.: Condens. Matter 24, 424209 (2012).   %
     %                                                                      %
     %%%%%%%%%%%%%%%%%%%%%%%%%%%%%%%%%%%%%%%%%%%%%%%%%%%%%%%%%%%%%%%%%%%%%%%%

     Adding external electric field

     Computed dipole along edir(3) :
        Dipole              -11.7961 Ry au,        -29.9828 Debye
        Dipole field         -0.0223 Ry au,

        Potential amp.        2.0636 Ry
        Total length         46.3494 bohr

     Starting wfcs are  302 atomic wfcs
  @ DRIVER MODE: Message from server: STATUS
  @ DRIVER MODE: Message from server: POSDATA
  @ DRIVER MODE: Reading and sharing cell
  @ DRIVER MODE: Reading and sharing positions
  @ DRIVER MODE: Received positions

     Self-consistent Calculation

     iteration #  1     ecut=    29.40 Ry     beta= 0.05
     Davidson diagonalization with overlap
     c_bands:  3 eigenvalues not converged
     c_bands:  1 eigenvalues not converged
     c_bands:  2 eigenvalues not converged
     c_bands:  3 eigenvalues not converged
     c_bands:  3 eigenvalues not converged
     c_bands:  3 eigenvalues not converged
     c_bands:  1 eigenvalues not converged
     c_bands:  5 eigenvalues not converged
     c_bands:  2 eigenvalues not converged
     ethr =  1.00E-05,  avg # of iterations = 19.9

[...]

     total energy              =   -2452.84419290 Ry
     estimated scf accuracy    <    5806.08583574 Ry

     iteration #  2     ecut=    29.40 Ry     beta= 0.05
     Davidson diagonalization with overlap
     ethr =  1.00E-02,  avg # of iterations = 22.5

[...]

     iteration # 44     ecut=    29.40 Ry     beta= 0.05
     Davidson diagonalization with overlap
     c_bands:  2 eigenvalues not converged
     c_bands:  1 eigenvalues not converged
     c_bands:  1 eigenvalues not converged
     c_bands:  1 eigenvalues not converged
     c_bands:  1 eigenvalues not converged
     ethr =  2.40E-06,  avg # of iterations = 17.4

[...]

     total energy              =   -2970.15582948 Ry
     estimated scf accuracy    <       0.00000013 Ry

     iteration # 67     ecut=    29.40 Ry     beta= 0.05
     Davidson diagonalization with overlap
     ethr =  3.01E-11,  avg # of iterations =  5.9

     negative rho (up, down):  1.339E-02 0.000E+00

     Adding external electric field

     Computed dipole along edir(3) :
        Dipole                0.4186 Ry au,          1.0640 Debye
        Dipole field          0.0008 Ry au,

        Potential amp.       -0.0732 Ry
        Total length         46.3494 bohr

     End of self-consistent calculation

          k = 0.0000 0.0000 0.0000 ( 18029 PWs)   bands (ev):

   -56.1038 -56.0655 -56.0532 -56.0171 -55.9495 -55.9230 -55.8879 -55.8529
   -55.7992 -55.7882 -55.7627 -55.7619 -55.7533 -55.7174 -55.0695 -55.0354
   -32.6048 -32.5570 -32.4135 -32.3917 -32.3865 -32.3599 -32.3508 -32.3229
   -32.2839 -32.2813 -32.2748 -32.2708 -32.2538 -32.2440 -32.2344 -32.2084
   -32.1870 -32.1803 -32.1761 -32.1760 -32.1494 -32.1362 -32.0787 -32.0766
   -32.0688 -32.0549 -32.0500 -32.0241 -32.0226 -32.0190 -32.0075 -31.9952
   -31.9587 -31.9570 -31.9422 -31.9413 -31.9401 -31.9318 -31.9219 -31.9023
   -31.8877 -31.8423 -31.4777 -31.3841 -31.3613 -31.2948 -31.2089 -31.0974
   -19.0490 -16.7901 -16.4900 -16.3949 -16.2050 -16.1738 -16.0873 -16.0402
   -15.8098 -15.7145 -15.6556 -15.6257 -15.5981 -15.5902 -15.5845 -15.5588
   -15.5164 -15.5148 -15.4831 -15.4654 -15.4563 -15.4024 -15.3535 -15.3082
   -15.2470 -15.2140 -15.1822 -15.1793 -15.0728 -15.0256 -14.9779 -13.5687
   -13.4512 -10.9576  -6.4377  -4.8384  -4.1526  -3.9959  -3.9523  -3.9522
    -3.8381  -3.6920  -3.5902  -3.5515  -3.4419  -3.2231  -3.2103  -3.1930
    -3.1710  -3.1141  -2.9478  -2.8940  -2.8870  -2.8693  -2.8499  -2.8281
    -2.8048  -2.7901  -2.7609  -2.7338  -2.7175  -2.5770  -2.5691  -2.4712
    -2.4524  -2.4030  -2.3732  -2.3577  -2.3149  -2.2680  -2.2251  -2.2051
    -2.1824  -2.1568  -2.0773  -1.9099  -1.9032  -1.8697  -1.7922  -1.7387
    -1.7324  -1.4729  -1.4722  -1.4653  -1.4005  -1.3570  -1.3491  -1.2706
    -1.2186  -1.1958  -1.1810  -1.1551  -1.0800  -1.0031  -0.9587  -0.9059
    -0.8697  -0.8193  -0.7892  -0.7737  -0.7551  -0.5474  -0.5239  -0.4912
    -0.4541  -0.3381  -0.3281  -0.2828  -0.2691  -0.2264  -0.2179  -0.1048
    -0.0826  -0.0645  -0.0486  -0.0279  -0.0038   0.0129   0.0694   0.1202
     0.1530   0.1792   0.3695   0.3804   0.5443   0.5846   0.6136   0.7604
     0.8692   0.9557   1.0823   1.1312   1.5478   1.6175   1.7157   2.9820
     3.1126   3.1939   3.2441   3.2755   3.3358   3.4989   3.5486   3.5773
     3.6173   3.6254

[...]

          k = 0.0380-0.0419 0.0000 ( 17876 PWs)   bands (ev):

[...]

          k =-0.0760-0.0000 0.0000 ( 17886 PWs)   bands (ev):

[...]

          k =-0.0760-0.0839 0.0000 ( 17948 PWs)   bands (ev):

   -56.0935 -56.0757 -56.0359 -56.0343 -55.9465 -55.9075 -55.9033 -55.8558
   -55.7865 -55.7762 -55.7735 -55.7662 -55.7542 -55.7258 -55.0524 -55.0524
   -32.4075 -32.4057 -32.3808 -32.3794 -32.3650 -32.3518 -32.3097 -32.3085
   -32.2907 -32.2449 -32.2397 -32.2384 -32.2278 -32.2146 -32.2142 -32.2043
   -32.1958 -32.1933 -32.1762 -32.1552 -32.1299 -32.1248 -32.1137 -32.1121
   -32.1050 -32.0944 -32.0863 -32.0739 -32.0618 -32.0386 -32.0277 -31.9919
   -31.9873 -31.9848 -31.9779 -31.9674 -31.9660 -31.9625 -31.9618 -31.9548
   -31.9461 -31.9355 -31.3741 -31.3740 -31.2909 -31.2907 -31.2519 -31.2518
   -19.0405 -16.2106 -16.2019 -16.1848 -15.9487 -15.9453 -15.9115 -15.8578
   -15.7617 -15.7602 -15.7534 -15.7410 -15.6762 -15.6675 -15.6619 -15.5908
   -15.5797 -15.5766 -15.5700 -15.5456 -15.4914 -15.4905 -15.3793 -15.3574
   -15.3546 -15.3478 -15.3289 -15.3211 -15.2559 -15.2013 -15.1959 -13.5540
   -13.5511 -10.9591  -6.4250  -4.8020  -3.6907  -3.5032  -3.4944  -3.4157
    -3.1869  -3.1779  -3.0613  -3.0505  -3.0015  -2.9560  -2.9160  -2.9045
    -2.8939  -2.8739  -2.8669  -2.8501  -2.8299  -2.8128  -2.7953  -2.7686
    -2.7216  -2.6895  -2.6733  -2.6509  -2.6424  -2.6328  -2.6044  -2.5960
    -2.5743  -2.5716  -2.5518  -2.4523  -2.3159  -2.2897  -2.2285  -2.1829
    -2.1565  -2.1263  -2.1207  -2.0887  -2.0756  -2.0496  -1.9263  -1.8573
    -1.7805  -1.7482  -1.7240  -1.6613  -1.5811  -1.4971  -1.4282  -1.4060
    -1.3570  -1.3115  -1.2914  -1.2637  -1.2197  -1.2072  -1.1557  -1.0831
    -1.0757  -1.0358  -1.0261  -1.0053  -0.9325  -0.9242  -0.8679  -0.8104
    -0.7963  -0.7101  -0.6553  -0.6321  -0.6196  -0.5597  -0.5412  -0.4734
    -0.3962  -0.3176  -0.0428  -0.0259   0.0282   0.0397   0.0732   0.1725
     0.2350   0.2520   0.3260   0.3502   0.4273   0.4767   0.5095   0.5142
     0.5946   0.6125   1.3208   1.3244   1.4072   1.4165   1.7394   2.9421
     3.3910   3.4206   3.4269   3.4482   3.5836   3.5910   3.6081   3.6163
     3.7546   3.7923

     the Fermi energy is     3.0590 ev

!    total energy              =   -2970.15586255 Ry
     estimated scf accuracy    <       0.00000005 Ry
     smearing contrib. (-TS)   =      -0.02346672 Ry
     internal energy E=F+TS    =   -2970.13239583 Ry

     The total energy is F=E-TS. E is the sum of the following terms:
     one-electron contribution =  -23559.48191588 Ry
     hartree contribution      =   11867.95391722 Ry
     xc contribution           =    -491.49663450 Ry
     ewald contribution        =    9212.89190663 Ry
     electric field correction =       0.00033071 Ry

     convergence has been achieved in  67 iterations

     Forces acting on atoms (cartesian axes, Ry/au):

     atom    1 type  1   force =    -0.00001139   -0.00028649    0.11746655
     atom    2 type  1   force =    -0.00002675   -0.00047684   -0.17835374
     atom    3 type  2   force =     0.00020387    0.00070504   -0.03805639
     atom    4 type  2   force =     0.00087863   -0.00060000    0.04408527
     atom    5 type  2   force =    -0.02135867   -0.00158822    0.00209861
     atom    6 type  2   force =     0.02128091    0.00125044    0.00429608
     atom    7 type  1   force =     0.00091737   -0.00015976   -0.00003932
     atom    8 type  1   force =     0.00006097   -0.00014997    0.00094848
     atom    9 type  2   force =    -0.00048734    0.00006713   -0.00043677
     atom   10 type  2   force =     0.00025262    0.00008302   -0.00106496
     atom   11 type  2   force =     0.00061582    0.00009566   -0.00003501
     atom   12 type  2   force =    -0.00028382    0.00039792   -0.00024535
     atom   13 type  1   force =    -0.00137056    0.00032699    0.00003117
     atom   14 type  1   force =     0.00115814    0.00020718   -0.00034478
     atom   15 type  2   force =    -0.00034221    0.00017991    0.00102136
     atom   16 type  2   force =    -0.00027790    0.00003423    0.00154654
     atom   17 type  2   force =     0.00007580   -0.00027688    0.00044893
     atom   18 type  2   force =    -0.00041781   -0.00043113    0.00024926
     atom   19 type  1   force =    -0.00029739    0.00018279    0.00046421
     atom   20 type  1   force =     0.00021346    0.00010473    0.00024760
     atom   21 type  2   force =    -0.00000776    0.00005216    0.10373797
     atom   22 type  2   force =    -0.00037442    0.00023298   -0.00098688
     atom   23 type  2   force =    -0.06936834    0.00107789   -0.03120390
     atom   24 type  2   force =     0.06913004    0.00148203   -0.03120379
     atom   25 type  1   force =    -0.00022831   -0.00019269    0.12921739
     atom   26 type  1   force =    -0.00004735   -0.00004610   -0.17841869
     atom   27 type  2   force =     0.00041021    0.00016028   -0.03706022
     atom   28 type  2   force =     0.00033313   -0.00056364    0.04504804
     atom   29 type  2   force =    -0.02054003    0.00077091    0.00198758
     atom   30 type  2   force =     0.02219279    0.00158497    0.00424638
     atom   31 type  1   force =     0.00022276   -0.00042536   -0.00059374
     atom   32 type  1   force =    -0.00009642   -0.00105916    0.00109772
     atom   33 type  2   force =    -0.00050057   -0.00016470    0.00080063
     atom   34 type  2   force =     0.00011123   -0.00009265   -0.00024533
     atom   35 type  2   force =     0.00071585   -0.00023112   -0.00014080
     atom   36 type  2   force =    -0.00018874   -0.00014063   -0.00039937
     atom   37 type  1   force =    -0.00081678   -0.00049743    0.00041871
     atom   38 type  1   force =     0.00123555   -0.00043096   -0.00029505
     atom   39 type  2   force =    -0.00030726   -0.00017243   -0.00089858
     atom   40 type  2   force =    -0.00030578   -0.00009976   -0.00019193
     atom   41 type  2   force =    -0.00011393    0.00052661    0.00032329
     atom   42 type  2   force =    -0.00022114    0.00057687    0.00023018
     atom   43 type  1   force =    -0.00013384   -0.00005756   -0.00072939
     atom   44 type  1   force =     0.00006804   -0.00019092    0.00003660
     atom   45 type  2   force =     0.00001528    0.00004877    0.10385832
     atom   46 type  2   force =    -0.00005787    0.00005832   -0.00017443
     atom   47 type  2   force =    -0.06933682   -0.00128828   -0.03116874
     atom   48 type  2   force =     0.06912486   -0.00082498   -0.03122220
     atom   49 type  3   force =     0.00064942   -0.00033004   -0.00006207
     atom   50 type  3   force =    -0.00146252   -0.00003299    0.00022704
     atom   51 type  4   force =    -0.00105837    0.00142731    0.00006220
     atom   52 type  5   force =     0.00013266   -0.00071608   -0.00066653
     atom   53 type  5   force =     0.00004067   -0.00010737    0.00004186

     Total force =     0.384014     Total SCF correction =     0.000604
  @ DRIVER MODE: Message from server: STATUS
  @ DRIVER MODE: Message from server: GETFORCE
  @ DRIVER MODE: Returning v,forces,stress,ensemble

     Writing output data file ./calc.save/
  @ DRIVER MODE: Message from server: EXIT
  @ DRIVE MODE: Exiting

     General routines

     Parallel routines

   This run was terminated on:  18:32:35   1Oct2021

   JOB DONE.