     Program PWSCF v.6.7GPU starts on 27Sep2021 at  1:29:33

     R & G space division:  proc/nbgrp/npool/nimage =       8
     Reading input from /storage/home/hcoda1/3/ntian30/research/carbon/CxH_vib/CH_calc/ads_slab/CHONHNH2_b/out_0033/pw.inp
Warning: card &CELL ignored
Warning: card   CELL_DYNAMICS='IPI', ignored
Warning: card / ignored

     Current dimensions of program PWSCF are:
     Max number of different atomic species (ntypx) = 10
     Max number of k-points (npk) =  40000
     Max angular momentum in pseudopotentials (lmaxx) =  3
     Presently no symmetry can be used with electric field

     Message from routine cell_base_init:
     DEPRECATED: use true lattice parameter, not A to a.u. conversion factor

     IMPORTANT: XC functional enforced from input :
     Exchange-correlation= BEEF-VDW
                           (   1   4  43  14   2   0   0)
     Any further DFT definition will be discarded
     Please, verify this is what you really want

  @ DRIVER MODE: Connecting to
 qe_1139763_2982672.sched-torque.pace.gatech.eduo1atgbin_scratch
  using UNIX socket
  @ DRIVER MODE: Message from server: STATUS
  @ DRIVER MODE: Message from server: INIT
  @ DRIVER MODE: Receiving replica           0          -1
  @ DRIVER MODE: Receiving encoded integer          25
  @ DRIVER MODE:  SCF:  T  FORCE:  T  STRESS:  F  VC:  F  ENSEMBLE:  F
  @ DRIVER MODE:  SCF:  T  FORCE:  T  STRESS:  F  VC:  F  ENSEMBLE:  F

     Using Slab Decomposition

     bravais-lattice index     =            0
     lattice parameter (alat)  =       1.8897  a.u.
     unit-cell volume          =    6658.9804 (a.u.)^3
     number of atoms/cell      =           55
     number of atomic types    =            5
     number of electrons       =       402.00
     number of Kohn-Sham states=          211
     kinetic-energy cutoff     =      29.3995  Ry
     charge density cutoff     =     293.9946  Ry
     scf convergence threshold =      7.3E-08
     mixing beta               =       0.0500
     number of iterations used =            8  plain     mixing
     Exchange-correlation= BEEF-VDW
                           (   1   4  43  14   2   0   0)

     celldm(1)=   1.889726  celldm(2)=   0.000000  celldm(3)=   0.000000
     celldm(4)=   0.000000  celldm(5)=   0.000000  celldm(6)=   0.000000

     crystal axes: (cart. coord. in units of alat)
               a(1) = (   6.579727   0.000000   0.000000 )
               a(2) = (  -0.000775   5.961596   0.000000 )
               a(3) = (   0.000000   0.000000  25.155947 )

     reciprocal axes: (cart. coord. in units 2 pi/alat)
               b(1) = (  0.151982  0.000020  0.000000 )
               b(2) = (  0.000000  0.167740  0.000000 )
               b(3) = (  0.000000  0.000000  0.039752 )

     PseudoPot. # 1 for O  read from file:
     /storage/coda1/p-amedford6/0/shared/rich_project_chbe-medford/medford-share/data/pseudos_module/espresso/nninc/pbe/van/O.UPF
     MD5 check sum: 78c19812648e8988a0fe644b0f25305e
     Pseudo is Ultrasoft, Zval =  6.0
     Generated by new atomic code, or converted to UPF format
     Using radial grid of  737 points,  4 beta functions with:
                l(1) =   0
                l(2) =   0
                l(3) =   1
                l(4) =   1
     Q(r) pseudized with  8 coefficients,  rinner =    0.800   0.800   0.800

     PseudoPot. # 2 for Ti read from file:
     /storage/coda1/p-amedford6/0/shared/rich_project_chbe-medford/medford-share/data/pseudos_module/espresso/nninc/pbe/van/Ti.UPF
     MD5 check sum: 8e4df49b7f0d34bbd5052bf3f5ea0213
     Pseudo is Ultrasoft, Zval = 12.0
     Generated by new atomic code, or converted to UPF format
     Using radial grid of  851 points,  6 beta functions with:
                l(1) =   0
                l(2) =   0
                l(3) =   1
                l(4) =   1
                l(5) =   2
                l(6) =   2
     Q(r) pseudized with  8 coefficients,  rinner =    1.000   1.000   1.000
                                                       1.000   1.000

     PseudoPot. # 3 for N  read from file:
     /storage/coda1/p-amedford6/0/shared/rich_project_chbe-medford/medford-share/data/pseudos_module/espresso/nninc/pbe/van/N.UPF
     MD5 check sum: 90d10febe142ad51ac9d5be1deb811c4
     Pseudo is Ultrasoft, Zval =  5.0
     Generated by new atomic code, or converted to UPF format
     Using radial grid of  729 points,  4 beta functions with:
                l(1) =   0
                l(2) =   0
                l(3) =   1
                l(4) =   1
     Q(r) pseudized with  8 coefficients,  rinner =    0.800   0.800   0.800

     PseudoPot. # 4 for H  read from file:
     /storage/coda1/p-amedford6/0/shared/rich_project_chbe-medford/medford-share/data/pseudos_module/espresso/nninc/pbe/van/H.UPF
     MD5 check sum: b5ee9d7bfd3a09ee7748110bda690ff7
     Pseudo is Ultrasoft, Zval =  1.0
     Generated by new atomic code, or converted to UPF format
     Using radial grid of  615 points,  1 beta functions with:
                l(1) =   0
     Q(r) pseudized with  8 coefficients,  rinner =    0.800

     PseudoPot. # 5 for C  read from file:
     /storage/coda1/p-amedford6/0/shared/rich_project_chbe-medford/medford-share/data/pseudos_module/espresso/nninc/pbe/van/C.UPF
     MD5 check sum: 1a69bf6b8db32088f5b2163dbdb77a27
     Pseudo is Ultrasoft, Zval =  4.0
     Generated by new atomic code, or converted to UPF format
     Using radial grid of  721 points,  4 beta functions with:
                l(1) =   0
                l(2) =   0
                l(3) =   1
                l(4) =   1
     Q(r) pseudized with  8 coefficients,  rinner =    0.800   0.800   0.800

     atomic species   valence    mass     pseudopotential
        O1             6.00    15.99900     O ( 1.00)
        Ti1           12.00    47.86700     Ti( 1.00)
        N1             5.00    14.00700     N ( 1.00)
        H1             1.00     1.00800     H ( 1.00)
        C1             4.00    12.01100     C ( 1.00)

     No symmetry found

   Cartesian axes

     site n.     atom                  positions (alat units)
         1           O1  tau(   1) = (   3.2904802   0.0005063   4.7018136  )
         2           O1  tau(   2) = (   3.2900926   2.9813045   4.7018136  )
         3           Ti1 tau(   3) = (   0.0004258   2.9801865   6.0000000  )
         4           Ti1 tau(   4) = (   0.0000382   5.9609847   6.0000000  )
         5           Ti1 tau(   5) = (   3.2906075   1.4906267   6.0002472  )
         6           Ti1 tau(   6) = (   3.2902200   4.4714249   6.0002472  )
         7           O1  tau(   7) = (   1.3043587   1.4918075   6.0039043  )
         8           O1  tau(   8) = (   1.3039711   4.4726057   6.0039043  )
         9           O1  tau(   9) = (   5.2767064   1.4903225   6.0039473  )
        10           O1  tau(  10) = (   5.2763189   4.4711207   6.0039473  )
        11           O1  tau(  11) = (   3.2906025   0.0005020   7.3038282  )
        12           O1  tau(  12) = (   3.2902150   2.9813002   7.3038282  )
        13           O1  tau(  13) = (   0.0006271   0.0005054   7.9858123  )
        14           O1  tau(  14) = (   0.0002396   2.9813036   7.9858123  )
        15           Ti1 tau(  15) = (   3.2907910   2.8959150   9.1758416  )
        16           Ti1 tau(  16) = (   3.2891106   5.8743827   9.1763621  )
        17           Ti1 tau(  17) = (   0.0015273   1.4827037   9.2680791  )
        18           Ti1 tau(  18) = (   0.0006254   4.4649316   9.2693709  )
        19           O1  tau(  19) = (   4.5942328   1.4918067   9.2879030  )
        20           O1  tau(  20) = (   4.5938453   4.4726049   9.2879030  )
        21           O1  tau(  21) = (   1.9868534   1.4903216   9.2879459  )
        22           O1  tau(  22) = (   1.9864658   4.4711199   9.2879459  )
        23           O1  tau(  23) = (   0.0116148   5.9584955  10.6183126  )
        24           O1  tau(  24) = (   0.0092240   2.9805883  10.6323155  )
        25           O1  tau(  25) = (   3.2729272   2.9749101  11.3358637  )
        26           O1  tau(  26) = (   3.2774458   5.9577983  11.3358029  )
        27           Ti1 tau(  27) = (   6.5123228   0.0223980  12.5466522  )
        28           Ti1 tau(  28) = (   6.5139447   2.9993280  12.6164542  )
        29           Ti1 tau(  29) = (   3.1950650   4.4673527  12.4897579  )
        30           Ti1 tau(  30) = (   3.1950454   1.4921031  12.4944583  )
        31           O1  tau(  31) = (   5.2839716   4.4726476  12.6140382  )
        32           O1  tau(  32) = (   1.2968206   4.4781603  12.6268461  )
        33           O1  tau(  33) = (   5.2856119   1.4917077  12.6233973  )
        34           O1  tau(  34) = (   1.2888650   1.4770595  12.6372879  )
        35           O1  tau(  35) = (   3.2788258   2.9629383  13.9230881  )
        36           O1  tau(  36) = (   3.2980453   5.9500611  13.9147740  )
        37           O1  tau(  37) = (   6.5334376   5.9389224  14.6738689  )
        38           O1  tau(  38) = (   6.5776160   3.0156023  14.6540868  )
        39           Ti1 tau(  39) = (   3.2542760   2.9504115  15.7371360  )
        40           Ti1 tau(  40) = (   3.3062714   5.9309079  15.7116640  )
        41           Ti1 tau(  41) = (   6.5650095   1.2976281  16.1142359  )
        42           Ti1 tau(  42) = (   0.0079766   4.4268374  15.8391656  )
        43           O1  tau(  43) = (   2.0280489   1.4492115  16.0660627  )
        44           O1  tau(  44) = (   4.5116609   1.4624326  16.0993158  )
        45           O1  tau(  45) = (   2.0244938   4.4513709  16.0356871  )
        46           O1  tau(  46) = (   4.5113612   4.4342832  16.0730653  )
        47           O1  tau(  47) = (   6.5716746   5.9215154  17.2308814  )
        48           N1  tau(  48) = (   5.9800345   2.9984367  18.5879729  )
        49           H1  tau(  49) = (   4.9797160   2.8240766  18.4383897  )
        50           H1  tau(  50) = (   1.6245422   1.3425840  19.0439533  )
        51           H1  tau(  51) = (   6.0578502   3.9810051  18.8619266  )
        52           N1  tau(  52) = (   2.1403542   1.9713023  19.6616680  )
        53           C1  tau(  53) = (   2.8938676   2.8437551  19.2737185  )
        54           H1  tau(  54) = (   3.3792091   3.5764479  19.9483559  )
        55           O1  tau(  55) = (   6.5521836   2.9666373  17.2729174  )

     number of k points=    10  Fermi-Dirac smearing, width (Ry)=  0.0073
                       cart. coord. in units 2pi/alat
        k(    1) = (   0.0000000   0.0000000   0.0000000), wk =   0.1250000
        k(    2) = (   0.0000000   0.0419351   0.0000000), wk =   0.2500000
        k(    3) = (   0.0000000  -0.0838702   0.0000000), wk =   0.1250000
        k(    4) = (   0.0379955   0.0000049   0.0000000), wk =   0.2500000
        k(    5) = (   0.0379955   0.0419400   0.0000000), wk =   0.2500000
        k(    6) = (   0.0379955  -0.0838652   0.0000000), wk =   0.2500000
        k(    7) = (   0.0379955  -0.0419301   0.0000000), wk =   0.2500000
        k(    8) = (  -0.0759910  -0.0000099   0.0000000), wk =   0.1250000
        k(    9) = (  -0.0759910   0.0419252   0.0000000), wk =   0.2500000
        k(   10) = (  -0.0759910  -0.0838800   0.0000000), wk =   0.1250000

     Initial potential from superposition of free atoms

     starting charge  385.99915, renormalised to  402.00000

     negative rho (up, down):  1.542E-02 0.000E+00

     %%%%%%%%%%%%%%%%%%%%%%%%%%%%%%%%%%%%%%%%%%%%%%%%%%%%%%%%%%%%%%%%%%%%%%%%
     %                                                                      %
     % You are using vdW-DF, which was implemented by the Thonhauser group. %
     % Please cite the following two papers that made this development      %
     % possible and the two reviews that describe the various versions:     %
     %                                                                      %
     %   T. Thonhauser et al., PRL 115, 136402 (2015).                      %
     %   T. Thonhauser et al., PRB 76, 125112 (2007).                       %
     %   K. Berland et al., Rep. Prog. Phys. 78, 066501 (2015).             %
     %   D.C. Langreth et al., J. Phys.: Condens. Matter 21, 084203 (2009). %
     %                                                                      %
     %                                                                      %
     % If you are calculating the stress with vdW-DF, please also cite:     %
     %                                                                      %
     %   R. Sabatini et al., J. Phys.: Condens. Matter 24, 424209 (2012).   %
     %                                                                      %
     %%%%%%%%%%%%%%%%%%%%%%%%%%%%%%%%%%%%%%%%%%%%%%%%%%%%%%%%%%%%%%%%%%%%%%%%

     Adding external electric field

     Computed dipole along edir(3) :
        Dipole              -12.8629 Ry au,        -32.6941 Debye
        Dipole field         -0.0243 Ry au,

        Potential amp.        2.2502 Ry
        Total length         46.3494 bohr

     Starting wfcs are  304 atomic wfcs
  @ DRIVER MODE: Message from server: STATUS
  @ DRIVER MODE: Message from server: POSDATA
  @ DRIVER MODE: Reading and sharing cell
  @ DRIVER MODE: Reading and sharing positions
  @ DRIVER MODE: Received positions

     Self-consistent Calculation

     iteration #  1     ecut=    29.40 Ry     beta= 0.05
     Davidson diagonalization with overlap
     c_bands:  5 eigenvalues not converged
     c_bands:  2 eigenvalues not converged
     c_bands:  2 eigenvalues not converged
     c_bands:  5 eigenvalues not converged
     c_bands:  3 eigenvalues not converged
     c_bands:  3 eigenvalues not converged
     c_bands:  2 eigenvalues not converged
     c_bands:  3 eigenvalues not converged
     c_bands:  1 eigenvalues not converged
     ethr =  1.00E-05,  avg # of iterations = 21.5

[...]

     total energy              =   -2369.71393196 Ry
     estimated scf accuracy    <    6837.18364594 Ry

     iteration #  2     ecut=    29.40 Ry     beta= 0.05
     Davidson diagonalization with overlap
     ethr =  1.00E-02,  avg # of iterations = 24.0

[...]

     iteration # 74     ecut=    29.40 Ry     beta= 0.05
     Davidson diagonalization with overlap
     c_bands:  1 eigenvalues not converged
     c_bands:  1 eigenvalues not converged
     ethr =  4.78E-08,  avg # of iterations = 12.7

[...]

     total energy              =   -2972.58402731 Ry
     estimated scf accuracy    <       0.00000009 Ry

     iteration # 89     ecut=    29.40 Ry     beta= 0.05
     Davidson diagonalization with overlap
     ethr =  2.35E-11,  avg # of iterations =  2.2

     negative rho (up, down):  1.520E-02 0.000E+00

     Adding external electric field

     Computed dipole along edir(3) :
        Dipole                0.4878 Ry au,          1.2398 Debye
        Dipole field          0.0009 Ry au,

        Potential amp.       -0.0853 Ry
        Total length         46.3494 bohr

     End of self-consistent calculation

          k = 0.0000 0.0000 0.0000 ( 18029 PWs)   bands (ev):

   -55.8845 -55.8649 -55.8504 -55.8269 -55.7457 -55.7270 -55.7106 -55.6961
   -55.6853 -55.6621 -55.6611 -55.6271 -55.5174 -55.3051 -54.8635 -54.8295
   -32.4103 -32.3671 -32.2442 -32.1950 -32.1870 -32.1773 -32.1617 -32.1513
   -32.1279 -32.0955 -32.0512 -32.0398 -32.0368 -32.0359 -32.0190 -31.9982
   -31.9936 -31.9890 -31.9784 -31.9672 -31.9550 -31.9436 -31.9417 -31.8999
   -31.8928 -31.8876 -31.8855 -31.8760 -31.8668 -31.8612 -31.8570 -31.8368
   -31.8270 -31.8142 -31.8029 -31.7946 -31.7732 -31.7546 -31.7230 -31.5749
   -31.5368 -31.5192 -31.2707 -31.1822 -31.1598 -31.0874 -31.0009 -30.8898
   -18.6563 -16.6066 -16.3557 -16.1155 -16.0334 -15.9981 -15.9730 -15.8465
   -15.7235 -15.6123 -15.5185 -15.4428 -15.4234 -15.4212 -15.3822 -15.3730
   -15.3476 -15.3296 -15.3211 -15.3035 -15.2815 -15.2428 -15.2283 -15.2211
   -15.1308 -15.0533 -15.0190 -14.9749 -14.9671 -14.9424 -14.5586 -13.3658
   -13.2493 -12.2309  -8.1440  -5.3165  -4.9579  -4.5158  -3.9805  -3.8415
    -3.7905  -3.7234  -3.6831  -3.5040  -3.3948  -3.1393  -3.0655  -3.0453
    -3.0225  -2.9757  -2.8743  -2.7939  -2.6967  -2.6914  -2.6912  -2.6557
    -2.6460  -2.6286  -2.5890  -2.5667  -2.5019  -2.4278  -2.3938  -2.2850
    -2.2762  -2.2434  -2.1973  -2.1895  -2.1477  -2.1231  -2.1094  -2.1060
    -2.0917  -2.0521  -2.0512  -1.9114  -1.8729  -1.7958  -1.6783  -1.6042
    -1.4944  -1.4935  -1.3908  -1.3515  -1.3431  -1.3123  -1.2773  -1.2333
    -1.1732  -1.0719  -1.0427  -1.0145  -1.0088  -0.9057  -0.8465  -0.8222
    -0.7573  -0.6843  -0.6577  -0.6443  -0.6343  -0.6035  -0.3865  -0.3437
    -0.3245  -0.2911  -0.2457  -0.1919  -0.1529  -0.1063  -0.0672   0.0001
     0.0087   0.0606   0.0857   0.0975   0.1139   0.1247   0.1403   0.2364
     0.3283   0.3662   0.3880   0.4637   0.4680   0.6415   0.7055   0.7712
     0.8811   1.0848   1.1587   1.2427   1.3508   1.7299   1.7592   1.7757
     3.2445   3.2465   3.3371   3.3794   3.3877   3.4883   3.5382   3.7010
     3.7337   3.7655   3.8035

[...]

          k = 0.0380-0.0419 0.0000 ( 17876 PWs)   bands (ev):

[...]

          k =-0.0760-0.0000 0.0000 ( 17886 PWs)   bands (ev):

[...]

          k =-0.0760-0.0839 0.0000 ( 17948 PWs)   bands (ev):

   -55.8680 -55.8667 -55.8522 -55.8395 -55.7319 -55.7244 -55.7177 -55.6943
   -55.6801 -55.6777 -55.6467 -55.6417 -55.5161 -55.3063 -54.8465 -54.8464
   -32.2206 -32.2076 -32.1829 -32.1819 -32.1632 -32.1620 -32.1142 -32.1059
   -32.0881 -32.0790 -32.0418 -32.0327 -32.0117 -32.0039 -32.0010 -31.9993
   -31.9925 -31.9876 -31.9864 -31.9846 -31.9811 -31.9790 -31.9431 -31.9410
   -31.9354 -31.9198 -31.9128 -31.9033 -31.8805 -31.8794 -31.8787 -31.8770
   -31.8712 -31.8611 -31.8578 -31.8554 -31.8498 -31.7523 -31.7263 -31.6456
   -31.5663 -31.5265 -31.1726 -31.1725 -31.0835 -31.0833 -31.0442 -31.0442
   -18.6411 -16.0257 -16.0044 -15.9747 -15.8403 -15.8036 -15.7648 -15.7533
   -15.6773 -15.5964 -15.5753 -15.5705 -15.4912 -15.4724 -15.4589 -15.4217
   -15.4094 -15.3993 -15.3931 -15.3564 -15.3421 -15.3329 -15.3244 -15.3169
   -15.2404 -15.2039 -15.1991 -15.1865 -15.0745 -14.9499 -14.7356 -13.3512
   -13.3510 -12.2435  -8.1441  -5.3132  -4.9636  -4.4398  -3.3122  -3.2795
    -3.0985  -3.0147  -2.9992  -2.9811  -2.8737  -2.7952  -2.7886  -2.7538
    -2.7216  -2.7147  -2.7044  -2.7016  -2.6778  -2.6670  -2.6186  -2.5965
    -2.5837  -2.5566  -2.5456  -2.5418  -2.5108  -2.4975  -2.4603  -2.4394
    -2.4211  -2.4087  -2.3880  -2.3214  -2.2093  -2.1204  -2.0872  -2.0274
    -2.0171  -1.9866  -1.9533  -1.9386  -1.9229  -1.9057  -1.8665  -1.7417
    -1.6321  -1.5767  -1.5737  -1.5303  -1.4718  -1.4319  -1.3732  -1.3203
    -1.2875  -1.2744  -1.2259  -1.1657  -1.1453  -1.0700  -1.0275  -0.9977
    -0.9568  -0.9320  -0.8600  -0.8451  -0.8425  -0.8113  -0.7225  -0.7030
    -0.6471  -0.6405  -0.6134  -0.5576  -0.5394  -0.5082  -0.3848  -0.3615
    -0.2375  -0.1709  -0.0838   0.0662   0.0897   0.1850   0.2232   0.2499
     0.3084   0.4103   0.4288   0.4403   0.4585   0.4902   0.5185   0.6449
     0.6588   0.6931   0.8133   1.5224   1.5229   1.5948   1.5957   1.6067
     3.2310   3.5756   3.5820   3.6023   3.6297   3.7628   3.7648   3.7832
     3.7847   3.9183   3.9363

     the Fermi energy is     3.2478 ev

!    total energy              =   -2972.58403107 Ry
     estimated scf accuracy    <       0.00000007 Ry
     smearing contrib. (-TS)   =      -0.03084915 Ry
     internal energy E=F+TS    =   -2972.55318192 Ry

     The total energy is F=E-TS. E is the sum of the following terms:
     one-electron contribution =  -23745.24027148 Ry
     hartree contribution      =   11963.97803101 Ry
     xc contribution           =    -493.07886109 Ry
     ewald contribution        =    9301.78747069 Ry
     electric field correction =       0.00044897 Ry

     convergence has been achieved in  89 iterations

     Forces acting on atoms (cartesian axes, Ry/au):

     atom    1 type  1   force =     0.00004365   -0.00002729    0.10325526
     atom    2 type  1   force =     0.00004807   -0.00004490    0.10329223
     atom    3 type  2   force =     0.00007885   -0.00022685    0.09624203
     atom    4 type  2   force =    -0.00002042   -0.00029366    0.09603480
     atom    5 type  2   force =     0.00003382   -0.00063491   -0.17556681
     atom    6 type  2   force =    -0.00001994   -0.00025020   -0.17553161
     atom    7 type  1   force =    -0.07152112   -0.00014441   -0.02766629
     atom    8 type  1   force =    -0.07150842   -0.00012729   -0.02763487
     atom    9 type  1   force =     0.07136804    0.00028346   -0.02773219
     atom   10 type  1   force =     0.07135537    0.00031869   -0.02769344
     atom   11 type  1   force =    -0.00005597   -0.00145000    0.05288565
     atom   12 type  1   force =    -0.00002510   -0.00126051    0.05322958
     atom   13 type  1   force =     0.00000794   -0.00000694   -0.02441351
     atom   14 type  1   force =     0.00010073   -0.00023163   -0.02344191
     atom   15 type  2   force =     0.00002112    0.00048102   -0.01064746
     atom   16 type  2   force =     0.00014676    0.00348774   -0.00998248
     atom   17 type  2   force =     0.00069141    0.01062698    0.02593679
     atom   18 type  2   force =     0.00083413   -0.01139661    0.02624817
     atom   19 type  1   force =    -0.01197307   -0.00052601    0.00382438
     atom   20 type  1   force =    -0.01231707   -0.00009882    0.00373858
     atom   21 type  1   force =     0.01294303   -0.00008997    0.00216762
     atom   22 type  1   force =     0.01318912    0.00047751    0.00212590
     atom   23 type  1   force =    -0.00431665    0.00132894   -0.01317680
     atom   24 type  1   force =    -0.00236838    0.00054408   -0.02176447
     atom   25 type  1   force =     0.00023973   -0.00089962    0.00015683
     atom   26 type  1   force =     0.00001537    0.00043323    0.00080636
     atom   27 type  2   force =    -0.00041498    0.00041506   -0.00017722
     atom   28 type  2   force =    -0.00066513   -0.00052556   -0.00018232
     atom   29 type  2   force =     0.00099906    0.00001851   -0.00028355
     atom   30 type  2   force =     0.00038201   -0.00073077   -0.00027196
     atom   31 type  1   force =     0.00082856    0.00012292    0.00026895
     atom   32 type  1   force =    -0.00045867   -0.00001596    0.00015504
     atom   33 type  1   force =     0.00039760   -0.00036658    0.00001277
     atom   34 type  1   force =     0.00125823   -0.00021454    0.00002457
     atom   35 type  1   force =     0.00030509   -0.00029923    0.00023973
     atom   36 type  1   force =     0.00026829    0.00025308   -0.00029896
     atom   37 type  1   force =     0.00020418   -0.00008708   -0.00051422
     atom   38 type  1   force =     0.00020177    0.00015851   -0.00001366
     atom   39 type  2   force =    -0.00072861    0.00017735   -0.00066857
     atom   40 type  2   force =    -0.00069085    0.00007201    0.00023493
     atom   41 type  2   force =     0.00017747   -0.00025234   -0.00062809
     atom   42 type  2   force =     0.00070868   -0.00009374    0.00001167
     atom   43 type  1   force =     0.00024824    0.00024964   -0.00021046
     atom   44 type  1   force =     0.00031000   -0.00003815   -0.00006656
     atom   45 type  1   force =     0.00035275    0.00018624    0.00018945
     atom   46 type  1   force =     0.00012596    0.00045677    0.00028346
     atom   47 type  1   force =     0.00011996   -0.00005169    0.00002216
     atom   48 type  3   force =    -0.00080041    0.00003282   -0.00090850
     atom   49 type  4   force =     0.00100569    0.00050774    0.00017744
     atom   50 type  4   force =    -0.00043138   -0.00129136    0.00027254
     atom   51 type  4   force =    -0.00031219    0.00071624   -0.00021342
     atom   52 type  3   force =    -0.01456736   -0.01675967    0.00489439
     atom   53 type  5   force =     0.01738395    0.02292131   -0.00100203
     atom   54 type  4   force =    -0.00318699   -0.00560552   -0.00547444
     atom   55 type  1   force =    -0.00001191   -0.00022804   -0.00056546

     Total force =     0.369222     Total SCF correction =     0.000695
  @ DRIVER MODE: Message from server: STATUS
  @ DRIVER MODE: Message from server: GETFORCE
  @ DRIVER MODE: Returning v,forces,stress,ensemble

     Writing output data file ./calc.save/
  @ DRIVER MODE: Message from server: EXIT
  @ DRIVE MODE: Exiting

     General routines

     Parallel routines

   This run was terminated on:   1:56:52  27Sep2021

   JOB DONE.