     Program PWSCF v.6.7GPU starts on  8Sep2021 at 21:51:39

     R & G space division:  proc/nbgrp/npool/nimage =      10
     Reading input from /storage/home/hcoda1/3/ntian30/research/carbon/CxH_vib/CH_calc/ads_slab/CHOH_a/out_0000/pw.inp
Warning: card &CELL ignored
Warning: card   CELL_DYNAMICS='IPI', ignored
Warning: card / ignored

     Current dimensions of program PWSCF are:
     Max number of different atomic species (ntypx) = 10
     Max number of k-points (npk) =  40000
     Max angular momentum in pseudopotentials (lmaxx) =  3
     Presently no symmetry can be used with electric field

     Message from routine cell_base_init:
     DEPRECATED: use true lattice parameter, not A to a.u. conversion factor

     IMPORTANT: XC functional enforced from input :
     Exchange-correlation= BEEF-VDW
                           (   1   4  43  14   2   0   0)
     Any further DFT definition will be discarded
     Please, verify this is what you really want

  @ DRIVER MODE: Connecting to
 qe_1139763_2767384.sched-torque.pace.gatech.eduebu35emf_scratch
  using UNIX socket
  @ DRIVER MODE: Message from server: STATUS
  @ DRIVER MODE: Message from server: INIT
  @ DRIVER MODE: Receiving replica           0          -1
  @ DRIVER MODE: Receiving encoded integer          25
  @ DRIVER MODE:  SCF:  T  FORCE:  T  STRESS:  F  VC:  F  ENSEMBLE:  F
  @ DRIVER MODE:  SCF:  T  FORCE:  T  STRESS:  F  VC:  F  ENSEMBLE:  F

     Using Slab Decomposition

     bravais-lattice index     =            0
     lattice parameter (alat)  =       1.8897  a.u.
     unit-cell volume          =    6658.9804 (a.u.)^3
     number of atoms/cell      =           51
     number of atomic types    =            4
     number of electrons       =       390.00
     number of Kohn-Sham states=          205
     kinetic-energy cutoff     =      29.3995  Ry
     charge density cutoff     =     293.9946  Ry
     scf convergence threshold =      7.3E-08
     mixing beta               =       0.0500
     number of iterations used =            8  plain     mixing
     Exchange-correlation= BEEF-VDW
                           (   1   4  43  14   2   0   0)

     celldm(1)=   1.889726  celldm(2)=   0.000000  celldm(3)=   0.000000
     celldm(4)=   0.000000  celldm(5)=   0.000000  celldm(6)=   0.000000

     crystal axes: (cart. coord. in units of alat)
               a(1) = (   6.579727   0.000000   0.000000 )
               a(2) = (  -0.000775   5.961596   0.000000 )
               a(3) = (   0.000000   0.000000  25.155947 )

     reciprocal axes: (cart. coord. in units 2 pi/alat)
               b(1) = (  0.151982  0.000020  0.000000 )
               b(2) = (  0.000000  0.167740  0.000000 )
               b(3) = (  0.000000  0.000000  0.039752 )

     PseudoPot. # 1 for Ti read from file:
     /storage/coda1/p-amedford6/0/shared/rich_project_chbe-medford/medford-share/data/pseudos_module/espresso/nninc/pbe/van/Ti.UPF
     MD5 check sum: 8e4df49b7f0d34bbd5052bf3f5ea0213
     Pseudo is Ultrasoft, Zval = 12.0
     Generated by new atomic code, or converted to UPF format
     Using radial grid of  851 points,  6 beta functions with:
                l(1) =   0
                l(2) =   0
                l(3) =   1
                l(4) =   1
                l(5) =   2
                l(6) =   2
     Q(r) pseudized with  8 coefficients,  rinner =    1.000   1.000   1.000
                                                       1.000   1.000

     PseudoPot. # 2 for O  read from file:
     /storage/coda1/p-amedford6/0/shared/rich_project_chbe-medford/medford-share/data/pseudos_module/espresso/nninc/pbe/van/O.UPF
     MD5 check sum: 78c19812648e8988a0fe644b0f25305e
     Pseudo is Ultrasoft, Zval =  6.0
     Generated by new atomic code, or converted to UPF format
     Using radial grid of  737 points,  4 beta functions with:
                l(1) =   0
                l(2) =   0
                l(3) =   1
                l(4) =   1
     Q(r) pseudized with  8 coefficients,  rinner =    0.800   0.800   0.800

     PseudoPot. # 3 for C  read from file:
     /storage/coda1/p-amedford6/0/shared/rich_project_chbe-medford/medford-share/data/pseudos_module/espresso/nninc/pbe/van/C.UPF
     MD5 check sum: 1a69bf6b8db32088f5b2163dbdb77a27
     Pseudo is Ultrasoft, Zval =  4.0
     Generated by new atomic code, or converted to UPF format
     Using radial grid of  721 points,  4 beta functions with:
                l(1) =   0
                l(2) =   0
                l(3) =   1
                l(4) =   1
     Q(r) pseudized with  8 coefficients,  rinner =    0.800   0.800   0.800

     PseudoPot. # 4 for H  read from file:
     /storage/coda1/p-amedford6/0/shared/rich_project_chbe-medford/medford-share/data/pseudos_module/espresso/nninc/pbe/van/H.UPF
     MD5 check sum: b5ee9d7bfd3a09ee7748110bda690ff7
     Pseudo is Ultrasoft, Zval =  1.0
     Generated by new atomic code, or converted to UPF format
     Using radial grid of  615 points,  1 beta functions with:
                l(1) =   0
     Q(r) pseudized with  8 coefficients,  rinner =    0.800

     atomic species   valence    mass     pseudopotential
        Ti1           12.00    47.86700     Ti( 1.00)
        O1             6.00    15.99900     O ( 1.00)
        C1             4.00    12.01100     C ( 1.00)
        H1             1.00     1.00800     H ( 1.00)

     No symmetry found

   Cartesian axes

     site n.     atom                  positions (alat units)
         1           Ti1 tau(   1) = (   0.0004258   2.9801865   6.0000000  )
         2           Ti1 tau(   2) = (   3.2906075   1.4906267   6.0002472  )
         3           O1  tau(   3) = (   0.0006271   0.0005054   7.9858123  )
         4           O1  tau(   4) = (   3.2906025   0.0005020   7.3038282  )
         5           O1  tau(   5) = (   4.5942328   1.4918067   9.2879030  )
         6           O1  tau(   6) = (   1.9868534   1.4903216   9.2879459  )
         7           Ti1 tau(   7) = (   3.3189338   3.0017716   9.1565052  )
         8           Ti1 tau(   8) = (   0.0346667   1.4969860   9.2640968  )
         9           O1  tau(   9) = (   3.3073125   0.0088267  11.3792119  )
        10           O1  tau(  10) = (   0.0062670   0.0029933  10.6068016  )
        11           O1  tau(  11) = (   1.3062705   1.5014067  12.6543524  )
        12           O1  tau(  12) = (   5.3087205   1.4988994  12.6673500  )
        13           Ti1 tau(  13) = (   0.0213988   2.9921491  12.5260324  )
        14           Ti1 tau(  14) = (   3.3097092   1.5009918  12.5223738  )
        15           O1  tau(  15) = (   0.0424616   0.0075488  14.6717754  )
        16           O1  tau(  16) = (   3.3005110   0.0073529  14.0105724  )
        17           O1  tau(  17) = (   4.5952227   1.5195780  16.1612446  )
        18           O1  tau(  18) = (   2.0693493   1.5297702  16.1935428  )
        19           Ti1 tau(  19) = (   3.3356741   2.9939547  15.7500326  )
        20           Ti1 tau(  20) = (   0.0335386   1.3679084  15.9371528  )
        21           O1  tau(  21) = (   3.2904802   0.0005063   4.7018136  )
        22           O1  tau(  22) = (   0.0353059   0.0153350  17.1923242  )
        23           O1  tau(  23) = (   1.3043587   1.4918075   6.0039043  )
        24           O1  tau(  24) = (   5.2767064   1.4903225   6.0039473  )
        25           Ti1 tau(  25) = (   0.0000382   5.9609847   6.0000000  )
        26           Ti1 tau(  26) = (   3.2902200   4.4714249   6.0002472  )
        27           O1  tau(  27) = (   0.0002396   2.9813036   7.9858123  )
        28           O1  tau(  28) = (   3.2902150   2.9813002   7.3038282  )
        29           O1  tau(  29) = (   4.5938453   4.4726049   9.2879030  )
        30           O1  tau(  30) = (   1.9864658   4.4711199   9.2879459  )
        31           Ti1 tau(  31) = (   3.3154861   0.0215470   9.1550440  )
        32           Ti1 tau(  32) = (   0.0344056   4.4691587   9.2644328  )
        33           O1  tau(  33) = (   3.3078462   2.9871797  11.3713074  )
        34           O1  tau(  34) = (   0.0058747   2.9832696  10.6292865  )
        35           O1  tau(  35) = (   1.3058732   4.4754499  12.6504552  )
        36           O1  tau(  36) = (   5.3084772   4.4777640  12.6640448  )
        37           Ti1 tau(  37) = (   0.0171148   0.0128214  12.4806662  )
        38           Ti1 tau(  38) = (   3.3088916   4.4784539  12.5193958  )
        39           O1  tau(  39) = (   0.0434956   2.9958159  14.9132474  )
        40           O1  tau(  40) = (   3.3089563   2.9921379  13.9620076  )
        41           O1  tau(  41) = (   4.5951427   4.4669482  16.1652122  )
        42           O1  tau(  42) = (   2.0688924   4.4538916  16.2081353  )
        43           Ti1 tau(  43) = (   3.3160161   0.0142155  15.8078792  )
        44           Ti1 tau(  44) = (   0.0219142   4.6036306  15.9252304  )
        45           O1  tau(  45) = (   3.2900926   2.9813045   4.7018136  )
        46           O1  tau(  46) = (   1.3039711   4.4726057   6.0039043  )
        47           O1  tau(  47) = (   5.2763189   4.4711207   6.0039473  )
        48           C1  tau(  48) = (   6.0523360   2.9466228  19.1488008  )
        49           O1  tau(  49) = (   0.1918362   3.0047394  18.0201065  )
        50           H1  tau(  50) = (   5.0152694   2.8496317  18.7632286  )
        51           H1  tau(  51) = (   1.1393832   3.0938607  18.2382470  )

     number of k points=    10  Fermi-Dirac smearing, width (Ry)=  0.0073
                       cart. coord. in units 2pi/alat
        k(    1) = (   0.0000000   0.0000000   0.0000000), wk =   0.1250000
        k(    2) = (   0.0000000   0.0419351   0.0000000), wk =   0.2500000
        k(    3) = (   0.0000000  -0.0838702   0.0000000), wk =   0.1250000
        k(    4) = (   0.0379955   0.0000049   0.0000000), wk =   0.2500000
        k(    5) = (   0.0379955   0.0419400   0.0000000), wk =   0.2500000
        k(    6) = (   0.0379955  -0.0838652   0.0000000), wk =   0.2500000
        k(    7) = (   0.0379955  -0.0419301   0.0000000), wk =   0.2500000
        k(    8) = (  -0.0759910  -0.0000099   0.0000000), wk =   0.1250000
        k(    9) = (  -0.0759910   0.0419252   0.0000000), wk =   0.2500000
        k(   10) = (  -0.0759910  -0.0838800   0.0000000), wk =   0.1250000

     Initial potential from superposition of free atoms

     starting charge  373.99919, renormalised to  390.00000

     negative rho (up, down):  1.784E-02 0.000E+00

     %%%%%%%%%%%%%%%%%%%%%%%%%%%%%%%%%%%%%%%%%%%%%%%%%%%%%%%%%%%%%%%%%%%%%%%%
     %                                                                      %
     % You are using vdW-DF, which was implemented by the Thonhauser group. %
     % Please cite the following two papers that made this development      %
     % possible and the two reviews that describe the various versions:     %
     %                                                                      %
     %   T. Thonhauser et al., PRL 115, 136402 (2015).                      %
     %   T. Thonhauser et al., PRB 76, 125112 (2007).                       %
     %   K. Berland et al., Rep. Prog. Phys. 78, 066501 (2015).             %
     %   D.C. Langreth et al., J. Phys.: Condens. Matter 21, 084203 (2009). %
     %                                                                      %
     %                                                                      %
     % If you are calculating the stress with vdW-DF, please also cite:     %
     %                                                                      %
     %   R. Sabatini et al., J. Phys.: Condens. Matter 24, 424209 (2012).   %
     %                                                                      %
     %%%%%%%%%%%%%%%%%%%%%%%%%%%%%%%%%%%%%%%%%%%%%%%%%%%%%%%%%%%%%%%%%%%%%%%%

     Adding external electric field

     Computed dipole along edir(3) :
        Dipole               -6.1554 Ry au,        -15.6454 Debye
        Dipole field         -0.0116 Ry au,

        Potential amp.        1.0768 Ry
        Total length         46.3494 bohr

     Starting wfcs are  294 atomic wfcs
  @ DRIVER MODE: Message from server: STATUS
  @ DRIVER MODE: Message from server: POSDATA
  @ DRIVER MODE: Reading and sharing cell
  @ DRIVER MODE: Reading and sharing positions
  @ DRIVER MODE: Received positions

     Self-consistent Calculation

     iteration #  1     ecut=    29.40 Ry     beta= 0.05
     Davidson diagonalization with overlap
     ethr =  1.00E-02,  avg # of iterations =  2.1

[...]

     total energy              =   -2759.49020776 Ry
     estimated scf accuracy    <    1878.42652426 Ry

     iteration #  2     ecut=    29.40 Ry     beta= 0.05
     Davidson diagonalization with overlap
     c_bands:  1 eigenvalues not converged
     ethr =  1.00E-02,  avg # of iterations = 18.8

[...]

     iteration # 86     ecut=    29.40 Ry     beta= 0.05
     Davidson diagonalization with overlap
     c_bands:  1 eigenvalues not converged
     c_bands:  1 eigenvalues not converged
     c_bands:  1 eigenvalues not converged
     ethr =  5.22E-10,  avg # of iterations = 16.9

[...]

     total energy              =   -2929.94106859 Ry
     estimated scf accuracy    <       0.00000012 Ry

     iteration # 92     ecut=    29.40 Ry     beta= 0.05
     Davidson diagonalization with overlap
     ethr =  3.19E-11,  avg # of iterations = 11.7

     negative rho (up, down):  1.676E-02 0.000E+00

     Adding external electric field

     Computed dipole along edir(3) :
        Dipole                0.3830 Ry au,          0.9735 Debye
        Dipole field          0.0007 Ry au,

        Potential amp.       -0.0670 Ry
        Total length         46.3494 bohr

     End of self-consistent calculation

          k = 0.0000 0.0000 0.0000 ( 18029 PWs)   bands (ev):

   -56.0183 -55.9822 -55.9812 -55.9469 -55.9097 -55.8992 -55.8649 -55.8580
   -55.8552 -55.8209 -55.8074 -55.8062 -55.8002 -55.7663 -55.0783 -55.0442
   -32.5874 -32.5159 -32.4789 -32.3842 -32.3344 -32.3310 -32.3203 -32.3111
   -32.2704 -32.2642 -32.2269 -32.2250 -32.2167 -32.1930 -32.1873 -32.1715
   -32.1545 -32.1535 -32.1457 -32.1359 -32.1319 -32.1254 -32.1119 -32.1079
   -32.0996 -32.0836 -32.0763 -32.0376 -32.0326 -32.0247 -32.0213 -32.0086
   -32.0042 -31.9994 -31.9951 -31.9858 -31.9721 -31.9547 -31.9371 -31.9344
   -31.9129 -31.8842 -31.4907 -31.3876 -31.3661 -31.3070 -31.2206 -31.1095
   -21.6084 -16.8508 -16.5997 -16.4627 -16.3582 -16.2399 -16.1230 -16.0608
   -15.9625 -15.8570 -15.7432 -15.6956 -15.6718 -15.6700 -15.6503 -15.6410
   -15.6334 -15.5743 -15.5470 -15.5249 -15.5107 -15.5087 -15.4631 -15.4428
   -15.4098 -15.3751 -15.2502 -15.1798 -15.1220 -14.7888 -13.5792 -13.4596
   -10.7297  -5.9931  -5.0435  -4.3331  -4.1788  -4.0290  -3.9533  -3.9435
    -3.8972  -3.7797  -3.6044  -3.4492  -3.4418  -3.3148  -3.2715  -3.2254
    -3.1826  -3.0539  -2.9996  -2.9870  -2.9126  -2.9083  -2.8939  -2.8833
    -2.7964  -2.7851  -2.7679  -2.7555  -2.6481  -2.6066  -2.4868  -2.4543
    -2.4072  -2.3672  -2.3589  -2.3450  -2.3397  -2.2957  -2.2839  -2.2602
    -2.2056  -2.1489  -2.0535  -1.9232  -1.9143  -1.7967  -1.7635  -1.5974
    -1.5822  -1.5455  -1.5195  -1.4691  -1.4252  -1.4190  -1.3751  -1.2704
    -1.1914  -1.1394  -1.0626  -1.0272  -0.9595  -0.9192  -0.8441  -0.8118
    -0.8077  -0.7785  -0.6807  -0.6114  -0.5516  -0.5108  -0.4932  -0.4695
    -0.3853  -0.3591  -0.2628  -0.2503  -0.2102  -0.2012  -0.0896  -0.0813
    -0.0739  -0.0571  -0.0490   0.0387   0.1129   0.1266   0.1546   0.3094
     0.5263   0.5380   0.5781   0.8341   0.9220   0.9476   1.1067   1.2856
     1.5336   1.5880   3.0779   3.1455   3.1835   3.2053   3.2285   3.2862
     3.5680   3.5833   3.5900   3.6063   3.6331

[...]

          k = 0.0380-0.0419 0.0000 ( 17876 PWs)   bands (ev):

[...]

          k =-0.0760-0.0000 0.0000 ( 17886 PWs)   bands (ev):

[...]

          k =-0.0760-0.0839 0.0000 ( 17948 PWs)   bands (ev):

   -56.0013 -55.9990 -55.9653 -55.9626 -55.9066 -55.8899 -55.8673 -55.8582
   -55.8398 -55.8360 -55.8140 -55.8090 -55.7838 -55.7827 -55.0612 -55.0612
   -32.4408 -32.3920 -32.3892 -32.3073 -32.2949 -32.2925 -32.2737 -32.2582
   -32.2531 -32.2287 -32.2195 -32.2167 -32.2091 -32.1674 -32.1569 -32.1560
   -32.1544 -32.1503 -32.1455 -32.1430 -32.1379 -32.1307 -32.1112 -32.0999
   -32.0996 -32.0979 -32.0936 -32.0900 -32.0859 -32.0839 -32.0821 -32.0586
   -32.0381 -32.0380 -32.0365 -32.0198 -32.0110 -32.0099 -32.0004 -31.9780
   -31.9693 -31.9684 -31.3786 -31.3786 -31.3034 -31.3032 -31.2639 -31.2638
   -21.6075 -16.4710 -16.2555 -16.1931 -16.0386 -16.0338 -16.0034 -15.9757
   -15.8463 -15.8237 -15.8099 -15.7897 -15.7656 -15.7485 -15.7411 -15.7259
   -15.6204 -15.6133 -15.6025 -15.5965 -15.5372 -15.5336 -15.5236 -15.5105
   -15.4779 -15.4752 -15.4481 -15.4447 -15.2975 -15.1600 -13.5608 -13.5604
   -10.7330  -5.9958  -5.0205  -4.2827  -3.5321  -3.5305  -3.4520  -3.2579
    -3.2199  -3.1860  -3.1740  -3.0984  -3.0230  -3.0154  -3.0084  -2.9263
    -2.9198  -2.9169  -2.9146  -2.8527  -2.8460  -2.8089  -2.8043  -2.7543
    -2.7239  -2.7189  -2.7099  -2.6863  -2.6834  -2.6679  -2.6496  -2.6295
    -2.6172  -2.5343  -2.4891  -2.3890  -2.3575  -2.3265  -2.2501  -2.2411
    -2.1572  -2.1276  -2.1072  -2.0693  -2.0245  -2.0077  -1.8485  -1.8154
    -1.8107  -1.7479  -1.6783  -1.6537  -1.6226  -1.5671  -1.5037  -1.4949
    -1.4057  -1.3499  -1.3467  -1.2221  -1.2117  -1.1597  -1.0534  -1.0213
    -1.0129  -1.0089  -1.0003  -0.9373  -0.9265  -0.8617  -0.8117  -0.7640
    -0.7463  -0.7338  -0.5385  -0.4969  -0.4426  -0.3420  -0.3019  -0.1104
    -0.0962  -0.0816   0.0016   0.0392   0.0547   0.1277   0.2477   0.2523
     0.3040   0.3602   0.4026   0.4097   0.4268   1.2941   1.2985   1.2994
     1.4035   1.4054   3.2375   3.2953   3.3228   3.4005   3.4760   3.4992
     3.5867   3.6048   3.6328   3.6386   3.7349

     the Fermi energy is     3.1372 ev

!    total energy              =   -2929.94107090 Ry
     estimated scf accuracy    <       0.00000007 Ry
     smearing contrib. (-TS)   =      -0.03724091 Ry
     internal energy E=F+TS    =   -2929.90382999 Ry

     The total energy is F=E-TS. E is the sum of the following terms:
     one-electron contribution =  -24334.63740932 Ry
     hartree contribution      =   12249.92314997 Ry
     xc contribution           =    -481.17970663 Ry
     ewald contribution        =    9635.98985917 Ry
     electric field correction =       0.00027682 Ry

     convergence has been achieved in  92 iterations

     Forces acting on atoms (cartesian axes, Ry/au):

     atom    1 type  1   force =    -0.00041283   -0.00001306    0.09182859
     atom    2 type  1   force =    -0.00028649    0.00032393   -0.18374958
     atom    3 type  2   force =     0.00040974    0.00008704   -0.02349687
     atom    4 type  2   force =     0.00072405    0.00037663    0.05120755
     atom    5 type  2   force =    -0.01349762    0.00018781    0.00468408
     atom    6 type  2   force =     0.01514521   -0.00002689    0.00540996
     atom    7 type  1   force =    -0.00054103    0.00015935   -0.00020950
     atom    8 type  1   force =     0.00025616    0.00018184    0.00006498
     atom    9 type  2   force =     0.00004348   -0.00004299   -0.00017882
     atom   10 type  2   force =    -0.00021285    0.00005600    0.00039325
     atom   11 type  2   force =     0.00004508   -0.00013654   -0.00013185
     atom   12 type  2   force =     0.00010786   -0.00000703   -0.00007618
     atom   13 type  1   force =    -0.00023484    0.00083515   -0.00044571
     atom   14 type  1   force =     0.00015723    0.00000382    0.00017116
     atom   15 type  2   force =     0.00000916    0.00033357    0.00036150
     atom   16 type  2   force =    -0.00000442    0.00008921    0.00055989
     atom   17 type  2   force =    -0.00026228   -0.00026194    0.00014178
     atom   18 type  2   force =    -0.00031975   -0.00035981    0.00033325
     atom   19 type  1   force =    -0.00009554    0.00011832    0.00019862
     atom   20 type  1   force =    -0.00037843    0.00034057    0.00017918
     atom   21 type  2   force =    -0.00007982    0.00001349    0.10505883
     atom   22 type  2   force =    -0.00006693   -0.00036725   -0.00003193
     atom   23 type  2   force =    -0.06790236   -0.00014483   -0.02655357
     atom   24 type  2   force =     0.06762158    0.00029787   -0.02663607
     atom   25 type  1   force =    -0.00034674   -0.00000680    0.09417871
     atom   26 type  1   force =    -0.00029202   -0.00041667   -0.18376329
     atom   27 type  2   force =     0.00036106    0.00013385   -0.02227538
     atom   28 type  2   force =     0.00077681    0.00030359    0.05092162
     atom   29 type  2   force =    -0.01348919    0.00044547    0.00480837
     atom   30 type  2   force =     0.01515776    0.00023541    0.00551397
     atom   31 type  1   force =    -0.00061105   -0.00030304   -0.00029034
     atom   32 type  1   force =     0.00026594   -0.00006675    0.00004089
     atom   33 type  2   force =     0.00000703    0.00003115   -0.00007026
     atom   34 type  2   force =    -0.00007372   -0.00006405    0.00009662
     atom   35 type  2   force =     0.00009275    0.00007179    0.00011172
     atom   36 type  2   force =     0.00005620   -0.00006386    0.00014434
     atom   37 type  1   force =    -0.00024325   -0.00076082   -0.00021331
     atom   38 type  1   force =     0.00020859    0.00007620    0.00070678
     atom   39 type  2   force =    -0.00006235   -0.00065040    0.00047545
     atom   40 type  2   force =    -0.00037593   -0.00017551   -0.00014584
     atom   41 type  2   force =    -0.00015296    0.00010825   -0.00011842
     atom   42 type  2   force =    -0.00035686    0.00002170    0.00018187
     atom   43 type  1   force =     0.00012907   -0.00018860   -0.00039686
     atom   44 type  1   force =    -0.00044553   -0.00015827    0.00003524
     atom   45 type  2   force =    -0.00004562    0.00002140    0.10504175
     atom   46 type  2   force =    -0.06790333   -0.00050851   -0.02656979
     atom   47 type  2   force =     0.06762663   -0.00006213   -0.02664924
     atom   48 type  3   force =     0.00019268   -0.00003353    0.00032717
     atom   49 type  2   force =    -0.00125275   -0.00009296   -0.00092518
     atom   50 type  4   force =    -0.00028708    0.00001341   -0.00076578
     atom   51 type  4   force =     0.00083948    0.00004541    0.00051667

     Total force =     0.367845     Total SCF correction =     0.000696
  @ DRIVER MODE: Message from server: STATUS
  @ DRIVER MODE: Message from server: GETFORCE
  @ DRIVER MODE: Returning v,forces,stress,ensemble

     Writing output data file ./calc.save/
  @ DRIVER MODE: Message from server: EXIT
  @ DRIVE MODE: Exiting

     General routines

     Parallel routines

   This run was terminated on:  22:16:21   8Sep2021

   JOB DONE.