     Program PWSCF v.6.7GPU starts on  9Sep2021 at  1:37:55

     R & G space division:  proc/nbgrp/npool/nimage =      10
     Reading input from /storage/home/hcoda1/3/ntian30/research/carbon/CxH_vib/CH_calc/ads_slab/CHN_a/out_0013/pw.inp
Warning: card &CELL ignored
Warning: card   CELL_DYNAMICS='IPI', ignored
Warning: card / ignored

     Current dimensions of program PWSCF are:
     Max number of different atomic species (ntypx) = 10
     Max number of k-points (npk) =  40000
     Max angular momentum in pseudopotentials (lmaxx) =  3
     Presently no symmetry can be used with electric field

     Message from routine cell_base_init:
     DEPRECATED: use true lattice parameter, not A to a.u. conversion factor

     IMPORTANT: XC functional enforced from input :
     Exchange-correlation= BEEF-VDW
                           (   1   4  43  14   2   0   0)
     Any further DFT definition will be discarded
     Please, verify this is what you really want

  @ DRIVER MODE: Connecting to
 qe_1139763_2767383.sched-torque.pace.gatech.edu1sej3vkb_scratch
  using UNIX socket
  @ DRIVER MODE: Message from server: STATUS
  @ DRIVER MODE: Message from server: INIT
  @ DRIVER MODE: Receiving replica           0          -1
  @ DRIVER MODE: Receiving encoded integer          25
  @ DRIVER MODE:  SCF:  T  FORCE:  T  STRESS:  F  VC:  F  ENSEMBLE:  F
  @ DRIVER MODE:  SCF:  T  FORCE:  T  STRESS:  F  VC:  F  ENSEMBLE:  F

     Using Slab Decomposition

     bravais-lattice index     =            0
     lattice parameter (alat)  =       1.8897  a.u.
     unit-cell volume          =    6658.9804 (a.u.)^3
     number of atoms/cell      =           50
     number of atomic types    =            5
     number of electrons       =       388.00
     number of Kohn-Sham states=          204
     kinetic-energy cutoff     =      29.3995  Ry
     charge density cutoff     =     293.9946  Ry
     scf convergence threshold =      7.3E-08
     mixing beta               =       0.0500
     number of iterations used =            8  plain     mixing
     Exchange-correlation= BEEF-VDW
                           (   1   4  43  14   2   0   0)

     celldm(1)=   1.889726  celldm(2)=   0.000000  celldm(3)=   0.000000
     celldm(4)=   0.000000  celldm(5)=   0.000000  celldm(6)=   0.000000

     crystal axes: (cart. coord. in units of alat)
               a(1) = (   6.579727   0.000000   0.000000 )
               a(2) = (  -0.000775   5.961596   0.000000 )
               a(3) = (   0.000000   0.000000  25.155947 )

     reciprocal axes: (cart. coord. in units 2 pi/alat)
               b(1) = (  0.151982  0.000020  0.000000 )
               b(2) = (  0.000000  0.167740  0.000000 )
               b(3) = (  0.000000  0.000000  0.039752 )

     PseudoPot. # 1 for Ti read from file:
     /storage/coda1/p-amedford6/0/shared/rich_project_chbe-medford/medford-share/data/pseudos_module/espresso/nninc/pbe/van/Ti.UPF
     MD5 check sum: 8e4df49b7f0d34bbd5052bf3f5ea0213
     Pseudo is Ultrasoft, Zval = 12.0
     Generated by new atomic code, or converted to UPF format
     Using radial grid of  851 points,  6 beta functions with:
                l(1) =   0
                l(2) =   0
                l(3) =   1
                l(4) =   1
                l(5) =   2
                l(6) =   2
     Q(r) pseudized with  8 coefficients,  rinner =    1.000   1.000   1.000
                                                       1.000   1.000

     PseudoPot. # 2 for O  read from file:
     /storage/coda1/p-amedford6/0/shared/rich_project_chbe-medford/medford-share/data/pseudos_module/espresso/nninc/pbe/van/O.UPF
     MD5 check sum: 78c19812648e8988a0fe644b0f25305e
     Pseudo is Ultrasoft, Zval =  6.0
     Generated by new atomic code, or converted to UPF format
     Using radial grid of  737 points,  4 beta functions with:
                l(1) =   0
                l(2) =   0
                l(3) =   1
                l(4) =   1
     Q(r) pseudized with  8 coefficients,  rinner =    0.800   0.800   0.800

     PseudoPot. # 3 for N  read from file:
     /storage/coda1/p-amedford6/0/shared/rich_project_chbe-medford/medford-share/data/pseudos_module/espresso/nninc/pbe/van/N.UPF
     MD5 check sum: 90d10febe142ad51ac9d5be1deb811c4
     Pseudo is Ultrasoft, Zval =  5.0
     Generated by new atomic code, or converted to UPF format
     Using radial grid of  729 points,  4 beta functions with:
                l(1) =   0
                l(2) =   0
                l(3) =   1
                l(4) =   1
     Q(r) pseudized with  8 coefficients,  rinner =    0.800   0.800   0.800

     PseudoPot. # 4 for C  read from file:
     /storage/coda1/p-amedford6/0/shared/rich_project_chbe-medford/medford-share/data/pseudos_module/espresso/nninc/pbe/van/C.UPF
     MD5 check sum: 1a69bf6b8db32088f5b2163dbdb77a27
     Pseudo is Ultrasoft, Zval =  4.0
     Generated by new atomic code, or converted to UPF format
     Using radial grid of  721 points,  4 beta functions with:
                l(1) =   0
                l(2) =   0
                l(3) =   1
                l(4) =   1
     Q(r) pseudized with  8 coefficients,  rinner =    0.800   0.800   0.800

     PseudoPot. # 5 for H  read from file:
     /storage/coda1/p-amedford6/0/shared/rich_project_chbe-medford/medford-share/data/pseudos_module/espresso/nninc/pbe/van/H.UPF
     MD5 check sum: b5ee9d7bfd3a09ee7748110bda690ff7
     Pseudo is Ultrasoft, Zval =  1.0
     Generated by new atomic code, or converted to UPF format
     Using radial grid of  615 points,  1 beta functions with:
                l(1) =   0
     Q(r) pseudized with  8 coefficients,  rinner =    0.800

     atomic species   valence    mass     pseudopotential
        Ti1           12.00    47.86700     Ti( 1.00)
        O1             6.00    15.99900     O ( 1.00)
        N1             5.00    14.00700     N ( 1.00)
        C1             4.00    12.01100     C ( 1.00)
        H1             1.00     1.00800     H ( 1.00)

     No symmetry found

   Cartesian axes

     site n.     atom                  positions (alat units)
         1           Ti1 tau(   1) = (   0.0004258   2.9801865   6.0000000  )
         2           Ti1 tau(   2) = (   3.2906075   1.4906267   6.0002472  )
         3           O1  tau(   3) = (   0.0006271   0.0005054   7.9858123  )
         4           O1  tau(   4) = (   3.2906025   0.0005020   7.3038282  )
         5           O1  tau(   5) = (   4.5942328   1.4918067   9.2879030  )
         6           O1  tau(   6) = (   1.9868534   1.4903216   9.2879459  )
         7           Ti1 tau(   7) = (   3.2907910   2.8959150   9.1758416  )
         8           Ti1 tau(   8) = (   0.0015273   1.4827037   9.2680791  )
         9           O1  tau(   9) = (   3.3014052   0.0114069  11.3737528  )
        10           O1  tau(  10) = (   0.0116148   5.9584955  10.6183126  )
        11           O1  tau(  11) = (   1.3012034   1.4994444  12.6801950  )
        12           O1  tau(  12) = (   5.3042999   1.4981222  12.6788946  )
        13           Ti1 tau(  13) = (   0.0222102   2.9879630  12.5217794  )
        14           Ti1 tau(  14) = (   3.3166014   1.4969944  12.5290657  )
        15           O1  tau(  15) = (   0.0131148   5.9114811  14.6787674  )
        16           O1  tau(  16) = (   3.3052116   5.9585997  13.9918696  )
        17           O1  tau(  17) = (   4.5573354   1.5165695  16.1403462  )
        18           O1  tau(  18) = (   2.0429717   1.5180214  16.1331141  )
        19           Ti1 tau(  19) = (   3.3061463   3.0045039  15.7576854  )
        20           Ti1 tau(  20) = (   0.0190008   1.3629876  15.8180984  )
        21           O1  tau(  21) = (   3.2904802   0.0005063   4.7018136  )
        22           O1  tau(  22) = (   0.0120025   0.1123878  17.2186474  )
        23           O1  tau(  23) = (   1.3043587   1.4918075   6.0039043  )
        24           O1  tau(  24) = (   5.2767064   1.4903225   6.0039473  )
        25           Ti1 tau(  25) = (   0.0000382   5.9609847   6.0000000  )
        26           Ti1 tau(  26) = (   3.2902200   4.4714249   6.0002472  )
        27           O1  tau(  27) = (   0.0002396   2.9813036   7.9858123  )
        28           O1  tau(  28) = (   3.2902150   2.9813002   7.3038282  )
        29           O1  tau(  29) = (   4.5938453   4.4726049   9.2879030  )
        30           O1  tau(  30) = (   1.9864658   4.4711199   9.2879459  )
        31           Ti1 tau(  31) = (   3.2891106   5.8743827   9.1763621  )
        32           Ti1 tau(  32) = (   0.0006254   4.4649316   9.2693709  )
        33           O1  tau(  33) = (   3.3015003   2.9799855  11.3692792  )
        34           O1  tau(  34) = (   0.0092240   2.9805883  10.6323155  )
        35           O1  tau(  35) = (   1.3024855   4.4701597  12.6493271  )
        36           O1  tau(  36) = (   5.3029933   4.4710749  12.6473438  )
        37           Ti1 tau(  37) = (   0.0213219   5.9581237  12.5009821  )
        38           Ti1 tau(  38) = (   3.3165689   4.4756321  12.5216884  )
        39           O1  tau(  39) = (   0.0062450   3.0260372  14.9395602  )
        40           O1  tau(  40) = (   3.3068494   3.0035608  13.9656762  )
        41           O1  tau(  41) = (   4.5532872   4.4785133  16.2063021  )
        42           O1  tau(  42) = (   2.0453360   4.4758230  16.1992630  )
        43           Ti1 tau(  43) = (   3.3068391   0.0190840  15.7907057  )
        44           Ti1 tau(  44) = (   0.0173475   4.5946531  16.0781683  )
        45           O1  tau(  45) = (   3.2900926   2.9813045   4.7018136  )
        46           O1  tau(  46) = (   1.3039711   4.4726057   6.0039043  )
        47           O1  tau(  47) = (   5.2763189   4.4711207   6.0039473  )
        48           N1  tau(  48) = (   0.0050225   3.2246995  17.9653954  )
        49           C1  tau(  49) = (   6.5749124   2.4458835  18.8135322  )
        50           H1  tau(  50) = (   6.5524368   1.6931146  19.5645906  )

     number of k points=    10  Fermi-Dirac smearing, width (Ry)=  0.0073
                       cart. coord. in units 2pi/alat
        k(    1) = (   0.0000000   0.0000000   0.0000000), wk =   0.1250000
        k(    2) = (   0.0000000   0.0419351   0.0000000), wk =   0.2500000
        k(    3) = (   0.0000000  -0.0838702   0.0000000), wk =   0.1250000
        k(    4) = (   0.0379955   0.0000049   0.0000000), wk =   0.2500000
        k(    5) = (   0.0379955   0.0419400   0.0000000), wk =   0.2500000
        k(    6) = (   0.0379955  -0.0838652   0.0000000), wk =   0.2500000
        k(    7) = (   0.0379955  -0.0419301   0.0000000), wk =   0.2500000
        k(    8) = (  -0.0759910  -0.0000099   0.0000000), wk =   0.1250000
        k(    9) = (  -0.0759910   0.0419252   0.0000000), wk =   0.2500000
        k(   10) = (  -0.0759910  -0.0838800   0.0000000), wk =   0.1250000

     Initial potential from superposition of free atoms

     starting charge  371.99919, renormalised to  388.00000

     negative rho (up, down):  1.809E-02 0.000E+00

     %%%%%%%%%%%%%%%%%%%%%%%%%%%%%%%%%%%%%%%%%%%%%%%%%%%%%%%%%%%%%%%%%%%%%%%%
     %                                                                      %
     % You are using vdW-DF, which was implemented by the Thonhauser group. %
     % Please cite the following two papers that made this development      %
     % possible and the two reviews that describe the various versions:     %
     %                                                                      %
     %   T. Thonhauser et al., PRL 115, 136402 (2015).                      %
     %   T. Thonhauser et al., PRB 76, 125112 (2007).                       %
     %   K. Berland et al., Rep. Prog. Phys. 78, 066501 (2015).             %
     %   D.C. Langreth et al., J. Phys.: Condens. Matter 21, 084203 (2009). %
     %                                                                      %
     %                                                                      %
     % If you are calculating the stress with vdW-DF, please also cite:     %
     %                                                                      %
     %   R. Sabatini et al., J. Phys.: Condens. Matter 24, 424209 (2012).   %
     %                                                                      %
     %%%%%%%%%%%%%%%%%%%%%%%%%%%%%%%%%%%%%%%%%%%%%%%%%%%%%%%%%%%%%%%%%%%%%%%%

     Adding external electric field

     Computed dipole along edir(3) :
        Dipole               -4.8585 Ry au,        -12.3490 Debye
        Dipole field         -0.0092 Ry au,

        Potential amp.        0.8499 Ry
        Total length         46.3494 bohr

     Starting wfcs are  293 atomic wfcs
  @ DRIVER MODE: Message from server: STATUS
  @ DRIVER MODE: Message from server: POSDATA
  @ DRIVER MODE: Reading and sharing cell
  @ DRIVER MODE: Reading and sharing positions
  @ DRIVER MODE: Received positions

     Self-consistent Calculation

     iteration #  1     ecut=    29.40 Ry     beta= 0.05
     Davidson diagonalization with overlap
     c_bands:  5 eigenvalues not converged
     c_bands:  5 eigenvalues not converged
     c_bands:  4 eigenvalues not converged
     c_bands:  5 eigenvalues not converged
     c_bands:  3 eigenvalues not converged
     c_bands:  5 eigenvalues not converged
     c_bands:  4 eigenvalues not converged
     c_bands:  3 eigenvalues not converged
     c_bands:  1 eigenvalues not converged
     ethr =  1.00E-05,  avg # of iterations = 20.0

[...]

     total energy              =   -2846.14736114 Ry
     estimated scf accuracy    <     789.92779040 Ry

     iteration #  2     ecut=    29.40 Ry     beta= 0.05
     Davidson diagonalization with overlap
     ethr =  1.00E-02,  avg # of iterations = 15.5

[...]

     iteration # 62     ecut=    29.40 Ry     beta= 0.05
     Davidson diagonalization with overlap
     c_bands:  1 eigenvalues not converged
     c_bands:  1 eigenvalues not converged
     ethr =  8.92E-11,  avg # of iterations = 15.1

[...]

     total energy              =   -2916.61479206 Ry
     estimated scf accuracy    <       0.00000008 Ry

     iteration # 64     ecut=    29.40 Ry     beta= 0.05
     Davidson diagonalization with overlap
     ethr =  2.18E-11,  avg # of iterations = 11.6

     negative rho (up, down):  1.831E-02 0.000E+00

     Adding external electric field

     Computed dipole along edir(3) :
        Dipole                1.5158 Ry au,          3.8529 Debye
        Dipole field          0.0029 Ry au,

        Potential amp.       -0.2652 Ry
        Total length         46.3494 bohr

     End of self-consistent calculation

          k = 0.0000 0.0000 0.0000 ( 18029 PWs)   bands (ev):

   -55.4459 -55.4098 -55.4025 -55.3684 -55.3247 -55.3209 -55.2849 -55.2646
   -55.2554 -55.2427 -55.2318 -55.2302 -55.1982 -55.1380 -54.4286 -54.3946
   -32.0123 -31.8946 -31.8472 -31.8095 -31.7552 -31.7539 -31.7487 -31.7363
   -31.6917 -31.6775 -31.6547 -31.6472 -31.6412 -31.6162 -31.5996 -31.5870
   -31.5827 -31.5684 -31.5627 -31.5547 -31.5347 -31.5256 -31.5160 -31.5003
   -31.4950 -31.4743 -31.4669 -31.4596 -31.4518 -31.4482 -31.4443 -31.4298
   -31.4241 -31.4158 -31.4129 -31.4123 -31.3785 -31.3633 -31.3601 -31.3449
   -31.3424 -31.2591 -30.8379 -30.7441 -30.7220 -30.6543 -30.5675 -30.4566
   -17.4141 -16.2626 -15.9941 -15.8416 -15.7366 -15.6408 -15.5062 -15.4876
   -15.3626 -15.2720 -15.1502 -15.0967 -15.0778 -15.0594 -15.0511 -15.0348
   -14.9873 -14.9827 -14.9518 -14.9402 -14.9175 -14.8800 -14.8745 -14.8412
   -14.8221 -14.7516 -14.6771 -14.6007 -14.5346 -14.2309 -12.9314 -12.8140
    -9.0550  -4.6840  -3.6052  -3.5038  -3.4581  -3.3581  -3.3406  -3.2662
    -3.2482  -3.1894  -3.0258  -2.8471  -2.7847  -2.7109  -2.6466  -2.6344
    -2.6054  -2.4463  -2.4083  -2.3590  -2.3047  -2.2800  -2.2526  -2.2296
    -2.1949  -2.1768  -2.1726  -2.1653  -2.0091  -1.9385  -1.9050  -1.8544
    -1.8374  -1.7858  -1.7636  -1.7313  -1.7276  -1.7216  -1.6701  -1.6547
    -1.6188  -1.5214  -1.4652  -1.3303  -1.2885  -1.1468  -1.0829  -1.0200
    -1.0078  -0.9288  -0.8909  -0.8833  -0.8268  -0.7971  -0.7821  -0.6587
    -0.5576  -0.5108  -0.4544  -0.4242  -0.3773  -0.3411  -0.2516  -0.2255
    -0.2092  -0.1989  -0.0556  -0.0287   0.0534   0.0789   0.1114   0.1124
     0.2193   0.2333   0.3079   0.3552   0.3859   0.4465   0.4969   0.4999
     0.5217   0.5457   0.5544   0.6477   0.6673   0.6789   0.7509   0.8958
     1.1274   1.1684   1.1805   1.5006   1.5132   1.5939   1.7783   2.1697
     2.2178   3.6522   3.7241   3.7939   3.8027   3.8410   3.8889   4.1216
     4.1332   4.1530   4.1595   4.1939

[...]

          k = 0.0380-0.0419 0.0000 ( 17876 PWs)   bands (ev):

[...]

          k =-0.0760-0.0000 0.0000 ( 17886 PWs)   bands (ev):

[...]

          k =-0.0760-0.0839 0.0000 ( 17948 PWs)   bands (ev):

   -55.4294 -55.4261 -55.3859 -55.3849 -55.3208 -55.3082 -55.2975 -55.2526
   -55.2486 -55.2464 -55.2458 -55.2153 -55.2149 -55.1406 -54.4117 -54.4114
   -31.8173 -31.8147 -31.7710 -31.7210 -31.7102 -31.7092 -31.6973 -31.6774
   -31.6766 -31.6537 -31.6444 -31.6414 -31.6318 -31.5893 -31.5816 -31.5781
   -31.5760 -31.5720 -31.5707 -31.5644 -31.5338 -31.5308 -31.5227 -31.5216
   -31.5130 -31.5053 -31.5047 -31.5037 -31.4904 -31.4814 -31.4798 -31.4786
   -31.4620 -31.4589 -31.4454 -31.4442 -31.4430 -31.4352 -31.3958 -31.3953
   -31.3497 -31.3484 -30.7348 -30.7345 -30.6505 -30.6502 -30.6110 -30.6108
   -17.4086 -15.7772 -15.6669 -15.6343 -15.4527 -15.4422 -15.4059 -15.3942
   -15.2508 -15.2070 -15.2010 -15.1899 -15.1431 -15.1390 -15.1385 -15.1130
   -15.0423 -15.0361 -15.0313 -15.0151 -14.9589 -14.9476 -14.9445 -14.9276
   -14.8963 -14.8923 -14.7982 -14.7950 -14.6870 -14.5870 -12.9156 -12.9155
    -9.0525  -4.6715  -3.4141  -3.2622  -2.9369  -2.9017  -2.8961  -2.6632
    -2.6356  -2.6037  -2.5595  -2.4881  -2.4402  -2.4169  -2.4156  -2.3471
    -2.2989  -2.2916  -2.2832  -2.2657  -2.2586  -2.2377  -2.2037  -2.1706
    -2.1608  -2.1324  -2.1169  -2.0976  -2.0789  -2.0436  -2.0300  -2.0053
    -2.0016  -1.8990  -1.8737  -1.7915  -1.7511  -1.7191  -1.6481  -1.6424
    -1.5399  -1.5361  -1.4832  -1.4717  -1.4311  -1.3255  -1.2403  -1.1896
    -1.1846  -1.1753  -1.0715  -1.0068  -0.9789  -0.9441  -0.9191  -0.8374
    -0.7806  -0.7601  -0.7187  -0.6353  -0.6304  -0.5671  -0.4650  -0.4232
    -0.4072  -0.4016  -0.3804  -0.3282  -0.3169  -0.2550  -0.2117  -0.1767
    -0.1658  -0.1207   0.0903   0.0929   0.1405   0.2525   0.2935   0.4414
     0.5188   0.5371   0.6127   0.6483   0.6723   0.7392   0.8472   0.8650
     0.8784   0.9493   0.9887   1.0126   1.0222   1.9510   1.9515   2.0377
     2.0379   3.7737   3.8876   3.9204   3.9694   4.0136   4.0680   4.1721
     4.1930   4.2355   4.3053   4.3224

     the Fermi energy is     3.7117 ev

!    total energy              =   -2916.61482194 Ry
     estimated scf accuracy    <       0.00000004 Ry
     smearing contrib. (-TS)   =      -0.03747505 Ry
     internal energy E=F+TS    =   -2916.57734690 Ry

     The total energy is F=E-TS. E is the sum of the following terms:
     one-electron contribution =  -24444.68135274 Ry
     hartree contribution      =   12309.80610445 Ry
     xc contribution           =    -478.37161414 Ry
     ewald contribution        =    9696.66517933 Ry
     electric field correction =       0.00433620 Ry

     convergence has been achieved in  64 iterations

     Forces acting on atoms (cartesian axes, Ry/au):

     atom    1 type  1   force =    -0.00000126   -0.00029485    0.09345189
     atom    2 type  1   force =    -0.00018086   -0.00046849   -0.17789070
     atom    3 type  2   force =     0.00002278   -0.00034472   -0.02061975
     atom    4 type  2   force =    -0.00003573   -0.00186783    0.05837028
     atom    5 type  2   force =    -0.01036174   -0.00074240    0.00709964
     atom    6 type  2   force =     0.01202682   -0.00014353    0.00687105
     atom    7 type  1   force =    -0.00010971    0.00193109   -0.01365541
     atom    8 type  1   force =    -0.00009560    0.00177102   -0.00206915
     atom    9 type  2   force =    -0.00004712   -0.00044505   -0.00035758
     atom   10 type  2   force =    -0.00120342    0.00258278   -0.00300349
     atom   11 type  2   force =    -0.00066930   -0.00012831    0.00012619
     atom   12 type  2   force =     0.00050809   -0.00008635   -0.00006722
     atom   13 type  1   force =    -0.00007400   -0.00002384    0.00008861
     atom   14 type  1   force =    -0.00001540   -0.00004386    0.00026252
     atom   15 type  2   force =    -0.00012159    0.00019184    0.00003884
     atom   16 type  2   force =    -0.00002826   -0.00010825   -0.00017947
     atom   17 type  2   force =     0.00062966    0.00003669   -0.00011965
     atom   18 type  2   force =    -0.00016074    0.00000569    0.00022346
     atom   19 type  1   force =    -0.00030236    0.00035133    0.00024893
     atom   20 type  1   force =    -0.00010485    0.00036021    0.00034463
     atom   21 type  2   force =    -0.00002262   -0.00012415    0.10387799
     atom   22 type  2   force =    -0.00009976    0.00025555    0.00029480
     atom   23 type  2   force =    -0.07052044   -0.00020512   -0.02695126
     atom   24 type  2   force =     0.07030813    0.00023429   -0.02700008
     atom   25 type  1   force =     0.00000691   -0.00033473    0.09300963
     atom   26 type  1   force =    -0.00018784   -0.00053356   -0.17810507
     atom   27 type  2   force =     0.00005918   -0.00023161   -0.01963861
     atom   28 type  2   force =     0.00001325   -0.00163578    0.05784923
     atom   29 type  2   force =    -0.01086771   -0.00056853    0.00759574
     atom   30 type  2   force =     0.01239312   -0.00022128    0.00733905
     atom   31 type  1   force =    -0.00003988    0.00593782   -0.01474249
     atom   32 type  1   force =    -0.00011690   -0.00214320   -0.00202205
     atom   33 type  2   force =     0.00001941   -0.00006213   -0.00032690
     atom   34 type  2   force =    -0.00064655   -0.00099716   -0.00063668
     atom   35 type  2   force =    -0.00012458   -0.00007004    0.00012476
     atom   36 type  2   force =    -0.00006884   -0.00001051    0.00019945
     atom   37 type  1   force =     0.00021850   -0.00078987    0.00009915
     atom   38 type  1   force =    -0.00005137   -0.00009554    0.00022061
     atom   39 type  2   force =     0.00011384   -0.00046951    0.00006925
     atom   40 type  2   force =    -0.00021739   -0.00011739   -0.00045009
     atom   41 type  2   force =     0.00035927   -0.00012834   -0.00044064
     atom   42 type  2   force =     0.00009314    0.00011422   -0.00006760
     atom   43 type  1   force =    -0.00018500   -0.00008292    0.00017454
     atom   44 type  1   force =     0.00015621    0.00014470    0.00037506
     atom   45 type  2   force =    -0.00002345   -0.00014382    0.10383484
     atom   46 type  2   force =    -0.07050193   -0.00018453   -0.02693805
     atom   47 type  2   force =     0.07029810    0.00024511   -0.02699394
     atom   48 type  3   force =     0.00064541    0.00048160    0.00025681
     atom   49 type  4   force =    -0.00124500    0.00008009    0.00012313
     atom   50 type  5   force =     0.00055936   -0.00087685   -0.00029421

     Total force =     0.365859     Total SCF correction =     0.000532
  @ DRIVER MODE: Message from server: STATUS
  @ DRIVER MODE: Message from server: GETFORCE
  @ DRIVER MODE: Returning v,forces,stress,ensemble

     Writing output data file ./calc.save/
  @ DRIVER MODE: Message from server: EXIT
  @ DRIVE MODE: Exiting

     General routines

     Parallel routines

   This run was terminated on:   1:54:35   9Sep2021

   JOB DONE.