     Program PWSCF v.6.7GPU starts on 16Sep2021 at  8:49:31

     R & G space division:  proc/nbgrp/npool/nimage =      10
     Reading input from /storage/home/hcoda1/3/ntian30/research/carbon/CxH_vib/H2O_calc/ads_slab/CHNNHHH2O_a/out_0054/pw.inp
Warning: card &CELL ignored
Warning: card   CELL_DYNAMICS='IPI', ignored
Warning: card / ignored

     Current dimensions of program PWSCF are:
     Max number of different atomic species (ntypx) = 10
     Max number of k-points (npk) =  40000
     Max angular momentum in pseudopotentials (lmaxx) =  3
     Presently no symmetry can be used with electric field

     Message from routine cell_base_init:
     DEPRECATED: use true lattice parameter, not A to a.u. conversion factor

     IMPORTANT: XC functional enforced from input :
     Exchange-correlation= BEEF-VDW
                           (   1   4  43  14   2   0   0)
     Any further DFT definition will be discarded
     Please, verify this is what you really want

  @ DRIVER MODE: Connecting to
 qe_1139763_2852630.sched-torque.pace.gatech.eduiyhe0h_h_scratch
  using UNIX socket
  @ DRIVER MODE: Message from server: STATUS
  @ DRIVER MODE: Message from server: INIT
  @ DRIVER MODE: Receiving replica           0          -1
  @ DRIVER MODE: Receiving encoded integer          25
  @ DRIVER MODE:  SCF:  T  FORCE:  T  STRESS:  F  VC:  F  ENSEMBLE:  F
  @ DRIVER MODE:  SCF:  T  FORCE:  T  STRESS:  F  VC:  F  ENSEMBLE:  F

     Using Slab Decomposition

     bravais-lattice index     =            0
     lattice parameter (alat)  =       1.8897  a.u.
     unit-cell volume          =    6658.9804 (a.u.)^3
     number of atoms/cell      =           56
     number of atomic types    =            5
     number of electrons       =       403.00
     number of Kohn-Sham states=          211
     kinetic-energy cutoff     =      29.3995  Ry
     charge density cutoff     =     293.9946  Ry
     scf convergence threshold =      7.3E-08
     mixing beta               =       0.0500
     number of iterations used =            8  plain     mixing
     Exchange-correlation= BEEF-VDW
                           (   1   4  43  14   2   0   0)

     celldm(1)=   1.889726  celldm(2)=   0.000000  celldm(3)=   0.000000
     celldm(4)=   0.000000  celldm(5)=   0.000000  celldm(6)=   0.000000

     crystal axes: (cart. coord. in units of alat)
               a(1) = (   6.579727   0.000000   0.000000 )
               a(2) = (  -0.000775   5.961596   0.000000 )
               a(3) = (   0.000000   0.000000  25.155947 )

     reciprocal axes: (cart. coord. in units 2 pi/alat)
               b(1) = (  0.151982  0.000020  0.000000 )
               b(2) = (  0.000000  0.167740  0.000000 )
               b(3) = (  0.000000  0.000000  0.039752 )

     PseudoPot. # 1 for Ti read from file:
     /storage/coda1/p-amedford6/0/shared/rich_project_chbe-medford/medford-share/data/pseudos_module/espresso/nninc/pbe/van/Ti.UPF
     MD5 check sum: 8e4df49b7f0d34bbd5052bf3f5ea0213
     Pseudo is Ultrasoft, Zval = 12.0
     Generated by new atomic code, or converted to UPF format
     Using radial grid of  851 points,  6 beta functions with:
                l(1) =   0
                l(2) =   0
                l(3) =   1
                l(4) =   1
                l(5) =   2
                l(6) =   2
     Q(r) pseudized with  8 coefficients,  rinner =    1.000   1.000   1.000
                                                       1.000   1.000

     PseudoPot. # 2 for O  read from file:
     /storage/coda1/p-amedford6/0/shared/rich_project_chbe-medford/medford-share/data/pseudos_module/espresso/nninc/pbe/van/O.UPF
     MD5 check sum: 78c19812648e8988a0fe644b0f25305e
     Pseudo is Ultrasoft, Zval =  6.0
     Generated by new atomic code, or converted to UPF format
     Using radial grid of  737 points,  4 beta functions with:
                l(1) =   0
                l(2) =   0
                l(3) =   1
                l(4) =   1
     Q(r) pseudized with  8 coefficients,  rinner =    0.800   0.800   0.800

     PseudoPot. # 3 for N  read from file:
     /storage/coda1/p-amedford6/0/shared/rich_project_chbe-medford/medford-share/data/pseudos_module/espresso/nninc/pbe/van/N.UPF
     MD5 check sum: 90d10febe142ad51ac9d5be1deb811c4
     Pseudo is Ultrasoft, Zval =  5.0
     Generated by new atomic code, or converted to UPF format
     Using radial grid of  729 points,  4 beta functions with:
                l(1) =   0
                l(2) =   0
                l(3) =   1
                l(4) =   1
     Q(r) pseudized with  8 coefficients,  rinner =    0.800   0.800   0.800

     PseudoPot. # 4 for C  read from file:
     /storage/coda1/p-amedford6/0/shared/rich_project_chbe-medford/medford-share/data/pseudos_module/espresso/nninc/pbe/van/C.UPF
     MD5 check sum: 1a69bf6b8db32088f5b2163dbdb77a27
     Pseudo is Ultrasoft, Zval =  4.0
     Generated by new atomic code, or converted to UPF format
     Using radial grid of  721 points,  4 beta functions with:
                l(1) =   0
                l(2) =   0
                l(3) =   1
                l(4) =   1
     Q(r) pseudized with  8 coefficients,  rinner =    0.800   0.800   0.800

     PseudoPot. # 5 for H  read from file:
     /storage/coda1/p-amedford6/0/shared/rich_project_chbe-medford/medford-share/data/pseudos_module/espresso/nninc/pbe/van/H.UPF
     MD5 check sum: b5ee9d7bfd3a09ee7748110bda690ff7
     Pseudo is Ultrasoft, Zval =  1.0
     Generated by new atomic code, or converted to UPF format
     Using radial grid of  615 points,  1 beta functions with:
                l(1) =   0
     Q(r) pseudized with  8 coefficients,  rinner =    0.800

     atomic species   valence    mass     pseudopotential
        Ti1           12.00    47.86700     Ti( 1.00)
        O1             6.00    15.99900     O ( 1.00)
        N1             5.00    14.00700     N ( 1.00)
        C1             4.00    12.01100     C ( 1.00)
        H1             1.00     1.00800     H ( 1.00)

     No symmetry found

   Cartesian axes

     site n.     atom                  positions (alat units)
         1           Ti1 tau(   1) = (   0.0004258   2.9801865   6.0000000  )
         2           Ti1 tau(   2) = (   3.2906075   1.4906267   6.0002472  )
         3           O1  tau(   3) = (   0.0006271   0.0005054   7.9858123  )
         4           O1  tau(   4) = (   3.2906025   0.0005020   7.3038282  )
         5           O1  tau(   5) = (   4.5942328   1.4918067   9.2879030  )
         6           O1  tau(   6) = (   1.9868534   1.4903216   9.2879459  )
         7           Ti1 tau(   7) = (   3.2907910   2.8959150   9.1758416  )
         8           Ti1 tau(   8) = (   0.0015273   1.4827037   9.2680791  )
         9           O1  tau(   9) = (   3.3295752   5.9394884  11.3365386  )
        10           O1  tau(  10) = (   0.0116148   5.9584955  10.6183126  )
        11           O1  tau(  11) = (   1.3416459   1.4853116  12.6004455  )
        12           O1  tau(  12) = (   5.3426426   1.4786053  12.6369034  )
        13           Ti1 tau(  13) = (   0.0116414   2.9353973  12.6160321  )
        14           Ti1 tau(  14) = (   3.2634613   1.4579052  12.5012998  )
        15           O1  tau(  15) = (   0.1064876   0.0498873  14.6156690  )
        16           O1  tau(  16) = (   3.3207907   0.0021492  13.9347054  )
        17           O1  tau(  17) = (   4.6463059   1.4619937  15.9920056  )
        18           O1  tau(  18) = (   2.1466462   1.4989335  16.1123926  )
        19           Ti1 tau(  19) = (   3.4306617   2.9592634  15.6863987  )
        20           Ti1 tau(  20) = (   0.1411245   1.4409179  16.1562347  )
        21           O1  tau(  21) = (   3.2904802   0.0005063   4.7018136  )
        22           O1  tau(  22) = (   0.1093408   5.8617090  17.1288626  )
        23           O1  tau(  23) = (   1.3043587   1.4918075   6.0039043  )
        24           O1  tau(  24) = (   5.2767064   1.4903225   6.0039473  )
        25           Ti1 tau(  25) = (   0.0000382   5.9609847   6.0000000  )
        26           Ti1 tau(  26) = (   3.2902200   4.4714249   6.0002472  )
        27           O1  tau(  27) = (   0.0002396   2.9813036   7.9858123  )
        28           O1  tau(  28) = (   3.2902150   2.9813002   7.3038282  )
        29           O1  tau(  29) = (   4.5938453   4.4726049   9.2879030  )
        30           O1  tau(  30) = (   1.9864658   4.4711199   9.2879459  )
        31           Ti1 tau(  31) = (   3.2891106   5.8743827   9.1763621  )
        32           Ti1 tau(  32) = (   0.0006254   4.4649316   9.2693709  )
        33           O1  tau(  33) = (   3.3252478   2.9725824  11.3426849  )
        34           O1  tau(  34) = (   0.0092240   2.9805883  10.6323155  )
        35           O1  tau(  35) = (   1.3395427   4.4601989  12.6346899  )
        36           O1  tau(  36) = (   5.3460148   4.4586474  12.6692756  )
        37           Ti1 tau(  37) = (   6.5637397   5.9322234  12.5160321  )
        38           Ti1 tau(  38) = (   3.2635149   4.4558096  12.5102435  )
        39           O1  tau(  39) = (   0.1109093   2.9345503  14.7784033  )
        40           O1  tau(  40) = (   3.3425673   2.9461413  13.8942005  )
        41           O1  tau(  41) = (   4.6672108   4.4449251  15.9191901  )
        42           O1  tau(  42) = (   2.1284166   4.4082335  15.9970045  )
        43           Ti1 tau(  43) = (   3.3925976   5.9399099  15.7906296  )
        44           Ti1 tau(  44) = (   0.1175887   4.6074924  15.7225956  )
        45           O1  tau(  45) = (   3.2900926   2.9813045   4.7018136  )
        46           O1  tau(  46) = (   1.3039711   4.4726057   6.0039043  )
        47           O1  tau(  47) = (   5.2763189   4.4711207   6.0039473  )
        48           N1  tau(  48) = (   6.3322197   2.6896666  17.8857888  )
        49           C1  tau(  49) = (   0.7408832   3.1023054  18.6049742  )
        50           H1  tau(  50) = (   1.6825283   2.9574642  18.0630083  )
        51           N1  tau(  51) = (   5.0062801   2.8267163  18.4728511  )
        52           H1  tau(  52) = (   5.1803530   3.0494745  19.4549233  )
        53           H1  tau(  53) = (   4.5789568   1.9025856  18.4370215  )
        54           O1  tau(  54) = (   3.4803961   5.7297960  18.1507158  )
        55           H1  tau(  55) = (   4.0125945   4.9267423  18.3304466  )
        56           H1  tau(  56) = (   2.5980622   5.5532332  18.5327279  )

     number of k points=    10  Fermi-Dirac smearing, width (Ry)=  0.0073
                       cart. coord. in units 2pi/alat
        k(    1) = (   0.0000000   0.0000000   0.0000000), wk =   0.1250000
        k(    2) = (   0.0000000   0.0419351   0.0000000), wk =   0.2500000
        k(    3) = (   0.0000000  -0.0838702   0.0000000), wk =   0.1250000
        k(    4) = (   0.0379955   0.0000049   0.0000000), wk =   0.2500000
        k(    5) = (   0.0379955   0.0419400   0.0000000), wk =   0.2500000
        k(    6) = (   0.0379955  -0.0838652   0.0000000), wk =   0.2500000
        k(    7) = (   0.0379955  -0.0419301   0.0000000), wk =   0.2500000
        k(    8) = (  -0.0759910  -0.0000099   0.0000000), wk =   0.1250000
        k(    9) = (  -0.0759910   0.0419252   0.0000000), wk =   0.2500000
        k(   10) = (  -0.0759910  -0.0838800   0.0000000), wk =   0.1250000

     Initial potential from superposition of free atoms

     starting charge  386.99914, renormalised to  403.00000

     negative rho (up, down):  1.683E-02 0.000E+00

     %%%%%%%%%%%%%%%%%%%%%%%%%%%%%%%%%%%%%%%%%%%%%%%%%%%%%%%%%%%%%%%%%%%%%%%%
     %                                                                      %
     % You are using vdW-DF, which was implemented by the Thonhauser group. %
     % Please cite the following two papers that made this development      %
     % possible and the two reviews that describe the various versions:     %
     %                                                                      %
     %   T. Thonhauser et al., PRL 115, 136402 (2015).                      %
     %   T. Thonhauser et al., PRB 76, 125112 (2007).                       %
     %   K. Berland et al., Rep. Prog. Phys. 78, 066501 (2015).             %
     %   D.C. Langreth et al., J. Phys.: Condens. Matter 21, 084203 (2009). %
     %                                                                      %
     %                                                                      %
     % If you are calculating the stress with vdW-DF, please also cite:     %
     %                                                                      %
     %   R. Sabatini et al., J. Phys.: Condens. Matter 24, 424209 (2012).   %
     %                                                                      %
     %%%%%%%%%%%%%%%%%%%%%%%%%%%%%%%%%%%%%%%%%%%%%%%%%%%%%%%%%%%%%%%%%%%%%%%%

     Adding external electric field

     Computed dipole along edir(3) :
        Dipole              -12.6666 Ry au,        -32.1952 Debye
        Dipole field         -0.0239 Ry au,

        Potential amp.        2.2158 Ry
        Total length         46.3494 bohr

     Starting wfcs are  305 atomic wfcs
  @ DRIVER MODE: Message from server: STATUS
  @ DRIVER MODE: Message from server: POSDATA
  @ DRIVER MODE: Reading and sharing cell
  @ DRIVER MODE: Reading and sharing positions
  @ DRIVER MODE: Received positions

     Self-consistent Calculation

     iteration #  1     ecut=    29.40 Ry     beta= 0.05
     Davidson diagonalization with overlap
     c_bands:  3 eigenvalues not converged
     c_bands:  2 eigenvalues not converged
     c_bands:  5 eigenvalues not converged
     c_bands:  1 eigenvalues not converged
     c_bands:  4 eigenvalues not converged
     c_bands:  1 eigenvalues not converged
     c_bands:  2 eigenvalues not converged
     ethr =  1.00E-05,  avg # of iterations = 26.8

[...]

     total energy              =   -2339.22242640 Ry
     estimated scf accuracy    <    7193.76302576 Ry

     iteration #  2     ecut=    29.40 Ry     beta= 0.05
     Davidson diagonalization with overlap
     ethr =  1.00E-02,  avg # of iterations = 23.5

[...]

     iteration # 46     ecut=    29.40 Ry     beta= 0.05
     Davidson diagonalization with overlap
     c_bands:  1 eigenvalues not converged
     ethr =  4.65E-08,  avg # of iterations = 12.1

[...]

     total energy              =   -2973.87561631 Ry
     estimated scf accuracy    <       0.00000020 Ry

     iteration # 62     ecut=    29.40 Ry     beta= 0.05
     Davidson diagonalization with overlap
     ethr =  4.88E-11,  avg # of iterations =  7.5

     negative rho (up, down):  1.573E-02 0.000E+00

     Adding external electric field

     Computed dipole along edir(3) :
        Dipole                0.4451 Ry au,          1.1313 Debye
        Dipole field          0.0008 Ry au,

        Potential amp.       -0.0779 Ry
        Total length         46.3494 bohr

     End of self-consistent calculation

          k = 0.0000 0.0000 0.0000 ( 18029 PWs)   bands (ev):

   -55.9057 -55.8716 -55.8693 -55.8318 -55.7905 -55.7890 -55.7333 -55.7224
   -55.6955 -55.6885 -55.6881 -55.6547 -55.4654 -55.3770 -54.8883 -54.8543
   -32.4102 -32.3899 -32.2767 -32.2322 -32.2225 -32.1977 -32.1789 -32.1596
   -32.1501 -32.1075 -32.0593 -32.0580 -32.0436 -32.0338 -32.0233 -32.0222
   -32.0117 -32.0071 -32.0033 -31.9925 -31.9855 -31.9712 -31.9628 -31.9292
   -31.9200 -31.9167 -31.9147 -31.9095 -31.8864 -31.8857 -31.8779 -31.8653
   -31.8555 -31.8423 -31.8346 -31.8281 -31.8009 -31.7571 -31.6952 -31.6334
   -31.5908 -31.5191 -31.2954 -31.2068 -31.1844 -31.1123 -31.0258 -30.9146
   -18.8267 -17.1806 -16.6197 -16.3834 -16.1464 -16.0676 -16.0424 -15.8129
   -15.7177 -15.6623 -15.5653 -15.5037 -15.4750 -15.4455 -15.4222 -15.4005
   -15.3601 -15.3478 -15.3283 -15.3271 -15.3003 -15.2910 -15.2541 -15.2484
   -15.2007 -15.0777 -15.0442 -15.0384 -15.0082 -14.9709 -14.5281 -13.3899
   -13.2734 -12.8289  -7.1208  -6.5363  -5.4948  -4.0002  -3.8660  -3.8585
    -3.8144  -3.7492  -3.6021  -3.5717  -3.3729  -3.2446  -3.1742  -3.0931
    -3.0763  -3.0383  -3.0123  -2.9084  -2.8225  -2.7876  -2.7192  -2.7039
    -2.6785  -2.6705  -2.6415  -2.6172  -2.5320  -2.5133  -2.4735  -2.4400
    -2.3241  -2.3054  -2.2491  -2.2210  -2.2135  -2.1946  -2.1706  -2.1613
    -2.1467  -2.1350  -2.0761  -2.0490  -1.9653  -1.8997  -1.8361  -1.7004
    -1.5589  -1.5191  -1.5073  -1.4067  -1.3806  -1.3457  -1.3263  -1.3025
    -1.2843  -1.1636  -1.0848  -1.0214  -1.0146  -0.9441  -0.8514  -0.7911
    -0.7339  -0.6764  -0.6705  -0.6496  -0.6447  -0.6101  -0.5372  -0.4009
    -0.3630  -0.3227  -0.2891  -0.2013  -0.1924  -0.1473  -0.1160  -0.0950
    -0.0623   0.0161   0.0279   0.0586   0.0802   0.1014   0.1242   0.1825
     0.3111   0.3329   0.3514   0.4087   0.4454   0.6048   0.7450   0.7887
     0.8908   1.0635   1.1347   1.1583   1.2257   1.3263   1.7057   1.7515
     2.7635   3.2104   3.3142   3.3481   3.3555   3.4564   3.4815   3.6719
     3.7165   3.7531   3.7843

[...]

          k = 0.0380-0.0419 0.0000 ( 17876 PWs)   bands (ev):

[...]

          k =-0.0760-0.0000 0.0000 ( 17886 PWs)   bands (ev):

[...]

          k =-0.0760-0.0839 0.0000 ( 17948 PWs)   bands (ev):

   -55.8889 -55.8882 -55.8561 -55.8448 -55.7872 -55.7831 -55.7391 -55.7071
   -55.7031 -55.6986 -55.6719 -55.6713 -55.4627 -55.3796 -54.8713 -54.8711
   -32.2267 -32.2053 -32.2050 -32.2047 -32.1833 -32.1829 -32.1252 -32.1173
   -32.0969 -32.0898 -32.0869 -32.0347 -32.0338 -32.0260 -32.0219 -32.0210
   -32.0155 -32.0118 -32.0097 -32.0083 -32.0072 -32.0045 -31.9923 -31.9893
   -31.9724 -31.9507 -31.9494 -31.9097 -31.9077 -31.9006 -31.8999 -31.8975
   -31.8909 -31.8877 -31.8871 -31.8812 -31.8783 -31.7734 -31.6933 -31.6398
   -31.5945 -31.5856 -31.1972 -31.1971 -31.1082 -31.1081 -31.0691 -31.0690
   -18.8244 -17.1721 -16.0464 -15.9613 -15.9231 -15.8341 -15.7881 -15.7545
   -15.6949 -15.6219 -15.5836 -15.5786 -15.5525 -15.4941 -15.4797 -15.4515
   -15.4338 -15.4221 -15.4176 -15.3657 -15.3596 -15.3503 -15.3457 -15.3323
   -15.3300 -15.3044 -15.2298 -15.2269 -15.1042 -14.8935 -14.8690 -13.3754
   -13.3751 -12.8449  -7.0802  -6.5269  -5.4330  -3.6754  -3.3934  -3.3264
    -3.2232  -3.1137  -3.0119  -3.0046  -2.9682  -2.9242  -2.8537  -2.8285
    -2.7728  -2.7529  -2.7385  -2.7221  -2.7176  -2.7068  -2.6735  -2.6505
    -2.5945  -2.5895  -2.5824  -2.5740  -2.5619  -2.5540  -2.5324  -2.5261
    -2.4994  -2.4738  -2.4352  -2.4022  -2.3210  -2.2450  -2.1679  -2.1202
    -2.0890  -2.0563  -2.0497  -2.0060  -1.9859  -1.9746  -1.9576  -1.8930
    -1.7924  -1.6735  -1.6166  -1.5936  -1.5443  -1.5090  -1.4857  -1.3773
    -1.3288  -1.3145  -1.2130  -1.1911  -1.1649  -1.1130  -1.0478  -1.0333
    -0.9904  -0.9468  -0.9043  -0.8643  -0.8590  -0.8084  -0.7636  -0.7356
    -0.6548  -0.6449  -0.6008  -0.5907  -0.5783  -0.5402  -0.4922  -0.4126
    -0.3163  -0.2711  -0.2198  -0.0665   0.0070   0.1427   0.1951   0.2607
     0.2771   0.3770   0.4048   0.4070   0.4889   0.5328   0.5892   0.6211
     0.6258   0.6383   0.8035   1.1058   1.4982   1.4993   1.5712   1.5717
     2.7207   3.5437   3.6011   3.6147   3.6407   3.7269   3.7505   3.7604
     3.7623   3.8816   3.8976

     the Fermi energy is     3.2231 ev

!    total energy              =   -2973.87565576 Ry
     estimated scf accuracy    <       0.00000003 Ry
     smearing contrib. (-TS)   =      -0.02177992 Ry
     internal energy E=F+TS    =   -2973.85387584 Ry

     The total energy is F=E-TS. E is the sum of the following terms:
     one-electron contribution =  -24184.63339687 Ry
     hartree contribution      =   12183.88116502 Ry
     xc contribution           =    -493.99631449 Ry
     ewald contribution        =    9520.89429664 Ry
     electric field correction =       0.00037386 Ry

     convergence has been achieved in  62 iterations

     Forces acting on atoms (cartesian axes, Ry/au):

     atom    1 type  1   force =     0.00016474   -0.00030692    0.09558499
     atom    2 type  1   force =     0.00004958   -0.00044875   -0.17579428
     atom    3 type  2   force =     0.00023199    0.00002186   -0.02350286
     atom    4 type  2   force =     0.00008684   -0.00152521    0.05312762
     atom    5 type  2   force =    -0.01024836   -0.00136578    0.00263226
     atom    6 type  2   force =     0.01291734   -0.00101574    0.00441371
     atom    7 type  1   force =     0.00139918    0.00128877   -0.00563648
     atom    8 type  1   force =    -0.00059926    0.01374627    0.01967856
     atom    9 type  2   force =     0.00024031   -0.00056316    0.00104644
     atom   10 type  2   force =    -0.00153730   -0.00072278   -0.01580623
     atom   11 type  2   force =    -0.00105591    0.00026322   -0.00022128
     atom   12 type  2   force =     0.00041404   -0.00000029    0.00013795
     atom   13 type  1   force =     0.00056112    0.00083511    0.00030060
     atom   14 type  1   force =    -0.00022336   -0.00005976    0.00046060
     atom   15 type  2   force =    -0.00036056   -0.00000472   -0.00038611
     atom   16 type  2   force =     0.00000997   -0.00085680   -0.00038905
     atom   17 type  2   force =    -0.00061459   -0.00023878   -0.00024114
     atom   18 type  2   force =     0.00016167   -0.00024800   -0.00049680
     atom   19 type  1   force =     0.00061674   -0.00055673   -0.00097920
     atom   20 type  1   force =    -0.00065417   -0.00087064   -0.00045679
     atom   21 type  2   force =     0.00007361    0.00001772    0.10319166
     atom   22 type  2   force =    -0.00012686    0.00126019    0.00037902
     atom   23 type  2   force =    -0.07148430   -0.00008173   -0.02757774
     atom   24 type  2   force =     0.07145094    0.00037735   -0.02763291
     atom   25 type  1   force =     0.00009871   -0.00026275    0.09540637
     atom   26 type  1   force =     0.00004365   -0.00023523   -0.17587116
     atom   27 type  2   force =     0.00024824   -0.00036689   -0.02225460
     atom   28 type  2   force =     0.00008149   -0.00122230    0.05317897
     atom   29 type  2   force =    -0.01029043    0.00029960    0.00174244
     atom   30 type  2   force =     0.01287999    0.00085858    0.00360285
     atom   31 type  1   force =     0.00161744    0.00306468   -0.01049243
     atom   32 type  1   force =    -0.00067615   -0.01565932    0.01965643
     atom   33 type  2   force =     0.00053385    0.00064651    0.00019610
     atom   34 type  2   force =    -0.00085291    0.00099490   -0.01349307
     atom   35 type  2   force =     0.00110574    0.00005214   -0.00044699
     atom   36 type  2   force =    -0.00119486    0.00013550   -0.00021138
     atom   37 type  1   force =    -0.00030707   -0.00044191    0.00008180
     atom   38 type  1   force =    -0.00092009    0.00036758   -0.00038944
     atom   39 type  2   force =    -0.00047848   -0.00052979    0.00015733
     atom   40 type  2   force =     0.00010425    0.00096230    0.00012215
     atom   41 type  2   force =    -0.00118672    0.00049466    0.00059853
     atom   42 type  2   force =     0.00106933   -0.00030890    0.00037433
     atom   43 type  1   force =    -0.00045379    0.00085090   -0.00029514
     atom   44 type  1   force =    -0.00037574    0.00057448   -0.00159554
     atom   45 type  2   force =     0.00007313    0.00000879    0.10320454
     atom   46 type  2   force =    -0.07148328   -0.00003902   -0.02757609
     atom   47 type  2   force =     0.07145163    0.00038633   -0.02761400
     atom   48 type  3   force =     0.00010516    0.00037211    0.00035170
     atom   49 type  4   force =     0.00004819   -0.00012039   -0.00052586
     atom   50 type  5   force =    -0.00111694   -0.00045351    0.00039729
     atom   51 type  3   force =     0.00041515    0.00028865   -0.00153377
     atom   52 type  5   force =    -0.00019698   -0.00016391    0.00091621
     atom   53 type  5   force =    -0.00068253   -0.00105928    0.00137766
     atom   54 type  2   force =    -0.00727675   -0.00182309    0.00444639
     atom   55 type  5   force =    -0.00045620    0.00144431   -0.00086359
     atom   56 type  5   force =     0.00659954    0.00193957   -0.00448058

     Total force =     0.366233     Total SCF correction =     0.000511
  @ DRIVER MODE: Message from server: STATUS
  @ DRIVER MODE: Message from server: GETFORCE
  @ DRIVER MODE: Returning v,forces,stress,ensemble

     Writing output data file ./calc.save/
  @ DRIVER MODE: Message from server: EXIT
  @ DRIVE MODE: Exiting

     General routines

     Parallel routines

   This run was terminated on:   9: 6:54  16Sep2021

   JOB DONE.