     Program PWSCF v.6.7GPU starts on 16Sep2021 at  8:32:28

     R & G space division:  proc/nbgrp/npool/nimage =      10
     Reading input from /storage/home/hcoda1/3/ntian30/research/carbon/CxH_vib/H2O_calc/ads_slab/CHNNHHH2O_a/out_0053/pw.inp
Warning: card &CELL ignored
Warning: card   CELL_DYNAMICS='IPI', ignored
Warning: card / ignored

     Current dimensions of program PWSCF are:
     Max number of different atomic species (ntypx) = 10
     Max number of k-points (npk) =  40000
     Max angular momentum in pseudopotentials (lmaxx) =  3
     Presently no symmetry can be used with electric field

     Message from routine cell_base_init:
     DEPRECATED: use true lattice parameter, not A to a.u. conversion factor

     IMPORTANT: XC functional enforced from input :
     Exchange-correlation= BEEF-VDW
                           (   1   4  43  14   2   0   0)
     Any further DFT definition will be discarded
     Please, verify this is what you really want

  @ DRIVER MODE: Connecting to
 qe_1139763_2852630.sched-torque.pace.gatech.eduqs583_zw_scratch
  using UNIX socket
  @ DRIVER MODE: Message from server: STATUS
  @ DRIVER MODE: Message from server: INIT
  @ DRIVER MODE: Receiving replica           0          -1
  @ DRIVER MODE: Receiving encoded integer          25
  @ DRIVER MODE:  SCF:  T  FORCE:  T  STRESS:  F  VC:  F  ENSEMBLE:  F
  @ DRIVER MODE:  SCF:  T  FORCE:  T  STRESS:  F  VC:  F  ENSEMBLE:  F

     Using Slab Decomposition

     bravais-lattice index     =            0
     lattice parameter (alat)  =       1.8897  a.u.
     unit-cell volume          =    6658.9804 (a.u.)^3
     number of atoms/cell      =           56
     number of atomic types    =            5
     number of electrons       =       403.00
     number of Kohn-Sham states=          211
     kinetic-energy cutoff     =      29.3995  Ry
     charge density cutoff     =     293.9946  Ry
     scf convergence threshold =      7.3E-08
     mixing beta               =       0.0500
     number of iterations used =            8  plain     mixing
     Exchange-correlation= BEEF-VDW
                           (   1   4  43  14   2   0   0)

     celldm(1)=   1.889726  celldm(2)=   0.000000  celldm(3)=   0.000000
     celldm(4)=   0.000000  celldm(5)=   0.000000  celldm(6)=   0.000000

     crystal axes: (cart. coord. in units of alat)
               a(1) = (   6.579727   0.000000   0.000000 )
               a(2) = (  -0.000775   5.961596   0.000000 )
               a(3) = (   0.000000   0.000000  25.155947 )

     reciprocal axes: (cart. coord. in units 2 pi/alat)
               b(1) = (  0.151982  0.000020  0.000000 )
               b(2) = (  0.000000  0.167740  0.000000 )
               b(3) = (  0.000000  0.000000  0.039752 )

     PseudoPot. # 1 for Ti read from file:
     /storage/coda1/p-amedford6/0/shared/rich_project_chbe-medford/medford-share/data/pseudos_module/espresso/nninc/pbe/van/Ti.UPF
     MD5 check sum: 8e4df49b7f0d34bbd5052bf3f5ea0213
     Pseudo is Ultrasoft, Zval = 12.0
     Generated by new atomic code, or converted to UPF format
     Using radial grid of  851 points,  6 beta functions with:
                l(1) =   0
                l(2) =   0
                l(3) =   1
                l(4) =   1
                l(5) =   2
                l(6) =   2
     Q(r) pseudized with  8 coefficients,  rinner =    1.000   1.000   1.000
                                                       1.000   1.000

     PseudoPot. # 2 for O  read from file:
     /storage/coda1/p-amedford6/0/shared/rich_project_chbe-medford/medford-share/data/pseudos_module/espresso/nninc/pbe/van/O.UPF
     MD5 check sum: 78c19812648e8988a0fe644b0f25305e
     Pseudo is Ultrasoft, Zval =  6.0
     Generated by new atomic code, or converted to UPF format
     Using radial grid of  737 points,  4 beta functions with:
                l(1) =   0
                l(2) =   0
                l(3) =   1
                l(4) =   1
     Q(r) pseudized with  8 coefficients,  rinner =    0.800   0.800   0.800

     PseudoPot. # 3 for N  read from file:
     /storage/coda1/p-amedford6/0/shared/rich_project_chbe-medford/medford-share/data/pseudos_module/espresso/nninc/pbe/van/N.UPF
     MD5 check sum: 90d10febe142ad51ac9d5be1deb811c4
     Pseudo is Ultrasoft, Zval =  5.0
     Generated by new atomic code, or converted to UPF format
     Using radial grid of  729 points,  4 beta functions with:
                l(1) =   0
                l(2) =   0
                l(3) =   1
                l(4) =   1
     Q(r) pseudized with  8 coefficients,  rinner =    0.800   0.800   0.800

     PseudoPot. # 4 for C  read from file:
     /storage/coda1/p-amedford6/0/shared/rich_project_chbe-medford/medford-share/data/pseudos_module/espresso/nninc/pbe/van/C.UPF
     MD5 check sum: 1a69bf6b8db32088f5b2163dbdb77a27
     Pseudo is Ultrasoft, Zval =  4.0
     Generated by new atomic code, or converted to UPF format
     Using radial grid of  721 points,  4 beta functions with:
                l(1) =   0
                l(2) =   0
                l(3) =   1
                l(4) =   1
     Q(r) pseudized with  8 coefficients,  rinner =    0.800   0.800   0.800

     PseudoPot. # 5 for H  read from file:
     /storage/coda1/p-amedford6/0/shared/rich_project_chbe-medford/medford-share/data/pseudos_module/espresso/nninc/pbe/van/H.UPF
     MD5 check sum: b5ee9d7bfd3a09ee7748110bda690ff7
     Pseudo is Ultrasoft, Zval =  1.0
     Generated by new atomic code, or converted to UPF format
     Using radial grid of  615 points,  1 beta functions with:
                l(1) =   0
     Q(r) pseudized with  8 coefficients,  rinner =    0.800

     atomic species   valence    mass     pseudopotential
        Ti1           12.00    47.86700     Ti( 1.00)
        O1             6.00    15.99900     O ( 1.00)
        N1             5.00    14.00700     N ( 1.00)
        C1             4.00    12.01100     C ( 1.00)
        H1             1.00     1.00800     H ( 1.00)

     No symmetry found

   Cartesian axes

     site n.     atom                  positions (alat units)
         1           Ti1 tau(   1) = (   0.0004258   2.9801865   6.0000000  )
         2           Ti1 tau(   2) = (   3.2906075   1.4906267   6.0002472  )
         3           O1  tau(   3) = (   0.0006271   0.0005054   7.9858123  )
         4           O1  tau(   4) = (   3.2906025   0.0005020   7.3038282  )
         5           O1  tau(   5) = (   4.5942328   1.4918067   9.2879030  )
         6           O1  tau(   6) = (   1.9868534   1.4903216   9.2879459  )
         7           Ti1 tau(   7) = (   3.2907910   2.8959150   9.1758416  )
         8           Ti1 tau(   8) = (   0.0015273   1.4827037   9.2680791  )
         9           O1  tau(   9) = (   3.3295752   5.9394884  11.3365386  )
        10           O1  tau(  10) = (   0.0116148   5.9584955  10.6183126  )
        11           O1  tau(  11) = (   1.3416459   1.4853116  12.6004455  )
        12           O1  tau(  12) = (   5.3426426   1.4786053  12.6369034  )
        13           Ti1 tau(  13) = (   0.0116414   2.9353973  12.6160321  )
        14           Ti1 tau(  14) = (   3.2634613   1.4579052  12.5012998  )
        15           O1  tau(  15) = (   0.1064876   0.0498873  14.6156690  )
        16           O1  tau(  16) = (   3.3207907   0.0021492  13.9347054  )
        17           O1  tau(  17) = (   4.6463059   1.4619937  15.9920056  )
        18           O1  tau(  18) = (   2.1466462   1.4989335  16.1123926  )
        19           Ti1 tau(  19) = (   3.4306617   2.9592634  15.6863987  )
        20           Ti1 tau(  20) = (   0.1411245   1.4409179  16.1562347  )
        21           O1  tau(  21) = (   3.2904802   0.0005063   4.7018136  )
        22           O1  tau(  22) = (   0.1093408   5.8617090  17.1288626  )
        23           O1  tau(  23) = (   1.3043587   1.4918075   6.0039043  )
        24           O1  tau(  24) = (   5.2767064   1.4903225   6.0039473  )
        25           Ti1 tau(  25) = (   0.0000382   5.9609847   6.0000000  )
        26           Ti1 tau(  26) = (   3.2902200   4.4714249   6.0002472  )
        27           O1  tau(  27) = (   0.0002396   2.9813036   7.9858123  )
        28           O1  tau(  28) = (   3.2902150   2.9813002   7.3038282  )
        29           O1  tau(  29) = (   4.5938453   4.4726049   9.2879030  )
        30           O1  tau(  30) = (   1.9864658   4.4711199   9.2879459  )
        31           Ti1 tau(  31) = (   3.2891106   5.8743827   9.1763621  )
        32           Ti1 tau(  32) = (   0.0006254   4.4649316   9.2693709  )
        33           O1  tau(  33) = (   3.3252478   2.9725824  11.3426849  )
        34           O1  tau(  34) = (   0.0092240   2.9805883  10.6323155  )
        35           O1  tau(  35) = (   1.3395427   4.4601989  12.6346899  )
        36           O1  tau(  36) = (   5.3460148   4.4586474  12.6692756  )
        37           Ti1 tau(  37) = (   6.5637397   5.9322234  12.5160321  )
        38           Ti1 tau(  38) = (   3.2635149   4.4558096  12.5102435  )
        39           O1  tau(  39) = (   0.1109093   2.9345503  14.7784033  )
        40           O1  tau(  40) = (   3.3425673   2.9461413  13.8942005  )
        41           O1  tau(  41) = (   4.6672108   4.4449251  15.9191901  )
        42           O1  tau(  42) = (   2.1284166   4.4082335  15.9970045  )
        43           Ti1 tau(  43) = (   3.3925976   5.9399099  15.7906296  )
        44           Ti1 tau(  44) = (   0.1175887   4.6074924  15.7225956  )
        45           O1  tau(  45) = (   3.2900926   2.9813045   4.7018136  )
        46           O1  tau(  46) = (   1.3039711   4.4726057   6.0039043  )
        47           O1  tau(  47) = (   5.2763189   4.4711207   6.0039473  )
        48           N1  tau(  48) = (   6.3322197   2.6896666  17.8857888  )
        49           C1  tau(  49) = (   0.7408832   3.1023054  18.6049742  )
        50           H1  tau(  50) = (   1.6825283   2.9574642  18.0630083  )
        51           N1  tau(  51) = (   5.0062801   2.8267163  18.4728511  )
        52           H1  tau(  52) = (   5.1803530   3.0494745  19.4549233  )
        53           H1  tau(  53) = (   4.5789568   1.9025856  18.4370215  )
        54           O1  tau(  54) = (   3.4803961   5.7297960  18.1507158  )
        55           H1  tau(  55) = (   4.0125945   4.9267423  18.3304466  )
        56           H1  tau(  56) = (   2.5980622   5.5532332  18.5127279  )

     number of k points=    10  Fermi-Dirac smearing, width (Ry)=  0.0073
                       cart. coord. in units 2pi/alat
        k(    1) = (   0.0000000   0.0000000   0.0000000), wk =   0.1250000
        k(    2) = (   0.0000000   0.0419351   0.0000000), wk =   0.2500000
        k(    3) = (   0.0000000  -0.0838702   0.0000000), wk =   0.1250000
        k(    4) = (   0.0379955   0.0000049   0.0000000), wk =   0.2500000
        k(    5) = (   0.0379955   0.0419400   0.0000000), wk =   0.2500000
        k(    6) = (   0.0379955  -0.0838652   0.0000000), wk =   0.2500000
        k(    7) = (   0.0379955  -0.0419301   0.0000000), wk =   0.2500000
        k(    8) = (  -0.0759910  -0.0000099   0.0000000), wk =   0.1250000
        k(    9) = (  -0.0759910   0.0419252   0.0000000), wk =   0.2500000
        k(   10) = (  -0.0759910  -0.0838800   0.0000000), wk =   0.1250000

     Initial potential from superposition of free atoms

     starting charge  386.99914, renormalised to  403.00000

     negative rho (up, down):  1.683E-02 0.000E+00

     %%%%%%%%%%%%%%%%%%%%%%%%%%%%%%%%%%%%%%%%%%%%%%%%%%%%%%%%%%%%%%%%%%%%%%%%
     %                                                                      %
     % You are using vdW-DF, which was implemented by the Thonhauser group. %
     % Please cite the following two papers that made this development      %
     % possible and the two reviews that describe the various versions:     %
     %                                                                      %
     %   T. Thonhauser et al., PRL 115, 136402 (2015).                      %
     %   T. Thonhauser et al., PRB 76, 125112 (2007).                       %
     %   K. Berland et al., Rep. Prog. Phys. 78, 066501 (2015).             %
     %   D.C. Langreth et al., J. Phys.: Condens. Matter 21, 084203 (2009). %
     %                                                                      %
     %                                                                      %
     % If you are calculating the stress with vdW-DF, please also cite:     %
     %                                                                      %
     %   R. Sabatini et al., J. Phys.: Condens. Matter 24, 424209 (2012).   %
     %                                                                      %
     %%%%%%%%%%%%%%%%%%%%%%%%%%%%%%%%%%%%%%%%%%%%%%%%%%%%%%%%%%%%%%%%%%%%%%%%

     Adding external electric field

     Computed dipole along edir(3) :
        Dipole              -12.6650 Ry au,        -32.1912 Debye
        Dipole field         -0.0239 Ry au,

        Potential amp.        2.2155 Ry
        Total length         46.3494 bohr

     Starting wfcs are  305 atomic wfcs
  @ DRIVER MODE: Message from server: STATUS
  @ DRIVER MODE: Message from server: POSDATA
  @ DRIVER MODE: Reading and sharing cell
  @ DRIVER MODE: Reading and sharing positions
  @ DRIVER MODE: Received positions

     Self-consistent Calculation

     iteration #  1     ecut=    29.40 Ry     beta= 0.05
     Davidson diagonalization with overlap
     c_bands:  3 eigenvalues not converged
     c_bands:  2 eigenvalues not converged
     c_bands:  5 eigenvalues not converged
     c_bands:  1 eigenvalues not converged
     c_bands:  4 eigenvalues not converged
     c_bands:  1 eigenvalues not converged
     c_bands:  2 eigenvalues not converged
     ethr =  1.00E-05,  avg # of iterations = 26.8

[...]

     total energy              =   -2339.27093047 Ry
     estimated scf accuracy    <    7193.01552428 Ry

     iteration #  2     ecut=    29.40 Ry     beta= 0.05
     Davidson diagonalization with overlap
     ethr =  1.00E-02,  avg # of iterations = 23.4

[...]

     iteration # 59     ecut=    29.40 Ry     beta= 0.05
     Davidson diagonalization with overlap
     c_bands:  2 eigenvalues not converged
     ethr =  1.22E-10,  avg # of iterations = 15.2

[...]

     total energy              =   -2973.87564479 Ry
     estimated scf accuracy    <       0.00000074 Ry

     iteration # 60     ecut=    29.40 Ry     beta= 0.05
     Davidson diagonalization with overlap
     ethr =  1.22E-10,  avg # of iterations = 10.4

     negative rho (up, down):  1.574E-02 0.000E+00

     Adding external electric field

     Computed dipole along edir(3) :
        Dipole                0.4405 Ry au,          1.1197 Debye
        Dipole field          0.0008 Ry au,

        Potential amp.       -0.0771 Ry
        Total length         46.3494 bohr

     End of self-consistent calculation

          k = 0.0000 0.0000 0.0000 ( 18029 PWs)   bands (ev):

   -55.9080 -55.8739 -55.8721 -55.8347 -55.7930 -55.7918 -55.7361 -55.7252
   -55.6987 -55.6914 -55.6909 -55.6577 -55.4683 -55.3808 -54.8910 -54.8570
   -32.4131 -32.3921 -32.2795 -32.2351 -32.2251 -32.2001 -32.1819 -32.1624
   -32.1526 -32.1103 -32.0624 -32.0604 -32.0465 -32.0362 -32.0264 -32.0250
   -32.0139 -32.0099 -32.0063 -31.9954 -31.9885 -31.9740 -31.9653 -31.9320
   -31.9228 -31.9196 -31.9175 -31.9124 -31.8894 -31.8885 -31.8810 -31.8682
   -31.8582 -31.8453 -31.8377 -31.8309 -31.8039 -31.7607 -31.6980 -31.6361
   -31.5947 -31.5226 -31.2982 -31.2095 -31.1871 -31.1150 -31.0285 -30.9173
   -18.8686 -17.1823 -16.6226 -16.3861 -16.1497 -16.0704 -16.0453 -15.8158
   -15.7205 -15.6649 -15.5685 -15.5067 -15.4780 -15.4477 -15.4249 -15.4041
   -15.3629 -15.3509 -15.3308 -15.3300 -15.3034 -15.2945 -15.2569 -15.2512
   -15.2040 -15.0807 -15.0466 -15.0412 -15.0120 -14.9736 -14.5320 -13.3927
   -13.2762 -12.8305  -7.1225  -6.5921  -5.4966  -4.0028  -3.8687  -3.8606
    -3.8167  -3.7516  -3.6034  -3.5744  -3.3758  -3.2401  -3.1758  -3.0958
    -3.0791  -3.0408  -3.0150  -2.9106  -2.8253  -2.7905  -2.7218  -2.7064
    -2.6815  -2.6737  -2.6443  -2.6205  -2.5351  -2.5168  -2.4762  -2.4426
    -2.3272  -2.3086  -2.2519  -2.2232  -2.2162  -2.1976  -2.1737  -2.1641
    -2.1494  -2.1377  -2.0791  -2.0517  -1.9683  -1.9033  -1.8395  -1.7034
    -1.5650  -1.5222  -1.5102  -1.4103  -1.3834  -1.3485  -1.3298  -1.3050
    -1.2926  -1.1665  -1.0881  -1.0247  -1.0178  -0.9470  -0.8541  -0.7945
    -0.7368  -0.6792  -0.6730  -0.6526  -0.6478  -0.6130  -0.5399  -0.4037
    -0.3659  -0.3257  -0.2924  -0.2048  -0.1958  -0.1504  -0.1190  -0.0986
    -0.0653   0.0132   0.0251   0.0561   0.0772   0.0984   0.1214   0.1794
     0.3081   0.3299   0.3487   0.4058   0.4417   0.6015   0.7423   0.7849
     0.8874   1.0608   1.1320   1.1564   1.2228   1.3235   1.7031   1.7490
     2.7630   3.2078   3.3115   3.3454   3.3526   3.4536   3.4784   3.6695
     3.7136   3.7505   3.7813

[...]

          k = 0.0380-0.0419 0.0000 ( 17876 PWs)   bands (ev):

[...]

          k =-0.0760-0.0000 0.0000 ( 17886 PWs)   bands (ev):

[...]

          k =-0.0760-0.0839 0.0000 ( 17948 PWs)   bands (ev):

   -55.8914 -55.8905 -55.8589 -55.8477 -55.7897 -55.7859 -55.7419 -55.7099
   -55.7058 -55.7018 -55.6749 -55.6744 -55.4655 -55.3835 -54.8740 -54.8738
   -32.2296 -32.2076 -32.2076 -32.2071 -32.1858 -32.1852 -32.1280 -32.1203
   -32.0997 -32.0926 -32.0896 -32.0377 -32.0365 -32.0286 -32.0247 -32.0238
   -32.0183 -32.0148 -32.0126 -32.0109 -32.0097 -32.0075 -31.9954 -31.9921
   -31.9753 -31.9535 -31.9522 -31.9125 -31.9105 -31.9037 -31.9031 -31.9005
   -31.8941 -31.8907 -31.8901 -31.8840 -31.8811 -31.7769 -31.6962 -31.6426
   -31.5984 -31.5892 -31.1998 -31.1998 -31.1110 -31.1108 -31.0718 -31.0718
   -18.8663 -17.1736 -16.0496 -15.9641 -15.9260 -15.8366 -15.7910 -15.7573
   -15.6978 -15.6249 -15.5862 -15.5812 -15.5555 -15.4975 -15.4826 -15.4543
   -15.4369 -15.4253 -15.4210 -15.3683 -15.3621 -15.3531 -15.3487 -15.3355
   -15.3328 -15.3074 -15.2324 -15.2295 -15.1070 -14.8974 -14.8728 -13.3780
   -13.3778 -12.8464  -7.0826  -6.5825  -5.4343  -3.6746  -3.3886  -3.3295
    -3.2260  -3.1147  -3.0145  -3.0069  -2.9710  -2.9268  -2.8563  -2.8314
    -2.7758  -2.7554  -2.7413  -2.7247  -2.7204  -2.7095  -2.6766  -2.6534
    -2.5974  -2.5926  -2.5852  -2.5769  -2.5648  -2.5572  -2.5354  -2.5289
    -2.5030  -2.4762  -2.4378  -2.4072  -2.3236  -2.2481  -2.1711  -2.1226
    -2.0919  -2.0591  -2.0526  -2.0089  -1.9895  -1.9771  -1.9600  -1.8957
    -1.7959  -1.6768  -1.6206  -1.5965  -1.5489  -1.5123  -1.4886  -1.3832
    -1.3318  -1.3172  -1.2159  -1.1946  -1.1701  -1.1162  -1.0509  -1.0362
    -0.9934  -0.9496  -0.9074  -0.8667  -0.8613  -0.8115  -0.7662  -0.7400
    -0.6574  -0.6477  -0.6035  -0.5932  -0.5812  -0.5430  -0.4970  -0.4158
    -0.3194  -0.2743  -0.2229  -0.0697   0.0038   0.1397   0.1923   0.2574
     0.2741   0.3734   0.4022   0.4044   0.4854   0.5293   0.5861   0.6179
     0.6229   0.6353   0.8003   1.1039   1.4955   1.4965   1.5687   1.5691
     2.7198   3.5408   3.5982   3.6117   3.6378   3.7241   3.7477   3.7582
     3.7599   3.8799   3.8954

     the Fermi energy is     3.2205 ev

!    total energy              =   -2973.87569687 Ry
     estimated scf accuracy    <       0.00000006 Ry
     smearing contrib. (-TS)   =      -0.02180043 Ry
     internal energy E=F+TS    =   -2973.85389645 Ry

     The total energy is F=E-TS. E is the sum of the following terms:
     one-electron contribution =  -24185.64680139 Ry
     hartree contribution      =   12184.35016820 Ry
     xc contribution           =    -494.00352255 Ry
     ewald contribution        =    9521.44589306 Ry
     electric field correction =       0.00036623 Ry

     convergence has been achieved in  60 iterations

     Forces acting on atoms (cartesian axes, Ry/au):

     atom    1 type  1   force =     0.00016247   -0.00030731    0.09558755
     atom    2 type  1   force =     0.00004887   -0.00045578   -0.17580337
     atom    3 type  2   force =     0.00023171    0.00002180   -0.02349527
     atom    4 type  2   force =     0.00008553   -0.00152673    0.05313051
     atom    5 type  2   force =    -0.01023710   -0.00137030    0.00263034
     atom    6 type  2   force =     0.01290752   -0.00101785    0.00441041
     atom    7 type  1   force =     0.00140052    0.00128980   -0.00565287
     atom    8 type  1   force =    -0.00059804    0.01374653    0.01965583
     atom    9 type  2   force =     0.00023899   -0.00055832    0.00105327
     atom   10 type  2   force =    -0.00153917   -0.00072313   -0.01580236
     atom   11 type  2   force =    -0.00105389    0.00025994   -0.00021848
     atom   12 type  2   force =     0.00040806    0.00000074    0.00014003
     atom   13 type  1   force =     0.00055443    0.00083622    0.00025886
     atom   14 type  1   force =    -0.00021637   -0.00007862    0.00043484
     atom   15 type  2   force =    -0.00035938   -0.00003315   -0.00036212
     atom   16 type  2   force =     0.00000295   -0.00086454   -0.00041904
     atom   17 type  2   force =    -0.00065105   -0.00018808   -0.00029336
     atom   18 type  2   force =     0.00019861   -0.00033128   -0.00041106
     atom   19 type  1   force =     0.00080044   -0.00068673   -0.00102360
     atom   20 type  1   force =    -0.00072626   -0.00071420   -0.00042364
     atom   21 type  2   force =     0.00007217    0.00001824    0.10318117
     atom   22 type  2   force =    -0.00002597    0.00118864    0.00048524
     atom   23 type  2   force =    -0.07148926   -0.00007835   -0.02757803
     atom   24 type  2   force =     0.07145638    0.00038092   -0.02763092
     atom   25 type  1   force =     0.00009778   -0.00026438    0.09539820
     atom   26 type  1   force =     0.00003926   -0.00022298   -0.17586566
     atom   27 type  2   force =     0.00024766   -0.00036737   -0.02224900
     atom   28 type  2   force =     0.00008163   -0.00122031    0.05318237
     atom   29 type  2   force =    -0.01027923    0.00029772    0.00174173
     atom   30 type  2   force =     0.01286989    0.00085614    0.00360110
     atom   31 type  1   force =     0.00161634    0.00306661   -0.01050547
     atom   32 type  1   force =    -0.00067850   -0.01565465    0.01962581
     atom   33 type  2   force =     0.00053459    0.00064460    0.00020487
     atom   34 type  2   force =    -0.00085332    0.00099436   -0.01348974
     atom   35 type  2   force =     0.00110259    0.00005375   -0.00044376
     atom   36 type  2   force =    -0.00119488    0.00013590   -0.00021260
     atom   37 type  1   force =    -0.00030840   -0.00044262    0.00004556
     atom   38 type  1   force =    -0.00090446    0.00038502   -0.00040941
     atom   39 type  2   force =    -0.00045060   -0.00051779    0.00018358
     atom   40 type  2   force =     0.00009419    0.00096800    0.00017610
     atom   41 type  2   force =    -0.00117491    0.00041296    0.00052218
     atom   42 type  2   force =     0.00108089   -0.00019101    0.00061025
     atom   43 type  1   force =     0.00006065    0.00103531   -0.00054165
     atom   44 type  1   force =    -0.00054638    0.00056838   -0.00166955
     atom   45 type  2   force =     0.00007436    0.00000827    0.10318759
     atom   46 type  2   force =    -0.07148430   -0.00004036   -0.02757577
     atom   47 type  2   force =     0.07145323    0.00038143   -0.02761358
     atom   48 type  3   force =     0.00006798    0.00035711    0.00032522
     atom   49 type  4   force =    -0.00005983   -0.00018449   -0.00063268
     atom   50 type  5   force =    -0.00107137   -0.00045932    0.00043690
     atom   51 type  3   force =     0.00043018    0.00028441   -0.00153197
     atom   52 type  5   force =    -0.00021930   -0.00016553    0.00093121
     atom   53 type  5   force =    -0.00069138   -0.00103468    0.00140142
     atom   54 type  2   force =     0.00542763    0.00116692   -0.00213851
     atom   55 type  5   force =    -0.00112359    0.00148061   -0.00065150
     atom   56 type  5   force =    -0.00591056   -0.00114047    0.00210281

     Total force =     0.366134     Total SCF correction =     0.000660
  @ DRIVER MODE: Message from server: STATUS
  @ DRIVER MODE: Message from server: GETFORCE
  @ DRIVER MODE: Returning v,forces,stress,ensemble

     Writing output data file ./calc.save/
  @ DRIVER MODE: Message from server: EXIT
  @ DRIVE MODE: Exiting

     General routines

     Parallel routines

   This run was terminated on:   8:49:30  16Sep2021

   JOB DONE.