     Program PWSCF v.6.7GPU starts on 19Oct2021 at  4: 5:52

     R & G space division:  proc/nbgrp/npool/nimage =       8
     Reading input from /storage/home/hcoda1/3/ntian30/research/carbon/CxH_vib/Thiel_calc/ads_slab/NH3NH3_perslab/out_0035/pw.inp
Warning: card &CELL ignored
Warning: card   CELL_DYNAMICS='IPI', ignored
Warning: card / ignored

     Current dimensions of program PWSCF are:
     Max number of different atomic species (ntypx) = 10
     Max number of k-points (npk) =  40000
     Max angular momentum in pseudopotentials (lmaxx) =  3
     Presently no symmetry can be used with electric field

     Message from routine cell_base_init:
     DEPRECATED: use true lattice parameter, not A to a.u. conversion factor

     IMPORTANT: XC functional enforced from input :
     Exchange-correlation= BEEF-VDW
                           (   1   4  43  14   2   0   0)
     Any further DFT definition will be discarded
     Please, verify this is what you really want

  @ DRIVER MODE: Connecting to
 qe_1139763_3255140.sched-torque.pace.gatech.eduqh6bjhh1_scratch
  using UNIX socket
  @ DRIVER MODE: Message from server: STATUS
  @ DRIVER MODE: Message from server: INIT
  @ DRIVER MODE: Receiving replica           0          -1
  @ DRIVER MODE: Receiving encoded integer          25
  @ DRIVER MODE:  SCF:  T  FORCE:  T  STRESS:  F  VC:  F  ENSEMBLE:  F
  @ DRIVER MODE:  SCF:  T  FORCE:  T  STRESS:  F  VC:  F  ENSEMBLE:  F

     Using Slab Decomposition

     bravais-lattice index     =            0
     lattice parameter (alat)  =       1.8897  a.u.
     unit-cell volume          =    9988.4706 (a.u.)^3
     number of atoms/cell      =           61
     number of atomic types    =            4
     number of electrons       =       442.00
     number of Kohn-Sham states=          231
     kinetic-energy cutoff     =      29.3995  Ry
     charge density cutoff     =     293.9946  Ry
     scf convergence threshold =      7.3E-08
     mixing beta               =       0.0500
     number of iterations used =            8  plain     mixing
     Exchange-correlation= BEEF-VDW
                           (   1   4  43  14   2   0   0)

     celldm(1)=   1.889726  celldm(2)=   0.000000  celldm(3)=   0.000000
     celldm(4)=   0.000000  celldm(5)=   0.000000  celldm(6)=   0.000000

     crystal axes: (cart. coord. in units of alat)
               a(1) = (   6.579727   0.000000   0.000000 )
               a(2) = (  -0.001163   8.942395   0.000000 )
               a(3) = (   0.000000   0.000000  25.155947 )

     reciprocal axes: (cart. coord. in units 2 pi/alat)
               b(1) = (  0.151982  0.000020  0.000000 )
               b(2) = (  0.000000  0.111827  0.000000 )
               b(3) = (  0.000000  0.000000  0.039752 )

     PseudoPot. # 1 for O  read from file:
     /storage/coda1/p-amedford6/0/shared/rich_project_chbe-medford/medford-share/data/pseudos_module/espresso/nninc/pbe/van/O.UPF
     MD5 check sum: 78c19812648e8988a0fe644b0f25305e
     Pseudo is Ultrasoft, Zval =  6.0
     Generated by new atomic code, or converted to UPF format
     Using radial grid of  737 points,  4 beta functions with:
                l(1) =   0
                l(2) =   0
                l(3) =   1
                l(4) =   1
     Q(r) pseudized with  8 coefficients,  rinner =    0.800   0.800   0.800

     PseudoPot. # 2 for Ti read from file:
     /storage/coda1/p-amedford6/0/shared/rich_project_chbe-medford/medford-share/data/pseudos_module/espresso/nninc/pbe/van/Ti.UPF
     MD5 check sum: 8e4df49b7f0d34bbd5052bf3f5ea0213
     Pseudo is Ultrasoft, Zval = 12.0
     Generated by new atomic code, or converted to UPF format
     Using radial grid of  851 points,  6 beta functions with:
                l(1) =   0
                l(2) =   0
                l(3) =   1
                l(4) =   1
                l(5) =   2
                l(6) =   2
     Q(r) pseudized with  8 coefficients,  rinner =    1.000   1.000   1.000
                                                       1.000   1.000

     PseudoPot. # 3 for N  read from file:
     /storage/coda1/p-amedford6/0/shared/rich_project_chbe-medford/medford-share/data/pseudos_module/espresso/nninc/pbe/van/N.UPF
     MD5 check sum: 90d10febe142ad51ac9d5be1deb811c4
     Pseudo is Ultrasoft, Zval =  5.0
     Generated by new atomic code, or converted to UPF format
     Using radial grid of  729 points,  4 beta functions with:
                l(1) =   0
                l(2) =   0
                l(3) =   1
                l(4) =   1
     Q(r) pseudized with  8 coefficients,  rinner =    0.800   0.800   0.800

     PseudoPot. # 4 for H  read from file:
     /storage/coda1/p-amedford6/0/shared/rich_project_chbe-medford/medford-share/data/pseudos_module/espresso/nninc/pbe/van/H.UPF
     MD5 check sum: b5ee9d7bfd3a09ee7748110bda690ff7
     Pseudo is Ultrasoft, Zval =  1.0
     Generated by new atomic code, or converted to UPF format
     Using radial grid of  615 points,  1 beta functions with:
                l(1) =   0
     Q(r) pseudized with  8 coefficients,  rinner =    0.800

     atomic species   valence    mass     pseudopotential
        O1             6.00    15.99900     O ( 1.00)
        Ti1           12.00    47.86700     Ti( 1.00)
        N1             5.00    14.00700     N ( 1.00)
        H1             1.00     1.00800     H ( 1.00)

     No symmetry found

   Cartesian axes

     site n.     atom                  positions (alat units)
         1           O1  tau(   1) = (   0.0007354   0.0005023  10.5931620  )
         2           O1  tau(   2) = (   3.2905679   0.0262843  13.8966672  )
         3           O1  tau(   3) = (   0.0007290   0.0579300  17.2579193  )
         4           O1  tau(   4) = (   0.0006271   0.0005054   7.9858123  )
         5           O1  tau(   5) = (   3.2893100   8.9214726  11.1892856  )
         6           O1  tau(   6) = (   0.0005199   0.0455907  14.6396817  )
         7           O1  tau(   7) = (   1.9868534   1.4903216   9.2879459  )
         8           O1  tau(   8) = (   5.2380180   1.6024468  12.5713634  )
         9           O1  tau(   9) = (   2.0277759   1.4975965  16.1012153  )
        10           Ti1 tau(  10) = (   0.0007404   1.4906270   9.2895810  )
        11           Ti1 tau(  11) = (   3.2903786   1.3551844  12.4711573  )
        12           Ti1 tau(  12) = (   0.0003174   1.4440192  15.7330511  )
        13           O1  tau(  13) = (   4.5942328   1.4918067   9.2879030  )
        14           O1  tau(  14) = (   1.3426987   1.6023923  12.5713351  )
        15           O1  tau(  15) = (   4.5529958   1.4977110  16.1013444  )
        16           Ti1 tau(  16) = (   3.2902859   2.9801868   9.2893338  )
        17           Ti1 tau(  17) = (   0.0005333   2.8255407  12.4640987  )
        18           Ti1 tau(  18) = (   3.2895849   3.0341113  15.6952405  )
        19           O1  tau(  19) = (   0.0003479   2.9813005  10.5931620  )
        20           O1  tau(  20) = (   3.2900438   2.9627632  13.8881152  )
        21           O1  tau(  21) = (   0.0002396   2.9813036   7.9858123  )
        22           O1  tau(  22) = (   3.2902621   2.9759438  11.1922459  )
        23           O1  tau(  23) = (   0.0002943   2.9805036  14.7119039  )
        24           O1  tau(  24) = (   1.9864658   4.4711199   9.2879459  )
        25           O1  tau(  25) = (   5.2407125   4.5787950  12.5855407  )
        26           O1  tau(  26) = (   1.9842138   4.3634165  16.0604883  )
        27           Ti1 tau(  27) = (   0.0003529   4.4714252   9.2895810  )
        28           Ti1 tau(  28) = (   3.2904166   4.3402611  12.5252975  )
        29           Ti1 tau(  29) = (  -0.0003584   4.7219071  15.7914592  )
        30           O1  tau(  30) = (   4.5938453   4.4726049   9.2879030  )
        31           O1  tau(  31) = (   1.3394863   4.5787101  12.5854501  )
        32           O1  tau(  32) = (   4.5953883   4.3633133  16.0606172  )
        33           Ti1 tau(  33) = (   3.2898983   5.9609850   9.2893338  )
        34           Ti1 tau(  34) = (   0.0004309   5.8055675  12.4642027  )
        35           Ti1 tau(  35) = (   3.2895961   6.0676247  15.8182862  )
        36           O1  tau(  36) = (  -0.0000397   5.9620987  10.5931620  )
        37           O1  tau(  37) = (   3.2897974   5.9491097  13.9522666  )
        38           O1  tau(  38) = (  -0.0001005   5.9419674  17.2168411  )
        39           O1  tau(  39) = (  -0.0001480   5.9621018   7.9858123  )
        40           O1  tau(  40) = (   3.2898294   5.9516608  11.2068290  )
        41           O1  tau(  41) = (  -0.0002620   6.0093330  14.6024556  )
        42           O1  tau(  42) = (   1.9860782   7.4519181   9.2879459  )
        43           O1  tau(  43) = (   5.2335766   7.5615516  12.5803788  )
        44           O1  tau(  44) = (   2.0229086   7.4656171  16.0362607  )
        45           Ti1 tau(  45) = (  -0.0000347   7.4522234   9.2895810  )
        46           Ti1 tau(  46) = (   3.2895523   7.2794780  12.5477951  )
        47           Ti1 tau(  47) = (  -0.0001499   7.5569733  16.2601047  )
        48           O1  tau(  48) = (   4.5934577   7.4534031   9.2879030  )
        49           O1  tau(  49) = (   1.3453152   7.5613653  12.5804751  )
        50           O1  tau(  50) = (   4.5562564   7.4656138  16.0364310  )
        51           Ti1 tau(  51) = (   3.2895107   8.9417832   9.2893338  )
        52           Ti1 tau(  52) = (  -0.0004710   8.7769229  12.4586551  )
        53           Ti1 tau(  53) = (   3.2909234   0.0582169  15.6986445  )
        54           N1  tau(  54) = (   3.2892347   5.9685454  18.1810142  )
        55           H1  tau(  55) = (   3.2893406   5.0219839  18.5418895  )
        56           H1  tau(  56) = (   2.4590131   6.4368771  18.5304692  )
        57           H1  tau(  57) = (   4.1190552   6.4372901  18.5310312  )
        58           N1  tau(  58) = (  -0.0003436   2.9015831  17.9177722  )
        59           H1  tau(  59) = (   6.5794260   1.9611702  18.3002355  )
        60           H1  tau(  60) = (   5.7593157   3.3919262  18.2600543  )
        61           H1  tau(  61) = (   0.8192290   3.3923488  18.2608005  )

     number of k points=    10  Fermi-Dirac smearing, width (Ry)=  0.0073
                       cart. coord. in units 2pi/alat
        k(    1) = (   0.0000000   0.0000000   0.0000000), wk =   0.1250000
        k(    2) = (   0.0000000   0.0279567   0.0000000), wk =   0.2500000
        k(    3) = (   0.0000000  -0.0559134   0.0000000), wk =   0.1250000
        k(    4) = (   0.0379955   0.0000049   0.0000000), wk =   0.2500000
        k(    5) = (   0.0379955   0.0279617   0.0000000), wk =   0.2500000
        k(    6) = (   0.0379955  -0.0559085   0.0000000), wk =   0.2500000
        k(    7) = (   0.0379955  -0.0279518   0.0000000), wk =   0.2500000
        k(    8) = (  -0.0759910  -0.0000099   0.0000000), wk =   0.1250000
        k(    9) = (  -0.0759910   0.0279468   0.0000000), wk =   0.2500000
        k(   10) = (  -0.0759910  -0.0559233   0.0000000), wk =   0.1250000

     Initial potential from superposition of free atoms

     starting charge  423.99908, renormalised to  442.00000

     negative rho (up, down):  3.647E-02 0.000E+00

     %%%%%%%%%%%%%%%%%%%%%%%%%%%%%%%%%%%%%%%%%%%%%%%%%%%%%%%%%%%%%%%%%%%%%%%%
     %                                                                      %
     % You are using vdW-DF, which was implemented by the Thonhauser group. %
     % Please cite the following two papers that made this development      %
     % possible and the two reviews that describe the various versions:     %
     %                                                                      %
     %   T. Thonhauser et al., PRL 115, 136402 (2015).                      %
     %   T. Thonhauser et al., PRB 76, 125112 (2007).                       %
     %   K. Berland et al., Rep. Prog. Phys. 78, 066501 (2015).             %
     %   D.C. Langreth et al., J. Phys.: Condens. Matter 21, 084203 (2009). %
     %                                                                      %
     %                                                                      %
     % If you are calculating the stress with vdW-DF, please also cite:     %
     %                                                                      %
     %   R. Sabatini et al., J. Phys.: Condens. Matter 24, 424209 (2012).   %
     %                                                                      %
     %%%%%%%%%%%%%%%%%%%%%%%%%%%%%%%%%%%%%%%%%%%%%%%%%%%%%%%%%%%%%%%%%%%%%%%%

     Adding external electric field

     Computed dipole along edir(3) :
        Dipole               -6.4263 Ry au,        -16.3339 Debye
        Dipole field         -0.0081 Ry au,

        Potential amp.        0.7495 Ry
        Total length         46.3494 bohr

     Starting wfcs are  334 atomic wfcs
  @ DRIVER MODE: Message from server: STATUS
  @ DRIVER MODE: Message from server: POSDATA
  @ DRIVER MODE: Reading and sharing cell
  @ DRIVER MODE: Reading and sharing positions
  @ DRIVER MODE: Received positions

     Self-consistent Calculation

     iteration #  1     ecut=    29.40 Ry     beta= 0.05
     Davidson diagonalization with overlap
     c_bands:  1 eigenvalues not converged
     c_bands:  2 eigenvalues not converged
     c_bands:  2 eigenvalues not converged
     c_bands:  2 eigenvalues not converged
     c_bands:  3 eigenvalues not converged
     c_bands:  5 eigenvalues not converged
     c_bands:  3 eigenvalues not converged
     c_bands:  2 eigenvalues not converged
     c_bands:  3 eigenvalues not converged
     ethr =  1.00E-05,  avg # of iterations = 19.8

[...]

     total energy              =   -3273.10320358 Ry
     estimated scf accuracy    <     292.42351544 Ry

     iteration #  2     ecut=    29.40 Ry     beta= 0.05
     Davidson diagonalization with overlap
     ethr =  1.00E-02,  avg # of iterations = 15.4

[...]

     iteration # 52     ecut=    29.40 Ry     beta= 0.05
     Davidson diagonalization with overlap
     c_bands:  1 eigenvalues not converged
     ethr =  1.81E-10,  avg # of iterations = 15.5

[...]

     total energy              =   -3295.91278378 Ry
     estimated scf accuracy    <       0.00000008 Ry

     iteration # 56     ecut=    29.40 Ry     beta= 0.05
     Davidson diagonalization with overlap
     ethr =  1.86E-11,  avg # of iterations = 10.2

     negative rho (up, down):  3.470E-02 0.000E+00

     Adding external electric field

     Computed dipole along edir(3) :
        Dipole                1.8657 Ry au,          4.7421 Debye
        Dipole field          0.0023 Ry au,

        Potential amp.       -0.2176 Ry
        Total length         46.3494 bohr

     End of self-consistent calculation

          k = 0.0000 0.0000 0.0000 ( 26871 PWs)   bands (ev):

   -57.5956 -57.5554 -57.5318 -57.5258 -57.4958 -57.3965 -57.3887 -57.3681
   -57.3534 -57.3283 -57.3020 -57.2830 -57.2201 -57.1597 -57.0639 -56.5675
   -56.5424 -56.5414 -33.9765 -33.9370 -33.9324 -33.9065 -33.8882 -33.8697
   -33.8676 -33.8581 -33.8315 -33.8211 -33.8104 -33.7952 -33.7787 -33.7608
   -33.7505 -33.7369 -33.7225 -33.6898 -33.6820 -33.6792 -33.6689 -33.6540
   -33.6488 -33.6460 -33.6397 -33.6088 -33.5899 -33.5865 -33.5765 -33.5623
   -33.5593 -33.5533 -33.5396 -33.5378 -33.5346 -33.5205 -33.5163 -33.5027
   -33.5010 -33.4721 -33.4140 -33.3678 -33.3406 -33.3350 -33.2409 -32.8828
   -32.8805 -32.8790 -32.8662 -32.8652 -32.7933 -32.7293 -32.7283 -32.5931
   -18.3912 -18.0531 -17.8404 -17.7861 -17.7631 -17.6902 -17.6405 -17.6233
   -17.5553 -17.4925 -17.3676 -17.3287 -17.3235 -17.3103 -17.3023 -17.2385
   -17.2245 -17.2082 -17.2048 -17.1880 -17.1839 -17.1408 -17.0679 -17.0587
   -17.0178 -17.0037 -16.9831 -16.9805 -16.9326 -16.8799 -16.8699 -16.6759
   -16.6365 -16.4848 -15.0344 -14.9773 -14.9750  -7.7471  -7.7262  -7.5476
    -7.4503  -5.7149  -5.5324  -5.4674  -5.3729  -5.0006  -4.9430  -4.9287
    -4.9025  -4.8608  -4.8197  -4.8046  -4.7796  -4.7786  -4.7348  -4.6911
    -4.6659  -4.6465  -4.5470  -4.5097  -4.4716  -4.4414  -4.4349  -4.3835
    -4.3678  -4.3282  -4.3278  -4.2794  -4.2389  -4.2284  -4.2075  -4.1401
    -4.1212  -4.0175  -3.9289  -3.8717  -3.8646  -3.8240  -3.8105  -3.7646
    -3.7421  -3.7040  -3.6829  -3.6365  -3.6125  -3.5444  -3.4924  -3.3915
    -3.2959  -3.2691  -3.2428  -3.2206  -3.1759  -3.1229  -3.0034  -2.9627
    -2.9304  -2.9088  -2.8189  -2.8122  -2.7285  -2.7125  -2.6977  -2.6536
    -2.6012  -2.5877  -2.5539  -2.4375  -2.4163  -2.3229  -2.3145  -2.3125
    -2.2831  -2.2213  -2.2097  -2.1857  -2.1636  -2.1362  -2.1220  -2.0830
    -2.0799  -1.9812  -1.9596  -1.9034  -1.8807  -1.8804  -1.7820  -1.7649
    -1.7391  -1.7265  -1.6588  -1.5751  -1.4651  -1.4143  -1.3890  -1.3860
    -1.2867  -1.2584  -1.2153  -1.1351  -0.7991  -0.6025  -0.3154  -0.2712
    -0.2709  -0.0084  -0.0067   0.1219   1.4447   1.6598   1.6812   1.8732
     1.8956   1.9394   2.0260   2.0339   2.0960   2.1955   2.2112

[...]

          k = 0.0380-0.0280 0.0000 ( 26873 PWs)   bands (ev):

[...]

          k =-0.0760-0.0000 0.0000 ( 26902 PWs)   bands (ev):

[...]

          k =-0.0760-0.0559 0.0000 ( 26868 PWs)   bands (ev):

   -57.5954 -57.5493 -57.5438 -57.5200 -57.4960 -57.3942 -57.3886 -57.3729
   -57.3506 -57.3263 -57.3064 -57.2808 -57.2199 -57.1600 -57.0638 -56.5594
   -56.5584 -56.5334 -34.0279 -34.0159 -33.9196 -33.8942 -33.8844 -33.8796
   -33.8782 -33.8565 -33.8279 -33.8147 -33.7797 -33.7455 -33.7400 -33.7370
   -33.7260 -33.6982 -33.6946 -33.6899 -33.6845 -33.6815 -33.6439 -33.6379
   -33.6350 -33.6278 -33.6094 -33.6092 -33.6066 -33.6045 -33.6007 -33.5880
   -33.5804 -33.5726 -33.5711 -33.5620 -33.5412 -33.5293 -33.5248 -33.5170
   -33.5011 -33.4267 -33.4204 -33.3733 -33.3410 -33.3367 -33.2739 -32.9714
   -32.8820 -32.8809 -32.8571 -32.7724 -32.7714 -32.7072 -32.6907 -32.6894
   -18.0810 -18.0176 -17.7614 -17.7074 -17.6911 -17.6551 -17.6399 -17.5626
   -17.5426 -17.5267 -17.5059 -17.4458 -17.3874 -17.3386 -17.3367 -17.3299
   -17.2598 -17.2548 -17.2472 -17.2426 -17.1966 -17.1823 -17.1613 -17.1163
   -17.0387 -16.9689 -16.9559 -16.9492 -16.9103 -16.8954 -16.8441 -16.7097
   -16.7017 -16.4115 -15.0329 -15.0305 -14.9139  -7.7549  -7.7116  -7.5564
    -7.4503  -5.3377  -5.3076  -5.2780  -5.2136  -5.0228  -4.8629  -4.8323
    -4.8257  -4.7883  -4.7388  -4.7116  -4.7046  -4.6959  -4.6786  -4.6638
    -4.6155  -4.6117  -4.5860  -4.5132  -4.4722  -4.4674  -4.4485  -4.4343
    -4.4284  -4.3602  -4.2857  -4.2181  -4.1724  -4.1573  -4.1412  -4.0932
    -4.0566  -4.0268  -3.9843  -3.9736  -3.9052  -3.7956  -3.7135  -3.6736
    -3.6730  -3.6325  -3.5836  -3.5824  -3.4806  -3.4195  -3.3444  -3.2126
    -3.2070  -3.1945  -3.1697  -3.1556  -3.1152  -3.1059  -3.0814  -3.0302
    -3.0202  -2.9986  -2.9377  -2.8717  -2.7862  -2.7583  -2.7254  -2.7189
    -2.6931  -2.6832  -2.6554  -2.6520  -2.6185  -2.6094  -2.5555  -2.5283
    -2.4765  -2.4496  -2.4062  -2.3208  -2.3049  -2.2827  -2.1890  -2.1289
    -2.1107  -2.1069  -2.0778  -2.0311  -1.9338  -1.8398  -1.8041  -1.7597
    -1.6483  -1.6478  -1.6439  -1.6281  -1.5539  -1.5399  -1.3364  -1.3242
    -1.2652  -1.1896  -1.1500  -1.1143  -1.1119  -0.8946  -0.4842  -0.2008
    -0.1877  -0.1640  -0.0113  -0.0063   1.5908   1.6727   1.7076   1.7572
     1.7929   1.7962   1.8021   1.8660   1.9296   1.9395   2.1800

     the Fermi energy is     1.5289 ev

!    total energy              =   -3295.91284301 Ry
     estimated scf accuracy    <       0.00000003 Ry
     smearing contrib. (-TS)   =      -0.03397497 Ry
     internal energy E=F+TS    =   -3295.87886804 Ry

     The total energy is F=E-TS. E is the sum of the following terms:
     one-electron contribution =  -34427.97995743 Ry
     hartree contribution      =   17282.48226443 Ry
     xc contribution           =    -543.76058283 Ry
     ewald contribution        =   14393.37502861 Ry
     electric field correction =       0.00437917 Ry

     convergence has been achieved in  56 iterations

     Forces acting on atoms (cartesian axes, Ry/au):

     atom    1 type  1   force =     0.00001613    0.00450330    0.05615898
     atom    2 type  1   force =     0.00000035   -0.00095146   -0.00072548
     atom    3 type  1   force =    -0.00000919    0.00171719   -0.00015401
     atom    4 type  1   force =     0.00005848    0.00031253    0.10697997
     atom    5 type  1   force =     0.00000249    0.00081179    0.00980303
     atom    6 type  1   force =     0.00000595   -0.00261952    0.00107845
     atom    7 type  1   force =     0.06729697   -0.00023687   -0.02911303
     atom    8 type  1   force =     0.00475412   -0.02827777    0.00257530
     atom    9 type  1   force =     0.00728740   -0.00158705   -0.00299460
     atom   10 type  2   force =    -0.00005239   -0.00148229   -0.18424273
     atom   11 type  2   force =     0.00003732    0.02164221   -0.00779365
     atom   12 type  2   force =     0.00003260   -0.00245375    0.01178372
     atom   13 type  1   force =    -0.06739919   -0.00069865   -0.02907839
     atom   14 type  1   force =    -0.00478002   -0.02827912    0.00257569
     atom   15 type  1   force =    -0.00730903   -0.00158635   -0.00301029
     atom   16 type  2   force =     0.00009420    0.00012842    0.06630903
     atom   17 type  2   force =    -0.00001181    0.03587689    0.00371141
     atom   18 type  2   force =     0.00002164   -0.01046855   -0.00431380
     atom   19 type  1   force =     0.00001901    0.00443764    0.05988049
     atom   20 type  1   force =    -0.00000273    0.00083270   -0.00596463
     atom   21 type  1   force =     0.00005879    0.00018544    0.10722111
     atom   22 type  1   force =    -0.00000097   -0.00066146    0.00886078
     atom   23 type  1   force =    -0.00000599    0.00493259    0.00311095
     atom   24 type  1   force =     0.06803757    0.00051186   -0.02900831
     atom   25 type  1   force =     0.00341754   -0.02996826    0.00208711
     atom   26 type  1   force =     0.01017499    0.02030909    0.00200829
     atom   27 type  2   force =    -0.00005932    0.00002894   -0.18366079
     atom   28 type  2   force =     0.00003492    0.02157803   -0.00595108
     atom   29 type  2   force =     0.00001155   -0.02194675   -0.00572780
     atom   30 type  1   force =    -0.06813639    0.00006396   -0.02897656
     atom   31 type  1   force =    -0.00345034   -0.02995482    0.00209507
     atom   32 type  1   force =    -0.01020249    0.02031445    0.00200539
     atom   33 type  2   force =     0.00010493   -0.00025922    0.06932967
     atom   34 type  2   force =    -0.00001484    0.03687576    0.00372818
     atom   35 type  2   force =     0.00000206   -0.02933217    0.01042505
     atom   36 type  1   force =     0.00002537    0.00482280    0.05628688
     atom   37 type  1   force =    -0.00001041    0.00205957   -0.00520703
     atom   38 type  1   force =    -0.00000507    0.00432770   -0.00010438
     atom   39 type  1   force =     0.00005643    0.00002675    0.10680561
     atom   40 type  1   force =    -0.00000532   -0.00060335    0.00813301
     atom   41 type  1   force =     0.00000285    0.00077145    0.00244413
     atom   42 type  1   force =     0.06807021   -0.00120264   -0.02960535
     atom   43 type  1   force =     0.00353318   -0.02804434    0.00205485
     atom   44 type  1   force =     0.01052151    0.01134579    0.00281872
     atom   45 type  2   force =    -0.00006058   -0.00196807   -0.18353199
     atom   46 type  2   force =     0.00003464    0.01958084   -0.00653854
     atom   47 type  2   force =    -0.00000773   -0.01046509   -0.01271165
     atom   48 type  1   force =    -0.06816477   -0.00164359   -0.02956800
     atom   49 type  1   force =    -0.00354895   -0.02804515    0.00205278
     atom   50 type  1   force =    -0.01054161    0.01134875    0.00280626
     atom   51 type  2   force =     0.00009656   -0.00308215    0.06759826
     atom   52 type  2   force =    -0.00002044    0.03494006    0.00625895
     atom   53 type  2   force =     0.00000261    0.00507477    0.00132446
     atom   54 type  3   force =     0.00007746    0.00064680   -0.00249387
     atom   55 type  4   force =    -0.00000684   -0.00142214   -0.00039179
     atom   56 type  4   force =    -0.00128765    0.00056549    0.00022665
     atom   57 type  4   force =     0.00118869    0.00052515    0.00018976
     atom   58 type  3   force =     0.00010854    0.00445173   -0.00177168
     atom   59 type  4   force =    -0.00000327   -0.00519832    0.00337675
     atom   60 type  4   force =     0.00075817   -0.00153243   -0.00072214
     atom   61 type  4   force =    -0.00084788   -0.00157912   -0.00074314

     Total force =     0.454850     Total SCF correction =     0.000468
  @ DRIVER MODE: Message from server: STATUS
  @ DRIVER MODE: Message from server: GETFORCE
  @ DRIVER MODE: Returning v,forces,stress,ensemble

     Writing output data file ./calc.save/
  @ DRIVER MODE: Message from server: EXIT
  @ DRIVE MODE: Exiting

     General routines

     Parallel routines

   This run was terminated on:   4:35:51  19Oct2021

   JOB DONE.