     Program PWSCF v.6.7GPU starts on 15Sep2021 at 11: 9:55

     R & G space division:  proc/nbgrp/npool/nimage =      10
     Reading input from /storage/home/hcoda1/3/ntian30/research/carbon/CxH_vib/CH_calc/ads_slab/CHOH_d/out_0006/pw.inp
Warning: card &CELL ignored
Warning: card   CELL_DYNAMICS='IPI', ignored
Warning: card / ignored

     Current dimensions of program PWSCF are:
     Max number of different atomic species (ntypx) = 10
     Max number of k-points (npk) =  40000
     Max angular momentum in pseudopotentials (lmaxx) =  3
     Presently no symmetry can be used with electric field

     Message from routine cell_base_init:
     DEPRECATED: use true lattice parameter, not A to a.u. conversion factor

     IMPORTANT: XC functional enforced from input :
     Exchange-correlation= BEEF-VDW
                           (   1   4  43  14   2   0   0)
     Any further DFT definition will be discarded
     Please, verify this is what you really want

  @ DRIVER MODE: Connecting to
 qe_1139763_2850204.sched-torque.pace.gatech.eduk7xwmeo4_scratch
  using UNIX socket
  @ DRIVER MODE: Message from server: STATUS
  @ DRIVER MODE: Message from server: INIT
  @ DRIVER MODE: Receiving replica           0          -1
  @ DRIVER MODE: Receiving encoded integer          25
  @ DRIVER MODE:  SCF:  T  FORCE:  T  STRESS:  F  VC:  F  ENSEMBLE:  F
  @ DRIVER MODE:  SCF:  T  FORCE:  T  STRESS:  F  VC:  F  ENSEMBLE:  F

     Using Slab Decomposition

     bravais-lattice index     =            0
     lattice parameter (alat)  =       1.8897  a.u.
     unit-cell volume          =    6658.9804 (a.u.)^3
     number of atoms/cell      =           51
     number of atomic types    =            4
     number of electrons       =       390.00
     number of Kohn-Sham states=          205
     kinetic-energy cutoff     =      29.3995  Ry
     charge density cutoff     =     293.9946  Ry
     scf convergence threshold =      7.3E-08
     mixing beta               =       0.0500
     number of iterations used =            8  plain     mixing
     Exchange-correlation= BEEF-VDW
                           (   1   4  43  14   2   0   0)

     celldm(1)=   1.889726  celldm(2)=   0.000000  celldm(3)=   0.000000
     celldm(4)=   0.000000  celldm(5)=   0.000000  celldm(6)=   0.000000

     crystal axes: (cart. coord. in units of alat)
               a(1) = (   6.579727   0.000000   0.000000 )
               a(2) = (  -0.000775   5.961596   0.000000 )
               a(3) = (   0.000000   0.000000  25.155947 )

     reciprocal axes: (cart. coord. in units 2 pi/alat)
               b(1) = (  0.151982  0.000020  0.000000 )
               b(2) = (  0.000000  0.167740  0.000000 )
               b(3) = (  0.000000  0.000000  0.039752 )

     PseudoPot. # 1 for Ti read from file:
     /storage/coda1/p-amedford6/0/shared/rich_project_chbe-medford/medford-share/data/pseudos_module/espresso/nninc/pbe/van/Ti.UPF
     MD5 check sum: 8e4df49b7f0d34bbd5052bf3f5ea0213
     Pseudo is Ultrasoft, Zval = 12.0
     Generated by new atomic code, or converted to UPF format
     Using radial grid of  851 points,  6 beta functions with:
                l(1) =   0
                l(2) =   0
                l(3) =   1
                l(4) =   1
                l(5) =   2
                l(6) =   2
     Q(r) pseudized with  8 coefficients,  rinner =    1.000   1.000   1.000
                                                       1.000   1.000

     PseudoPot. # 2 for O  read from file:
     /storage/coda1/p-amedford6/0/shared/rich_project_chbe-medford/medford-share/data/pseudos_module/espresso/nninc/pbe/van/O.UPF
     MD5 check sum: 78c19812648e8988a0fe644b0f25305e
     Pseudo is Ultrasoft, Zval =  6.0
     Generated by new atomic code, or converted to UPF format
     Using radial grid of  737 points,  4 beta functions with:
                l(1) =   0
                l(2) =   0
                l(3) =   1
                l(4) =   1
     Q(r) pseudized with  8 coefficients,  rinner =    0.800   0.800   0.800

     PseudoPot. # 3 for C  read from file:
     /storage/coda1/p-amedford6/0/shared/rich_project_chbe-medford/medford-share/data/pseudos_module/espresso/nninc/pbe/van/C.UPF
     MD5 check sum: 1a69bf6b8db32088f5b2163dbdb77a27
     Pseudo is Ultrasoft, Zval =  4.0
     Generated by new atomic code, or converted to UPF format
     Using radial grid of  721 points,  4 beta functions with:
                l(1) =   0
                l(2) =   0
                l(3) =   1
                l(4) =   1
     Q(r) pseudized with  8 coefficients,  rinner =    0.800   0.800   0.800

     PseudoPot. # 4 for H  read from file:
     /storage/coda1/p-amedford6/0/shared/rich_project_chbe-medford/medford-share/data/pseudos_module/espresso/nninc/pbe/van/H.UPF
     MD5 check sum: b5ee9d7bfd3a09ee7748110bda690ff7
     Pseudo is Ultrasoft, Zval =  1.0
     Generated by new atomic code, or converted to UPF format
     Using radial grid of  615 points,  1 beta functions with:
                l(1) =   0
     Q(r) pseudized with  8 coefficients,  rinner =    0.800

     atomic species   valence    mass     pseudopotential
        Ti1           12.00    47.86700     Ti( 1.00)
        O1             6.00    15.99900     O ( 1.00)
        C1             4.00    12.01100     C ( 1.00)
        H1             1.00     1.00800     H ( 1.00)

     No symmetry found

   Cartesian axes

     site n.     atom                  positions (alat units)
         1           Ti1 tau(   1) = (   0.0004258   2.9801865   6.0000000  )
         2           Ti1 tau(   2) = (   3.2906075   1.4906267   6.0002472  )
         3           O1  tau(   3) = (   0.0006271   0.0005054   7.9858123  )
         4           O1  tau(   4) = (   3.2906025   0.0005020   7.3038282  )
         5           O1  tau(   5) = (   4.5942328   1.4918067   9.2879030  )
         6           O1  tau(   6) = (   1.9868534   1.4903216   9.2879459  )
         7           Ti1 tau(   7) = (   3.2907309   2.9776765   9.1658812  )
         8           Ti1 tau(   8) = (   0.0000975   1.4630848   9.2758602  )
         9           O1  tau(   9) = (   3.2992614   5.9483050  11.3479409  )
        10           O1  tau(  10) = (   0.0007063   5.9515697  10.5933799  )
        11           O1  tau(  11) = (   1.2886368   1.4758772  12.6169360  )
        12           O1  tau(  12) = (   5.2821765   1.4725572  12.6321404  )
        13           Ti1 tau(  13) = (   0.0439011   2.9969894  12.8193871  )
        14           Ti1 tau(  14) = (   3.3815342   1.4778063  12.4828959  )
        15           O1  tau(  15) = (   0.0352585   5.9375929  14.6168471  )
        16           O1  tau(  16) = (   3.2809659   0.0029960  13.9351646  )
        17           O1  tau(  17) = (   4.5639172   1.5021510  16.0678584  )
        18           O1  tau(  18) = (   2.0588050   1.5241738  16.1323679  )
        19           Ti1 tau(  19) = (   3.3289217   2.9983165  15.7225387  )
        20           Ti1 tau(  20) = (   0.0567091   1.5532474  16.1006893  )
        21           O1  tau(  21) = (   3.2904802   0.0005063   4.7018136  )
        22           O1  tau(  22) = (   0.0083150   5.8936170  17.2391820  )
        23           O1  tau(  23) = (   1.3043587   1.4918075   6.0039043  )
        24           O1  tau(  24) = (   5.2767064   1.4903225   6.0039473  )
        25           Ti1 tau(  25) = (   0.0000382   5.9609847   6.0000000  )
        26           Ti1 tau(  26) = (   3.2902200   4.4714249   6.0002472  )
        27           O1  tau(  27) = (   0.0002396   2.9813036   7.9858123  )
        28           O1  tau(  28) = (   3.2902150   2.9813002   7.3038282  )
        29           O1  tau(  29) = (   4.5938453   4.4726049   9.2879030  )
        30           O1  tau(  30) = (   1.9864658   4.4711199   9.2879459  )
        31           Ti1 tau(  31) = (   3.2906741   5.9584693   9.1623309  )
        32           Ti1 tau(  32) = (   0.0020182   4.4105903   9.4029630  )
        33           O1  tau(  33) = (   3.2963946   2.9714859  11.3431964  )
        34           O1  tau(  34) = (  -0.0003580   2.9688738  10.5596877  )
        35           O1  tau(  35) = (   1.2880207   4.4560207  12.6239755  )
        36           O1  tau(  36) = (   5.2744328   4.4398676  12.6388197  )
        37           Ti1 tau(  37) = (   0.0843456   0.0234473  12.6131129  )
        38           Ti1 tau(  38) = (   3.3736736   4.4543396  12.4891683  )
        39           O1  tau(  39) = (   0.0394168   2.9432389  14.6713939  )
        40           O1  tau(  40) = (   3.2833495   2.9670780  13.9230463  )
        41           O1  tau(  41) = (   4.5592427   4.4833083  16.0293399  )
        42           O1  tau(  42) = (   2.0780377   4.4655606  16.1075158  )
        43           Ti1 tau(  43) = (   3.3267552   0.0098278  15.7307941  )
        44           Ti1 tau(  44) = (   0.0353388   4.6693566  15.9825682  )
        45           O1  tau(  45) = (   3.2900926   2.9813045   4.7018136  )
        46           C1  tau(  46) = (   6.5364748   2.8130622  17.7364117  )
        47           O1  tau(  47) = (   1.3039711   4.4726057   6.0039043  )
        48           O1  tau(  48) = (   5.2763189   4.4711207   6.0139473  )
        49           H1  tau(  49) = (   0.8622447   3.0922372  18.2894884  )
        50           O1  tau(  50) = (   5.4077661   2.9637287  18.5068037  )
        51           H1  tau(  51) = (   5.6109787   3.4346953  19.3318178  )

     number of k points=    10  Fermi-Dirac smearing, width (Ry)=  0.0073
                       cart. coord. in units 2pi/alat
        k(    1) = (   0.0000000   0.0000000   0.0000000), wk =   0.1250000
        k(    2) = (   0.0000000   0.0419351   0.0000000), wk =   0.2500000
        k(    3) = (   0.0000000  -0.0838702   0.0000000), wk =   0.1250000
        k(    4) = (   0.0379955   0.0000049   0.0000000), wk =   0.2500000
        k(    5) = (   0.0379955   0.0419400   0.0000000), wk =   0.2500000
        k(    6) = (   0.0379955  -0.0838652   0.0000000), wk =   0.2500000
        k(    7) = (   0.0379955  -0.0419301   0.0000000), wk =   0.2500000
        k(    8) = (  -0.0759910  -0.0000099   0.0000000), wk =   0.1250000
        k(    9) = (  -0.0759910   0.0419252   0.0000000), wk =   0.2500000
        k(   10) = (  -0.0759910  -0.0838800   0.0000000), wk =   0.1250000

     Initial potential from superposition of free atoms

     starting charge  373.99919, renormalised to  390.00000

     negative rho (up, down):  1.919E-02 0.000E+00

     %%%%%%%%%%%%%%%%%%%%%%%%%%%%%%%%%%%%%%%%%%%%%%%%%%%%%%%%%%%%%%%%%%%%%%%%
     %                                                                      %
     % You are using vdW-DF, which was implemented by the Thonhauser group. %
     % Please cite the following two papers that made this development      %
     % possible and the two reviews that describe the various versions:     %
     %                                                                      %
     %   T. Thonhauser et al., PRL 115, 136402 (2015).                      %
     %   T. Thonhauser et al., PRB 76, 125112 (2007).                       %
     %   K. Berland et al., Rep. Prog. Phys. 78, 066501 (2015).             %
     %   D.C. Langreth et al., J. Phys.: Condens. Matter 21, 084203 (2009). %
     %                                                                      %
     %                                                                      %
     % If you are calculating the stress with vdW-DF, please also cite:     %
     %                                                                      %
     %   R. Sabatini et al., J. Phys.: Condens. Matter 24, 424209 (2012).   %
     %                                                                      %
     %%%%%%%%%%%%%%%%%%%%%%%%%%%%%%%%%%%%%%%%%%%%%%%%%%%%%%%%%%%%%%%%%%%%%%%%

     Adding external electric field

     Computed dipole along edir(3) :
        Dipole               -4.8543 Ry au,        -12.3383 Debye
        Dipole field         -0.0092 Ry au,

        Potential amp.        0.8492 Ry
        Total length         46.3494 bohr

     Starting wfcs are  294 atomic wfcs
  @ DRIVER MODE: Message from server: STATUS
  @ DRIVER MODE: Message from server: POSDATA
  @ DRIVER MODE: Reading and sharing cell
  @ DRIVER MODE: Reading and sharing positions
  @ DRIVER MODE: Received positions

     Self-consistent Calculation

     iteration #  1     ecut=    29.40 Ry     beta= 0.05
     Davidson diagonalization with overlap
     c_bands:  4 eigenvalues not converged
     c_bands:  3 eigenvalues not converged
     c_bands:  3 eigenvalues not converged
     c_bands:  2 eigenvalues not converged
     c_bands:  2 eigenvalues not converged
     c_bands:  3 eigenvalues not converged
     c_bands:  1 eigenvalues not converged
     ethr =  1.00E-05,  avg # of iterations = 19.4

[...]

     total energy              =   -2870.93198178 Ry
     estimated scf accuracy    <     677.03267204 Ry

     iteration #  2     ecut=    29.40 Ry     beta= 0.05
     Davidson diagonalization with overlap
     ethr =  1.00E-02,  avg # of iterations = 15.7

[...]

     iteration # 39     ecut=    29.40 Ry     beta= 0.05
     Davidson diagonalization with overlap
     c_bands:  1 eigenvalues not converged
     ethr =  1.13E-06,  avg # of iterations =  7.5

[...]

     total energy              =   -2930.03849233 Ry
     estimated scf accuracy    <       0.00000007 Ry

     iteration # 72     ecut=    29.40 Ry     beta= 0.05
     Davidson diagonalization with overlap
     ethr =  1.92E-11,  avg # of iterations =  2.0

     negative rho (up, down):  1.867E-02 0.000E+00

     Adding external electric field

     Computed dipole along edir(3) :
        Dipole                0.8292 Ry au,          2.1077 Debye
        Dipole field          0.0016 Ry au,

        Potential amp.       -0.1451 Ry
        Total length         46.3494 bohr

     End of self-consistent calculation

          k = 0.0000 0.0000 0.0000 ( 18029 PWs)   bands (ev):

   -56.0420 -56.0064 -55.9839 -55.9476 -55.9048 -55.8354 -55.8352 -55.7456
   -55.7287 -55.7017 -55.6945 -55.5650 -55.1253 -55.0474 -54.9807 -54.9466
   -32.5367 -32.4929 -32.3464 -32.3207 -32.3051 -32.3022 -32.2895 -32.2297
   -32.2115 -32.2000 -32.1996 -32.1840 -32.1659 -32.1545 -32.1337 -32.1283
   -32.1194 -32.1177 -32.1166 -32.0478 -32.0214 -32.0137 -31.9924 -31.9751
   -31.9622 -31.9554 -31.9537 -31.9465 -31.9159 -31.9130 -31.8707 -31.8658
   -31.8238 -31.7785 -31.7617 -31.7527 -31.6131 -31.4967 -31.4116 -31.3893
   -31.3881 -31.2973 -31.2743 -31.2047 -31.1808 -31.1186 -31.0801 -31.0078
   -19.4330 -16.6919 -16.3825 -16.2257 -16.0760 -16.0714 -15.9678 -15.6976
   -15.6373 -15.5236 -15.5159 -15.5091 -15.4785 -15.4717 -15.4525 -15.4339
   -15.4085 -15.3957 -15.3887 -15.3472 -15.2990 -15.2215 -15.1995 -15.1467
   -15.1056 -15.1014 -15.0640 -14.9173 -14.9025 -14.5934 -13.4821 -13.3654
    -8.8009  -5.8894  -4.0598  -3.9027  -3.8726  -3.8554  -3.7348  -3.5029
    -3.4392  -3.1542  -3.1080  -3.1015  -3.0955  -3.0154  -2.9453  -2.8650
    -2.7996  -2.7535  -2.7246  -2.7193  -2.7133  -2.7100  -2.6711  -2.6409
    -2.5654  -2.5177  -2.4371  -2.3895  -2.3681  -2.3404  -2.3380  -2.3011
    -2.2160  -2.2109  -2.1602  -2.1522  -2.0850  -2.0691  -2.0356  -1.9737
    -1.8035  -1.7679  -1.7311  -1.6876  -1.6279  -1.4117  -1.3916  -1.3813
    -1.3542  -1.3225  -1.2698  -1.2550  -1.1283  -1.0933  -1.0426  -1.0157
    -0.9462  -0.9217  -0.8317  -0.8090  -0.7542  -0.7395  -0.6963  -0.6819
    -0.6325  -0.4475  -0.3965  -0.3543  -0.3216  -0.2816  -0.2284  -0.2280
    -0.1660  -0.1202  -0.1113  -0.1023  -0.0087   0.0191   0.0358   0.0525
     0.0591   0.1581   0.1703   0.2398   0.2995   0.4748   0.4780   0.6115
     0.6456   0.6738   0.7070   0.8357   0.9612   1.0418   1.1789   1.2249
     1.6296   1.6962   2.8965   3.1816   3.2648   3.3231   3.3439   3.4206
     3.5733   3.6292   3.6660   3.6898   3.7265

[...]

          k = 0.0380-0.0419 0.0000 ( 17876 PWs)   bands (ev):

[...]

          k =-0.0760-0.0000 0.0000 ( 17886 PWs)   bands (ev):

[...]

          k =-0.0760-0.0839 0.0000 ( 17948 PWs)   bands (ev):

   -56.0298 -56.0185 -55.9676 -55.9638 -55.9002 -55.8396 -55.8322 -55.7488
   -55.7127 -55.7101 -55.6997 -55.5671 -55.1218 -55.0509 -54.9648 -54.9624
   -32.3410 -32.3383 -32.3155 -32.3107 -32.3038 -32.2954 -32.2752 -32.2430
   -32.1948 -32.1914 -32.1883 -32.1667 -32.1627 -32.1584 -32.1571 -32.1266
   -32.1166 -32.0996 -32.0675 -32.0496 -32.0441 -32.0253 -32.0245 -32.0182
   -32.0049 -31.9741 -31.9644 -31.9601 -31.9591 -31.9203 -31.9099 -31.9068
   -31.8857 -31.8767 -31.7916 -31.7680 -31.5329 -31.4952 -31.4079 -31.3915
   -31.2884 -31.2858 -31.2678 -31.2021 -31.2003 -31.1628 -31.1606 -31.0837
   -19.4324 -16.1359 -16.1212 -15.8716 -15.8641 -15.7855 -15.7495 -15.6782
   -15.6770 -15.6604 -15.6421 -15.6121 -15.5746 -15.5332 -15.5138 -15.4993
   -15.4738 -15.4680 -15.4480 -15.4044 -15.3934 -15.2609 -15.2513 -15.2459
   -15.2412 -15.2068 -15.1583 -15.1242 -15.0759 -14.6928 -13.4677 -13.4664
    -8.8073  -5.8978  -3.4296  -3.4146  -3.0974  -3.0922  -3.0250  -2.9882
    -2.9101  -2.8908  -2.8319  -2.8157  -2.7927  -2.7913  -2.7840  -2.7597
    -2.7030  -2.6879  -2.6846  -2.6486  -2.6286  -2.5947  -2.5666  -2.5568
    -2.5364  -2.5342  -2.4973  -2.4801  -2.4712  -2.4582  -2.4452  -2.4377
    -2.3018  -2.1966  -2.1714  -2.1254  -2.0489  -2.0438  -2.0293  -2.0049
    -1.9715  -1.9582  -1.9242  -1.8444  -1.6871  -1.6733  -1.6501  -1.6132
    -1.5080  -1.4653  -1.3730  -1.3008  -1.2507  -1.2179  -1.1712  -1.1579
    -1.1428  -1.1112  -1.0642  -0.9911  -0.9568  -0.9392  -0.9255  -0.9032
    -0.8146  -0.7860  -0.7657  -0.7334  -0.7043  -0.6025  -0.5721  -0.5390
    -0.5087  -0.4741  -0.4183  -0.3908  -0.2905  -0.2887   0.0485   0.0656
     0.0826   0.1385   0.2088   0.3070   0.3388   0.3840   0.4808   0.5161
     0.5705   0.6038   0.6233   0.6764   0.6914   0.7096   1.4103   1.4108
     1.4891   1.4965   3.0927   3.4345   3.4625   3.4898   3.5329   3.6566
     3.6734   3.6803   3.6978   3.8930   3.9380

     the Fermi energy is     3.1176 ev

!    total energy              =   -2930.03850283 Ry
     estimated scf accuracy    <       0.00000004 Ry
     smearing contrib. (-TS)   =      -0.02064395 Ry
     internal energy E=F+TS    =   -2930.01785889 Ry

     The total energy is F=E-TS. E is the sum of the following terms:
     one-electron contribution =  -24526.44699126 Ry
     hartree contribution      =   12348.27600281 Ry
     xc contribution           =    -481.12153575 Ry
     ewald contribution        =    9729.27336763 Ry
     electric field correction =       0.00129769 Ry

     convergence has been achieved in  72 iterations

     Forces acting on atoms (cartesian axes, Ry/au):

     atom    1 type  1   force =    -0.00020822    0.00197779    0.12191572
     atom    2 type  1   force =    -0.00016030    0.00020019   -0.17599839
     atom    3 type  2   force =     0.00017830    0.00580718   -0.04160597
     atom    4 type  2   force =    -0.00012663    0.00043450    0.04677086
     atom    5 type  2   force =    -0.02228346   -0.00182762    0.00395462
     atom    6 type  2   force =     0.02253022   -0.00138846    0.00403049
     atom    7 type  1   force =    -0.00061896    0.00239068   -0.00666534
     atom    8 type  1   force =     0.00069658   -0.00171929    0.00434860
     atom    9 type  2   force =     0.00005687    0.00034874   -0.00018928
     atom   10 type  2   force =     0.00006600    0.00100641    0.00012064
     atom   11 type  2   force =     0.00027931    0.00130862   -0.00033218
     atom   12 type  2   force =     0.00022407    0.00130278   -0.00064528
     atom   13 type  1   force =     0.00013088   -0.00012937   -0.00040671
     atom   14 type  1   force =     0.00002664    0.00010941    0.00063987
     atom   15 type  2   force =     0.00003510   -0.00064639   -0.00017201
     atom   16 type  2   force =     0.00021927   -0.00012263    0.00192137
     atom   17 type  2   force =    -0.00093110    0.00038728   -0.00025163
     atom   18 type  2   force =     0.00055593    0.00018652   -0.00021487
     atom   19 type  1   force =    -0.00015002   -0.00103784   -0.00056575
     atom   20 type  1   force =    -0.00045342   -0.00045118   -0.00033941
     atom   21 type  2   force =     0.00029105   -0.00014912    0.10343462
     atom   22 type  2   force =    -0.00027131    0.00070567   -0.00020404
     atom   23 type  2   force =    -0.06991097    0.00048102   -0.03144159
     atom   24 type  2   force =     0.06988757    0.00092949   -0.03164407
     atom   25 type  1   force =     0.00012817   -0.00191699    0.12839220
     atom   26 type  1   force =     0.00003336   -0.00059781   -0.17540998
     atom   27 type  2   force =     0.00021442   -0.00380036   -0.03775117
     atom   28 type  2   force =    -0.00017505   -0.00053396    0.04763866
     atom   29 type  2   force =    -0.02396790   -0.00045718    0.00454386
     atom   30 type  2   force =     0.02415022    0.00012301    0.00468588
     atom   31 type  1   force =    -0.00082341   -0.00335557   -0.00589703
     atom   32 type  1   force =    -0.00005108   -0.00004859   -0.00094760
     atom   33 type  2   force =     0.00006376   -0.00015864    0.00034592
     atom   34 type  2   force =     0.00006108   -0.00061865   -0.00006763
     atom   35 type  2   force =    -0.00016834   -0.00021217   -0.00017396
     atom   36 type  2   force =     0.00069142    0.00019257   -0.00064651
     atom   37 type  1   force =     0.00071199   -0.00039811    0.00117805
     atom   38 type  1   force =    -0.00005710   -0.00032040    0.00035164
     atom   39 type  2   force =     0.00007352   -0.00032343   -0.00057265
     atom   40 type  2   force =     0.00018262    0.00050874    0.00152067
     atom   41 type  2   force =    -0.00021076   -0.00024496   -0.00018484
     atom   42 type  2   force =    -0.00015876   -0.00023888   -0.00005229
     atom   43 type  1   force =    -0.00060739    0.00023608   -0.00091928
     atom   44 type  1   force =    -0.00051858    0.00084315   -0.00061234
     atom   45 type  2   force =     0.00031419    0.00031235    0.10346013
     atom   46 type  3   force =     0.00051467    0.00065516    0.00143387
     atom   47 type  2   force =    -0.07053739   -0.00082672   -0.03170832
     atom   48 type  2   force =     0.06989017   -0.00035676   -0.03332723
     atom   49 type  4   force =    -0.00038796    0.00016138   -0.00086779
     atom   50 type  2   force =     0.00026413    0.00084556    0.00012481
     atom   51 type  4   force =     0.00030662    0.00042677   -0.00099734

     Total force =     0.385093     Total SCF correction =     0.000573
  @ DRIVER MODE: Message from server: STATUS
  @ DRIVER MODE: Message from server: GETFORCE
  @ DRIVER MODE: Returning v,forces,stress,ensemble

     Writing output data file ./calc.save/
  @ DRIVER MODE: Message from server: EXIT
  @ DRIVE MODE: Exiting

     General routines

     Parallel routines

   This run was terminated on:  11:27: 2  15Sep2021

   JOB DONE.