     Program PWSCF v.6.7GPU starts on 26Sep2021 at  6:49:18

     R & G space division:  proc/nbgrp/npool/nimage =       8
     Reading input from /storage/home/hcoda1/3/ntian30/research/carbon/CxH_vib/H2O_calc/ads_slab/CH3ON2H2O_a/out_0032/pw.inp
Warning: card &CELL ignored
Warning: card   CELL_DYNAMICS='IPI', ignored
Warning: card / ignored

     Current dimensions of program PWSCF are:
     Max number of different atomic species (ntypx) = 10
     Max number of k-points (npk) =  40000
     Max angular momentum in pseudopotentials (lmaxx) =  3
     Presently no symmetry can be used with electric field

     Message from routine cell_base_init:
     DEPRECATED: use true lattice parameter, not A to a.u. conversion factor

     IMPORTANT: XC functional enforced from input :
     Exchange-correlation= BEEF-VDW
                           (   1   4  43  14   2   0   0)
     Any further DFT definition will be discarded
     Please, verify this is what you really want

  @ DRIVER MODE: Connecting to
 qe_1139763_2971672.sched-torque.pace.gatech.eduu92diqap_scratch
  using UNIX socket
  @ DRIVER MODE: Message from server: STATUS
  @ DRIVER MODE: Message from server: INIT
  @ DRIVER MODE: Receiving replica           0          -1
  @ DRIVER MODE: Receiving encoded integer          25
  @ DRIVER MODE:  SCF:  T  FORCE:  T  STRESS:  F  VC:  F  ENSEMBLE:  F
  @ DRIVER MODE:  SCF:  T  FORCE:  T  STRESS:  F  VC:  F  ENSEMBLE:  F

     Using Slab Decomposition

     bravais-lattice index     =            0
     lattice parameter (alat)  =       1.8897  a.u.
     unit-cell volume          =    6658.9804 (a.u.)^3
     number of atoms/cell      =           57
     number of atomic types    =            5
     number of electrons       =       409.00
     number of Kohn-Sham states=          214
     kinetic-energy cutoff     =      29.3995  Ry
     charge density cutoff     =     293.9946  Ry
     scf convergence threshold =      7.3E-08
     mixing beta               =       0.0500
     number of iterations used =            8  plain     mixing
     Exchange-correlation= BEEF-VDW
                           (   1   4  43  14   2   0   0)

     celldm(1)=   1.889726  celldm(2)=   0.000000  celldm(3)=   0.000000
     celldm(4)=   0.000000  celldm(5)=   0.000000  celldm(6)=   0.000000

     crystal axes: (cart. coord. in units of alat)
               a(1) = (   6.579727   0.000000   0.000000 )
               a(2) = (  -0.000775   5.961596   0.000000 )
               a(3) = (   0.000000   0.000000  25.155947 )

     reciprocal axes: (cart. coord. in units 2 pi/alat)
               b(1) = (  0.151982  0.000020  0.000000 )
               b(2) = (  0.000000  0.167740  0.000000 )
               b(3) = (  0.000000  0.000000  0.039752 )

     PseudoPot. # 1 for Ti read from file:
     /storage/coda1/p-amedford6/0/shared/rich_project_chbe-medford/medford-share/data/pseudos_module/espresso/nninc/pbe/van/Ti.UPF
     MD5 check sum: 8e4df49b7f0d34bbd5052bf3f5ea0213
     Pseudo is Ultrasoft, Zval = 12.0
     Generated by new atomic code, or converted to UPF format
     Using radial grid of  851 points,  6 beta functions with:
                l(1) =   0
                l(2) =   0
                l(3) =   1
                l(4) =   1
                l(5) =   2
                l(6) =   2
     Q(r) pseudized with  8 coefficients,  rinner =    1.000   1.000   1.000
                                                       1.000   1.000

     PseudoPot. # 2 for O  read from file:
     /storage/coda1/p-amedford6/0/shared/rich_project_chbe-medford/medford-share/data/pseudos_module/espresso/nninc/pbe/van/O.UPF
     MD5 check sum: 78c19812648e8988a0fe644b0f25305e
     Pseudo is Ultrasoft, Zval =  6.0
     Generated by new atomic code, or converted to UPF format
     Using radial grid of  737 points,  4 beta functions with:
                l(1) =   0
                l(2) =   0
                l(3) =   1
                l(4) =   1
     Q(r) pseudized with  8 coefficients,  rinner =    0.800   0.800   0.800

     PseudoPot. # 3 for C  read from file:
     /storage/coda1/p-amedford6/0/shared/rich_project_chbe-medford/medford-share/data/pseudos_module/espresso/nninc/pbe/van/C.UPF
     MD5 check sum: 1a69bf6b8db32088f5b2163dbdb77a27
     Pseudo is Ultrasoft, Zval =  4.0
     Generated by new atomic code, or converted to UPF format
     Using radial grid of  721 points,  4 beta functions with:
                l(1) =   0
                l(2) =   0
                l(3) =   1
                l(4) =   1
     Q(r) pseudized with  8 coefficients,  rinner =    0.800   0.800   0.800

     PseudoPot. # 4 for H  read from file:
     /storage/coda1/p-amedford6/0/shared/rich_project_chbe-medford/medford-share/data/pseudos_module/espresso/nninc/pbe/van/H.UPF
     MD5 check sum: b5ee9d7bfd3a09ee7748110bda690ff7
     Pseudo is Ultrasoft, Zval =  1.0
     Generated by new atomic code, or converted to UPF format
     Using radial grid of  615 points,  1 beta functions with:
                l(1) =   0
     Q(r) pseudized with  8 coefficients,  rinner =    0.800

     PseudoPot. # 5 for N  read from file:
     /storage/coda1/p-amedford6/0/shared/rich_project_chbe-medford/medford-share/data/pseudos_module/espresso/nninc/pbe/van/N.UPF
     MD5 check sum: 90d10febe142ad51ac9d5be1deb811c4
     Pseudo is Ultrasoft, Zval =  5.0
     Generated by new atomic code, or converted to UPF format
     Using radial grid of  729 points,  4 beta functions with:
                l(1) =   0
                l(2) =   0
                l(3) =   1
                l(4) =   1
     Q(r) pseudized with  8 coefficients,  rinner =    0.800   0.800   0.800

     atomic species   valence    mass     pseudopotential
        Ti1           12.00    47.86700     Ti( 1.00)
        O1             6.00    15.99900     O ( 1.00)
        C1             4.00    12.01100     C ( 1.00)
        H1             1.00     1.00800     H ( 1.00)
        N1             5.00    14.00700     N ( 1.00)

     No symmetry found

   Cartesian axes

     site n.     atom                  positions (alat units)
         1           Ti1 tau(   1) = (   0.0004258   2.9801865   6.0000000  )
         2           Ti1 tau(   2) = (   3.2906075   1.4906267   6.0002472  )
         3           O1  tau(   3) = (   0.0006271   0.0005054   7.9858123  )
         4           O1  tau(   4) = (   3.2906025   0.0005020   7.3038282  )
         5           O1  tau(   5) = (   4.5942328   1.4918067   9.2879030  )
         6           O1  tau(   6) = (   1.9868534   1.4903216   9.2879459  )
         7           Ti1 tau(   7) = (   3.3113259   3.0354369   9.1618307  )
         8           Ti1 tau(   8) = (   0.0141821   1.6139659   9.3625064  )
         9           O1  tau(   9) = (   3.2964399   0.0287090  11.3517035  )
        10           O1  tau(  10) = (   0.0046459   0.0167322  10.6079620  )
        11           O1  tau(  11) = (   1.2916403   1.5142126  12.6509924  )
        12           O1  tau(  12) = (   5.2954765   1.5212855  12.6445515  )
        13           Ti1 tau(  13) = (   0.0303381   3.0181167  12.7741416  )
        14           Ti1 tau(  14) = (   3.3376880   1.5190318  12.5019279  )
        15           O1  tau(  15) = (   6.5702980   0.0162101  14.7136675  )
        16           O1  tau(  16) = (   3.3118210   0.0215951  13.9605728  )
        17           O1  tau(  17) = (   4.5586303   1.5408398  16.0643691  )
        18           O1  tau(  18) = (   2.0376984   1.5397913  16.0346728  )
        19           Ti1 tau(  19) = (   3.2806018   3.0126274  15.6982083  )
        20           Ti1 tau(  20) = (   0.0204579   1.3876160  16.0921805  )
        21           O1  tau(  21) = (   3.2904802   0.0005063   4.7018136  )
        22           O1  tau(  22) = (   0.0362274   0.0182013  17.2505027  )
        23           O1  tau(  23) = (   1.3043587   1.4918075   6.0039043  )
        24           O1  tau(  24) = (   5.2767064   1.4903225   6.0039473  )
        25           Ti1 tau(  25) = (   0.0000382   5.9609847   6.0000000  )
        26           Ti1 tau(  26) = (   3.2902200   4.4714249   6.0002472  )
        27           O1  tau(  27) = (   0.0002396   2.9813036   7.9858123  )
        28           O1  tau(  28) = (   3.2902150   2.9813002   7.3038282  )
        29           O1  tau(  29) = (   4.5938453   4.4726049   9.2879030  )
        30           O1  tau(  30) = (   1.9864658   4.4711199   9.2879459  )
        31           Ti1 tau(  31) = (   3.2918133   0.0584897   9.1554610  )
        32           Ti1 tau(  32) = (   0.0176696   4.5429683   9.2683582  )
        33           O1  tau(  33) = (   3.2944385   3.0046939  11.3531965  )
        34           O1  tau(  34) = (   0.0071923   2.9964285  10.5824339  )
        35           O1  tau(  35) = (   1.2923070   4.5060354  12.6395470  )
        36           O1  tau(  36) = (   5.2930342   4.4972821  12.6335129  )
        37           Ti1 tau(  37) = (   0.0360028   0.0369787  12.5252624  )
        38           Ti1 tau(  38) = (   3.3378333   4.5109478  12.5016189  )
        39           O1  tau(  39) = (   0.0182598   3.0415135  14.6926035  )
        40           O1  tau(  40) = (   3.2973286   3.0139918  13.9115332  )
        41           O1  tau(  41) = (   4.5518717   4.4752506  16.0920674  )
        42           O1  tau(  42) = (   2.0385343   4.4722040  16.0556704  )
        43           Ti1 tau(  43) = (   3.3273276   0.0437280  15.7880462  )
        44           Ti1 tau(  44) = (   0.0148993   4.5306414  15.9319406  )
        45           O1  tau(  45) = (   3.2900926   2.9813045   4.7018136  )
        46           O1  tau(  46) = (   1.3039711   4.4726057   6.0039043  )
        47           O1  tau(  47) = (   5.2763189   4.4711207   6.0039473  )
        48           C1  tau(  48) = (   6.0619278   3.0088867  18.6555636  )
        49           O1  tau(  49) = (   6.5788924   2.9994598  17.3400993  )
        50           H1  tau(  50) = (   4.9713474   2.8828304  18.6515055  )
        51           H1  tau(  51) = (   6.4909130   2.1836263  19.2313859  )
        52           H1  tau(  52) = (   6.3070107   3.9563896  19.1453893  )
        53           N1  tau(  53) = (   6.0050546   3.0301018  22.7159517  )
        54           N1  tau(  54) = (   5.2276613   3.1827328  21.9368001  )
        55           O1  tau(  55) = (   3.1818816   0.0591848  18.2205797  )
        56           H1  tau(  56) = (   3.8437189   5.3938241  18.5518935  )
        57           H1  tau(  57) = (   2.3086839   5.6188137  18.3735615  )

     number of k points=    10  Fermi-Dirac smearing, width (Ry)=  0.0073
                       cart. coord. in units 2pi/alat
        k(    1) = (   0.0000000   0.0000000   0.0000000), wk =   0.1250000
        k(    2) = (   0.0000000   0.0419351   0.0000000), wk =   0.2500000
        k(    3) = (   0.0000000  -0.0838702   0.0000000), wk =   0.1250000
        k(    4) = (   0.0379955   0.0000049   0.0000000), wk =   0.2500000
        k(    5) = (   0.0379955   0.0419400   0.0000000), wk =   0.2500000
        k(    6) = (   0.0379955  -0.0838652   0.0000000), wk =   0.2500000
        k(    7) = (   0.0379955  -0.0419301   0.0000000), wk =   0.2500000
        k(    8) = (  -0.0759910  -0.0000099   0.0000000), wk =   0.1250000
        k(    9) = (  -0.0759910   0.0419252   0.0000000), wk =   0.2500000
        k(   10) = (  -0.0759910  -0.0838800   0.0000000), wk =   0.1250000

     Initial potential from superposition of free atoms

     starting charge  392.99914, renormalised to  409.00000

     negative rho (up, down):  9.738E-03 0.000E+00

     %%%%%%%%%%%%%%%%%%%%%%%%%%%%%%%%%%%%%%%%%%%%%%%%%%%%%%%%%%%%%%%%%%%%%%%%
     %                                                                      %
     % You are using vdW-DF, which was implemented by the Thonhauser group. %
     % Please cite the following two papers that made this development      %
     % possible and the two reviews that describe the various versions:     %
     %                                                                      %
     %   T. Thonhauser et al., PRL 115, 136402 (2015).                      %
     %   T. Thonhauser et al., PRB 76, 125112 (2007).                       %
     %   K. Berland et al., Rep. Prog. Phys. 78, 066501 (2015).             %
     %   D.C. Langreth et al., J. Phys.: Condens. Matter 21, 084203 (2009). %
     %                                                                      %
     %                                                                      %
     % If you are calculating the stress with vdW-DF, please also cite:     %
     %                                                                      %
     %   R. Sabatini et al., J. Phys.: Condens. Matter 24, 424209 (2012).   %
     %                                                                      %
     %%%%%%%%%%%%%%%%%%%%%%%%%%%%%%%%%%%%%%%%%%%%%%%%%%%%%%%%%%%%%%%%%%%%%%%%

     Adding external electric field

     Computed dipole along edir(3) :
        Dipole              -18.5715 Ry au,        -47.2041 Debye
        Dipole field         -0.0350 Ry au,

        Potential amp.        3.2488 Ry
        Total length         46.3494 bohr

     Starting wfcs are  309 atomic wfcs
  @ DRIVER MODE: Message from server: STATUS
  @ DRIVER MODE: Message from server: POSDATA
  @ DRIVER MODE: Reading and sharing cell
  @ DRIVER MODE: Reading and sharing positions
  @ DRIVER MODE: Received positions

     Self-consistent Calculation

     iteration #  1     ecut=    29.40 Ry     beta= 0.05
     Davidson diagonalization with overlap
     c_bands:  3 eigenvalues not converged
     c_bands:  2 eigenvalues not converged
     c_bands:  2 eigenvalues not converged
     c_bands:  5 eigenvalues not converged
     c_bands:  5 eigenvalues not converged
     c_bands:  5 eigenvalues not converged
     c_bands:  1 eigenvalues not converged
     c_bands:  3 eigenvalues not converged
     ethr =  1.00E-05,  avg # of iterations = 28.5

[...]

     total energy              =   -2113.17900422 Ry
     estimated scf accuracy    <   10297.51056975 Ry

     iteration #  2     ecut=    29.40 Ry     beta= 0.05
     Davidson diagonalization with overlap
     ethr =  1.00E-02,  avg # of iterations = 31.0

[...]

     iteration # 63     ecut=    29.40 Ry     beta= 0.05
     Davidson diagonalization with overlap
     c_bands:  1 eigenvalues not converged
     ethr =  8.87E-11,  avg # of iterations = 16.5

[...]

     total energy              =   -3006.52104553 Ry
     estimated scf accuracy    <       0.00000009 Ry

     iteration # 68     ecut=    29.40 Ry     beta= 0.05
     Davidson diagonalization with overlap
     ethr =  2.23E-11,  avg # of iterations = 10.6

     negative rho (up, down):  1.090E-02 0.000E+00

     Adding external electric field

     Computed dipole along edir(3) :
        Dipole                0.9967 Ry au,          2.5332 Debye
        Dipole field          0.0019 Ry au,

        Potential amp.       -0.1743 Ry
        Total length         46.3494 bohr

     End of self-consistent calculation

          k = 0.0000 0.0000 0.0000 ( 18029 PWs)   bands (ev):

   -55.2856 -55.2510 -55.2497 -55.2146 -55.1920 -55.1766 -55.1689 -55.1333
   -55.0825 -55.0644 -55.0488 -55.0410 -55.0071 -54.9533 -54.2925 -54.2584
   -31.8080 -31.7548 -31.6779 -31.6460 -31.6244 -31.5774 -31.5602 -31.5565
   -31.5204 -31.5153 -31.4785 -31.4649 -31.4584 -31.4494 -31.4453 -31.4323
   -31.4263 -31.3901 -31.3848 -31.3771 -31.3730 -31.3541 -31.3502 -31.3411
   -31.3334 -31.3273 -31.3115 -31.2900 -31.2797 -31.2741 -31.2708 -31.2636
   -31.2604 -31.2449 -31.2321 -31.2220 -31.2204 -31.1856 -31.1707 -31.1502
   -31.1380 -31.1366 -30.7017 -30.6060 -30.5836 -30.5184 -30.4323 -30.3212
   -21.3146 -18.7343 -17.1982 -16.0003 -15.7299 -15.5697 -15.4386 -15.4033
   -15.2163 -15.0947 -14.9620 -14.9378 -14.8841 -14.8568 -14.8224 -14.8117
   -14.8068 -14.7946 -14.7865 -14.7398 -14.7052 -14.6878 -14.6873 -14.6640
   -14.6153 -14.5618 -14.4967 -14.4317 -14.4031 -14.3615 -14.2923 -14.2842
   -12.7933 -12.6754  -9.1234  -6.6502  -6.5277  -4.5065  -4.4946  -3.9157
    -3.7662  -3.4710  -3.3638  -3.2797  -3.2122  -3.1898  -3.1682  -3.0929
    -2.9820  -2.8458  -2.7503  -2.5111  -2.4558  -2.4130  -2.3814  -2.3523
    -2.1956  -2.1708  -2.1021  -2.0910  -2.0823  -2.0716  -2.0446  -2.0154
    -1.9898  -1.9579  -1.8989  -1.8747  -1.8043  -1.6734  -1.6648  -1.6328
    -1.5864  -1.5701  -1.5685  -1.5418  -1.4978  -1.4788  -1.4544  -1.4490
    -1.3520  -1.2597  -1.2169  -1.1226  -1.0430  -0.9701  -0.8474  -0.8089
    -0.7356  -0.7023  -0.6862  -0.6326  -0.5833  -0.5728  -0.5144  -0.4675
    -0.3599  -0.3173  -0.2754  -0.2383  -0.1871  -0.1430  -0.0722  -0.0387
    -0.0063  -0.0018   0.0193   0.2177   0.2289   0.2803   0.2930   0.3900
     0.4426   0.4771   0.4903   0.4995   0.5375   0.6131   0.6687   0.6772
     0.7090   0.7448   0.7641   0.8103   0.8512   0.9035   0.9331   0.9678
     1.0344   1.0748   1.2287   1.3236   1.3674   1.4834   1.6403   1.7315
     1.8054   1.9056   2.3183   2.3757   3.8958   3.9300   3.9567   3.9751
     4.0430   4.1420   4.2587   4.3495   4.3592   4.3896

[...]

          k = 0.0380-0.0419 0.0000 ( 17876 PWs)   bands (ev):

[...]

          k =-0.0760-0.0000 0.0000 ( 17886 PWs)   bands (ev):

[...]

          k =-0.0760-0.0839 0.0000 ( 17948 PWs)   bands (ev):

   -55.2734 -55.2617 -55.2350 -55.2304 -55.1889 -55.1744 -55.1582 -55.1441
   -55.0852 -55.0614 -55.0511 -55.0263 -55.0219 -54.9559 -54.2759 -54.2748
   -31.6198 -31.6033 -31.5776 -31.5758 -31.5656 -31.5642 -31.5468 -31.5138
   -31.5068 -31.4900 -31.4867 -31.4763 -31.4411 -31.4307 -31.4103 -31.4060
   -31.4012 -31.3992 -31.3976 -31.3916 -31.3886 -31.3852 -31.3738 -31.3653
   -31.3591 -31.3505 -31.3496 -31.3479 -31.3426 -31.3170 -31.2912 -31.2783
   -31.2756 -31.2743 -31.2714 -31.2629 -31.2540 -31.2418 -31.2320 -31.2227
   -31.1812 -31.1475 -30.5969 -30.5956 -30.5152 -30.5142 -30.4759 -30.4749
   -21.3145 -18.7333 -17.1678 -15.4684 -15.3593 -15.2303 -15.1657 -15.1430
   -15.1163 -15.0634 -15.0471 -14.9916 -14.9874 -14.9368 -14.9306 -14.8875
   -14.8807 -14.8267 -14.7985 -14.7895 -14.7605 -14.7278 -14.7118 -14.7108
   -14.6709 -14.6493 -14.6408 -14.6103 -14.6031 -14.5410 -14.5038 -14.4706
   -12.7777 -12.7758  -9.1253  -6.6510  -6.5210  -4.5068  -4.5020  -3.8256
    -3.7250  -3.4971  -3.2660  -3.0028  -2.7538  -2.5711  -2.4799  -2.4109
    -2.3578  -2.3399  -2.2303  -2.2058  -2.1759  -2.1412  -2.1188  -2.1080
    -2.0904  -2.0814  -2.0743  -2.0566  -2.0231  -2.0034  -1.9774  -1.9525
    -1.9374  -1.9140  -1.8963  -1.8889  -1.8642  -1.8363  -1.8296  -1.8267
    -1.7639  -1.7240  -1.5658  -1.5208  -1.4996  -1.4096  -1.3902  -1.3736
    -1.3481  -1.3340  -1.3174  -1.1984  -1.1475  -1.1191  -1.0111  -0.9931
    -0.9671  -0.8286  -0.8049  -0.7724  -0.7441  -0.7022  -0.6325  -0.6090
    -0.5536  -0.5407  -0.4393  -0.4022  -0.3773  -0.3641  -0.2681  -0.2459
    -0.2404  -0.2146  -0.1514  -0.1196  -0.0743  -0.0445  -0.0138   0.0108
     0.0567   0.0766   0.1705   0.1908   0.2270   0.2699   0.3638   0.5305
     0.6235   0.7336   0.7596   0.8064   0.8667   0.9091   0.9595   1.0129
     1.0605   1.0674   1.1300   1.1671   1.2519   1.2658   1.2691   1.3375
     2.0928   2.0931   2.1810   2.1900   4.1374   4.1457   4.2028   4.2224
     4.3616   4.3678   4.3813   4.3889   4.4837   4.5417

     the Fermi energy is     3.8659 ev

!    total energy              =   -3006.52107019 Ry
     estimated scf accuracy    <       0.00000007 Ry
     smearing contrib. (-TS)   =      -0.02294584 Ry
     internal energy E=F+TS    =   -3006.49812435 Ry

     The total energy is F=E-TS. E is the sum of the following terms:
     one-electron contribution =  -22562.84533223 Ry
     hartree contribution      =   11380.76268012 Ry
     xc contribution           =    -501.12991322 Ry
     ewald contribution        =    8676.71256647 Ry
     electric field correction =       0.00187452 Ry

     convergence has been achieved in  68 iterations

     Forces acting on atoms (cartesian axes, Ry/au):

     atom    1 type  1   force =    -0.00015155   -0.00166460    0.10540305
     atom    2 type  1   force =    -0.00021545    0.00113924   -0.17917674
     atom    3 type  2   force =     0.00020587   -0.00553578   -0.03233743
     atom    4 type  2   force =     0.00010359    0.00072294    0.04628265
     atom    5 type  2   force =    -0.01805420    0.00052674    0.00423461
     atom    6 type  2   force =     0.01845038   -0.00044473    0.00410062
     atom    7 type  1   force =     0.00006624    0.00018630    0.00004576
     atom    8 type  1   force =     0.00007643    0.00031200   -0.00014638
     atom    9 type  2   force =     0.00017542    0.00034972   -0.00007635
     atom   10 type  2   force =     0.00017139   -0.00000778    0.00003520
     atom   11 type  2   force =     0.00004608   -0.00034440   -0.00038335
     atom   12 type  2   force =    -0.00006134   -0.00051843   -0.00052195
     atom   13 type  1   force =     0.00047462    0.00023489    0.00007859
     atom   14 type  1   force =    -0.00026276   -0.00047140   -0.00042541
     atom   15 type  2   force =     0.00004502   -0.00054001    0.00031513
     atom   16 type  2   force =    -0.00008788    0.00030510   -0.00024491
     atom   17 type  2   force =    -0.00043075   -0.00061581    0.00007166
     atom   18 type  2   force =     0.00004848   -0.00048912    0.00019618
     atom   19 type  1   force =     0.00042035   -0.00028345   -0.00008017
     atom   20 type  1   force =    -0.00008823   -0.00074891   -0.00082510
     atom   21 type  2   force =    -0.00003179    0.00010117    0.10393567
     atom   22 type  2   force =    -0.00001811   -0.00054583    0.00055192
     atom   23 type  2   force =    -0.06943099    0.00052226   -0.02946300
     atom   24 type  2   force =     0.06918547    0.00097910   -0.02951787
     atom   25 type  1   force =    -0.00003583    0.00156770    0.11482217
     atom   26 type  1   force =    -0.00021583   -0.00048544   -0.17916767
     atom   27 type  2   force =     0.00021365    0.00414860   -0.02604407
     atom   28 type  2   force =     0.00042745    0.00093115    0.04806661
     atom   29 type  2   force =    -0.01632632    0.00162791    0.00384175
     atom   30 type  2   force =     0.01737790    0.00217997    0.00361467
     atom   31 type  1   force =    -0.00014211    0.00009632   -0.00024483
     atom   32 type  1   force =     0.00010738   -0.00008043    0.00024263
     atom   33 type  2   force =     0.00028861   -0.00050755    0.00019448
     atom   34 type  2   force =    -0.00004088   -0.00030674   -0.00026788
     atom   35 type  2   force =    -0.00045931   -0.00013381    0.00001211
     atom   36 type  2   force =     0.00053851    0.00001861    0.00000258
     atom   37 type  1   force =     0.00046178   -0.00073566   -0.00004777
     atom   38 type  1   force =    -0.00037593   -0.00002750   -0.00037390
     atom   39 type  2   force =    -0.00041956   -0.00049786   -0.00047970
     atom   40 type  2   force =     0.00035635   -0.00040941   -0.00027020
     atom   41 type  2   force =    -0.00019052   -0.00003340    0.00005958
     atom   42 type  2   force =    -0.00031979   -0.00021584    0.00005499
     atom   43 type  1   force =     0.00026848    0.00009534    0.00139197
     atom   44 type  1   force =     0.00003580   -0.00033639   -0.00075933
     atom   45 type  2   force =    -0.00003495    0.00008091    0.10397925
     atom   46 type  2   force =    -0.06903755   -0.00107254   -0.02951831
     atom   47 type  2   force =     0.06885111   -0.00062928   -0.02959816
     atom   48 type  3   force =    -0.00021846    0.00000582    0.00031344
     atom   49 type  2   force =     0.00000439    0.00025621   -0.00084133
     atom   50 type  4   force =    -0.00044093   -0.00005834    0.00002432
     atom   51 type  4   force =     0.00029220   -0.00027159    0.00014439
     atom   52 type  4   force =    -0.00004185    0.00037124   -0.00042954
     atom   53 type  5   force =    -0.02891257    0.00528653   -0.02899439
     atom   54 type  5   force =     0.02833190   -0.00510235    0.02869048
     atom   55 type  2   force =     0.00071631   -0.00003895    0.00040008
     atom   56 type  4   force =    -0.00157195    0.00013789   -0.00065861
     atom   57 type  4   force =    -0.00012376    0.00096967   -0.00021218

     Total force =     0.378985     Total SCF correction =     0.000675
  @ DRIVER MODE: Message from server: STATUS
  @ DRIVER MODE: Message from server: GETFORCE
  @ DRIVER MODE: Returning v,forces,stress,ensemble

     Writing output data file ./calc.save/
  @ DRIVER MODE: Message from server: EXIT
  @ DRIVE MODE: Exiting

     General routines

     Parallel routines

   This run was terminated on:   7:16:19  26Sep2021

   JOB DONE.