     Program PWSCF v.6.7GPU starts on 23Sep2021 at 21: 2:38

     R & G space division:  proc/nbgrp/npool/nimage =       8
     Reading input from /storage/home/hcoda1/3/ntian30/research/carbon/CxH_vib/H2O_calc/ads_slab/CH3NHHHO_a/out_0025/pw.inp
Warning: card &CELL ignored
Warning: card   CELL_DYNAMICS='IPI', ignored
Warning: card / ignored

     Current dimensions of program PWSCF are:
     Max number of different atomic species (ntypx) = 10
     Max number of k-points (npk) =  40000
     Max angular momentum in pseudopotentials (lmaxx) =  3
     Presently no symmetry can be used with electric field

     Message from routine cell_base_init:
     DEPRECATED: use true lattice parameter, not A to a.u. conversion factor

     IMPORTANT: XC functional enforced from input :
     Exchange-correlation= BEEF-VDW
                           (   1   4  43  14   2   0   0)
     Any further DFT definition will be discarded
     Please, verify this is what you really want

  @ DRIVER MODE: Connecting to
 qe_1139763_2947311.sched-torque.pace.gatech.eduw72oxwku_scratch
  using UNIX socket
  @ DRIVER MODE: Message from server: STATUS
  @ DRIVER MODE: Message from server: INIT
  @ DRIVER MODE: Receiving replica           0          -1
  @ DRIVER MODE: Receiving encoded integer          25
  @ DRIVER MODE:  SCF:  T  FORCE:  T  STRESS:  F  VC:  F  ENSEMBLE:  F
  @ DRIVER MODE:  SCF:  T  FORCE:  T  STRESS:  F  VC:  F  ENSEMBLE:  F

     Using Slab Decomposition

     bravais-lattice index     =            0
     lattice parameter (alat)  =       1.8897  a.u.
     unit-cell volume          =    6658.9804 (a.u.)^3
     number of atoms/cell      =           56
     number of atomic types    =            5
     number of electrons       =       399.00
     number of Kohn-Sham states=          209
     kinetic-energy cutoff     =      29.3995  Ry
     charge density cutoff     =     293.9946  Ry
     scf convergence threshold =      7.3E-08
     mixing beta               =       0.0500
     number of iterations used =            8  plain     mixing
     Exchange-correlation= BEEF-VDW
                           (   1   4  43  14   2   0   0)

     celldm(1)=   1.889726  celldm(2)=   0.000000  celldm(3)=   0.000000
     celldm(4)=   0.000000  celldm(5)=   0.000000  celldm(6)=   0.000000

     crystal axes: (cart. coord. in units of alat)
               a(1) = (   6.579727   0.000000   0.000000 )
               a(2) = (  -0.000775   5.961596   0.000000 )
               a(3) = (   0.000000   0.000000  25.155947 )

     reciprocal axes: (cart. coord. in units 2 pi/alat)
               b(1) = (  0.151982  0.000020  0.000000 )
               b(2) = (  0.000000  0.167740  0.000000 )
               b(3) = (  0.000000  0.000000  0.039752 )

     PseudoPot. # 1 for Ti read from file:
     /storage/coda1/p-amedford6/0/shared/rich_project_chbe-medford/medford-share/data/pseudos_module/espresso/nninc/pbe/van/Ti.UPF
     MD5 check sum: 8e4df49b7f0d34bbd5052bf3f5ea0213
     Pseudo is Ultrasoft, Zval = 12.0
     Generated by new atomic code, or converted to UPF format
     Using radial grid of  851 points,  6 beta functions with:
                l(1) =   0
                l(2) =   0
                l(3) =   1
                l(4) =   1
                l(5) =   2
                l(6) =   2
     Q(r) pseudized with  8 coefficients,  rinner =    1.000   1.000   1.000
                                                       1.000   1.000

     PseudoPot. # 2 for O  read from file:
     /storage/coda1/p-amedford6/0/shared/rich_project_chbe-medford/medford-share/data/pseudos_module/espresso/nninc/pbe/van/O.UPF
     MD5 check sum: 78c19812648e8988a0fe644b0f25305e
     Pseudo is Ultrasoft, Zval =  6.0
     Generated by new atomic code, or converted to UPF format
     Using radial grid of  737 points,  4 beta functions with:
                l(1) =   0
                l(2) =   0
                l(3) =   1
                l(4) =   1
     Q(r) pseudized with  8 coefficients,  rinner =    0.800   0.800   0.800

     PseudoPot. # 3 for N  read from file:
     /storage/coda1/p-amedford6/0/shared/rich_project_chbe-medford/medford-share/data/pseudos_module/espresso/nninc/pbe/van/N.UPF
     MD5 check sum: 90d10febe142ad51ac9d5be1deb811c4
     Pseudo is Ultrasoft, Zval =  5.0
     Generated by new atomic code, or converted to UPF format
     Using radial grid of  729 points,  4 beta functions with:
                l(1) =   0
                l(2) =   0
                l(3) =   1
                l(4) =   1
     Q(r) pseudized with  8 coefficients,  rinner =    0.800   0.800   0.800

     PseudoPot. # 4 for C  read from file:
     /storage/coda1/p-amedford6/0/shared/rich_project_chbe-medford/medford-share/data/pseudos_module/espresso/nninc/pbe/van/C.UPF
     MD5 check sum: 1a69bf6b8db32088f5b2163dbdb77a27
     Pseudo is Ultrasoft, Zval =  4.0
     Generated by new atomic code, or converted to UPF format
     Using radial grid of  721 points,  4 beta functions with:
                l(1) =   0
                l(2) =   0
                l(3) =   1
                l(4) =   1
     Q(r) pseudized with  8 coefficients,  rinner =    0.800   0.800   0.800

     PseudoPot. # 5 for H  read from file:
     /storage/coda1/p-amedford6/0/shared/rich_project_chbe-medford/medford-share/data/pseudos_module/espresso/nninc/pbe/van/H.UPF
     MD5 check sum: b5ee9d7bfd3a09ee7748110bda690ff7
     Pseudo is Ultrasoft, Zval =  1.0
     Generated by new atomic code, or converted to UPF format
     Using radial grid of  615 points,  1 beta functions with:
                l(1) =   0
     Q(r) pseudized with  8 coefficients,  rinner =    0.800

     atomic species   valence    mass     pseudopotential
        Ti1           12.00    47.86700     Ti( 1.00)
        O1             6.00    15.99900     O ( 1.00)
        N1             5.00    14.00700     N ( 1.00)
        C1             4.00    12.01100     C ( 1.00)
        H1             1.00     1.00800     H ( 1.00)

     No symmetry found

   Cartesian axes

     site n.     atom                  positions (alat units)
         1           Ti1 tau(   1) = (   0.0004258   2.9801865   6.0000000  )
         2           Ti1 tau(   2) = (   3.2906075   1.4906267   6.0002472  )
         3           O1  tau(   3) = (   0.0006271   0.0005054   7.9858123  )
         4           O1  tau(   4) = (   3.2906025   0.0005020   7.3038282  )
         5           O1  tau(   5) = (   4.5942328   1.4918067   9.2879030  )
         6           O1  tau(   6) = (   1.9868534   1.4903216   9.2879459  )
         7           Ti1 tau(   7) = (   3.2907910   2.8959150   9.1758416  )
         8           Ti1 tau(   8) = (   0.0015273   1.4827037   9.2680791  )
         9           O1  tau(   9) = (   3.2949530   5.9481847  11.3666340  )
        10           O1  tau(  10) = (   0.0116148   5.9584955  10.6183126  )
        11           O1  tau(  11) = (   1.2732546   1.4916747  12.6876809  )
        12           O1  tau(  12) = (   5.3119445   1.4892451  12.6851550  )
        13           Ti1 tau(  13) = (   6.5688325   2.9465269  12.5174317  )
        14           Ti1 tau(  14) = (   3.2996026   1.2975375  12.7241829  )
        15           O1  tau(  15) = (   0.0172205   5.8793003  14.6619373  )
        16           O1  tau(  16) = (   3.2917661   0.0702926  14.0149596  )
        17           O1  tau(  17) = (   4.5643074   1.5920826  16.1346482  )
        18           O1  tau(  18) = (   2.0131957   1.5841813  16.0575481  )
        19           Ti1 tau(  19) = (   3.2662748   3.0407108  15.6947786  )
        20           Ti1 tau(  20) = (   0.0618610   1.3206105  15.7998127  )
        21           O1  tau(  21) = (   3.2904802   0.0005063   4.7018136  )
        22           O1  tau(  22) = (   0.0233933   0.1570098  17.1842078  )
        23           O1  tau(  23) = (   1.3043587   1.4918075   6.0039043  )
        24           O1  tau(  24) = (   5.2767064   1.4903225   6.0039473  )
        25           Ti1 tau(  25) = (   0.0000382   5.9609847   6.0000000  )
        26           Ti1 tau(  26) = (   3.2902200   4.4714249   6.0002472  )
        27           O1  tau(  27) = (   0.0002396   2.9813036   7.9858123  )
        28           O1  tau(  28) = (   3.2902150   2.9813002   7.3038282  )
        29           O1  tau(  29) = (   4.5938453   4.4726049   9.2879030  )
        30           O1  tau(  30) = (   1.9864658   4.4711199   9.2879459  )
        31           Ti1 tau(  31) = (   3.2891106   5.8743827   9.1763621  )
        32           Ti1 tau(  32) = (   0.0006254   4.4649316   9.2693709  )
        33           O1  tau(  33) = (   3.2948289   2.9949798  11.3176834  )
        34           O1  tau(  34) = (   0.0092240   2.9805883  10.6323155  )
        35           O1  tau(  35) = (   1.2828652   4.4571597  12.6432593  )
        36           O1  tau(  36) = (   5.3079144   4.4605214  12.6419564  )
        37           Ti1 tau(  37) = (   0.0266940   5.9154698  12.5044250  )
        38           Ti1 tau(  38) = (   3.3008436   4.3760658  12.4353554  )
        39           O1  tau(  39) = (   6.5507285   3.0461080  14.9005035  )
        40           O1  tau(  40) = (   3.2938476   3.0131494  13.9233183  )
        41           O1  tau(  41) = (   4.5350990   4.4864192  16.1518712  )
        42           O1  tau(  42) = (   1.9883536   4.4285065  16.1690201  )
        43           Ti1 tau(  43) = (   3.3916644   0.0784854  16.2809578  )
        44           Ti1 tau(  44) = (   0.0590441   4.5159846  16.0209683  )
        45           O1  tau(  45) = (   3.2900926   2.9813045   4.7018136  )
        46           O1  tau(  46) = (   1.3039711   4.4726057   6.0039043  )
        47           O1  tau(  47) = (   5.2763189   4.4711207   6.0039473  )
        48           N1  tau(  48) = (   6.2706434   3.3837210  18.0754458  )
        49           C1  tau(  49) = (   0.7642246   3.1223808  19.0622891  )
        50           H1  tau(  50) = (   1.3158356   4.0410886  19.2409436  )
        51           H1  tau(  51) = (   0.3597117   2.7583523  20.0089400  )
        52           H1  tau(  52) = (   1.4417744   2.3810259  18.6668870  )
        53           H1  tau(  53) = (   5.6745199   4.1349376  18.4206214  )
        54           H1  tau(  54) = (   5.6587021   2.5696541  18.0151127  )
        55           O1  tau(  55) = (   3.1972372   0.0910451  18.1323504  )
        56           H1  tau(  56) = (   2.2767176   0.1080423  18.4377142  )

     number of k points=    10  Fermi-Dirac smearing, width (Ry)=  0.0073
                       cart. coord. in units 2pi/alat
        k(    1) = (   0.0000000   0.0000000   0.0000000), wk =   0.1250000
        k(    2) = (   0.0000000   0.0419351   0.0000000), wk =   0.2500000
        k(    3) = (   0.0000000  -0.0838702   0.0000000), wk =   0.1250000
        k(    4) = (   0.0379955   0.0000049   0.0000000), wk =   0.2500000
        k(    5) = (   0.0379955   0.0419400   0.0000000), wk =   0.2500000
        k(    6) = (   0.0379955  -0.0838652   0.0000000), wk =   0.2500000
        k(    7) = (   0.0379955  -0.0419301   0.0000000), wk =   0.2500000
        k(    8) = (  -0.0759910  -0.0000099   0.0000000), wk =   0.1250000
        k(    9) = (  -0.0759910   0.0419252   0.0000000), wk =   0.2500000
        k(   10) = (  -0.0759910  -0.0838800   0.0000000), wk =   0.1250000

     Initial potential from superposition of free atoms

     starting charge  382.99914, renormalised to  399.00000

     negative rho (up, down):  1.588E-02 0.000E+00

     %%%%%%%%%%%%%%%%%%%%%%%%%%%%%%%%%%%%%%%%%%%%%%%%%%%%%%%%%%%%%%%%%%%%%%%%
     %                                                                      %
     % You are using vdW-DF, which was implemented by the Thonhauser group. %
     % Please cite the following two papers that made this development      %
     % possible and the two reviews that describe the various versions:     %
     %                                                                      %
     %   T. Thonhauser et al., PRL 115, 136402 (2015).                      %
     %   T. Thonhauser et al., PRB 76, 125112 (2007).                       %
     %   K. Berland et al., Rep. Prog. Phys. 78, 066501 (2015).             %
     %   D.C. Langreth et al., J. Phys.: Condens. Matter 21, 084203 (2009). %
     %                                                                      %
     %                                                                      %
     % If you are calculating the stress with vdW-DF, please also cite:     %
     %                                                                      %
     %   R. Sabatini et al., J. Phys.: Condens. Matter 24, 424209 (2012).   %
     %                                                                      %
     %%%%%%%%%%%%%%%%%%%%%%%%%%%%%%%%%%%%%%%%%%%%%%%%%%%%%%%%%%%%%%%%%%%%%%%%

     Adding external electric field

     Computed dipole along edir(3) :
        Dipole              -10.6962 Ry au,        -27.1870 Debye
        Dipole field         -0.0202 Ry au,

        Potential amp.        1.8711 Ry
        Total length         46.3494 bohr

     Starting wfcs are  302 atomic wfcs
  @ DRIVER MODE: Message from server: STATUS
  @ DRIVER MODE: Message from server: POSDATA
  @ DRIVER MODE: Reading and sharing cell
  @ DRIVER MODE: Reading and sharing positions
  @ DRIVER MODE: Received positions

     Self-consistent Calculation

     iteration #  1     ecut=    29.40 Ry     beta= 0.05
     Davidson diagonalization with overlap
     c_bands:  3 eigenvalues not converged
     c_bands:  2 eigenvalues not converged
     c_bands:  2 eigenvalues not converged
     c_bands:  5 eigenvalues not converged
     c_bands:  2 eigenvalues not converged
     c_bands:  5 eigenvalues not converged
     c_bands:  4 eigenvalues not converged
     c_bands:  3 eigenvalues not converged
     ethr =  1.00E-05,  avg # of iterations = 21.6

[...]

     total energy              =   -2438.23789498 Ry
     estimated scf accuracy    <    5770.45239416 Ry

     iteration #  2     ecut=    29.40 Ry     beta= 0.05
     Davidson diagonalization with overlap
     ethr =  1.00E-02,  avg # of iterations = 23.9

[...]

     iteration # 44     ecut=    29.40 Ry     beta= 0.05
     Davidson diagonalization with overlap
     c_bands:  1 eigenvalues not converged
     c_bands:  4 eigenvalues not converged
     c_bands:  1 eigenvalues not converged
     c_bands:  1 eigenvalues not converged
     c_bands:  1 eigenvalues not converged
     ethr =  1.52E-07,  avg # of iterations = 18.2

[...]

     total energy              =   -2955.26285568 Ry
     estimated scf accuracy    <       0.00000010 Ry

     iteration # 66     ecut=    29.40 Ry     beta= 0.05
     Davidson diagonalization with overlap
     ethr =  2.36E-11,  avg # of iterations = 10.9

     negative rho (up, down):  1.647E-02 0.000E+00

     Adding external electric field

     Computed dipole along edir(3) :
        Dipole                0.9747 Ry au,          2.4776 Debye
        Dipole field          0.0018 Ry au,

        Potential amp.       -0.1705 Ry
        Total length         46.3494 bohr

     End of self-consistent calculation

          k = 0.0000 0.0000 0.0000 ( 18029 PWs)   bands (ev):

   -55.6832 -55.6367 -55.6027 -55.5125 -55.5023 -55.4665 -55.4660 -55.4640
   -55.4319 -55.4184 -55.3677 -55.2729 -55.2268 -55.2126 -54.6125 -54.5785
   -32.1221 -32.0199 -32.0121 -31.9884 -31.9688 -31.9566 -31.9275 -31.9016
   -31.8945 -31.8828 -31.8827 -31.7900 -31.7894 -31.7747 -31.7492 -31.7455
   -31.7440 -31.7430 -31.7422 -31.7059 -31.6943 -31.6649 -31.6620 -31.6560
   -31.6503 -31.6443 -31.6364 -31.6060 -31.6040 -31.5985 -31.5930 -31.5897
   -31.5788 -31.5636 -31.5492 -31.5238 -31.4643 -31.4554 -31.4458 -31.4226
   -31.4192 -31.4144 -31.0186 -30.9321 -30.9097 -30.8362 -30.7498 -30.6379
   -16.5116 -16.2964 -16.1497 -15.9789 -15.8394 -15.8105 -15.7694 -15.5990
   -15.5063 -15.4425 -15.2423 -15.2213 -15.1754 -15.1642 -15.1588 -15.1360
   -15.1264 -15.0813 -15.0628 -15.0594 -15.0495 -15.0319 -14.9955 -14.9533
   -14.9100 -14.8891 -14.7765 -14.7201 -14.6795 -14.4684 -14.4004 -13.1112
   -12.9948  -9.9993  -6.0233  -4.5872  -4.0622  -3.7624  -3.6445  -3.5469
    -3.5356  -3.4152  -3.4061  -3.1658  -3.0425  -2.9838  -2.9050  -2.7834
    -2.7525  -2.6866  -2.6456  -2.5890  -2.5690  -2.5337  -2.4940  -2.4486
    -2.4233  -2.3959  -2.3625  -2.3063  -2.2946  -2.1963  -2.1819  -2.1593
    -2.0536  -2.0126  -1.9725  -1.9544  -1.9493  -1.9303  -1.8916  -1.8852
    -1.8656  -1.7874  -1.7183  -1.6722  -1.6374  -1.6096  -1.3318  -1.2465
    -1.2029  -1.1885  -1.0844  -1.0607  -1.0323  -1.0190  -0.9821  -0.9655
    -0.8538  -0.8365  -0.7685  -0.7188  -0.7044  -0.6669  -0.5479  -0.5113
    -0.4606  -0.4204  -0.3703  -0.3527  -0.3479  -0.2532  -0.2266  -0.1918
    -0.0833  -0.0665  -0.0041   0.0812   0.0908   0.1422   0.1656   0.2260
     0.2305   0.2851   0.3148   0.3371   0.3904   0.4228   0.4591   0.4921
     0.5093   0.6115   0.6867   0.6996   0.7965   0.8711   0.9246   1.0287
     1.0964   1.3604   1.4139   1.4377   1.6059   1.9812   2.0266   3.4449
     3.5938   3.6094   3.6840   3.6966   3.7736   3.9343   3.9592   4.0941
     4.1332

[...]

          k = 0.0380-0.0419 0.0000 ( 17876 PWs)   bands (ev):

[...]

          k =-0.0760-0.0000 0.0000 ( 17886 PWs)   bands (ev):

[...]

          k =-0.0760-0.0839 0.0000 ( 17948 PWs)   bands (ev):

   -55.6823 -55.6199 -55.6194 -55.5112 -55.4912 -55.4751 -55.4673 -55.4496
   -55.4478 -55.4121 -55.3741 -55.2681 -55.2279 -55.2172 -54.5960 -54.5950
   -31.9530 -31.9451 -31.9375 -31.9372 -31.9303 -31.9132 -31.9127 -31.8969
   -31.8523 -31.8113 -31.7932 -31.7803 -31.7762 -31.7747 -31.7530 -31.7433
   -31.7398 -31.7391 -31.7288 -31.7251 -31.7175 -31.7166 -31.7020 -31.6780
   -31.6718 -31.6672 -31.6579 -31.6475 -31.6324 -31.6313 -31.6292 -31.6238
   -31.6222 -31.5968 -31.5963 -31.5553 -31.5308 -31.4955 -31.4686 -31.4636
   -31.4482 -31.4185 -30.9228 -30.9220 -30.8320 -30.8308 -30.7934 -30.7926
   -16.4816 -15.9390 -15.8579 -15.7447 -15.6216 -15.6083 -15.4973 -15.4143
   -15.4108 -15.3802 -15.3496 -15.3217 -15.3123 -15.2952 -15.2484 -15.2048
   -15.1696 -15.1418 -15.1398 -15.0940 -15.0870 -15.0756 -15.0629 -15.0406
   -15.0069 -14.9571 -14.9426 -14.9039 -14.7660 -14.6904 -14.5908 -13.0969
   -13.0963 -10.0013  -6.0033  -4.5847  -4.0270  -3.7186  -3.0563  -2.9599
    -2.8482  -2.7342  -2.7195  -2.7043  -2.6425  -2.6123  -2.5858  -2.5444
    -2.4870  -2.4708  -2.4470  -2.4302  -2.4089  -2.3906  -2.3819  -2.3767
    -2.3401  -2.3224  -2.3141  -2.2729  -2.2653  -2.2503  -2.2289  -2.2114
    -2.1809  -2.1768  -2.1469  -2.0954  -2.0459  -1.9723  -1.8794  -1.7980
    -1.7869  -1.7684  -1.7189  -1.7123  -1.6668  -1.6590  -1.6343  -1.5484
    -1.4366  -1.3864  -1.2755  -1.2556  -1.2288  -1.1893  -1.1364  -1.1222
    -1.0767  -1.0464  -0.9865  -0.8854  -0.8552  -0.8000  -0.6867  -0.6490
    -0.6106  -0.5906  -0.5785  -0.5534  -0.5368  -0.4971  -0.4689  -0.4205
    -0.3815  -0.3472  -0.3204  -0.2948  -0.2484  -0.1464  -0.0521  -0.0146
     0.0868   0.1331   0.1751   0.2069   0.2686   0.4037   0.4304   0.5265
     0.5411   0.5702   0.6719   0.6820   0.7830   0.8071   0.8453   0.8864
     0.9111   0.9322   0.9519   1.7755   1.7841   1.8469   1.8470   3.7377
     3.9302   3.9453   3.9615   4.0062   4.0135   4.0404   4.0461   4.1127
     4.1236

     the Fermi energy is     3.4837 ev

!    total energy              =   -2955.26288845 Ry
     estimated scf accuracy    <       0.00000003 Ry
     smearing contrib. (-TS)   =      -0.01953182 Ry
     internal energy E=F+TS    =   -2955.24335663 Ry

     The total energy is F=E-TS. E is the sum of the following terms:
     one-electron contribution =  -23741.61192448 Ry
     hartree contribution      =   11962.91369317 Ry
     xc contribution           =    -489.74163135 Ry
     ewald contribution        =    9313.19471302 Ry
     electric field correction =       0.00179301 Ry

     convergence has been achieved in  66 iterations

     Forces acting on atoms (cartesian axes, Ry/au):

     atom    1 type  1   force =     0.00008867   -0.00029660    0.09416080
     atom    2 type  1   force =    -0.00004073    0.00043604   -0.17539030
     atom    3 type  2   force =     0.00003972   -0.00033434   -0.02108915
     atom    4 type  2   force =     0.00002399   -0.00197687    0.05462216
     atom    5 type  2   force =    -0.00674189   -0.00244836    0.00301807
     atom    6 type  2   force =     0.00834862   -0.00187102    0.00243839
     atom    7 type  1   force =    -0.00017901   -0.00404776    0.00896305
     atom    8 type  1   force =     0.00031911    0.00082030    0.00310589
     atom    9 type  2   force =    -0.00058075    0.00058992   -0.00017330
     atom   10 type  2   force =    -0.00139103    0.00173459   -0.00928368
     atom   11 type  2   force =     0.00004551   -0.00015625    0.00037550
     atom   12 type  2   force =    -0.00006177   -0.00011039   -0.00030898
     atom   13 type  1   force =    -0.00048859   -0.00025149    0.00005481
     atom   14 type  1   force =     0.00001197   -0.00031232   -0.00007733
     atom   15 type  2   force =    -0.00031404   -0.00001644   -0.00014730
     atom   16 type  2   force =     0.00032190   -0.00052982   -0.00041107
     atom   17 type  2   force =     0.00045154   -0.00015096   -0.00079024
     atom   18 type  2   force =    -0.00050575    0.00017056   -0.00011127
     atom   19 type  1   force =     0.00050059   -0.00061810    0.00070904
     atom   20 type  1   force =     0.00048563    0.00029791    0.00033402
     atom   21 type  2   force =     0.00007482    0.00004775    0.10325172
     atom   22 type  2   force =    -0.00046423    0.00042001    0.00026951
     atom   23 type  2   force =    -0.07190981   -0.00018282   -0.02720379
     atom   24 type  2   force =     0.07184045    0.00025707   -0.02725009
     atom   25 type  1   force =     0.00002527   -0.00024312    0.09383230
     atom   26 type  1   force =    -0.00006203   -0.00132948   -0.17558244
     atom   27 type  2   force =     0.00015631   -0.00011622   -0.01985888
     atom   28 type  2   force =     0.00007062   -0.00032452    0.04989595
     atom   29 type  2   force =    -0.00613456    0.00232294    0.00252119
     atom   30 type  2   force =     0.00762865    0.00268804    0.00197068
     atom   31 type  1   force =     0.00002458    0.00840401   -0.00276327
     atom   32 type  1   force =     0.00011825   -0.00236119    0.00258319
     atom   33 type  2   force =     0.00005159   -0.00001198   -0.00005290
     atom   34 type  2   force =    -0.00211709   -0.00249152   -0.01005525
     atom   35 type  2   force =    -0.00014230   -0.00002313    0.00053184
     atom   36 type  2   force =    -0.00007405    0.00006579   -0.00007576
     atom   37 type  1   force =     0.00016184   -0.00008299   -0.00023934
     atom   38 type  1   force =     0.00005301   -0.00018971    0.00024846
     atom   39 type  2   force =    -0.00012771    0.00009231   -0.00026839
     atom   40 type  2   force =     0.00017074   -0.00025831   -0.00010188
     atom   41 type  2   force =    -0.00037576   -0.00073142    0.00060928
     atom   42 type  2   force =     0.00049974    0.00003703   -0.00019859
     atom   43 type  1   force =    -0.00076716   -0.00062230    0.00027450
     atom   44 type  1   force =     0.00040904    0.00039853   -0.00023582
     atom   45 type  2   force =     0.00006952   -0.00007296    0.10305315
     atom   46 type  2   force =    -0.07192974   -0.00005111   -0.02723712
     atom   47 type  2   force =     0.07189202    0.00038777   -0.02728470
     atom   48 type  3   force =    -0.00080456    0.00108009    0.00045667
     atom   49 type  4   force =    -0.00498870    0.00458509    0.00285703
     atom   50 type  5   force =     0.00096914    0.00044193   -0.00041955
     atom   51 type  5   force =    -0.00034534    0.00102063    0.00036124
     atom   52 type  5   force =     0.00655052   -0.00507026   -0.00314435
     atom   53 type  5   force =    -0.00047179    0.00051462   -0.00081763
     atom   54 type  5   force =     0.00032702   -0.00000426    0.00003009
     atom   55 type  2   force =    -0.00046795    0.00037491    0.00048480
     atom   56 type  5   force =    -0.00024404    0.00010017   -0.00044096

     Total force =     0.362370     Total SCF correction =     0.000428
  @ DRIVER MODE: Message from server: STATUS
  @ DRIVER MODE: Message from server: GETFORCE
  @ DRIVER MODE: Returning v,forces,stress,ensemble

     Writing output data file ./calc.save/
  @ DRIVER MODE: Message from server: EXIT
  @ DRIVE MODE: Exiting

     General routines

     Parallel routines

   This run was terminated on:  21:26:50  23Sep2021

   JOB DONE.