     Program PWSCF v.6.7GPU starts on  9Sep2021 at  3:19:32

     R & G space division:  proc/nbgrp/npool/nimage =      10
     Reading input from /storage/home/hcoda1/3/ntian30/research/carbon/CxH_vib/CH2_calc/ads_slab/CH2O_a/out_0017/pw.inp
Warning: card &CELL ignored
Warning: card   CELL_DYNAMICS='IPI', ignored
Warning: card / ignored

     Current dimensions of program PWSCF are:
     Max number of different atomic species (ntypx) = 10
     Max number of k-points (npk) =  40000
     Max angular momentum in pseudopotentials (lmaxx) =  3
     Presently no symmetry can be used with electric field

     Message from routine cell_base_init:
     DEPRECATED: use true lattice parameter, not A to a.u. conversion factor

     IMPORTANT: XC functional enforced from input :
     Exchange-correlation= BEEF-VDW
                           (   1   4  43  14   2   0   0)
     Any further DFT definition will be discarded
     Please, verify this is what you really want

  @ DRIVER MODE: Connecting to
 qe_1139763_2767394.sched-torque.pace.gatech.edu6qcvrbde_scratch
  using UNIX socket
  @ DRIVER MODE: Message from server: STATUS
  @ DRIVER MODE: Message from server: INIT
  @ DRIVER MODE: Receiving replica           0          -1
  @ DRIVER MODE: Receiving encoded integer          25
  @ DRIVER MODE:  SCF:  T  FORCE:  T  STRESS:  F  VC:  F  ENSEMBLE:  F
  @ DRIVER MODE:  SCF:  T  FORCE:  T  STRESS:  F  VC:  F  ENSEMBLE:  F

     Using Slab Decomposition

     bravais-lattice index     =            0
     lattice parameter (alat)  =       1.8897  a.u.
     unit-cell volume          =    6658.9804 (a.u.)^3
     number of atoms/cell      =           51
     number of atomic types    =            4
     number of electrons       =       390.00
     number of Kohn-Sham states=          205
     kinetic-energy cutoff     =      29.3995  Ry
     charge density cutoff     =     293.9946  Ry
     scf convergence threshold =      7.3E-08
     mixing beta               =       0.0500
     number of iterations used =            8  plain     mixing
     Exchange-correlation= BEEF-VDW
                           (   1   4  43  14   2   0   0)

     celldm(1)=   1.889726  celldm(2)=   0.000000  celldm(3)=   0.000000
     celldm(4)=   0.000000  celldm(5)=   0.000000  celldm(6)=   0.000000

     crystal axes: (cart. coord. in units of alat)
               a(1) = (   6.579727   0.000000   0.000000 )
               a(2) = (  -0.000775   5.961596   0.000000 )
               a(3) = (   0.000000   0.000000  25.155947 )

     reciprocal axes: (cart. coord. in units 2 pi/alat)
               b(1) = (  0.151982  0.000020  0.000000 )
               b(2) = (  0.000000  0.167740  0.000000 )
               b(3) = (  0.000000  0.000000  0.039752 )

     PseudoPot. # 1 for O  read from file:
     /storage/coda1/p-amedford6/0/shared/rich_project_chbe-medford/medford-share/data/pseudos_module/espresso/nninc/pbe/van/O.UPF
     MD5 check sum: 78c19812648e8988a0fe644b0f25305e
     Pseudo is Ultrasoft, Zval =  6.0
     Generated by new atomic code, or converted to UPF format
     Using radial grid of  737 points,  4 beta functions with:
                l(1) =   0
                l(2) =   0
                l(3) =   1
                l(4) =   1
     Q(r) pseudized with  8 coefficients,  rinner =    0.800   0.800   0.800

     PseudoPot. # 2 for Ti read from file:
     /storage/coda1/p-amedford6/0/shared/rich_project_chbe-medford/medford-share/data/pseudos_module/espresso/nninc/pbe/van/Ti.UPF
     MD5 check sum: 8e4df49b7f0d34bbd5052bf3f5ea0213
     Pseudo is Ultrasoft, Zval = 12.0
     Generated by new atomic code, or converted to UPF format
     Using radial grid of  851 points,  6 beta functions with:
                l(1) =   0
                l(2) =   0
                l(3) =   1
                l(4) =   1
                l(5) =   2
                l(6) =   2
     Q(r) pseudized with  8 coefficients,  rinner =    1.000   1.000   1.000
                                                       1.000   1.000

     PseudoPot. # 3 for C  read from file:
     /storage/coda1/p-amedford6/0/shared/rich_project_chbe-medford/medford-share/data/pseudos_module/espresso/nninc/pbe/van/C.UPF
     MD5 check sum: 1a69bf6b8db32088f5b2163dbdb77a27
     Pseudo is Ultrasoft, Zval =  4.0
     Generated by new atomic code, or converted to UPF format
     Using radial grid of  721 points,  4 beta functions with:
                l(1) =   0
                l(2) =   0
                l(3) =   1
                l(4) =   1
     Q(r) pseudized with  8 coefficients,  rinner =    0.800   0.800   0.800

     PseudoPot. # 4 for H  read from file:
     /storage/coda1/p-amedford6/0/shared/rich_project_chbe-medford/medford-share/data/pseudos_module/espresso/nninc/pbe/van/H.UPF
     MD5 check sum: b5ee9d7bfd3a09ee7748110bda690ff7
     Pseudo is Ultrasoft, Zval =  1.0
     Generated by new atomic code, or converted to UPF format
     Using radial grid of  615 points,  1 beta functions with:
                l(1) =   0
     Q(r) pseudized with  8 coefficients,  rinner =    0.800

     atomic species   valence    mass     pseudopotential
        O1             6.00    15.99900     O ( 1.00)
        Ti1           12.00    47.86700     Ti( 1.00)
        C1             4.00    12.01100     C ( 1.00)
        H1             1.00     1.00800     H ( 1.00)

     No symmetry found

   Cartesian axes

     site n.     atom                  positions (alat units)
         1           O1  tau(   1) = (   3.2904802   0.0005063   4.7018136  )
         2           O1  tau(   2) = (   3.2900926   2.9813045   4.7018136  )
         3           Ti1 tau(   3) = (   0.0004258   2.9801865   6.0000000  )
         4           Ti1 tau(   4) = (   0.0000382   5.9609847   6.0000000  )
         5           Ti1 tau(   5) = (   3.2906075   1.4906267   6.0002472  )
         6           Ti1 tau(   6) = (   3.2902200   4.4714249   6.0002472  )
         7           O1  tau(   7) = (   1.3043587   1.4918075   6.0039043  )
         8           O1  tau(   8) = (   1.3039711   4.4726057   6.0039043  )
         9           O1  tau(   9) = (   5.2767064   1.4903225   6.0039473  )
        10           O1  tau(  10) = (   5.2763189   4.4711207   6.0039473  )
        11           O1  tau(  11) = (   3.2906025   0.0005020   7.3038282  )
        12           O1  tau(  12) = (   3.2902150   2.9813002   7.3038282  )
        13           O1  tau(  13) = (   0.0006271   0.0005054   7.9858123  )
        14           O1  tau(  14) = (   0.0002396   2.9813036   7.9858123  )
        15           Ti1 tau(  15) = (   3.3042095   0.0533388   9.1528587  )
        16           Ti1 tau(  16) = (   3.3174724   3.0316863   9.1560957  )
        17           Ti1 tau(  17) = (   0.0293802   4.5322946   9.2552644  )
        18           Ti1 tau(  18) = (   0.0259946   1.6073196   9.3627105  )
        19           O1  tau(  19) = (   4.5942328   1.4918067   9.2879030  )
        20           O1  tau(  20) = (   4.5938453   4.4726049   9.2879030  )
        21           O1  tau(  21) = (   1.9868534   1.4903216   9.2879459  )
        22           O1  tau(  22) = (   1.9864658   4.4711199   9.2879459  )
        23           O1  tau(  23) = (   0.0064038   0.0081980  10.6024552  )
        24           O1  tau(  24) = (   0.0073862   2.9894728  10.5866593  )
        25           O1  tau(  25) = (   3.3023414   2.9953748  11.3432802  )
        26           O1  tau(  26) = (   3.3032852   0.0099373  11.3464837  )
        27           Ti1 tau(  27) = (   0.0309755   0.0166663  12.4994564  )
        28           Ti1 tau(  28) = (   3.3310982   4.4887825  12.4897803  )
        29           Ti1 tau(  29) = (   3.3310371   1.5113328  12.4846922  )
        30           Ti1 tau(  30) = (   0.0327574   2.9992265  12.7695683  )
        31           O1  tau(  31) = (   1.3002707   4.4821552  12.6388042  )
        32           O1  tau(  32) = (   1.3007223   1.5002113  12.6333963  )
        33           O1  tau(  33) = (   5.2991570   4.4805309  12.6421864  )
        34           O1  tau(  34) = (   5.3000174   1.5011411  12.6364809  )
        35           O1  tau(  35) = (   3.3018339   2.9879062  13.9210104  )
        36           O1  tau(  36) = (   3.3040464   0.0111531  13.9455706  )
        37           O1  tau(  37) = (   0.0204374   0.0165334  14.6791819  )
        38           O1  tau(  38) = (   0.0263865   2.9938028  14.7196832  )
        39           Ti1 tau(  39) = (   3.3100843   2.9899001  15.7147585  )
        40           Ti1 tau(  40) = (   3.3190225   0.0114617  15.7368552  )
        41           Ti1 tau(  41) = (   0.0307220   4.5758675  15.9389875  )
        42           Ti1 tau(  42) = (   0.0306600   1.3860070  15.9976826  )
        43           O1  tau(  43) = (   4.5579467   4.4706051  16.0879179  )
        44           O1  tau(  44) = (   4.5582295   1.5117582  16.0998906  )
        45           O1  tau(  45) = (   2.0559277   1.5139458  16.1062704  )
        46           O1  tau(  46) = (   2.0563840   4.4680477  16.0963298  )
        47           O1  tau(  47) = (   0.0152972   0.0023678  17.1988758  )
        48           O1  tau(  48) = (   6.5645367   3.0020129  17.4248639  )
        49           C1  tau(  49) = (   6.3846989   3.0744571  18.6868163  )
        50           H1  tau(  50) = (   6.3100824   4.0552778  19.1374226  )
        51           H1  tau(  51) = (   6.3122094   2.1591535  19.2648898  )

     number of k points=    10  Fermi-Dirac smearing, width (Ry)=  0.0073
                       cart. coord. in units 2pi/alat
        k(    1) = (   0.0000000   0.0000000   0.0000000), wk =   0.1250000
        k(    2) = (   0.0000000   0.0419351   0.0000000), wk =   0.2500000
        k(    3) = (   0.0000000  -0.0838702   0.0000000), wk =   0.1250000
        k(    4) = (   0.0379955   0.0000049   0.0000000), wk =   0.2500000
        k(    5) = (   0.0379955   0.0419400   0.0000000), wk =   0.2500000
        k(    6) = (   0.0379955  -0.0838652   0.0000000), wk =   0.2500000
        k(    7) = (   0.0379955  -0.0419301   0.0000000), wk =   0.2500000
        k(    8) = (  -0.0759910  -0.0000099   0.0000000), wk =   0.1250000
        k(    9) = (  -0.0759910   0.0419252   0.0000000), wk =   0.2500000
        k(   10) = (  -0.0759910  -0.0838800   0.0000000), wk =   0.1250000

     Initial potential from superposition of free atoms

     starting charge  373.99919, renormalised to  390.00000

     negative rho (up, down):  1.844E-02 0.000E+00

     %%%%%%%%%%%%%%%%%%%%%%%%%%%%%%%%%%%%%%%%%%%%%%%%%%%%%%%%%%%%%%%%%%%%%%%%
     %                                                                      %
     % You are using vdW-DF, which was implemented by the Thonhauser group. %
     % Please cite the following two papers that made this development      %
     % possible and the two reviews that describe the various versions:     %
     %                                                                      %
     %   T. Thonhauser et al., PRL 115, 136402 (2015).                      %
     %   T. Thonhauser et al., PRB 76, 125112 (2007).                       %
     %   K. Berland et al., Rep. Prog. Phys. 78, 066501 (2015).             %
     %   D.C. Langreth et al., J. Phys.: Condens. Matter 21, 084203 (2009). %
     %                                                                      %
     %                                                                      %
     % If you are calculating the stress with vdW-DF, please also cite:     %
     %                                                                      %
     %   R. Sabatini et al., J. Phys.: Condens. Matter 24, 424209 (2012).   %
     %                                                                      %
     %%%%%%%%%%%%%%%%%%%%%%%%%%%%%%%%%%%%%%%%%%%%%%%%%%%%%%%%%%%%%%%%%%%%%%%%

     Adding external electric field

     Computed dipole along edir(3) :
        Dipole               -5.1845 Ry au,        -13.1776 Debye
        Dipole field         -0.0098 Ry au,

        Potential amp.        0.9069 Ry
        Total length         46.3494 bohr

     Starting wfcs are  294 atomic wfcs
  @ DRIVER MODE: Message from server: STATUS
  @ DRIVER MODE: Message from server: POSDATA
  @ DRIVER MODE: Reading and sharing cell
  @ DRIVER MODE: Reading and sharing positions
  @ DRIVER MODE: Received positions

     Self-consistent Calculation

     iteration #  1     ecut=    29.40 Ry     beta= 0.05
     Davidson diagonalization with overlap
     c_bands:  3 eigenvalues not converged
     c_bands:  3 eigenvalues not converged
     c_bands:  2 eigenvalues not converged
     c_bands:  1 eigenvalues not converged
     c_bands:  2 eigenvalues not converged
     c_bands:  2 eigenvalues not converged
     c_bands:  3 eigenvalues not converged
     c_bands:  2 eigenvalues not converged
     ethr =  1.00E-05,  avg # of iterations = 21.8

[...]

     total energy              =   -2822.17573625 Ry
     estimated scf accuracy    <    1190.82156441 Ry

     iteration #  2     ecut=    29.40 Ry     beta= 0.05
     Davidson diagonalization with overlap
     ethr =  1.00E-02,  avg # of iterations = 16.5

[...]

     iteration # 54     ecut=    29.40 Ry     beta= 0.05
     Davidson diagonalization with overlap
     c_bands:  1 eigenvalues not converged
     ethr =  5.07E-10,  avg # of iterations =  8.4

[...]

     total energy              =   -2930.16717459 Ry
     estimated scf accuracy    <       0.00000009 Ry

     iteration # 61     ecut=    29.40 Ry     beta= 0.05
     Davidson diagonalization with overlap
     ethr =  2.43E-11,  avg # of iterations =  6.2

     negative rho (up, down):  1.727E-02 0.000E+00

     Adding external electric field

     Computed dipole along edir(3) :
        Dipole                0.9323 Ry au,          2.3697 Debye
        Dipole field          0.0018 Ry au,

        Potential amp.       -0.1631 Ry
        Total length         46.3494 bohr

     End of self-consistent calculation

          k = 0.0000 0.0000 0.0000 ( 18029 PWs)   bands (ev):

   -55.8211 -55.8098 -55.7849 -55.7735 -55.7115 -55.6982 -55.6726 -55.6058
   -55.6019 -55.5905 -55.5783 -55.5572 -55.5162 -55.5022 -54.8493 -54.8152
   -32.3787 -32.2940 -32.1891 -32.1633 -32.1272 -32.1248 -32.1163 -32.0990
   -32.0701 -32.0543 -32.0504 -32.0245 -31.9954 -31.9909 -31.9798 -31.9578
   -31.9424 -31.9395 -31.9327 -31.9158 -31.8897 -31.8871 -31.8844 -31.8743
   -31.8604 -31.8454 -31.8442 -31.8207 -31.8168 -31.8151 -31.7927 -31.7641
   -31.7508 -31.7355 -31.7350 -31.7328 -31.7193 -31.6993 -31.6973 -31.6891
   -31.6824 -31.6725 -31.2595 -31.1615 -31.1392 -31.0762 -30.9901 -30.8788
   -19.8515 -16.5922 -16.2981 -16.1493 -16.0203 -15.9695 -15.8514 -15.6959
   -15.6196 -15.5414 -15.4913 -15.4430 -15.4047 -15.4035 -15.3748 -15.3590
   -15.3552 -15.3507 -15.2759 -15.2713 -15.2371 -15.2202 -15.2093 -15.1211
   -15.0568 -14.9982 -14.9522 -14.8969 -14.8415 -14.8133 -13.3498 -13.2313
    -9.3097  -5.5702  -5.5222  -3.9420  -3.7664  -3.7253  -3.7067  -3.6551
    -3.5371  -3.4316  -3.3963  -3.1131  -3.0225  -2.9891  -2.9797  -2.9666
    -2.8257  -2.7808  -2.6669  -2.6612  -2.6528  -2.6467  -2.6271  -2.5926
    -2.5807  -2.5385  -2.5123  -2.4023  -2.3682  -2.2561  -2.2397  -2.2172
    -2.1592  -2.1321  -2.1031  -2.0904  -2.0606  -2.0577  -2.0531  -2.0073
    -1.9096  -1.8170  -1.7553  -1.6684  -1.6316  -1.5421  -1.3794  -1.3126
    -1.2729  -1.2348  -1.1847  -1.1685  -1.1367  -1.1105  -1.0956  -1.0791
    -0.9829  -0.8671  -0.8639  -0.7628  -0.7009  -0.6748  -0.6616  -0.5789
    -0.5602  -0.5507  -0.4519  -0.3132  -0.3063  -0.3008  -0.1825  -0.1515
    -0.1281  -0.0808  -0.0602  -0.0219   0.0086   0.0665   0.1070   0.1195
     0.1637   0.1832   0.2045   0.3115   0.3668   0.3767   0.4267   0.4648
     0.6533   0.6708   0.8055   0.8736   1.0777   1.1757   1.2323   1.3436
     1.7634   1.8217   3.3426   3.3756   3.3994   3.4535   3.4910   3.5395
     3.5867   3.7888   3.8026   3.8122   3.8338

[...]

          k = 0.0380-0.0419 0.0000 ( 17876 PWs)   bands (ev):

[...]

          k =-0.0760-0.0000 0.0000 ( 17886 PWs)   bands (ev):

[...]

          k =-0.0760-0.0839 0.0000 ( 17948 PWs)   bands (ev):

   -55.8092 -55.7967 -55.7920 -55.7911 -55.7025 -55.6948 -55.6815 -55.6090
   -55.5981 -55.5755 -55.5731 -55.5727 -55.5214 -55.5052 -54.8329 -54.8315
   -32.1806 -32.1796 -32.1172 -32.1037 -32.1020 -32.0969 -32.0825 -32.0682
   -32.0627 -32.0351 -32.0240 -32.0111 -31.9954 -31.9587 -31.9463 -31.9389
   -31.9364 -31.9336 -31.9257 -31.9228 -31.9057 -31.9009 -31.8988 -31.8983
   -31.8954 -31.8925 -31.8768 -31.8548 -31.8352 -31.8304 -31.8291 -31.8082
   -31.8019 -31.7848 -31.7801 -31.7724 -31.7700 -31.7658 -31.7440 -31.7286
   -31.7001 -31.6993 -31.1527 -31.1511 -31.0729 -31.0719 -31.0338 -31.0326
   -19.8437 -16.0206 -15.9939 -15.8821 -15.7617 -15.7518 -15.7076 -15.6682
   -15.6108 -15.5592 -15.5556 -15.5065 -15.4874 -15.4855 -15.4382 -15.4067
   -15.3607 -15.3529 -15.3437 -15.3398 -15.2878 -15.2828 -15.2402 -15.2176
   -15.2077 -15.1722 -15.1671 -15.0986 -15.0397 -15.0190 -13.3335 -13.3315
    -9.3108  -5.5521  -5.5004  -3.5648  -3.3095  -3.2789  -3.1166  -2.9824
    -2.9724  -2.9147  -2.8302  -2.7947  -2.7496  -2.6984  -2.6939  -2.6736
    -2.6610  -2.6494  -2.6404  -2.6336  -2.5861  -2.5697  -2.5276  -2.4796
    -2.4751  -2.4631  -2.4557  -2.4165  -2.4006  -2.3889  -2.3821  -2.3747
    -2.3041  -2.2273  -2.1547  -2.0754  -2.0242  -2.0026  -1.9811  -1.9432
    -1.9106  -1.8908  -1.8741  -1.7489  -1.7272  -1.5768  -1.5614  -1.5408
    -1.5278  -1.4783  -1.4653  -1.3416  -1.2764  -1.2693  -1.1987  -1.1729
    -1.1509  -1.0958  -1.0764  -0.9968  -0.9545  -0.9131  -0.8581  -0.7964
    -0.7862  -0.7199  -0.7111  -0.6227  -0.6070  -0.5867  -0.5830  -0.5144
    -0.4813  -0.3952  -0.3878  -0.3651  -0.2543  -0.1935  -0.1849   0.0015
     0.1750   0.1797   0.2023   0.3010   0.3311   0.3736   0.4385   0.4453
     0.5336   0.5831   0.6740   0.6943   0.7042   0.7850   1.5344   1.5354
     1.6268   1.6368   3.2972   3.5637   3.6012   3.6028   3.6640   3.8169
     3.8199   3.8366   3.8467   3.9798   3.9986

     the Fermi energy is     3.3283 ev

!    total energy              =   -2930.16721786 Ry
     estimated scf accuracy    <       0.00000006 Ry
     smearing contrib. (-TS)   =      -0.03343096 Ry
     internal energy E=F+TS    =   -2930.13378690 Ry

     The total energy is F=E-TS. E is the sum of the following terms:
     one-electron contribution =  -24703.90998087 Ry
     hartree contribution      =   12437.40453613 Ry
     xc contribution           =    -481.27695933 Ry
     ewald contribution        =    9817.64697687 Ry
     electric field correction =       0.00164030 Ry

     convergence has been achieved in  61 iterations

     Forces acting on atoms (cartesian axes, Ry/au):

     atom    1 type  1   force =    -0.00009703    0.00004247    0.10429785
     atom    2 type  1   force =    -0.00008691    0.00005210    0.10432993
     atom    3 type  2   force =    -0.00026164   -0.00201621    0.10308107
     atom    4 type  2   force =    -0.00014201    0.00162435    0.11355109
     atom    5 type  2   force =    -0.00035587    0.00049012   -0.18059256
     atom    6 type  2   force =    -0.00018723   -0.00001671   -0.18098304
     atom    7 type  1   force =    -0.06890221    0.00060919   -0.02907741
     atom    8 type  1   force =    -0.06842210   -0.00116981   -0.02911352
     atom    9 type  1   force =     0.06853778    0.00109828   -0.02915301
     atom   10 type  1   force =     0.06815633   -0.00076667   -0.02919338
     atom   11 type  1   force =     0.00041568    0.00044440    0.04544119
     atom   12 type  1   force =     0.00057510    0.00075536    0.04655871
     atom   13 type  1   force =     0.00030295   -0.00542174   -0.03231476
     atom   14 type  1   force =     0.00034164    0.00325399   -0.02500539
     atom   15 type  2   force =     0.00002342    0.00032256    0.00052080
     atom   16 type  2   force =     0.00007501   -0.00034751    0.00079918
     atom   17 type  2   force =    -0.00020172   -0.00110434    0.00027138
     atom   18 type  2   force =    -0.00023382    0.00073863   -0.00051725
     atom   19 type  1   force =    -0.01760868    0.00012444    0.00383753
     atom   20 type  1   force =    -0.01644372    0.00134418    0.00291698
     atom   21 type  1   force =     0.01897487   -0.00112744    0.00431934
     atom   22 type  1   force =     0.01762994    0.00110382    0.00323197
     atom   23 type  1   force =     0.00009554    0.00019985   -0.00065705
     atom   24 type  1   force =    -0.00008504   -0.00016010   -0.00043997
     atom   25 type  1   force =     0.00003895   -0.00061414    0.00024900
     atom   26 type  1   force =    -0.00018782    0.00041987    0.00009697
     atom   27 type  2   force =     0.00000011    0.00073879    0.00030189
     atom   28 type  2   force =    -0.00000408   -0.00019800   -0.00023509
     atom   29 type  2   force =     0.00006268   -0.00017923    0.00013788
     atom   30 type  2   force =    -0.00021452   -0.00025779    0.00034899
     atom   31 type  1   force =    -0.00014712   -0.00019315    0.00006490
     atom   32 type  1   force =     0.00028018    0.00035194    0.00020244
     atom   33 type  1   force =     0.00015729   -0.00013648    0.00007824
     atom   34 type  1   force =    -0.00054385    0.00023092    0.00020372
     atom   35 type  1   force =    -0.00004542   -0.00011550   -0.00015768
     atom   36 type  1   force =    -0.00000064    0.00025574   -0.00035914
     atom   37 type  1   force =    -0.00014491   -0.00036925   -0.00033814
     atom   38 type  1   force =    -0.00015059    0.00058368   -0.00032735
     atom   39 type  2   force =    -0.00035326    0.00066779   -0.00008545
     atom   40 type  2   force =    -0.00037833   -0.00039847    0.00003340
     atom   41 type  2   force =    -0.00000145   -0.00009909   -0.00003664
     atom   42 type  2   force =     0.00002241    0.00019687   -0.00001482
     atom   43 type  1   force =     0.00057450    0.00004671    0.00045242
     atom   44 type  1   force =    -0.00014299    0.00031814    0.00021211
     atom   45 type  1   force =     0.00003640    0.00025131    0.00038169
     atom   46 type  1   force =    -0.00091942    0.00008072    0.00049191
     atom   47 type  1   force =    -0.00039970   -0.00014054    0.00097883
     atom   48 type  1   force =    -0.00013009   -0.00107558   -0.00041476
     atom   49 type  3   force =     0.00115315   -0.00235999   -0.00348632
     atom   50 type  4   force =    -0.00057031    0.00319053    0.00471518
     atom   51 type  4   force =    -0.00009143   -0.00126904    0.00039615

     Total force =     0.374362     Total SCF correction =     0.000430
  @ DRIVER MODE: Message from server: STATUS
  @ DRIVER MODE: Message from server: GETFORCE
  @ DRIVER MODE: Returning v,forces,stress,ensemble

     Writing output data file ./calc.save/
  @ DRIVER MODE: Message from server: EXIT
  @ DRIVE MODE: Exiting

     General routines

     Parallel routines

   This run was terminated on:   3:34:57   9Sep2021

   JOB DONE.