     Program PWSCF v.6.7GPU starts on 22Sep2021 at 16:52:32

     R & G space division:  proc/nbgrp/npool/nimage =      10
     Reading input from /storage/home/hcoda1/3/ntian30/research/carbon/CxH_vib/H2O_calc/ads_slab/CHNHHHO_a/out_0003/pw.inp
Warning: card &CELL ignored
Warning: card   CELL_DYNAMICS='IPI', ignored
Warning: card / ignored

     Current dimensions of program PWSCF are:
     Max number of different atomic species (ntypx) = 10
     Max number of k-points (npk) =  40000
     Max angular momentum in pseudopotentials (lmaxx) =  3
     Presently no symmetry can be used with electric field

     Message from routine cell_base_init:
     DEPRECATED: use true lattice parameter, not A to a.u. conversion factor

     IMPORTANT: XC functional enforced from input :
     Exchange-correlation= BEEF-VDW
                           (   1   4  43  14   2   0   0)
     Any further DFT definition will be discarded
     Please, verify this is what you really want

  @ DRIVER MODE: Connecting to
 qe_1139763_2937313.sched-torque.pace.gatech.eduzmgbtgpp_scratch
  using UNIX socket
  @ DRIVER MODE: Message from server: STATUS
  @ DRIVER MODE: Message from server: INIT
  @ DRIVER MODE: Receiving replica           0          -1
  @ DRIVER MODE: Receiving encoded integer          25
  @ DRIVER MODE:  SCF:  T  FORCE:  T  STRESS:  F  VC:  F  ENSEMBLE:  F
  @ DRIVER MODE:  SCF:  T  FORCE:  T  STRESS:  F  VC:  F  ENSEMBLE:  F

     Using Slab Decomposition

     bravais-lattice index     =            0
     lattice parameter (alat)  =       1.8897  a.u.
     unit-cell volume          =    6658.9804 (a.u.)^3
     number of atoms/cell      =           54
     number of atomic types    =            5
     number of electrons       =       397.00
     number of Kohn-Sham states=          208
     kinetic-energy cutoff     =      29.3995  Ry
     charge density cutoff     =     293.9946  Ry
     scf convergence threshold =      7.3E-08
     mixing beta               =       0.0500
     number of iterations used =            8  plain     mixing
     Exchange-correlation= BEEF-VDW
                           (   1   4  43  14   2   0   0)

     celldm(1)=   1.889726  celldm(2)=   0.000000  celldm(3)=   0.000000
     celldm(4)=   0.000000  celldm(5)=   0.000000  celldm(6)=   0.000000

     crystal axes: (cart. coord. in units of alat)
               a(1) = (   6.579727   0.000000   0.000000 )
               a(2) = (  -0.000775   5.961596   0.000000 )
               a(3) = (   0.000000   0.000000  25.155947 )

     reciprocal axes: (cart. coord. in units 2 pi/alat)
               b(1) = (  0.151982  0.000020  0.000000 )
               b(2) = (  0.000000  0.167740  0.000000 )
               b(3) = (  0.000000  0.000000  0.039752 )

     PseudoPot. # 1 for Ti read from file:
     /storage/coda1/p-amedford6/0/shared/rich_project_chbe-medford/medford-share/data/pseudos_module/espresso/nninc/pbe/van/Ti.UPF
     MD5 check sum: 8e4df49b7f0d34bbd5052bf3f5ea0213
     Pseudo is Ultrasoft, Zval = 12.0
     Generated by new atomic code, or converted to UPF format
     Using radial grid of  851 points,  6 beta functions with:
                l(1) =   0
                l(2) =   0
                l(3) =   1
                l(4) =   1
                l(5) =   2
                l(6) =   2
     Q(r) pseudized with  8 coefficients,  rinner =    1.000   1.000   1.000
                                                       1.000   1.000

     PseudoPot. # 2 for O  read from file:
     /storage/coda1/p-amedford6/0/shared/rich_project_chbe-medford/medford-share/data/pseudos_module/espresso/nninc/pbe/van/O.UPF
     MD5 check sum: 78c19812648e8988a0fe644b0f25305e
     Pseudo is Ultrasoft, Zval =  6.0
     Generated by new atomic code, or converted to UPF format
     Using radial grid of  737 points,  4 beta functions with:
                l(1) =   0
                l(2) =   0
                l(3) =   1
                l(4) =   1
     Q(r) pseudized with  8 coefficients,  rinner =    0.800   0.800   0.800

     PseudoPot. # 3 for N  read from file:
     /storage/coda1/p-amedford6/0/shared/rich_project_chbe-medford/medford-share/data/pseudos_module/espresso/nninc/pbe/van/N.UPF
     MD5 check sum: 90d10febe142ad51ac9d5be1deb811c4
     Pseudo is Ultrasoft, Zval =  5.0
     Generated by new atomic code, or converted to UPF format
     Using radial grid of  729 points,  4 beta functions with:
                l(1) =   0
                l(2) =   0
                l(3) =   1
                l(4) =   1
     Q(r) pseudized with  8 coefficients,  rinner =    0.800   0.800   0.800

     PseudoPot. # 4 for C  read from file:
     /storage/coda1/p-amedford6/0/shared/rich_project_chbe-medford/medford-share/data/pseudos_module/espresso/nninc/pbe/van/C.UPF
     MD5 check sum: 1a69bf6b8db32088f5b2163dbdb77a27
     Pseudo is Ultrasoft, Zval =  4.0
     Generated by new atomic code, or converted to UPF format
     Using radial grid of  721 points,  4 beta functions with:
                l(1) =   0
                l(2) =   0
                l(3) =   1
                l(4) =   1
     Q(r) pseudized with  8 coefficients,  rinner =    0.800   0.800   0.800

     PseudoPot. # 5 for H  read from file:
     /storage/coda1/p-amedford6/0/shared/rich_project_chbe-medford/medford-share/data/pseudos_module/espresso/nninc/pbe/van/H.UPF
     MD5 check sum: b5ee9d7bfd3a09ee7748110bda690ff7
     Pseudo is Ultrasoft, Zval =  1.0
     Generated by new atomic code, or converted to UPF format
     Using radial grid of  615 points,  1 beta functions with:
                l(1) =   0
     Q(r) pseudized with  8 coefficients,  rinner =    0.800

     atomic species   valence    mass     pseudopotential
        Ti1           12.00    47.86700     Ti( 1.00)
        O1             6.00    15.99900     O ( 1.00)
        N1             5.00    14.00700     N ( 1.00)
        C1             4.00    12.01100     C ( 1.00)
        H1             1.00     1.00800     H ( 1.00)

     No symmetry found

   Cartesian axes

     site n.     atom                  positions (alat units)
         1           Ti1 tau(   1) = (   0.0004258   2.9801865   6.0000000  )
         2           Ti1 tau(   2) = (   3.2906075   1.4906267   6.0002472  )
         3           O1  tau(   3) = (   0.0006271   0.0005054   7.9858123  )
         4           O1  tau(   4) = (   3.2906025   0.0005020   7.3038282  )
         5           O1  tau(   5) = (   4.5942328   1.4918067   9.2879030  )
         6           O1  tau(   6) = (   1.9868534   1.4903216   9.2879459  )
         7           Ti1 tau(   7) = (   3.2907910   2.8959150   9.1758416  )
         8           Ti1 tau(   8) = (   0.0015273   1.4827037   9.2680791  )
         9           O1  tau(   9) = (   3.2973591   5.9237820  11.3497511  )
        10           O1  tau(  10) = (   0.0116148   5.9584955  10.6183126  )
        11           O1  tau(  11) = (   1.2811460   1.4768824  12.6391447  )
        12           O1  tau(  12) = (   5.3079631   1.4871840  12.6405626  )
        13           Ti1 tau(  13) = (   6.5754896   2.9244875  12.5445406  )
        14           Ti1 tau(  14) = (   3.3102182   1.2813077  12.7057081  )
        15           O1  tau(  15) = (   6.5763362   0.0566486  14.6337039  )
        16           O1  tau(  16) = (   3.2990834   0.0566264  13.9960278  )
        17           O1  tau(  17) = (   4.5749688   1.5338778  16.1314031  )
        18           O1  tau(  18) = (   2.0677763   1.5208417  16.2171153  )
        19           Ti1 tau(  19) = (   3.2830944   2.9922577  15.6820260  )
        20           Ti1 tau(  20) = (   6.5002293   1.4748383  16.0237708  )
        21           O1  tau(  21) = (   3.2904802   0.0005063   4.7018136  )
        22           O1  tau(  22) = (   0.0234767   5.8639946  17.1540191  )
        23           O1  tau(  23) = (   1.3043587   1.4918075   6.0039043  )
        24           O1  tau(  24) = (   5.2767064   1.4903225   6.0039473  )
        25           Ti1 tau(  25) = (   0.0000382   5.9609847   6.0000000  )
        26           Ti1 tau(  26) = (   3.2902200   4.4714249   6.0002472  )
        27           O1  tau(  27) = (   0.0002396   2.9813036   7.9858123  )
        28           O1  tau(  28) = (   3.2902150   2.9813002   7.3038282  )
        29           O1  tau(  29) = (   4.5938453   4.4726049   9.2879030  )
        30           O1  tau(  30) = (   1.9864658   4.4711199   9.2879459  )
        31           Ti1 tau(  31) = (   3.2891106   5.8743827   9.1763621  )
        32           Ti1 tau(  32) = (   0.0006254   4.4649316   9.2693709  )
        33           O1  tau(  33) = (   3.2952530   2.9960894  11.3054589  )
        34           O1  tau(  34) = (   0.0092240   2.9805883  10.6323155  )
        35           O1  tau(  35) = (   1.2848436   4.4566134  12.6628561  )
        36           O1  tau(  36) = (   5.3073415   4.4462911  12.6631571  )
        37           Ti1 tau(  37) = (   0.0411484   5.9123939  12.5136797  )
        38           Ti1 tau(  38) = (   3.3147701   4.3652790  12.4361622  )
        39           O1  tau(  39) = (   0.0290229   2.9306538  14.8412286  )
        40           O1  tau(  40) = (   3.2875986   2.9640914  13.9120161  )
        41           O1  tau(  41) = (   4.5659564   4.3862643  16.1232528  )
        42           O1  tau(  42) = (   2.0245242   4.4195217  16.0560026  )
        43           Ti1 tau(  43) = (   3.2475481   5.9608109  16.2864591  )
        44           Ti1 tau(  44) = (   0.0132903   4.6514137  15.7972829  )
        45           O1  tau(  45) = (   3.2900926   2.9813045   4.7018136  )
        46           O1  tau(  46) = (   1.3039711   4.4726057   6.0039043  )
        47           O1  tau(  47) = (   5.2763189   4.4711207   6.0039473  )
        48           N1  tau(  48) = (   5.7184149   3.3772802  18.6644769  )
        49           C1  tau(  49) = (   6.5536674   2.6142045  18.0347456  )
        50           H1  tau(  50) = (   0.7520291   2.2354638  18.7052436  )
        51           H1  tau(  51) = (   4.9873861   3.8928837  18.1615307  )
        52           H1  tau(  52) = (   5.8197376   3.6397576  19.6419508  )
        53           O1  tau(  53) = (   3.3578172   5.8156178  18.1613732  )
        54           H1  tau(  54) = (   2.9124532   0.5526369  18.6599525  )

     number of k points=    10  Fermi-Dirac smearing, width (Ry)=  0.0073
                       cart. coord. in units 2pi/alat
        k(    1) = (   0.0000000   0.0000000   0.0000000), wk =   0.1250000
        k(    2) = (   0.0000000   0.0419351   0.0000000), wk =   0.2500000
        k(    3) = (   0.0000000  -0.0838702   0.0000000), wk =   0.1250000
        k(    4) = (   0.0379955   0.0000049   0.0000000), wk =   0.2500000
        k(    5) = (   0.0379955   0.0419400   0.0000000), wk =   0.2500000
        k(    6) = (   0.0379955  -0.0838652   0.0000000), wk =   0.2500000
        k(    7) = (   0.0379955  -0.0419301   0.0000000), wk =   0.2500000
        k(    8) = (  -0.0759910  -0.0000099   0.0000000), wk =   0.1250000
        k(    9) = (  -0.0759910   0.0419252   0.0000000), wk =   0.2500000
        k(   10) = (  -0.0759910  -0.0838800   0.0000000), wk =   0.1250000

     Initial potential from superposition of free atoms

     starting charge  380.99916, renormalised to  397.00000

     negative rho (up, down):  1.675E-02 0.000E+00

     %%%%%%%%%%%%%%%%%%%%%%%%%%%%%%%%%%%%%%%%%%%%%%%%%%%%%%%%%%%%%%%%%%%%%%%%
     %                                                                      %
     % You are using vdW-DF, which was implemented by the Thonhauser group. %
     % Please cite the following two papers that made this development      %
     % possible and the two reviews that describe the various versions:     %
     %                                                                      %
     %   T. Thonhauser et al., PRL 115, 136402 (2015).                      %
     %   T. Thonhauser et al., PRB 76, 125112 (2007).                       %
     %   K. Berland et al., Rep. Prog. Phys. 78, 066501 (2015).             %
     %   D.C. Langreth et al., J. Phys.: Condens. Matter 21, 084203 (2009). %
     %                                                                      %
     %                                                                      %
     % If you are calculating the stress with vdW-DF, please also cite:     %
     %                                                                      %
     %   R. Sabatini et al., J. Phys.: Condens. Matter 24, 424209 (2012).   %
     %                                                                      %
     %%%%%%%%%%%%%%%%%%%%%%%%%%%%%%%%%%%%%%%%%%%%%%%%%%%%%%%%%%%%%%%%%%%%%%%%

     Adding external electric field

     Computed dipole along edir(3) :
        Dipole               -9.3089 Ry au,        -23.6608 Debye
        Dipole field         -0.0176 Ry au,

        Potential amp.        1.6284 Ry
        Total length         46.3494 bohr

     Starting wfcs are  300 atomic wfcs
  @ DRIVER MODE: Message from server: STATUS
  @ DRIVER MODE: Message from server: POSDATA
  @ DRIVER MODE: Reading and sharing cell
  @ DRIVER MODE: Reading and sharing positions
  @ DRIVER MODE: Received positions

     Self-consistent Calculation

     iteration #  1     ecut=    29.40 Ry     beta= 0.05
     Davidson diagonalization with overlap
     c_bands:  1 eigenvalues not converged
     c_bands:  2 eigenvalues not converged
     c_bands:  1 eigenvalues not converged
     c_bands:  1 eigenvalues not converged
     c_bands:  1 eigenvalues not converged
     c_bands:  2 eigenvalues not converged
     c_bands:  1 eigenvalues not converged
     c_bands:  1 eigenvalues not converged
     c_bands:  2 eigenvalues not converged
     ethr =  1.00E-05,  avg # of iterations = 19.6

[...]

     total energy              =   -2539.07856781 Ry
     estimated scf accuracy    <    4593.63581877 Ry

     iteration #  2     ecut=    29.40 Ry     beta= 0.05
     Davidson diagonalization with overlap
     ethr =  1.00E-02,  avg # of iterations = 24.5

[...]

     iteration # 67     ecut=    29.40 Ry     beta= 0.05
     Davidson diagonalization with overlap
     c_bands:  2 eigenvalues not converged
     ethr =  3.76E-11,  avg # of iterations = 16.7

[...]

     total energy              =   -2952.67084389 Ry
     estimated scf accuracy    <       0.00000019 Ry

     iteration # 68     ecut=    29.40 Ry     beta= 0.05
     Davidson diagonalization with overlap
     ethr =  3.76E-11,  avg # of iterations = 12.2

     negative rho (up, down):  1.681E-02 0.000E+00

     Adding external electric field

     Computed dipole along edir(3) :
        Dipole                1.3112 Ry au,          3.3326 Debye
        Dipole field          0.0025 Ry au,

        Potential amp.       -0.2294 Ry
        Total length         46.3494 bohr

     End of self-consistent calculation

          k = 0.0000 0.0000 0.0000 ( 18029 PWs)   bands (ev):

   -55.6233 -55.5417 -55.5077 -55.3587 -55.3358 -55.3247 -55.3004 -55.2947
   -55.2746 -55.2242 -55.1423 -55.1036 -55.0271 -55.0050 -54.4936 -54.4596
   -32.0232 -31.9555 -31.8608 -31.8467 -31.8334 -31.8225 -31.8221 -31.7865
   -31.7583 -31.7171 -31.6941 -31.6705 -31.6453 -31.6221 -31.6183 -31.6055
   -31.5993 -31.5831 -31.5482 -31.5340 -31.5202 -31.5143 -31.5018 -31.4982
   -31.4868 -31.4774 -31.4717 -31.4713 -31.4429 -31.4325 -31.4217 -31.4036
   -31.3861 -31.3824 -31.3802 -31.3080 -31.2937 -31.2730 -31.2407 -31.2317
   -31.2239 -31.1536 -30.8984 -30.8149 -30.7923 -30.7162 -30.6300 -30.5180
   -17.3454 -16.4864 -16.1278 -15.9643 -15.7673 -15.6619 -15.5934 -15.4035
   -15.3192 -15.2631 -15.0737 -15.0664 -15.0398 -15.0178 -14.9926 -14.9653
   -14.9550 -14.9484 -14.9224 -14.8890 -14.8725 -14.8434 -14.8264 -14.7689
   -14.7439 -14.7244 -14.6630 -14.5676 -14.5049 -14.2927 -14.1488 -12.9914
   -12.8754  -9.6535  -7.3021  -4.7832  -4.0656  -3.4964  -3.4289  -3.3690
    -3.3217  -3.2438  -3.0133  -2.8658  -2.7700  -2.7377  -2.6613  -2.6177
    -2.5699  -2.4885  -2.4214  -2.3980  -2.3540  -2.3148  -2.2857  -2.2635
    -2.2373  -2.2161  -2.1591  -2.1226  -2.0428  -1.9957  -1.9276  -1.9042
    -1.8448  -1.8076  -1.8052  -1.7917  -1.7541  -1.7487  -1.7406  -1.7193
    -1.6143  -1.5816  -1.5321  -1.4884  -1.3262  -1.1378  -1.1157  -1.0210
    -0.9881  -0.9461  -0.9200  -0.9041  -0.8798  -0.8573  -0.7635  -0.7434
    -0.6607  -0.5984  -0.5534  -0.5039  -0.4066  -0.3367  -0.3102  -0.2624
    -0.2594  -0.2271  -0.2106  -0.1228  -0.0449   0.0005   0.0132   0.0657
     0.1499   0.1686   0.2248   0.2530   0.2961   0.3294   0.4041   0.4309
     0.4535   0.4628   0.4813   0.5378   0.5775   0.6109   0.6800   0.7818
     0.7880   0.8636   0.8647   0.8751   1.0748   1.1664   1.1818   1.2666
     1.4922   1.5334   1.6240   1.7294   2.0980   2.1422   3.5613   3.7047
     3.7226   3.7870   3.8352   3.9467   3.9611   4.0460   4.1725   4.2580

[...]

          k = 0.0380-0.0419 0.0000 ( 17876 PWs)   bands (ev):

[...]

          k =-0.0760-0.0000 0.0000 ( 17886 PWs)   bands (ev):

[...]

          k =-0.0760-0.0839 0.0000 ( 17948 PWs)   bands (ev):

   -55.6227 -55.5249 -55.5243 -55.3418 -55.3413 -55.3222 -55.3138 -55.2951
   -55.2681 -55.2307 -55.1401 -55.0999 -55.0307 -55.0071 -54.4770 -54.4761
   -31.9010 -31.8387 -31.8383 -31.8355 -31.8250 -31.8192 -31.8186 -31.6981
   -31.6671 -31.6607 -31.6448 -31.6441 -31.6396 -31.6308 -31.6165 -31.5976
   -31.5942 -31.5913 -31.5562 -31.5543 -31.5368 -31.5340 -31.5198 -31.5186
   -31.5117 -31.5067 -31.4998 -31.4978 -31.4862 -31.4807 -31.4543 -31.4484
   -31.4075 -31.3896 -31.3779 -31.3607 -31.3119 -31.2973 -31.2806 -31.2452
   -31.2356 -31.2261 -30.8054 -30.8047 -30.7120 -30.7108 -30.6735 -30.6727
   -17.3413 -16.4767 -15.5914 -15.5813 -15.4682 -15.4524 -15.3499 -15.2824
   -15.2520 -15.2277 -15.2062 -15.1743 -15.1689 -15.1242 -15.0764 -15.0628
   -15.0297 -15.0039 -14.9868 -14.9492 -14.9192 -14.9033 -14.8790 -14.8409
   -14.8349 -14.8191 -14.8057 -14.6405 -14.5904 -14.4512 -14.4195 -12.9776
   -12.9772  -9.6551  -7.3015  -4.7785  -4.0622  -2.8559  -2.7970  -2.6874
    -2.6663  -2.5830  -2.5086  -2.4741  -2.4613  -2.3746  -2.3633  -2.3588
    -2.3223  -2.2953  -2.2781  -2.2497  -2.2464  -2.2358  -2.2013  -2.1944
    -2.1759  -2.1554  -2.1393  -2.1250  -2.1102  -2.1006  -2.0782  -2.0541
    -2.0295  -1.9860  -1.8321  -1.7925  -1.7650  -1.6452  -1.6366  -1.6182
    -1.6074  -1.5933  -1.5634  -1.4970  -1.4784  -1.4726  -1.3163  -1.2300
    -1.1890  -1.1215  -1.1043  -1.0729  -0.9837  -0.9713  -0.9416  -0.9051
    -0.8587  -0.7868  -0.6865  -0.6789  -0.6365  -0.5278  -0.4768  -0.4630
    -0.4604  -0.4108  -0.4007  -0.3847  -0.3433  -0.2711  -0.2557  -0.2294
    -0.1966  -0.1823  -0.1416  -0.0751   0.0300   0.1110   0.2142   0.2534
     0.3336   0.3607   0.3741   0.5251   0.5908   0.6289   0.6765   0.6863
     0.7885   0.7994   0.8137   0.8930   0.9886   1.0120   1.0730   1.0897
     1.1099   1.1470   1.8987   1.9067   1.9624   1.9627   3.7497   4.0343
     4.0879   4.0973   4.1187   4.1337   4.1386   4.1680   4.2247   4.2547

     the Fermi energy is     3.5862 ev

!    total energy              =   -2952.67087169 Ry
     estimated scf accuracy    <       0.00000007 Ry
     smearing contrib. (-TS)   =      -0.02002468 Ry
     internal energy E=F+TS    =   -2952.65084701 Ry

     The total energy is F=E-TS. E is the sum of the following terms:
     one-electron contribution =  -23943.44671297 Ry
     hartree contribution      =   12064.68590924 Ry
     xc contribution           =    -487.97901774 Ry
     ewald contribution        =    9414.08573019 Ry
     electric field correction =       0.00324426 Ry

     convergence has been achieved in  68 iterations

     Forces acting on atoms (cartesian axes, Ry/au):

     atom    1 type  1   force =     0.00003890   -0.00031711    0.09543957
     atom    2 type  1   force =    -0.00013273    0.00031041   -0.17424338
     atom    3 type  2   force =    -0.00002006   -0.00015650   -0.02259391
     atom    4 type  2   force =     0.00003604   -0.00185573    0.05176301
     atom    5 type  2   force =    -0.00667810   -0.00270024    0.00169386
     atom    6 type  2   force =     0.00822681   -0.00219388    0.00117330
     atom    7 type  1   force =    -0.00012295   -0.00381771    0.01176385
     atom    8 type  1   force =     0.00015514    0.00376433    0.01271092
     atom    9 type  2   force =     0.00020991    0.00039054    0.00088853
     atom   10 type  2   force =    -0.00197640   -0.00130557   -0.01605749
     atom   11 type  2   force =     0.00117097   -0.00021636   -0.00025841
     atom   12 type  2   force =    -0.00061744    0.00012182   -0.00021628
     atom   13 type  1   force =    -0.00022229   -0.00143859    0.00037282
     atom   14 type  1   force =     0.00009159   -0.00041644   -0.00018449
     atom   15 type  2   force =     0.00008764    0.00037820   -0.00072077
     atom   16 type  2   force =     0.00005400    0.00105526   -0.00040340
     atom   17 type  2   force =    -0.00004602    0.00021668    0.00021205
     atom   18 type  2   force =     0.00002419    0.00024108   -0.00010085
     atom   19 type  1   force =    -0.00030371   -0.00005680    0.00009529
     atom   20 type  1   force =     0.00031802    0.00012751   -0.00099534
     atom   21 type  2   force =     0.00005857    0.00010514    0.10286596
     atom   22 type  2   force =    -0.00041061    0.00035660    0.00084585
     atom   23 type  2   force =    -0.07253137   -0.00013806   -0.02756123
     atom   24 type  2   force =     0.07243528    0.00027201   -0.02759127
     atom   25 type  1   force =     0.00009524   -0.00014778    0.09506108
     atom   26 type  1   force =    -0.00010750   -0.00129014   -0.17427456
     atom   27 type  2   force =     0.00015678   -0.00025850   -0.02135017
     atom   28 type  2   force =     0.00004612   -0.00014779    0.04737354
     atom   29 type  2   force =    -0.00545477    0.00230774   -0.00003640
     atom   30 type  2   force =     0.00702739    0.00274166   -0.00054627
     atom   31 type  1   force =    -0.00016758    0.00659640    0.00047690
     atom   32 type  1   force =     0.00007954   -0.00557993    0.01177073
     atom   33 type  2   force =    -0.00014535   -0.00038780    0.00017276
     atom   34 type  2   force =    -0.00121772    0.00016439   -0.01559221
     atom   35 type  2   force =    -0.00038483    0.00042972    0.00018475
     atom   36 type  2   force =     0.00103311    0.00058800    0.00044527
     atom   37 type  1   force =    -0.00024320    0.00178322    0.00002763
     atom   38 type  1   force =    -0.00005652    0.00024815    0.00030166
     atom   39 type  2   force =    -0.00011685    0.00004915   -0.00004089
     atom   40 type  2   force =     0.00037743   -0.00032318   -0.00008941
     atom   41 type  2   force =    -0.00031870    0.00037260    0.00048262
     atom   42 type  2   force =     0.00057678    0.00017916    0.00031669
     atom   43 type  1   force =     0.00019521    0.00021813    0.00008481
     atom   44 type  1   force =     0.00036405    0.00009246    0.00047362
     atom   45 type  2   force =     0.00006136   -0.00008655    0.10264396
     atom   46 type  2   force =    -0.07258129   -0.00004919   -0.02758855
     atom   47 type  2   force =     0.07250614    0.00040386   -0.02761313
     atom   48 type  3   force =    -0.01256765    0.01468223    0.00433713
     atom   49 type  4   force =     0.00700341   -0.00748663   -0.00453075
     atom   50 type  5   force =     0.00005469   -0.00073220   -0.00070335
     atom   51 type  5   force =     0.00485808   -0.00445272    0.00248214
     atom   52 type  5   force =     0.00013433   -0.00181699   -0.00248674
     atom   53 type  2   force =     0.00000893   -0.00007348   -0.00053578
     atom   54 type  5   force =    -0.00106205   -0.00075059   -0.00014527

     Total force =     0.363093     Total SCF correction =     0.000640
  @ DRIVER MODE: Message from server: STATUS
  @ DRIVER MODE: Message from server: GETFORCE
  @ DRIVER MODE: Returning v,forces,stress,ensemble

     Writing output data file ./calc.save/
  @ DRIVER MODE: Message from server: EXIT
  @ DRIVE MODE: Exiting

     General routines

     Parallel routines

   This run was terminated on:  17:10:15  22Sep2021

   JOB DONE.