     Program PWSCF v.6.7GPU starts on 25Aug2021 at  7:52:51

     R & G space division:  proc/nbgrp/npool/nimage =       6
     Reading input from /storage/home/hcoda1/3/ntian30/research/carbon/CH3_vib_end_on/ads_slab/CH3N2H2_f/out_0029/pw.inp
Warning: card &CELL ignored
Warning: card   CELL_DYNAMICS='IPI', ignored
Warning: card / ignored

     Current dimensions of program PWSCF are:
     Max number of different atomic species (ntypx) = 10
     Max number of k-points (npk) =  40000
     Max angular momentum in pseudopotentials (lmaxx) =  3
     Presently no symmetry can be used with electric field

     Message from routine cell_base_init:
     DEPRECATED: use true lattice parameter, not A to a.u. conversion factor

     IMPORTANT: XC functional enforced from input :
     Exchange-correlation= BEEF-VDW
                           (   1   4  43  14   2   0   0)
     Any further DFT definition will be discarded
     Please, verify this is what you really want

  @ DRIVER MODE: Connecting to
 qe_1139763_2643870.sched-torque.pace.gatech.edud59uodz3_scratch
  using UNIX socket
  @ DRIVER MODE: Message from server: STATUS
  @ DRIVER MODE: Message from server: INIT
  @ DRIVER MODE: Receiving replica           0          -1
  @ DRIVER MODE: Receiving encoded integer          25
  @ DRIVER MODE:  SCF:  T  FORCE:  T  STRESS:  F  VC:  F  ENSEMBLE:  F
  @ DRIVER MODE:  SCF:  T  FORCE:  T  STRESS:  F  VC:  F  ENSEMBLE:  F

     Using Slab Decomposition

     bravais-lattice index     =            0
     lattice parameter (alat)  =       1.8897  a.u.
     unit-cell volume          =    6658.9804 (a.u.)^3
     number of atoms/cell      =           55
     number of atomic types    =            5
     number of electrons       =       397.00
     number of Kohn-Sham states=          208
     kinetic-energy cutoff     =      29.3995  Ry
     charge density cutoff     =     293.9946  Ry
     scf convergence threshold =      7.3E-08
     mixing beta               =       0.0500
     number of iterations used =            8  plain     mixing
     Exchange-correlation= BEEF-VDW
                           (   1   4  43  14   2   0   0)

     celldm(1)=   1.889726  celldm(2)=   0.000000  celldm(3)=   0.000000
     celldm(4)=   0.000000  celldm(5)=   0.000000  celldm(6)=   0.000000

     crystal axes: (cart. coord. in units of alat)
               a(1) = (   6.579727   0.000000   0.000000 )
               a(2) = (  -0.000775   5.961596   0.000000 )
               a(3) = (   0.000000   0.000000  25.155947 )

     reciprocal axes: (cart. coord. in units 2 pi/alat)
               b(1) = (  0.151982  0.000020  0.000000 )
               b(2) = (  0.000000  0.167740  0.000000 )
               b(3) = (  0.000000  0.000000  0.039752 )

     PseudoPot. # 1 for Ti read from file:
     /storage/coda1/p-amedford6/0/shared/rich_project_chbe-medford/medford-share/data/pseudos_module/espresso/nninc/pbe/van/Ti.UPF
     MD5 check sum: 8e4df49b7f0d34bbd5052bf3f5ea0213
     Pseudo is Ultrasoft, Zval = 12.0
     Generated by new atomic code, or converted to UPF format
     Using radial grid of  851 points,  6 beta functions with:
                l(1) =   0
                l(2) =   0
                l(3) =   1
                l(4) =   1
                l(5) =   2
                l(6) =   2
     Q(r) pseudized with  8 coefficients,  rinner =    1.000   1.000   1.000
                                                       1.000   1.000

     PseudoPot. # 2 for O  read from file:
     /storage/coda1/p-amedford6/0/shared/rich_project_chbe-medford/medford-share/data/pseudos_module/espresso/nninc/pbe/van/O.UPF
     MD5 check sum: 78c19812648e8988a0fe644b0f25305e
     Pseudo is Ultrasoft, Zval =  6.0
     Generated by new atomic code, or converted to UPF format
     Using radial grid of  737 points,  4 beta functions with:
                l(1) =   0
                l(2) =   0
                l(3) =   1
                l(4) =   1
     Q(r) pseudized with  8 coefficients,  rinner =    0.800   0.800   0.800

     PseudoPot. # 3 for N  read from file:
     /storage/coda1/p-amedford6/0/shared/rich_project_chbe-medford/medford-share/data/pseudos_module/espresso/nninc/pbe/van/N.UPF
     MD5 check sum: 90d10febe142ad51ac9d5be1deb811c4
     Pseudo is Ultrasoft, Zval =  5.0
     Generated by new atomic code, or converted to UPF format
     Using radial grid of  729 points,  4 beta functions with:
                l(1) =   0
                l(2) =   0
                l(3) =   1
                l(4) =   1
     Q(r) pseudized with  8 coefficients,  rinner =    0.800   0.800   0.800

     PseudoPot. # 4 for C  read from file:
     /storage/coda1/p-amedford6/0/shared/rich_project_chbe-medford/medford-share/data/pseudos_module/espresso/nninc/pbe/van/C.UPF
     MD5 check sum: 1a69bf6b8db32088f5b2163dbdb77a27
     Pseudo is Ultrasoft, Zval =  4.0
     Generated by new atomic code, or converted to UPF format
     Using radial grid of  721 points,  4 beta functions with:
                l(1) =   0
                l(2) =   0
                l(3) =   1
                l(4) =   1
     Q(r) pseudized with  8 coefficients,  rinner =    0.800   0.800   0.800

     PseudoPot. # 5 for H  read from file:
     /storage/coda1/p-amedford6/0/shared/rich_project_chbe-medford/medford-share/data/pseudos_module/espresso/nninc/pbe/van/H.UPF
     MD5 check sum: b5ee9d7bfd3a09ee7748110bda690ff7
     Pseudo is Ultrasoft, Zval =  1.0
     Generated by new atomic code, or converted to UPF format
     Using radial grid of  615 points,  1 beta functions with:
                l(1) =   0
     Q(r) pseudized with  8 coefficients,  rinner =    0.800

     atomic species   valence    mass     pseudopotential
        Ti1           12.00    47.86700     Ti( 1.00)
        O1             6.00    15.99900     O ( 1.00)
        N1             5.00    14.00700     N ( 1.00)
        C1             4.00    12.01100     C ( 1.00)
        H1             1.00     1.00800     H ( 1.00)

     No symmetry found

   Cartesian axes

     site n.     atom                  positions (alat units)
         1           Ti1 tau(   1) = (   0.0004258   2.9801865   6.0000000  )
         2           Ti1 tau(   2) = (   3.2906075   1.4906267   6.0002472  )
         3           O1  tau(   3) = (   0.0006271   0.0005054   7.9858123  )
         4           O1  tau(   4) = (   3.2906025   0.0005020   7.3038282  )
         5           O1  tau(   5) = (   4.5942328   1.4918067   9.2879030  )
         6           O1  tau(   6) = (   1.9868534   1.4903216   9.2879459  )
         7           Ti1 tau(   7) = (   3.2907910   2.8959150   9.1758416  )
         8           Ti1 tau(   8) = (   0.0015273   1.4827037   9.2680791  )
         9           O1  tau(   9) = (   3.2830128   5.9597860  11.3344455  )
        10           O1  tau(  10) = (   0.0116148   5.9584955  10.6183126  )
        11           O1  tau(  11) = (   1.2885291   1.4855062  12.6376555  )
        12           O1  tau(  12) = (   5.2724004   1.4911608  12.5936499  )
        13           Ti1 tau(  13) = (   0.0410009   3.0319447  12.6084003  )
        14           Ti1 tau(  14) = (   3.3739341   1.4916561  12.4823474  )
        15           O1  tau(  15) = (   6.4862162   0.0153916  14.6455093  )
        16           O1  tau(  16) = (   3.3439542   5.9611638  13.9051029  )
        17           O1  tau(  17) = (   4.4933269   1.5483200  16.1231154  )
        18           O1  tau(  18) = (   1.9964937   1.4536654  15.9127221  )
        19           Ti1 tau(  19) = (   3.1412959   3.0017366  15.7441667  )
        20           Ti1 tau(  20) = (   6.4823597   1.5369342  15.8006069  )
        21           O1  tau(  21) = (   3.2904802   0.0005063   4.7018136  )
        22           O1  tau(  22) = (   6.5709111   0.0522475  17.2082838  )
        23           O1  tau(  23) = (   1.3043587   1.4918075   6.0039043  )
        24           O1  tau(  24) = (   5.2767064   1.4903225   6.0039473  )
        25           Ti1 tau(  25) = (   0.0000382   5.9609847   6.0000000  )
        26           Ti1 tau(  26) = (   3.2902200   4.4714249   6.0002472  )
        27           O1  tau(  27) = (   0.0002396   2.9813036   7.9858123  )
        28           O1  tau(  28) = (   3.2902150   2.9813002   7.3038282  )
        29           O1  tau(  29) = (   4.5938453   4.4726049   9.2879030  )
        30           O1  tau(  30) = (   1.9864658   4.4711199   9.2879459  )
        31           Ti1 tau(  31) = (   3.2891106   5.8743827   9.1763621  )
        32           Ti1 tau(  32) = (   0.0006254   4.4649316   9.2693709  )
        33           O1  tau(  33) = (   3.2833609   2.9822938  11.3349093  )
        34           O1  tau(  34) = (   0.0092240   2.9805883  10.6323155  )
        35           O1  tau(  35) = (   1.2838611   4.4860338  12.6468719  )
        36           O1  tau(  36) = (   5.2760156   4.4607002  12.6015494  )
        37           Ti1 tau(  37) = (   0.0673138   0.0440259  12.5461749  )
        38           Ti1 tau(  38) = (   3.3712377   4.4654930  12.4933830  )
        39           O1  tau(  39) = (   6.5217465   2.9589972  14.6412948  )
        40           O1  tau(  40) = (   3.2809526   2.9956502  13.9333893  )
        41           O1  tau(  41) = (   4.4911989   4.4583117  16.1637052  )
        42           O1  tau(  42) = (   1.9937212   4.5427850  15.9740970  )
        43           Ti1 tau(  43) = (   3.2955853   0.0167752  15.6963065  )
        44           Ti1 tau(  44) = (   6.5082246   4.6715011  16.1069148  )
        45           O1  tau(  45) = (   3.2900926   2.9813045   4.7018136  )
        46           O1  tau(  46) = (   1.3039711   4.4726057   6.0039043  )
        47           O1  tau(  47) = (   5.2763189   4.4711207   6.0039473  )
        48           N1  tau(  48) = (   1.3945086   2.8365607  18.1849301  )
        49           N1  tau(  49) = (   0.1777896   2.9650562  17.4211889  )
        50           C1  tau(  50) = (   1.4118813   3.7128676  19.3556819  )
        51           H1  tau(  51) = (   0.5171711   3.5996102  19.9880000  )
        52           H1  tau(  52) = (   2.2935099   3.4681107  19.9417681  )
        53           H1  tau(  53) = (   1.4703795   4.7520035  19.0319817  )
        54           H1  tau(  54) = (   1.4579882   1.8621926  18.4823179  )
        55           H1  tau(  55) = (   5.9558665   2.8747675  18.0551794  )

     number of k points=    10  Fermi-Dirac smearing, width (Ry)=  0.0073
                       cart. coord. in units 2pi/alat
        k(    1) = (   0.0000000   0.0000000   0.0000000), wk =   0.1250000
        k(    2) = (   0.0000000   0.0419351   0.0000000), wk =   0.2500000
        k(    3) = (   0.0000000  -0.0838702   0.0000000), wk =   0.1250000
        k(    4) = (   0.0379955   0.0000049   0.0000000), wk =   0.2500000
        k(    5) = (   0.0379955   0.0419400   0.0000000), wk =   0.2500000
        k(    6) = (   0.0379955  -0.0838652   0.0000000), wk =   0.2500000
        k(    7) = (   0.0379955  -0.0419301   0.0000000), wk =   0.2500000
        k(    8) = (  -0.0759910  -0.0000099   0.0000000), wk =   0.1250000
        k(    9) = (  -0.0759910   0.0419252   0.0000000), wk =   0.2500000
        k(   10) = (  -0.0759910  -0.0838800   0.0000000), wk =   0.1250000

     Initial potential from superposition of free atoms

     starting charge  380.99914, renormalised to  397.00000

     negative rho (up, down):  1.541E-02 0.000E+00

     %%%%%%%%%%%%%%%%%%%%%%%%%%%%%%%%%%%%%%%%%%%%%%%%%%%%%%%%%%%%%%%%%%%%%%%%
     %                                                                      %
     % You are using vdW-DF, which was implemented by the Thonhauser group. %
     % Please cite the following two papers that made this development      %
     % possible and the two reviews that describe the various versions:     %
     %                                                                      %
     %   T. Thonhauser et al., PRL 115, 136402 (2015).                      %
     %   T. Thonhauser et al., PRB 76, 125112 (2007).                       %
     %   K. Berland et al., Rep. Prog. Phys. 78, 066501 (2015).             %
     %   D.C. Langreth et al., J. Phys.: Condens. Matter 21, 084203 (2009). %
     %                                                                      %
     %                                                                      %
     % If you are calculating the stress with vdW-DF, please also cite:     %
     %                                                                      %
     %   R. Sabatini et al., J. Phys.: Condens. Matter 24, 424209 (2012).   %
     %                                                                      %
     %%%%%%%%%%%%%%%%%%%%%%%%%%%%%%%%%%%%%%%%%%%%%%%%%%%%%%%%%%%%%%%%%%%%%%%%

     Adding external electric field

     Computed dipole along edir(3) :
        Dipole               -9.6172 Ry au,        -24.4445 Debye
        Dipole field         -0.0181 Ry au,

        Potential amp.        1.6824 Ry
        Total length         46.3494 bohr

     Starting wfcs are  301 atomic wfcs
  @ DRIVER MODE: Message from server: STATUS
  @ DRIVER MODE: Message from server: POSDATA
  @ DRIVER MODE: Reading and sharing cell
  @ DRIVER MODE: Reading and sharing positions
  @ DRIVER MODE: Received positions

     Self-consistent Calculation

     iteration #  1     ecut=    29.40 Ry     beta= 0.05
     Davidson diagonalization with overlap
     c_bands:  1 eigenvalues not converged
     c_bands:  1 eigenvalues not converged
     c_bands:  1 eigenvalues not converged
     c_bands:  1 eigenvalues not converged
     c_bands:  1 eigenvalues not converged
     c_bands:  1 eigenvalues not converged
     c_bands:  2 eigenvalues not converged
     ethr =  1.00E-05,  avg # of iterations = 18.8

[...]

     total energy              =   -2533.56698545 Ry
     estimated scf accuracy    <    4539.36270818 Ry

     iteration #  2     ecut=    29.40 Ry     beta= 0.05
     Davidson diagonalization with overlap
     ethr =  1.00E-02,  avg # of iterations = 24.9

[...]

     iteration # 52     ecut=    29.40 Ry     beta= 0.05
     Davidson diagonalization with overlap
     c_bands:  1 eigenvalues not converged
     ethr =  2.87E-09,  avg # of iterations = 12.5

[...]

     total energy              =   -2941.66152964 Ry
     estimated scf accuracy    <       0.00000014 Ry

     iteration # 62     ecut=    29.40 Ry     beta= 0.05
     Davidson diagonalization with overlap
     ethr =  3.51E-11,  avg # of iterations =  9.7

     negative rho (up, down):  1.608E-02 0.000E+00

     Adding external electric field

     Computed dipole along edir(3) :
        Dipole                0.9407 Ry au,          2.3910 Debye
        Dipole field          0.0018 Ry au,

        Potential amp.       -0.1646 Ry
        Total length         46.3494 bohr

     End of self-consistent calculation

          k = 0.0000 0.0000 0.0000 ( 18029 PWs)   bands (ev):

   -55.6865 -55.6695 -55.6524 -55.6328 -55.5922 -55.5380 -55.5308 -55.5010
   -55.4948 -55.4670 -55.4648 -55.4307 -55.2577 -55.0338 -54.6669 -54.6329
   -32.2204 -32.1697 -32.0425 -32.0324 -31.9993 -31.9845 -31.9794 -31.9552
   -31.9306 -31.8985 -31.8963 -31.8900 -31.8470 -31.8388 -31.8248 -31.8231
   -31.8065 -31.7915 -31.7826 -31.7473 -31.7437 -31.7365 -31.7210 -31.7170
   -31.6944 -31.6902 -31.6873 -31.6797 -31.6653 -31.6631 -31.6557 -31.6464
   -31.6410 -31.6315 -31.6178 -31.6085 -31.5770 -31.5080 -31.4641 -31.3000
   -31.2907 -31.2363 -31.0741 -30.9858 -30.9634 -30.8909 -30.8044 -30.6932
   -16.7726 -16.4170 -16.1624 -15.9329 -15.8420 -15.8113 -15.6589 -15.5274
   -15.4180 -15.3362 -15.2513 -15.2323 -15.2254 -15.2142 -15.1883 -15.1821
   -15.1354 -15.1306 -15.1114 -15.0984 -15.0483 -15.0315 -15.0282 -14.9333
   -14.8695 -14.8343 -14.8197 -14.7847 -14.7476 -14.3334 -13.1693 -13.0528
   -11.8137  -8.9852  -5.4320  -4.3624  -3.8522  -3.7889  -3.6445  -3.5943
    -3.5338  -3.4984  -3.3174  -3.2146  -2.9419  -2.8847  -2.8555  -2.8462
    -2.7896  -2.7581  -2.6012  -2.5750  -2.5048  -2.4954  -2.4801  -2.4512
    -2.4441  -2.4368  -2.4001  -2.3759  -2.3471  -2.2431  -2.1039  -2.0946
    -2.0712  -2.0379  -2.0007  -1.9518  -1.9354  -1.9153  -1.8967  -1.8841
    -1.8715  -1.7366  -1.7015  -1.5852  -1.4957  -1.4491  -1.3690  -1.2986
    -1.2692  -1.1577  -1.1181  -1.1057  -1.0913  -1.0809  -0.9809  -0.8750
    -0.8578  -0.8201  -0.7649  -0.7093  -0.6386  -0.5937  -0.5426  -0.4904
    -0.4662  -0.4511  -0.4483  -0.4131  -0.3215  -0.1803  -0.1283  -0.0939
    -0.0717   0.0050   0.0400   0.0961   0.1208   0.1440   0.1800   0.2328
     0.2766   0.2828   0.2964   0.3109   0.3156   0.4900   0.5395   0.5813
     0.6147   0.6607   0.8218   0.8439   0.9655   1.0399   1.2030   1.2808
     1.3553   1.4335   1.5470   1.6212   1.9266   1.9723   3.4442   3.5317
     3.5764   3.5903   3.6856   3.7275   3.8970   3.9277   3.9422   4.0038

[...]

          k = 0.0380-0.0419 0.0000 ( 17876 PWs)   bands (ev):

[...]

          k =-0.0760-0.0000 0.0000 ( 17886 PWs)   bands (ev):

[...]

          k =-0.0760-0.0839 0.0000 ( 17948 PWs)   bands (ev):

   -55.6698 -55.6690 -55.6547 -55.6473 -55.5862 -55.5439 -55.5182 -55.5074
   -55.4846 -55.4829 -55.4507 -55.4449 -55.2565 -55.0348 -54.6499 -54.6498
   -32.0295 -32.0199 -31.9852 -31.9846 -31.9651 -31.9643 -31.9441 -31.9377
   -31.8848 -31.8841 -31.8739 -31.8687 -31.8518 -31.8339 -31.8092 -31.8045
   -31.8001 -31.7965 -31.7899 -31.7898 -31.7887 -31.7883 -31.7844 -31.7447
   -31.7362 -31.7248 -31.7166 -31.7053 -31.6849 -31.6839 -31.6817 -31.6749
   -31.6651 -31.6610 -31.6578 -31.6554 -31.6138 -31.5104 -31.4608 -31.3622
   -31.2928 -31.2623 -30.9761 -30.9760 -30.8869 -30.8868 -30.8477 -30.8477
   -16.7465 -15.8642 -15.8031 -15.6453 -15.6101 -15.5905 -15.5555 -15.4947
   -15.4115 -15.3846 -15.3800 -15.3328 -15.3070 -15.2742 -15.2363 -15.2217
   -15.2147 -15.1957 -15.1834 -15.1497 -15.1402 -15.1286 -15.1214 -15.0456
   -15.0082 -15.0038 -14.9981 -14.8945 -14.7678 -14.5014 -13.1547 -13.1546
   -11.8200  -8.9995  -5.4461  -4.3494  -3.7813  -3.1570  -3.0700  -2.8952
    -2.8396  -2.8108  -2.7952  -2.6290  -2.6180  -2.6031  -2.5560  -2.5358
    -2.5260  -2.5170  -2.5083  -2.4873  -2.4746  -2.4410  -2.4302  -2.3947
    -2.3802  -2.3627  -2.3458  -2.3290  -2.3091  -2.2953  -2.2802  -2.2378
    -2.2181  -2.2069  -2.1862  -2.1431  -1.9321  -1.8820  -1.8376  -1.8332
    -1.8217  -1.8024  -1.7477  -1.7427  -1.7084  -1.6578  -1.5784  -1.4337
    -1.3884  -1.3719  -1.2787  -1.2571  -1.2043  -1.1324  -1.0867  -1.0698
    -1.0350  -0.9708  -0.9345  -0.8970  -0.8305  -0.8060  -0.8002  -0.7065
    -0.6856  -0.6497  -0.6430  -0.5642  -0.5136  -0.4508  -0.4354  -0.4190
    -0.3873  -0.3538  -0.3357  -0.2678  -0.1758  -0.1747  -0.1513  -0.0425
     0.0481   0.2765   0.3392   0.3762   0.4211   0.5147   0.5833   0.6078
     0.6236   0.6454   0.6648   0.7128   0.8398   0.8499   0.8843   0.9972
     1.1017   1.6374   1.7188   1.7196   1.7921   1.7922   3.7459   3.7642
     3.7847   3.8311   3.9504   3.9573   3.9794   3.9818   4.1042   4.1176

     the Fermi energy is     3.4459 ev

!    total energy              =   -2941.66156717 Ry
     estimated scf accuracy    <       0.00000007 Ry
     smearing contrib. (-TS)   =      -0.02151521 Ry
     internal energy E=F+TS    =   -2941.64005196 Ry

     The total energy is F=E-TS. E is the sum of the following terms:
     one-electron contribution =  -24276.46631532 Ry
     hartree contribution      =   12228.68673882 Ry
     xc contribution           =    -486.87681027 Ry
     ewald contribution        =    9593.01466482 Ry
     electric field correction =       0.00166999 Ry

     convergence has been achieved in  62 iterations

     Forces acting on atoms (cartesian axes, Ry/au):

     atom    1 type  1   force =     0.00017733   -0.00011464    0.09636934
     atom    2 type  1   force =    -0.00021245   -0.00063243   -0.17551123
     atom    3 type  2   force =    -0.00004331   -0.00003933   -0.02419839
     atom    4 type  2   force =     0.00005012   -0.00144010    0.05291972
     atom    5 type  2   force =    -0.01182672   -0.00049124    0.00396200
     atom    6 type  2   force =     0.01313814    0.00023729    0.00229954
     atom    7 type  1   force =    -0.00140350    0.00080638   -0.01147796
     atom    8 type  1   force =     0.00053402    0.00920985    0.02523216
     atom    9 type  2   force =    -0.00010643    0.00017353    0.00039519
     atom   10 type  2   force =    -0.00086624    0.00148387   -0.01580170
     atom   11 type  2   force =    -0.00019522   -0.00049273    0.00038993
     atom   12 type  2   force =    -0.00013763   -0.00025879    0.00002590
     atom   13 type  1   force =     0.00054880   -0.00091641    0.00009740
     atom   14 type  1   force =    -0.00007653   -0.00040593    0.00024884
     atom   15 type  2   force =     0.00017791    0.00002088   -0.00031987
     atom   16 type  2   force =     0.00006948    0.00024701    0.00003042
     atom   17 type  2   force =    -0.00052395    0.00034519    0.00047623
     atom   18 type  2   force =     0.00010597    0.00010669    0.00026991
     atom   19 type  1   force =     0.00008646   -0.00056573    0.00019803
     atom   20 type  1   force =     0.00014700    0.00039512    0.00058188
     atom   21 type  2   force =     0.00007424   -0.00008222    0.10322730
     atom   22 type  2   force =    -0.00043059   -0.00023893    0.00028020
     atom   23 type  2   force =    -0.07150606   -0.00018086   -0.02771026
     atom   24 type  2   force =     0.07142848    0.00025266   -0.02770909
     atom   25 type  1   force =     0.00003064   -0.00027681    0.09582877
     atom   26 type  1   force =    -0.00014659   -0.00023425   -0.17568127
     atom   27 type  2   force =     0.00009290   -0.00012574   -0.02330309
     atom   28 type  2   force =     0.00007920   -0.00129656    0.05334454
     atom   29 type  2   force =    -0.01195441   -0.00005766    0.00376028
     atom   30 type  2   force =     0.01320463    0.00043001    0.00213719
     atom   31 type  1   force =    -0.00141610    0.00344855   -0.01080399
     atom   32 type  1   force =     0.00064143   -0.01009921    0.02563957
     atom   33 type  2   force =    -0.00038914    0.00005088    0.00005649
     atom   34 type  2   force =     0.00074723    0.00090077   -0.02307053
     atom   35 type  2   force =    -0.00011276    0.00029284   -0.00002616
     atom   36 type  2   force =    -0.00022621    0.00059592   -0.00029074
     atom   37 type  1   force =    -0.00082298   -0.00102175   -0.00011561
     atom   38 type  1   force =    -0.00002192   -0.00010291   -0.00002301
     atom   39 type  2   force =    -0.00035129    0.00004481    0.00054455
     atom   40 type  2   force =     0.00048989    0.00025030    0.00024783
     atom   41 type  2   force =     0.00005557    0.00050423    0.00026399
     atom   42 type  2   force =     0.00006797    0.00028628   -0.00020671
     atom   43 type  1   force =     0.00020411    0.00009664   -0.00022767
     atom   44 type  1   force =    -0.00025243   -0.00065620   -0.00002122
     atom   45 type  2   force =     0.00006970   -0.00008790    0.10325845
     atom   46 type  2   force =    -0.07150962   -0.00017053   -0.02770588
     atom   47 type  2   force =     0.07143549    0.00030207   -0.02772055
     atom   48 type  3   force =    -0.00146617    0.00011438   -0.00082167
     atom   49 type  3   force =     0.00043286   -0.00035142    0.00015735
     atom   50 type  4   force =    -0.00334252    0.00113101   -0.00340919
     atom   51 type  5   force =     0.00166352    0.00023682   -0.00022042
     atom   52 type  5   force =     0.00436076   -0.00042688    0.00432220
     atom   53 type  5   force =    -0.00050232   -0.00160454    0.00036911
     atom   54 type  5   force =     0.00000146    0.00067542   -0.00040086
     atom   55 type  5   force =    -0.00027219   -0.00026769   -0.00015720

     Total force =     0.367454     Total SCF correction =     0.000950
  @ DRIVER MODE: Message from server: STATUS
  @ DRIVER MODE: Message from server: GETFORCE
  @ DRIVER MODE: Returning v,forces,stress,ensemble

     Writing output data file ./calc.save/
  @ DRIVER MODE: Message from server: EXIT
  @ DRIVE MODE: Exiting

     General routines

     Parallel routines

   This run was terminated on:   8:22:14  25Aug2021

   JOB DONE.