     Program PWSCF v.6.7GPU starts on 24Aug2021 at 12:56:55

     R & G space division:  proc/nbgrp/npool/nimage =      72
     Reading input from /storage/home/hcoda1/3/ntian30/research/carbon/CH2_vib/ads_slab/CH2_a/out_0010/pw.inp
Warning: card &CELL ignored
Warning: card   CELL_DYNAMICS='IPI', ignored
Warning: card / ignored

     Current dimensions of program PWSCF are:
     Max number of different atomic species (ntypx) = 10
     Max number of k-points (npk) =  40000
     Max angular momentum in pseudopotentials (lmaxx) =  3
     Presently no symmetry can be used with electric field

     Message from routine cell_base_init:
     DEPRECATED: use true lattice parameter, not A to a.u. conversion factor

     IMPORTANT: XC functional enforced from input :
     Exchange-correlation= BEEF-VDW
                           (   1   4  43  14   2   0   0)
     Any further DFT definition will be discarded
     Please, verify this is what you really want

  @ DRIVER MODE: Connecting to
 qe_1139763_2641437.sched-torque.pace.gatech.edujf9hq1pv_scratch
  using UNIX socket
  @ DRIVER MODE: Message from server: STATUS
  @ DRIVER MODE: Message from server: INIT
  @ DRIVER MODE: Receiving replica           0          -1
  @ DRIVER MODE: Receiving encoded integer          25
  @ DRIVER MODE:  SCF:  T  FORCE:  T  STRESS:  F  VC:  F  ENSEMBLE:  F
  @ DRIVER MODE:  SCF:  T  FORCE:  T  STRESS:  F  VC:  F  ENSEMBLE:  F

     Using Slab Decomposition

     bravais-lattice index     =            0
     lattice parameter (alat)  =       1.8897  a.u.
     unit-cell volume          =    6658.9804 (a.u.)^3
     number of atoms/cell      =           50
     number of atomic types    =            4
     number of electrons       =       384.00
     number of Kohn-Sham states=          202
     kinetic-energy cutoff     =      29.3995  Ry
     charge density cutoff     =     293.9946  Ry
     scf convergence threshold =      7.3E-08
     mixing beta               =       0.0500
     number of iterations used =            8  plain     mixing
     Exchange-correlation= BEEF-VDW
                           (   1   4  43  14   2   0   0)

     celldm(1)=   1.889726  celldm(2)=   0.000000  celldm(3)=   0.000000
     celldm(4)=   0.000000  celldm(5)=   0.000000  celldm(6)=   0.000000

     crystal axes: (cart. coord. in units of alat)
               a(1) = (   6.579727   0.000000   0.000000 )
               a(2) = (  -0.000775   5.961596   0.000000 )
               a(3) = (   0.000000   0.000000  25.155947 )

     reciprocal axes: (cart. coord. in units 2 pi/alat)
               b(1) = (  0.151982  0.000020  0.000000 )
               b(2) = (  0.000000  0.167740  0.000000 )
               b(3) = (  0.000000  0.000000  0.039752 )

     PseudoPot. # 1 for Ti read from file:
     /storage/coda1/p-amedford6/0/shared/rich_project_chbe-medford/medford-share/data/pseudos_module/espresso/nninc/pbe/van/Ti.UPF
     MD5 check sum: 8e4df49b7f0d34bbd5052bf3f5ea0213
     Pseudo is Ultrasoft, Zval = 12.0
     Generated by new atomic code, or converted to UPF format
     Using radial grid of  851 points,  6 beta functions with:
                l(1) =   0
                l(2) =   0
                l(3) =   1
                l(4) =   1
                l(5) =   2
                l(6) =   2
     Q(r) pseudized with  8 coefficients,  rinner =    1.000   1.000   1.000
                                                       1.000   1.000

     PseudoPot. # 2 for O  read from file:
     /storage/coda1/p-amedford6/0/shared/rich_project_chbe-medford/medford-share/data/pseudos_module/espresso/nninc/pbe/van/O.UPF
     MD5 check sum: 78c19812648e8988a0fe644b0f25305e
     Pseudo is Ultrasoft, Zval =  6.0
     Generated by new atomic code, or converted to UPF format
     Using radial grid of  737 points,  4 beta functions with:
                l(1) =   0
                l(2) =   0
                l(3) =   1
                l(4) =   1
     Q(r) pseudized with  8 coefficients,  rinner =    0.800   0.800   0.800

     PseudoPot. # 3 for C  read from file:
     /storage/coda1/p-amedford6/0/shared/rich_project_chbe-medford/medford-share/data/pseudos_module/espresso/nninc/pbe/van/C.UPF
     MD5 check sum: 1a69bf6b8db32088f5b2163dbdb77a27
     Pseudo is Ultrasoft, Zval =  4.0
     Generated by new atomic code, or converted to UPF format
     Using radial grid of  721 points,  4 beta functions with:
                l(1) =   0
                l(2) =   0
                l(3) =   1
                l(4) =   1
     Q(r) pseudized with  8 coefficients,  rinner =    0.800   0.800   0.800

     PseudoPot. # 4 for H  read from file:
     /storage/coda1/p-amedford6/0/shared/rich_project_chbe-medford/medford-share/data/pseudos_module/espresso/nninc/pbe/van/H.UPF
     MD5 check sum: b5ee9d7bfd3a09ee7748110bda690ff7
     Pseudo is Ultrasoft, Zval =  1.0
     Generated by new atomic code, or converted to UPF format
     Using radial grid of  615 points,  1 beta functions with:
                l(1) =   0
     Q(r) pseudized with  8 coefficients,  rinner =    0.800

     atomic species   valence    mass     pseudopotential
        Ti1           12.00    47.86700     Ti( 1.00)
        O1             6.00    15.99900     O ( 1.00)
        C1             4.00    12.01100     C ( 1.00)
        H1             1.00     1.00800     H ( 1.00)

     No symmetry found

   Cartesian axes

     site n.     atom                  positions (alat units)
         1           Ti1 tau(   1) = (   0.0004258   2.9801865   6.0000000  )
         2           Ti1 tau(   2) = (   3.2906075   1.4906267   6.0002472  )
         3           O1  tau(   3) = (   0.0006271   0.0005054   7.9858123  )
         4           O1  tau(   4) = (   3.2906025   0.0005020   7.3038282  )
         5           O1  tau(   5) = (   4.5942328   1.4918067   9.2879030  )
         6           O1  tau(   6) = (   1.9868534   1.4903216   9.2879459  )
         7           Ti1 tau(   7) = (   3.2756478   2.8760420   9.1630771  )
         8           Ti1 tau(   8) = (   6.5651030   1.4385007   9.3790407  )
         9           O1  tau(   9) = (   3.2651923   0.0045787  11.3553482  )
        10           O1  tau(  10) = (   6.5766178   5.9492394  10.5646413  )
        11           O1  tau(  11) = (   1.2591847   1.4977620  12.6679731  )
        12           O1  tau(  12) = (   5.2482661   1.4982983  12.6347741  )
        13           Ti1 tau(  13) = (   0.0651775   2.9654633  12.8696618  )
        14           Ti1 tau(  14) = (   3.3800656   1.4924449  12.4946823  )
        15           O1  tau(  15) = (   6.5296085   5.9207011  14.6097682  )
        16           O1  tau(  16) = (   3.2682314   0.0147111  13.9481481  )
        17           O1  tau(  17) = (   4.4912147   1.5408453  16.1034427  )
        18           O1  tau(  18) = (   2.0062121   1.5430191  16.1010343  )
        19           Ti1 tau(  19) = (   3.2584153   3.0188911  15.7272741  )
        20           Ti1 tau(  20) = (   6.5595668   1.6180917  16.2090303  )
        21           O1  tau(  21) = (   3.2904802   0.0005063   4.7018136  )
        22           O1  tau(  22) = (   6.5447935   0.0528136  17.2578995  )
        23           O1  tau(  23) = (   1.3043587   1.4918075   6.0039043  )
        24           O1  tau(  24) = (   5.2767064   1.4903225   6.0039473  )
        25           Ti1 tau(  25) = (   0.0000382   5.9609847   6.0000000  )
        26           Ti1 tau(  26) = (   3.2902200   4.4714249   6.0002472  )
        27           O1  tau(  27) = (   0.0002396   2.9813036   7.9858123  )
        28           O1  tau(  28) = (   3.2902150   2.9813002   7.3038282  )
        29           O1  tau(  29) = (   4.5938453   4.4726049   9.2879030  )
        30           O1  tau(  30) = (   1.9864658   4.4711199   9.2879459  )
        31           Ti1 tau(  31) = (   3.2806623   5.8565216   9.1617982  )
        32           Ti1 tau(  32) = (   6.5670484   4.4138833   9.3856844  )
        33           O1  tau(  33) = (   3.2704644   2.9808095  11.3502114  )
        34           O1  tau(  34) = (   6.5770050   2.9672111  10.5601139  )
        35           O1  tau(  35) = (   1.2614422   4.4490125  12.6594447  )
        36           O1  tau(  36) = (   5.2451530   4.4578719  12.6250501  )
        37           Ti1 tau(  37) = (   0.0436288   5.9429386  12.8080954  )
        38           Ti1 tau(  38) = (   3.3780510   4.4695497  12.4860242  )
        39           O1  tau(  39) = (   6.5513063   2.9765972  14.7162787  )
        40           O1  tau(  40) = (   3.2682626   2.9952000  13.9367060  )
        41           O1  tau(  41) = (   4.4851171   4.5114873  16.1027694  )
        42           O1  tau(  42) = (   2.0082088   4.5103763  16.0975713  )
        43           Ti1 tau(  43) = (   3.2690221   0.0357551  15.7449602  )
        44           Ti1 tau(  44) = (   6.5655258   4.6249605  16.1704562  )
        45           O1  tau(  45) = (   3.2900926   2.9813045   4.7018136  )
        46           O1  tau(  46) = (   1.3039711   4.4726057   6.0039043  )
        47           O1  tau(  47) = (   5.2763189   4.4711207   6.0039473  )
        48           C1  tau(  48) = (   6.5259393   3.0234738  17.6125649  )
        49           H1  tau(  49) = (   0.8472112   3.1495175  18.2203151  )
        50           H1  tau(  50) = (   5.6209537   3.1160310  18.2142257  )

     number of k points=    10  Fermi-Dirac smearing, width (Ry)=  0.0073
                       cart. coord. in units 2pi/alat
        k(    1) = (   0.0000000   0.0000000   0.0000000), wk =   0.1250000
        k(    2) = (   0.0000000   0.0419351   0.0000000), wk =   0.2500000
        k(    3) = (   0.0000000  -0.0838702   0.0000000), wk =   0.1250000
        k(    4) = (   0.0379955   0.0000049   0.0000000), wk =   0.2500000
        k(    5) = (   0.0379955   0.0419400   0.0000000), wk =   0.2500000
        k(    6) = (   0.0379955  -0.0838652   0.0000000), wk =   0.2500000
        k(    7) = (   0.0379955  -0.0419301   0.0000000), wk =   0.2500000
        k(    8) = (  -0.0759910  -0.0000099   0.0000000), wk =   0.1250000
        k(    9) = (  -0.0759910   0.0419252   0.0000000), wk =   0.2500000
        k(   10) = (  -0.0759910  -0.0838800   0.0000000), wk =   0.1250000

     Initial potential from superposition of free atoms

     starting charge  367.99919, renormalised to  384.00000

     negative rho (up, down):  2.116E-02 0.000E+00

     %%%%%%%%%%%%%%%%%%%%%%%%%%%%%%%%%%%%%%%%%%%%%%%%%%%%%%%%%%%%%%%%%%%%%%%%
     %                                                                      %
     % You are using vdW-DF, which was implemented by the Thonhauser group. %
     % Please cite the following two papers that made this development      %
     % possible and the two reviews that describe the various versions:     %
     %                                                                      %
     %   T. Thonhauser et al., PRL 115, 136402 (2015).                      %
     %   T. Thonhauser et al., PRB 76, 125112 (2007).                       %
     %   K. Berland et al., Rep. Prog. Phys. 78, 066501 (2015).             %
     %   D.C. Langreth et al., J. Phys.: Condens. Matter 21, 084203 (2009). %
     %                                                                      %
     %                                                                      %
     % If you are calculating the stress with vdW-DF, please also cite:     %
     %                                                                      %
     %   R. Sabatini et al., J. Phys.: Condens. Matter 24, 424209 (2012).   %
     %                                                                      %
     %%%%%%%%%%%%%%%%%%%%%%%%%%%%%%%%%%%%%%%%%%%%%%%%%%%%%%%%%%%%%%%%%%%%%%%%

     Adding external electric field

     Computed dipole along edir(3) :
        Dipole               -0.5194 Ry au,         -1.3201 Debye
        Dipole field         -0.0010 Ry au,

        Potential amp.        0.0909 Ry
        Total length         46.3494 bohr

     Starting wfcs are  290 atomic wfcs
  @ DRIVER MODE: Message from server: STATUS
  @ DRIVER MODE: Message from server: POSDATA
  @ DRIVER MODE: Reading and sharing cell
  @ DRIVER MODE: Reading and sharing positions
  @ DRIVER MODE: Received positions

     Self-consistent Calculation

     iteration #  1     ecut=    29.40 Ry     beta= 0.05
     Davidson diagonalization with overlap
     c_bands:  1 eigenvalues not converged
     c_bands:  2 eigenvalues not converged
     c_bands:  3 eigenvalues not converged
     c_bands:  1 eigenvalues not converged
     c_bands:  1 eigenvalues not converged
     c_bands:  2 eigenvalues not converged
     c_bands:  1 eigenvalues not converged
     c_bands:  2 eigenvalues not converged
     c_bands:  1 eigenvalues not converged
     c_bands:  2 eigenvalues not converged
     ethr =  1.00E-05,  avg # of iterations = 22.0

[...]

     total energy              =   -2899.22790497 Ry
     estimated scf accuracy    <      12.10041671 Ry

     iteration #  2     ecut=    29.40 Ry     beta= 0.05
     Davidson diagonalization with overlap
     ethr =  3.15E-03,  avg # of iterations =  1.0

[...]

     iteration # 53     ecut=    29.40 Ry     beta= 0.05
     Davidson diagonalization with overlap
     c_bands:  1 eigenvalues not converged
     ethr =  1.41E-08,  avg # of iterations =  8.5

[...]

     total energy              =   -2897.72465589 Ry
     estimated scf accuracy    <       0.00000019 Ry

     iteration # 72     ecut=    29.40 Ry     beta= 0.05
     Davidson diagonalization with overlap
     ethr =  4.76E-11,  avg # of iterations =  5.1

     negative rho (up, down):  2.038E-02 0.000E+00

     Adding external electric field

     Computed dipole along edir(3) :
        Dipole                0.2822 Ry au,          0.7173 Debye
        Dipole field          0.0005 Ry au,

        Potential amp.       -0.0494 Ry
        Total length         46.3494 bohr

     End of self-consistent calculation

          k = 0.0000 0.0000 0.0000 ( 18029 PWs)   bands (ev):

   -56.6529 -56.6189 -56.3989 -56.3622 -56.3259 -56.2732 -56.0910 -56.0857
   -56.0518 -55.9844 -55.9587 -55.9204 -55.5520 -55.4713 -55.4373 -55.4283
   -33.0824 -32.9451 -32.9018 -32.8730 -32.8434 -32.7767 -32.7519 -32.7229
   -32.7089 -32.6434 -32.6250 -32.5987 -32.5906 -32.5672 -32.5615 -32.5515
   -32.5481 -32.5303 -32.4590 -32.4540 -32.3874 -32.3490 -32.3373 -32.3256
   -32.3082 -32.3080 -32.2367 -32.2245 -32.2154 -32.1963 -32.1953 -32.1591
   -32.1501 -32.1368 -32.1127 -32.0576 -32.0195 -31.8728 -31.8603 -31.8078
   -31.7949 -31.7712 -31.7464 -31.6911 -31.6060 -31.6044 -31.4940 -31.4751
   -17.0501 -16.8384 -16.6268 -16.4779 -16.3964 -16.3440 -16.0508 -16.0335
   -16.0244 -15.9244 -15.9130 -15.8599 -15.8261 -15.8230 -15.8137 -15.8072
   -15.7718 -15.7288 -15.6970 -15.6615 -15.6286 -15.5947 -15.5041 -15.4656
   -15.4472 -15.3224 -15.2648 -15.2306 -15.0945 -13.9643 -13.8497  -8.3903
    -4.4328  -4.3837  -4.2310  -4.2223  -4.1031  -3.8884  -3.7065  -3.5189
    -3.4874  -3.4579  -3.4521  -3.3482  -3.2952  -3.1849  -3.1839  -3.1520
    -3.1380  -3.1063  -3.0847  -3.0802  -3.0398  -3.0213  -2.9558  -2.9147
    -2.9050  -2.8484  -2.7682  -2.6748  -2.6551  -2.6266  -2.5941  -2.5550
    -2.5375  -2.4387  -2.4324  -2.3669  -2.2320  -2.2093  -2.1615  -2.1329
    -2.1013  -2.0621  -1.9247  -1.7857  -1.7419  -1.7257  -1.6951  -1.6850
    -1.6548  -1.5322  -1.4898  -1.3904  -1.3590  -1.2474  -1.2348  -1.2174
    -1.2018  -1.1714  -1.1027  -1.0755  -1.0405  -0.9588  -0.8975  -0.7673
    -0.7341  -0.7152  -0.6866  -0.6789  -0.6206  -0.5788  -0.5209  -0.5107
    -0.4518  -0.4094  -0.3927  -0.3767  -0.3523  -0.2924  -0.2170  -0.1956
    -0.1323  -0.0947   0.1023   0.1405   0.1670   0.1872   0.2689   0.3018
     0.4791   0.4930   0.5575   0.7602   0.7991   1.1509   1.2303   1.7147
     2.6106   2.7907   2.9854   3.0433   3.0875   3.1672   3.2220   3.3000
     3.3329   3.4544

[...]

          k = 0.0380-0.0419 0.0000 ( 17876 PWs)   bands (ev):

[...]

          k =-0.0760-0.0000 0.0000 ( 17886 PWs)   bands (ev):

[...]

          k =-0.0760-0.0839 0.0000 ( 17948 PWs)   bands (ev):

   -56.6385 -56.6330 -56.3842 -56.3767 -56.3194 -56.2794 -56.0881 -56.0695
   -56.0678 -55.9872 -55.9472 -55.9319 -55.5496 -55.4543 -55.4542 -55.4306
   -32.9020 -32.8975 -32.8904 -32.8836 -32.7982 -32.7935 -32.7529 -32.7465
   -32.6865 -32.6734 -32.6164 -32.6096 -32.5859 -32.5782 -32.5711 -32.5633
   -32.5188 -32.4824 -32.4084 -32.3921 -32.3913 -32.3317 -32.3231 -32.3200
   -32.3076 -32.2932 -32.2879 -32.2843 -32.2622 -32.2534 -32.2342 -32.2178
   -32.1594 -32.1584 -32.1475 -32.1447 -31.9279 -31.8585 -31.8116 -31.7841
   -31.7840 -31.7310 -31.6980 -31.6869 -31.6868 -31.6487 -31.6486 -31.4947
   -16.5192 -16.4920 -16.2735 -16.2599 -16.1501 -16.1474 -16.1352 -16.1341
   -16.0456 -16.0413 -15.9950 -15.9746 -15.9169 -15.9046 -15.8636 -15.8621
   -15.8401 -15.8386 -15.7971 -15.7945 -15.6521 -15.6504 -15.5376 -15.5305
   -15.4927 -15.4510 -15.4107 -15.3983 -15.2350 -13.9520 -13.9516  -8.3923
    -3.8227  -3.7855  -3.4877  -3.4793  -3.2795  -3.2762  -3.2572  -3.2487
    -3.2287  -3.2013  -3.1966  -3.1858  -3.1479  -3.1069  -3.0842  -3.0657
    -3.0547  -3.0470  -3.0423  -3.0413  -3.0212  -3.0020  -2.9869  -2.9622
    -2.9028  -2.8917  -2.8680  -2.8588  -2.7757  -2.6315  -2.5644  -2.5586
    -2.5477  -2.5288  -2.4875  -2.3981  -2.3935  -2.3568  -2.3495  -2.3307
    -2.1374  -2.0727  -2.0694  -2.0075  -1.9787  -1.8751  -1.7285  -1.6949
    -1.6702  -1.6483  -1.5661  -1.5266  -1.5126  -1.4889  -1.4817  -1.4544
    -1.4443  -1.3582  -1.3498  -1.3170  -1.2713  -1.2095  -1.2057  -1.1838
    -1.1633  -1.0652  -0.9955  -0.9794  -0.9651  -0.9234  -0.8555  -0.8035
    -0.7632  -0.6753  -0.6595  -0.3908  -0.3888  -0.2524  -0.2413  -0.1131
    -0.1008  -0.0083   0.0232   0.0670   0.1820   0.1957   0.2005   0.2263
     0.3275   0.3287   0.3614   0.9412   0.9414   1.0068   1.0081   1.9892
     3.0336   3.0506   3.1320   3.1491   3.1537   3.1714   3.2153   3.2178
     3.5120   3.5245

     the Fermi energy is     2.3269 ev

!    total energy              =   -2897.72466978 Ry
     estimated scf accuracy    <       0.00000006 Ry
     smearing contrib. (-TS)   =      -0.00185798 Ry
     internal energy E=F+TS    =   -2897.72281180 Ry

     The total energy is F=E-TS. E is the sum of the following terms:
     one-electron contribution =  -24684.98764058 Ry
     hartree contribution      =   12420.44731418 Ry
     xc contribution           =    -473.85461810 Ry
     ewald contribution        =    9840.67198240 Ry
     electric field correction =       0.00015031 Ry

     convergence has been achieved in  72 iterations

     Forces acting on atoms (cartesian axes, Ry/au):

     atom    1 type  1   force =     0.00029773   -0.00003987    0.14819113
     atom    2 type  1   force =     0.00005581   -0.00032833   -0.17143426
     atom    3 type  2   force =    -0.00004602    0.00265466   -0.05989729
     atom    4 type  2   force =    -0.00032649   -0.00141267    0.04061024
     atom    5 type  2   force =    -0.02536563    0.00094215    0.00495074
     atom    6 type  2   force =     0.02287594    0.00011928    0.00299928
     atom    7 type  1   force =    -0.00051197   -0.00071958   -0.00012331
     atom    8 type  1   force =     0.00074204   -0.00040577    0.00041449
     atom    9 type  2   force =     0.00089559   -0.00028565    0.00034397
     atom   10 type  2   force =    -0.00010466   -0.00000716   -0.00022268
     atom   11 type  2   force =    -0.00016265    0.00001704    0.00014677
     atom   12 type  2   force =     0.00017853    0.00011691    0.00010028
     atom   13 type  1   force =     0.00002377   -0.00100469    0.00035688
     atom   14 type  1   force =    -0.00004593   -0.00114744   -0.00030034
     atom   15 type  2   force =     0.00023070   -0.00030544   -0.00038524
     atom   16 type  2   force =     0.00001904    0.00015277    0.00036615
     atom   17 type  2   force =     0.00115640    0.00008267    0.00030159
     atom   18 type  2   force =    -0.00077990   -0.00019830    0.00031168
     atom   19 type  1   force =     0.00053536   -0.00024257    0.00011411
     atom   20 type  1   force =     0.00019736    0.00001730    0.00054641
     atom   21 type  2   force =     0.00014119   -0.00010324    0.10277066
     atom   22 type  2   force =     0.00005768   -0.00024507   -0.00025035
     atom   23 type  2   force =    -0.07353398    0.00029479   -0.03462278
     atom   24 type  2   force =     0.07358141    0.00074080   -0.03467341
     atom   25 type  1   force =     0.00007754   -0.00018521    0.14938771
     atom   26 type  1   force =    -0.00000104   -0.00105358   -0.17159219
     atom   27 type  2   force =    -0.00006883    0.00191971   -0.05888463
     atom   28 type  2   force =    -0.00039780   -0.00137187    0.04058114
     atom   29 type  2   force =    -0.02528727    0.00191351    0.00523901
     atom   30 type  2   force =     0.02337845    0.00034681    0.00328729
     atom   31 type  1   force =    -0.00048281   -0.00019930   -0.00007036
     atom   32 type  1   force =     0.00062724   -0.00027456    0.00001314
     atom   33 type  2   force =     0.00005301   -0.00037729    0.00042248
     atom   34 type  2   force =     0.00007352   -0.00014725    0.00003293
     atom   35 type  2   force =    -0.00019027   -0.00035100   -0.00036146
     atom   36 type  2   force =     0.00053506   -0.00062522   -0.00014754
     atom   37 type  1   force =     0.00090404    0.00031454   -0.00007104
     atom   38 type  1   force =    -0.00035698   -0.00015392    0.00022958
     atom   39 type  2   force =     0.00008316    0.00010743   -0.00116489
     atom   40 type  2   force =    -0.00000196    0.00029968   -0.00084413
     atom   41 type  2   force =     0.00020387    0.00024404    0.00023539
     atom   42 type  2   force =     0.00027325    0.00053874    0.00033517
     atom   43 type  1   force =     0.00040829    0.00078244   -0.00078377
     atom   44 type  1   force =    -0.00049724    0.00035016   -0.00010461
     atom   45 type  2   force =     0.00013785   -0.00009451    0.10273263
     atom   46 type  2   force =    -0.07356083   -0.00012429   -0.03461302
     atom   47 type  2   force =     0.07361784    0.00033859   -0.03468845
     atom   48 type  3   force =     0.00258791    0.00048346    0.00120611
     atom   49 type  4   force =    -0.00215948   -0.00116059   -0.00090145
     atom   50 type  4   force =    -0.00006784   -0.00021315   -0.00008979

     Total force =     0.404364     Total SCF correction =     0.000842
  @ DRIVER MODE: Message from server: STATUS
  @ DRIVER MODE: Message from server: GETFORCE
  @ DRIVER MODE: Returning v,forces,stress,ensemble

     Writing output data file ./calc.save/
  @ DRIVER MODE: Message from server: EXIT
  @ DRIVE MODE: Exiting

     General routines

     Parallel routines

   This run was terminated on:  13:13:53  24Aug2021

   JOB DONE.