     Program PWSCF v.6.7GPU starts on 22Sep2021 at 20:48:23

     R & G space division:  proc/nbgrp/npool/nimage =      10
     Reading input from /storage/home/hcoda1/3/ntian30/research/carbon/CxH_vib/H2O_calc/ads_slab/CH2NHO_a/out_0015/pw.inp
Warning: card &CELL ignored
Warning: card   CELL_DYNAMICS='IPI', ignored
Warning: card / ignored

     Current dimensions of program PWSCF are:
     Max number of different atomic species (ntypx) = 10
     Max number of k-points (npk) =  40000
     Max angular momentum in pseudopotentials (lmaxx) =  3
     Presently no symmetry can be used with electric field

     Message from routine cell_base_init:
     DEPRECATED: use true lattice parameter, not A to a.u. conversion factor

     IMPORTANT: XC functional enforced from input :
     Exchange-correlation= BEEF-VDW
                           (   1   4  43  14   2   0   0)
     Any further DFT definition will be discarded
     Please, verify this is what you really want

  @ DRIVER MODE: Connecting to
 qe_1139763_2937321.sched-torque.pace.gatech.eduy52x6tl6_scratch
  using UNIX socket
  @ DRIVER MODE: Message from server: STATUS
  @ DRIVER MODE: Message from server: INIT
  @ DRIVER MODE: Receiving replica           0          -1
  @ DRIVER MODE: Receiving encoded integer          25
  @ DRIVER MODE:  SCF:  T  FORCE:  T  STRESS:  F  VC:  F  ENSEMBLE:  F
  @ DRIVER MODE:  SCF:  T  FORCE:  T  STRESS:  F  VC:  F  ENSEMBLE:  F

     Using Slab Decomposition

     bravais-lattice index     =            0
     lattice parameter (alat)  =       1.8897  a.u.
     unit-cell volume          =    6658.9804 (a.u.)^3
     number of atoms/cell      =           53
     number of atomic types    =            5
     number of electrons       =       396.00
     number of Kohn-Sham states=          208
     kinetic-energy cutoff     =      29.3995  Ry
     charge density cutoff     =     293.9946  Ry
     scf convergence threshold =      7.3E-08
     mixing beta               =       0.0500
     number of iterations used =            8  plain     mixing
     Exchange-correlation= BEEF-VDW
                           (   1   4  43  14   2   0   0)

     celldm(1)=   1.889726  celldm(2)=   0.000000  celldm(3)=   0.000000
     celldm(4)=   0.000000  celldm(5)=   0.000000  celldm(6)=   0.000000

     crystal axes: (cart. coord. in units of alat)
               a(1) = (   6.579727   0.000000   0.000000 )
               a(2) = (  -0.000775   5.961596   0.000000 )
               a(3) = (   0.000000   0.000000  25.155947 )

     reciprocal axes: (cart. coord. in units 2 pi/alat)
               b(1) = (  0.151982  0.000020  0.000000 )
               b(2) = (  0.000000  0.167740  0.000000 )
               b(3) = (  0.000000  0.000000  0.039752 )

     PseudoPot. # 1 for Ti read from file:
     /storage/coda1/p-amedford6/0/shared/rich_project_chbe-medford/medford-share/data/pseudos_module/espresso/nninc/pbe/van/Ti.UPF
     MD5 check sum: 8e4df49b7f0d34bbd5052bf3f5ea0213
     Pseudo is Ultrasoft, Zval = 12.0
     Generated by new atomic code, or converted to UPF format
     Using radial grid of  851 points,  6 beta functions with:
                l(1) =   0
                l(2) =   0
                l(3) =   1
                l(4) =   1
                l(5) =   2
                l(6) =   2
     Q(r) pseudized with  8 coefficients,  rinner =    1.000   1.000   1.000
                                                       1.000   1.000

     PseudoPot. # 2 for O  read from file:
     /storage/coda1/p-amedford6/0/shared/rich_project_chbe-medford/medford-share/data/pseudos_module/espresso/nninc/pbe/van/O.UPF
     MD5 check sum: 78c19812648e8988a0fe644b0f25305e
     Pseudo is Ultrasoft, Zval =  6.0
     Generated by new atomic code, or converted to UPF format
     Using radial grid of  737 points,  4 beta functions with:
                l(1) =   0
                l(2) =   0
                l(3) =   1
                l(4) =   1
     Q(r) pseudized with  8 coefficients,  rinner =    0.800   0.800   0.800

     PseudoPot. # 3 for N  read from file:
     /storage/coda1/p-amedford6/0/shared/rich_project_chbe-medford/medford-share/data/pseudos_module/espresso/nninc/pbe/van/N.UPF
     MD5 check sum: 90d10febe142ad51ac9d5be1deb811c4
     Pseudo is Ultrasoft, Zval =  5.0
     Generated by new atomic code, or converted to UPF format
     Using radial grid of  729 points,  4 beta functions with:
                l(1) =   0
                l(2) =   0
                l(3) =   1
                l(4) =   1
     Q(r) pseudized with  8 coefficients,  rinner =    0.800   0.800   0.800

     PseudoPot. # 4 for C  read from file:
     /storage/coda1/p-amedford6/0/shared/rich_project_chbe-medford/medford-share/data/pseudos_module/espresso/nninc/pbe/van/C.UPF
     MD5 check sum: 1a69bf6b8db32088f5b2163dbdb77a27
     Pseudo is Ultrasoft, Zval =  4.0
     Generated by new atomic code, or converted to UPF format
     Using radial grid of  721 points,  4 beta functions with:
                l(1) =   0
                l(2) =   0
                l(3) =   1
                l(4) =   1
     Q(r) pseudized with  8 coefficients,  rinner =    0.800   0.800   0.800

     PseudoPot. # 5 for H  read from file:
     /storage/coda1/p-amedford6/0/shared/rich_project_chbe-medford/medford-share/data/pseudos_module/espresso/nninc/pbe/van/H.UPF
     MD5 check sum: b5ee9d7bfd3a09ee7748110bda690ff7
     Pseudo is Ultrasoft, Zval =  1.0
     Generated by new atomic code, or converted to UPF format
     Using radial grid of  615 points,  1 beta functions with:
                l(1) =   0
     Q(r) pseudized with  8 coefficients,  rinner =    0.800

     atomic species   valence    mass     pseudopotential
        Ti1           12.00    47.86700     Ti( 1.00)
        O1             6.00    15.99900     O ( 1.00)
        N1             5.00    14.00700     N ( 1.00)
        C1             4.00    12.01100     C ( 1.00)
        H1             1.00     1.00800     H ( 1.00)

     No symmetry found

   Cartesian axes

     site n.     atom                  positions (alat units)
         1           Ti1 tau(   1) = (   0.0004258   2.9801865   6.0000000  )
         2           Ti1 tau(   2) = (   3.2906075   1.4906267   6.0002472  )
         3           O1  tau(   3) = (   0.0006271   0.0005054   7.9858123  )
         4           O1  tau(   4) = (   3.2906025   0.0005020   7.3038282  )
         5           O1  tau(   5) = (   4.5942328   1.4918067   9.2879030  )
         6           O1  tau(   6) = (   1.9868534   1.4903216   9.2879459  )
         7           Ti1 tau(   7) = (   3.2907910   2.8959150   9.1758416  )
         8           Ti1 tau(   8) = (   0.0015273   1.4827037   9.2680791  )
         9           O1  tau(   9) = (   3.3049783   5.9490022  11.2668993  )
        10           O1  tau(  10) = (   0.0116148   5.9584955  10.6183126  )
        11           O1  tau(  11) = (   1.3054562   1.4902858  12.6165390  )
        12           O1  tau(  12) = (   5.3128925   1.4966897  12.6222362  )
        13           Ti1 tau(  13) = (   0.0227526   2.8513963  12.7011302  )
        14           Ti1 tau(  14) = (   3.3146314   1.3157910  12.6511296  )
        15           O1  tau(  15) = (   0.0292331   0.0037381  14.6451560  )
        16           O1  tau(  16) = (   3.3105559   0.0332628  13.8611824  )
        17           O1  tau(  17) = (   4.5798417   1.5533887  16.0574704  )
        18           O1  tau(  18) = (   2.0659959   1.5620864  16.0379710  )
        19           Ti1 tau(  19) = (   3.3199680   3.0150018  15.6455324  )
        20           Ti1 tau(  20) = (   6.5662113   1.5085715  15.8767718  )
        21           O1  tau(  21) = (   3.2904802   0.0005063   4.7018136  )
        22           O1  tau(  22) = (   0.0336757   0.0283057  17.1922241  )
        23           O1  tau(  23) = (   1.3043587   1.4918075   6.0039043  )
        24           O1  tau(  24) = (   5.2767064   1.4903225   6.0039473  )
        25           Ti1 tau(  25) = (   0.0000382   5.9609847   6.0000000  )
        26           Ti1 tau(  26) = (   3.2902200   4.4714249   6.0002472  )
        27           O1  tau(  27) = (   0.0002396   2.9813036   7.9858123  )
        28           O1  tau(  28) = (   3.2902150   2.9813002   7.3038282  )
        29           O1  tau(  29) = (   4.5938453   4.4726049   9.2879030  )
        30           O1  tau(  30) = (   1.9864658   4.4711199   9.2879459  )
        31           Ti1 tau(  31) = (   3.2891106   5.8743827   9.1763621  )
        32           Ti1 tau(  32) = (   0.0006254   4.4649316   9.2693709  )
        33           O1  tau(  33) = (   3.3044035   3.0314990  11.2389097  )
        34           O1  tau(  34) = (   0.0092240   2.9805883  10.6323155  )
        35           O1  tau(  35) = (   1.3090660   4.4724101  12.6204063  )
        36           O1  tau(  36) = (   5.3093727   4.4739031  12.6240458  )
        37           Ti1 tau(  37) = (   0.0315986   5.8296340  12.6341251  )
        38           Ti1 tau(  38) = (   3.3217628   4.4127071  12.4104736  )
        39           O1  tau(  39) = (   0.0286309   2.9529265  14.6620113  )
        40           O1  tau(  40) = (   3.3111648   2.9942334  13.8608864  )
        41           O1  tau(  41) = (   4.5850423   4.4544105  16.0703757  )
        42           O1  tau(  42) = (   2.0817017   4.4739285  16.0881885  )
        43           Ti1 tau(  43) = (   3.2564312   0.0343949  16.3346327  )
        44           Ti1 tau(  44) = (   6.5491996   4.6347227  16.0815441  )
        45           O1  tau(  45) = (   3.2900926   2.9813045   4.7018136  )
        46           O1  tau(  46) = (   1.3039711   4.4726057   6.0039043  )
        47           O1  tau(  47) = (   5.2763189   4.4711207   6.0039473  )
        48           N1  tau(  48) = (   0.0476609   2.9608057  17.4046342  )
        49           C1  tau(  49) = (   0.0744360   2.8714357  18.6596517  )
        50           H1  tau(  50) = (   0.0810575   3.7516739  19.3027278  )
        51           H1  tau(  51) = (   0.0872865   1.8968143  19.1621030  )
        52           O1  tau(  52) = (   3.2917830   0.0572188  18.1605702  )
        53           H1  tau(  53) = (   2.8914424   5.3141097  18.6896264  )

     number of k points=    10  Fermi-Dirac smearing, width (Ry)=  0.0073
                       cart. coord. in units 2pi/alat
        k(    1) = (   0.0000000   0.0000000   0.0000000), wk =   0.1250000
        k(    2) = (   0.0000000   0.0419351   0.0000000), wk =   0.2500000
        k(    3) = (   0.0000000  -0.0838702   0.0000000), wk =   0.1250000
        k(    4) = (   0.0379955   0.0000049   0.0000000), wk =   0.2500000
        k(    5) = (   0.0379955   0.0419400   0.0000000), wk =   0.2500000
        k(    6) = (   0.0379955  -0.0838652   0.0000000), wk =   0.2500000
        k(    7) = (   0.0379955  -0.0419301   0.0000000), wk =   0.2500000
        k(    8) = (  -0.0759910  -0.0000099   0.0000000), wk =   0.1250000
        k(    9) = (  -0.0759910   0.0419252   0.0000000), wk =   0.2500000
        k(   10) = (  -0.0759910  -0.0838800   0.0000000), wk =   0.1250000

     Initial potential from superposition of free atoms

     starting charge  379.99917, renormalised to  396.00000

     negative rho (up, down):  1.694E-02 0.000E+00

     %%%%%%%%%%%%%%%%%%%%%%%%%%%%%%%%%%%%%%%%%%%%%%%%%%%%%%%%%%%%%%%%%%%%%%%%
     %                                                                      %
     % You are using vdW-DF, which was implemented by the Thonhauser group. %
     % Please cite the following two papers that made this development      %
     % possible and the two reviews that describe the various versions:     %
     %                                                                      %
     %   T. Thonhauser et al., PRL 115, 136402 (2015).                      %
     %   T. Thonhauser et al., PRB 76, 125112 (2007).                       %
     %   K. Berland et al., Rep. Prog. Phys. 78, 066501 (2015).             %
     %   D.C. Langreth et al., J. Phys.: Condens. Matter 21, 084203 (2009). %
     %                                                                      %
     %                                                                      %
     % If you are calculating the stress with vdW-DF, please also cite:     %
     %                                                                      %
     %   R. Sabatini et al., J. Phys.: Condens. Matter 24, 424209 (2012).   %
     %                                                                      %
     %%%%%%%%%%%%%%%%%%%%%%%%%%%%%%%%%%%%%%%%%%%%%%%%%%%%%%%%%%%%%%%%%%%%%%%%

     Adding external electric field

     Computed dipole along edir(3) :
        Dipole               -7.7051 Ry au,        -19.5845 Debye
        Dipole field         -0.0145 Ry au,

        Potential amp.        1.3479 Ry
        Total length         46.3494 bohr

     Starting wfcs are  299 atomic wfcs
  @ DRIVER MODE: Message from server: STATUS
  @ DRIVER MODE: Message from server: POSDATA
  @ DRIVER MODE: Reading and sharing cell
  @ DRIVER MODE: Reading and sharing positions
  @ DRIVER MODE: Received positions

     Self-consistent Calculation

     iteration #  1     ecut=    29.40 Ry     beta= 0.05
     Davidson diagonalization with overlap
     c_bands:  1 eigenvalues not converged
     c_bands:  3 eigenvalues not converged
     c_bands:  2 eigenvalues not converged
     c_bands:  2 eigenvalues not converged
     c_bands:  3 eigenvalues not converged
     c_bands:  2 eigenvalues not converged
     c_bands:  3 eigenvalues not converged
     c_bands:  2 eigenvalues not converged
     ethr =  1.00E-05,  avg # of iterations = 19.5

[...]

     total energy              =   -2658.48688168 Ry
     estimated scf accuracy    <    3232.21349054 Ry

     iteration #  2     ecut=    29.40 Ry     beta= 0.05
     Davidson diagonalization with overlap
     ethr =  1.00E-02,  avg # of iterations = 21.4

[...]

     iteration # 43     ecut=    29.40 Ry     beta= 0.05
     Davidson diagonalization with overlap
     c_bands:  1 eigenvalues not converged
     ethr =  1.78E-07,  avg # of iterations =  6.7

[...]

     total energy              =   -2951.50535579 Ry
     estimated scf accuracy    <       0.00000008 Ry

     iteration # 68     ecut=    29.40 Ry     beta= 0.05
     Davidson diagonalization with overlap
     ethr =  2.14E-11,  avg # of iterations =  4.8

     negative rho (up, down):  1.701E-02 0.000E+00

     Adding external electric field

     Computed dipole along edir(3) :
        Dipole                0.3646 Ry au,          0.9268 Debye
        Dipole field          0.0007 Ry au,

        Potential amp.       -0.0638 Ry
        Total length         46.3494 bohr

     End of self-consistent calculation

          k = 0.0000 0.0000 0.0000 ( 18029 PWs)   bands (ev):

   -56.8865 -56.8529 -56.0096 -55.9737 -55.7614 -55.6974 -55.5436 -55.4448
   -55.4110 -55.3918 -55.3286 -55.3049 -55.2760 -55.2573 -55.0750 -55.0120
   -33.3065 -33.1599 -33.1318 -33.0639 -32.9736 -32.9334 -32.4927 -32.2389
   -32.2301 -32.2016 -32.1497 -32.1474 -32.1208 -31.9944 -31.9794 -31.9304
   -31.9017 -31.8921 -31.8692 -31.8609 -31.8241 -31.7917 -31.7916 -31.7671
   -31.7638 -31.7593 -31.7173 -31.6900 -31.6586 -31.6494 -31.5931 -31.5689
   -31.5458 -31.5282 -31.5240 -31.5193 -31.5017 -31.4811 -31.4736 -31.4676
   -31.4573 -31.4271 -31.3377 -31.3162 -31.2815 -31.2748 -31.2526 -31.2140
   -16.9983 -16.4613 -16.4513 -16.2081 -16.1004 -16.0856 -16.0581 -15.9840
   -15.7992 -15.7280 -15.7005 -15.6497 -15.5257 -15.4023 -15.3057 -15.1585
   -15.0746 -15.0294 -15.0281 -15.0112 -14.9751 -14.9612 -14.9394 -14.8762
   -14.8559 -14.7851 -14.6475 -14.6096 -14.6016 -14.3320 -14.3230 -13.9422
   -13.8351  -7.2353  -4.5706  -4.1485  -3.9815  -3.9310  -3.7660  -3.5938
    -3.5848  -3.4434  -3.4097  -3.2682  -3.2639  -3.2497  -3.1648  -3.1510
    -3.0297  -2.9626  -2.9482  -2.8471  -2.8062  -2.6544  -2.6164  -2.5262
    -2.4736  -2.4527  -2.3899  -2.3405  -2.3138  -2.2897  -2.2646  -2.2083
    -2.1881  -2.1541  -2.0887  -2.0520  -1.9665  -1.9279  -1.9172  -1.9109
    -1.7974  -1.7704  -1.7301  -1.5905  -1.5320  -1.5135  -1.4912  -1.4386
    -1.3792  -1.3557  -1.3051  -1.2047  -1.1276  -1.1126  -1.0455  -1.0283
    -1.0153  -0.8909  -0.8370  -0.7439  -0.7350  -0.7191  -0.6522  -0.5935
    -0.5557  -0.4715  -0.3962  -0.3865  -0.3733  -0.3370  -0.3136  -0.2557
    -0.1459  -0.1041  -0.0558   0.0174   0.0388   0.1276   0.2221   0.2567
     0.2704   0.3148   0.3437   0.3645   0.4224   0.4863   0.4998   0.5688
     0.5767   0.5809   0.6664   0.7572   0.7951   0.8461   0.8702   0.8811
     1.0033   1.0894   1.1134   1.1587   1.5276   1.7503   2.4044   2.5738
     2.8500   3.0045   3.3279   3.3907   3.4037   3.4069   3.6745   3.8039

[...]

          k = 0.0380-0.0419 0.0000 ( 17876 PWs)   bands (ev):

[...]

          k =-0.0760-0.0000 0.0000 ( 17886 PWs)   bands (ev):

[...]

          k =-0.0760-0.0839 0.0000 ( 17948 PWs)   bands (ev):

   -56.8703 -56.8690 -55.9979 -55.9852 -55.7565 -55.7022 -55.5427 -55.4284
   -55.4273 -55.3881 -55.3293 -55.3083 -55.2746 -55.2562 -55.0763 -55.0130
   -33.1463 -33.1449 -33.1244 -33.1230 -33.0179 -33.0169 -32.3182 -32.3073
   -32.1925 -32.1800 -32.1796 -32.1714 -32.0620 -32.0192 -31.9876 -31.9764
   -31.9295 -31.9250 -31.8380 -31.7899 -31.7806 -31.7798 -31.7461 -31.7188
   -31.6982 -31.6504 -31.6487 -31.6485 -31.6461 -31.6351 -31.6147 -31.6099
   -31.6089 -31.6076 -31.5853 -31.5445 -31.5368 -31.5170 -31.5051 -31.4834
   -31.4760 -31.4248 -31.4236 -31.3462 -31.3393 -31.2854 -31.2547 -31.2339
   -16.4457 -16.3611 -16.3589 -16.3086 -16.3071 -16.0582 -16.0532 -15.8024
   -15.7715 -15.5874 -15.5104 -15.4783 -15.4284 -15.3874 -15.3526 -15.2510
   -15.2381 -15.1411 -15.1128 -15.1032 -15.0560 -15.0122 -14.9692 -14.9396
   -14.9002 -14.8097 -14.7505 -14.7151 -14.6130 -14.5151 -14.4661 -13.9396
   -13.9391  -7.2306  -4.1470  -3.9721  -3.4298  -3.4250  -3.4149  -3.4071
    -3.3581  -3.1830  -3.1752  -2.9894  -2.9618  -2.9593  -2.8886  -2.8820
    -2.7751  -2.7100  -2.7041  -2.7030  -2.6685  -2.6412  -2.6351  -2.5782
    -2.4710  -2.4201  -2.3953  -2.3734  -2.3443  -2.3159  -2.2619  -2.1725
    -2.1647  -2.1553  -2.1251  -2.1051  -2.0796  -2.0745  -1.9365  -1.8349
    -1.7634  -1.7145  -1.7046  -1.6895  -1.6628  -1.6272  -1.5965  -1.5832
    -1.5370  -1.4783  -1.4529  -1.3972  -1.3481  -1.3000  -1.2181  -1.1571
    -1.0894  -1.0684  -0.9358  -0.9203  -0.9009  -0.8624  -0.8286  -0.8195
    -0.7446  -0.6711  -0.6122  -0.5966  -0.5358  -0.5127  -0.4782  -0.4400
    -0.4309  -0.3755  -0.3534  -0.3046  -0.2897  -0.1689  -0.0857   0.0360
     0.0680   0.0860   0.1433   0.1761   0.3133   0.3225   0.3728   0.4872
     0.5236   0.6655   0.6829   0.7853   0.8346   0.8969   0.9532   0.9569
     0.9575   0.9836   1.0177   1.0387   1.1150   1.6888   2.9946   2.9975
     3.0545   3.0602   3.3669   3.3711   3.4756   3.4812   3.7857   3.7924

     the Fermi energy is     2.1418 ev

!    total energy              =   -2951.50537371 Ry
     estimated scf accuracy    <       0.00000004 Ry
     smearing contrib. (-TS)   =      -0.00232203 Ry
     internal energy E=F+TS    =   -2951.50305168 Ry

     The total energy is F=E-TS. E is the sum of the following terms:
     one-electron contribution =  -24181.84048530 Ry
     hartree contribution      =   12180.42427894 Ry
     xc contribution           =    -487.04408338 Ry
     ewald contribution        =    9536.95698715 Ry
     electric field correction =       0.00025091 Ry

     convergence has been achieved in  68 iterations

     Forces acting on atoms (cartesian axes, Ry/au):

     atom    1 type  1   force =     0.00001297   -0.00051011    0.12460960
     atom    2 type  1   force =    -0.00009460    0.00034942   -0.15485531
     atom    3 type  2   force =     0.00004587   -0.00012325   -0.06538864
     atom    4 type  2   force =     0.00007421    0.00024348    0.01705214
     atom    5 type  2   force =    -0.00338751   -0.00145158   -0.01348500
     atom    6 type  2   force =     0.00542715   -0.00094247   -0.01320072
     atom    7 type  1   force =     0.00030169   -0.00647609    0.05888470
     atom    8 type  1   force =     0.00011307    0.00855345    0.09584545
     atom    9 type  2   force =     0.00026659   -0.00010823    0.00024624
     atom   10 type  2   force =    -0.00166747    0.00093333   -0.05966029
     atom   11 type  2   force =     0.00079511   -0.00033705   -0.00034751
     atom   12 type  2   force =    -0.00102326   -0.00073542   -0.00009093
     atom   13 type  1   force =    -0.00020127   -0.00074330    0.00007010
     atom   14 type  1   force =     0.00003504   -0.00066187   -0.00013748
     atom   15 type  2   force =     0.00008065   -0.00024613   -0.00014475
     atom   16 type  2   force =    -0.00008744    0.00001121   -0.00042451
     atom   17 type  2   force =     0.00023303   -0.00011670   -0.00014165
     atom   18 type  2   force =    -0.00037066   -0.00020277   -0.00015414
     atom   19 type  1   force =    -0.00018448   -0.00138122    0.00013082
     atom   20 type  1   force =    -0.00013468   -0.00007307   -0.00014910
     atom   21 type  2   force =     0.00002411    0.00021580    0.09785809
     atom   22 type  2   force =    -0.00028362   -0.00032696    0.00019421
     atom   23 type  2   force =    -0.08253679    0.00005335   -0.03294091
     atom   24 type  2   force =     0.08242157    0.00049405   -0.03299428
     atom   25 type  1   force =     0.00002624   -0.00057541    0.12483737
     atom   26 type  1   force =    -0.00019182   -0.00146731   -0.15523972
     atom   27 type  2   force =     0.00011604   -0.00079834   -0.06370179
     atom   28 type  2   force =     0.00005655    0.00198335    0.01250963
     atom   29 type  2   force =    -0.00156184    0.00507809   -0.01679923
     atom   30 type  2   force =     0.00370886    0.00540110   -0.01641080
     atom   31 type  1   force =     0.00000503    0.00179520    0.04177022
     atom   32 type  1   force =     0.00011619   -0.01183794    0.09591298
     atom   33 type  2   force =     0.00001415   -0.00022803   -0.00029389
     atom   34 type  2   force =    -0.00105260    0.00154131   -0.07417210
     atom   35 type  2   force =    -0.00040757    0.00017931    0.00008318
     atom   36 type  2   force =     0.00111672    0.00043902    0.00015497
     atom   37 type  1   force =    -0.00029939    0.00060138    0.00027846
     atom   38 type  1   force =     0.00020687   -0.00053774    0.00001881
     atom   39 type  2   force =     0.00015579    0.00025162    0.00008892
     atom   40 type  2   force =    -0.00005077   -0.00049714   -0.00059504
     atom   41 type  2   force =     0.00048178    0.00010111   -0.00022648
     atom   42 type  2   force =    -0.00076756   -0.00008960    0.00007460
     atom   43 type  1   force =     0.00001601    0.00104987   -0.00069007
     atom   44 type  1   force =    -0.00002109    0.00005685   -0.00040956
     atom   45 type  2   force =     0.00004007    0.00001805    0.09768401
     atom   46 type  2   force =    -0.08259629    0.00001374   -0.03295058
     atom   47 type  2   force =     0.08247228    0.00044364   -0.03300060
     atom   48 type  3   force =    -0.00015139    0.00032136   -0.00011061
     atom   49 type  4   force =    -0.00017732   -0.00850803   -0.00369616
     atom   50 type  5   force =    -0.00006565    0.00858381    0.00446087
     atom   51 type  5   force =    -0.00013276   -0.00061053   -0.00038730
     atom   52 type  2   force =     0.00014145    0.00055185    0.00015351
     atom   53 type  5   force =    -0.00105727    0.00032153   -0.00011977

     Total force =     0.415714     Total SCF correction =     0.000492
  @ DRIVER MODE: Message from server: STATUS
  @ DRIVER MODE: Message from server: GETFORCE
  @ DRIVER MODE: Returning v,forces,stress,ensemble

     Writing output data file ./calc.save/
  @ DRIVER MODE: Message from server: EXIT
  @ DRIVE MODE: Exiting

     General routines

     Parallel routines

   This run was terminated on:  21: 5:22  22Sep2021

   JOB DONE.