     Program PWSCF v.6.7GPU starts on 16Jul2021 at 20:55: 8

     R & G space division:  proc/nbgrp/npool/nimage =      16
     Reading input from /storage/home/hcoda1/3/ntian30/research/carbon/15Jul_vib/ads_slab/CH3NNHH_a/out_0043/pw.inp
Warning: card &CELL ignored
Warning: card   CELL_DYNAMICS='IPI', ignored
Warning: card / ignored

     Current dimensions of program PWSCF are:
     Max number of different atomic species (ntypx) = 10
     Max number of k-points (npk) =  40000
     Max angular momentum in pseudopotentials (lmaxx) =  3
     Presently no symmetry can be used with electric field

     Message from routine cell_base_init:
     DEPRECATED: use true lattice parameter, not A to a.u. conversion factor

     IMPORTANT: XC functional enforced from input :
     Exchange-correlation= BEEF-VDW
                           (   1   4  43  14   2   0   0)
     Any further DFT definition will be discarded
     Please, verify this is what you really want

  @ DRIVER MODE: Connecting to
 qe_1139763_2351651.sched-torque.pace.gatech.edu8je0ii7c_scratch
  using UNIX socket
  @ DRIVER MODE: Message from server: STATUS
  @ DRIVER MODE: Message from server: INIT
  @ DRIVER MODE: Receiving replica           0          -1
  @ DRIVER MODE: Receiving encoded integer          25
  @ DRIVER MODE:  SCF:  T  FORCE:  T  STRESS:  F  VC:  F  ENSEMBLE:  F
  @ DRIVER MODE:  SCF:  T  FORCE:  T  STRESS:  F  VC:  F  ENSEMBLE:  F

     Using Slab Decomposition

     bravais-lattice index     =            0
     lattice parameter (alat)  =       1.8897  a.u.
     unit-cell volume          =    6658.9804 (a.u.)^3
     number of atoms/cell      =           55
     number of atomic types    =            5
     number of electrons       =       397.00
     number of Kohn-Sham states=          208
     kinetic-energy cutoff     =      29.3995  Ry
     charge density cutoff     =     293.9946  Ry
     scf convergence threshold =      7.3E-08
     mixing beta               =       0.0500
     number of iterations used =            8  plain     mixing
     Exchange-correlation= BEEF-VDW
                           (   1   4  43  14   2   0   0)

     celldm(1)=   1.889726  celldm(2)=   0.000000  celldm(3)=   0.000000
     celldm(4)=   0.000000  celldm(5)=   0.000000  celldm(6)=   0.000000

     crystal axes: (cart. coord. in units of alat)
               a(1) = (   6.579727   0.000000   0.000000 )
               a(2) = (  -0.000775   5.961596   0.000000 )
               a(3) = (   0.000000   0.000000  25.155947 )

     reciprocal axes: (cart. coord. in units 2 pi/alat)
               b(1) = (  0.151982  0.000020  0.000000 )
               b(2) = (  0.000000  0.167740  0.000000 )
               b(3) = (  0.000000  0.000000  0.039752 )

     PseudoPot. # 1 for Ti read from file:
     /storage/coda1/p-amedford6/0/shared/rich_project_chbe-medford/medford-share/data/pseudos_module/espresso/nninc/pbe/van/Ti.UPF
     MD5 check sum: 8e4df49b7f0d34bbd5052bf3f5ea0213
     Pseudo is Ultrasoft, Zval = 12.0
     Generated by new atomic code, or converted to UPF format
     Using radial grid of  851 points,  6 beta functions with:
                l(1) =   0
                l(2) =   0
                l(3) =   1
                l(4) =   1
                l(5) =   2
                l(6) =   2
     Q(r) pseudized with  8 coefficients,  rinner =    1.000   1.000   1.000
                                                       1.000   1.000

     PseudoPot. # 2 for O  read from file:
     /storage/coda1/p-amedford6/0/shared/rich_project_chbe-medford/medford-share/data/pseudos_module/espresso/nninc/pbe/van/O.UPF
     MD5 check sum: 78c19812648e8988a0fe644b0f25305e
     Pseudo is Ultrasoft, Zval =  6.0
     Generated by new atomic code, or converted to UPF format
     Using radial grid of  737 points,  4 beta functions with:
                l(1) =   0
                l(2) =   0
                l(3) =   1
                l(4) =   1
     Q(r) pseudized with  8 coefficients,  rinner =    0.800   0.800   0.800

     PseudoPot. # 3 for N  read from file:
     /storage/coda1/p-amedford6/0/shared/rich_project_chbe-medford/medford-share/data/pseudos_module/espresso/nninc/pbe/van/N.UPF
     MD5 check sum: 90d10febe142ad51ac9d5be1deb811c4
     Pseudo is Ultrasoft, Zval =  5.0
     Generated by new atomic code, or converted to UPF format
     Using radial grid of  729 points,  4 beta functions with:
                l(1) =   0
                l(2) =   0
                l(3) =   1
                l(4) =   1
     Q(r) pseudized with  8 coefficients,  rinner =    0.800   0.800   0.800

     PseudoPot. # 4 for C  read from file:
     /storage/coda1/p-amedford6/0/shared/rich_project_chbe-medford/medford-share/data/pseudos_module/espresso/nninc/pbe/van/C.UPF
     MD5 check sum: 1a69bf6b8db32088f5b2163dbdb77a27
     Pseudo is Ultrasoft, Zval =  4.0
     Generated by new atomic code, or converted to UPF format
     Using radial grid of  721 points,  4 beta functions with:
                l(1) =   0
                l(2) =   0
                l(3) =   1
                l(4) =   1
     Q(r) pseudized with  8 coefficients,  rinner =    0.800   0.800   0.800

     PseudoPot. # 5 for H  read from file:
     /storage/coda1/p-amedford6/0/shared/rich_project_chbe-medford/medford-share/data/pseudos_module/espresso/nninc/pbe/van/H.UPF
     MD5 check sum: b5ee9d7bfd3a09ee7748110bda690ff7
     Pseudo is Ultrasoft, Zval =  1.0
     Generated by new atomic code, or converted to UPF format
     Using radial grid of  615 points,  1 beta functions with:
                l(1) =   0
     Q(r) pseudized with  8 coefficients,  rinner =    0.800

     atomic species   valence    mass     pseudopotential
        Ti1           12.00    47.86700     Ti( 1.00)
        O1             6.00    15.99900     O ( 1.00)
        N1             5.00    14.00700     N ( 1.00)
        C1             4.00    12.01100     C ( 1.00)
        H1             1.00     1.00800     H ( 1.00)

     Starting magnetic structure
     atomic species   magnetization
        Ti1          0.000
        O1           0.000
        N1           0.000
        C1           0.025
        H1           0.000

     No symmetry found

   Cartesian axes

     site n.     atom                  positions (alat units)
         1           Ti1 tau(   1) = (   0.0004258   2.9801865   6.0000000  )
         2           Ti1 tau(   2) = (   3.2906075   1.4906267   6.0002472  )
         3           O1  tau(   3) = (   0.0006271   0.0005054   7.9858123  )
         4           O1  tau(   4) = (   3.2906025   0.0005020   7.3038282  )
         5           O1  tau(   5) = (   4.5942328   1.4918067   9.2879030  )
         6           O1  tau(   6) = (   1.9868534   1.4903216   9.2879459  )
         7           Ti1 tau(   7) = (   3.2907910   2.8959150   9.1758416  )
         8           Ti1 tau(   8) = (   0.0015273   1.4827037   9.2680791  )
         9           O1  tau(   9) = (   3.3020592   5.9599881  11.3075072  )
        10           O1  tau(  10) = (   0.0116148   5.9584955  10.6183126  )
        11           O1  tau(  11) = (   1.3218652   1.4872367  12.6142461  )
        12           O1  tau(  12) = (   5.3149618   1.4866655  12.6283206  )
        13           Ti1 tau(  13) = (   6.5343381   3.0098038  12.6530281  )
        14           Ti1 tau(  14) = (   3.2132235   1.4912063  12.4551521  )
        15           O1  tau(  15) = (   0.0515422   5.9562953  14.6829507  )
        16           O1  tau(  16) = (   3.3088797   0.0214154  13.8770011  )
        17           O1  tau(  17) = (   4.5726725   1.5412406  16.1224456  )
        18           O1  tau(  18) = (   2.0900022   1.5114086  15.9969863  )
        19           Ti1 tau(  19) = (   3.3311046   3.0200058  15.6476981  )
        20           Ti1 tau(  20) = (   0.0790784   1.4105808  15.8036947  )
        21           O1  tau(  21) = (   3.2904802   0.0005063   4.7018136  )
        22           O1  tau(  22) = (   0.0613336   0.0214447  17.2555488  )
        23           O1  tau(  23) = (   1.3043587   1.4918075   6.0039043  )
        24           O1  tau(  24) = (   5.2767064   1.4903225   6.0039473  )
        25           Ti1 tau(  25) = (   0.0000382   5.9609847   6.0000000  )
        26           Ti1 tau(  26) = (   3.2902200   4.4714249   6.0002472  )
        27           O1  tau(  27) = (   0.0002396   2.9813036   7.9858123  )
        28           O1  tau(  28) = (   3.2902150   2.9813002   7.3038282  )
        29           O1  tau(  29) = (   4.5938453   4.4726049   9.2879030  )
        30           O1  tau(  30) = (   1.9864658   4.4711199   9.2879459  )
        31           Ti1 tau(  31) = (   3.2891106   5.8743827   9.1763621  )
        32           Ti1 tau(  32) = (   0.0006254   4.4649316   9.2693709  )
        33           O1  tau(  33) = (   3.3026341   2.9893090  11.3092672  )
        34           O1  tau(  34) = (   0.0092240   2.9805883  10.6323155  )
        35           O1  tau(  35) = (   1.3182942   4.4670451  12.6271195  )
        36           O1  tau(  36) = (   5.3124783   4.4780259  12.6376329  )
        37           Ti1 tau(  37) = (   6.5365500   0.0194685  12.5464133  )
        38           Ti1 tau(  38) = (   3.2155898   4.4753301  12.4613306  )
        39           O1  tau(  39) = (   0.0167368   2.9407051  14.7244952  )
        40           O1  tau(  40) = (   3.3149560   2.9822459  13.8616979  )
        41           O1  tau(  41) = (   4.5706274   4.5128733  15.9228735  )
        42           O1  tau(  42) = (   2.1262058   4.4922812  16.0793225  )
        43           Ti1 tau(  43) = (   3.3222298   0.0210159  15.6751784  )
        44           Ti1 tau(  44) = (   6.5499002   4.5104744  16.2959303  )
        45           O1  tau(  45) = (   3.2900926   2.9813045   4.7018136  )
        46           O1  tau(  46) = (   1.3039711   4.4726057   6.0039043  )
        47           O1  tau(  47) = (   5.2763189   4.4711207   6.0039473  )
        48           N1  tau(  48) = (   0.3735289   2.9861087  17.6038306  )
        49           C1  tau(  49) = (   1.3580301   2.7301661  18.6431808  )
        50           H1  tau(  50) = (   1.5128655   3.6233449  19.2641712  )
        51           H1  tau(  51) = (   1.0354786   1.8978442  19.2795547  )
        52           H1  tau(  52) = (   2.3065860   2.4473273  18.1987077  )
        53           N1  tau(  53) = (   5.7326324   3.4596218  18.1373629  )
        54           H1  tau(  54) = (   5.8436824   4.0267099  18.9748678  )
        55           H1  tau(  55) = (   5.0275616   2.7244768  18.2555579  )

     number of k points=    10  Fermi-Dirac smearing, width (Ry)=  0.0073
                       cart. coord. in units 2pi/alat
        k(    1) = (   0.0000000   0.0000000   0.0000000), wk =   0.0625000
        k(    2) = (   0.0000000   0.0419351   0.0000000), wk =   0.1250000
        k(    3) = (   0.0000000  -0.0838702   0.0000000), wk =   0.0625000
        k(    4) = (   0.0379955   0.0000049   0.0000000), wk =   0.1250000
        k(    5) = (   0.0379955   0.0419400   0.0000000), wk =   0.1250000
        k(    6) = (   0.0379955  -0.0838652   0.0000000), wk =   0.1250000
[...]
     %                                                                      %
     % You are using vdW-DF, which was implemented by the Thonhauser group. %
     % Please cite the following two papers that made this development      %
     % possible and the two reviews that describe the various versions:     %
     %                                                                      %
     %   T. Thonhauser et al., PRL 115, 136402 (2015).                      %
     %   T. Thonhauser et al., PRB 76, 125112 (2007).                       %
     %   K. Berland et al., Rep. Prog. Phys. 78, 066501 (2015).             %
     %   D.C. Langreth et al., J. Phys.: Condens. Matter 21, 084203 (2009). %
     %                                                                      %
     %                                                                      %
     % If you are calculating the stress with vdW-DF, please also cite:     %
     %                                                                      %
     %   R. Sabatini et al., J. Phys.: Condens. Matter 24, 424209 (2012).   %
     %                                                                      %
     %%%%%%%%%%%%%%%%%%%%%%%%%%%%%%%%%%%%%%%%%%%%%%%%%%%%%%%%%%%%%%%%%%%%%%%%

     Adding external electric field

     Computed dipole along edir(3) :
        Dipole               -9.2582 Ry au,        -23.5319 Debye
        Dipole field         -0.0175 Ry au,

        Potential amp.        1.6196 Ry
        Total length         46.3494 bohr

[...]

     Starting wfcs are  301 atomic wfcs
  @ DRIVER MODE: Message from server: STATUS
  @ DRIVER MODE: Message from server: POSDATA
  @ DRIVER MODE: Reading and sharing cell
  @ DRIVER MODE: Reading and sharing positions
  @ DRIVER MODE: Received positions

     Self-consistent Calculation

     iteration #  1     ecut=    29.40 Ry     beta= 0.05
     Davidson diagonalization with overlap
     c_bands:  1 eigenvalues not converged
     c_bands:  2 eigenvalues not converged
     c_bands:  1 eigenvalues not converged
     c_bands:  2 eigenvalues not converged
     c_bands:  2 eigenvalues not converged
     c_bands:  2 eigenvalues not converged
     c_bands:  2 eigenvalues not converged
     c_bands:  1 eigenvalues not converged
     c_bands:  4 eigenvalues not converged
     c_bands:  1 eigenvalues not converged
     c_bands:  2 eigenvalues not converged
     c_bands:  1 eigenvalues not converged
     c_bands:  2 eigenvalues not converged
     c_bands:  2 eigenvalues not converged
     c_bands:  2 eigenvalues not converged
     c_bands:  2 eigenvalues not converged
     c_bands:  1 eigenvalues not converged
     c_bands:  4 eigenvalues not converged
     ethr =  1.00E-05,  avg # of iterations = 19.8

[...]

     total energy              =   -2525.31652180 Ry
     estimated scf accuracy    <    4616.13295013 Ry

     total magnetization       =     0.00 Bohr mag/cell
     absolute magnetization    =     0.03 Bohr mag/cell

     iteration #  2     ecut=    29.40 Ry     beta= 0.05
     Davidson diagonalization with overlap
     ethr =  1.00E-02,  avg # of iterations = 23.9

[...]

     iteration # 69     ecut=    29.40 Ry     beta= 0.05
     Davidson diagonalization with overlap
     c_bands:  1 eigenvalues not converged
     ethr =  4.69E-11,  avg # of iterations =  8.8

[...]

     total energy              =   -2941.63801663 Ry
     estimated scf accuracy    <       0.00000008 Ry

[...]

     iteration # 72     ecut=    29.40 Ry     beta= 0.05
     Davidson diagonalization with overlap
     ethr =  1.98E-11,  avg # of iterations = 11.5

     negative rho (up, down):  8.393E-03 8.391E-03

[...]

     Adding external electric field

     Computed dipole along edir(3) :
        Dipole                1.1474 Ry au,          2.9164 Debye
        Dipole field          0.0022 Ry au,

        Potential amp.       -0.2007 Ry
        Total length         46.3494 bohr

     Magnetic moment per site  (integrated on atomic sphere of radius R)
     atom   1 (R=0.726)  charge=  7.9408  magn= -0.0162
     atom   2 (R=0.726)  charge=  7.9244  magn= -0.0008
     atom   3 (R=0.726)  charge=  4.9319  magn=  0.0013
     atom   4 (R=0.726)  charge=  4.9681  magn=  0.0002
     atom   5 (R=0.726)  charge=  4.9367  magn=  0.0001
     atom   6 (R=0.726)  charge=  4.9376  magn=  0.0001
     atom   7 (R=0.726)  charge=  7.9229  magn= -0.0006
     atom   8 (R=0.726)  charge=  7.9151  magn= -0.0046
     atom   9 (R=0.726)  charge=  4.9562  magn=  0.0001
     atom  10 (R=0.726)  charge=  4.9310  magn=  0.0004
     atom  11 (R=0.726)  charge=  4.9387  magn=  0.0001
     atom  12 (R=0.726)  charge=  4.9369  magn=  0.0001
     atom  13 (R=0.726)  charge=  7.9088  magn= -0.0010
     atom  14 (R=0.726)  charge=  7.9274  magn= -0.0003
     atom  15 (R=0.726)  charge=  4.9165  magn=  0.0000
     atom  16 (R=0.726)  charge=  4.9542  magn=  0.0000
     atom  17 (R=0.726)  charge=  4.9068  magn=  0.0000
     atom  18 (R=0.726)  charge=  4.9387  magn=  0.0000
     atom  19 (R=0.726)  charge=  7.9528  magn= -0.0000
     atom  20 (R=0.726)  charge=  7.9411  magn= -0.0001
     atom  21 (R=0.726)  charge=  4.8211  magn=  0.0008
     atom  22 (R=0.726)  charge=  4.9007  magn= -0.0000
     atom  23 (R=0.726)  charge=  4.9281  magn=  0.0020
     atom  24 (R=0.726)  charge=  4.9282  magn=  0.0020
     atom  25 (R=0.726)  charge=  7.9408  magn= -0.0162
     atom  26 (R=0.726)  charge=  7.9244  magn= -0.0008
     atom  27 (R=0.726)  charge=  4.9305  magn=  0.0013
     atom  28 (R=0.726)  charge=  4.9683  magn=  0.0002
     atom  29 (R=0.726)  charge=  4.9375  magn=  0.0001
     atom  30 (R=0.726)  charge=  4.9382  magn=  0.0001
     atom  31 (R=0.726)  charge=  7.9236  magn= -0.0006
     atom  32 (R=0.726)  charge=  7.9153  magn= -0.0045
     atom  33 (R=0.726)  charge=  4.9540  magn=  0.0001
     atom  34 (R=0.726)  charge=  4.9049  magn=  0.0004
     atom  35 (R=0.726)  charge=  4.9378  magn=  0.0001
     atom  36 (R=0.726)  charge=  4.9369  magn=  0.0001
     atom  37 (R=0.726)  charge=  7.9159  magn= -0.0011
     atom  38 (R=0.726)  charge=  7.9271  magn= -0.0003
     atom  39 (R=0.726)  charge=  4.9089  magn=  0.0000
     atom  40 (R=0.726)  charge=  4.9620  magn=  0.0000
     atom  41 (R=0.726)  charge=  4.9464  magn=  0.0000
     atom  42 (R=0.726)  charge=  4.9157  magn=  0.0000
     atom  43 (R=0.726)  charge=  7.9490  magn= -0.0000
     atom  44 (R=0.726)  charge=  7.9600  magn= -0.0000
     atom  45 (R=0.726)  charge=  4.8212  magn=  0.0008
     atom  46 (R=0.726)  charge=  4.9281  magn=  0.0020
     atom  47 (R=0.726)  charge=  4.9282  magn=  0.0020
     atom  48 (R=0.420)  charge=  1.3150  magn=  0.0000
     atom  49 (R=0.448)  charge=  0.8406  magn= -0.0000
     atom  50 (R=0.420)  charge=  0.4416  magn=  0.0000
     atom  51 (R=0.420)  charge=  0.4405  magn=  0.0000
     atom  52 (R=0.420)  charge=  0.4486  magn=  0.0000
     atom  53 (R=0.420)  charge=  1.3365  magn=  0.0000
     atom  54 (R=0.420)  charge=  0.4533  magn= -0.0000
     atom  55 (R=0.420)  charge=  0.4446  magn= -0.0000

     End of self-consistent calculation

 ------ SPIN UP ------------

          k = 0.0000 0.0000 0.0000 ( 18029 PWs)   bands (ev):

   -55.5743 -55.5548 -55.5364 -55.5207 -55.4602 -55.4234 -55.4228 -55.3879
   -55.3667 -55.3326 -55.3266 -55.2927 -55.0314 -54.8738 -54.5369 -54.5028
   -32.1364 -32.0448 -31.9584 -31.8920 -31.8879 -31.8647 -31.8452 -31.8191
   -31.8052 -31.7963 -31.7843 -31.7590 -31.7545 -31.7260 -31.7155 -31.7039
   -31.6666 -31.6600 -31.6579 -31.6471 -31.6463 -31.6124 -31.6086 -31.5952
   -31.5701 -31.5676 -31.5640 -31.5558 -31.5550 -31.5300 -31.5047 -31.5009
   -31.4946 -31.4920 -31.4808 -31.4700 -31.4400 -31.3055 -31.2563 -31.1542
   -31.1263 -31.0350 -30.9434 -30.8561 -30.8337 -30.7600 -30.6736 -30.5626
   -17.5688 -16.3618 -16.0493 -15.8349 -15.7264 -15.7228 -15.6384 -15.4173
   -15.2957 -15.2816 -15.1661 -15.1622 -15.1034 -15.0612 -15.0538 -15.0469
   -15.0141 -15.0027 -14.9854 -14.9486 -14.9162 -14.8979 -14.8745 -14.7727
   -14.7058 -14.7004 -14.6822 -14.6174 -14.5695 -14.2090 -13.0402 -12.9240
   -12.5262  -9.1997  -6.3188  -5.0890  -4.1911  -3.7400  -3.5504  -3.4729
    -3.4383  -3.3709  -3.3478  -3.1807  -3.1727  -2.7940  -2.7747  -2.7567
    -2.7355  -2.7321  -2.4630  -2.4103  -2.3953  -2.3916  -2.3737  -2.3569
    -2.3360  -2.3257  -2.2983  -2.2874  -2.1541  -2.1104  -2.0313  -2.0052
    -1.9897  -1.8774  -1.8530  -1.8331  -1.8213  -1.8078  -1.7787  -1.7719
    -1.7500  -1.6416  -1.5325  -1.4528  -1.4132  -1.3606  -1.3401  -1.1635
    -1.1104  -1.0511  -1.0274  -1.0028  -0.9879  -0.9542  -0.8801  -0.8554
    -0.7132  -0.6746  -0.6206  -0.5945  -0.5659  -0.5099  -0.4763  -0.4462
    -0.3508  -0.3382  -0.3275  -0.3145  -0.2581  -0.0669  -0.0184   0.0005
     0.0157   0.1149   0.1546   0.1792   0.2134   0.2694   0.2985   0.3629
     0.3915   0.4114   0.4221   0.4513   0.4678   0.5998   0.6250   0.6559
     0.7172   0.7708   0.8472   0.9587   1.0412   1.0979   1.1994   1.4173
     1.4847   1.5691   1.6783   1.7110   2.0537   2.0995   3.5738   3.6733
     3.6961   3.7118   3.8168   3.8670   4.0188   4.0297   4.0673   4.0950

[...]

          k =-0.0760-0.0000 0.0000 ( 17886 PWs)   bands (ev):

[...]

 ------ SPIN DOWN ----------

[...]

          k = 0.0380-0.0419 0.0000 ( 17876 PWs)   bands (ev):

[...]

          k =-0.0760-0.0839 0.0000 ( 17948 PWs)   bands (ev):

   -55.5688 -55.5676 -55.5613 -55.5504 -55.4507 -55.4360 -55.4094 -55.4020
   -55.3595 -55.3561 -55.3128 -55.3093 -55.0304 -54.8750 -54.5215 -54.5214
   -31.9425 -31.9320 -31.8735 -31.8728 -31.8653 -31.8643 -31.8443 -31.8278
   -31.8030 -31.7890 -31.7684 -31.7488 -31.7236 -31.7129 -31.7072 -31.6914
   -31.6901 -31.6839 -31.6814 -31.6722 -31.6671 -31.6540 -31.6505 -31.6481
   -31.6282 -31.6135 -31.6037 -31.6027 -31.5555 -31.5534 -31.5457 -31.5434
   -31.5382 -31.5345 -31.5279 -31.5260 -31.4115 -31.3166 -31.2584 -31.2158
   -31.1317 -31.0462 -30.8484 -30.8483 -30.7573 -30.7571 -30.7186 -30.7185
   -17.5567 -15.8216 -15.7816 -15.5265 -15.5174 -15.5149 -15.4744 -15.3510
   -15.3025 -15.2765 -15.2651 -15.2464 -15.2382 -15.1372 -15.1227 -15.1068
   -15.0958 -15.0699 -15.0265 -15.0213 -15.0132 -15.0024 -14.9911 -14.9251
   -14.8726 -14.8688 -14.7549 -14.6633 -14.5228 -14.4338 -13.0242 -13.0239
   -12.5455  -9.1604  -6.2764  -5.1188  -4.1251  -3.4190  -3.1222  -3.0747
    -2.7868  -2.7673  -2.7523  -2.6387  -2.5192  -2.5099  -2.4840  -2.4623
    -2.4280  -2.4150  -2.4049  -2.3969  -2.3787  -2.3609  -2.3500  -2.3104
    -2.2417  -2.2338  -2.2253  -2.2174  -2.2006  -2.1769  -2.1660  -2.1391
    -2.1145  -2.0796  -2.0203  -1.9894  -1.8400  -1.7962  -1.7344  -1.6963
    -1.6877  -1.6585  -1.6248  -1.6173  -1.5064  -1.4923  -1.4585  -1.3285
    -1.2680  -1.2598  -1.2273  -1.1397  -1.1010  -0.9721  -0.9589  -0.9216
    -0.8661  -0.8585  -0.8212  -0.7832  -0.7323  -0.6802  -0.6369  -0.6136
    -0.5959  -0.5235  -0.5230  -0.4765  -0.4201  -0.3501  -0.3273  -0.3197
    -0.2864  -0.2433  -0.1964  -0.1329  -0.0576  -0.0386  -0.0233   0.0757
     0.1490   0.3679   0.4154   0.5119   0.5342   0.5616   0.6218   0.6712
     0.7408   0.7563   0.7840   0.8572   0.8792   0.9711   0.9825   0.9996
     1.1772   1.6471   1.8510   1.8519   1.9200   1.9205   3.8566   3.8727
     3.8969   3.9205   4.0737   4.0770   4.0935   4.0962   4.2171   4.2501

     the Fermi energy is     3.5634 ev

!    total energy              =   -2941.63803528 Ry
     estimated scf accuracy    <       0.00000006 Ry
     smearing contrib. (-TS)   =      -0.02169109 Ry
     internal energy E=F+TS    =   -2941.61634419 Ry

     The total energy is F=E-TS. E is the sum of the following terms:
     one-electron contribution =  -24387.99633337 Ry
     hartree contribution      =   12285.95454599 Ry
     xc contribution           =    -486.93517852 Ry
     ewald contribution        =    9647.35813732 Ry
     electric field correction =       0.00248438 Ry

     total magnetization       =    -0.06 Bohr mag/cell
     absolute magnetization    =     0.09 Bohr mag/cell

     convergence has been achieved in  72 iterations

     Forces acting on atoms (cartesian axes, Ry/au):

     atom    1 type  1   force =    -0.00001134   -0.00019563    0.09682550
     atom    2 type  1   force =     0.00009219   -0.00069023   -0.17462612
     atom    3 type  2   force =     0.00018258   -0.00006000   -0.02507836
     atom    4 type  2   force =     0.00000823   -0.00124879    0.05119613
     atom    5 type  2   force =    -0.01126628   -0.00079943    0.00228426
     atom    6 type  2   force =     0.01310826   -0.00035130    0.00272960
     atom    7 type  1   force =     0.00100461    0.00021807   -0.01339965
     atom    8 type  1   force =    -0.00009927    0.01533321    0.02824427
     atom    9 type  2   force =    -0.00007220   -0.00001103    0.00009903
     atom   10 type  2   force =    -0.00234034    0.00080645   -0.01057880
     atom   11 type  2   force =     0.00035533    0.00005507   -0.00001456
     atom   12 type  2   force =    -0.00043275   -0.00006492    0.00025500
     atom   13 type  1   force =     0.00015064   -0.00018702   -0.00005352
     atom   14 type  1   force =     0.00010194   -0.00022112    0.00003412
     atom   15 type  2   force =    -0.00006292    0.00022605   -0.00012350
     atom   16 type  2   force =    -0.00019603    0.00003447   -0.00017329
     atom   17 type  2   force =    -0.00014208    0.00007888   -0.00006136
     atom   18 type  2   force =    -0.00015415    0.00002916   -0.00015796
     atom   19 type  1   force =    -0.00033630    0.00023214   -0.00004161
     atom   20 type  1   force =     0.00002476   -0.00056811    0.00017384
     atom   21 type  2   force =     0.00003830   -0.00009295    0.10299455
     atom   22 type  2   force =    -0.00003818    0.00041419    0.00044537
     atom   23 type  2   force =    -0.07180557   -0.00021051   -0.02780067
     atom   24 type  2   force =     0.07176537    0.00024584   -0.02786102
     atom   25 type  1   force =     0.00002935   -0.00025776    0.09642870
     atom   26 type  1   force =    -0.00000426   -0.00029452   -0.17488870
     atom   27 type  2   force =     0.00019239   -0.00025331   -0.02393629
     atom   28 type  2   force =     0.00005354   -0.00100532    0.05146705
     atom   29 type  2   force =    -0.01129378    0.00078713    0.00169833
     atom   30 type  2   force =     0.01298522    0.00111366    0.00209642
     atom   31 type  1   force =     0.00103494    0.00257252   -0.01542586
     atom   32 type  1   force =     0.00005886   -0.01663734    0.02912426
     atom   33 type  2   force =     0.00011753    0.00002917   -0.00011404
     atom   34 type  2   force =    -0.00271145    0.00093595   -0.01868056
     atom   35 type  2   force =     0.00017553   -0.00007272   -0.00008547
     atom   36 type  2   force =    -0.00037690   -0.00007194    0.00013703
     atom   37 type  1   force =    -0.00010614   -0.00019413    0.00015482
     atom   38 type  1   force =     0.00007358    0.00008751   -0.00006560
     atom   39 type  2   force =    -0.00003250    0.00044754   -0.00000867
     atom   40 type  2   force =    -0.00037713    0.00014902   -0.00012579
     atom   41 type  2   force =     0.00009414   -0.00003912   -0.00009972
     atom   42 type  2   force =     0.00000025    0.00018761    0.00002954
     atom   43 type  1   force =     0.00015929   -0.00002196   -0.00013935
     atom   44 type  1   force =    -0.00037901   -0.00039185   -0.00023749
     atom   45 type  2   force =     0.00005467   -0.00010956    0.10299987
     atom   46 type  2   force =    -0.07183030   -0.00015988   -0.02782153
     atom   47 type  2   force =     0.07177308    0.00022620   -0.02786505
     atom   48 type  3   force =    -0.00209661   -0.00066300    0.00104307
     atom   49 type  4   force =     0.00015757   -0.00031244    0.00017606
     atom   50 type  5   force =    -0.00032411    0.00011083    0.00012053
     atom   51 type  5   force =    -0.00045264   -0.00005112   -0.00027525
     atom   52 type  5   force =     0.00075330   -0.00022804    0.00011102
     atom   53 type  3   force =    -0.00580568   -0.00561628    0.00063431
     atom   54 type  5   force =     0.00034121   -0.00017441    0.00113535
     atom   55 type  5   force =     0.00786123    0.00693505   -0.00289827

     Total force =     0.367471     Total SCF correction =     0.000344
  @ DRIVER MODE: Message from server: STATUS
  @ DRIVER MODE: Message from server: GETFORCE
  @ DRIVER MODE: Returning v,forces,stress,ensemble

     Writing output data file ./calc.save/
  @ DRIVER MODE: Message from server: EXIT
  @ DRIVE MODE: Exiting

     General routines

     Parallel routines

   This run was terminated on:  21:26:17  16Jul2021

   JOB DONE.