     Program PWSCF v.6.7GPU starts on 23Sep2021 at  3:12:38

     R & G space division:  proc/nbgrp/npool/nimage =      10
     Reading input from /storage/home/hcoda1/3/ntian30/research/carbon/CxH_vib/H2O_calc/ads_slab/CHON2HO_d/out_0033/pw.inp
Warning: card &CELL ignored
Warning: card   CELL_DYNAMICS='IPI', ignored
Warning: card / ignored

     Current dimensions of program PWSCF are:
     Max number of different atomic species (ntypx) = 10
     Max number of k-points (npk) =  40000
     Max angular momentum in pseudopotentials (lmaxx) =  3
     Presently no symmetry can be used with electric field

     Message from routine cell_base_init:
     DEPRECATED: use true lattice parameter, not A to a.u. conversion factor

     IMPORTANT: XC functional enforced from input :
     Exchange-correlation= BEEF-VDW
                           (   1   4  43  14   2   0   0)
     Any further DFT definition will be discarded
     Please, verify this is what you really want

  @ DRIVER MODE: Connecting to
 qe_1139763_2937317.sched-torque.pace.gatech.edu87uz7b2a_scratch
  using UNIX socket
  @ DRIVER MODE: Message from server: STATUS
  @ DRIVER MODE: Message from server: INIT
  @ DRIVER MODE: Receiving replica           0          -1
  @ DRIVER MODE: Receiving encoded integer          25
  @ DRIVER MODE:  SCF:  T  FORCE:  T  STRESS:  F  VC:  F  ENSEMBLE:  F
  @ DRIVER MODE:  SCF:  T  FORCE:  T  STRESS:  F  VC:  F  ENSEMBLE:  F

     Using Slab Decomposition

     bravais-lattice index     =            0
     lattice parameter (alat)  =       1.8897  a.u.
     unit-cell volume          =    6658.9804 (a.u.)^3
     number of atoms/cell      =           54
     number of atomic types    =            5
     number of electrons       =       406.00
     number of Kohn-Sham states=          213
     kinetic-energy cutoff     =      29.3995  Ry
     charge density cutoff     =     293.9946  Ry
     scf convergence threshold =      7.3E-08
     mixing beta               =       0.0500
     number of iterations used =            8  plain     mixing
     Exchange-correlation= BEEF-VDW
                           (   1   4  43  14   2   0   0)

     celldm(1)=   1.889726  celldm(2)=   0.000000  celldm(3)=   0.000000
     celldm(4)=   0.000000  celldm(5)=   0.000000  celldm(6)=   0.000000

     crystal axes: (cart. coord. in units of alat)
               a(1) = (   6.579727   0.000000   0.000000 )
               a(2) = (  -0.000775   5.961596   0.000000 )
               a(3) = (   0.000000   0.000000  25.155947 )

     reciprocal axes: (cart. coord. in units 2 pi/alat)
               b(1) = (  0.151982  0.000020  0.000000 )
               b(2) = (  0.000000  0.167740  0.000000 )
               b(3) = (  0.000000  0.000000  0.039752 )

     PseudoPot. # 1 for O  read from file:
     /storage/coda1/p-amedford6/0/shared/rich_project_chbe-medford/medford-share/data/pseudos_module/espresso/nninc/pbe/van/O.UPF
     MD5 check sum: 78c19812648e8988a0fe644b0f25305e
     Pseudo is Ultrasoft, Zval =  6.0
     Generated by new atomic code, or converted to UPF format
     Using radial grid of  737 points,  4 beta functions with:
                l(1) =   0
                l(2) =   0
                l(3) =   1
                l(4) =   1
     Q(r) pseudized with  8 coefficients,  rinner =    0.800   0.800   0.800

     PseudoPot. # 2 for Ti read from file:
     /storage/coda1/p-amedford6/0/shared/rich_project_chbe-medford/medford-share/data/pseudos_module/espresso/nninc/pbe/van/Ti.UPF
     MD5 check sum: 8e4df49b7f0d34bbd5052bf3f5ea0213
     Pseudo is Ultrasoft, Zval = 12.0
     Generated by new atomic code, or converted to UPF format
     Using radial grid of  851 points,  6 beta functions with:
                l(1) =   0
                l(2) =   0
                l(3) =   1
                l(4) =   1
                l(5) =   2
                l(6) =   2
     Q(r) pseudized with  8 coefficients,  rinner =    1.000   1.000   1.000
                                                       1.000   1.000

     PseudoPot. # 3 for C  read from file:
     /storage/coda1/p-amedford6/0/shared/rich_project_chbe-medford/medford-share/data/pseudos_module/espresso/nninc/pbe/van/C.UPF
     MD5 check sum: 1a69bf6b8db32088f5b2163dbdb77a27
     Pseudo is Ultrasoft, Zval =  4.0
     Generated by new atomic code, or converted to UPF format
     Using radial grid of  721 points,  4 beta functions with:
                l(1) =   0
                l(2) =   0
                l(3) =   1
                l(4) =   1
     Q(r) pseudized with  8 coefficients,  rinner =    0.800   0.800   0.800

     PseudoPot. # 4 for H  read from file:
     /storage/coda1/p-amedford6/0/shared/rich_project_chbe-medford/medford-share/data/pseudos_module/espresso/nninc/pbe/van/H.UPF
     MD5 check sum: b5ee9d7bfd3a09ee7748110bda690ff7
     Pseudo is Ultrasoft, Zval =  1.0
     Generated by new atomic code, or converted to UPF format
     Using radial grid of  615 points,  1 beta functions with:
                l(1) =   0
     Q(r) pseudized with  8 coefficients,  rinner =    0.800

     PseudoPot. # 5 for N  read from file:
     /storage/coda1/p-amedford6/0/shared/rich_project_chbe-medford/medford-share/data/pseudos_module/espresso/nninc/pbe/van/N.UPF
     MD5 check sum: 90d10febe142ad51ac9d5be1deb811c4
     Pseudo is Ultrasoft, Zval =  5.0
     Generated by new atomic code, or converted to UPF format
     Using radial grid of  729 points,  4 beta functions with:
                l(1) =   0
                l(2) =   0
                l(3) =   1
                l(4) =   1
     Q(r) pseudized with  8 coefficients,  rinner =    0.800   0.800   0.800

     atomic species   valence    mass     pseudopotential
        O1             6.00    15.99900     O ( 1.00)
        Ti1           12.00    47.86700     Ti( 1.00)
        C1             4.00    12.01100     C ( 1.00)
        H1             1.00     1.00800     H ( 1.00)
        N1             5.00    14.00700     N ( 1.00)

     No symmetry found

   Cartesian axes

     site n.     atom                  positions (alat units)
         1           O1  tau(   1) = (   3.2904802   0.0005063   4.7018136  )
         2           O1  tau(   2) = (   3.2900926   2.9813045   4.7018136  )
         3           Ti1 tau(   3) = (   0.0004258   2.9801865   6.0000000  )
         4           Ti1 tau(   4) = (   0.0000382   5.9609847   6.0000000  )
         5           Ti1 tau(   5) = (   3.2906075   1.4906267   6.0002472  )
         6           Ti1 tau(   6) = (   3.2902200   4.4714249   6.0002472  )
         7           O1  tau(   7) = (   1.3043587   1.4918075   6.0039043  )
         8           O1  tau(   8) = (   1.3039711   4.4726057   6.0039043  )
         9           O1  tau(   9) = (   5.2767064   1.4903225   6.0039473  )
        10           O1  tau(  10) = (   5.2763189   4.4711207   6.0039473  )
        11           O1  tau(  11) = (   3.2906025   0.0005020   7.3038282  )
        12           O1  tau(  12) = (   3.2902150   2.9813002   7.3038282  )
        13           O1  tau(  13) = (   0.0006271   0.0005054   7.9858123  )
        14           O1  tau(  14) = (   0.0002396   2.9813036   7.9858123  )
        15           Ti1 tau(  15) = (   3.2350752   0.0608747   9.1773017  )
        16           Ti1 tau(  16) = (   3.2297482   3.0449837   9.2258248  )
        17           Ti1 tau(  17) = (   6.5035314   4.4790947   9.3419400  )
        18           O1  tau(  18) = (   4.5942328   1.4918067   9.2879030  )
        19           O1  tau(  19) = (   4.5938453   4.4726049   9.2879030  )
        20           O1  tau(  20) = (   1.9868534   1.4903216   9.2879459  )
        21           O1  tau(  21) = (   1.9864658   4.4711199   9.2879459  )
        22           Ti1 tau(  22) = (   6.5047199   1.5482117   9.3251357  )
        23           O1  tau(  23) = (   6.5709586   2.9893791  10.5365161  )
        24           O1  tau(  24) = (   6.5791863   0.0068326  10.5847705  )
        25           O1  tau(  25) = (   3.2737170   2.9471243  11.2864913  )
        26           O1  tau(  26) = (   3.2757665   0.0160177  11.3056520  )
        27           Ti1 tau(  27) = (   3.3024496   1.5456137  12.4328335  )
        28           Ti1 tau(  28) = (   0.0381823   0.0558990  12.5328616  )
        29           Ti1 tau(  29) = (   3.2867454   4.6490159  12.6676011  )
        30           O1  tau(  30) = (   1.2579511   1.4933188  12.6274103  )
        31           O1  tau(  31) = (   5.2930440   1.4968169  12.6131059  )
        32           O1  tau(  32) = (   1.2503383   4.4760527  12.6363980  )
        33           O1  tau(  33) = (   5.2887019   4.4660859  12.6249461  )
        34           Ti1 tau(  34) = (   6.5320965   3.0346479  12.8073368  )
        35           O1  tau(  35) = (   3.2762579   2.9735537  13.8874883  )
        36           O1  tau(  36) = (   3.2793791   5.9387796  13.8789893  )
        37           O1  tau(  37) = (   6.5412754   2.9812497  14.6926498  )
        38           O1  tau(  38) = (   6.5531526   0.0082392  14.6823945  )
        39           Ti1 tau(  39) = (   3.2668636   2.9663550  15.6683660  )
        40           Ti1 tau(  40) = (   3.2982107   5.9440960  16.3508785  )
        41           Ti1 tau(  41) = (   0.0141158   4.5598071  15.9269461  )
        42           O1  tau(  42) = (   4.5124726   4.4172202  16.0573870  )
        43           O1  tau(  43) = (   1.9821766   4.4208814  16.0404589  )
        44           O1  tau(  44) = (   4.4954461   1.5000296  16.1066544  )
        45           O1  tau(  45) = (   1.9782815   1.5221889  16.0619205  )
        46           Ti1 tau(  46) = (   0.0269324   1.3869748  16.0447141  )
        47           O1  tau(  47) = (   6.5379229   5.9414530  17.1901000  )
        48           O1  tau(  48) = (   6.5175113   2.9840192  17.3772383  )
        49           C1  tau(  49) = (   5.9742390   3.1768082  18.5865123  )
        50           H1  tau(  50) = (   5.8341806   4.1706531  18.9840957  )
        51           N1  tau(  51) = (   5.5886240   2.1683037  19.3003467  )
        52           N1  tau(  52) = (   5.2398892   1.2394158  19.8970451  )
        53           O1  tau(  53) = (   3.2183551   5.8734210  18.1446619  )
        54           H1  tau(  54) = (   3.7026433   0.4006729  18.8445816  )

     number of k points=    10  Fermi-Dirac smearing, width (Ry)=  0.0073
                       cart. coord. in units 2pi/alat
        k(    1) = (   0.0000000   0.0000000   0.0000000), wk =   0.1250000
        k(    2) = (   0.0000000   0.0419351   0.0000000), wk =   0.2500000
        k(    3) = (   0.0000000  -0.0838702   0.0000000), wk =   0.1250000
        k(    4) = (   0.0379955   0.0000049   0.0000000), wk =   0.2500000
        k(    5) = (   0.0379955   0.0419400   0.0000000), wk =   0.2500000
        k(    6) = (   0.0379955  -0.0838652   0.0000000), wk =   0.2500000
        k(    7) = (   0.0379955  -0.0419301   0.0000000), wk =   0.2500000
        k(    8) = (  -0.0759910  -0.0000099   0.0000000), wk =   0.1250000
        k(    9) = (  -0.0759910   0.0419252   0.0000000), wk =   0.2500000
        k(   10) = (  -0.0759910  -0.0838800   0.0000000), wk =   0.1250000

     Initial potential from superposition of free atoms

     starting charge  389.99917, renormalised to  406.00000

     negative rho (up, down):  1.658E-02 0.000E+00

     %%%%%%%%%%%%%%%%%%%%%%%%%%%%%%%%%%%%%%%%%%%%%%%%%%%%%%%%%%%%%%%%%%%%%%%%
     %                                                                      %
     % You are using vdW-DF, which was implemented by the Thonhauser group. %
     % Please cite the following two papers that made this development      %
     % possible and the two reviews that describe the various versions:     %
     %                                                                      %
     %   T. Thonhauser et al., PRL 115, 136402 (2015).                      %
     %   T. Thonhauser et al., PRB 76, 125112 (2007).                       %
     %   K. Berland et al., Rep. Prog. Phys. 78, 066501 (2015).             %
     %   D.C. Langreth et al., J. Phys.: Condens. Matter 21, 084203 (2009). %
     %                                                                      %
     %                                                                      %
     % If you are calculating the stress with vdW-DF, please also cite:     %
     %                                                                      %
     %   R. Sabatini et al., J. Phys.: Condens. Matter 24, 424209 (2012).   %
     %                                                                      %
     %%%%%%%%%%%%%%%%%%%%%%%%%%%%%%%%%%%%%%%%%%%%%%%%%%%%%%%%%%%%%%%%%%%%%%%%

     Adding external electric field

     Computed dipole along edir(3) :
        Dipole              -13.7787 Ry au,        -35.0219 Debye
        Dipole field         -0.0260 Ry au,

        Potential amp.        2.4104 Ry
        Total length         46.3494 bohr

     Starting wfcs are  306 atomic wfcs
  @ DRIVER MODE: Message from server: STATUS
  @ DRIVER MODE: Message from server: POSDATA
  @ DRIVER MODE: Reading and sharing cell
  @ DRIVER MODE: Reading and sharing positions
  @ DRIVER MODE: Received positions

     Self-consistent Calculation

     iteration #  1     ecut=    29.40 Ry     beta= 0.05
     Davidson diagonalization with overlap
     c_bands:  1 eigenvalues not converged
     c_bands:  1 eigenvalues not converged
     c_bands:  5 eigenvalues not converged
     ethr =  1.00E-05,  avg # of iterations = 31.1

[...]

     total energy              =   -2306.68068947 Ry
     estimated scf accuracy    <    7908.11860435 Ry

     iteration #  2     ecut=    29.40 Ry     beta= 0.05
     Davidson diagonalization with overlap
     ethr =  1.00E-02,  avg # of iterations = 27.2

[...]

     iteration # 42     ecut=    29.40 Ry     beta= 0.05
     Davidson diagonalization with overlap
     c_bands:  1 eigenvalues not converged
     ethr =  9.37E-07,  avg # of iterations =  9.5

[...]

     total energy              =   -3002.64634508 Ry
     estimated scf accuracy    <       0.00000008 Ry

     iteration # 73     ecut=    29.40 Ry     beta= 0.05
     Davidson diagonalization with overlap
     ethr =  1.85E-11,  avg # of iterations =  5.4

     negative rho (up, down):  1.646E-02 0.000E+00

     Adding external electric field

     Computed dipole along edir(3) :
        Dipole                0.4154 Ry au,          1.0559 Debye
        Dipole field          0.0008 Ry au,

        Potential amp.       -0.0727 Ry
        Total length         46.3494 bohr

     End of self-consistent calculation

          k = 0.0000 0.0000 0.0000 ( 18029 PWs)   bands (ev):

   -56.2516 -56.1949 -55.7641 -55.7077 -55.7057 -55.6893 -55.6581 -55.6503
   -55.6218 -55.6118 -55.5710 -55.5538 -55.4890 -55.3179 -54.9023 -54.8683
   -32.6666 -32.5277 -32.4623 -32.4218 -32.3233 -32.2912 -32.2457 -32.2166
   -32.2007 -32.0985 -32.0651 -32.0053 -32.0013 -31.9940 -31.9798 -31.9611
   -31.9521 -31.9487 -31.9282 -31.9197 -31.8679 -31.8637 -31.8599 -31.8561
   -31.8538 -31.8371 -31.8340 -31.8163 -31.8135 -31.8093 -31.8020 -31.7718
   -31.7697 -31.7690 -31.7433 -31.7309 -31.7246 -31.7187 -31.6907 -31.5778
   -31.5364 -31.5281 -31.2989 -31.2402 -31.2160 -31.1154 -31.0301 -30.9189
   -20.5492 -18.6851 -16.4850 -16.4565 -16.3071 -16.1019 -15.9426 -15.8703
   -15.6789 -15.5910 -15.5322 -15.5020 -15.4695 -15.3883 -15.3535 -15.3016
   -15.2565 -15.2417 -15.2184 -15.2011 -15.1896 -15.1872 -15.1839 -15.1541
   -15.1127 -15.0150 -14.9476 -14.9104 -14.8912 -14.8813 -14.8407 -14.5317
   -13.5423 -13.4042 -13.2947  -6.9400  -5.8964  -4.9181  -4.3548  -3.9599
    -3.7851  -3.6924  -3.6305  -3.5676  -3.5284  -3.3392  -3.3065  -3.1487
    -3.0266  -2.9446  -2.8724  -2.8551  -2.8304  -2.7926  -2.7345  -2.6995
    -2.6686  -2.6386  -2.5810  -2.5409  -2.5135  -2.4816  -2.4678  -2.4308
    -2.4125  -2.4072  -2.2666  -2.2202  -2.1772  -2.1719  -2.1474  -2.1257
    -2.1031  -2.0692  -2.0562  -2.0072  -1.9278  -1.8431  -1.8269  -1.7448
    -1.7106  -1.5353  -1.4738  -1.3989  -1.3682  -1.2036  -1.1760  -1.1681
    -1.1465  -1.1262  -1.0028  -0.9702  -0.9349  -0.9227  -0.8856  -0.8656
    -0.8408  -0.7347  -0.6702  -0.6311  -0.6155  -0.5498  -0.4526  -0.3828
    -0.3533  -0.3209  -0.2873  -0.1840  -0.1529  -0.1116  -0.1041  -0.0422
    -0.0089   0.0140   0.0712   0.0982   0.1509   0.1659   0.1862   0.2251
     0.2351   0.2816   0.3504   0.4139   0.5105   0.5307   0.5542   0.5930
     0.6733   0.7483   0.8285   1.0103   1.1157   1.1558   1.3200   1.3659
     1.6664   1.7140   2.5289   3.0390   3.1911   3.4541   3.5062   3.5418
     3.5832   3.6383   3.7690   3.8796   3.9551

[...]

          k = 0.0380-0.0419 0.0000 ( 17876 PWs)   bands (ev):

[...]

          k =-0.0760-0.0000 0.0000 ( 17886 PWs)   bands (ev):

[...]

          k =-0.0760-0.0839 0.0000 ( 17948 PWs)   bands (ev):

   -56.2461 -56.2003 -55.7616 -55.7062 -55.6981 -55.6849 -55.6655 -55.6527
   -55.6263 -55.6027 -55.5801 -55.5548 -55.4873 -55.3195 -54.8855 -54.8850
   -32.5241 -32.5022 -32.4648 -32.4632 -32.3900 -32.3520 -32.1494 -32.0660
   -32.0569 -32.0196 -32.0105 -31.9781 -31.9770 -31.9735 -31.9508 -31.9452
   -31.9362 -31.9306 -31.9294 -31.9206 -31.9071 -31.9043 -31.8793 -31.8755
   -31.8728 -31.8665 -31.8661 -31.8602 -31.8420 -31.8371 -31.8221 -31.8192
   -31.8157 -31.8057 -31.7987 -31.7736 -31.7581 -31.7235 -31.6944 -31.6520
   -31.5766 -31.5308 -31.2291 -31.2289 -31.1144 -31.1122 -31.0722 -31.0711
   -20.5477 -18.6734 -16.4528 -15.8308 -15.8213 -15.7890 -15.7489 -15.7017
   -15.6880 -15.6202 -15.6110 -15.5833 -15.5030 -15.4397 -15.3867 -15.3622
   -15.3588 -15.3360 -15.3072 -15.2678 -15.2461 -15.2368 -15.2273 -15.1715
   -15.1498 -15.1474 -15.1210 -15.1002 -15.0764 -15.0329 -14.8960 -14.6899
   -13.5496 -13.3991 -13.3972  -6.9120  -5.9116  -4.9174  -4.3419  -3.6057
    -3.2923  -3.0897  -3.0597  -2.9793  -2.9227  -2.8251  -2.8058  -2.7876
    -2.7718  -2.7586  -2.7326  -2.7033  -2.6541  -2.6254  -2.5911  -2.5800
    -2.5725  -2.5524  -2.5450  -2.5134  -2.4971  -2.4793  -2.4609  -2.4431
    -2.4291  -2.4149  -2.3436  -2.3114  -2.2771  -2.1115  -2.0987  -2.0958
    -2.0699  -2.0523  -2.0431  -1.9822  -1.9200  -1.9105  -1.8594  -1.8442
    -1.7649  -1.6993  -1.5379  -1.4994  -1.4719  -1.3958  -1.3367  -1.3032
    -1.2809  -1.2470  -1.2148  -1.2047  -1.1622  -1.1110  -1.0322  -1.0096
    -0.9597  -0.9519  -0.9426  -0.8589  -0.7876  -0.7718  -0.7271  -0.7078
    -0.6835  -0.6458  -0.5914  -0.5572  -0.5442  -0.5312  -0.4342  -0.3839
    -0.3295  -0.2287  -0.1907  -0.1317  -0.0227   0.0638   0.0753   0.1723
     0.2144   0.3138   0.3504   0.4064   0.4446   0.4705   0.5004   0.6169
     0.6366   0.6830   0.7605   0.7775   0.8062   0.8558   1.5046   1.5120
     1.5225   1.5240   2.4476   3.5612   3.5890   3.6075   3.6464   3.8442
     3.8750   3.8917   3.9210   3.9388   3.9933

     the Fermi energy is     2.8408 ev

!    total energy              =   -3002.64636165 Ry
     estimated scf accuracy    <       0.00000003 Ry
     smearing contrib. (-TS)   =      -0.00425201 Ry
     internal energy E=F+TS    =   -3002.64210964 Ry

     The total energy is F=E-TS. E is the sum of the following terms:
     one-electron contribution =  -23370.19984078 Ry
     hartree contribution      =   11778.95935951 Ry
     xc contribution           =    -498.78614511 Ry
     ewald contribution        =    9087.38419106 Ry
     electric field correction =       0.00032568 Ry

     convergence has been achieved in  73 iterations

     Forces acting on atoms (cartesian axes, Ry/au):

     atom    1 type  1   force =     0.00016558    0.00010446    0.09956708
     atom    2 type  1   force =     0.00014690    0.00020955    0.09907066
     atom    3 type  2   force =     0.00018338    0.00034313    0.12391122
     atom    4 type  2   force =     0.00044482    0.00004717    0.13849360
     atom    5 type  2   force =    -0.00009820    0.00965548   -0.15998078
     atom    6 type  2   force =     0.00009487   -0.00873399   -0.15976915
     atom    7 type  1   force =    -0.07910030    0.00146262   -0.03323007
     atom    8 type  1   force =    -0.07913042   -0.00181591   -0.03326833
     atom    9 type  1   force =     0.07905779    0.00179233   -0.03330869
     atom   10 type  1   force =     0.07908563   -0.00146993   -0.03328628
     atom   11 type  1   force =    -0.00114321    0.00062972    0.04293084
     atom   12 type  1   force =    -0.00115046    0.00003801    0.04558695
     atom   13 type  1   force =    -0.00039528   -0.00173898   -0.05063262
     atom   14 type  1   force =    -0.00085955    0.00123437   -0.04784035
     atom   15 type  2   force =    -0.00033508   -0.00004669    0.00009689
     atom   16 type  2   force =    -0.00033213    0.00005262   -0.00018122
     atom   17 type  2   force =     0.00023145   -0.00038852   -0.00017103
     atom   18 type  1   force =    -0.01155289   -0.00689809   -0.00023600
     atom   19 type  1   force =    -0.01368104    0.00098170    0.00211853
     atom   20 type  1   force =     0.01285433   -0.00248596   -0.00225399
     atom   21 type  1   force =     0.01410916    0.00576327    0.00037128
     atom   22 type  2   force =     0.00030916    0.00005506    0.00024100
     atom   23 type  1   force =    -0.00010031   -0.00009040   -0.00008186
     atom   24 type  1   force =    -0.00025574    0.00000113    0.00036298
     atom   25 type  1   force =     0.00023278    0.00031359   -0.00018141
     atom   26 type  1   force =     0.00035119    0.00013011   -0.00035214
     atom   27 type  2   force =    -0.00031289   -0.00045987    0.00036018
     atom   28 type  2   force =     0.00052323   -0.00029697   -0.00003672
     atom   29 type  2   force =    -0.00015258    0.00027737    0.00022141
     atom   30 type  1   force =    -0.00033836   -0.00035699   -0.00025234
     atom   31 type  1   force =     0.00049867   -0.00004191    0.00012257
     atom   32 type  1   force =    -0.00031388    0.00039682   -0.00000137
     atom   33 type  1   force =     0.00025086    0.00033888    0.00010002
     atom   34 type  2   force =     0.00041076    0.00018432   -0.00030018
     atom   35 type  1   force =     0.00005388   -0.00014058   -0.00042965
     atom   36 type  1   force =     0.00007469   -0.00007154    0.00014691
     atom   37 type  1   force =     0.00000655   -0.00024991    0.00055434
     atom   38 type  1   force =     0.00004526    0.00049376   -0.00005034
     atom   39 type  2   force =     0.00004356    0.00071850    0.00035035
     atom   40 type  2   force =    -0.00008038   -0.00081792   -0.00051317
     atom   41 type  2   force =    -0.00029273    0.00041226   -0.00014976
     atom   42 type  1   force =     0.00039541   -0.00006475   -0.00043538
     atom   43 type  1   force =    -0.00050852    0.00002487   -0.00032604
     atom   44 type  1   force =     0.00030433   -0.00015323    0.00083484
     atom   45 type  1   force =    -0.00057734   -0.00005112    0.00068969
     atom   46 type  2   force =    -0.00008513    0.00023922   -0.00020534
     atom   47 type  1   force =    -0.00000062    0.00030218    0.00010996
     atom   48 type  1   force =     0.00034391   -0.00003835   -0.00045538
     atom   49 type  3   force =     0.00030607    0.00037297   -0.00032625
     atom   50 type  4   force =    -0.00012994    0.00029214    0.00059626
     atom   51 type  5   force =    -0.00026030   -0.00063942    0.00025140
     atom   52 type  5   force =     0.00014527   -0.00057169    0.00007139
     atom   53 type  1   force =     0.00470984    0.00562040    0.00687643
     atom   54 type  4   force =    -0.00419202   -0.00486531   -0.00578095

     Total force =     0.380482     Total SCF correction =     0.000409
  @ DRIVER MODE: Message from server: STATUS
  @ DRIVER MODE: Message from server: GETFORCE
  @ DRIVER MODE: Returning v,forces,stress,ensemble

     Writing output data file ./calc.save/
  @ DRIVER MODE: Message from server: EXIT
  @ DRIVE MODE: Exiting

     General routines

     Parallel routines

   This run was terminated on:   3:33: 5  23Sep2021

   JOB DONE.