     Program PWSCF v.6.7GPU starts on 24Aug2021 at 22:22:16

     R & G space division:  proc/nbgrp/npool/nimage =       6
     Reading input from /storage/home/hcoda1/3/ntian30/research/carbon/CH3_vib_end_on/ads_slab/CH3N2H_a/out_0012/pw.inp
Warning: card &CELL ignored
Warning: card   CELL_DYNAMICS='IPI', ignored
Warning: card / ignored

     Current dimensions of program PWSCF are:
     Max number of different atomic species (ntypx) = 10
     Max number of k-points (npk) =  40000
     Max angular momentum in pseudopotentials (lmaxx) =  3
     Presently no symmetry can be used with electric field

     Message from routine cell_base_init:
     DEPRECATED: use true lattice parameter, not A to a.u. conversion factor

     IMPORTANT: XC functional enforced from input :
     Exchange-correlation= BEEF-VDW
                           (   1   4  43  14   2   0   0)
     Any further DFT definition will be discarded
     Please, verify this is what you really want

  @ DRIVER MODE: Connecting to
 qe_1139763_2643869.sched-torque.pace.gatech.edu6j3xntla_scratch
  using UNIX socket
  @ DRIVER MODE: Message from server: STATUS
  @ DRIVER MODE: Message from server: INIT
  @ DRIVER MODE: Receiving replica           0          -1
  @ DRIVER MODE: Receiving encoded integer          25
  @ DRIVER MODE:  SCF:  T  FORCE:  T  STRESS:  F  VC:  F  ENSEMBLE:  F
  @ DRIVER MODE:  SCF:  T  FORCE:  T  STRESS:  F  VC:  F  ENSEMBLE:  F

     Using Slab Decomposition

     bravais-lattice index     =            0
     lattice parameter (alat)  =       1.8897  a.u.
     unit-cell volume          =    6658.9804 (a.u.)^3
     number of atoms/cell      =           54
     number of atomic types    =            5
     number of electrons       =       396.00
     number of Kohn-Sham states=          208
     kinetic-energy cutoff     =      29.3995  Ry
     charge density cutoff     =     293.9946  Ry
     scf convergence threshold =      7.3E-08
     mixing beta               =       0.0500
     number of iterations used =            8  plain     mixing
     Exchange-correlation= BEEF-VDW
                           (   1   4  43  14   2   0   0)

     celldm(1)=   1.889726  celldm(2)=   0.000000  celldm(3)=   0.000000
     celldm(4)=   0.000000  celldm(5)=   0.000000  celldm(6)=   0.000000

     crystal axes: (cart. coord. in units of alat)
               a(1) = (   6.579727   0.000000   0.000000 )
               a(2) = (  -0.000775   5.961596   0.000000 )
               a(3) = (   0.000000   0.000000  25.155947 )

     reciprocal axes: (cart. coord. in units 2 pi/alat)
               b(1) = (  0.151982  0.000020  0.000000 )
               b(2) = (  0.000000  0.167740  0.000000 )
               b(3) = (  0.000000  0.000000  0.039752 )

     PseudoPot. # 1 for Ti read from file:
     /storage/coda1/p-amedford6/0/shared/rich_project_chbe-medford/medford-share/data/pseudos_module/espresso/nninc/pbe/van/Ti.UPF
     MD5 check sum: 8e4df49b7f0d34bbd5052bf3f5ea0213
     Pseudo is Ultrasoft, Zval = 12.0
     Generated by new atomic code, or converted to UPF format
     Using radial grid of  851 points,  6 beta functions with:
                l(1) =   0
                l(2) =   0
                l(3) =   1
                l(4) =   1
                l(5) =   2
                l(6) =   2
     Q(r) pseudized with  8 coefficients,  rinner =    1.000   1.000   1.000
                                                       1.000   1.000

     PseudoPot. # 2 for O  read from file:
     /storage/coda1/p-amedford6/0/shared/rich_project_chbe-medford/medford-share/data/pseudos_module/espresso/nninc/pbe/van/O.UPF
     MD5 check sum: 78c19812648e8988a0fe644b0f25305e
     Pseudo is Ultrasoft, Zval =  6.0
     Generated by new atomic code, or converted to UPF format
     Using radial grid of  737 points,  4 beta functions with:
                l(1) =   0
                l(2) =   0
                l(3) =   1
                l(4) =   1
     Q(r) pseudized with  8 coefficients,  rinner =    0.800   0.800   0.800

     PseudoPot. # 3 for N  read from file:
     /storage/coda1/p-amedford6/0/shared/rich_project_chbe-medford/medford-share/data/pseudos_module/espresso/nninc/pbe/van/N.UPF
     MD5 check sum: 90d10febe142ad51ac9d5be1deb811c4
     Pseudo is Ultrasoft, Zval =  5.0
     Generated by new atomic code, or converted to UPF format
     Using radial grid of  729 points,  4 beta functions with:
                l(1) =   0
                l(2) =   0
                l(3) =   1
                l(4) =   1
     Q(r) pseudized with  8 coefficients,  rinner =    0.800   0.800   0.800

     PseudoPot. # 4 for C  read from file:
     /storage/coda1/p-amedford6/0/shared/rich_project_chbe-medford/medford-share/data/pseudos_module/espresso/nninc/pbe/van/C.UPF
     MD5 check sum: 1a69bf6b8db32088f5b2163dbdb77a27
     Pseudo is Ultrasoft, Zval =  4.0
     Generated by new atomic code, or converted to UPF format
     Using radial grid of  721 points,  4 beta functions with:
                l(1) =   0
                l(2) =   0
                l(3) =   1
                l(4) =   1
     Q(r) pseudized with  8 coefficients,  rinner =    0.800   0.800   0.800

     PseudoPot. # 5 for H  read from file:
     /storage/coda1/p-amedford6/0/shared/rich_project_chbe-medford/medford-share/data/pseudos_module/espresso/nninc/pbe/van/H.UPF
     MD5 check sum: b5ee9d7bfd3a09ee7748110bda690ff7
     Pseudo is Ultrasoft, Zval =  1.0
     Generated by new atomic code, or converted to UPF format
     Using radial grid of  615 points,  1 beta functions with:
                l(1) =   0
     Q(r) pseudized with  8 coefficients,  rinner =    0.800

     atomic species   valence    mass     pseudopotential
        Ti1           12.00    47.86700     Ti( 1.00)
        O1             6.00    15.99900     O ( 1.00)
        N1             5.00    14.00700     N ( 1.00)
        C1             4.00    12.01100     C ( 1.00)
        H1             1.00     1.00800     H ( 1.00)

     No symmetry found

   Cartesian axes

     site n.     atom                  positions (alat units)
         1           Ti1 tau(   1) = (   0.0004258   2.9801865   6.0000000  )
         2           Ti1 tau(   2) = (   3.2906075   1.4906267   6.0002472  )
         3           O1  tau(   3) = (   0.0006271   0.0005054   7.9858123  )
         4           O1  tau(   4) = (   3.2906025   0.0005020   7.3038282  )
         5           O1  tau(   5) = (   4.5942328   1.4918067   9.2879030  )
         6           O1  tau(   6) = (   1.9868534   1.4903216   9.2879459  )
         7           Ti1 tau(   7) = (   3.2907910   2.8959150   9.1758416  )
         8           Ti1 tau(   8) = (   0.0015273   1.4827037   9.2680791  )
         9           O1  tau(   9) = (   3.2896288   0.0042867  11.3205077  )
        10           O1  tau(  10) = (   0.0116148   5.9584955  10.6183126  )
        11           O1  tau(  11) = (   1.2848067   1.4985890  12.6232755  )
        12           O1  tau(  12) = (   5.2688617   1.4893877  12.6055203  )
        13           Ti1 tau(  13) = (   0.0799559   3.0171279  12.6206390  )
        14           Ti1 tau(  14) = (   3.4009582   1.4891986  12.4726338  )
        15           O1  tau(  15) = (   6.5707323   0.0080309  14.6263129  )
        16           O1  tau(  16) = (   3.2902489   0.0120312  13.8979102  )
        17           O1  tau(  17) = (   4.5126121   1.5346005  16.0500440  )
        18           O1  tau(  18) = (   2.0453867   1.5362785  16.0447169  )
        19           Ti1 tau(  19) = (   3.2767562   3.0203775  15.6892921  )
        20           Ti1 tau(  20) = (   6.5596632   1.5778499  15.8310978  )
        21           O1  tau(  21) = (   3.2904802   0.0005063   4.7018136  )
        22           O1  tau(  22) = (   6.5709656   0.0671247  17.2345223  )
        23           O1  tau(  23) = (   1.3043587   1.4918075   6.0039043  )
        24           O1  tau(  24) = (   5.2767064   1.4903225   6.0039473  )
        25           Ti1 tau(  25) = (   0.0000382   5.9609847   6.0000000  )
        26           Ti1 tau(  26) = (   3.2902200   4.4714249   6.0002472  )
        27           O1  tau(  27) = (   0.0002396   2.9813036   7.9858123  )
        28           O1  tau(  28) = (   3.2902150   2.9813002   7.3038282  )
        29           O1  tau(  29) = (   4.5938453   4.4726049   9.2879030  )
        30           O1  tau(  30) = (   1.9864658   4.4711199   9.2879459  )
        31           Ti1 tau(  31) = (   3.2891106   5.8743827   9.1763621  )
        32           Ti1 tau(  32) = (   0.0006254   4.4649316   9.2693709  )
        33           O1  tau(  33) = (   3.2919429   2.9835650  11.3172650  )
        34           O1  tau(  34) = (   0.0092240   2.9805883  10.6323155  )
        35           O1  tau(  35) = (   1.2842535   4.4799506  12.6241420  )
        36           O1  tau(  36) = (   5.2755836   4.4732255  12.6042992  )
        37           Ti1 tau(  37) = (   0.0783641   0.0295629  12.6394962  )
        38           Ti1 tau(  38) = (   3.4022659   4.4693352  12.4708195  )
        39           O1  tau(  39) = (   6.5693815   2.9799975  14.6326336  )
        40           O1  tau(  40) = (   3.2899495   3.0014797  13.8849495  )
        41           O1  tau(  41) = (   4.5062741   4.5069571  16.0893315  )
        42           O1  tau(  42) = (   2.0480812   4.5060041  16.0753496  )
        43           Ti1 tau(  43) = (   3.2742444   0.0367023  15.7020416  )
        44           Ti1 tau(  44) = (   6.5658628   4.6518251  16.1481936  )
        45           O1  tau(  45) = (   3.2900926   2.9813045   4.7018136  )
        46           O1  tau(  46) = (   1.3039711   4.4726057   6.0039043  )
        47           O1  tau(  47) = (   5.2763189   4.4711207   6.0039473  )
        48           N1  tau(  48) = (   6.5201982   2.6597193  18.5868863  )
        49           N1  tau(  49) = (   6.5663212   2.9659568  17.3351533  )
        50           C1  tau(  50) = (   0.1092964   3.6297355  19.6533281  )
        51           H1  tau(  51) = (   6.1365678   4.5355971  19.4091500  )
        52           H1  tau(  52) = (   6.3142024   3.1981282  20.5813133  )
        53           H1  tau(  53) = (   1.1661384   3.8973747  19.7839464  )
        54           H1  tau(  54) = (   6.5756389   1.6632157  18.8047554  )

     number of k points=    10  Fermi-Dirac smearing, width (Ry)=  0.0073
                       cart. coord. in units 2pi/alat
        k(    1) = (   0.0000000   0.0000000   0.0000000), wk =   0.1250000
        k(    2) = (   0.0000000   0.0419351   0.0000000), wk =   0.2500000
        k(    3) = (   0.0000000  -0.0838702   0.0000000), wk =   0.1250000
        k(    4) = (   0.0379955   0.0000049   0.0000000), wk =   0.2500000
        k(    5) = (   0.0379955   0.0419400   0.0000000), wk =   0.2500000
        k(    6) = (   0.0379955  -0.0838652   0.0000000), wk =   0.2500000
        k(    7) = (   0.0379955  -0.0419301   0.0000000), wk =   0.2500000
        k(    8) = (  -0.0759910  -0.0000099   0.0000000), wk =   0.1250000
        k(    9) = (  -0.0759910   0.0419252   0.0000000), wk =   0.2500000
        k(   10) = (  -0.0759910  -0.0838800   0.0000000), wk =   0.1250000

     Initial potential from superposition of free atoms

     starting charge  379.99915, renormalised to  396.00000

     negative rho (up, down):  1.474E-02 0.000E+00

     %%%%%%%%%%%%%%%%%%%%%%%%%%%%%%%%%%%%%%%%%%%%%%%%%%%%%%%%%%%%%%%%%%%%%%%%
     %                                                                      %
     % You are using vdW-DF, which was implemented by the Thonhauser group. %
     % Please cite the following two papers that made this development      %
     % possible and the two reviews that describe the various versions:     %
     %                                                                      %
     %   T. Thonhauser et al., PRL 115, 136402 (2015).                      %
     %   T. Thonhauser et al., PRB 76, 125112 (2007).                       %
     %   K. Berland et al., Rep. Prog. Phys. 78, 066501 (2015).             %
     %   D.C. Langreth et al., J. Phys.: Condens. Matter 21, 084203 (2009). %
     %                                                                      %
     %                                                                      %
     % If you are calculating the stress with vdW-DF, please also cite:     %
     %                                                                      %
     %   R. Sabatini et al., J. Phys.: Condens. Matter 24, 424209 (2012).   %
     %                                                                      %
     %%%%%%%%%%%%%%%%%%%%%%%%%%%%%%%%%%%%%%%%%%%%%%%%%%%%%%%%%%%%%%%%%%%%%%%%

     Adding external electric field

     Computed dipole along edir(3) :
        Dipole               -9.2744 Ry au,        -23.5732 Debye
        Dipole field         -0.0175 Ry au,

        Potential amp.        1.6224 Ry
        Total length         46.3494 bohr

     Starting wfcs are  300 atomic wfcs
  @ DRIVER MODE: Message from server: STATUS
  @ DRIVER MODE: Message from server: POSDATA
  @ DRIVER MODE: Reading and sharing cell
  @ DRIVER MODE: Reading and sharing positions
  @ DRIVER MODE: Received positions

     Self-consistent Calculation

     iteration #  1     ecut=    29.40 Ry     beta= 0.05
     Davidson diagonalization with overlap
     c_bands:  1 eigenvalues not converged
     c_bands:  1 eigenvalues not converged
     c_bands:  1 eigenvalues not converged
     ethr =  1.00E-05,  avg # of iterations = 18.1

[...]

     total energy              =   -2584.14370379 Ry
     estimated scf accuracy    <    3958.98067891 Ry

     iteration #  2     ecut=    29.40 Ry     beta= 0.05
     Davidson diagonalization with overlap
     ethr =  1.00E-02,  avg # of iterations = 22.6

[...]

     iteration # 56     ecut=    29.40 Ry     beta= 0.05
     Davidson diagonalization with overlap
     c_bands:  1 eigenvalues not converged
     ethr =  5.18E-08,  avg # of iterations =  3.7

[...]

     total energy              =   -2940.39751997 Ry
     estimated scf accuracy    <       0.00000008 Ry

     iteration # 70     ecut=    29.40 Ry     beta= 0.05
     Davidson diagonalization with overlap
     ethr =  1.96E-11,  avg # of iterations =  6.5

     negative rho (up, down):  1.566E-02 0.000E+00

     Adding external electric field

     Computed dipole along edir(3) :
        Dipole                1.1472 Ry au,          2.9160 Debye
        Dipole field          0.0022 Ry au,

        Potential amp.       -0.2007 Ry
        Total length         46.3494 bohr

     End of self-consistent calculation

          k = 0.0000 0.0000 0.0000 ( 18029 PWs)   bands (ev):

   -55.6269 -55.5929 -55.5382 -55.5006 -55.3913 -55.3739 -55.3575 -55.3344
   -55.3320 -55.3315 -55.3006 -55.2611 -54.7309 -54.5690 -54.5629 -54.5349
   -32.1014 -32.0821 -31.9211 -31.9082 -31.8835 -31.8478 -31.8336 -31.8239
   -31.7801 -31.7756 -31.7666 -31.7237 -31.7186 -31.7004 -31.6874 -31.6856
   -31.6691 -31.6573 -31.6348 -31.6128 -31.5941 -31.5698 -31.5631 -31.5608
   -31.5358 -31.5332 -31.5268 -31.5207 -31.5151 -31.4980 -31.4931 -31.4879
   -31.4874 -31.4466 -31.4432 -31.3762 -31.2284 -30.9748 -30.9532 -30.9387
   -30.9007 -30.8901 -30.8674 -30.7916 -30.7698 -30.7421 -30.7053 -30.5943
   -18.1456 -16.2666 -16.0357 -15.7604 -15.6674 -15.6378 -15.5177 -15.3814
   -15.2787 -15.1888 -15.1427 -15.0910 -15.0896 -15.0586 -15.0243 -14.9896
   -14.9662 -14.9223 -14.9203 -14.8857 -14.8747 -14.8658 -14.7390 -14.7369
   -14.7062 -14.6119 -14.6016 -14.5433 -14.5077 -14.0919 -13.0712 -12.9554
   -12.0634  -8.9595  -5.7728  -4.4836  -4.2002  -3.6488  -3.5196  -3.4912
    -3.3899  -3.2318  -3.1241  -3.0687  -2.9790  -2.7502  -2.7185  -2.7076
    -2.6883  -2.6323  -2.4299  -2.4027  -2.3776  -2.3333  -2.3258  -2.3224
    -2.3076  -2.2475  -2.1910  -2.1153  -2.0362  -2.0266  -1.9586  -1.9446
    -1.9216  -1.9000  -1.8494  -1.8074  -1.7851  -1.7489  -1.7238  -1.7223
    -1.6901  -1.6055  -1.4973  -1.3637  -1.3356  -1.2928  -1.2479  -1.1818
    -1.0167  -1.0109  -0.9677  -0.9587  -0.9324  -0.8525  -0.8012  -0.7002
    -0.6771  -0.5948  -0.5730  -0.5497  -0.4736  -0.3863  -0.3634  -0.3483
    -0.3386  -0.3234  -0.2721  -0.1670  -0.0577  -0.0335   0.0863   0.0962
     0.1318   0.1798   0.1908   0.2750   0.3151   0.3251   0.3811   0.3829
     0.3914   0.4338   0.4568   0.5123   0.5667   0.6567   0.7295   0.7958
     0.8311   0.9513   1.0235   1.0914   1.1097   1.2433   1.3680   1.3907
     1.4527   1.6432   1.6505   2.0212   2.0655   3.5439   3.5658   3.6589
     3.7008   3.7964   3.8353   3.9823   4.0237   4.0710   4.1848   4.2152

[...]

          k = 0.0380-0.0419 0.0000 ( 17876 PWs)   bands (ev):

[...]

          k =-0.0760-0.0000 0.0000 ( 17886 PWs)   bands (ev):

[...]

          k =-0.0760-0.0839 0.0000 ( 17948 PWs)   bands (ev):

   -55.6100 -55.6096 -55.5251 -55.5136 -55.3744 -55.3742 -55.3650 -55.3403
   -55.3274 -55.3189 -55.3162 -55.2656 -54.7294 -54.5644 -54.5520 -54.5518
   -31.9170 -31.9168 -31.9063 -31.9063 -31.8898 -31.8806 -31.7838 -31.7741
   -31.7500 -31.7373 -31.7309 -31.7304 -31.6864 -31.6835 -31.6804 -31.6732
   -31.6596 -31.6594 -31.6556 -31.6403 -31.5955 -31.5898 -31.5711 -31.5677
   -31.5643 -31.5628 -31.5609 -31.5532 -31.5493 -31.5473 -31.5361 -31.5338
   -31.5308 -31.5175 -31.4917 -31.4635 -31.1378 -30.9752 -30.9397 -30.9268
   -30.8802 -30.8800 -30.7894 -30.7878 -30.7876 -30.7711 -30.7485 -30.7484
   -18.1403 -15.6906 -15.6793 -15.4945 -15.4894 -15.4334 -15.4274 -15.2709
   -15.2699 -15.2562 -15.2476 -15.1195 -15.1158 -15.0946 -15.0881 -15.0465
   -15.0410 -15.0126 -15.0048 -15.0023 -14.9972 -14.9796 -14.9324 -14.8830
   -14.8775 -14.7109 -14.7045 -14.5862 -14.5587 -14.2282 -13.0575 -13.0574
   -12.0640  -8.9693  -5.7642  -4.4249  -4.2029  -2.9989  -2.9803  -2.9686
    -2.6927  -2.6875  -2.6614  -2.6500  -2.4481  -2.4347  -2.4129  -2.4071
    -2.3810  -2.3736  -2.3603  -2.3528  -2.2762  -2.2633  -2.2490  -2.2388
    -2.2207  -2.2139  -2.1996  -2.1907  -2.1809  -2.1466  -2.1211  -2.0879
    -2.0530  -2.0333  -1.9168  -1.8088  -1.7203  -1.7128  -1.6805  -1.6740
    -1.6673  -1.6605  -1.6321  -1.5272  -1.5021  -1.4342  -1.2918  -1.2507
    -1.2413  -1.1923  -1.1041  -1.0264  -0.9581  -0.9499  -0.8944  -0.8511
    -0.8264  -0.7457  -0.7215  -0.7124  -0.6500  -0.6112  -0.5661  -0.5555
    -0.5490  -0.4843  -0.4405  -0.3845  -0.3572  -0.3262  -0.2837  -0.2612
    -0.2004  -0.1697  -0.0977  -0.0926  -0.0439  -0.0357   0.0244   0.1732
     0.2224   0.4803   0.4980   0.5232   0.6443   0.7243   0.7307   0.7525
     0.7817   0.8326   0.8435   0.9799   0.9920   0.9991   1.1644   1.1884
     1.2646   1.8210   1.8213   1.8846   1.8849   3.4483   3.9295   3.9476
     3.9740   3.9894   4.0651   4.0663   4.0727   4.0799   4.2595   4.2775

     the Fermi energy is     3.5214 ev

!    total energy              =   -2940.39753728 Ry
     estimated scf accuracy    <       0.00000004 Ry
     smearing contrib. (-TS)   =      -0.02324653 Ry
     internal energy E=F+TS    =   -2940.37429075 Ry

     The total energy is F=E-TS. E is the sum of the following terms:
     one-electron contribution =  -24107.06947543 Ry
     hartree contribution      =   12144.84058303 Ry
     xc contribution           =    -486.05401786 Ry
     ewald contribution        =    9507.90613575 Ry
     electric field correction =       0.00248377 Ry

     convergence has been achieved in  70 iterations

     Forces acting on atoms (cartesian axes, Ry/au):

     atom    1 type  1   force =     0.00015668   -0.00011109    0.09930293
     atom    2 type  1   force =    -0.00012919   -0.00047201   -0.17365676
     atom    3 type  2   force =    -0.00005002   -0.00000418   -0.02874690
     atom    4 type  2   force =     0.00007270   -0.00125728    0.05001328
     atom    5 type  2   force =    -0.01306701    0.00057233    0.00125472
     atom    6 type  2   force =     0.01461806    0.00138055   -0.00006888
     atom    7 type  1   force =    -0.00144623   -0.00058276   -0.00850227
     atom    8 type  1   force =     0.00087125   -0.00412482    0.04493122
     atom    9 type  2   force =    -0.00002552   -0.00065342   -0.00010859
     atom   10 type  2   force =    -0.00127354    0.00227862   -0.02803169
     atom   11 type  2   force =     0.00018134    0.00061947    0.00013446
     atom   12 type  2   force =     0.00037996    0.00040704    0.00028236
     atom   13 type  1   force =     0.00033156    0.00021257   -0.00156596
     atom   14 type  1   force =    -0.00003475    0.00049446   -0.00005778
     atom   15 type  2   force =     0.00031126    0.00033810    0.00140145
     atom   16 type  2   force =    -0.00041987   -0.00022726    0.00040555
     atom   17 type  2   force =    -0.00050105    0.00034926   -0.00018543
     atom   18 type  2   force =     0.00039713    0.00040011    0.00056502
     atom   19 type  1   force =     0.00020155    0.00005238   -0.00074499
     atom   20 type  1   force =    -0.00045143   -0.00078488    0.00036640
     atom   21 type  2   force =     0.00008937   -0.00007599    0.10276914
     atom   22 type  2   force =     0.00010478    0.00036729    0.00039830
     atom   23 type  2   force =    -0.07211443   -0.00015842   -0.02832859
     atom   24 type  2   force =     0.07211013    0.00030020   -0.02832814
     atom   25 type  1   force =     0.00012653   -0.00020027    0.09859607
     atom   26 type  1   force =    -0.00011246   -0.00046105   -0.17386609
     atom   27 type  2   force =     0.00001172   -0.00002683   -0.02802827
     atom   28 type  2   force =     0.00011410   -0.00099855    0.04946822
     atom   29 type  2   force =    -0.01338714    0.00004701    0.00131759
     atom   30 type  2   force =     0.01484514    0.00041289   -0.00002660
     atom   31 type  1   force =    -0.00139624    0.00251598   -0.00877139
     atom   32 type  1   force =     0.00106376    0.00238877    0.04525428
     atom   33 type  2   force =    -0.00012341    0.00104317    0.00071004
     atom   34 type  2   force =    -0.00069929    0.00121175   -0.03075322
     atom   35 type  2   force =     0.00067694   -0.00050443   -0.00001081
     atom   36 type  2   force =    -0.00150312   -0.00010679    0.00023832
     atom   37 type  1   force =    -0.00022755   -0.00154270   -0.00082553
     atom   38 type  1   force =     0.00071643   -0.00005274    0.00013831
     atom   39 type  2   force =     0.00031496    0.00004490    0.00103467
     atom   40 type  2   force =    -0.00041187    0.00031232    0.00050472
     atom   41 type  2   force =     0.00083574   -0.00080191    0.00030664
     atom   42 type  2   force =    -0.00080580   -0.00091322    0.00077982
     atom   43 type  1   force =     0.00035949   -0.00041731   -0.00111553
     atom   44 type  1   force =    -0.00031460   -0.00112491   -0.00010317
     atom   45 type  2   force =     0.00010849   -0.00006524    0.10278324
     atom   46 type  2   force =    -0.07213851   -0.00009795   -0.02832404
     atom   47 type  2   force =     0.07212116    0.00034136   -0.02830174
     atom   48 type  3   force =     0.00024137   -0.00321188    0.01213096
     atom   49 type  3   force =     0.00012338    0.00303198   -0.01930591
     atom   50 type  4   force =     0.00080983    0.00047441    0.00291181
     atom   51 type  5   force =    -0.00020184   -0.00060411   -0.00006429
     atom   52 type  5   force =     0.00040309    0.00021759   -0.00027464
     atom   53 type  5   force =    -0.00111052    0.00034012   -0.00112962
     atom   54 type  5   force =    -0.00075246   -0.00057264    0.00122732

     Total force =     0.372873     Total SCF correction =     0.000475
  @ DRIVER MODE: Message from server: STATUS
  @ DRIVER MODE: Message from server: GETFORCE
  @ DRIVER MODE: Returning v,forces,stress,ensemble

     Writing output data file ./calc.save/
  @ DRIVER MODE: Message from server: EXIT
  @ DRIVE MODE: Exiting

     General routines

     Parallel routines

   This run was terminated on:  22:51:58  24Aug2021

   JOB DONE.