     Program PWSCF v.6.7GPU starts on 23Sep2021 at  0:20:12

     R & G space division:  proc/nbgrp/npool/nimage =       8
     Reading input from /storage/home/hcoda1/3/ntian30/research/carbon/CxH_vib/H2O_calc/ads_slab/CH3NHNHHO_a/out_0006/pw.inp
Warning: card &CELL ignored
Warning: card   CELL_DYNAMICS='IPI', ignored
Warning: card / ignored

     Current dimensions of program PWSCF are:
     Max number of different atomic species (ntypx) = 10
     Max number of k-points (npk) =  40000
     Max angular momentum in pseudopotentials (lmaxx) =  3
     Presently no symmetry can be used with electric field

     Message from routine cell_base_init:
     DEPRECATED: use true lattice parameter, not A to a.u. conversion factor

     IMPORTANT: XC functional enforced from input :
     Exchange-correlation= BEEF-VDW
                           (   1   4  43  14   2   0   0)
     Any further DFT definition will be discarded
     Please, verify this is what you really want

  @ DRIVER MODE: Connecting to
 qe_1139763_2941006.sched-torque.pace.gatech.eduw74ru8na_scratch
  using UNIX socket
  @ DRIVER MODE: Message from server: STATUS
  @ DRIVER MODE: Message from server: INIT
  @ DRIVER MODE: Receiving replica           0          -1
  @ DRIVER MODE: Receiving encoded integer          25
  @ DRIVER MODE:  SCF:  T  FORCE:  T  STRESS:  F  VC:  F  ENSEMBLE:  F
  @ DRIVER MODE:  SCF:  T  FORCE:  T  STRESS:  F  VC:  F  ENSEMBLE:  F

     Using Slab Decomposition

     bravais-lattice index     =            0
     lattice parameter (alat)  =       1.8897  a.u.
     unit-cell volume          =    6658.9804 (a.u.)^3
     number of atoms/cell      =           57
     number of atomic types    =            5
     number of electrons       =       404.00
     number of Kohn-Sham states=          212
     kinetic-energy cutoff     =      29.3995  Ry
     charge density cutoff     =     293.9946  Ry
     scf convergence threshold =      7.3E-08
     mixing beta               =       0.0500
     number of iterations used =            8  plain     mixing
     Exchange-correlation= BEEF-VDW
                           (   1   4  43  14   2   0   0)

     celldm(1)=   1.889726  celldm(2)=   0.000000  celldm(3)=   0.000000
     celldm(4)=   0.000000  celldm(5)=   0.000000  celldm(6)=   0.000000

     crystal axes: (cart. coord. in units of alat)
               a(1) = (   6.579727   0.000000   0.000000 )
               a(2) = (  -0.000775   5.961596   0.000000 )
               a(3) = (   0.000000   0.000000  25.155947 )

     reciprocal axes: (cart. coord. in units 2 pi/alat)
               b(1) = (  0.151982  0.000020  0.000000 )
               b(2) = (  0.000000  0.167740  0.000000 )
               b(3) = (  0.000000  0.000000  0.039752 )

     PseudoPot. # 1 for Ti read from file:
     /storage/coda1/p-amedford6/0/shared/rich_project_chbe-medford/medford-share/data/pseudos_module/espresso/nninc/pbe/van/Ti.UPF
     MD5 check sum: 8e4df49b7f0d34bbd5052bf3f5ea0213
     Pseudo is Ultrasoft, Zval = 12.0
     Generated by new atomic code, or converted to UPF format
     Using radial grid of  851 points,  6 beta functions with:
                l(1) =   0
                l(2) =   0
                l(3) =   1
                l(4) =   1
                l(5) =   2
                l(6) =   2
     Q(r) pseudized with  8 coefficients,  rinner =    1.000   1.000   1.000
                                                       1.000   1.000

     PseudoPot. # 2 for O  read from file:
     /storage/coda1/p-amedford6/0/shared/rich_project_chbe-medford/medford-share/data/pseudos_module/espresso/nninc/pbe/van/O.UPF
     MD5 check sum: 78c19812648e8988a0fe644b0f25305e
     Pseudo is Ultrasoft, Zval =  6.0
     Generated by new atomic code, or converted to UPF format
     Using radial grid of  737 points,  4 beta functions with:
                l(1) =   0
                l(2) =   0
                l(3) =   1
                l(4) =   1
     Q(r) pseudized with  8 coefficients,  rinner =    0.800   0.800   0.800

     PseudoPot. # 3 for N  read from file:
     /storage/coda1/p-amedford6/0/shared/rich_project_chbe-medford/medford-share/data/pseudos_module/espresso/nninc/pbe/van/N.UPF
     MD5 check sum: 90d10febe142ad51ac9d5be1deb811c4
     Pseudo is Ultrasoft, Zval =  5.0
     Generated by new atomic code, or converted to UPF format
     Using radial grid of  729 points,  4 beta functions with:
                l(1) =   0
                l(2) =   0
                l(3) =   1
                l(4) =   1
     Q(r) pseudized with  8 coefficients,  rinner =    0.800   0.800   0.800

     PseudoPot. # 4 for C  read from file:
     /storage/coda1/p-amedford6/0/shared/rich_project_chbe-medford/medford-share/data/pseudos_module/espresso/nninc/pbe/van/C.UPF
     MD5 check sum: 1a69bf6b8db32088f5b2163dbdb77a27
     Pseudo is Ultrasoft, Zval =  4.0
     Generated by new atomic code, or converted to UPF format
     Using radial grid of  721 points,  4 beta functions with:
                l(1) =   0
                l(2) =   0
                l(3) =   1
                l(4) =   1
     Q(r) pseudized with  8 coefficients,  rinner =    0.800   0.800   0.800

     PseudoPot. # 5 for H  read from file:
     /storage/coda1/p-amedford6/0/shared/rich_project_chbe-medford/medford-share/data/pseudos_module/espresso/nninc/pbe/van/H.UPF
     MD5 check sum: b5ee9d7bfd3a09ee7748110bda690ff7
     Pseudo is Ultrasoft, Zval =  1.0
     Generated by new atomic code, or converted to UPF format
     Using radial grid of  615 points,  1 beta functions with:
                l(1) =   0
     Q(r) pseudized with  8 coefficients,  rinner =    0.800

     atomic species   valence    mass     pseudopotential
        Ti1           12.00    47.86700     Ti( 1.00)
        O1             6.00    15.99900     O ( 1.00)
        N1             5.00    14.00700     N ( 1.00)
        C1             4.00    12.01100     C ( 1.00)
        H1             1.00     1.00800     H ( 1.00)

     No symmetry found

   Cartesian axes

     site n.     atom                  positions (alat units)
         1           Ti1 tau(   1) = (   0.0004258   2.9801865   6.0000000  )
         2           Ti1 tau(   2) = (   3.2906075   1.4906267   6.0002472  )
         3           O1  tau(   3) = (   0.0006271   0.0005054   7.9858123  )
         4           O1  tau(   4) = (   3.2906025   0.0005020   7.3038282  )
         5           O1  tau(   5) = (   4.5942328   1.4918067   9.2879030  )
         6           O1  tau(   6) = (   1.9868534   1.4903216   9.2879459  )
         7           Ti1 tau(   7) = (   3.2907910   2.8959150   9.1758416  )
         8           Ti1 tau(   8) = (   0.0015273   1.4827037   9.2680791  )
         9           O1  tau(   9) = (   3.2953096   5.9421394  11.2884464  )
        10           O1  tau(  10) = (   0.0116148   5.9584955  10.6183126  )
        11           O1  tau(  11) = (   1.3041449   1.4755329  12.6321863  )
        12           O1  tau(  12) = (   5.3089623   1.4871430  12.6059879  )
        13           Ti1 tau(  13) = (   6.5683417   3.1096339  12.6902584  )
        14           Ti1 tau(  14) = (   3.3171551   1.3050273  12.6602886  )
        15           O1  tau(  15) = (   6.5441980   0.0188234  14.6400653  )
        16           O1  tau(  16) = (   3.3305379   0.0354930  13.9003223  )
        17           O1  tau(  17) = (   4.5569828   1.5958521  16.0354584  )
        18           O1  tau(  18) = (   2.0254723   1.5302355  15.9749146  )
        19           Ti1 tau(  19) = (   3.2479256   3.0467527  15.6517507  )
        20           Ti1 tau(  20) = (   6.4631478   1.5268535  15.8454044  )
        21           O1  tau(  21) = (   3.2904802   0.0005063   4.7018136  )
        22           O1  tau(  22) = (   6.5640117   0.0389496  17.1838934  )
        23           O1  tau(  23) = (   1.3043587   1.4918075   6.0039043  )
        24           O1  tau(  24) = (   5.2767064   1.4903225   6.0039473  )
        25           Ti1 tau(  25) = (   0.0000382   5.9609847   6.0000000  )
        26           Ti1 tau(  26) = (   3.2902200   4.4714249   6.0002472  )
        27           O1  tau(  27) = (   0.0002396   2.9813036   7.9858123  )
        28           O1  tau(  28) = (   3.2902150   2.9813002   7.3038282  )
        29           O1  tau(  29) = (   4.5938453   4.4726049   9.2879030  )
        30           O1  tau(  30) = (   1.9864658   4.4711199   9.2879459  )
        31           Ti1 tau(  31) = (   3.2891106   5.8743827   9.1763621  )
        32           Ti1 tau(  32) = (   0.0006254   4.4649316   9.2693709  )
        33           O1  tau(  33) = (   3.2909858   3.0116154  11.2527998  )
        34           O1  tau(  34) = (   0.0092240   2.9805883  10.6323155  )
        35           O1  tau(  35) = (   1.2990260   4.4726261  12.6330189  )
        36           O1  tau(  36) = (   5.2946483   4.4606482  12.6134978  )
        37           Ti1 tau(  37) = (   0.0333947   0.1262769  12.6104238  )
        38           Ti1 tau(  38) = (   3.2900473   4.3917186  12.4086616  )
        39           O1  tau(  39) = (   6.5591047   2.9728048  14.6463482  )
        40           O1  tau(  40) = (   3.3071982   2.9909887  13.8663713  )
        41           O1  tau(  41) = (   4.5374868   4.4330245  16.1128471  )
        42           O1  tau(  42) = (   2.0037144   4.4952966  15.9584979  )
        43           Ti1 tau(  43) = (   3.1911318   0.0573200  16.2061952  )
        44           Ti1 tau(  44) = (   6.5299348   4.6473693  16.0672121  )
        45           O1  tau(  45) = (   3.2900926   2.9813045   4.7018136  )
        46           O1  tau(  46) = (   1.3039711   4.4726057   6.0039043  )
        47           O1  tau(  47) = (   5.2763189   4.4711207   6.0039473  )
        48           N1  tau(  48) = (   1.2509970   2.8552009  18.3101485  )
        49           N1  tau(  49) = (   0.1090600   2.9410495  17.4585617  )
        50           C1  tau(  50) = (   1.1117997   3.5424446  19.5707766  )
        51           H1  tau(  51) = (   0.2696121   3.1616043  20.1716506  )
        52           H1  tau(  52) = (   2.0314425   3.4001925  20.1392599  )
        53           H1  tau(  53) = (   0.9679189   4.6079482  19.3970517  )
        54           H1  tau(  54) = (   1.5306055   1.8840965  18.4148701  )
        55           H1  tau(  55) = (   5.8389999   2.9001924  18.0325661  )
        56           O1  tau(  56) = (   3.2424369   0.1001929  18.0579484  )
        57           H1  tau(  57) = (   3.9792659   5.6040190  18.4897823  )

     number of k points=    10  Fermi-Dirac smearing, width (Ry)=  0.0073
                       cart. coord. in units 2pi/alat
        k(    1) = (   0.0000000   0.0000000   0.0000000), wk =   0.1250000
        k(    2) = (   0.0000000   0.0419351   0.0000000), wk =   0.2500000
        k(    3) = (   0.0000000  -0.0838702   0.0000000), wk =   0.1250000
        k(    4) = (   0.0379955   0.0000049   0.0000000), wk =   0.2500000
        k(    5) = (   0.0379955   0.0419400   0.0000000), wk =   0.2500000
        k(    6) = (   0.0379955  -0.0838652   0.0000000), wk =   0.2500000
        k(    7) = (   0.0379955  -0.0419301   0.0000000), wk =   0.2500000
        k(    8) = (  -0.0759910  -0.0000099   0.0000000), wk =   0.1250000
        k(    9) = (  -0.0759910   0.0419252   0.0000000), wk =   0.2500000
        k(   10) = (  -0.0759910  -0.0838800   0.0000000), wk =   0.1250000

     Initial potential from superposition of free atoms

     starting charge  387.99913, renormalised to  404.00000

     negative rho (up, down):  1.467E-02 0.000E+00

     %%%%%%%%%%%%%%%%%%%%%%%%%%%%%%%%%%%%%%%%%%%%%%%%%%%%%%%%%%%%%%%%%%%%%%%%
     %                                                                      %
     % You are using vdW-DF, which was implemented by the Thonhauser group. %
     % Please cite the following two papers that made this development      %
     % possible and the two reviews that describe the various versions:     %
     %                                                                      %
     %   T. Thonhauser et al., PRL 115, 136402 (2015).                      %
     %   T. Thonhauser et al., PRB 76, 125112 (2007).                       %
     %   K. Berland et al., Rep. Prog. Phys. 78, 066501 (2015).             %
     %   D.C. Langreth et al., J. Phys.: Condens. Matter 21, 084203 (2009). %
     %                                                                      %
     %                                                                      %
     % If you are calculating the stress with vdW-DF, please also cite:     %
     %                                                                      %
     %   R. Sabatini et al., J. Phys.: Condens. Matter 24, 424209 (2012).   %
     %                                                                      %
     %%%%%%%%%%%%%%%%%%%%%%%%%%%%%%%%%%%%%%%%%%%%%%%%%%%%%%%%%%%%%%%%%%%%%%%%

     Adding external electric field

     Computed dipole along edir(3) :
        Dipole              -12.7354 Ry au,        -32.3701 Debye
        Dipole field         -0.0240 Ry au,

        Potential amp.        2.2279 Ry
        Total length         46.3494 bohr

     Starting wfcs are  306 atomic wfcs
  @ DRIVER MODE: Message from server: STATUS
  @ DRIVER MODE: Message from server: POSDATA
  @ DRIVER MODE: Reading and sharing cell
  @ DRIVER MODE: Reading and sharing positions
  @ DRIVER MODE: Received positions

     Self-consistent Calculation

     iteration #  1     ecut=    29.40 Ry     beta= 0.05
     Davidson diagonalization with overlap
     c_bands:  4 eigenvalues not converged
     c_bands:  5 eigenvalues not converged
     c_bands:  5 eigenvalues not converged
     c_bands:  5 eigenvalues not converged
     c_bands:  1 eigenvalues not converged
     c_bands:  3 eigenvalues not converged
     c_bands:  4 eigenvalues not converged
     c_bands:  4 eigenvalues not converged
     ethr =  1.00E-05,  avg # of iterations = 24.4

[...]

     total energy              =   -2345.43622418 Ry
     estimated scf accuracy    <    7121.66802419 Ry

     iteration #  2     ecut=    29.40 Ry     beta= 0.05
     Davidson diagonalization with overlap
     ethr =  1.00E-02,  avg # of iterations = 24.6

[...]

     iteration # 57     ecut=    29.40 Ry     beta= 0.05
     Davidson diagonalization with overlap
     c_bands:  1 eigenvalues not converged
     ethr =  6.08E-08,  avg # of iterations =  6.8

[...]

     total energy              =   -2975.25024246 Ry
     estimated scf accuracy    <       0.00000013 Ry

     iteration # 81     ecut=    29.40 Ry     beta= 0.05
     Davidson diagonalization with overlap
     ethr =  2.32E-11,  avg # of iterations =  5.0

     negative rho (up, down):  1.542E-02 0.000E+00

     Adding external electric field

     Computed dipole along edir(3) :
        Dipole                0.5363 Ry au,          1.3631 Debye
        Dipole field          0.0010 Ry au,

        Potential amp.       -0.0938 Ry
        Total length         46.3494 bohr

     End of self-consistent calculation

          k = 0.0000 0.0000 0.0000 ( 18029 PWs)   bands (ev):

   -56.4261 -56.3925 -55.7718 -55.7369 -55.5400 -55.4790 -55.3701 -55.2140
   -55.2092 -55.1409 -55.1055 -55.0898 -55.0558 -55.0537 -54.9868 -54.8683
   -32.8593 -32.7105 -32.6825 -32.5937 -32.5023 -32.4849 -32.2518 -32.0182
   -31.9912 -31.9684 -31.9155 -31.9099 -31.8804 -31.7681 -31.7561 -31.7496
   -31.7051 -31.6979 -31.6812 -31.6409 -31.6379 -31.6266 -31.5789 -31.5574
   -31.5174 -31.4846 -31.4802 -31.4296 -31.4204 -31.4125 -31.4055 -31.3893
   -31.3685 -31.3682 -31.3316 -31.3132 -31.3088 -31.3001 -31.2840 -31.2404
   -31.2366 -31.2171 -31.2069 -31.1866 -31.1166 -31.1124 -31.1054 -31.0616
   -16.6164 -16.5487 -16.1915 -16.1734 -15.8671 -15.8003 -15.7767 -15.7408
   -15.6785 -15.5592 -15.4381 -15.3919 -15.3862 -15.3371 -15.1773 -15.0801
   -14.9875 -14.9161 -14.9080 -14.8607 -14.8521 -14.8242 -14.8115 -14.8017
   -14.7371 -14.7028 -14.5935 -14.5511 -14.4537 -14.2590 -14.1809 -13.5874
   -13.4775 -11.5738  -8.6574  -5.0196  -4.2702  -4.1670  -3.7852  -3.6936
    -3.5287  -3.4532  -3.2951  -3.2621  -3.1814  -3.0746  -3.0106  -2.9541
    -2.9433  -2.8379  -2.6899  -2.6383  -2.6338  -2.6090  -2.6044  -2.5211
    -2.4456  -2.4118  -2.3454  -2.2748  -2.2440  -2.1581  -2.1529  -2.1263
    -2.1049  -2.0773  -2.0278  -1.9787  -1.9554  -1.9354  -1.8265  -1.7809
    -1.7568  -1.7118  -1.6772  -1.6040  -1.5695  -1.5236  -1.4452  -1.3857
    -1.2611  -1.2342  -1.1721  -1.1541  -1.1243  -0.9986  -0.9627  -0.9274
    -0.8681  -0.8330  -0.7679  -0.7432  -0.7134  -0.6765  -0.6677  -0.6263
    -0.5197  -0.4938  -0.3633  -0.3444  -0.2947  -0.2251  -0.2128  -0.1586
    -0.1369  -0.1019  -0.0545  -0.0206   0.0229   0.0916   0.1297   0.2151
     0.2600   0.3224   0.4180   0.4469   0.4701   0.5322   0.5506   0.5830
     0.6287   0.7225   0.7322   0.7927   0.8684   0.9132   0.9333   0.9919
     1.0524   1.0710   1.1711   1.1979   1.2089   1.2634   1.4734   1.5137
     1.6888   2.4489   2.8381   2.9846   3.2704   3.3013   3.5612   3.7970
     3.8273   3.8292   3.9108   4.0100

[...]

          k = 0.0380-0.0419 0.0000 ( 17876 PWs)   bands (ev):

[...]

          k =-0.0760-0.0000 0.0000 ( 17886 PWs)   bands (ev):

[...]

          k =-0.0760-0.0839 0.0000 ( 17948 PWs)   bands (ev):

   -56.4094 -56.4090 -55.7590 -55.7495 -55.5348 -55.4840 -55.3687 -55.2152
   -55.2045 -55.1453 -55.1032 -55.0733 -55.0721 -55.0522 -54.9891 -54.8697
   -32.6964 -32.6960 -32.6762 -32.6756 -32.5465 -32.5463 -32.0769 -32.0685
   -31.9531 -31.9457 -31.9419 -31.9396 -31.8380 -31.7992 -31.7622 -31.7539
   -31.7096 -31.7043 -31.6681 -31.6189 -31.5865 -31.5673 -31.5418 -31.5025
   -31.4894 -31.4866 -31.4365 -31.4347 -31.4196 -31.4189 -31.4180 -31.3984
   -31.3847 -31.3585 -31.3373 -31.3249 -31.3128 -31.2986 -31.2978 -31.2965
   -31.2594 -31.2584 -31.2436 -31.2377 -31.1936 -31.1788 -31.1177 -31.0928
   -16.5229 -16.1791 -15.9973 -15.9933 -15.9136 -15.9110 -15.7031 -15.6975
   -15.5275 -15.4986 -15.4255 -15.3064 -15.2541 -15.1979 -15.1909 -15.1471
   -15.0949 -15.0752 -15.0334 -15.0160 -14.9535 -14.9098 -14.8606 -14.8146
   -14.7958 -14.7572 -14.6359 -14.5864 -14.5800 -14.3938 -14.3617 -13.5814
   -13.5808 -11.5806  -8.6642  -5.0277  -4.2682  -3.7578  -3.4191  -3.0996
    -3.0815  -3.0356  -3.0264  -2.8111  -2.7902  -2.7667  -2.6924  -2.6798
    -2.6300  -2.6225  -2.5310  -2.4907  -2.4481  -2.4335  -2.4191  -2.3646
    -2.3383  -2.2913  -2.2880  -2.2551  -2.2213  -2.1876  -2.1652  -2.1255
    -2.0968  -2.0812  -2.0443  -2.0109  -1.9838  -1.9318  -1.9131  -1.8788
    -1.8711  -1.8481  -1.6945  -1.6398  -1.5838  -1.5408  -1.5101  -1.4439
    -1.4329  -1.3781  -1.3183  -1.2850  -1.2562  -1.2393  -1.1526  -1.1200
    -1.1035  -1.0702  -1.0277  -0.9663  -0.9094  -0.8593  -0.7831  -0.6899
    -0.6593  -0.6430  -0.6151  -0.6078  -0.5678  -0.5155  -0.4275  -0.3757
    -0.3224  -0.3052  -0.2617  -0.2556  -0.2285  -0.1875  -0.1192   0.0043
     0.0683   0.1061   0.1607   0.2148   0.2716   0.3382   0.3786   0.4613
     0.5403   0.5619   0.6467   0.6801   0.8037   0.8472   0.9629   1.0036
     1.0415   1.0860   1.1557   1.2538   1.2787   1.3245   1.3262   1.3428
     1.3569   2.4748   3.4047   3.4076   3.4581   3.4655   3.7397   3.7479
     3.8819   3.8837   4.0068   4.0195

     the Fermi energy is     2.7198 ev

!    total energy              =   -2975.25025020 Ry
     estimated scf accuracy    <       0.00000007 Ry
     smearing contrib. (-TS)   =      -0.00758173 Ry
     internal energy E=F+TS    =   -2975.24266847 Ry

     The total energy is F=E-TS. E is the sum of the following terms:
     one-electron contribution =  -23771.12111867 Ry
     hartree contribution      =   11981.17813178 Ry
     xc contribution           =    -494.81192259 Ry
     ewald contribution        =    9309.51169829 Ry
     electric field correction =       0.00054272 Ry

     convergence has been achieved in  81 iterations

     Forces acting on atoms (cartesian axes, Ry/au):

     atom    1 type  1   force =     0.00002700   -0.00034585    0.11614414
     atom    2 type  1   force =    -0.00014288    0.00031985   -0.16024618
     atom    3 type  2   force =     0.00004547    0.00032606   -0.05309342
     atom    4 type  2   force =     0.00007093   -0.00042094    0.02657647
     atom    5 type  2   force =    -0.00503022   -0.00225998   -0.01000005
     atom    6 type  2   force =     0.00671438   -0.00183154   -0.01073373
     atom    7 type  1   force =    -0.00038308   -0.00640559    0.04558615
     atom    8 type  1   force =     0.00056825    0.01079383    0.08174487
     atom    9 type  2   force =    -0.00001644    0.00036520   -0.00007648
     atom   10 type  2   force =    -0.00139973    0.00155120   -0.05445345
     atom   11 type  2   force =     0.00075292    0.00029490   -0.00021289
     atom   12 type  2   force =    -0.00116930    0.00021826    0.00020659
     atom   13 type  1   force =    -0.00022620   -0.00091180    0.00025775
     atom   14 type  1   force =     0.00047089    0.00124091   -0.00034743
     atom   15 type  2   force =     0.00000327   -0.00048283    0.00049882
     atom   16 type  2   force =    -0.00030813    0.00058269    0.00103039
     atom   17 type  2   force =    -0.00072951   -0.00044870    0.00019762
     atom   18 type  2   force =     0.00074584   -0.00002636    0.00047025
     atom   19 type  1   force =    -0.00049606   -0.00056721   -0.00065588
     atom   20 type  1   force =     0.00060498   -0.00041099   -0.00009489
     atom   21 type  2   force =     0.00007424    0.00015065    0.09917127
     atom   22 type  2   force =     0.00027945   -0.00052528    0.00071218
     atom   23 type  2   force =    -0.07948295   -0.00002405   -0.03160658
     atom   24 type  2   force =     0.07940244    0.00040484   -0.03164228
     atom   25 type  1   force =     0.00017464   -0.00035923    0.11642861
     atom   26 type  1   force =    -0.00007698   -0.00141779   -0.16039318
     atom   27 type  2   force =     0.00013513   -0.00011746   -0.05147803
     atom   28 type  2   force =     0.00003150    0.00129274    0.02176899
     atom   29 type  2   force =    -0.00384549    0.00422598   -0.01240276
     atom   30 type  2   force =     0.00542988    0.00483903   -0.01299414
     atom   31 type  1   force =    -0.00015052    0.00313746    0.03057817
     atom   32 type  1   force =     0.00051327   -0.01303182    0.08259276
     atom   33 type  2   force =     0.00017947   -0.00049314    0.00031996
     atom   34 type  2   force =    -0.00049710    0.00168396   -0.06782524
     atom   35 type  2   force =    -0.00044503   -0.00064695   -0.00007652
     atom   36 type  2   force =     0.00007044   -0.00003014    0.00000397
     atom   37 type  1   force =    -0.00013018   -0.00121832   -0.00029819
     atom   38 type  1   force =     0.00048343   -0.00032552    0.00006838
     atom   39 type  2   force =     0.00014443    0.00031804    0.00010435
     atom   40 type  2   force =    -0.00013153   -0.00023823    0.00031315
     atom   41 type  2   force =     0.00111733   -0.00002740    0.00018496
     atom   42 type  2   force =    -0.00102030   -0.00051358    0.00038422
     atom   43 type  1   force =     0.00017686   -0.00081748    0.00003482
     atom   44 type  1   force =     0.00052874    0.00066737   -0.00021801
     atom   45 type  2   force =     0.00007666   -0.00002971    0.09898573
     atom   46 type  2   force =    -0.07949657   -0.00001626   -0.03162477
     atom   47 type  2   force =     0.07943255    0.00042957   -0.03164525
     atom   48 type  3   force =    -0.00418141   -0.00210347   -0.01570769
     atom   49 type  3   force =     0.00252337    0.00051807    0.00415975
     atom   50 type  4   force =    -0.00141880    0.00251768    0.00644577
     atom   51 type  5   force =    -0.00145052    0.00076352    0.00103016
     atom   52 type  5   force =    -0.00009432   -0.00004032    0.00096738
     atom   53 type  5   force =     0.00053330    0.00037983   -0.00059926
     atom   54 type  5   force =     0.00068375   -0.00235443    0.00184318
     atom   55 type  5   force =    -0.00063333    0.00021880    0.00008443
     atom   56 type  2   force =     0.00110392   -0.00022756   -0.00004084
     atom   57 type  5   force =    -0.00014213    0.00142950   -0.00042812

     Total force =     0.399375     Total SCF correction =     0.000785
  @ DRIVER MODE: Message from server: STATUS
  @ DRIVER MODE: Message from server: GETFORCE
  @ DRIVER MODE: Returning v,forces,stress,ensemble

     Writing output data file ./calc.save/
  @ DRIVER MODE: Message from server: EXIT
  @ DRIVE MODE: Exiting

     General routines

     Parallel routines

   This run was terminated on:   0:46:31  23Sep2021

   JOB DONE.