     Program PWSCF v.6.7GPU starts on 27Sep2021 at  1:57:13

     R & G space division:  proc/nbgrp/npool/nimage =       8
     Reading input from /storage/home/hcoda1/3/ntian30/research/carbon/CxH_vib/H2O_calc/ads_slab/CH3OH2O_a/out_0034/pw.inp
Warning: card &CELL ignored
Warning: card   CELL_DYNAMICS='IPI', ignored
Warning: card / ignored

     Current dimensions of program PWSCF are:
     Max number of different atomic species (ntypx) = 10
     Max number of k-points (npk) =  40000
     Max angular momentum in pseudopotentials (lmaxx) =  3
     Presently no symmetry can be used with electric field

     Message from routine cell_base_init:
     DEPRECATED: use true lattice parameter, not A to a.u. conversion factor

     IMPORTANT: XC functional enforced from input :
     Exchange-correlation= BEEF-VDW
                           (   1   4  43  14   2   0   0)
     Any further DFT definition will be discarded
     Please, verify this is what you really want

  @ DRIVER MODE: Connecting to
 qe_1139763_2971673.sched-torque.pace.gatech.edula5zpdvh_scratch
  using UNIX socket
  @ DRIVER MODE: Message from server: STATUS
  @ DRIVER MODE: Message from server: INIT
  @ DRIVER MODE: Receiving replica           0          -1
  @ DRIVER MODE: Receiving encoded integer          25
  @ DRIVER MODE:  SCF:  T  FORCE:  T  STRESS:  F  VC:  F  ENSEMBLE:  F
  @ DRIVER MODE:  SCF:  T  FORCE:  T  STRESS:  F  VC:  F  ENSEMBLE:  F

     Using Slab Decomposition

     bravais-lattice index     =            0
     lattice parameter (alat)  =       1.8897  a.u.
     unit-cell volume          =    6658.9804 (a.u.)^3
     number of atoms/cell      =           55
     number of atomic types    =            4
     number of electrons       =       399.00
     number of Kohn-Sham states=          209
     kinetic-energy cutoff     =      29.3995  Ry
     charge density cutoff     =     293.9946  Ry
     scf convergence threshold =      7.3E-08
     mixing beta               =       0.0500
     number of iterations used =            8  plain     mixing
     Exchange-correlation= BEEF-VDW
                           (   1   4  43  14   2   0   0)

     celldm(1)=   1.889726  celldm(2)=   0.000000  celldm(3)=   0.000000
     celldm(4)=   0.000000  celldm(5)=   0.000000  celldm(6)=   0.000000

     crystal axes: (cart. coord. in units of alat)
               a(1) = (   6.579727   0.000000   0.000000 )
               a(2) = (  -0.000775   5.961596   0.000000 )
               a(3) = (   0.000000   0.000000  25.155947 )

     reciprocal axes: (cart. coord. in units 2 pi/alat)
               b(1) = (  0.151982  0.000020  0.000000 )
               b(2) = (  0.000000  0.167740  0.000000 )
               b(3) = (  0.000000  0.000000  0.039752 )

     PseudoPot. # 1 for Ti read from file:
     /storage/coda1/p-amedford6/0/shared/rich_project_chbe-medford/medford-share/data/pseudos_module/espresso/nninc/pbe/van/Ti.UPF
     MD5 check sum: 8e4df49b7f0d34bbd5052bf3f5ea0213
     Pseudo is Ultrasoft, Zval = 12.0
     Generated by new atomic code, or converted to UPF format
     Using radial grid of  851 points,  6 beta functions with:
                l(1) =   0
                l(2) =   0
                l(3) =   1
                l(4) =   1
                l(5) =   2
                l(6) =   2
     Q(r) pseudized with  8 coefficients,  rinner =    1.000   1.000   1.000
                                                       1.000   1.000

     PseudoPot. # 2 for O  read from file:
     /storage/coda1/p-amedford6/0/shared/rich_project_chbe-medford/medford-share/data/pseudos_module/espresso/nninc/pbe/van/O.UPF
     MD5 check sum: 78c19812648e8988a0fe644b0f25305e
     Pseudo is Ultrasoft, Zval =  6.0
     Generated by new atomic code, or converted to UPF format
     Using radial grid of  737 points,  4 beta functions with:
                l(1) =   0
                l(2) =   0
                l(3) =   1
                l(4) =   1
     Q(r) pseudized with  8 coefficients,  rinner =    0.800   0.800   0.800

     PseudoPot. # 3 for C  read from file:
     /storage/coda1/p-amedford6/0/shared/rich_project_chbe-medford/medford-share/data/pseudos_module/espresso/nninc/pbe/van/C.UPF
     MD5 check sum: 1a69bf6b8db32088f5b2163dbdb77a27
     Pseudo is Ultrasoft, Zval =  4.0
     Generated by new atomic code, or converted to UPF format
     Using radial grid of  721 points,  4 beta functions with:
                l(1) =   0
                l(2) =   0
                l(3) =   1
                l(4) =   1
     Q(r) pseudized with  8 coefficients,  rinner =    0.800   0.800   0.800

     PseudoPot. # 4 for H  read from file:
     /storage/coda1/p-amedford6/0/shared/rich_project_chbe-medford/medford-share/data/pseudos_module/espresso/nninc/pbe/van/H.UPF
     MD5 check sum: b5ee9d7bfd3a09ee7748110bda690ff7
     Pseudo is Ultrasoft, Zval =  1.0
     Generated by new atomic code, or converted to UPF format
     Using radial grid of  615 points,  1 beta functions with:
                l(1) =   0
     Q(r) pseudized with  8 coefficients,  rinner =    0.800

     atomic species   valence    mass     pseudopotential
        Ti1           12.00    47.86700     Ti( 1.00)
        O1             6.00    15.99900     O ( 1.00)
        C1             4.00    12.01100     C ( 1.00)
        H1             1.00     1.00800     H ( 1.00)

     No symmetry found

   Cartesian axes

     site n.     atom                  positions (alat units)
         1           Ti1 tau(   1) = (   0.0004258   2.9801865   6.0000000  )
         2           Ti1 tau(   2) = (   3.2906075   1.4906267   6.0002472  )
         3           O1  tau(   3) = (   0.0006271   0.0005054   7.9858123  )
         4           O1  tau(   4) = (   3.2906025   0.0005020   7.3038282  )
         5           O1  tau(   5) = (   4.5942328   1.4918067   9.2879030  )
         6           O1  tau(   6) = (   1.9868534   1.4903216   9.2879459  )
         7           Ti1 tau(   7) = (   3.2820359   3.0439161   9.1623595  )
         8           Ti1 tau(   8) = (   6.5599266   1.6132547   9.3553476  )
         9           O1  tau(   9) = (   3.2945286   0.0238644  11.3456088  )
        10           O1  tau(  10) = (   0.0063054   0.0138127  10.6020390  )
        11           O1  tau(  11) = (   1.2951583   1.5100513  12.6443238  )
        12           O1  tau(  12) = (   5.2990995   1.5148170  12.6233090  )
        13           Ti1 tau(  13) = (   0.0263474   3.0106421  12.7494805  )
        14           Ti1 tau(  14) = (   3.3336015   1.5167552  12.4948480  )
        15           O1  tau(  15) = (   6.5448532   0.0190031  14.6983011  )
        16           O1  tau(  16) = (   3.3224233   0.0259125  13.9568087  )
        17           O1  tau(  17) = (   4.5367000   1.5168325  16.1249780  )
        18           O1  tau(  18) = (   2.0218268   1.5507800  16.0022153  )
        19           Ti1 tau(  19) = (   3.2743302   2.9980917  15.6870858  )
        20           Ti1 tau(  20) = (   0.0201860   1.3869735  16.0719154  )
        21           O1  tau(  21) = (   3.2904802   0.0005063   4.7018136  )
        22           O1  tau(  22) = (   0.0925506   0.0150102  17.2361640  )
        23           O1  tau(  23) = (   1.3043587   1.4918075   6.0039043  )
        24           O1  tau(  24) = (   5.2767064   1.4903225   6.0039473  )
        25           Ti1 tau(  25) = (   0.0000382   5.9609847   6.0000000  )
        26           Ti1 tau(  26) = (   3.2902200   4.4714249   6.0002472  )
        27           O1  tau(  27) = (   0.0002396   2.9813036   7.9858123  )
        28           O1  tau(  28) = (   3.2902150   2.9813002   7.3038282  )
        29           O1  tau(  29) = (   4.5938453   4.4726049   9.2879030  )
        30           O1  tau(  30) = (   1.9864658   4.4711199   9.2879459  )
        31           Ti1 tau(  31) = (   3.2669230   0.0652730   9.1555536  )
        32           Ti1 tau(  32) = (   6.5613759   4.5453191   9.2698998  )
        33           O1  tau(  33) = (   3.2918870   3.0052186  11.3478826  )
        34           O1  tau(  34) = (   0.0060846   2.9950393  10.5821163  )
        35           O1  tau(  35) = (   1.2959246   4.5006532  12.6413340  )
        36           O1  tau(  36) = (   5.2961686   4.4944485  12.6189864  )
        37           Ti1 tau(  37) = (   0.0327138   0.0295606  12.5236923  )
        38           Ti1 tau(  38) = (   3.3339673   4.5113903  12.4983483  )
        39           O1  tau(  39) = (   6.5730609   3.0277731  14.6772624  )
        40           O1  tau(  40) = (   3.3208155   3.0007925  13.9016932  )
        41           O1  tau(  41) = (   4.5507661   4.4739758  16.0704957  )
        42           O1  tau(  42) = (   2.0281244   4.4521521  15.9894756  )
        43           Ti1 tau(  43) = (   3.3328935   0.0118079  15.7915215  )
        44           Ti1 tau(  44) = (   0.0096178   4.5175135  15.9069376  )
        45           O1  tau(  45) = (   3.2900926   2.9813045   4.7018136  )
        46           O1  tau(  46) = (   1.3039711   4.4726057   6.0039043  )
        47           O1  tau(  47) = (   5.2763189   4.4711207   6.0039473  )
        48           C1  tau(  48) = (   6.0108469   3.0492512  18.6187439  )
        49           O1  tau(  49) = (   6.5747659   3.0013081  17.3187206  )
        50           H1  tau(  50) = (   4.9221177   3.1735116  18.5649479  )
        51           H1  tau(  51) = (   6.2378858   2.1236533  19.1567593  )
        52           H1  tau(  52) = (   6.4208835   3.9027719  19.1655001  )
        53           O1  tau(  53) = (   2.8960476   5.8877769  18.1661119  )
        54           H1  tau(  54) = (   3.1709146   0.7341104  18.6084320  )
        55           H1  tau(  55) = (   1.9162551   5.9097105  18.1191095  )

     number of k points=    10  Fermi-Dirac smearing, width (Ry)=  0.0073
                       cart. coord. in units 2pi/alat
        k(    1) = (   0.0000000   0.0000000   0.0000000), wk =   0.1250000
        k(    2) = (   0.0000000   0.0419351   0.0000000), wk =   0.2500000
        k(    3) = (   0.0000000  -0.0838702   0.0000000), wk =   0.1250000
        k(    4) = (   0.0379955   0.0000049   0.0000000), wk =   0.2500000
        k(    5) = (   0.0379955   0.0419400   0.0000000), wk =   0.2500000
        k(    6) = (   0.0379955  -0.0838652   0.0000000), wk =   0.2500000
        k(    7) = (   0.0379955  -0.0419301   0.0000000), wk =   0.2500000
        k(    8) = (  -0.0759910  -0.0000099   0.0000000), wk =   0.1250000
        k(    9) = (  -0.0759910   0.0419252   0.0000000), wk =   0.2500000
        k(   10) = (  -0.0759910  -0.0838800   0.0000000), wk =   0.1250000

     Initial potential from superposition of free atoms

     starting charge  382.99916, renormalised to  399.00000

     negative rho (up, down):  1.704E-02 0.000E+00

     %%%%%%%%%%%%%%%%%%%%%%%%%%%%%%%%%%%%%%%%%%%%%%%%%%%%%%%%%%%%%%%%%%%%%%%%
     %                                                                      %
     % You are using vdW-DF, which was implemented by the Thonhauser group. %
     % Please cite the following two papers that made this development      %
     % possible and the two reviews that describe the various versions:     %
     %                                                                      %
     %   T. Thonhauser et al., PRL 115, 136402 (2015).                      %
     %   T. Thonhauser et al., PRB 76, 125112 (2007).                       %
     %   K. Berland et al., Rep. Prog. Phys. 78, 066501 (2015).             %
     %   D.C. Langreth et al., J. Phys.: Condens. Matter 21, 084203 (2009). %
     %                                                                      %
     %                                                                      %
     % If you are calculating the stress with vdW-DF, please also cite:     %
     %                                                                      %
     %   R. Sabatini et al., J. Phys.: Condens. Matter 24, 424209 (2012).   %
     %                                                                      %
     %%%%%%%%%%%%%%%%%%%%%%%%%%%%%%%%%%%%%%%%%%%%%%%%%%%%%%%%%%%%%%%%%%%%%%%%

     Adding external electric field

     Computed dipole along edir(3) :
        Dipole               -9.9871 Ry au,        -25.3847 Debye
        Dipole field         -0.0188 Ry au,

        Potential amp.        1.7471 Ry
        Total length         46.3494 bohr

     Starting wfcs are  301 atomic wfcs
  @ DRIVER MODE: Message from server: STATUS
  @ DRIVER MODE: Message from server: POSDATA
  @ DRIVER MODE: Reading and sharing cell
  @ DRIVER MODE: Reading and sharing positions
  @ DRIVER MODE: Received positions

     Self-consistent Calculation

     iteration #  1     ecut=    29.40 Ry     beta= 0.05
     Davidson diagonalization with overlap
     c_bands:  2 eigenvalues not converged
     c_bands:  2 eigenvalues not converged
     c_bands:  3 eigenvalues not converged
     c_bands:  3 eigenvalues not converged
     c_bands:  1 eigenvalues not converged
     c_bands:  3 eigenvalues not converged
     c_bands:  3 eigenvalues not converged
     c_bands:  1 eigenvalues not converged
     ethr =  1.00E-05,  avg # of iterations = 19.6

[...]

     total energy              =   -2489.84892671 Ry
     estimated scf accuracy    <    5304.37691095 Ry

     iteration #  2     ecut=    29.40 Ry     beta= 0.05
     Davidson diagonalization with overlap
     ethr =  1.00E-02,  avg # of iterations = 24.4

[...]

     iteration # 90     ecut=    29.40 Ry     beta= 0.05
     Davidson diagonalization with overlap
     c_bands:  1 eigenvalues not converged
     ethr =  2.56E-11,  avg # of iterations = 14.9

[...]

     total energy              =   -2966.34212665 Ry
     estimated scf accuracy    <       0.00000013 Ry

     iteration # 91     ecut=    29.40 Ry     beta= 0.05
     Davidson diagonalization with overlap
     ethr =  2.56E-11,  avg # of iterations =  7.5

     negative rho (up, down):  1.686E-02 0.000E+00

     Adding external electric field

     Computed dipole along edir(3) :
        Dipole                0.9483 Ry au,          2.4104 Debye
        Dipole field          0.0018 Ry au,

        Potential amp.       -0.1659 Ry
        Total length         46.3494 bohr

     End of self-consistent calculation

          k = 0.0000 0.0000 0.0000 ( 18029 PWs)   bands (ev):

   -55.7042 -55.6683 -55.6654 -55.6291 -55.6175 -55.6045 -55.5830 -55.5488
   -55.4940 -55.4805 -55.4714 -55.4542 -55.4193 -55.3787 -54.7076 -54.6735
   -32.2230 -32.1738 -32.0954 -32.0625 -32.0463 -31.9967 -31.9803 -31.9698
   -31.9367 -31.9337 -31.8927 -31.8820 -31.8763 -31.8708 -31.8637 -31.8479
   -31.8468 -31.8035 -31.7989 -31.7960 -31.7877 -31.7835 -31.7687 -31.7548
   -31.7486 -31.7435 -31.7257 -31.7028 -31.6961 -31.6950 -31.6881 -31.6848
   -31.6722 -31.6648 -31.6517 -31.6441 -31.6365 -31.6004 -31.5946 -31.5699
   -31.5612 -31.5547 -31.1166 -31.0216 -30.9992 -30.9334 -30.8473 -30.7361
   -18.9427 -17.5517 -16.4189 -16.1496 -15.9884 -15.8607 -15.8222 -15.6265
   -15.5106 -15.3861 -15.3597 -15.3048 -15.2800 -15.2402 -15.2345 -15.2257
   -15.2150 -15.2059 -15.1525 -15.1182 -15.1058 -15.0961 -15.0842 -15.0330
   -14.9809 -14.9165 -14.8443 -14.8216 -14.7971 -14.7254 -14.7043 -13.2082
   -13.0904  -9.4269  -6.7468  -4.2685  -4.0860  -3.8051  -3.7680  -3.6410
    -3.6166  -3.5871  -3.5056  -3.2984  -3.2752  -3.1501  -2.9410  -2.8826
    -2.8273  -2.8029  -2.7601  -2.6092  -2.5911  -2.5204  -2.5097  -2.4908
    -2.4801  -2.4488  -2.4300  -2.3983  -2.3707  -2.3310  -2.2862  -2.2247
    -2.0858  -2.0710  -2.0344  -2.0168  -2.0053  -1.9901  -1.9536  -1.9324
    -1.8987  -1.8810  -1.8717  -1.7711  -1.6631  -1.5686  -1.5312  -1.4627
    -1.3825  -1.2391  -1.2173  -1.1463  -1.1212  -1.1054  -1.0546  -1.0026
    -0.9414  -0.9375  -0.8808  -0.7819  -0.7131  -0.6941  -0.6579  -0.6087
    -0.5493  -0.4737  -0.4443  -0.4268  -0.4041  -0.3907  -0.2036  -0.1787
    -0.1367  -0.1084  -0.0265   0.0318   0.0489   0.0670   0.0942   0.1206
     0.1937   0.2533   0.2625   0.2892   0.3332   0.3478   0.3814   0.4492
     0.4981   0.5167   0.5638   0.6130   0.6646   0.8048   0.9079   0.9510
     1.0626   1.2276   1.3167   1.3906   1.4918   1.9022   1.9581   3.4757
     3.5077   3.5357   3.5571   3.6340   3.7259   3.8356   3.9279   3.9430
     3.9722

[...]

          k = 0.0380-0.0419 0.0000 ( 17876 PWs)   bands (ev):

[...]

          k =-0.0760-0.0000 0.0000 ( 17886 PWs)   bands (ev):

[...]

          k =-0.0760-0.0839 0.0000 ( 17948 PWs)   bands (ev):

   -55.6919 -55.6805 -55.6491 -55.6451 -55.6146 -55.6025 -55.5702 -55.5617
   -55.4963 -55.4772 -55.4735 -55.4413 -55.4323 -55.3816 -54.6910 -54.6900
   -32.0362 -32.0171 -31.9965 -31.9902 -31.9846 -31.9832 -31.9661 -31.9292
   -31.9198 -31.9115 -31.9027 -31.8934 -31.8556 -31.8451 -31.8309 -31.8262
   -31.8258 -31.8192 -31.8176 -31.8100 -31.8024 -31.7997 -31.7927 -31.7836
   -31.7747 -31.7711 -31.7666 -31.7662 -31.7559 -31.7403 -31.7137 -31.6974
   -31.6919 -31.6855 -31.6847 -31.6812 -31.6755 -31.6581 -31.6478 -31.6365
   -31.6066 -31.5723 -31.0125 -31.0113 -30.9300 -30.9292 -30.8909 -30.8900
   -18.9414 -17.5192 -15.8874 -15.7738 -15.6555 -15.5815 -15.5697 -15.5235
   -15.4935 -15.4670 -15.4098 -15.4019 -15.3542 -15.3529 -15.3018 -15.2958
   -15.2450 -15.2130 -15.2088 -15.1675 -15.1446 -15.1363 -15.1262 -15.0897
   -15.0729 -15.0631 -15.0281 -15.0189 -14.9699 -14.9311 -14.9051 -13.1926
   -13.1908  -9.4293  -6.7415  -4.1658  -4.0506  -3.8067  -3.2950  -3.1736
    -2.9664  -2.9005  -2.8353  -2.7732  -2.7694  -2.6535  -2.6338  -2.5948
    -2.5642  -2.5315  -2.5235  -2.5134  -2.4968  -2.4943  -2.4770  -2.4377
    -2.4184  -2.3941  -2.3722  -2.3601  -2.3386  -2.3162  -2.3087  -2.2888
    -2.2559  -2.2493  -2.2417  -2.1780  -2.1160  -1.9829  -1.9379  -1.9259
    -1.8409  -1.8064  -1.7899  -1.7606  -1.7527  -1.7372  -1.6064  -1.5866
    -1.4903  -1.4263  -1.4069  -1.3790  -1.2713  -1.2121  -1.1814  -1.1583
    -1.1219  -1.0749  -1.0068  -0.9664  -0.9144  -0.8562  -0.8120  -0.7981
    -0.7657  -0.6611  -0.6568  -0.6490  -0.6085  -0.5676  -0.5165  -0.4658
    -0.4572  -0.4334  -0.4013  -0.3591  -0.3399  -0.2429  -0.2317  -0.1930
    -0.1466  -0.0538   0.1265   0.2099   0.3167   0.3514   0.3908   0.4526
     0.4974   0.5485   0.5955   0.6433   0.6694   0.7133   0.7467   0.8292
     0.8476   0.8529   0.9212   1.6783   1.6787   1.7648   1.7733   3.7197
     3.7347   3.7871   3.8058   3.9440   3.9498   3.9634   3.9729   4.0715
     4.1309

     the Fermi energy is     3.4468 ev

!    total energy              =   -2966.34212939 Ry
     estimated scf accuracy    <       0.00000005 Ry
     smearing contrib. (-TS)   =      -0.02283012 Ry
     internal energy E=F+TS    =   -2966.31929927 Ry

     The total energy is F=E-TS. E is the sum of the following terms:
     one-electron contribution =  -24405.27115457 Ry
     hartree contribution      =   12294.63747108 Ry
     xc contribution           =    -490.97190450 Ry
     ewald contribution        =    9635.28459157 Ry
     electric field correction =       0.00169717 Ry

     convergence has been achieved in  91 iterations

     Forces acting on atoms (cartesian axes, Ry/au):

     atom    1 type  1   force =     0.00018368   -0.00147163    0.10509906
     atom    2 type  1   force =     0.00007972    0.00124400   -0.17891860
     atom    3 type  2   force =    -0.00001333   -0.00500673   -0.03283918
     atom    4 type  2   force =    -0.00058103    0.00073921    0.04591612
     atom    5 type  2   force =    -0.01790121   -0.00053220    0.00428705
     atom    6 type  2   force =     0.01740239    0.00073930    0.00348006
     atom    7 type  1   force =    -0.00005680   -0.00057615   -0.00006885
     atom    8 type  1   force =    -0.00038627   -0.00057618    0.00045501
     atom    9 type  2   force =     0.00014836   -0.00029175   -0.00004376
     atom   10 type  2   force =     0.00022655   -0.00001715    0.00054703
     atom   11 type  2   force =     0.00000177   -0.00010146   -0.00005461
     atom   12 type  2   force =    -0.00013496   -0.00028958   -0.00025958
     atom   13 type  1   force =     0.00055744   -0.00057817   -0.00133825
     atom   14 type  1   force =     0.00000652   -0.00046069    0.00035681
     atom   15 type  2   force =    -0.00013141   -0.00038854    0.00004139
     atom   16 type  2   force =     0.00005464   -0.00063207   -0.00002185
     atom   17 type  2   force =    -0.00027303   -0.00006331   -0.00049732
     atom   18 type  2   force =     0.00035741   -0.00025065   -0.00026869
     atom   19 type  1   force =     0.00001317    0.00029318    0.00019755
     atom   20 type  1   force =     0.00012041   -0.00092392    0.00064833
     atom   21 type  2   force =     0.00007188    0.00010569    0.10391427
     atom   22 type  2   force =    -0.00027199   -0.00037027   -0.00021684
     atom   23 type  2   force =    -0.06946502    0.00050694   -0.02942095
     atom   24 type  2   force =     0.06949581    0.00086927   -0.02945064
     atom   25 type  1   force =     0.00026985    0.00145321    0.11392159
     atom   26 type  1   force =    -0.00006053   -0.00044681   -0.17907929
     atom   27 type  2   force =    -0.00013503    0.00370239   -0.02691094
     atom   28 type  2   force =    -0.00027067    0.00101493    0.04786058
     atom   29 type  2   force =    -0.01571665    0.00042444    0.00352262
     atom   30 type  2   force =     0.01709187    0.00264336    0.00289868
     atom   31 type  1   force =     0.00036054    0.00006629   -0.00017669
     atom   32 type  1   force =    -0.00066186    0.00011465    0.00029303
     atom   33 type  2   force =     0.00024850   -0.00039916    0.00016215
     atom   34 type  2   force =     0.00007009   -0.00004781   -0.00004155
     atom   35 type  2   force =     0.00012929   -0.00018789    0.00022961
     atom   36 type  2   force =     0.00018585    0.00016675    0.00015701
     atom   37 type  1   force =     0.00034667    0.00077831   -0.00024178
     atom   38 type  1   force =    -0.00009128   -0.00054688    0.00000940
     atom   39 type  2   force =    -0.00047594    0.00026631    0.00027849
     atom   40 type  2   force =     0.00026277   -0.00063087   -0.00013247
     atom   41 type  2   force =     0.00005576    0.00000879   -0.00004663
     atom   42 type  2   force =    -0.00025802   -0.00018083   -0.00008888
     atom   43 type  1   force =    -0.00009350    0.00005213    0.00002405
     atom   44 type  1   force =     0.00026556    0.00034953    0.00029329
     atom   45 type  2   force =     0.00007637    0.00008125    0.10393964
     atom   46 type  2   force =    -0.06916194   -0.00106898   -0.02943453
     atom   47 type  2   force =     0.06913724   -0.00060411   -0.02950912
     atom   48 type  3   force =    -0.00007196    0.00039206    0.00066055
     atom   49 type  2   force =    -0.00044438    0.00048177    0.00024314
     atom   50 type  4   force =     0.00060689    0.00021508    0.00053661
     atom   51 type  4   force =    -0.00021495    0.00072204   -0.00052132
     atom   52 type  4   force =    -0.00029038   -0.00058918   -0.00016097
     atom   53 type  2   force =    -0.00290254   -0.01491368   -0.00767497
     atom   54 type  4   force =     0.00320207    0.01323624    0.00681622
     atom   55 type  4   force =    -0.00096440    0.00147952    0.00062896

     Total force =     0.374709     Total SCF correction =     0.000565
  @ DRIVER MODE: Message from server: STATUS
  @ DRIVER MODE: Message from server: GETFORCE
  @ DRIVER MODE: Returning v,forces,stress,ensemble

     Writing output data file ./calc.save/
  @ DRIVER MODE: Message from server: EXIT
  @ DRIVE MODE: Exiting

     General routines

     Parallel routines

   This run was terminated on:   3: 9:20  27Sep2021

   JOB DONE.