     Program PWSCF v.6.7GPU starts on  2Aug2021 at 16: 8:52

     R & G space division:  proc/nbgrp/npool/nimage =      16
     Reading input from /storage/home/hcoda1/3/ntian30/research/carbon/02Aug_vib_paired/ads_slab/CH3NN_a/out_0010/pw.inp
Warning: card &CELL ignored
Warning: card   CELL_DYNAMICS='IPI', ignored
Warning: card / ignored

     Current dimensions of program PWSCF are:
     Max number of different atomic species (ntypx) = 10
     Max number of k-points (npk) =  40000
     Max angular momentum in pseudopotentials (lmaxx) =  3
     Presently no symmetry can be used with electric field

     Message from routine cell_base_init:
     DEPRECATED: use true lattice parameter, not A to a.u. conversion factor

     IMPORTANT: XC functional enforced from input :
     Exchange-correlation= BEEF-VDW
                           (   1   4  43  14   2   0   0)
     Any further DFT definition will be discarded
     Please, verify this is what you really want

  @ DRIVER MODE: Connecting to
 qe_1139763_2482546.sched-torque.pace.gatech.eduhenic9wb_scratch
  using UNIX socket
  @ DRIVER MODE: Message from server: STATUS
  @ DRIVER MODE: Message from server: INIT
  @ DRIVER MODE: Receiving replica           0          -1
  @ DRIVER MODE: Receiving encoded integer          25
  @ DRIVER MODE:  SCF:  T  FORCE:  T  STRESS:  F  VC:  F  ENSEMBLE:  F
  @ DRIVER MODE:  SCF:  T  FORCE:  T  STRESS:  F  VC:  F  ENSEMBLE:  F

     Using Slab Decomposition

     bravais-lattice index     =            0
     lattice parameter (alat)  =       1.8897  a.u.
     unit-cell volume          =    6658.9804 (a.u.)^3
     number of atoms/cell      =           53
     number of atomic types    =            5
     number of electrons       =       395.00
     number of Kohn-Sham states=          207
     kinetic-energy cutoff     =      29.3995  Ry
     charge density cutoff     =     293.9946  Ry
     scf convergence threshold =      7.3E-08
     mixing beta               =       0.0500
     number of iterations used =            8  plain     mixing
     Exchange-correlation= BEEF-VDW
                           (   1   4  43  14   2   0   0)

     celldm(1)=   1.889726  celldm(2)=   0.000000  celldm(3)=   0.000000
     celldm(4)=   0.000000  celldm(5)=   0.000000  celldm(6)=   0.000000

     crystal axes: (cart. coord. in units of alat)
               a(1) = (   6.579727   0.000000   0.000000 )
               a(2) = (  -0.000775   5.961596   0.000000 )
               a(3) = (   0.000000   0.000000  25.155947 )

     reciprocal axes: (cart. coord. in units 2 pi/alat)
               b(1) = (  0.151982  0.000020  0.000000 )
               b(2) = (  0.000000  0.167740  0.000000 )
               b(3) = (  0.000000  0.000000  0.039752 )

     PseudoPot. # 1 for Ti read from file:
     /storage/coda1/p-amedford6/0/shared/rich_project_chbe-medford/medford-share/data/pseudos_module/espresso/nninc/pbe/van/Ti.UPF
     MD5 check sum: 8e4df49b7f0d34bbd5052bf3f5ea0213
     Pseudo is Ultrasoft, Zval = 12.0
     Generated by new atomic code, or converted to UPF format
     Using radial grid of  851 points,  6 beta functions with:
                l(1) =   0
                l(2) =   0
                l(3) =   1
                l(4) =   1
                l(5) =   2
                l(6) =   2
     Q(r) pseudized with  8 coefficients,  rinner =    1.000   1.000   1.000
                                                       1.000   1.000

     PseudoPot. # 2 for O  read from file:
     /storage/coda1/p-amedford6/0/shared/rich_project_chbe-medford/medford-share/data/pseudos_module/espresso/nninc/pbe/van/O.UPF
     MD5 check sum: 78c19812648e8988a0fe644b0f25305e
     Pseudo is Ultrasoft, Zval =  6.0
     Generated by new atomic code, or converted to UPF format
     Using radial grid of  737 points,  4 beta functions with:
                l(1) =   0
                l(2) =   0
                l(3) =   1
                l(4) =   1
     Q(r) pseudized with  8 coefficients,  rinner =    0.800   0.800   0.800

     PseudoPot. # 3 for N  read from file:
     /storage/coda1/p-amedford6/0/shared/rich_project_chbe-medford/medford-share/data/pseudos_module/espresso/nninc/pbe/van/N.UPF
     MD5 check sum: 90d10febe142ad51ac9d5be1deb811c4
     Pseudo is Ultrasoft, Zval =  5.0
     Generated by new atomic code, or converted to UPF format
     Using radial grid of  729 points,  4 beta functions with:
                l(1) =   0
                l(2) =   0
                l(3) =   1
                l(4) =   1
     Q(r) pseudized with  8 coefficients,  rinner =    0.800   0.800   0.800

     PseudoPot. # 4 for C  read from file:
     /storage/coda1/p-amedford6/0/shared/rich_project_chbe-medford/medford-share/data/pseudos_module/espresso/nninc/pbe/van/C.UPF
     MD5 check sum: 1a69bf6b8db32088f5b2163dbdb77a27
     Pseudo is Ultrasoft, Zval =  4.0
     Generated by new atomic code, or converted to UPF format
     Using radial grid of  721 points,  4 beta functions with:
                l(1) =   0
                l(2) =   0
                l(3) =   1
                l(4) =   1
     Q(r) pseudized with  8 coefficients,  rinner =    0.800   0.800   0.800

     PseudoPot. # 5 for H  read from file:
     /storage/coda1/p-amedford6/0/shared/rich_project_chbe-medford/medford-share/data/pseudos_module/espresso/nninc/pbe/van/H.UPF
     MD5 check sum: b5ee9d7bfd3a09ee7748110bda690ff7
     Pseudo is Ultrasoft, Zval =  1.0
     Generated by new atomic code, or converted to UPF format
     Using radial grid of  615 points,  1 beta functions with:
                l(1) =   0
     Q(r) pseudized with  8 coefficients,  rinner =    0.800

     atomic species   valence    mass     pseudopotential
        Ti1           12.00    47.86700     Ti( 1.00)
        O1             6.00    15.99900     O ( 1.00)
        N1             5.00    14.00700     N ( 1.00)
        C1             4.00    12.01100     C ( 1.00)
        H1             1.00     1.00800     H ( 1.00)

     No symmetry found

   Cartesian axes

     site n.     atom                  positions (alat units)
         1           Ti1 tau(   1) = (   0.0004258   2.9801865   6.0000000  )
         2           Ti1 tau(   2) = (   3.2906075   1.4906267   6.0002472  )
         3           O1  tau(   3) = (   0.0006271   0.0005054   7.9858123  )
         4           O1  tau(   4) = (   3.2906025   0.0005020   7.3038282  )
         5           O1  tau(   5) = (   4.5942328   1.4918067   9.2879030  )
         6           O1  tau(   6) = (   1.9868534   1.4903216   9.2879459  )
         7           Ti1 tau(   7) = (   3.2907910   2.8959150   9.1758416  )
         8           Ti1 tau(   8) = (   0.0015273   1.4827037   9.2680791  )
         9           O1  tau(   9) = (   3.2935944   5.9504131  11.3331737  )
        10           O1  tau(  10) = (   0.0116148   5.9584955  10.6183126  )
        11           O1  tau(  11) = (   1.3139784   1.4900993  12.6222913  )
        12           O1  tau(  12) = (   5.2991156   1.4868386  12.6236412  )
        13           Ti1 tau(  13) = (   6.5257823   2.9641578  12.6501544  )
        14           Ti1 tau(  14) = (   3.2087869   1.4768241  12.4812772  )
        15           O1  tau(  15) = (   0.0069532   0.0155221  14.6013729  )
        16           O1  tau(  16) = (   3.2989757   5.9447163  13.9218705  )
        17           O1  tau(  17) = (   4.5399408   1.4684032  16.0509043  )
        18           O1  tau(  18) = (   2.0534050   1.4785924  16.0487376  )
        19           Ti1 tau(  19) = (   3.3071538   2.9600697  15.7031993  )
        20           Ti1 tau(  20) = (   0.0179100   1.3679571  15.8029155  )
        21           O1  tau(  21) = (   3.2904802   0.0005063   4.7018136  )
        22           O1  tau(  22) = (   0.0297737   0.0076327  17.1327444  )
        23           O1  tau(  23) = (   1.3043587   1.4918075   6.0039043  )
        24           O1  tau(  24) = (   5.2767064   1.4903225   6.0039473  )
        25           Ti1 tau(  25) = (   0.0000382   5.9609847   6.0000000  )
        26           Ti1 tau(  26) = (   3.2902200   4.4714249   6.0002472  )
        27           O1  tau(  27) = (   0.0002396   2.9813036   7.9858123  )
        28           O1  tau(  28) = (   3.2902150   2.9813002   7.3038282  )
        29           O1  tau(  29) = (   4.5938453   4.4726049   9.2879030  )
        30           O1  tau(  30) = (   1.9864658   4.4711199   9.2879459  )
        31           Ti1 tau(  31) = (   3.2891106   5.8743827   9.1763621  )
        32           Ti1 tau(  32) = (   0.0006254   4.4649316   9.2693709  )
        33           O1  tau(  33) = (   3.2925666   2.9731923  11.3325550  )
        34           O1  tau(  34) = (   0.0092240   2.9805883  10.6323155  )
        35           O1  tau(  35) = (   1.3076969   4.4692784  12.6256357  )
        36           O1  tau(  36) = (   5.2992390   4.4652990  12.6273021  )
        37           Ti1 tau(  37) = (   6.5214685   5.9362284  12.5385417  )
        38           Ti1 tau(  38) = (   3.2054519   4.4560432  12.4842663  )
        39           O1  tau(  39) = (   0.0022752   2.9713357  14.7092999  )
        40           O1  tau(  40) = (   3.3007181   2.9764241  13.9083417  )
        41           O1  tau(  41) = (   4.5485645   4.4411382  16.0917119  )
        42           O1  tau(  42) = (   2.0537992   4.4371030  16.0853891  )
        43           Ti1 tau(  43) = (   3.2976414   5.9412218  15.7196561  )
        44           Ti1 tau(  44) = (   0.0123595   4.4653852  16.1631357  )
        45           O1  tau(  45) = (   3.2900926   2.9813045   4.7018136  )
        46           O1  tau(  46) = (   1.3039711   4.4726057   6.0039043  )
        47           O1  tau(  47) = (   5.2763189   4.4711207   6.0039473  )
        48           N1  tau(  48) = (   0.6591532   2.9890904  22.3781942  )
        49           C1  tau(  49) = (   6.5648715   3.0465617  17.8347222  )
        50           H1  tau(  50) = (   6.0219261   3.7962297  18.4082231  )
        51           H1  tau(  51) = (   6.0207922   2.1139738  18.0322221  )
        52           H1  tau(  52) = (   0.9815245   2.9432023  18.2699478  )
        53           N1  tau(  53) = (   6.1995506   3.0156182  22.7499213  )

     number of k points=    10  Fermi-Dirac smearing, width (Ry)=  0.0073
                       cart. coord. in units 2pi/alat
        k(    1) = (   0.0000000   0.0000000   0.0000000), wk =   0.1250000
        k(    2) = (   0.0000000   0.0419351   0.0000000), wk =   0.2500000
        k(    3) = (   0.0000000  -0.0838702   0.0000000), wk =   0.1250000
        k(    4) = (   0.0379955   0.0000049   0.0000000), wk =   0.2500000
        k(    5) = (   0.0379955   0.0419400   0.0000000), wk =   0.2500000
        k(    6) = (   0.0379955  -0.0838652   0.0000000), wk =   0.2500000
        k(    7) = (   0.0379955  -0.0419301   0.0000000), wk =   0.2500000
        k(    8) = (  -0.0759910  -0.0000099   0.0000000), wk =   0.1250000
        k(    9) = (  -0.0759910   0.0419252   0.0000000), wk =   0.2500000
        k(   10) = (  -0.0759910  -0.0838800   0.0000000), wk =   0.1250000

     Initial potential from superposition of free atoms

     starting charge  378.99916, renormalised to  395.00000

     negative rho (up, down):  1.028E-02 0.000E+00

     %%%%%%%%%%%%%%%%%%%%%%%%%%%%%%%%%%%%%%%%%%%%%%%%%%%%%%%%%%%%%%%%%%%%%%%%
     %                                                                      %
     % You are using vdW-DF, which was implemented by the Thonhauser group. %
     % Please cite the following two papers that made this development      %
     % possible and the two reviews that describe the various versions:     %
     %                                                                      %
     %   T. Thonhauser et al., PRL 115, 136402 (2015).                      %
     %   T. Thonhauser et al., PRB 76, 125112 (2007).                       %
     %   K. Berland et al., Rep. Prog. Phys. 78, 066501 (2015).             %
     %   D.C. Langreth et al., J. Phys.: Condens. Matter 21, 084203 (2009). %
     %                                                                      %
     %                                                                      %
     % If you are calculating the stress with vdW-DF, please also cite:     %
     %                                                                      %
     %   R. Sabatini et al., J. Phys.: Condens. Matter 24, 424209 (2012).   %
     %                                                                      %
     %%%%%%%%%%%%%%%%%%%%%%%%%%%%%%%%%%%%%%%%%%%%%%%%%%%%%%%%%%%%%%%%%%%%%%%%

     Adding external electric field

     Computed dipole along edir(3) :
        Dipole              -11.4336 Ry au,        -29.0614 Debye
        Dipole field         -0.0216 Ry au,

        Potential amp.        2.0001 Ry
        Total length         46.3494 bohr

     Starting wfcs are  299 atomic wfcs
  @ DRIVER MODE: Message from server: STATUS
  @ DRIVER MODE: Message from server: POSDATA
  @ DRIVER MODE: Reading and sharing cell
  @ DRIVER MODE: Reading and sharing positions
  @ DRIVER MODE: Received positions

     Self-consistent Calculation

     iteration #  1     ecut=    29.40 Ry     beta= 0.05
     Davidson diagonalization with overlap
     c_bands:  1 eigenvalues not converged
     c_bands:  1 eigenvalues not converged
     c_bands:  1 eigenvalues not converged
     c_bands:  1 eigenvalues not converged
     c_bands:  2 eigenvalues not converged
     c_bands:  2 eigenvalues not converged
     c_bands:  1 eigenvalues not converged
     ethr =  1.00E-05,  avg # of iterations = 19.2

[...]

     total energy              =   -2597.27403243 Ry
     estimated scf accuracy    <    3830.67103650 Ry

     iteration #  2     ecut=    29.40 Ry     beta= 0.05
     Davidson diagonalization with overlap
     ethr =  1.00E-02,  avg # of iterations = 22.5

[...]

     iteration # 51     ecut=    29.40 Ry     beta= 0.05
     Davidson diagonalization with overlap
     c_bands:  3 eigenvalues not converged
     ethr =  8.08E-07,  avg # of iterations = 14.0

[...]

     total energy              =   -2939.19592296 Ry
     estimated scf accuracy    <       0.00000009 Ry

     iteration # 73     ecut=    29.40 Ry     beta= 0.05
     Davidson diagonalization with overlap
     ethr =  2.11E-11,  avg # of iterations =  7.0

     negative rho (up, down):  1.218E-02 0.000E+00

     Adding external electric field

     Computed dipole along edir(3) :
        Dipole                0.4060 Ry au,          1.0320 Debye
        Dipole field          0.0008 Ry au,

        Potential amp.       -0.0710 Ry
        Total length         46.3494 bohr

     End of self-consistent calculation

          k = 0.0000 0.0000 0.0000 ( 18029 PWs)   bands (ev):

   -56.0198 -56.0089 -55.9857 -55.9730 -55.9024 -55.8780 -55.8567 -55.8347
   -55.8257 -55.7923 -55.7917 -55.7585 -55.5791 -55.4461 -54.9967 -54.9626
   -32.5646 -32.5019 -32.3735 -32.3559 -32.3257 -32.3250 -32.3127 -32.2826
   -32.2618 -32.2384 -32.2323 -32.2199 -32.1899 -32.1719 -32.1610 -32.1493
   -32.1334 -32.1238 -32.1077 -32.0818 -32.0789 -32.0769 -32.0399 -32.0311
   -32.0280 -32.0232 -32.0136 -32.0096 -31.9946 -31.9929 -31.9870 -31.9669
   -31.9662 -31.9598 -31.9449 -31.9292 -31.9040 -31.8629 -31.7921 -31.7292
   -31.6637 -31.5534 -31.4038 -31.3154 -31.2930 -31.2205 -31.1340 -31.0230
   -20.6301 -16.7661 -16.4949 -16.2717 -16.1732 -16.1475 -16.0305 -15.8626
   -15.7382 -15.6940 -15.5939 -15.5788 -15.5552 -15.5248 -15.5125 -15.5031
   -15.4679 -15.4606 -15.4430 -15.4311 -15.3803 -15.3626 -15.3527 -15.2413
   -15.1956 -15.1539 -15.1377 -15.0741 -15.0254 -14.6386 -13.4992 -13.3828
    -9.0831  -5.7970  -4.1383  -3.9780  -3.9254  -3.8817  -3.8512  -3.7566
    -3.7534  -3.6350  -3.5711  -3.2641  -3.2070  -3.1909  -3.1731  -3.1452
    -2.9838  -2.9193  -2.8562  -2.8314  -2.8266  -2.7980  -2.7899  -2.7762
    -2.7396  -2.7008  -2.6762  -2.6301  -2.5783  -2.5041  -2.5009  -2.4360
    -2.4131  -2.3335  -2.3137  -2.2891  -2.2612  -2.2472  -2.2372  -2.2166
    -2.1944  -2.1804  -1.9890  -1.9584  -1.8938  -1.8083  -1.8027  -1.6265
    -1.5265  -1.4973  -1.4725  -1.4456  -1.4109  -1.3952  -1.3184  -1.2074
    -1.1750  -1.1374  -1.0747  -1.0245  -0.9933  -0.8934  -0.8703  -0.7815
    -0.7802  -0.7557  -0.7030  -0.6052  -0.5048  -0.4752  -0.4566  -0.4101
    -0.3745  -0.3115  -0.2944  -0.2330  -0.1677  -0.1568  -0.0813  -0.0549
    -0.0499  -0.0256  -0.0147   0.0299   0.0446   0.1646   0.1883   0.2740
     0.3186   0.4144   0.5353   0.6397   0.6768   0.7358   0.9509   1.0253
     1.1247   1.1565   1.2176   1.5967   1.6423   3.1196   3.2028   3.2508
     3.2583   3.3521   3.3654   3.5676   3.5941   3.6249   3.6632

[...]

          k = 0.0380-0.0419 0.0000 ( 17876 PWs)   bands (ev):

[...]

          k =-0.0760-0.0000 0.0000 ( 17886 PWs)   bands (ev):

[...]

          k =-0.0760-0.0839 0.0000 ( 17948 PWs)   bands (ev):

   -56.0034 -56.0020 -55.9913 -55.9904 -55.8945 -55.8697 -55.8644 -55.8429
   -55.8096 -55.8074 -55.7773 -55.7737 -55.5773 -55.4478 -54.9797 -54.9794
   -32.3684 -32.3672 -32.3175 -32.3167 -32.2986 -32.2976 -32.2831 -32.2744
   -32.2270 -32.2125 -32.2099 -32.2051 -32.1687 -32.1520 -32.1493 -32.1384
   -32.1305 -32.1228 -32.1215 -32.1213 -32.1152 -32.1116 -32.0941 -32.0865
   -32.0620 -32.0593 -32.0550 -32.0299 -32.0100 -32.0087 -32.0072 -32.0054
   -31.9913 -31.9894 -31.9865 -31.9814 -31.9431 -31.8472 -31.7943 -31.7318
   -31.7050 -31.6016 -31.3058 -31.3056 -31.2166 -31.2164 -31.1773 -31.1772
   -20.6299 -16.2008 -16.1802 -15.9771 -15.9343 -15.9286 -15.9238 -15.8203
   -15.7172 -15.7147 -15.7128 -15.6432 -15.6174 -15.6066 -15.5578 -15.5550
   -15.5437 -15.5325 -15.5271 -15.4810 -15.4737 -15.4563 -15.4476 -15.3824
   -15.3356 -15.3310 -15.3094 -15.1207 -15.0002 -14.9206 -13.4847 -13.4844
    -9.0959  -5.8002  -3.7603  -3.7560  -3.4921  -3.4679  -3.2356  -3.1798
    -3.1673  -3.0937  -2.9510  -2.9154  -2.9091  -2.8964  -2.8628  -2.8496
    -2.8325  -2.8268  -2.8157  -2.7894  -2.7648  -2.7330  -2.7289  -2.7069
    -2.6883  -2.6707  -2.6466  -2.6380  -2.6195  -2.5933  -2.5802  -2.5572
    -2.5486  -2.5237  -2.4872  -2.3487  -2.2537  -2.2157  -2.1565  -2.1483
    -2.1256  -2.0956  -2.0810  -2.0637  -2.0608  -2.0040  -1.8470  -1.7404
    -1.7243  -1.6871  -1.6379  -1.6182  -1.5622  -1.4294  -1.4025  -1.3759
    -1.3138  -1.3020  -1.2549  -1.2329  -1.2195  -1.1388  -1.1215  -1.0603
    -0.9990  -0.9798  -0.9761  -0.9200  -0.8602  -0.7897  -0.7795  -0.7364
    -0.6992  -0.6483  -0.6278  -0.5947  -0.5254  -0.4894  -0.3696  -0.3207
    -0.0907  -0.0373   0.0270   0.0739   0.1322   0.1788   0.1837   0.2987
     0.3011   0.3158   0.4144   0.4193   0.5077   0.5250   0.5480   0.7377
     1.2544   1.3891   1.3899   1.4617   1.4622   3.3949   3.4128   3.4420
     3.4840   3.6202   3.6294   3.6481   3.6499   3.7757   3.7990

     the Fermi energy is     3.1156 ev

!    total energy              =   -2939.19593534 Ry
     estimated scf accuracy    <       0.00000004 Ry
     smearing contrib. (-TS)   =      -0.02186380 Ry
     internal energy E=F+TS    =   -2939.17407154 Ry

     The total energy is F=E-TS. E is the sum of the following terms:
     one-electron contribution =  -23189.52379933 Ry
     hartree contribution      =   11680.04251207 Ry
     xc contribution           =    -484.90554999 Ry
     ewald contribution        =    9055.21245461 Ry
     electric field correction =       0.00031111 Ry

     convergence has been achieved in  73 iterations

     Forces acting on atoms (cartesian axes, Ry/au):

     atom    1 type  1   force =    -0.00000331   -0.00019227    0.09686128
     atom    2 type  1   force =    -0.00000609   -0.00054164   -0.17526304
     atom    3 type  2   force =     0.00009568   -0.00001360   -0.02519469
     atom    4 type  2   force =    -0.00003131   -0.00141076    0.05282811
     atom    5 type  2   force =    -0.01240191   -0.00103362    0.00324115
     atom    6 type  2   force =     0.01389179   -0.00053174    0.00284308
     atom    7 type  1   force =     0.00060063    0.00044044   -0.01145526
     atom    8 type  1   force =     0.00025566    0.01541381    0.02921124
     atom    9 type  2   force =    -0.00019727    0.00078291    0.00005523
     atom   10 type  2   force =    -0.00284032    0.00141646   -0.01825166
     atom   11 type  2   force =     0.00081807    0.00003635   -0.00002721
     atom   12 type  2   force =    -0.00062293   -0.00014647   -0.00011107
     atom   13 type  1   force =     0.00060486   -0.00031700   -0.00007936
     atom   14 type  1   force =    -0.00039544    0.00029240   -0.00008599
     atom   15 type  2   force =     0.00016521    0.00058221    0.00073918
     atom   16 type  2   force =    -0.00014980    0.00009334    0.00046331
     atom   17 type  2   force =     0.00029075   -0.00058998   -0.00022188
     atom   18 type  2   force =    -0.00020536   -0.00052510    0.00020581
     atom   19 type  1   force =    -0.00005661   -0.00128207   -0.00027937
     atom   20 type  1   force =    -0.00006491   -0.00059533   -0.00035218
     atom   21 type  2   force =     0.00002264    0.00005726    0.10327051
     atom   22 type  2   force =    -0.00022445    0.00094897   -0.00004591
     atom   23 type  2   force =    -0.07153457   -0.00009528   -0.02769583
     atom   24 type  2   force =     0.07140335    0.00039350   -0.02775501
     atom   25 type  1   force =     0.00004970   -0.00026576    0.09666452
     atom   26 type  1   force =     0.00003309   -0.00013599   -0.17543934
     atom   27 type  2   force =     0.00012949   -0.00012020   -0.02392749
     atom   28 type  2   force =    -0.00000643   -0.00118553    0.05301152
     atom   29 type  2   force =    -0.01259431    0.00056139    0.00299945
     atom   30 type  2   force =     0.01395023    0.00101888    0.00262894
     atom   31 type  1   force =     0.00052390    0.00340606   -0.01252615
     atom   32 type  1   force =     0.00028132   -0.01699679    0.02991038
     atom   33 type  2   force =    -0.00024756   -0.00052156   -0.00050695
     atom   34 type  2   force =    -0.00265728    0.00030852   -0.02238708
     atom   35 type  2   force =    -0.00006331   -0.00016594    0.00002987
     atom   36 type  2   force =     0.00001309   -0.00002263    0.00006561
     atom   37 type  1   force =     0.00029298   -0.00035796   -0.00056368
     atom   38 type  1   force =    -0.00023121    0.00040498    0.00020831
     atom   39 type  2   force =     0.00003858   -0.00042134    0.00059863
     atom   40 type  2   force =     0.00032740   -0.00051507   -0.00001558
     atom   41 type  2   force =    -0.00047917    0.00013475    0.00001572
     atom   42 type  2   force =     0.00070955    0.00033452   -0.00024932
     atom   43 type  1   force =    -0.00023804    0.00050988    0.00004801
     atom   44 type  1   force =     0.00045386    0.00052012   -0.00100706
     atom   45 type  2   force =     0.00002078    0.00002573    0.10325473
     atom   46 type  2   force =    -0.07152871   -0.00000404   -0.02768889
     atom   47 type  2   force =     0.07137731    0.00040347   -0.02775084
     atom   48 type  3   force =    -0.00083056    0.00016945   -0.00040220
     atom   49 type  4   force =     0.00147530   -0.01767186   -0.00215630
     atom   50 type  5   force =    -0.00390789    0.00686220    0.00483041
     atom   51 type  5   force =     0.00400235    0.00792325   -0.00196024
     atom   52 type  5   force =    -0.00099327    0.00236802   -0.00021732
     atom   53 type  3   force =     0.00068442    0.00025064   -0.00036810

     Total force =     0.369505     Total SCF correction =     0.000484
  @ DRIVER MODE: Message from server: STATUS
  @ DRIVER MODE: Message from server: GETFORCE
  @ DRIVER MODE: Returning v,forces,stress,ensemble

     Writing output data file ./calc.save/
  @ DRIVER MODE: Message from server: EXIT
  @ DRIVE MODE: Exiting

     General routines

     Parallel routines

   This run was terminated on:  16:26: 2   2Aug2021

   JOB DONE.