     Program PWSCF v.6.7GPU starts on 24Aug2021 at  4: 3:39

     R & G space division:  proc/nbgrp/npool/nimage =       6
     Reading input from /storage/home/hcoda1/3/ntian30/research/carbon/CH_vib/ads_slab/CHNNHH_a/out_0029/pw.inp
Warning: card &CELL ignored
Warning: card   CELL_DYNAMICS='IPI', ignored
Warning: card / ignored

     Current dimensions of program PWSCF are:
     Max number of different atomic species (ntypx) = 10
     Max number of k-points (npk) =  40000
     Max angular momentum in pseudopotentials (lmaxx) =  3
     Presently no symmetry can be used with electric field

     Message from routine cell_base_init:
     DEPRECATED: use true lattice parameter, not A to a.u. conversion factor

     IMPORTANT: XC functional enforced from input :
     Exchange-correlation= BEEF-VDW
                           (   1   4  43  14   2   0   0)
     Any further DFT definition will be discarded
     Please, verify this is what you really want

  @ DRIVER MODE: Connecting to
 qe_1139763_2632796.sched-torque.pace.gatech.edulysapim2_scratch
  using UNIX socket
  @ DRIVER MODE: Message from server: STATUS
  @ DRIVER MODE: Message from server: INIT
  @ DRIVER MODE: Receiving replica           0          -1
  @ DRIVER MODE: Receiving encoded integer          25
  @ DRIVER MODE:  SCF:  T  FORCE:  T  STRESS:  F  VC:  F  ENSEMBLE:  F
  @ DRIVER MODE:  SCF:  T  FORCE:  T  STRESS:  F  VC:  F  ENSEMBLE:  F

     Using Slab Decomposition

     bravais-lattice index     =            0
     lattice parameter (alat)  =       1.8897  a.u.
     unit-cell volume          =    6658.9804 (a.u.)^3
     number of atoms/cell      =           53
     number of atomic types    =            5
     number of electrons       =       395.00
     number of Kohn-Sham states=          207
     kinetic-energy cutoff     =      29.3995  Ry
     charge density cutoff     =     293.9946  Ry
     scf convergence threshold =      7.3E-08
     mixing beta               =       0.0500
     number of iterations used =            8  plain     mixing
     Exchange-correlation= BEEF-VDW
                           (   1   4  43  14   2   0   0)

     celldm(1)=   1.889726  celldm(2)=   0.000000  celldm(3)=   0.000000
     celldm(4)=   0.000000  celldm(5)=   0.000000  celldm(6)=   0.000000

     crystal axes: (cart. coord. in units of alat)
               a(1) = (   6.579727   0.000000   0.000000 )
               a(2) = (  -0.000775   5.961596   0.000000 )
               a(3) = (   0.000000   0.000000  25.155947 )

     reciprocal axes: (cart. coord. in units 2 pi/alat)
               b(1) = (  0.151982  0.000020  0.000000 )
               b(2) = (  0.000000  0.167740  0.000000 )
               b(3) = (  0.000000  0.000000  0.039752 )

     PseudoPot. # 1 for Ti read from file:
     /storage/coda1/p-amedford6/0/shared/rich_project_chbe-medford/medford-share/data/pseudos_module/espresso/nninc/pbe/van/Ti.UPF
     MD5 check sum: 8e4df49b7f0d34bbd5052bf3f5ea0213
     Pseudo is Ultrasoft, Zval = 12.0
     Generated by new atomic code, or converted to UPF format
     Using radial grid of  851 points,  6 beta functions with:
                l(1) =   0
                l(2) =   0
                l(3) =   1
                l(4) =   1
                l(5) =   2
                l(6) =   2
     Q(r) pseudized with  8 coefficients,  rinner =    1.000   1.000   1.000
                                                       1.000   1.000

     PseudoPot. # 2 for O  read from file:
     /storage/coda1/p-amedford6/0/shared/rich_project_chbe-medford/medford-share/data/pseudos_module/espresso/nninc/pbe/van/O.UPF
     MD5 check sum: 78c19812648e8988a0fe644b0f25305e
     Pseudo is Ultrasoft, Zval =  6.0
     Generated by new atomic code, or converted to UPF format
     Using radial grid of  737 points,  4 beta functions with:
                l(1) =   0
                l(2) =   0
                l(3) =   1
                l(4) =   1
     Q(r) pseudized with  8 coefficients,  rinner =    0.800   0.800   0.800

     PseudoPot. # 3 for N  read from file:
     /storage/coda1/p-amedford6/0/shared/rich_project_chbe-medford/medford-share/data/pseudos_module/espresso/nninc/pbe/van/N.UPF
     MD5 check sum: 90d10febe142ad51ac9d5be1deb811c4
     Pseudo is Ultrasoft, Zval =  5.0
     Generated by new atomic code, or converted to UPF format
     Using radial grid of  729 points,  4 beta functions with:
                l(1) =   0
                l(2) =   0
                l(3) =   1
                l(4) =   1
     Q(r) pseudized with  8 coefficients,  rinner =    0.800   0.800   0.800

     PseudoPot. # 4 for C  read from file:
     /storage/coda1/p-amedford6/0/shared/rich_project_chbe-medford/medford-share/data/pseudos_module/espresso/nninc/pbe/van/C.UPF
     MD5 check sum: 1a69bf6b8db32088f5b2163dbdb77a27
     Pseudo is Ultrasoft, Zval =  4.0
     Generated by new atomic code, or converted to UPF format
     Using radial grid of  721 points,  4 beta functions with:
                l(1) =   0
                l(2) =   0
                l(3) =   1
                l(4) =   1
     Q(r) pseudized with  8 coefficients,  rinner =    0.800   0.800   0.800

     PseudoPot. # 5 for H  read from file:
     /storage/coda1/p-amedford6/0/shared/rich_project_chbe-medford/medford-share/data/pseudos_module/espresso/nninc/pbe/van/H.UPF
     MD5 check sum: b5ee9d7bfd3a09ee7748110bda690ff7
     Pseudo is Ultrasoft, Zval =  1.0
     Generated by new atomic code, or converted to UPF format
     Using radial grid of  615 points,  1 beta functions with:
                l(1) =   0
     Q(r) pseudized with  8 coefficients,  rinner =    0.800

     atomic species   valence    mass     pseudopotential
        Ti1           12.00    47.86700     Ti( 1.00)
        O1             6.00    15.99900     O ( 1.00)
        N1             5.00    14.00700     N ( 1.00)
        C1             4.00    12.01100     C ( 1.00)
        H1             1.00     1.00800     H ( 1.00)

     No symmetry found

   Cartesian axes

     site n.     atom                  positions (alat units)
         1           Ti1 tau(   1) = (   0.0004258   2.9801865   6.0000000  )
         2           Ti1 tau(   2) = (   3.2906075   1.4906267   6.0002472  )
         3           O1  tau(   3) = (   0.0006271   0.0005054   7.9858123  )
         4           O1  tau(   4) = (   3.2906025   0.0005020   7.3038282  )
         5           O1  tau(   5) = (   4.5942328   1.4918067   9.2879030  )
         6           O1  tau(   6) = (   1.9868534   1.4903216   9.2879459  )
         7           Ti1 tau(   7) = (   3.2907910   2.8959150   9.1758416  )
         8           Ti1 tau(   8) = (   0.0015273   1.4827037   9.2680791  )
         9           O1  tau(   9) = (   3.2912281   5.9459940  11.3193265  )
        10           O1  tau(  10) = (   0.0116148   5.9584955  10.6183126  )
        11           O1  tau(  11) = (   1.3103257   1.4650607  12.6442557  )
        12           O1  tau(  12) = (   5.3047449   1.4806448  12.6312737  )
        13           Ti1 tau(  13) = (   6.5337005   3.0128982  12.6900614  )
        14           Ti1 tau(  14) = (   3.2207025   1.4698770  12.4715817  )
        15           O1  tau(  15) = (   6.5518216   5.9146589  14.6704082  )
        16           O1  tau(  16) = (   3.3240203   5.9583723  13.8895330  )
        17           O1  tau(  17) = (   4.5456974   1.5225049  16.1264218  )
        18           O1  tau(  18) = (   2.0489736   1.4727210  15.9535721  )
        19           Ti1 tau(  19) = (   3.2591190   2.9927146  15.6788090  )
        20           Ti1 tau(  20) = (   0.0289511   1.3544711  15.7732889  )
        21           O1  tau(  21) = (   3.2904802   0.0005063   4.7018136  )
        22           O1  tau(  22) = (   0.0559926   0.0451390  17.2112278  )
        23           O1  tau(  23) = (   1.3043587   1.4918075   6.0039043  )
        24           O1  tau(  24) = (   5.2767064   1.4903225   6.0039473  )
        25           Ti1 tau(  25) = (   0.0000382   5.9609847   6.0000000  )
        26           Ti1 tau(  26) = (   3.2902200   4.4714249   6.0002472  )
        27           O1  tau(  27) = (   0.0002396   2.9813036   7.9858123  )
        28           O1  tau(  28) = (   3.2902150   2.9813002   7.3038282  )
        29           O1  tau(  29) = (   4.5938453   4.4726049   9.2879030  )
        30           O1  tau(  30) = (   1.9864658   4.4711199   9.2879459  )
        31           Ti1 tau(  31) = (   3.2891106   5.8743827   9.1763621  )
        32           Ti1 tau(  32) = (   0.0006254   4.4649316   9.2693709  )
        33           O1  tau(  33) = (   3.2889932   2.9698301  11.3211337  )
        34           O1  tau(  34) = (   0.0092240   2.9805883  10.6323155  )
        35           O1  tau(  35) = (   1.3069247   4.4567274  12.6410950  )
        36           O1  tau(  36) = (   5.3013738   4.4587240  12.6283471  )
        37           Ti1 tau(  37) = (   6.5339814   0.0202798  12.5235249  )
        38           Ti1 tau(  38) = (   3.2191325   4.4512509  12.4750946  )
        39           O1  tau(  39) = (   6.5688456   2.9522374  14.7547250  )
        40           O1  tau(  40) = (   3.3031296   2.9710333  13.8824388  )
        41           O1  tau(  41) = (   4.5425837   4.4734130  15.9989242  )
        42           O1  tau(  42) = (   2.0771424   4.4889556  16.0364895  )
        43           Ti1 tau(  43) = (   3.3121389   0.0026565  15.6888161  )
        44           Ti1 tau(  44) = (   6.5128106   4.4989306  16.3061806  )
        45           O1  tau(  45) = (   3.2900926   2.9813045   4.7018136  )
        46           O1  tau(  46) = (   1.3039711   4.4726057   6.0039043  )
        47           O1  tau(  47) = (   5.2763189   4.4711207   6.0039473  )
        48           N1  tau(  48) = (   0.4628824   2.9849886  17.7976856  )
        49           C1  tau(  49) = (   1.4182946   2.9518240  18.6700831  )
        50           H1  tau(  50) = (   2.3503500   2.6458988  18.1556329  )
        51           N1  tau(  51) = (   5.7893717   3.5482605  18.2279111  )
        52           H1  tau(  52) = (   5.8942619   4.0012392  19.1265464  )
        53           H1  tau(  53) = (   5.0734348   2.8266848  18.2415795  )

     number of k points=    10  Fermi-Dirac smearing, width (Ry)=  0.0073
                       cart. coord. in units 2pi/alat
        k(    1) = (   0.0000000   0.0000000   0.0000000), wk =   0.1250000
        k(    2) = (   0.0000000   0.0419351   0.0000000), wk =   0.2500000
        k(    3) = (   0.0000000  -0.0838702   0.0000000), wk =   0.1250000
        k(    4) = (   0.0379955   0.0000049   0.0000000), wk =   0.2500000
        k(    5) = (   0.0379955   0.0419400   0.0000000), wk =   0.2500000
        k(    6) = (   0.0379955  -0.0838652   0.0000000), wk =   0.2500000
        k(    7) = (   0.0379955  -0.0419301   0.0000000), wk =   0.2500000
        k(    8) = (  -0.0759910  -0.0000099   0.0000000), wk =   0.1250000
        k(    9) = (  -0.0759910   0.0419252   0.0000000), wk =   0.2500000
        k(   10) = (  -0.0759910  -0.0838800   0.0000000), wk =   0.1250000

     Initial potential from superposition of free atoms

     starting charge  378.99916, renormalised to  395.00000

     negative rho (up, down):  1.776E-02 0.000E+00

     %%%%%%%%%%%%%%%%%%%%%%%%%%%%%%%%%%%%%%%%%%%%%%%%%%%%%%%%%%%%%%%%%%%%%%%%
     %                                                                      %
     % You are using vdW-DF, which was implemented by the Thonhauser group. %
     % Please cite the following two papers that made this development      %
     % possible and the two reviews that describe the various versions:     %
     %                                                                      %
     %   T. Thonhauser et al., PRL 115, 136402 (2015).                      %
     %   T. Thonhauser et al., PRB 76, 125112 (2007).                       %
     %   K. Berland et al., Rep. Prog. Phys. 78, 066501 (2015).             %
     %   D.C. Langreth et al., J. Phys.: Condens. Matter 21, 084203 (2009). %
     %                                                                      %
     %                                                                      %
     % If you are calculating the stress with vdW-DF, please also cite:     %
     %                                                                      %
     %   R. Sabatini et al., J. Phys.: Condens. Matter 24, 424209 (2012).   %
     %                                                                      %
     %%%%%%%%%%%%%%%%%%%%%%%%%%%%%%%%%%%%%%%%%%%%%%%%%%%%%%%%%%%%%%%%%%%%%%%%

     Adding external electric field

     Computed dipole along edir(3) :
        Dipole               -8.0612 Ry au,        -20.4894 Debye
        Dipole field         -0.0152 Ry au,

        Potential amp.        1.4102 Ry
        Total length         46.3494 bohr

     Starting wfcs are  299 atomic wfcs
  @ DRIVER MODE: Message from server: STATUS
  @ DRIVER MODE: Message from server: POSDATA
  @ DRIVER MODE: Reading and sharing cell
  @ DRIVER MODE: Reading and sharing positions
  @ DRIVER MODE: Received positions

     Self-consistent Calculation

     iteration #  1     ecut=    29.40 Ry     beta= 0.05
     Davidson diagonalization with overlap
     c_bands:  1 eigenvalues not converged
     c_bands:  1 eigenvalues not converged
     c_bands:  2 eigenvalues not converged
     c_bands:  3 eigenvalues not converged
     c_bands:  3 eigenvalues not converged
     c_bands:  2 eigenvalues not converged
     c_bands:  1 eigenvalues not converged
     ethr =  1.00E-05,  avg # of iterations = 19.2

[...]

     total energy              =   -2614.85338833 Ry
     estimated scf accuracy    <    3583.84859352 Ry

[...]

     iteration #  3     ecut=    29.40 Ry     beta= 0.05
     Davidson diagonalization with overlap
     ethr =  1.00E-02,  avg # of iterations = 14.6

[...]

     iteration # 49     ecut=    29.40 Ry     beta= 0.05
     Davidson diagonalization with overlap
     c_bands:  1 eigenvalues not converged
     ethr =  2.02E-08,  avg # of iterations = 12.4

[...]

     total energy              =   -2939.00596752 Ry
     estimated scf accuracy    <       0.00000015 Ry

     iteration # 72     ecut=    29.40 Ry     beta= 0.05
     Davidson diagonalization with overlap
     ethr =  3.88E-11,  avg # of iterations =  6.2

     negative rho (up, down):  1.649E-02 0.000E+00

     Adding external electric field

     Computed dipole along edir(3) :
        Dipole                0.3040 Ry au,          0.7726 Debye
        Dipole field          0.0006 Ry au,

        Potential amp.       -0.0532 Ry
        Total length         46.3494 bohr

     End of self-consistent calculation

          k = 0.0000 0.0000 0.0000 ( 18029 PWs)   bands (ev):

   -56.1073 -56.1050 -56.0732 -56.0687 -55.9954 -55.9611 -55.9551 -55.9201
   -55.9045 -55.8703 -55.8688 -55.8345 -55.6474 -55.5864 -55.0767 -55.0427
   -32.6642 -32.5883 -32.4870 -32.4269 -32.4125 -32.4083 -32.3997 -32.3599
   -32.3473 -32.3327 -32.3070 -32.2855 -32.2793 -32.2597 -32.2526 -32.2459
   -32.2103 -32.1973 -32.1945 -32.1900 -32.1857 -32.1647 -32.1586 -32.1424
   -32.1173 -32.1031 -32.1020 -32.1012 -32.0959 -32.0925 -32.0710 -32.0443
   -32.0440 -32.0296 -32.0219 -32.0026 -31.9808 -31.9534 -31.8753 -31.8463
   -31.8021 -31.7379 -31.4835 -31.3961 -31.3736 -31.3004 -31.2139 -31.1028
   -17.9913 -16.8733 -16.5834 -16.3685 -16.2625 -16.2472 -16.1409 -15.9554
   -15.8222 -15.7940 -15.6872 -15.6808 -15.6394 -15.6274 -15.5981 -15.5748
   -15.5664 -15.5397 -15.5372 -15.5208 -15.4766 -15.4532 -15.4339 -15.3380
   -15.2981 -15.2374 -15.2159 -15.1542 -15.0321 -14.7976 -13.5791 -13.4628
   -13.3313  -8.0679  -6.3982  -4.3650  -4.2474  -4.0708  -4.0098  -3.9687
    -3.9620  -3.7197  -3.6871  -3.3281  -3.2956  -3.2762  -3.2655  -3.2542
    -3.1420  -3.0193  -2.9639  -2.9217  -2.9113  -2.9006  -2.8935  -2.8807
    -2.8546  -2.8324  -2.7293  -2.6847  -2.6534  -2.5435  -2.5252  -2.4344
    -2.4173  -2.4070  -2.3719  -2.3515  -2.3424  -2.3166  -2.3053  -2.2788
    -2.1941  -2.1455  -2.0296  -1.9657  -1.8868  -1.8517  -1.7036  -1.6602
    -1.5725  -1.5664  -1.5472  -1.5248  -1.4917  -1.4059  -1.3323  -1.2422
    -1.2005  -1.1626  -1.1268  -1.0834  -1.0023  -0.9830  -0.9657  -0.8693
    -0.8652  -0.8559  -0.8133  -0.6115  -0.5871  -0.5529  -0.5402  -0.4630
    -0.4043  -0.3879  -0.3668  -0.3189  -0.2587  -0.1954  -0.1496  -0.1346
    -0.1231  -0.1198  -0.0854  -0.0595   0.0833   0.0937   0.1879   0.2000
     0.2230   0.3492   0.5241   0.5622   0.5827   0.7036   0.8762   0.9455
     1.0472   1.1385   1.5158   1.5611   2.4087   3.0306   3.1168   3.1505
     3.1701   3.2756   3.3083   3.4781   3.4934   3.5285   3.5480

[...]

          k = 0.0380-0.0419 0.0000 ( 17876 PWs)   bands (ev):

[...]

          k =-0.0760-0.0000 0.0000 ( 17886 PWs)   bands (ev):

[...]

          k =-0.0760-0.0839 0.0000 ( 17948 PWs)   bands (ev):

   -56.0912 -56.0891 -56.0887 -56.0848 -55.9862 -55.9642 -55.9515 -55.9296
   -55.8893 -55.8850 -55.8551 -55.8484 -55.6441 -55.5896 -55.0597 -55.0596
   -32.4676 -32.4632 -32.4043 -32.4030 -32.3861 -32.3845 -32.3663 -32.3540
   -32.3350 -32.3155 -32.2922 -32.2758 -32.2498 -32.2401 -32.2395 -32.2209
   -32.2207 -32.2111 -32.2087 -32.2030 -32.2018 -32.1936 -32.1879 -32.1739
   -32.1690 -32.1510 -32.1347 -32.1319 -32.0888 -32.0869 -32.0851 -32.0811
   -32.0725 -32.0700 -32.0665 -32.0647 -32.0609 -31.9715 -31.8869 -31.8396
   -31.8054 -31.7942 -31.3863 -31.3863 -31.2964 -31.2962 -31.2572 -31.2571
   -17.9815 -16.3091 -16.2932 -16.0766 -16.0321 -16.0279 -16.0070 -15.9186
   -15.8285 -15.8093 -15.7950 -15.7776 -15.7626 -15.6825 -15.6568 -15.6344
   -15.6306 -15.6181 -15.5630 -15.5574 -15.5544 -15.5491 -15.5290 -15.4959
   -15.4134 -15.4084 -15.3978 -15.1597 -15.0943 -15.0224 -13.5649 -13.5644
   -13.3441  -8.0273  -6.3355  -4.3808  -3.6021  -3.5833  -3.3580  -3.3140
    -3.2842  -3.2753  -3.1599  -3.0576  -3.0276  -3.0150  -2.9763  -2.9582
    -2.9458  -2.9333  -2.9204  -2.9011  -2.8755  -2.8421  -2.8366  -2.7907
    -2.7736  -2.7526  -2.7352  -2.7135  -2.7126  -2.6719  -2.6662  -2.6276
    -2.5896  -2.5446  -2.4352  -2.3810  -2.3424  -2.2923  -2.2360  -2.2250
    -2.2161  -2.1623  -2.1571  -2.1240  -2.0383  -1.9630  -1.8273  -1.8054
    -1.7724  -1.7317  -1.6985  -1.6019  -1.5575  -1.5082  -1.4563  -1.4003
    -1.3885  -1.3460  -1.3090  -1.2425  -1.2256  -1.1859  -1.1648  -1.1024
    -1.0605  -1.0564  -0.9930  -0.9258  -0.8678  -0.8652  -0.8448  -0.8286
    -0.7715  -0.7236  -0.6568  -0.6077  -0.5660  -0.4692  -0.4122  -0.2960
    -0.1875  -0.0686   0.0026   0.0064   0.0620   0.1394   0.1847   0.2197
     0.2300   0.2478   0.3399   0.4116   0.4309   0.4445   0.5111   0.6974
     1.3102   1.3114   1.3803   1.3812   2.4055   3.3187   3.3568   3.3711
     3.4022   3.5475   3.5501   3.5624   3.5660   3.6849   3.7179

     the Fermi energy is     3.0277 ev

!    total energy              =   -2939.00598159 Ry
     estimated scf accuracy    <       0.00000007 Ry
     smearing contrib. (-TS)   =      -0.02201527 Ry
     internal energy E=F+TS    =   -2938.98396631 Ry

     The total energy is F=E-TS. E is the sum of the following terms:
     one-electron contribution =  -24453.28085945 Ry
     hartree contribution      =   12311.70905956 Ry
     xc contribution           =    -485.13696994 Ry
     ewald contribution        =    9687.72462918 Ry
     electric field correction =       0.00017435 Ry

     convergence has been achieved in  72 iterations

     Forces acting on atoms (cartesian axes, Ry/au):

     atom    1 type  1   force =     0.00018500   -0.00028493    0.09686746
     atom    2 type  1   force =     0.00006252   -0.00078719   -0.17499808
     atom    3 type  2   force =     0.00014716   -0.00008791   -0.02554051
     atom    4 type  2   force =    -0.00003113   -0.00142387    0.05152135
     atom    5 type  2   force =    -0.01203772   -0.00173460    0.00279358
     atom    6 type  2   force =     0.01346016   -0.00134311    0.00223533
     atom    7 type  1   force =     0.00040614    0.00015758   -0.01209257
     atom    8 type  1   force =     0.00019219    0.02418144    0.02897966
     atom    9 type  2   force =    -0.00003973    0.00052219   -0.00005775
     atom   10 type  2   force =    -0.00266249    0.00014348   -0.01162876
     atom   11 type  2   force =    -0.00001789    0.00026694    0.00004975
     atom   12 type  2   force =    -0.00025935   -0.00001757    0.00014575
     atom   13 type  1   force =    -0.00012345    0.00114619   -0.00015847
     atom   14 type  1   force =    -0.00000203    0.00049604    0.00003943
     atom   15 type  2   force =     0.00010049   -0.00011816   -0.00006630
     atom   16 type  2   force =    -0.00021157    0.00023139   -0.00029633
     atom   17 type  2   force =     0.00036714    0.00020377   -0.00031197
     atom   18 type  2   force =    -0.00024499    0.00010045   -0.00010399
     atom   19 type  1   force =    -0.00018580   -0.00017761   -0.00056224
     atom   20 type  1   force =     0.00020871    0.00002212   -0.00017290
     atom   21 type  2   force =     0.00006653   -0.00007275    0.10298257
     atom   22 type  2   force =     0.00001521   -0.00019138   -0.00026484
     atom   23 type  2   force =    -0.07168532   -0.00017008   -0.02792376
     atom   24 type  2   force =     0.07159172    0.00029056   -0.02796065
     atom   25 type  1   force =     0.00003630   -0.00025371    0.09676441
     atom   26 type  1   force =    -0.00000655   -0.00017839   -0.17516178
     atom   27 type  2   force =     0.00015756   -0.00026625   -0.02420441
     atom   28 type  2   force =     0.00001603   -0.00118235    0.05207153
     atom   29 type  2   force =    -0.01219424    0.00078029    0.00247370
     atom   30 type  2   force =     0.01350049    0.00126285    0.00188335
     atom   31 type  1   force =     0.00045245    0.00286929   -0.01397808
     atom   32 type  1   force =     0.00038834   -0.02518187    0.03047582
     atom   33 type  2   force =     0.00004497   -0.00008320   -0.00016673
     atom   34 type  2   force =    -0.00184049   -0.00050154   -0.02071066
     atom   35 type  2   force =     0.00000648    0.00022072   -0.00004657
     atom   36 type  2   force =     0.00016053    0.00033301    0.00016874
     atom   37 type  1   force =    -0.00021169   -0.00085398   -0.00003498
     atom   38 type  1   force =     0.00008481    0.00012662   -0.00021774
     atom   39 type  2   force =     0.00007166    0.00032691   -0.00021640
     atom   40 type  2   force =    -0.00006612    0.00008625    0.00043137
     atom   41 type  2   force =     0.00045994    0.00004018   -0.00012065
     atom   42 type  2   force =    -0.00026976   -0.00006033   -0.00021229
     atom   43 type  1   force =    -0.00037517    0.00030623    0.00007105
     atom   44 type  1   force =     0.00010607   -0.00011106    0.00000411
     atom   45 type  2   force =     0.00005495   -0.00006765    0.10300710
     atom   46 type  2   force =    -0.07171738   -0.00012060   -0.02791887
     atom   47 type  2   force =     0.07160633    0.00025447   -0.02794331
     atom   48 type  3   force =     0.00042899    0.00031280   -0.00059364
     atom   49 type  4   force =    -0.00037253    0.00010889    0.00004293
     atom   50 type  5   force =     0.00029416    0.00053480   -0.00022274
     atom   51 type  3   force =    -0.00131336   -0.00629491   -0.01217533
     atom   52 type  5   force =     0.00116812    0.00598208    0.01263650
     atom   53 type  5   force =     0.00002763    0.00025750    0.00041782

     Total force =     0.369495     Total SCF correction =     0.000664
  @ DRIVER MODE: Message from server: STATUS
  @ DRIVER MODE: Message from server: GETFORCE
  @ DRIVER MODE: Returning v,forces,stress,ensemble

     Writing output data file ./calc.save/
  @ DRIVER MODE: Message from server: EXIT
  @ DRIVE MODE: Exiting

     General routines

     Parallel routines

   This run was terminated on:   4:34:37  24Aug2021

   JOB DONE.