     Program PWSCF v.6.7GPU starts on 12Oct2021 at  0: 2:12

     R & G space division:  proc/nbgrp/npool/nimage =       8
     Reading input from /storage/home/hcoda1/3/ntian30/research/carbon/CxH_vib/CH2_calc/ads_slab/CH2NHH_b/out_0020/pw.inp
Warning: card &CELL ignored
Warning: card   CELL_DYNAMICS='IPI', ignored
Warning: card / ignored

     Current dimensions of program PWSCF are:
     Max number of different atomic species (ntypx) = 10
     Max number of k-points (npk) =  40000
     Max angular momentum in pseudopotentials (lmaxx) =  3
     Presently no symmetry can be used with electric field

     Message from routine cell_base_init:
     DEPRECATED: use true lattice parameter, not A to a.u. conversion factor

     IMPORTANT: XC functional enforced from input :
     Exchange-correlation= BEEF-VDW
                           (   1   4  43  14   2   0   0)
     Any further DFT definition will be discarded
     Please, verify this is what you really want

  @ DRIVER MODE: Connecting to
 qe_1139763_3171005.sched-torque.pace.gatech.edu879c11by_scratch
  using UNIX socket
  @ DRIVER MODE: Message from server: STATUS
  @ DRIVER MODE: Message from server: INIT
  @ DRIVER MODE: Receiving replica           0          -1
  @ DRIVER MODE: Receiving encoded integer          25
  @ DRIVER MODE:  SCF:  T  FORCE:  T  STRESS:  F  VC:  F  ENSEMBLE:  F
  @ DRIVER MODE:  SCF:  T  FORCE:  T  STRESS:  F  VC:  F  ENSEMBLE:  F

     Using Slab Decomposition

     bravais-lattice index     =            0
     lattice parameter (alat)  =       1.8897  a.u.
     unit-cell volume          =    6658.9804 (a.u.)^3
     number of atoms/cell      =           53
     number of atomic types    =            5
     number of electrons       =       391.00
     number of Kohn-Sham states=          205
     kinetic-energy cutoff     =      29.3995  Ry
     charge density cutoff     =     293.9946  Ry
     scf convergence threshold =      7.3E-08
     mixing beta               =       0.0500
     number of iterations used =            8  plain     mixing
     Exchange-correlation= BEEF-VDW
                           (   1   4  43  14   2   0   0)

     celldm(1)=   1.889726  celldm(2)=   0.000000  celldm(3)=   0.000000
     celldm(4)=   0.000000  celldm(5)=   0.000000  celldm(6)=   0.000000

     crystal axes: (cart. coord. in units of alat)
               a(1) = (   6.579727   0.000000   0.000000 )
               a(2) = (  -0.000775   5.961596   0.000000 )
               a(3) = (   0.000000   0.000000  25.155947 )

     reciprocal axes: (cart. coord. in units 2 pi/alat)
               b(1) = (  0.151982  0.000020  0.000000 )
               b(2) = (  0.000000  0.167740  0.000000 )
               b(3) = (  0.000000  0.000000  0.039752 )

     PseudoPot. # 1 for Ti read from file:
     /storage/coda1/p-amedford6/0/shared/rich_project_chbe-medford/medford-share/data/pseudos_module/espresso/nninc/pbe/van/Ti.UPF
     MD5 check sum: 8e4df49b7f0d34bbd5052bf3f5ea0213
     Pseudo is Ultrasoft, Zval = 12.0
     Generated by new atomic code, or converted to UPF format
     Using radial grid of  851 points,  6 beta functions with:
                l(1) =   0
                l(2) =   0
                l(3) =   1
                l(4) =   1
                l(5) =   2
                l(6) =   2
     Q(r) pseudized with  8 coefficients,  rinner =    1.000   1.000   1.000
                                                       1.000   1.000

     PseudoPot. # 2 for O  read from file:
     /storage/coda1/p-amedford6/0/shared/rich_project_chbe-medford/medford-share/data/pseudos_module/espresso/nninc/pbe/van/O.UPF
     MD5 check sum: 78c19812648e8988a0fe644b0f25305e
     Pseudo is Ultrasoft, Zval =  6.0
     Generated by new atomic code, or converted to UPF format
     Using radial grid of  737 points,  4 beta functions with:
                l(1) =   0
                l(2) =   0
                l(3) =   1
                l(4) =   1
     Q(r) pseudized with  8 coefficients,  rinner =    0.800   0.800   0.800

     PseudoPot. # 3 for H  read from file:
     /storage/coda1/p-amedford6/0/shared/rich_project_chbe-medford/medford-share/data/pseudos_module/espresso/nninc/pbe/van/H.UPF
     MD5 check sum: b5ee9d7bfd3a09ee7748110bda690ff7
     Pseudo is Ultrasoft, Zval =  1.0
     Generated by new atomic code, or converted to UPF format
     Using radial grid of  615 points,  1 beta functions with:
                l(1) =   0
     Q(r) pseudized with  8 coefficients,  rinner =    0.800

     PseudoPot. # 4 for N  read from file:
     /storage/coda1/p-amedford6/0/shared/rich_project_chbe-medford/medford-share/data/pseudos_module/espresso/nninc/pbe/van/N.UPF
     MD5 check sum: 90d10febe142ad51ac9d5be1deb811c4
     Pseudo is Ultrasoft, Zval =  5.0
     Generated by new atomic code, or converted to UPF format
     Using radial grid of  729 points,  4 beta functions with:
                l(1) =   0
                l(2) =   0
                l(3) =   1
                l(4) =   1
     Q(r) pseudized with  8 coefficients,  rinner =    0.800   0.800   0.800

     PseudoPot. # 5 for C  read from file:
     /storage/coda1/p-amedford6/0/shared/rich_project_chbe-medford/medford-share/data/pseudos_module/espresso/nninc/pbe/van/C.UPF
     MD5 check sum: 1a69bf6b8db32088f5b2163dbdb77a27
     Pseudo is Ultrasoft, Zval =  4.0
     Generated by new atomic code, or converted to UPF format
     Using radial grid of  721 points,  4 beta functions with:
                l(1) =   0
                l(2) =   0
                l(3) =   1
                l(4) =   1
     Q(r) pseudized with  8 coefficients,  rinner =    0.800   0.800   0.800

     atomic species   valence    mass     pseudopotential
        Ti1           12.00    47.86700     Ti( 1.00)
        O1             6.00    15.99900     O ( 1.00)
        H1             1.00     1.00800     H ( 1.00)
        N1             5.00    14.00700     N ( 1.00)
        C1             4.00    12.01100     C ( 1.00)

     No symmetry found

   Cartesian axes

     site n.     atom                  positions (alat units)
         1           Ti1 tau(   1) = (   0.0004258   2.9801865   6.0000000  )
         2           Ti1 tau(   2) = (   3.2906075   1.4906267   6.0002472  )
         3           O1  tau(   3) = (   0.0006271   0.0005054   7.9858123  )
         4           O1  tau(   4) = (   3.2906025   0.0005020   7.3038282  )
         5           O1  tau(   5) = (   4.5942328   1.4918067   9.2879030  )
         6           O1  tau(   6) = (   1.9868534   1.4903216   9.2879459  )
         7           Ti1 tau(   7) = (   3.2907910   2.8959150   9.1758416  )
         8           Ti1 tau(   8) = (   0.0015273   1.4827037   9.2680791  )
         9           O1  tau(   9) = (   3.3750462   0.0034689  11.3324641  )
        10           O1  tau(  10) = (   0.0116148   5.9584955  10.6183126  )
        11           O1  tau(  11) = (   1.3977860   1.4758343  12.6375763  )
        12           O1  tau(  12) = (   5.4232152   1.4913549  12.6657899  )
        13           Ti1 tau(  13) = (   0.0691229   2.9530050  12.5389017  )
        14           Ti1 tau(  14) = (   3.3643908   1.4039863  12.4577757  )
        15           O1  tau(  15) = (   0.1477665   0.0132832  14.6652528  )
        16           O1  tau(  16) = (   3.5189244   0.0045933  13.9158019  )
        17           O1  tau(  17) = (   4.7861523   1.5333885  16.1913275  )
        18           O1  tau(  18) = (   2.2541876   1.4026900  15.9427082  )
        19           Ti1 tau(  19) = (   3.5811307   2.9972434  16.0687679  )
        20           Ti1 tau(  20) = (   0.2998503   1.4255696  15.8726171  )
        21           O1  tau(  21) = (   3.2904802   0.0005063   4.7018136  )
        22           O1  tau(  22) = (   0.2643450   0.0038197  17.1846268  )
        23           O1  tau(  23) = (   1.3043587   1.4918075   6.0039043  )
        24           O1  tau(  24) = (   5.2767064   1.4903225   6.0039473  )
        25           Ti1 tau(  25) = (   0.0000382   5.9609847   6.0000000  )
        26           Ti1 tau(  26) = (   3.2902200   4.4714249   6.0002472  )
        27           O1  tau(  27) = (   0.0002396   2.9813036   7.9858123  )
        28           O1  tau(  28) = (   3.2902150   2.9813002   7.3038282  )
        29           O1  tau(  29) = (   4.5938453   4.4726049   9.2879030  )
        30           O1  tau(  30) = (   1.9864658   4.4711199   9.2879459  )
        31           Ti1 tau(  31) = (   3.2891106   5.8743827   9.1763621  )
        32           Ti1 tau(  32) = (   0.0006254   4.4649316   9.2693709  )
        33           O1  tau(  33) = (   3.3836021   2.9593565  11.3526375  )
        34           O1  tau(  34) = (   0.0092240   2.9805883  10.6323155  )
        35           O1  tau(  35) = (   1.3957467   4.4736095  12.6396340  )
        36           O1  tau(  36) = (   5.4261019   4.4541359  12.6685409  )
        37           Ti1 tau(  37) = (   0.0939275   5.9312067  12.4916740  )
        38           Ti1 tau(  38) = (   3.3665170   4.3046527  12.6650499  )
        39           O1  tau(  39) = (   0.1734719   2.9828917  14.8532074  )
        40           O1  tau(  40) = (   3.4150578   3.0309863  13.9715028  )
        41           O1  tau(  41) = (   4.7877001   4.4493464  16.1994792  )
        42           O1  tau(  42) = (   2.2536850   4.5881152  15.9586447  )
        43           Ti1 tau(  43) = (   3.5332629   0.0183730  15.6991940  )
        44           Ti1 tau(  44) = (   0.2986595   4.6220906  15.9451660  )
        45           O1  tau(  45) = (   3.2900926   2.9813045   4.7018136  )
        46           O1  tau(  46) = (   1.3039711   4.4726057   6.0039043  )
        47           O1  tau(  47) = (   5.2763189   4.4711207   6.0039473  )
        48           H1  tau(  48) = (   0.6716682   3.7174429  18.3617054  )
        49           H1  tau(  49) = (   0.7299512   2.1188458  18.2939656  )
        50           N1  tau(  50) = (   1.0883034   2.9530349  17.8291855  )
        51           C1  tau(  51) = (   2.6710371   2.9951180  18.0825860  )
        52           H1  tau(  52) = (   2.6895649   3.8224559  18.7561578  )
        53           H1  tau(  53) = (   2.7295784   2.2142559  18.8115579  )

     number of k points=    10  Fermi-Dirac smearing, width (Ry)=  0.0073
                       cart. coord. in units 2pi/alat
        k(    1) = (   0.0000000   0.0000000   0.0000000), wk =   0.1250000
        k(    2) = (   0.0000000   0.0419351   0.0000000), wk =   0.2500000
        k(    3) = (   0.0000000  -0.0838702   0.0000000), wk =   0.1250000
        k(    4) = (   0.0379955   0.0000049   0.0000000), wk =   0.2500000
        k(    5) = (   0.0379955   0.0419400   0.0000000), wk =   0.2500000
        k(    6) = (   0.0379955  -0.0838652   0.0000000), wk =   0.2500000
        k(    7) = (   0.0379955  -0.0419301   0.0000000), wk =   0.2500000
        k(    8) = (  -0.0759910  -0.0000099   0.0000000), wk =   0.1250000
        k(    9) = (  -0.0759910   0.0419252   0.0000000), wk =   0.2500000
        k(   10) = (  -0.0759910  -0.0838800   0.0000000), wk =   0.1250000

     Initial potential from superposition of free atoms

     starting charge  374.99916, renormalised to  391.00000

     negative rho (up, down):  1.820E-02 0.000E+00

     %%%%%%%%%%%%%%%%%%%%%%%%%%%%%%%%%%%%%%%%%%%%%%%%%%%%%%%%%%%%%%%%%%%%%%%%
     %                                                                      %
     % You are using vdW-DF, which was implemented by the Thonhauser group. %
     % Please cite the following two papers that made this development      %
     % possible and the two reviews that describe the various versions:     %
     %                                                                      %
     %   T. Thonhauser et al., PRL 115, 136402 (2015).                      %
     %   T. Thonhauser et al., PRB 76, 125112 (2007).                       %
     %   K. Berland et al., Rep. Prog. Phys. 78, 066501 (2015).             %
     %   D.C. Langreth et al., J. Phys.: Condens. Matter 21, 084203 (2009). %
     %                                                                      %
     %                                                                      %
     % If you are calculating the stress with vdW-DF, please also cite:     %
     %                                                                      %
     %   R. Sabatini et al., J. Phys.: Condens. Matter 24, 424209 (2012).   %
     %                                                                      %
     %%%%%%%%%%%%%%%%%%%%%%%%%%%%%%%%%%%%%%%%%%%%%%%%%%%%%%%%%%%%%%%%%%%%%%%%

     Adding external electric field

     Computed dipole along edir(3) :
        Dipole               -5.7422 Ry au,        -14.5952 Debye
        Dipole field         -0.0108 Ry au,

        Potential amp.        1.0045 Ry
        Total length         46.3494 bohr

     Starting wfcs are  296 atomic wfcs
  @ DRIVER MODE: Message from server: STATUS
  @ DRIVER MODE: Message from server: POSDATA
  @ DRIVER MODE: Reading and sharing cell
  @ DRIVER MODE: Reading and sharing positions
  @ DRIVER MODE: Received positions

     Self-consistent Calculation

     iteration #  1     ecut=    29.40 Ry     beta= 0.05
     Davidson diagonalization with overlap
     c_bands:  2 eigenvalues not converged
     c_bands:  1 eigenvalues not converged
     c_bands:  5 eigenvalues not converged
     c_bands:  2 eigenvalues not converged
     c_bands:  2 eigenvalues not converged
     c_bands:  2 eigenvalues not converged
     c_bands:  2 eigenvalues not converged
     ethr =  1.00E-05,  avg # of iterations = 20.9

[...]

     total energy              =   -2766.90186664 Ry
     estimated scf accuracy    <    1683.96007222 Ry

[...]

     iteration #  3     ecut=    29.40 Ry     beta= 0.05
     Davidson diagonalization with overlap
     ethr =  1.00E-02,  avg # of iterations = 15.3

[...]

     iteration # 44     ecut=    29.40 Ry     beta= 0.05
     Davidson diagonalization with overlap
     c_bands:  1 eigenvalues not converged
     ethr =  3.25E-07,  avg # of iterations = 14.2

[...]

     total energy              =   -2920.26907580 Ry
     estimated scf accuracy    <       0.00000008 Ry

     iteration # 67     ecut=    29.40 Ry     beta= 0.05
     Davidson diagonalization with overlap
     ethr =  2.00E-11,  avg # of iterations =  2.5

     negative rho (up, down):  1.845E-02 0.000E+00

     Adding external electric field

     Computed dipole along edir(3) :
        Dipole                0.8686 Ry au,          2.2078 Debye
        Dipole field          0.0016 Ry au,

        Potential amp.       -0.1520 Ry
        Total length         46.3494 bohr

     End of self-consistent calculation

          k = 0.0000 0.0000 0.0000 ( 18029 PWs)   bands (ev):

   -55.8856 -55.8515 -55.7558 -55.7174 -55.7122 -55.7096 -55.6978 -55.6783
   -55.6713 -55.6338 -55.6314 -55.6288 -55.5953 -55.5682 -54.8664 -54.8324
   -32.3714 -32.2817 -32.2457 -32.2147 -32.1788 -32.1763 -32.1583 -32.1581
   -32.1311 -32.0789 -32.0384 -32.0200 -32.0109 -31.9976 -31.9961 -31.9932
   -31.9802 -31.9499 -31.9432 -31.9319 -31.9237 -31.9119 -31.9011 -31.8925
   -31.8804 -31.8772 -31.8560 -31.8553 -31.8490 -31.8472 -31.8403 -31.8322
   -31.8249 -31.8241 -31.8221 -31.8069 -31.7941 -31.7838 -31.7813 -31.7696
   -31.7131 -31.6333 -31.2729 -31.1856 -31.1632 -31.0903 -31.0039 -30.8921
   -16.5750 -16.4038 -16.1967 -16.0704 -16.0526 -15.8593 -15.7665 -15.6891
   -15.4943 -15.4546 -15.4270 -15.4115 -15.4002 -15.3978 -15.3812 -15.3621
   -15.3420 -15.3323 -15.3108 -15.2580 -15.2511 -15.2253 -15.2186 -15.2136
   -15.0302 -15.0050 -14.9804 -14.9463 -14.8671 -14.5656 -13.3656 -13.2491
    -8.9273  -5.6062  -3.9464  -3.8813  -3.8180  -3.7931  -3.7668  -3.6561
    -3.4854  -3.2980  -3.2083  -3.1755  -3.0590  -3.0142  -2.9177  -2.8401
    -2.8261  -2.7640  -2.7226  -2.6977  -2.6741  -2.6623  -2.6058  -2.5836
    -2.5778  -2.4452  -2.3847  -2.3662  -2.3051  -2.2797  -2.2519  -2.2090
    -2.2027  -2.1888  -2.1721  -2.1351  -2.1061  -2.0893  -2.0076  -1.9356
    -1.8976  -1.8582  -1.6364  -1.5261  -1.5020  -1.4663  -1.4113  -1.3811
    -1.3366  -1.2979  -1.2819  -1.2635  -1.1929  -1.1041  -1.0238  -1.0161
    -0.9143  -0.8889  -0.8029  -0.7273  -0.7057  -0.6460  -0.6247  -0.6194
    -0.6153  -0.5216  -0.4726  -0.3893  -0.3400  -0.3029  -0.2371  -0.1707
    -0.1137  -0.1034  -0.0638  -0.0216   0.0210   0.0314   0.0567   0.0862
     0.1245   0.1623   0.2019   0.2835   0.3266   0.3608   0.4064   0.4188
     0.5213   0.7320   0.7715   0.9107   1.0869   1.1594   1.1776   1.1880
     1.3510   1.7278   1.7736   3.1963   3.3410   3.3587   3.4304   3.4604
     3.5130   3.6842   3.7704   3.8139   3.8850

[...]

          k = 0.0380-0.0419 0.0000 ( 17876 PWs)   bands (ev):

[...]

          k =-0.0760-0.0000 0.0000 ( 17886 PWs)   bands (ev):

[...]

          k =-0.0760-0.0839 0.0000 ( 17948 PWs)   bands (ev):

   -55.8687 -55.8683 -55.7445 -55.7283 -55.7070 -55.6953 -55.6949 -55.6933
   -55.6631 -55.6372 -55.6365 -55.6242 -55.6050 -55.5700 -54.8496 -54.8491
   -32.2059 -32.1867 -32.1865 -32.1619 -32.1616 -32.1014 -32.0690 -32.0509
   -32.0352 -32.0286 -32.0254 -32.0187 -32.0031 -31.9890 -31.9882 -31.9864
   -31.9782 -31.9702 -31.9630 -31.9501 -31.9480 -31.9387 -31.9349 -31.9267
   -31.9138 -31.9049 -31.9008 -31.8963 -31.8840 -31.8797 -31.8717 -31.8708
   -31.8704 -31.8638 -31.8590 -31.8501 -31.8458 -31.8338 -31.8149 -31.8142
   -31.7996 -31.6336 -31.1760 -31.1758 -31.0860 -31.0854 -31.0473 -31.0469
   -16.1473 -15.9789 -15.8699 -15.8552 -15.7918 -15.6791 -15.6676 -15.6421
   -15.6228 -15.5859 -15.5665 -15.5523 -15.5049 -15.4659 -15.4291 -15.4042
   -15.4009 -15.3541 -15.3498 -15.3400 -15.3179 -15.2834 -15.2749 -15.2105
   -15.2019 -15.0974 -15.0695 -15.0688 -15.0081 -14.8979 -13.3510 -13.3508
    -8.9333  -5.5762  -3.7695  -3.3059  -3.2083  -3.0717  -3.0040  -2.9635
    -2.9153  -2.8824  -2.8611  -2.8425  -2.7923  -2.7785  -2.7472  -2.7036
    -2.6855  -2.6681  -2.6472  -2.6215  -2.6006  -2.5889  -2.5702  -2.5522
    -2.5193  -2.5028  -2.4767  -2.4636  -2.4530  -2.4411  -2.4295  -2.4203
    -2.2361  -2.1452  -2.0530  -2.0442  -2.0347  -2.0087  -1.9832  -1.9658
    -1.9498  -1.9260  -1.8979  -1.8728  -1.8420  -1.5961  -1.5601  -1.5252
    -1.4671  -1.4288  -1.3816  -1.3689  -1.3358  -1.3053  -1.2242  -1.1870
    -1.1618  -1.0840  -1.0049  -0.9484  -0.9017  -0.8646  -0.8343  -0.8224
    -0.7820  -0.7433  -0.7351  -0.7108  -0.6949  -0.5881  -0.5860  -0.5832
    -0.4382  -0.3982  -0.3804  -0.2881  -0.2682  -0.0891  -0.0247   0.0009
     0.1342   0.1450   0.1820   0.2912   0.3187   0.3640   0.4204   0.4414
     0.5283   0.5801   0.6220   0.6615   0.6852   0.7017   1.1354   1.5218
     1.5276   1.5938   1.5939   3.5966   3.6382   3.7043   3.7301   3.7500
     3.7858   3.8082   3.8195   3.8649   3.8751

     the Fermi energy is     3.2350 ev

!    total energy              =   -2920.26909630 Ry
     estimated scf accuracy    <       0.00000006 Ry
     smearing contrib. (-TS)   =      -0.01953561 Ry
     internal energy E=F+TS    =   -2920.24956068 Ry

     The total energy is F=E-TS. E is the sum of the following terms:
     one-electron contribution =  -24543.53572600 Ry
     hartree contribution      =   12357.55239041 Ry
     xc contribution           =    -480.80770438 Ry
     ewald contribution        =    9746.54005546 Ry
     electric field correction =       0.00142382 Ry

     convergence has been achieved in  67 iterations

     Forces acting on atoms (cartesian axes, Ry/au):

     atom    1 type  1   force =     0.00007541   -0.00038216    0.09439882
     atom    2 type  1   force =    -0.00007267   -0.00123110   -0.17581406
     atom    3 type  2   force =     0.00046687   -0.00020949   -0.02135841
     atom    4 type  2   force =     0.00017557   -0.00092968    0.05146269
     atom    5 type  2   force =    -0.00540728    0.00099902   -0.00035028
     atom    6 type  2   force =     0.00989853    0.00143165    0.00527987
     atom    7 type  1   force =     0.00312205    0.00406642   -0.00383685
     atom    8 type  1   force =    -0.00263745    0.00537767    0.00462613
     atom    9 type  2   force =     0.00031979    0.00017743    0.00041350
     atom   10 type  2   force =     0.00290283    0.00076758   -0.01335052
     atom   11 type  2   force =     0.00009949    0.00027828   -0.00001120
     atom   12 type  2   force =    -0.00016744   -0.00005507   -0.00008107
     atom   13 type  1   force =    -0.00027725   -0.00029988    0.00141222
     atom   14 type  1   force =    -0.00060919    0.00042864   -0.00123760
     atom   15 type  2   force =     0.00025805   -0.00004153   -0.00007465
     atom   16 type  2   force =     0.00004941   -0.00016349    0.00021334
     atom   17 type  2   force =     0.00025063   -0.00081396    0.00052817
     atom   18 type  2   force =     0.00033412    0.00014202   -0.00018668
     atom   19 type  1   force =     0.00051198    0.00031342   -0.00171602
     atom   20 type  1   force =    -0.00001902    0.00210061   -0.00007131
     atom   21 type  2   force =     0.00005134   -0.00009644    0.10310797
     atom   22 type  2   force =    -0.00065360    0.00068588    0.00069552
     atom   23 type  2   force =    -0.07169010   -0.00014368   -0.02718453
     atom   24 type  2   force =     0.07175244    0.00034884   -0.02732975
     atom   25 type  1   force =    -0.00008536   -0.00021831    0.09388789
     atom   26 type  1   force =     0.00003889    0.00040139   -0.17578619
     atom   27 type  2   force =     0.00046664   -0.00026110   -0.02045240
     atom   28 type  2   force =     0.00023913   -0.00170662    0.05408791
     atom   29 type  2   force =    -0.00645465   -0.00170098    0.00028879
     atom   30 type  2   force =     0.01069490   -0.00155951    0.00560268
     atom   31 type  1   force =     0.00345898    0.00043474    0.00536270
     atom   32 type  1   force =    -0.00266942   -0.00668651    0.00504390
     atom   33 type  2   force =     0.00024533    0.00031720    0.00054188
     atom   34 type  2   force =     0.00503911   -0.00078563   -0.00877713
     atom   35 type  2   force =     0.00012942   -0.00001343    0.00000243
     atom   36 type  2   force =    -0.00013390   -0.00002543   -0.00001804
     atom   37 type  1   force =     0.00075755   -0.00042079    0.00091285
     atom   38 type  1   force =    -0.00029045   -0.00120205    0.00000684
     atom   39 type  2   force =    -0.00076146   -0.00017927    0.00034273
     atom   40 type  2   force =     0.00041191    0.00041804   -0.00017989
     atom   41 type  2   force =     0.00016632    0.00149077    0.00054904
     atom   42 type  2   force =     0.00070976    0.00030120    0.00008109
     atom   43 type  1   force =     0.00076106    0.00009093    0.00006786
     atom   44 type  1   force =     0.00004679   -0.00191546   -0.00044544
     atom   45 type  2   force =     0.00005347   -0.00001890    0.10327984
     atom   46 type  2   force =    -0.07167313   -0.00015030   -0.02721133
     atom   47 type  2   force =     0.07171518    0.00030295   -0.02731831
     atom   48 type  3   force =     0.00094477   -0.00006821   -0.00016244
     atom   49 type  3   force =     0.00076968   -0.00094321    0.00014918
     atom   50 type  4   force =     0.00230050    0.00092069   -0.00061640
     atom   51 type  5   force =    -0.09163843   -0.00350794   -0.00032343
     atom   52 type  3   force =     0.03193269    0.05191841    0.00057736
     atom   53 type  3   force =     0.03409024   -0.04798366    0.00097072

     Total force =     0.383818     Total SCF correction =     0.000590
  @ DRIVER MODE: Message from server: STATUS
  @ DRIVER MODE: Message from server: GETFORCE
  @ DRIVER MODE: Returning v,forces,stress,ensemble

     Writing output data file ./calc.save/
  @ DRIVER MODE: Message from server: EXIT
  @ DRIVE MODE: Exiting

     General routines

     Parallel routines

   This run was terminated on:   0:23:30  12Oct2021

   JOB DONE.