     Program PWSCF v.6.7GPU starts on  2Aug2021 at 15: 0: 7

     R & G space division:  proc/nbgrp/npool/nimage =      16
     Reading input from /storage/home/hcoda1/3/ntian30/research/carbon/02Aug_vib_paired/ads_slab/CH3NH3_a/out_0008/pw.inp
Warning: card &CELL ignored
Warning: card   CELL_DYNAMICS='IPI', ignored
Warning: card / ignored

     Current dimensions of program PWSCF are:
     Max number of different atomic species (ntypx) = 10
     Max number of k-points (npk) =  40000
     Max angular momentum in pseudopotentials (lmaxx) =  3
     Presently no symmetry can be used with electric field

     Message from routine cell_base_init:
     DEPRECATED: use true lattice parameter, not A to a.u. conversion factor

     IMPORTANT: XC functional enforced from input :
     Exchange-correlation= BEEF-VDW
                           (   1   4  43  14   2   0   0)
     Any further DFT definition will be discarded
     Please, verify this is what you really want

  @ DRIVER MODE: Connecting to
 qe_1139763_2482539.sched-torque.pace.gatech.eduk74bdbm0_scratch
  using UNIX socket
  @ DRIVER MODE: Message from server: STATUS
  @ DRIVER MODE: Message from server: INIT
  @ DRIVER MODE: Receiving replica           0          -1
  @ DRIVER MODE: Receiving encoded integer          25
  @ DRIVER MODE:  SCF:  T  FORCE:  T  STRESS:  F  VC:  F  ENSEMBLE:  F
  @ DRIVER MODE:  SCF:  T  FORCE:  T  STRESS:  F  VC:  F  ENSEMBLE:  F

     Using Slab Decomposition

     bravais-lattice index     =            0
     lattice parameter (alat)  =       1.8897  a.u.
     unit-cell volume          =    6658.9804 (a.u.)^3
     number of atoms/cell      =           55
     number of atomic types    =            5
     number of electrons       =       393.00
     number of Kohn-Sham states=          206
     kinetic-energy cutoff     =      29.3995  Ry
     charge density cutoff     =     293.9946  Ry
     scf convergence threshold =      7.3E-08
     mixing beta               =       0.0500
     number of iterations used =            8  plain     mixing
     Exchange-correlation= BEEF-VDW
                           (   1   4  43  14   2   0   0)

     celldm(1)=   1.889726  celldm(2)=   0.000000  celldm(3)=   0.000000
     celldm(4)=   0.000000  celldm(5)=   0.000000  celldm(6)=   0.000000

     crystal axes: (cart. coord. in units of alat)
               a(1) = (   6.579727   0.000000   0.000000 )
               a(2) = (  -0.000775   5.961596   0.000000 )
               a(3) = (   0.000000   0.000000  25.155947 )

     reciprocal axes: (cart. coord. in units 2 pi/alat)
               b(1) = (  0.151982  0.000020  0.000000 )
               b(2) = (  0.000000  0.167740  0.000000 )
               b(3) = (  0.000000  0.000000  0.039752 )

     PseudoPot. # 1 for Ti read from file:
     /storage/coda1/p-amedford6/0/shared/rich_project_chbe-medford/medford-share/data/pseudos_module/espresso/nninc/pbe/van/Ti.UPF
     MD5 check sum: 8e4df49b7f0d34bbd5052bf3f5ea0213
     Pseudo is Ultrasoft, Zval = 12.0
     Generated by new atomic code, or converted to UPF format
     Using radial grid of  851 points,  6 beta functions with:
                l(1) =   0
                l(2) =   0
                l(3) =   1
                l(4) =   1
                l(5) =   2
                l(6) =   2
     Q(r) pseudized with  8 coefficients,  rinner =    1.000   1.000   1.000
                                                       1.000   1.000

     PseudoPot. # 2 for O  read from file:
     /storage/coda1/p-amedford6/0/shared/rich_project_chbe-medford/medford-share/data/pseudos_module/espresso/nninc/pbe/van/O.UPF
     MD5 check sum: 78c19812648e8988a0fe644b0f25305e
     Pseudo is Ultrasoft, Zval =  6.0
     Generated by new atomic code, or converted to UPF format
     Using radial grid of  737 points,  4 beta functions with:
                l(1) =   0
                l(2) =   0
                l(3) =   1
                l(4) =   1
     Q(r) pseudized with  8 coefficients,  rinner =    0.800   0.800   0.800

     PseudoPot. # 3 for C  read from file:
     /storage/coda1/p-amedford6/0/shared/rich_project_chbe-medford/medford-share/data/pseudos_module/espresso/nninc/pbe/van/C.UPF
     MD5 check sum: 1a69bf6b8db32088f5b2163dbdb77a27
     Pseudo is Ultrasoft, Zval =  4.0
     Generated by new atomic code, or converted to UPF format
     Using radial grid of  721 points,  4 beta functions with:
                l(1) =   0
                l(2) =   0
                l(3) =   1
                l(4) =   1
     Q(r) pseudized with  8 coefficients,  rinner =    0.800   0.800   0.800

     PseudoPot. # 4 for H  read from file:
     /storage/coda1/p-amedford6/0/shared/rich_project_chbe-medford/medford-share/data/pseudos_module/espresso/nninc/pbe/van/H.UPF
     MD5 check sum: b5ee9d7bfd3a09ee7748110bda690ff7
     Pseudo is Ultrasoft, Zval =  1.0
     Generated by new atomic code, or converted to UPF format
     Using radial grid of  615 points,  1 beta functions with:
                l(1) =   0
     Q(r) pseudized with  8 coefficients,  rinner =    0.800

     PseudoPot. # 5 for N  read from file:
     /storage/coda1/p-amedford6/0/shared/rich_project_chbe-medford/medford-share/data/pseudos_module/espresso/nninc/pbe/van/N.UPF
     MD5 check sum: 90d10febe142ad51ac9d5be1deb811c4
     Pseudo is Ultrasoft, Zval =  5.0
     Generated by new atomic code, or converted to UPF format
     Using radial grid of  729 points,  4 beta functions with:
                l(1) =   0
                l(2) =   0
                l(3) =   1
                l(4) =   1
     Q(r) pseudized with  8 coefficients,  rinner =    0.800   0.800   0.800

     atomic species   valence    mass     pseudopotential
        Ti1           12.00    47.86700     Ti( 1.00)
        O1             6.00    15.99900     O ( 1.00)
        C1             4.00    12.01100     C ( 1.00)
        H1             1.00     1.00800     H ( 1.00)
        N1             5.00    14.00700     N ( 1.00)

     No symmetry found

   Cartesian axes

     site n.     atom                  positions (alat units)
         1           Ti1 tau(   1) = (   0.0004258   2.9801865   6.0000000  )
         2           Ti1 tau(   2) = (   3.2906075   1.4906267   6.0002472  )
         3           O1  tau(   3) = (   0.0006271   0.0005054   7.9858123  )
         4           O1  tau(   4) = (   3.2906025   0.0005020   7.3038282  )
         5           O1  tau(   5) = (   4.5942328   1.4918067   9.2879030  )
         6           O1  tau(   6) = (   1.9868534   1.4903216   9.2879459  )
         7           Ti1 tau(   7) = (   3.2907910   2.8959150   9.1758416  )
         8           Ti1 tau(   8) = (   0.0015273   1.4827037   9.2680791  )
         9           O1  tau(   9) = (   3.2981156   0.0012339  11.3300471  )
        10           O1  tau(  10) = (   0.0116148   5.9584955  10.6183126  )
        11           O1  tau(  11) = (   1.3033605   1.5036236  12.6199488  )
        12           O1  tau(  12) = (   5.2811161   1.5074500  12.6162500  )
        13           Ti1 tau(  13) = (   0.0407500   2.9455431  12.6352795  )
        14           Ti1 tau(  14) = (   3.3444429   1.4910927  12.4779025  )
        15           O1  tau(  15) = (   0.0052662   0.0451097  14.6026341  )
        16           O1  tau(  16) = (   3.2946143   0.0124870  13.9210852  )
        17           O1  tau(  17) = (   4.5465206   1.5046604  16.0624161  )
        18           O1  tau(  18) = (   2.0546879   1.5048301  16.0609706  )
        19           Ti1 tau(  19) = (   3.2991624   2.9918142  15.6995589  )
        20           Ti1 tau(  20) = (   6.5707204   1.4025535  15.8059435  )
        21           O1  tau(  21) = (   3.2904802   0.0005063   4.7018136  )
        22           O1  tau(  22) = (   0.0164654   0.0145536  17.1360041  )
        23           O1  tau(  23) = (   1.3043587   1.4918075   6.0039043  )
        24           O1  tau(  24) = (   5.2767064   1.4903225   6.0039473  )
        25           Ti1 tau(  25) = (   0.0000382   5.9609847   6.0000000  )
        26           Ti1 tau(  26) = (   3.2902200   4.4714249   6.0002472  )
        27           O1  tau(  27) = (   0.0002396   2.9813036   7.9858123  )
        28           O1  tau(  28) = (   3.2902150   2.9813002   7.3038282  )
        29           O1  tau(  29) = (   4.5938453   4.4726049   9.2879030  )
        30           O1  tau(  30) = (   1.9864658   4.4711199   9.2879459  )
        31           Ti1 tau(  31) = (   3.2891106   5.8743827   9.1763621  )
        32           Ti1 tau(  32) = (   0.0006254   4.4649316   9.2693709  )
        33           O1  tau(  33) = (   3.2977166   2.9913250  11.3287690  )
        34           O1  tau(  34) = (   0.0092240   2.9805883  10.6323155  )
        35           O1  tau(  35) = (   1.3008534   4.4801743  12.6308489  )
        36           O1  tau(  36) = (   5.2850400   4.4860598  12.6280017  )
        37           Ti1 tau(  37) = (   0.0409916   5.9178611  12.5441859  )
        38           Ti1 tau(  38) = (   3.3442415   4.4710906  12.4862270  )
        39           O1  tau(  39) = (   0.0109228   2.9791018  14.7123696  )
        40           O1  tau(  40) = (   3.2998940   2.9912248  13.9043662  )
        41           O1  tau(  41) = (   4.5474046   4.4713503  16.0779382  )
        42           O1  tau(  42) = (   2.0618872   4.4767818  16.0643778  )
        43           Ti1 tau(  43) = (   3.2722838   0.0128901  15.7174356  )
        44           Ti1 tau(  44) = (   6.5592075   4.4947239  16.1563676  )
        45           O1  tau(  45) = (   3.2900926   2.9813045   4.7018136  )
        46           O1  tau(  46) = (   1.3039711   4.4726057   6.0039043  )
        47           O1  tau(  47) = (   5.2763189   4.4711207   6.0039473  )
        48           C1  tau(  48) = (   0.0359503   3.0870652  17.8341721  )
        49           H1  tau(  49) = (   5.8242062   3.6010452  18.3763092  )
        50           H1  tau(  50) = (   6.4784518   2.0305676  18.0614951  )
        51           H1  tau(  51) = (   0.9863100   3.3782628  18.2908018  )
        52           N1  tau(  52) = (   4.7642638   1.7931862  21.6370373  )
        53           H1  tau(  53) = (   4.5527921   2.7808570  21.5386679  )
        54           H1  tau(  54) = (   4.1042548   1.2952780  21.0483319  )
        55           H1  tau(  55) = (   4.5435699   1.5432347  22.5953497  )

     number of k points=    10  Fermi-Dirac smearing, width (Ry)=  0.0073
                       cart. coord. in units 2pi/alat
        k(    1) = (   0.0000000   0.0000000   0.0000000), wk =   0.1250000
        k(    2) = (   0.0000000   0.0419351   0.0000000), wk =   0.2500000
        k(    3) = (   0.0000000  -0.0838702   0.0000000), wk =   0.1250000
        k(    4) = (   0.0379955   0.0000049   0.0000000), wk =   0.2500000
        k(    5) = (   0.0379955   0.0419400   0.0000000), wk =   0.2500000
        k(    6) = (   0.0379955  -0.0838652   0.0000000), wk =   0.2500000
        k(    7) = (   0.0379955  -0.0419301   0.0000000), wk =   0.2500000
        k(    8) = (  -0.0759910  -0.0000099   0.0000000), wk =   0.1250000
        k(    9) = (  -0.0759910   0.0419252   0.0000000), wk =   0.2500000
        k(   10) = (  -0.0759910  -0.0838800   0.0000000), wk =   0.1250000

     Initial potential from superposition of free atoms

     starting charge  376.99914, renormalised to  393.00000

     negative rho (up, down):  1.000E-02 0.000E+00

     %%%%%%%%%%%%%%%%%%%%%%%%%%%%%%%%%%%%%%%%%%%%%%%%%%%%%%%%%%%%%%%%%%%%%%%%
     %                                                                      %
     % You are using vdW-DF, which was implemented by the Thonhauser group. %
     % Please cite the following two papers that made this development      %
     % possible and the two reviews that describe the various versions:     %
     %                                                                      %
     %   T. Thonhauser et al., PRL 115, 136402 (2015).                      %
     %   T. Thonhauser et al., PRB 76, 125112 (2007).                       %
     %   K. Berland et al., Rep. Prog. Phys. 78, 066501 (2015).             %
     %   D.C. Langreth et al., J. Phys.: Condens. Matter 21, 084203 (2009). %
     %                                                                      %
     %                                                                      %
     % If you are calculating the stress with vdW-DF, please also cite:     %
     %                                                                      %
     %   R. Sabatini et al., J. Phys.: Condens. Matter 24, 424209 (2012).   %
     %                                                                      %
     %%%%%%%%%%%%%%%%%%%%%%%%%%%%%%%%%%%%%%%%%%%%%%%%%%%%%%%%%%%%%%%%%%%%%%%%

     Adding external electric field

     Computed dipole along edir(3) :
        Dipole               -9.0616 Ry au,        -23.0322 Debye
        Dipole field         -0.0171 Ry au,

        Potential amp.        1.5852 Ry
        Total length         46.3494 bohr

     Starting wfcs are  298 atomic wfcs
  @ DRIVER MODE: Message from server: STATUS
  @ DRIVER MODE: Message from server: POSDATA
  @ DRIVER MODE: Reading and sharing cell
  @ DRIVER MODE: Reading and sharing positions
  @ DRIVER MODE: Received positions

     Self-consistent Calculation

     iteration #  1     ecut=    29.40 Ry     beta= 0.05
     Davidson diagonalization with overlap
     c_bands:  1 eigenvalues not converged
     c_bands:  1 eigenvalues not converged
     c_bands:  1 eigenvalues not converged
     ethr =  1.00E-05,  avg # of iterations = 17.8

[...]

     total energy              =   -2692.42556319 Ry
     estimated scf accuracy    <    2566.16620428 Ry

[...]

     iteration #  5     ecut=    29.40 Ry     beta= 0.05
     Davidson diagonalization with overlap
     ethr =  1.00E-02,  avg # of iterations =  4.8

[...]

     iteration # 69     ecut=    29.40 Ry     beta= 0.05
     Davidson diagonalization with overlap
     c_bands:  2 eigenvalues not converged
     ethr =  2.29E-10,  avg # of iterations = 10.7

[...]

     total energy              =   -2922.78948076 Ry
     estimated scf accuracy    <       0.00000022 Ry

     iteration # 73     ecut=    29.40 Ry     beta= 0.05
     Davidson diagonalization with overlap
     ethr =  5.04E-11,  avg # of iterations =  5.5

     negative rho (up, down):  1.132E-02 0.000E+00

     Adding external electric field

     Computed dipole along edir(3) :
        Dipole                0.5508 Ry au,          1.4000 Debye
        Dipole field          0.0010 Ry au,

        Potential amp.       -0.0964 Ry
        Total length         46.3494 bohr

     End of self-consistent calculation

          k = 0.0000 0.0000 0.0000 ( 18029 PWs)   bands (ev):

   -56.0340 -56.0301 -55.9999 -55.9937 -55.9014 -55.8666 -55.8662 -55.8418
   -55.8232 -55.8078 -55.8026 -55.7689 -55.5693 -55.4017 -55.0094 -54.9754
   -32.5884 -32.5160 -32.3608 -32.3549 -32.3410 -32.3399 -32.3269 -32.2933
   -32.2764 -32.2393 -32.2334 -32.2327 -32.2095 -32.1862 -32.1732 -32.1670
   -32.1379 -32.1351 -32.1210 -32.0912 -32.0809 -32.0699 -32.0384 -32.0334
   -32.0292 -32.0277 -32.0132 -32.0118 -32.0050 -31.9801 -31.9793 -31.9769
   -31.9719 -31.9712 -31.9558 -31.9466 -31.9149 -31.8481 -31.7834 -31.6892
   -31.6303 -31.5193 -31.4165 -31.3283 -31.3059 -31.2332 -31.1467 -31.0357
   -16.7683 -16.5050 -16.2728 -16.1824 -16.1325 -16.0460 -15.8686 -15.7522
   -15.7036 -15.6027 -15.5702 -15.5502 -15.5338 -15.5034 -15.4949 -15.4700
   -15.4587 -15.4524 -15.4178 -15.3900 -15.3648 -15.3503 -15.2303 -15.1779
   -15.1618 -15.1305 -15.0826 -15.0664 -14.6122 -13.6566 -13.5120 -13.3956
    -9.0648  -4.1430  -3.9628  -3.9376  -3.8891  -3.8474  -3.7153  -3.6980
    -3.6448  -3.5843  -3.2671  -3.2096  -3.2015  -3.1606  -3.1459  -2.9901
    -2.9248  -2.8507  -2.8339  -2.8284  -2.8029  -2.7976  -2.7933  -2.7503
    -2.7076  -2.6544  -2.6297  -2.5584  -2.5187  -2.4440  -2.3708  -2.3436
    -2.3012  -2.2975  -2.2620  -2.2502  -2.2417  -2.2316  -2.1965  -2.1796
    -2.0015  -1.9487  -1.8849  -1.8164  -1.8029  -1.6383  -1.5315  -1.4840
    -1.4652  -1.4579  -1.4396  -1.4229  -1.3272  -1.2090  -1.1761  -1.1266
    -1.0789  -1.0303  -1.0003  -0.9000  -0.8834  -0.7924  -0.7790  -0.7605
    -0.6500  -0.6245  -0.4912  -0.4701  -0.4637  -0.4039  -0.3881  -0.3153
    -0.2910  -0.2346  -0.1694  -0.1572  -0.0891  -0.0630  -0.0598  -0.0030
     0.0014   0.0467   0.0606   0.1707   0.2268   0.2761   0.3301   0.4358
     0.5164   0.6309   0.6775   0.7370   0.9387   1.0123   1.1218   1.1809
     1.2054   1.4651   1.5837   1.6292   3.1047   3.1897   3.2115   3.2372
     3.3448   3.3698   3.5552   3.5720   3.6063   3.6262

[...]

          k = 0.0380-0.0419 0.0000 ( 17876 PWs)   bands (ev):

[...]

          k =-0.0760-0.0000 0.0000 ( 17886 PWs)   bands (ev):

[...]

          k =-0.0760-0.0839 0.0000 ( 17948 PWs)   bands (ev):

   -56.0173 -56.0165 -56.0147 -56.0088 -55.8864 -55.8813 -55.8578 -55.8318
   -55.8255 -55.8234 -55.7871 -55.7846 -55.5678 -55.4031 -54.9925 -54.9922
   -32.3943 -32.3879 -32.3315 -32.3311 -32.3126 -32.3120 -32.2931 -32.2884
   -32.2221 -32.2212 -32.2181 -32.2074 -32.1670 -32.1659 -32.1468 -32.1423
   -32.1381 -32.1369 -32.1359 -32.1276 -32.1263 -32.1234 -32.0878 -32.0773
   -32.0727 -32.0505 -32.0464 -32.0325 -32.0236 -32.0226 -32.0188 -32.0168
   -32.0016 -32.0002 -31.9963 -31.9900 -31.9259 -31.8310 -31.7855 -31.6920
   -31.6747 -31.5633 -31.3187 -31.3185 -31.2294 -31.2292 -31.1900 -31.1899
   -16.2102 -16.1872 -15.9809 -15.9466 -15.9433 -15.9360 -15.8053 -15.7250
   -15.7245 -15.6986 -15.6374 -15.6260 -15.6043 -15.5657 -15.5414 -15.5389
   -15.5202 -15.5153 -15.4891 -15.4790 -15.4662 -15.4590 -15.3663 -15.3468
   -15.3430 -15.2933 -15.1480 -15.0017 -14.8930 -13.6559 -13.4975 -13.4973
    -9.0791  -3.7176  -3.7088  -3.5064  -3.4750  -3.2328  -3.1944  -3.1813
    -3.1124  -2.9559  -2.9164  -2.8986  -2.8906  -2.8463  -2.8387  -2.8333
    -2.8221  -2.7935  -2.7761  -2.7386  -2.7323  -2.7177  -2.7109  -2.6993
    -2.6822  -2.6523  -2.6440  -2.6205  -2.6081  -2.5888  -2.5710  -2.5437
    -2.5390  -2.4113  -2.2519  -2.2282  -2.1674  -2.1600  -2.1127  -2.1004
    -2.0942  -2.0668  -2.0376  -2.0101  -1.8506  -1.7404  -1.7258  -1.7091
    -1.6406  -1.6125  -1.5280  -1.4372  -1.3962  -1.3781  -1.3101  -1.3067
    -1.2562  -1.2316  -1.2108  -1.1434  -1.0869  -1.0498  -0.9927  -0.9866
    -0.9785  -0.9084  -0.8659  -0.7910  -0.7823  -0.7454  -0.7103  -0.6549
    -0.6206  -0.6097  -0.5194  -0.4870  -0.3747  -0.3259  -0.0677  -0.0205
     0.0333   0.0618   0.1272   0.1850   0.1889   0.2864   0.2901   0.3258
     0.4060   0.4273   0.4982   0.5175   0.5675   0.7294   1.2768   1.3764
     1.3772   1.4487   1.4491   1.4556   3.4027   3.4144   3.4215   3.4661
     3.6112   3.6159   3.6346   3.6361   3.7749   3.7989

     the Fermi energy is     3.1013 ev

!    total energy              =   -2922.78950596 Ry
     estimated scf accuracy    <       0.00000005 Ry
     smearing contrib. (-TS)   =      -0.02169203 Ry
     internal energy E=F+TS    =   -2922.76781393 Ry

     The total energy is F=E-TS. E is the sum of the following terms:
     one-electron contribution =  -23651.40294095 Ry
     hartree contribution      =   11909.91439474 Ry
     xc contribution           =    -482.26840490 Ry
     ewald contribution        =    9300.98856464 Ry
     electric field correction =       0.00057254 Ry

     convergence has been achieved in  73 iterations

     Forces acting on atoms (cartesian axes, Ry/au):

     atom    1 type  1   force =     0.00004905   -0.00022661    0.09685316
     atom    2 type  1   force =    -0.00017484   -0.00055944   -0.17514423
     atom    3 type  2   force =     0.00002312   -0.00004869   -0.02503649
     atom    4 type  2   force =     0.00002780   -0.00139671    0.05263515
     atom    5 type  2   force =    -0.01205014   -0.00050955    0.00330939
     atom    6 type  2   force =     0.01377722    0.00008714    0.00270767
     atom    7 type  1   force =    -0.00058009    0.00056700   -0.01156482
     atom    8 type  1   force =     0.00020481    0.01201377    0.02900367
     atom    9 type  2   force =    -0.00029507    0.00057241    0.00057918
     atom   10 type  2   force =    -0.00153285    0.00252425   -0.01946170
     atom   11 type  2   force =    -0.00019011   -0.00037432   -0.00014258
     atom   12 type  2   force =    -0.00089715    0.00003587   -0.00029658
     atom   13 type  1   force =     0.00054660   -0.00097214    0.00107118
     atom   14 type  1   force =     0.00145547    0.00057753   -0.00067628
     atom   15 type  2   force =    -0.00014649   -0.00099250    0.00041098
     atom   16 type  2   force =    -0.00020614   -0.00020386   -0.00148012
     atom   17 type  2   force =    -0.00065584    0.00073889   -0.00002689
     atom   18 type  2   force =     0.00049427    0.00090741   -0.00000807
     atom   19 type  1   force =    -0.00022567   -0.00112742    0.00065324
     atom   20 type  1   force =    -0.00011032    0.00044338   -0.00010735
     atom   21 type  2   force =     0.00004692   -0.00003833    0.10323457
     atom   22 type  2   force =     0.00024654   -0.00038254    0.00098765
     atom   23 type  2   force =    -0.07156343   -0.00014499   -0.02769704
     atom   24 type  2   force =     0.07145626    0.00026538   -0.02772909
     atom   25 type  1   force =     0.00005461   -0.00028348    0.09644527
     atom   26 type  1   force =    -0.00019113   -0.00028691   -0.17537162
     atom   27 type  2   force =     0.00008666   -0.00017055   -0.02382576
     atom   28 type  2   force =     0.00004573   -0.00113937    0.05272121
     atom   29 type  2   force =    -0.01208804    0.00085196    0.00277543
     atom   30 type  2   force =     0.01373268    0.00123938    0.00219342
     atom   31 type  1   force =    -0.00047037    0.00303388   -0.01242671
     atom   32 type  1   force =     0.00018816   -0.01423000    0.02941705
     atom   33 type  2   force =    -0.00022952   -0.00062872    0.00043802
     atom   34 type  2   force =    -0.00098077    0.00176451   -0.02266362
     atom   35 type  2   force =    -0.00068220   -0.00060308   -0.00012152
     atom   36 type  2   force =     0.00003523   -0.00014771   -0.00033651
     atom   37 type  1   force =     0.00065422    0.00027163    0.00054107
     atom   38 type  1   force =     0.00150529    0.00019362   -0.00067561
     atom   39 type  2   force =     0.00006744    0.00013559   -0.00123454
     atom   40 type  2   force =    -0.00034597   -0.00009965    0.00175059
     atom   41 type  2   force =    -0.00070194   -0.00108271   -0.00005288
     atom   42 type  2   force =     0.00030557   -0.00143473    0.00021680
     atom   43 type  1   force =     0.00020235    0.00066996    0.00107860
     atom   44 type  1   force =     0.00053076   -0.00024587    0.00060684
     atom   45 type  2   force =     0.00005603   -0.00009333    0.10318277
     atom   46 type  2   force =    -0.07155428   -0.00011220   -0.02770279
     atom   47 type  2   force =     0.07146091    0.00031726   -0.02773588
     atom   48 type  3   force =     0.00690860   -0.00239170   -0.00402999
     atom   49 type  4   force =    -0.00813191    0.00371090    0.00342528
     atom   50 type  4   force =    -0.00040939   -0.00046265    0.00102774
     atom   51 type  4   force =    -0.00008690   -0.00063030   -0.00077874
     atom   52 type  5   force =    -0.00008633   -0.00018050   -0.00037329
     atom   53 type  4   force =     0.00063918   -0.00003898   -0.00036872
     atom   54 type  4   force =     0.00006472    0.00019610   -0.00011562
     atom   55 type  4   force =    -0.00027934    0.00012171   -0.00008090

     Total force =     0.368577     Total SCF correction =     0.000715
  @ DRIVER MODE: Message from server: STATUS
  @ DRIVER MODE: Message from server: GETFORCE
  @ DRIVER MODE: Returning v,forces,stress,ensemble

     Writing output data file ./calc.save/
  @ DRIVER MODE: Message from server: EXIT
  @ DRIVE MODE: Exiting

     General routines

     Parallel routines

   This run was terminated on:  15:42:37   2Aug2021

   JOB DONE.