     Program PWSCF v.6.7GPU starts on 25Aug2021 at 12:13:16

     R & G space division:  proc/nbgrp/npool/nimage =       6
     Reading input from /storage/home/hcoda1/3/ntian30/research/carbon/CH3_vib_end_on/ads_slab/CH3N2H_a/out_0039/pw.inp
Warning: card &CELL ignored
Warning: card   CELL_DYNAMICS='IPI', ignored
Warning: card / ignored

     Current dimensions of program PWSCF are:
     Max number of different atomic species (ntypx) = 10
     Max number of k-points (npk) =  40000
     Max angular momentum in pseudopotentials (lmaxx) =  3
     Presently no symmetry can be used with electric field

     Message from routine cell_base_init:
     DEPRECATED: use true lattice parameter, not A to a.u. conversion factor

     IMPORTANT: XC functional enforced from input :
     Exchange-correlation= BEEF-VDW
                           (   1   4  43  14   2   0   0)
     Any further DFT definition will be discarded
     Please, verify this is what you really want

  @ DRIVER MODE: Connecting to
 qe_1139763_2643869.sched-torque.pace.gatech.eduo06g3hji_scratch
  using UNIX socket
  @ DRIVER MODE: Message from server: STATUS
  @ DRIVER MODE: Message from server: INIT
  @ DRIVER MODE: Receiving replica           0          -1
  @ DRIVER MODE: Receiving encoded integer          25
  @ DRIVER MODE:  SCF:  T  FORCE:  T  STRESS:  F  VC:  F  ENSEMBLE:  F
  @ DRIVER MODE:  SCF:  T  FORCE:  T  STRESS:  F  VC:  F  ENSEMBLE:  F

     Using Slab Decomposition

     bravais-lattice index     =            0
     lattice parameter (alat)  =       1.8897  a.u.
     unit-cell volume          =    6658.9804 (a.u.)^3
     number of atoms/cell      =           54
     number of atomic types    =            5
     number of electrons       =       396.00
     number of Kohn-Sham states=          208
     kinetic-energy cutoff     =      29.3995  Ry
     charge density cutoff     =     293.9946  Ry
     scf convergence threshold =      7.3E-08
     mixing beta               =       0.0500
     number of iterations used =            8  plain     mixing
     Exchange-correlation= BEEF-VDW
                           (   1   4  43  14   2   0   0)

     celldm(1)=   1.889726  celldm(2)=   0.000000  celldm(3)=   0.000000
     celldm(4)=   0.000000  celldm(5)=   0.000000  celldm(6)=   0.000000

     crystal axes: (cart. coord. in units of alat)
               a(1) = (   6.579727   0.000000   0.000000 )
               a(2) = (  -0.000775   5.961596   0.000000 )
               a(3) = (   0.000000   0.000000  25.155947 )

     reciprocal axes: (cart. coord. in units 2 pi/alat)
               b(1) = (  0.151982  0.000020  0.000000 )
               b(2) = (  0.000000  0.167740  0.000000 )
               b(3) = (  0.000000  0.000000  0.039752 )

     PseudoPot. # 1 for Ti read from file:
     /storage/coda1/p-amedford6/0/shared/rich_project_chbe-medford/medford-share/data/pseudos_module/espresso/nninc/pbe/van/Ti.UPF
     MD5 check sum: 8e4df49b7f0d34bbd5052bf3f5ea0213
     Pseudo is Ultrasoft, Zval = 12.0
     Generated by new atomic code, or converted to UPF format
     Using radial grid of  851 points,  6 beta functions with:
                l(1) =   0
                l(2) =   0
                l(3) =   1
                l(4) =   1
                l(5) =   2
                l(6) =   2
     Q(r) pseudized with  8 coefficients,  rinner =    1.000   1.000   1.000
                                                       1.000   1.000

     PseudoPot. # 2 for O  read from file:
     /storage/coda1/p-amedford6/0/shared/rich_project_chbe-medford/medford-share/data/pseudos_module/espresso/nninc/pbe/van/O.UPF
     MD5 check sum: 78c19812648e8988a0fe644b0f25305e
     Pseudo is Ultrasoft, Zval =  6.0
     Generated by new atomic code, or converted to UPF format
     Using radial grid of  737 points,  4 beta functions with:
                l(1) =   0
                l(2) =   0
                l(3) =   1
                l(4) =   1
     Q(r) pseudized with  8 coefficients,  rinner =    0.800   0.800   0.800

     PseudoPot. # 3 for N  read from file:
     /storage/coda1/p-amedford6/0/shared/rich_project_chbe-medford/medford-share/data/pseudos_module/espresso/nninc/pbe/van/N.UPF
     MD5 check sum: 90d10febe142ad51ac9d5be1deb811c4
     Pseudo is Ultrasoft, Zval =  5.0
     Generated by new atomic code, or converted to UPF format
     Using radial grid of  729 points,  4 beta functions with:
                l(1) =   0
                l(2) =   0
                l(3) =   1
                l(4) =   1
     Q(r) pseudized with  8 coefficients,  rinner =    0.800   0.800   0.800

     PseudoPot. # 4 for C  read from file:
     /storage/coda1/p-amedford6/0/shared/rich_project_chbe-medford/medford-share/data/pseudos_module/espresso/nninc/pbe/van/C.UPF
     MD5 check sum: 1a69bf6b8db32088f5b2163dbdb77a27
     Pseudo is Ultrasoft, Zval =  4.0
     Generated by new atomic code, or converted to UPF format
     Using radial grid of  721 points,  4 beta functions with:
                l(1) =   0
                l(2) =   0
                l(3) =   1
                l(4) =   1
     Q(r) pseudized with  8 coefficients,  rinner =    0.800   0.800   0.800

     PseudoPot. # 5 for H  read from file:
     /storage/coda1/p-amedford6/0/shared/rich_project_chbe-medford/medford-share/data/pseudos_module/espresso/nninc/pbe/van/H.UPF
     MD5 check sum: b5ee9d7bfd3a09ee7748110bda690ff7
     Pseudo is Ultrasoft, Zval =  1.0
     Generated by new atomic code, or converted to UPF format
     Using radial grid of  615 points,  1 beta functions with:
                l(1) =   0
     Q(r) pseudized with  8 coefficients,  rinner =    0.800

     atomic species   valence    mass     pseudopotential
        Ti1           12.00    47.86700     Ti( 1.00)
        O1             6.00    15.99900     O ( 1.00)
        N1             5.00    14.00700     N ( 1.00)
        C1             4.00    12.01100     C ( 1.00)
        H1             1.00     1.00800     H ( 1.00)

     No symmetry found

   Cartesian axes

     site n.     atom                  positions (alat units)
         1           Ti1 tau(   1) = (   0.0004258   2.9801865   6.0000000  )
         2           Ti1 tau(   2) = (   3.2906075   1.4906267   6.0002472  )
         3           O1  tau(   3) = (   0.0006271   0.0005054   7.9858123  )
         4           O1  tau(   4) = (   3.2906025   0.0005020   7.3038282  )
         5           O1  tau(   5) = (   4.5942328   1.4918067   9.2879030  )
         6           O1  tau(   6) = (   1.9868534   1.4903216   9.2879459  )
         7           Ti1 tau(   7) = (   3.2907910   2.8959150   9.1758416  )
         8           Ti1 tau(   8) = (   0.0015273   1.4827037   9.2680791  )
         9           O1  tau(   9) = (   3.2896288   0.0042867  11.3205077  )
        10           O1  tau(  10) = (   0.0116148   5.9584955  10.6183126  )
        11           O1  tau(  11) = (   1.2848067   1.4985890  12.6232755  )
        12           O1  tau(  12) = (   5.2688617   1.4893877  12.6055203  )
        13           Ti1 tau(  13) = (   0.0799559   3.0171279  12.6206390  )
        14           Ti1 tau(  14) = (   3.4009582   1.4891986  12.4726338  )
        15           O1  tau(  15) = (   6.5707323   0.0080309  14.6263129  )
        16           O1  tau(  16) = (   3.2902489   0.0120312  13.8979102  )
        17           O1  tau(  17) = (   4.5126121   1.5346005  16.0500440  )
        18           O1  tau(  18) = (   2.0453867   1.5362785  16.0447169  )
        19           Ti1 tau(  19) = (   3.2767562   3.0203775  15.6892921  )
        20           Ti1 tau(  20) = (   6.5596632   1.5778499  15.8310978  )
        21           O1  tau(  21) = (   3.2904802   0.0005063   4.7018136  )
        22           O1  tau(  22) = (   6.5709656   0.0671247  17.2345223  )
        23           O1  tau(  23) = (   1.3043587   1.4918075   6.0039043  )
        24           O1  tau(  24) = (   5.2767064   1.4903225   6.0039473  )
        25           Ti1 tau(  25) = (   0.0000382   5.9609847   6.0000000  )
        26           Ti1 tau(  26) = (   3.2902200   4.4714249   6.0002472  )
        27           O1  tau(  27) = (   0.0002396   2.9813036   7.9858123  )
        28           O1  tau(  28) = (   3.2902150   2.9813002   7.3038282  )
        29           O1  tau(  29) = (   4.5938453   4.4726049   9.2879030  )
        30           O1  tau(  30) = (   1.9864658   4.4711199   9.2879459  )
        31           Ti1 tau(  31) = (   3.2891106   5.8743827   9.1763621  )
        32           Ti1 tau(  32) = (   0.0006254   4.4649316   9.2693709  )
        33           O1  tau(  33) = (   3.2919429   2.9835650  11.3172650  )
        34           O1  tau(  34) = (   0.0092240   2.9805883  10.6323155  )
        35           O1  tau(  35) = (   1.2842535   4.4799506  12.6241420  )
        36           O1  tau(  36) = (   5.2755836   4.4732255  12.6042992  )
        37           Ti1 tau(  37) = (   0.0783641   0.0295629  12.6394962  )
        38           Ti1 tau(  38) = (   3.4022659   4.4693352  12.4708195  )
        39           O1  tau(  39) = (   6.5693815   2.9799975  14.6326336  )
        40           O1  tau(  40) = (   3.2899495   3.0014797  13.8849495  )
        41           O1  tau(  41) = (   4.5062741   4.5069571  16.0893315  )
        42           O1  tau(  42) = (   2.0480812   4.5060041  16.0753496  )
        43           Ti1 tau(  43) = (   3.2742444   0.0367023  15.7020416  )
        44           Ti1 tau(  44) = (   6.5658628   4.6518251  16.1481936  )
        45           O1  tau(  45) = (   3.2900926   2.9813045   4.7018136  )
        46           O1  tau(  46) = (   1.3039711   4.4726057   6.0039043  )
        47           O1  tau(  47) = (   5.2763189   4.4711207   6.0039473  )
        48           N1  tau(  48) = (   6.5201982   2.6597193  18.5868863  )
        49           N1  tau(  49) = (   6.5663212   2.9659568  17.3251533  )
        50           C1  tau(  50) = (   0.1092964   3.6297355  19.6533281  )
        51           H1  tau(  51) = (   6.1365678   4.5355971  19.4091500  )
        52           H1  tau(  52) = (   6.3142024   3.1981282  20.5813133  )
        53           H1  tau(  53) = (   1.1661384   3.8973747  19.7839464  )
        54           H1  tau(  54) = (   6.5756389   1.6532157  18.8047554  )

     number of k points=    10  Fermi-Dirac smearing, width (Ry)=  0.0073
                       cart. coord. in units 2pi/alat
        k(    1) = (   0.0000000   0.0000000   0.0000000), wk =   0.1250000
        k(    2) = (   0.0000000   0.0419351   0.0000000), wk =   0.2500000
        k(    3) = (   0.0000000  -0.0838702   0.0000000), wk =   0.1250000
        k(    4) = (   0.0379955   0.0000049   0.0000000), wk =   0.2500000
        k(    5) = (   0.0379955   0.0419400   0.0000000), wk =   0.2500000
        k(    6) = (   0.0379955  -0.0838652   0.0000000), wk =   0.2500000
        k(    7) = (   0.0379955  -0.0419301   0.0000000), wk =   0.2500000
        k(    8) = (  -0.0759910  -0.0000099   0.0000000), wk =   0.1250000
        k(    9) = (  -0.0759910   0.0419252   0.0000000), wk =   0.2500000
        k(   10) = (  -0.0759910  -0.0838800   0.0000000), wk =   0.1250000

     Initial potential from superposition of free atoms

     starting charge  379.99915, renormalised to  396.00000

     negative rho (up, down):  1.474E-02 0.000E+00

     %%%%%%%%%%%%%%%%%%%%%%%%%%%%%%%%%%%%%%%%%%%%%%%%%%%%%%%%%%%%%%%%%%%%%%%%
     %                                                                      %
     % You are using vdW-DF, which was implemented by the Thonhauser group. %
     % Please cite the following two papers that made this development      %
     % possible and the two reviews that describe the various versions:     %
     %                                                                      %
     %   T. Thonhauser et al., PRL 115, 136402 (2015).                      %
     %   T. Thonhauser et al., PRB 76, 125112 (2007).                       %
     %   K. Berland et al., Rep. Prog. Phys. 78, 066501 (2015).             %
     %   D.C. Langreth et al., J. Phys.: Condens. Matter 21, 084203 (2009). %
     %                                                                      %
     %                                                                      %
     % If you are calculating the stress with vdW-DF, please also cite:     %
     %                                                                      %
     %   R. Sabatini et al., J. Phys.: Condens. Matter 24, 424209 (2012).   %
     %                                                                      %
     %%%%%%%%%%%%%%%%%%%%%%%%%%%%%%%%%%%%%%%%%%%%%%%%%%%%%%%%%%%%%%%%%%%%%%%%

     Adding external electric field

     Computed dipole along edir(3) :
        Dipole               -9.2704 Ry au,        -23.5631 Debye
        Dipole field         -0.0175 Ry au,

        Potential amp.        1.6217 Ry
        Total length         46.3494 bohr

     Starting wfcs are  300 atomic wfcs
  @ DRIVER MODE: Message from server: STATUS
  @ DRIVER MODE: Message from server: POSDATA
  @ DRIVER MODE: Reading and sharing cell
  @ DRIVER MODE: Reading and sharing positions
  @ DRIVER MODE: Received positions

     Self-consistent Calculation

     iteration #  1     ecut=    29.40 Ry     beta= 0.05
     Davidson diagonalization with overlap
     c_bands:  1 eigenvalues not converged
     c_bands:  1 eigenvalues not converged
     c_bands:  1 eigenvalues not converged
     ethr =  1.00E-05,  avg # of iterations = 17.9

[...]

     total energy              =   -2584.65552406 Ry
     estimated scf accuracy    <    3953.82094500 Ry

     iteration #  2     ecut=    29.40 Ry     beta= 0.05
     Davidson diagonalization with overlap
     ethr =  1.00E-02,  avg # of iterations = 22.5

[...]

     iteration # 48     ecut=    29.40 Ry     beta= 0.05
     Davidson diagonalization with overlap
     c_bands:  1 eigenvalues not converged
     ethr =  1.89E-07,  avg # of iterations = 14.9

[...]

     total energy              =   -2940.39755952 Ry
     estimated scf accuracy    <       0.00000008 Ry

     iteration # 69     ecut=    29.40 Ry     beta= 0.05
     Davidson diagonalization with overlap
     ethr =  1.93E-11,  avg # of iterations =  6.7

     negative rho (up, down):  1.567E-02 0.000E+00

     Adding external electric field

     Computed dipole along edir(3) :
        Dipole                1.1315 Ry au,          2.8760 Debye
        Dipole field          0.0021 Ry au,

        Potential amp.       -0.1979 Ry
        Total length         46.3494 bohr

     End of self-consistent calculation

          k = 0.0000 0.0000 0.0000 ( 18029 PWs)   bands (ev):

   -55.6423 -55.6083 -55.5504 -55.5128 -55.4064 -55.3842 -55.3726 -55.3486
   -55.3419 -55.3355 -55.3147 -55.2657 -54.7258 -54.5845 -54.5588 -54.5505
   -32.1168 -32.0940 -31.9365 -31.9235 -31.8937 -31.8629 -31.8450 -31.8381
   -31.7955 -31.7796 -31.7783 -31.7391 -31.7303 -31.7124 -31.7010 -31.6919
   -31.6810 -31.6719 -31.6395 -31.6273 -31.6049 -31.5846 -31.5771 -31.5640
   -31.5499 -31.5439 -31.5372 -31.5354 -31.5296 -31.5126 -31.5035 -31.5016
   -31.4981 -31.4608 -31.4474 -31.3799 -31.2242 -30.9902 -30.9491 -30.9342
   -30.9055 -30.8962 -30.8829 -30.8071 -30.7668 -30.7381 -30.7208 -30.6098
   -17.9865 -16.2769 -16.0490 -15.7717 -15.6713 -15.6474 -15.5267 -15.3940
   -15.2934 -15.1987 -15.1581 -15.1040 -15.0993 -15.0701 -15.0397 -15.0037
   -14.9760 -14.9367 -14.9195 -14.8990 -14.8748 -14.8657 -14.7542 -14.7412
   -14.7162 -14.6248 -14.6145 -14.5425 -14.5160 -14.0891 -13.0867 -12.9710
   -12.0163  -8.8834  -5.7140  -4.4579  -4.1520  -3.6597  -3.5338  -3.5035
    -3.4021  -3.2274  -3.1373  -3.0776  -2.9482  -2.7637  -2.7291  -2.7191
    -2.6990  -2.6413  -2.4430  -2.4174  -2.3863  -2.3463  -2.3365  -2.3344
    -2.3200  -2.2583  -2.1927  -2.1274  -2.0296  -2.0250  -1.9679  -1.9544
    -1.9370  -1.9030  -1.8592  -1.8196  -1.7980  -1.7563  -1.7373  -1.7311
    -1.6902  -1.6074  -1.5050  -1.3477  -1.3302  -1.3004  -1.2527  -1.1966
    -1.0319  -1.0178  -0.9791  -0.9728  -0.9412  -0.8656  -0.7997  -0.7133
    -0.6782  -0.6008  -0.5846  -0.5559  -0.4818  -0.3961  -0.3734  -0.3584
    -0.3506  -0.3351  -0.2776  -0.1626  -0.0672  -0.0376   0.0836   0.0882
     0.1235   0.1681   0.1838   0.2656   0.3026   0.3166   0.3678   0.3682
     0.3799   0.4236   0.4466   0.5086   0.5644   0.6491   0.7219   0.7876
     0.8243   0.9410   1.0121   1.0774   1.1079   1.2377   1.3653   1.3757
     1.4372   1.6327   1.6352   2.0058   2.0501   3.5290   3.5502   3.6429
     3.6863   3.7840   3.8230   3.9676   4.0214   4.0598   4.1737   4.2056

[...]

          k = 0.0380-0.0419 0.0000 ( 17876 PWs)   bands (ev):

[...]

          k =-0.0760-0.0000 0.0000 ( 17886 PWs)   bands (ev):

[...]

          k =-0.0760-0.0839 0.0000 ( 17948 PWs)   bands (ev):

   -55.6254 -55.6250 -55.5373 -55.5257 -55.3895 -55.3892 -55.3752 -55.3508
   -55.3331 -55.3307 -55.3303 -55.2703 -54.7242 -54.5675 -54.5674 -54.5602
   -31.9323 -31.9322 -31.9217 -31.9217 -31.9018 -31.8925 -31.7950 -31.7853
   -31.7614 -31.7487 -31.7462 -31.7458 -31.7014 -31.6985 -31.6865 -31.6831
   -31.6738 -31.6703 -31.6697 -31.6451 -31.6003 -31.5990 -31.5852 -31.5822
   -31.5777 -31.5762 -31.5746 -31.5640 -31.5615 -31.5568 -31.5480 -31.5450
   -31.5390 -31.5281 -31.5020 -31.4680 -31.1331 -30.9707 -30.9351 -30.9225
   -30.8957 -30.8956 -30.8033 -30.8031 -30.7861 -30.7681 -30.7640 -30.7640
   -17.9806 -15.6999 -15.6886 -15.5092 -15.5040 -15.4438 -15.4376 -15.2847
   -15.2837 -15.2654 -15.2571 -15.1338 -15.1301 -15.0989 -15.0951 -15.0529
   -15.0446 -15.0258 -15.0174 -15.0157 -15.0092 -14.9833 -14.9325 -14.8978
   -14.8922 -14.7155 -14.7143 -14.5941 -14.5617 -14.2250 -13.0730 -13.0728
   -12.0171  -8.8936  -5.7060  -4.3963  -4.1548  -2.9897  -2.9777  -2.9638
    -2.7042  -2.6990  -2.6744  -2.6639  -2.4590  -2.4462  -2.4251  -2.4194
    -2.3922  -2.3863  -2.3714  -2.3642  -2.2816  -2.2710  -2.2596  -2.2355
    -2.2330  -2.2273  -2.2111  -2.2036  -2.1936  -2.1601  -2.1253  -2.0956
    -2.0610  -2.0387  -1.9196  -1.8092  -1.7307  -1.7239  -1.6933  -1.6875
    -1.6816  -1.6751  -1.6424  -1.5379  -1.4828  -1.4276  -1.2900  -1.2642
    -1.2473  -1.2014  -1.1130  -1.0326  -0.9688  -0.9524  -0.9045  -0.8612
    -0.8365  -0.7519  -0.7280  -0.7204  -0.6526  -0.6202  -0.5754  -0.5696
    -0.5554  -0.4898  -0.4420  -0.3918  -0.3684  -0.3376  -0.2926  -0.2719
    -0.2092  -0.1571  -0.1094  -0.1040  -0.0556  -0.0474   0.0178   0.1669
     0.2163   0.4699   0.4848   0.5146   0.6392   0.7113   0.7168   0.7446
     0.7758   0.8274   0.8392   0.9731   0.9844   0.9869   1.1531   1.1773
     1.2614   1.8057   1.8059   1.8691   1.8695   3.4316   3.9210   3.9384
     3.9637   3.9788   4.0503   4.0513   4.0594   4.0668   4.2447   4.2650

     the Fermi energy is     3.5062 ev

!    total energy              =   -2940.39757726 Ry
     estimated scf accuracy    <       0.00000006 Ry
     smearing contrib. (-TS)   =      -0.02304320 Ry
     internal energy E=F+TS    =   -2940.37453406 Ry

     The total energy is F=E-TS. E is the sum of the following terms:
     one-electron contribution =  -24109.24013201 Ry
     hartree contribution      =   12145.85352713 Ry
     xc contribution           =    -486.03794791 Ry
     ewald contribution        =    9509.04760266 Ry
     electric field correction =       0.00241607 Ry

     convergence has been achieved in  69 iterations

     Forces acting on atoms (cartesian axes, Ry/au):

     atom    1 type  1   force =     0.00015818   -0.00012244    0.09934282
     atom    2 type  1   force =    -0.00012636   -0.00047827   -0.17358696
     atom    3 type  2   force =    -0.00005008   -0.00000142   -0.02878901
     atom    4 type  2   force =     0.00007358   -0.00125064    0.04997806
     atom    5 type  2   force =    -0.01306809    0.00057495    0.00122607
     atom    6 type  2   force =     0.01461645    0.00138316   -0.00009840
     atom    7 type  1   force =    -0.00144454   -0.00059136   -0.00835420
     atom    8 type  1   force =     0.00087653   -0.00412652    0.04511477
     atom    9 type  2   force =    -0.00003069   -0.00066002   -0.00024612
     atom   10 type  2   force =    -0.00129119    0.00227491   -0.02837654
     atom   11 type  2   force =     0.00018172    0.00061108   -0.00001861
     atom   12 type  2   force =     0.00027096    0.00040561    0.00012671
     atom   13 type  1   force =     0.00037350    0.00021110   -0.00066141
     atom   14 type  1   force =     0.00003033    0.00047530    0.00028784
     atom   15 type  2   force =     0.00033533   -0.00010554    0.00007278
     atom   16 type  2   force =    -0.00040883   -0.00023474   -0.00013832
     atom   17 type  2   force =    -0.00096512    0.00014060   -0.00050321
     atom   18 type  2   force =     0.00084463    0.00019658    0.00025821
     atom   19 type  1   force =     0.00022236   -0.00007674   -0.00004786
     atom   20 type  1   force =    -0.00048247   -0.00080349   -0.00005863
     atom   21 type  2   force =     0.00009045   -0.00007077    0.10276101
     atom   22 type  2   force =     0.00011080    0.00025507    0.00035409
     atom   23 type  2   force =    -0.07214221   -0.00015664   -0.02832956
     atom   24 type  2   force =     0.07214061    0.00030146   -0.02832653
     atom   25 type  1   force =     0.00012392   -0.00019919    0.09864579
     atom   26 type  1   force =    -0.00010738   -0.00045842   -0.17380115
     atom   27 type  2   force =     0.00001147   -0.00002421   -0.02807000
     atom   28 type  2   force =     0.00011384   -0.00099858    0.04943368
     atom   29 type  2   force =    -0.01338730    0.00005246    0.00128801
     atom   30 type  2   force =     0.01484340    0.00041804   -0.00005654
     atom   31 type  1   force =    -0.00139546    0.00251310   -0.00864194
     atom   32 type  1   force =     0.00106143    0.00237253    0.04543776
     atom   33 type  2   force =    -0.00012918    0.00104445    0.00057485
     atom   34 type  2   force =    -0.00071771    0.00120493   -0.03111650
     atom   35 type  2   force =     0.00067832   -0.00050881   -0.00016607
     atom   36 type  2   force =    -0.00161735   -0.00010845    0.00007965
     atom   37 type  1   force =    -0.00018133   -0.00153605    0.00012091
     atom   38 type  1   force =     0.00077943   -0.00004880    0.00047543
     atom   39 type  2   force =     0.00032243    0.00018278   -0.00047500
     atom   40 type  2   force =    -0.00040381    0.00033115    0.00000470
     atom   41 type  2   force =     0.00048670   -0.00059108    0.00005320
     atom   42 type  2   force =    -0.00047403   -0.00071725    0.00055130
     atom   43 type  1   force =     0.00036402   -0.00031185   -0.00064531
     atom   44 type  1   force =    -0.00035263   -0.00074876   -0.00050293
     atom   45 type  2   force =     0.00010933   -0.00006865    0.10276963
     atom   46 type  2   force =    -0.07216407   -0.00009890   -0.02832255
     atom   47 type  2   force =     0.07214880    0.00034158   -0.02830116
     atom   48 type  3   force =     0.00055603   -0.01397247    0.00070300
     atom   49 type  3   force =    -0.00002517   -0.00063746    0.00088437
     atom   50 type  4   force =     0.00118225   -0.00007629    0.00101256
     atom   51 type  5   force =    -0.00024953   -0.00050274    0.00004841
     atom   52 type  5   force =     0.00034744    0.00015618   -0.00042233
     atom   53 type  5   force =    -0.00104608    0.00048547   -0.00092568
     atom   54 type  5   force =    -0.00119367    0.01435408   -0.00262311

     Total force =     0.372744     Total SCF correction =     0.000470
  @ DRIVER MODE: Message from server: STATUS
  @ DRIVER MODE: Message from server: GETFORCE
  @ DRIVER MODE: Returning v,forces,stress,ensemble

     Writing output data file ./calc.save/
  @ DRIVER MODE: Message from server: EXIT
  @ DRIVE MODE: Exiting

     General routines

     Parallel routines

   This run was terminated on:  12:42: 7  25Aug2021

   JOB DONE.