     Program PWSCF v.6.7GPU starts on 16Sep2021 at  5:21:52

     R & G space division:  proc/nbgrp/npool/nimage =      10
     Reading input from /storage/home/hcoda1/3/ntian30/research/carbon/CxH_vib/H2O_calc/ads_slab/CH3OHH2O_e/out_0043/pw.inp
Warning: card &CELL ignored
Warning: card   CELL_DYNAMICS='IPI', ignored
Warning: card / ignored

     Current dimensions of program PWSCF are:
     Max number of different atomic species (ntypx) = 10
     Max number of k-points (npk) =  40000
     Max angular momentum in pseudopotentials (lmaxx) =  3
     Presently no symmetry can be used with electric field

     Message from routine cell_base_init:
     DEPRECATED: use true lattice parameter, not A to a.u. conversion factor

     IMPORTANT: XC functional enforced from input :
     Exchange-correlation= BEEF-VDW
                           (   1   4  43  14   2   0   0)
     Any further DFT definition will be discarded
     Please, verify this is what you really want

  @ DRIVER MODE: Connecting to
 qe_1139763_2852623.sched-torque.pace.gatech.edun6t3zkgr_scratch
  using UNIX socket
  @ DRIVER MODE: Message from server: STATUS
  @ DRIVER MODE: Message from server: INIT
  @ DRIVER MODE: Receiving replica           0          -1
  @ DRIVER MODE: Receiving encoded integer          25
  @ DRIVER MODE:  SCF:  T  FORCE:  T  STRESS:  F  VC:  F  ENSEMBLE:  F
  @ DRIVER MODE:  SCF:  T  FORCE:  T  STRESS:  F  VC:  F  ENSEMBLE:  F

     Using Slab Decomposition

     bravais-lattice index     =            0
     lattice parameter (alat)  =       1.8897  a.u.
     unit-cell volume          =    6658.9804 (a.u.)^3
     number of atoms/cell      =           56
     number of atomic types    =            4
     number of electrons       =       400.00
     number of Kohn-Sham states=          210
     kinetic-energy cutoff     =      29.3995  Ry
     charge density cutoff     =     293.9946  Ry
     scf convergence threshold =      7.3E-08
     mixing beta               =       0.0500
     number of iterations used =            8  plain     mixing
     Exchange-correlation= BEEF-VDW
                           (   1   4  43  14   2   0   0)

     celldm(1)=   1.889726  celldm(2)=   0.000000  celldm(3)=   0.000000
     celldm(4)=   0.000000  celldm(5)=   0.000000  celldm(6)=   0.000000

     crystal axes: (cart. coord. in units of alat)
               a(1) = (   6.579727   0.000000   0.000000 )
               a(2) = (  -0.000775   5.961596   0.000000 )
               a(3) = (   0.000000   0.000000  25.155947 )

     reciprocal axes: (cart. coord. in units 2 pi/alat)
               b(1) = (  0.151982  0.000020  0.000000 )
               b(2) = (  0.000000  0.167740  0.000000 )
               b(3) = (  0.000000  0.000000  0.039752 )

     PseudoPot. # 1 for Ti read from file:
     /storage/coda1/p-amedford6/0/shared/rich_project_chbe-medford/medford-share/data/pseudos_module/espresso/nninc/pbe/van/Ti.UPF
     MD5 check sum: 8e4df49b7f0d34bbd5052bf3f5ea0213
     Pseudo is Ultrasoft, Zval = 12.0
     Generated by new atomic code, or converted to UPF format
     Using radial grid of  851 points,  6 beta functions with:
                l(1) =   0
                l(2) =   0
                l(3) =   1
                l(4) =   1
                l(5) =   2
                l(6) =   2
     Q(r) pseudized with  8 coefficients,  rinner =    1.000   1.000   1.000
                                                       1.000   1.000

     PseudoPot. # 2 for O  read from file:
     /storage/coda1/p-amedford6/0/shared/rich_project_chbe-medford/medford-share/data/pseudos_module/espresso/nninc/pbe/van/O.UPF
     MD5 check sum: 78c19812648e8988a0fe644b0f25305e
     Pseudo is Ultrasoft, Zval =  6.0
     Generated by new atomic code, or converted to UPF format
     Using radial grid of  737 points,  4 beta functions with:
                l(1) =   0
                l(2) =   0
                l(3) =   1
                l(4) =   1
     Q(r) pseudized with  8 coefficients,  rinner =    0.800   0.800   0.800

     PseudoPot. # 3 for C  read from file:
     /storage/coda1/p-amedford6/0/shared/rich_project_chbe-medford/medford-share/data/pseudos_module/espresso/nninc/pbe/van/C.UPF
     MD5 check sum: 1a69bf6b8db32088f5b2163dbdb77a27
     Pseudo is Ultrasoft, Zval =  4.0
     Generated by new atomic code, or converted to UPF format
     Using radial grid of  721 points,  4 beta functions with:
                l(1) =   0
                l(2) =   0
                l(3) =   1
                l(4) =   1
     Q(r) pseudized with  8 coefficients,  rinner =    0.800   0.800   0.800

     PseudoPot. # 4 for H  read from file:
     /storage/coda1/p-amedford6/0/shared/rich_project_chbe-medford/medford-share/data/pseudos_module/espresso/nninc/pbe/van/H.UPF
     MD5 check sum: b5ee9d7bfd3a09ee7748110bda690ff7
     Pseudo is Ultrasoft, Zval =  1.0
     Generated by new atomic code, or converted to UPF format
     Using radial grid of  615 points,  1 beta functions with:
                l(1) =   0
     Q(r) pseudized with  8 coefficients,  rinner =    0.800

     atomic species   valence    mass     pseudopotential
        Ti1           12.00    47.86700     Ti( 1.00)
        O1             6.00    15.99900     O ( 1.00)
        C1             4.00    12.01100     C ( 1.00)
        H1             1.00     1.00800     H ( 1.00)

     No symmetry found

   Cartesian axes

     site n.     atom                  positions (alat units)
         1           Ti1 tau(   1) = (   0.0004258   2.9801865   6.0000000  )
         2           Ti1 tau(   2) = (   3.2906075   1.4906267   6.0002472  )
         3           O1  tau(   3) = (   0.0006271   0.0005054   7.9858123  )
         4           O1  tau(   4) = (   3.2906025   0.0005020   7.3038282  )
         5           O1  tau(   5) = (   4.5942328   1.4918067   9.2879030  )
         6           O1  tau(   6) = (   1.9868534   1.4903216   9.2879459  )
         7           Ti1 tau(   7) = (   3.3179988   2.9667087   9.1587561  )
         8           Ti1 tau(   8) = (   0.0368451   1.4888401   9.2646154  )
         9           O1  tau(   9) = (   3.2981896   5.9413050  11.3756853  )
        10           O1  tau(  10) = (   0.0022081   5.9550161  10.6068466  )
        11           O1  tau(  11) = (   1.2930414   1.4711740  12.6526869  )
        12           O1  tau(  12) = (   5.2963464   1.4745835  12.6500758  )
        13           Ti1 tau(  13) = (   0.0229324   2.9590759  12.5385950  )
        14           Ti1 tau(  14) = (   3.3157970   1.4644123  12.5194148  )
        15           O1  tau(  15) = (   6.5691168   5.9481840  14.6869282  )
        16           O1  tau(  16) = (   3.2964787   5.9455965  14.0277316  )
        17           O1  tau(  17) = (   4.5665908   1.5027878  16.2081754  )
        18           O1  tau(  18) = (   2.0283028   1.5092035  16.1774433  )
        19           Ti1 tau(  19) = (   3.2999954   2.9453206  15.7178785  )
        20           Ti1 tau(  20) = (   6.5724188   1.3235339  15.9896992  )
        21           O1  tau(  21) = (   3.2904802   0.0005063   4.7018136  )
        22           O1  tau(  22) = (   0.0286320   5.9425150  17.2304330  )
        23           O1  tau(  23) = (   1.3043587   1.4918075   6.0039043  )
        24           O1  tau(  24) = (   5.2767064   1.4903225   6.0039473  )
        25           Ti1 tau(  25) = (   0.0000382   5.9609847   6.0000000  )
        26           Ti1 tau(  26) = (   3.2902200   4.4714249   6.0002472  )
        27           O1  tau(  27) = (   0.0002396   2.9813036   7.9858123  )
        28           O1  tau(  28) = (   3.2902150   2.9813002   7.3038282  )
        29           O1  tau(  29) = (   4.5938453   4.4726049   9.2879030  )
        30           O1  tau(  30) = (   1.9864658   4.4711199   9.2879459  )
        31           Ti1 tau(  31) = (   3.3176359   5.9492212   9.1540102  )
        32           Ti1 tau(  32) = (   0.0367062   4.4560090   9.2708352  )
        33           O1  tau(  33) = (   3.2951800   2.9650663  11.3684769  )
        34           O1  tau(  34) = (   0.0080098   2.9764013  10.6279654  )
        35           O1  tau(  35) = (   1.2931912   4.4560454  12.6592269  )
        36           O1  tau(  36) = (   5.2946864   4.4524020  12.6579832  )
        37           Ti1 tau(  37) = (   0.0159028   5.9413441  12.4831893  )
        38           Ti1 tau(  38) = (   3.3151975   4.4500431  12.5204281  )
        39           O1  tau(  39) = (   0.0034497   2.9621527  14.8596962  )
        40           O1  tau(  40) = (   3.2989893   2.9535984  13.9376031  )
        41           O1  tau(  41) = (   4.5724332   4.4114593  16.1445292  )
        42           O1  tau(  42) = (   2.0255208   4.3883007  16.1585022  )
        43           Ti1 tau(  43) = (   3.2821299   5.9114753  15.8432964  )
        44           Ti1 tau(  44) = (   6.5414858   4.5242847  15.8739915  )
        45           O1  tau(  45) = (   3.2900926   2.9813045   4.7018136  )
        46           O1  tau(  46) = (   1.3039711   4.4726057   6.0039043  )
        47           O1  tau(  47) = (   5.2763189   4.4711207   6.0039473  )
        48           C1  tau(  48) = (   5.9754720   3.1749164  18.9278073  )
        49           O1  tau(  49) = (   0.1533887   3.0270296  17.7012840  )
        50           H1  tau(  50) = (   4.9293134   3.0706859  18.6584277  )
        51           H1  tau(  51) = (   1.0910173   3.2466920  17.8500278  )
        52           H1  tau(  52) = (   6.2690755   2.3937635  19.6305738  )
        53           H1  tau(  53) = (   6.1431946   4.1694627  19.3379575  )
        54           O1  tau(  54) = (   3.1723115   5.9428592  18.3689464  )
        55           H1  tau(  55) = (   3.8752673   0.6353712  18.4582360  )
        56           H1  tau(  56) = (   2.3406934   0.4831942  18.3201771  )

     number of k points=    10  Fermi-Dirac smearing, width (Ry)=  0.0073
                       cart. coord. in units 2pi/alat
        k(    1) = (   0.0000000   0.0000000   0.0000000), wk =   0.1250000
        k(    2) = (   0.0000000   0.0419351   0.0000000), wk =   0.2500000
        k(    3) = (   0.0000000  -0.0838702   0.0000000), wk =   0.1250000
        k(    4) = (   0.0379955   0.0000049   0.0000000), wk =   0.2500000
        k(    5) = (   0.0379955   0.0419400   0.0000000), wk =   0.2500000
        k(    6) = (   0.0379955  -0.0838652   0.0000000), wk =   0.2500000
        k(    7) = (   0.0379955  -0.0419301   0.0000000), wk =   0.2500000
        k(    8) = (  -0.0759910  -0.0000099   0.0000000), wk =   0.1250000
        k(    9) = (  -0.0759910   0.0419252   0.0000000), wk =   0.2500000
        k(   10) = (  -0.0759910  -0.0838800   0.0000000), wk =   0.1250000

     Initial potential from superposition of free atoms

     starting charge  383.99915, renormalised to  400.00000

     negative rho (up, down):  1.599E-02 0.000E+00

     %%%%%%%%%%%%%%%%%%%%%%%%%%%%%%%%%%%%%%%%%%%%%%%%%%%%%%%%%%%%%%%%%%%%%%%%
     %                                                                      %
     % You are using vdW-DF, which was implemented by the Thonhauser group. %
     % Please cite the following two papers that made this development      %
     % possible and the two reviews that describe the various versions:     %
     %                                                                      %
     %   T. Thonhauser et al., PRL 115, 136402 (2015).                      %
     %   T. Thonhauser et al., PRB 76, 125112 (2007).                       %
     %   K. Berland et al., Rep. Prog. Phys. 78, 066501 (2015).             %
     %   D.C. Langreth et al., J. Phys.: Condens. Matter 21, 084203 (2009). %
     %                                                                      %
     %                                                                      %
     % If you are calculating the stress with vdW-DF, please also cite:     %
     %                                                                      %
     %   R. Sabatini et al., J. Phys.: Condens. Matter 24, 424209 (2012).   %
     %                                                                      %
     %%%%%%%%%%%%%%%%%%%%%%%%%%%%%%%%%%%%%%%%%%%%%%%%%%%%%%%%%%%%%%%%%%%%%%%%

     Adding external electric field

     Computed dipole along edir(3) :
        Dipole              -11.7400 Ry au,        -29.8402 Debye
        Dipole field         -0.0222 Ry au,

        Potential amp.        2.0537 Ry
        Total length         46.3494 bohr

     Starting wfcs are  302 atomic wfcs
  @ DRIVER MODE: Message from server: STATUS
  @ DRIVER MODE: Message from server: POSDATA
  @ DRIVER MODE: Reading and sharing cell
  @ DRIVER MODE: Reading and sharing positions
  @ DRIVER MODE: Received positions

     Self-consistent Calculation

     iteration #  1     ecut=    29.40 Ry     beta= 0.05
     Davidson diagonalization with overlap
     c_bands:  2 eigenvalues not converged
     c_bands:  2 eigenvalues not converged
     c_bands:  4 eigenvalues not converged
     c_bands:  3 eigenvalues not converged
     c_bands:  4 eigenvalues not converged
     c_bands:  4 eigenvalues not converged
     c_bands:  3 eigenvalues not converged
     c_bands:  2 eigenvalues not converged
     ethr =  1.00E-05,  avg # of iterations = 21.3

[...]

     total energy              =   -2420.21188990 Ry
     estimated scf accuracy    <    6189.10170241 Ry

     iteration #  2     ecut=    29.40 Ry     beta= 0.05
     Davidson diagonalization with overlap
     ethr =  1.00E-02,  avg # of iterations = 29.7

[...]

     iteration # 75     ecut=    29.40 Ry     beta= 0.05
     Davidson diagonalization with overlap
     c_bands:  1 eigenvalues not converged
     ethr =  1.29E-10,  avg # of iterations = 14.5

[...]

     total energy              =   -2967.47590733 Ry
     estimated scf accuracy    <       0.00000010 Ry

     iteration # 77     ecut=    29.40 Ry     beta= 0.05
     Davidson diagonalization with overlap
     ethr =  2.59E-11,  avg # of iterations = 10.2

     negative rho (up, down):  1.588E-02 0.000E+00

     Adding external electric field

     Computed dipole along edir(3) :
        Dipole                1.3773 Ry au,          3.5008 Debye
        Dipole field          0.0026 Ry au,

        Potential amp.       -0.2409 Ry
        Total length         46.3494 bohr

     End of self-consistent calculation

          k = 0.0000 0.0000 0.0000 ( 18029 PWs)   bands (ev):

   -55.2497 -55.2221 -55.2137 -55.1877 -55.1561 -55.1478 -55.1425 -55.0958
   -55.0950 -55.0891 -55.0548 -55.0372 -55.0072 -55.0032 -54.3114 -54.2774
   -31.8164 -31.7655 -31.7172 -31.6270 -31.5645 -31.5545 -31.5497 -31.5473
   -31.5108 -31.4817 -31.4652 -31.4631 -31.4515 -31.4418 -31.4278 -31.4132
   -31.3962 -31.3896 -31.3868 -31.3823 -31.3761 -31.3672 -31.3445 -31.3399
   -31.3381 -31.3181 -31.3154 -31.3134 -31.2926 -31.2793 -31.2636 -31.2430
   -31.2416 -31.2408 -31.2294 -31.2203 -31.2016 -31.1884 -31.1764 -31.1720
   -31.1588 -31.1483 -30.7235 -30.6211 -30.5995 -30.5398 -30.4534 -30.3423
   -20.1690 -19.1370 -16.0792 -15.8321 -15.6923 -15.5938 -15.4729 -15.3394
   -15.2793 -15.1645 -15.0733 -14.9831 -14.9684 -14.9504 -14.9203 -14.8978
   -14.8732 -14.8349 -14.8087 -14.7649 -14.7562 -14.7398 -14.7328 -14.6962
   -14.6932 -14.6480 -14.6397 -14.4828 -14.4125 -14.3524 -14.1297 -12.8120
   -12.6926 -11.1873  -6.9290  -6.8693  -5.1366  -5.0155  -3.4190  -3.2622
    -3.2265  -3.2111  -3.1832  -3.1547  -3.0585  -2.9604  -2.7923  -2.6786
    -2.5412  -2.5341  -2.4886  -2.4608  -2.4039  -2.3216  -2.2334  -2.2069
    -2.1732  -2.1387  -2.1356  -2.1198  -2.1094  -2.0533  -2.0177  -1.9598
    -1.8635  -1.8136  -1.7745  -1.7556  -1.6947  -1.6509  -1.6191  -1.5889
    -1.5819  -1.5753  -1.5169  -1.5148  -1.5069  -1.4954  -1.4777  -1.2890
    -1.2493  -1.1168  -1.0257  -0.9854  -0.9724  -0.8172  -0.8105  -0.7661
    -0.7329  -0.6987  -0.6581  -0.6005  -0.5031  -0.4754  -0.4210  -0.3829
    -0.2748  -0.2427  -0.2117  -0.1573  -0.0496  -0.0413  -0.0155   0.0037
     0.0778   0.1736   0.2028   0.2240   0.3010   0.3061   0.3676   0.4082
     0.4417   0.5167   0.5620   0.5732   0.6648   0.6817   0.6954   0.7219
     0.7254   0.8240   0.8601   0.9046   0.9230   1.0746   1.1696   1.3086
     1.3372   1.6039   1.6991   1.7146   1.8749   2.3005   2.3552   3.8415
     3.9099   3.9483   3.9560   3.9693   4.0488   4.3326   4.3479   4.3598
     4.3694   4.3875

[...]

          k = 0.0380-0.0419 0.0000 ( 17876 PWs)   bands (ev):

[...]

          k =-0.0760-0.0000 0.0000 ( 17886 PWs)   bands (ev):

[...]

          k =-0.0760-0.0839 0.0000 ( 17948 PWs)   bands (ev):

   -55.2326 -55.2305 -55.2068 -55.2029 -55.1531 -55.1419 -55.1352 -55.1032
   -55.1017 -55.0732 -55.0704 -55.0220 -55.0184 -55.0091 -54.2944 -54.2943
   -31.6825 -31.6235 -31.6165 -31.5340 -31.5303 -31.5167 -31.5049 -31.4998
   -31.4924 -31.4718 -31.4536 -31.4481 -31.4440 -31.4301 -31.4046 -31.4019
   -31.3905 -31.3881 -31.3810 -31.3801 -31.3766 -31.3734 -31.3604 -31.3468
   -31.3388 -31.3337 -31.3329 -31.3265 -31.3234 -31.3234 -31.3228 -31.3044
   -31.2969 -31.2947 -31.2760 -31.2716 -31.2709 -31.2470 -31.2432 -31.2082
   -31.2040 -31.1909 -30.6121 -30.6120 -30.5363 -30.5360 -30.4967 -30.4965
   -20.1657 -19.1364 -15.6374 -15.5389 -15.3886 -15.2652 -15.2530 -15.2404
   -15.1884 -15.1239 -15.1104 -15.0598 -15.0473 -15.0163 -15.0005 -14.9944
   -14.9585 -14.8500 -14.8460 -14.8357 -14.8150 -14.7699 -14.7589 -14.7518
   -14.7395 -14.7035 -14.6950 -14.6807 -14.6703 -14.5784 -14.4387 -12.7939
   -12.7934 -11.1891  -6.9237  -6.8712  -5.1377  -4.9943  -3.2021  -2.9901
    -2.8070  -2.7279  -2.6311  -2.4831  -2.4686  -2.3875  -2.3755  -2.3250
    -2.2544  -2.2512  -2.2476  -2.1663  -2.1542  -2.1540  -2.1328  -2.1136
    -2.0735  -2.0644  -2.0416  -2.0305  -1.9890  -1.9583  -1.9452  -1.9289
    -1.9179  -1.9139  -1.8829  -1.8686  -1.8534  -1.8114  -1.7895  -1.7277
    -1.6405  -1.6028  -1.4803  -1.4775  -1.4407  -1.4152  -1.3869  -1.3465
    -1.3265  -1.2788  -1.2590  -1.2329  -1.0494  -1.0335  -0.9792  -0.9399
    -0.9189  -0.9057  -0.8439  -0.7721  -0.7457  -0.7139  -0.6482  -0.5748
    -0.4794  -0.4547  -0.4462  -0.3416  -0.2880  -0.2485  -0.2442  -0.2348
    -0.2112  -0.1622  -0.1425  -0.0807  -0.0416   0.0020   0.0274   0.0443
     0.2254   0.2638   0.3223   0.4138   0.4426   0.5875   0.6361   0.6878
     0.7484   0.8248   0.8357   0.9018   1.0161   1.0284   1.0585   1.1352
     1.1786   1.1843   1.2094   2.0659   2.0680   2.1695   2.1725   3.9714
     4.0788   4.0974   4.1763   4.2423   4.3506   4.3637   4.3930   4.4033
     4.4486   4.4808

     the Fermi energy is     3.8979 ev

!    total energy              =   -2967.47591684 Ry
     estimated scf accuracy    <       0.00000007 Ry
     smearing contrib. (-TS)   =      -0.03654104 Ry
     internal energy E=F+TS    =   -2967.43937579 Ry

     The total energy is F=E-TS. E is the sum of the following terms:
     one-electron contribution =  -23962.88209250 Ry
     hartree contribution      =   12077.03865041 Ry
     xc contribution           =    -491.86636711 Ry
     ewald contribution        =    9410.26685345 Ry
     electric field correction =       0.00357996 Ry

     convergence has been achieved in  77 iterations

     Forces acting on atoms (cartesian axes, Ry/au):

     atom    1 type  1   force =    -0.00026455    0.00020019    0.09243798
     atom    2 type  1   force =    -0.00035906    0.00104699   -0.18341318
     atom    3 type  2   force =     0.00050317   -0.00072476   -0.02350727
     atom    4 type  2   force =     0.00072426   -0.00018419    0.05069682
     atom    5 type  2   force =    -0.01404610   -0.00131519    0.00495151
     atom    6 type  2   force =     0.01521379   -0.00064872    0.00509012
     atom    7 type  1   force =    -0.00048497    0.00106004   -0.00013199
     atom    8 type  1   force =     0.00015830   -0.00053378    0.00039716
     atom    9 type  2   force =    -0.00044181    0.00017510    0.00040185
     atom   10 type  2   force =     0.00040982    0.00016496    0.00047987
     atom   11 type  2   force =     0.00035454    0.00043938    0.00034952
     atom   12 type  2   force =     0.00006238    0.00014087    0.00027838
     atom   13 type  1   force =    -0.00088020   -0.00118526   -0.00010002
     atom   14 type  1   force =     0.00059182   -0.00004405    0.00020956
     atom   15 type  2   force =     0.00051524    0.00076232    0.00005647
     atom   16 type  2   force =    -0.00061786   -0.00036827    0.00010442
     atom   17 type  2   force =    -0.00002289    0.00021365   -0.00039506
     atom   18 type  2   force =    -0.00011962    0.00027986   -0.00008293
     atom   19 type  1   force =     0.00069888   -0.00003579   -0.00035667
     atom   20 type  1   force =    -0.00011089    0.00012005   -0.00007414
     atom   21 type  2   force =    -0.00004197    0.00015954    0.10499672
     atom   22 type  2   force =    -0.00029200    0.00057383   -0.00097224
     atom   23 type  2   force =    -0.06800248    0.00012375   -0.02680761
     atom   24 type  2   force =     0.06772655    0.00052970   -0.02687906
     atom   25 type  1   force =    -0.00038628   -0.00008661    0.09623587
     atom   26 type  1   force =    -0.00035496   -0.00099173   -0.18321403
     atom   27 type  2   force =     0.00041997   -0.00125235   -0.02227349
     atom   28 type  2   force =     0.00070165   -0.00033322    0.05101842
     atom   29 type  2   force =    -0.01423064   -0.00105916    0.00465864
     atom   30 type  2   force =     0.01518874    0.00021297    0.00484505
     atom   31 type  1   force =    -0.00049959   -0.00146105    0.00017125
     atom   32 type  1   force =     0.00012792    0.00071230   -0.00026705
     atom   33 type  2   force =     0.00002253   -0.00020425    0.00006484
     atom   34 type  2   force =     0.00002487   -0.00006869   -0.00007594
     atom   35 type  2   force =     0.00020896    0.00008546    0.00031660
     atom   36 type  2   force =     0.00039967    0.00045195    0.00006175
     atom   37 type  1   force =    -0.00105956    0.00124958   -0.00004724
     atom   38 type  1   force =     0.00037594    0.00010425   -0.00044094
     atom   39 type  2   force =     0.00039966    0.00022125   -0.00033488
     atom   40 type  2   force =    -0.00008309    0.00019685    0.00008774
     atom   41 type  2   force =    -0.00023703    0.00018361   -0.00051337
     atom   42 type  2   force =     0.00013526   -0.00002363    0.00022141
     atom   43 type  1   force =    -0.00051718    0.00010516    0.00004219
     atom   44 type  1   force =    -0.00005655    0.00009345   -0.00082548
     atom   45 type  2   force =    -0.00005348    0.00015439    0.10492602
     atom   46 type  2   force =    -0.06805169   -0.00037413   -0.02680771
     atom   47 type  2   force =     0.06776797    0.00005059   -0.02688663
     atom   48 type  3   force =    -0.00002571    0.00051895   -0.00021916
     atom   49 type  2   force =    -0.00114931    0.00031159    0.00088527
     atom   50 type  4   force =     0.00048637    0.00055579    0.00007989
     atom   51 type  4   force =     0.00071192    0.00087611   -0.00004060
     atom   52 type  4   force =    -0.00044168    0.00059399   -0.00023340
     atom   53 type  4   force =    -0.00018826   -0.00023283    0.00010758
     atom   54 type  2   force =    -0.01005002   -0.00795564   -0.00016529
     atom   55 type  4   force =     0.01107220    0.00861083    0.00092597
     atom   56 type  4   force =    -0.00193297   -0.00219598   -0.00003350

     Total force =     0.368711     Total SCF correction =     0.000764
  @ DRIVER MODE: Message from server: STATUS
  @ DRIVER MODE: Message from server: GETFORCE
  @ DRIVER MODE: Returning v,forces,stress,ensemble

     Writing output data file ./calc.save/
  @ DRIVER MODE: Message from server: EXIT
  @ DRIVE MODE: Exiting

     General routines

     Parallel routines

   This run was terminated on:   5:42: 6  16Sep2021

   JOB DONE.