     Program PWSCF v.6.7GPU starts on 24Sep2021 at  1: 8:39

     R & G space division:  proc/nbgrp/npool/nimage =       8
     Reading input from /storage/home/hcoda1/3/ntian30/research/carbon/CxH_vib/H2O_calc/ads_slab/CH3NHHO_a/out_0038/pw.inp
Warning: card &CELL ignored
Warning: card   CELL_DYNAMICS='IPI', ignored
Warning: card / ignored

     Current dimensions of program PWSCF are:
     Max number of different atomic species (ntypx) = 10
     Max number of k-points (npk) =  40000
     Max angular momentum in pseudopotentials (lmaxx) =  3
     Presently no symmetry can be used with electric field

     Message from routine cell_base_init:
     DEPRECATED: use true lattice parameter, not A to a.u. conversion factor

     IMPORTANT: XC functional enforced from input :
     Exchange-correlation= BEEF-VDW
                           (   1   4  43  14   2   0   0)
     Any further DFT definition will be discarded
     Please, verify this is what you really want

  @ DRIVER MODE: Connecting to
 qe_1139763_2947309.sched-torque.pace.gatech.edu5yul1cbc_scratch
  using UNIX socket
  @ DRIVER MODE: Message from server: STATUS
  @ DRIVER MODE: Message from server: INIT
  @ DRIVER MODE: Receiving replica           0          -1
  @ DRIVER MODE: Receiving encoded integer          25
  @ DRIVER MODE:  SCF:  T  FORCE:  T  STRESS:  F  VC:  F  ENSEMBLE:  F
  @ DRIVER MODE:  SCF:  T  FORCE:  T  STRESS:  F  VC:  F  ENSEMBLE:  F

     Using Slab Decomposition

     bravais-lattice index     =            0
     lattice parameter (alat)  =       1.8897  a.u.
     unit-cell volume          =    6658.9804 (a.u.)^3
     number of atoms/cell      =           55
     number of atomic types    =            5
     number of electrons       =       398.00
     number of Kohn-Sham states=          209
     kinetic-energy cutoff     =      29.3995  Ry
     charge density cutoff     =     293.9946  Ry
     scf convergence threshold =      7.3E-08
     mixing beta               =       0.0500
     number of iterations used =            8  plain     mixing
     Exchange-correlation= BEEF-VDW
                           (   1   4  43  14   2   0   0)

     celldm(1)=   1.889726  celldm(2)=   0.000000  celldm(3)=   0.000000
     celldm(4)=   0.000000  celldm(5)=   0.000000  celldm(6)=   0.000000

     crystal axes: (cart. coord. in units of alat)
               a(1) = (   6.579727   0.000000   0.000000 )
               a(2) = (  -0.000775   5.961596   0.000000 )
               a(3) = (   0.000000   0.000000  25.155947 )

     reciprocal axes: (cart. coord. in units 2 pi/alat)
               b(1) = (  0.151982  0.000020  0.000000 )
               b(2) = (  0.000000  0.167740  0.000000 )
               b(3) = (  0.000000  0.000000  0.039752 )

     PseudoPot. # 1 for Ti read from file:
     /storage/coda1/p-amedford6/0/shared/rich_project_chbe-medford/medford-share/data/pseudos_module/espresso/nninc/pbe/van/Ti.UPF
     MD5 check sum: 8e4df49b7f0d34bbd5052bf3f5ea0213
     Pseudo is Ultrasoft, Zval = 12.0
     Generated by new atomic code, or converted to UPF format
     Using radial grid of  851 points,  6 beta functions with:
                l(1) =   0
                l(2) =   0
                l(3) =   1
                l(4) =   1
                l(5) =   2
                l(6) =   2
     Q(r) pseudized with  8 coefficients,  rinner =    1.000   1.000   1.000
                                                       1.000   1.000

     PseudoPot. # 2 for O  read from file:
     /storage/coda1/p-amedford6/0/shared/rich_project_chbe-medford/medford-share/data/pseudos_module/espresso/nninc/pbe/van/O.UPF
     MD5 check sum: 78c19812648e8988a0fe644b0f25305e
     Pseudo is Ultrasoft, Zval =  6.0
     Generated by new atomic code, or converted to UPF format
     Using radial grid of  737 points,  4 beta functions with:
                l(1) =   0
                l(2) =   0
                l(3) =   1
                l(4) =   1
     Q(r) pseudized with  8 coefficients,  rinner =    0.800   0.800   0.800

     PseudoPot. # 3 for H  read from file:
     /storage/coda1/p-amedford6/0/shared/rich_project_chbe-medford/medford-share/data/pseudos_module/espresso/nninc/pbe/van/H.UPF
     MD5 check sum: b5ee9d7bfd3a09ee7748110bda690ff7
     Pseudo is Ultrasoft, Zval =  1.0
     Generated by new atomic code, or converted to UPF format
     Using radial grid of  615 points,  1 beta functions with:
                l(1) =   0
     Q(r) pseudized with  8 coefficients,  rinner =    0.800

     PseudoPot. # 4 for N  read from file:
     /storage/coda1/p-amedford6/0/shared/rich_project_chbe-medford/medford-share/data/pseudos_module/espresso/nninc/pbe/van/N.UPF
     MD5 check sum: 90d10febe142ad51ac9d5be1deb811c4
     Pseudo is Ultrasoft, Zval =  5.0
     Generated by new atomic code, or converted to UPF format
     Using radial grid of  729 points,  4 beta functions with:
                l(1) =   0
                l(2) =   0
                l(3) =   1
                l(4) =   1
     Q(r) pseudized with  8 coefficients,  rinner =    0.800   0.800   0.800

     PseudoPot. # 5 for C  read from file:
     /storage/coda1/p-amedford6/0/shared/rich_project_chbe-medford/medford-share/data/pseudos_module/espresso/nninc/pbe/van/C.UPF
     MD5 check sum: 1a69bf6b8db32088f5b2163dbdb77a27
     Pseudo is Ultrasoft, Zval =  4.0
     Generated by new atomic code, or converted to UPF format
     Using radial grid of  721 points,  4 beta functions with:
                l(1) =   0
                l(2) =   0
                l(3) =   1
                l(4) =   1
     Q(r) pseudized with  8 coefficients,  rinner =    0.800   0.800   0.800

     atomic species   valence    mass     pseudopotential
        Ti1           12.00    47.86700     Ti( 1.00)
        O1             6.00    15.99900     O ( 1.00)
        H1             1.00     1.00800     H ( 1.00)
        N1             5.00    14.00700     N ( 1.00)
        C1             4.00    12.01100     C ( 1.00)

     No symmetry found

   Cartesian axes

     site n.     atom                  positions (alat units)
         1           Ti1 tau(   1) = (   0.0004258   2.9801865   6.0000000  )
         2           Ti1 tau(   2) = (   3.2906075   1.4906267   6.0002472  )
         3           O1  tau(   3) = (   0.0006271   0.0005054   7.9858123  )
         4           O1  tau(   4) = (   3.2906025   0.0005020   7.3038282  )
         5           O1  tau(   5) = (   4.5942328   1.4918067   9.2879030  )
         6           O1  tau(   6) = (   1.9868534   1.4903216   9.2879459  )
         7           Ti1 tau(   7) = (   3.2907910   2.8959150   9.1758416  )
         8           Ti1 tau(   8) = (   0.0015273   1.4827037   9.2680791  )
         9           O1  tau(   9) = (   3.2831040   5.9360571  11.2641146  )
        10           O1  tau(  10) = (   0.0116148   5.9584955  10.6183126  )
        11           O1  tau(  11) = (   1.2851963   1.4867209  12.6255510  )
        12           O1  tau(  12) = (   5.2924406   1.4772461  12.6192171  )
        13           Ti1 tau(  13) = (   0.0036382   2.8404764  12.7021481  )
        14           Ti1 tau(  14) = (   3.2814461   1.2926050  12.6442039  )
        15           O1  tau(  15) = (   6.5789252   5.9354829  14.6389027  )
        16           O1  tau(  16) = (   3.2852549   0.0163589  13.8648689  )
        17           O1  tau(  17) = (   4.5445832   1.5164849  16.0197972  )
        18           O1  tau(  18) = (   2.0258823   1.4930055  16.0750729  )
        19           Ti1 tau(  19) = (   3.3156224   2.9699746  15.6194889  )
        20           Ti1 tau(  20) = (   0.0515760   1.3234122  16.0730098  )
        21           O1  tau(  21) = (   3.2904802   0.0005063   4.7018136  )
        22           O1  tau(  22) = (   6.5454194   5.9222349  17.1870725  )
        23           O1  tau(  23) = (   1.3043587   1.4918075   6.0039043  )
        24           O1  tau(  24) = (   5.2767064   1.4903225   6.0039473  )
        25           Ti1 tau(  25) = (   0.0000382   5.9609847   6.0000000  )
        26           Ti1 tau(  26) = (   3.2902200   4.4714249   6.0002472  )
        27           O1  tau(  27) = (   0.0002396   2.9813036   7.9858123  )
        28           O1  tau(  28) = (   3.2902150   2.9813002   7.3038282  )
        29           O1  tau(  29) = (   4.5938453   4.4726049   9.2879030  )
        30           O1  tau(  30) = (   1.9864658   4.4711199   9.2879459  )
        31           Ti1 tau(  31) = (   3.2891106   5.8743827   9.1763621  )
        32           Ti1 tau(  32) = (   0.0006254   4.4649316   9.2693709  )
        33           O1  tau(  33) = (   3.2861177   3.0127509  11.2320142  )
        34           O1  tau(  34) = (   0.0092240   2.9805883  10.6323155  )
        35           O1  tau(  35) = (   1.2872320   4.4646868  12.6147789  )
        36           O1  tau(  36) = (   5.2799320   4.4658550  12.6114028  )
        37           Ti1 tau(  37) = (   6.5510365   5.8261734  12.6423015  )
        38           Ti1 tau(  38) = (   3.2652589   4.3917841  12.4002916  )
        39           O1  tau(  39) = (   0.0003569   2.9920414  14.6539809  )
        40           O1  tau(  40) = (   3.2835110   2.9651371  13.8409569  )
        41           O1  tau(  41) = (   4.5245492   4.4030193  16.0142317  )
        42           O1  tau(  42) = (   2.0132503   4.4096711  16.0494848  )
        43           Ti1 tau(  43) = (   3.3389516   5.9588577  16.2858146  )
        44           Ti1 tau(  44) = (   0.0865397   4.4271626  15.8895714  )
        45           O1  tau(  45) = (   3.2900926   2.9813045   4.7018136  )
        46           O1  tau(  46) = (   1.3039711   4.4726057   6.0039043  )
        47           O1  tau(  47) = (   5.2763189   4.4711207   6.0039473  )
        48           H1  tau(  48) = (   5.5649379   3.0085428  17.7754687  )
        49           N1  tau(  49) = (   6.5266086   2.9804045  17.4451690  )
        50           C1  tau(  50) = (   0.8252436   3.0135910  18.6253707  )
        51           H1  tau(  51) = (   0.7415300   3.9712607  19.1474969  )
        52           H1  tau(  52) = (   0.5789590   2.2014881  19.3161603  )
        53           H1  tau(  53) = (   1.8636945   2.8847911  18.3311598  )
        54           O1  tau(  54) = (   3.4530348   5.9447220  18.1074838  )
        55           H1  tau(  55) = (   4.3135669   5.8364121  18.5244127  )

     number of k points=    10  Fermi-Dirac smearing, width (Ry)=  0.0073
                       cart. coord. in units 2pi/alat
        k(    1) = (   0.0000000   0.0000000   0.0000000), wk =   0.1250000
        k(    2) = (   0.0000000   0.0419351   0.0000000), wk =   0.2500000
        k(    3) = (   0.0000000  -0.0838702   0.0000000), wk =   0.1250000
        k(    4) = (   0.0379955   0.0000049   0.0000000), wk =   0.2500000
        k(    5) = (   0.0379955   0.0419400   0.0000000), wk =   0.2500000
        k(    6) = (   0.0379955  -0.0838652   0.0000000), wk =   0.2500000
        k(    7) = (   0.0379955  -0.0419301   0.0000000), wk =   0.2500000
        k(    8) = (  -0.0759910  -0.0000099   0.0000000), wk =   0.1250000
        k(    9) = (  -0.0759910   0.0419252   0.0000000), wk =   0.2500000
        k(   10) = (  -0.0759910  -0.0838800   0.0000000), wk =   0.1250000

     Initial potential from superposition of free atoms

     starting charge  381.99915, renormalised to  398.00000

     negative rho (up, down):  1.688E-02 0.000E+00

     %%%%%%%%%%%%%%%%%%%%%%%%%%%%%%%%%%%%%%%%%%%%%%%%%%%%%%%%%%%%%%%%%%%%%%%%
     %                                                                      %
     % You are using vdW-DF, which was implemented by the Thonhauser group. %
     % Please cite the following two papers that made this development      %
     % possible and the two reviews that describe the various versions:     %
     %                                                                      %
     %   T. Thonhauser et al., PRL 115, 136402 (2015).                      %
     %   T. Thonhauser et al., PRB 76, 125112 (2007).                       %
     %   K. Berland et al., Rep. Prog. Phys. 78, 066501 (2015).             %
     %   D.C. Langreth et al., J. Phys.: Condens. Matter 21, 084203 (2009). %
     %                                                                      %
     %                                                                      %
     % If you are calculating the stress with vdW-DF, please also cite:     %
     %                                                                      %
     %   R. Sabatini et al., J. Phys.: Condens. Matter 24, 424209 (2012).   %
     %                                                                      %
     %%%%%%%%%%%%%%%%%%%%%%%%%%%%%%%%%%%%%%%%%%%%%%%%%%%%%%%%%%%%%%%%%%%%%%%%

     Adding external electric field

     Computed dipole along edir(3) :
        Dipole               -8.7629 Ry au,        -22.2732 Debye
        Dipole field         -0.0165 Ry au,

        Potential amp.        1.5329 Ry
        Total length         46.3494 bohr

     Starting wfcs are  301 atomic wfcs
  @ DRIVER MODE: Message from server: STATUS
  @ DRIVER MODE: Message from server: POSDATA
  @ DRIVER MODE: Reading and sharing cell
  @ DRIVER MODE: Reading and sharing positions
  @ DRIVER MODE: Received positions

     Self-consistent Calculation

     iteration #  1     ecut=    29.40 Ry     beta= 0.05
     Davidson diagonalization with overlap
     c_bands:  1 eigenvalues not converged
     c_bands:  1 eigenvalues not converged
     c_bands:  1 eigenvalues not converged
     c_bands:  2 eigenvalues not converged
     ethr =  1.00E-05,  avg # of iterations = 18.0

[...]

     total energy              =   -2565.52569555 Ry
     estimated scf accuracy    <    4291.53179576 Ry

     iteration #  2     ecut=    29.40 Ry     beta= 0.05
     Davidson diagonalization with overlap
     ethr =  1.00E-02,  avg # of iterations = 23.0

[...]

     iteration # 44     ecut=    29.40 Ry     beta= 0.05
     Davidson diagonalization with overlap
     c_bands:  1 eigenvalues not converged
     ethr =  6.89E-07,  avg # of iterations =  8.8

[...]

     total energy              =   -2954.01276492 Ry
     estimated scf accuracy    <       0.00000030 Ry

     iteration # 74     ecut=    29.40 Ry     beta= 0.05
     Davidson diagonalization with overlap
     ethr =  7.49E-11,  avg # of iterations =  5.0

     negative rho (up, down):  1.730E-02 0.000E+00

     Adding external electric field

     Computed dipole along edir(3) :
        Dipole                0.2154 Ry au,          0.5476 Debye
        Dipole field          0.0004 Ry au,

        Potential amp.       -0.0377 Ry
        Total length         46.3494 bohr

     End of self-consistent calculation

          k = 0.0000 0.0000 0.0000 ( 18029 PWs)   bands (ev):

   -56.9299 -56.8964 -56.0288 -55.9939 -55.7937 -55.7257 -55.6410 -55.4813
   -55.4474 -55.4079 -55.3948 -55.3299 -55.3244 -55.2785 -55.1339 -55.0548
   -33.3492 -33.2017 -33.1736 -33.1085 -33.0182 -32.9762 -32.5116 -32.2694
   -32.2496 -32.2236 -32.1712 -32.1662 -32.1406 -32.0294 -32.0095 -31.9624
   -31.9472 -31.9303 -31.9156 -31.8909 -31.8891 -31.8684 -31.8604 -31.8291
   -31.8285 -31.8040 -31.7592 -31.7176 -31.6856 -31.6781 -31.6186 -31.6086
   -31.6051 -31.5891 -31.5771 -31.5479 -31.5268 -31.5218 -31.5084 -31.5016
   -31.4934 -31.4419 -31.3995 -31.3761 -31.3375 -31.3103 -31.3040 -31.2376
   -17.0364 -16.4985 -16.4857 -16.2479 -16.1454 -16.1254 -16.0878 -16.0392
   -15.8389 -15.7896 -15.7514 -15.6853 -15.5878 -15.4316 -15.3346 -15.1608
   -15.1117 -15.0806 -15.0623 -15.0567 -15.0501 -15.0372 -14.9828 -14.9270
   -14.8865 -14.8035 -14.7488 -14.6385 -14.4129 -14.3816 -13.9789 -13.8719
   -13.8084  -8.4911  -4.6101  -4.1305  -3.9734  -3.9423  -3.7805  -3.6274
    -3.5027  -3.4498  -3.4240  -3.3155  -3.2988  -3.2891  -3.1996  -3.0705
    -2.9997  -2.9884  -2.9202  -2.9032  -2.8749  -2.8603  -2.6970  -2.6645
    -2.5705  -2.5181  -2.4972  -2.4159  -2.4066  -2.3469  -2.2965  -2.2852
    -2.2624  -2.2037  -2.2000  -2.1288  -2.1018  -2.0259  -2.0009  -1.9697
    -1.9457  -1.8746  -1.7989  -1.7647  -1.6090  -1.5729  -1.5400  -1.5047
    -1.4885  -1.4077  -1.3368  -1.2547  -1.2214  -1.1539  -1.1051  -1.0652
    -1.0522  -0.9384  -0.9124  -0.8562  -0.7913  -0.7754  -0.7685  -0.7231
    -0.6086  -0.5285  -0.5188  -0.4969  -0.4357  -0.4156  -0.3782  -0.3535
    -0.2751  -0.2605  -0.1509  -0.0795  -0.0482  -0.0206   0.0777   0.1570
     0.1779   0.2201   0.2625   0.3059   0.3346   0.3785   0.4464   0.4942
     0.5178   0.5401   0.5696   0.6654   0.7162   0.7524   0.8089   0.8238
     0.8892   0.9593   0.9872   1.0750   1.1193   1.4854   1.6371   2.3633
     2.5340   2.8100   2.9835   3.2993   3.3490   3.3650   3.3664   3.6529
     3.7714

[...]

          k = 0.0380-0.0419 0.0000 ( 17876 PWs)   bands (ev):

[...]

          k =-0.0760-0.0000 0.0000 ( 17886 PWs)   bands (ev):

[...]

          k =-0.0760-0.0839 0.0000 ( 17948 PWs)   bands (ev):

   -56.9138 -56.9123 -56.0160 -56.0065 -55.7891 -55.7302 -55.6402 -55.4649
   -55.4636 -55.4038 -55.3954 -55.3336 -55.3232 -55.2773 -55.1353 -55.0559
   -33.1881 -33.1867 -33.1672 -33.1657 -33.0625 -33.0614 -32.3357 -32.3275
   -32.2110 -32.2014 -32.2004 -32.1946 -32.0926 -32.0469 -32.0226 -32.0083
   -31.9572 -31.9563 -31.9124 -31.8800 -31.8677 -31.8175 -31.8166 -31.7742
   -31.7357 -31.7035 -31.6849 -31.6832 -31.6789 -31.6754 -31.6461 -31.6450
   -31.6339 -31.6302 -31.6084 -31.5981 -31.5756 -31.5668 -31.5351 -31.5252
   -31.5166 -31.4848 -31.4375 -31.4010 -31.3735 -31.3419 -31.3123 -31.2651
   -16.4820 -16.3971 -16.3950 -16.3480 -16.3463 -16.0915 -16.0868 -15.8410
   -15.8091 -15.6876 -15.5348 -15.5055 -15.4682 -15.4185 -15.3720 -15.3021
   -15.2838 -15.2430 -15.2096 -15.1536 -15.1282 -15.0503 -15.0162 -14.9571
   -14.9209 -14.8323 -14.7853 -14.7795 -14.5575 -14.5431 -13.9765 -13.9758
   -13.8253  -8.4961  -4.1018  -3.9936  -3.4701  -3.4650  -3.4440  -3.4347
    -3.2204  -3.2148  -3.0470  -3.0039  -2.9846  -2.9434  -2.9274  -2.8399
    -2.8214  -2.7914  -2.7510  -2.7460  -2.7375  -2.7195  -2.6723  -2.6637
    -2.6233  -2.4862  -2.4715  -2.4520  -2.3931  -2.3294  -2.2982  -2.2472
    -2.2197  -2.2060  -2.1793  -2.1715  -2.1663  -2.1370  -2.1092  -1.9529
    -1.9109  -1.8096  -1.7771  -1.7521  -1.7308  -1.6762  -1.6727  -1.6427
    -1.6199  -1.5880  -1.5276  -1.4942  -1.4524  -1.3275  -1.3064  -1.2664
    -1.2494  -1.1906  -1.0934  -1.0043  -0.9914  -0.9487  -0.9295  -0.8832
    -0.8692  -0.8400  -0.7621  -0.7031  -0.5966  -0.5662  -0.5542  -0.5307
    -0.5016  -0.4591  -0.4111  -0.3435  -0.3282  -0.2090  -0.1404  -0.0935
    -0.0282   0.0378   0.0784   0.1188   0.1718   0.2661   0.2852   0.3600
     0.3747   0.4943   0.6030   0.6220   0.7744   0.8061   0.8751   0.9151
     0.9199   0.9306   0.9482   0.9596   1.0124   1.0885   1.5868   2.9549
     2.9579   3.0151   3.0210   3.3308   3.3318   3.4417   3.4435   3.7591
     3.7690

     the Fermi energy is     2.0641 ev

!    total energy              =   -2954.01277650 Ry
     estimated scf accuracy    <       0.00000006 Ry
     smearing contrib. (-TS)   =      -0.00173985 Ry
     internal energy E=F+TS    =   -2954.01103665 Ry

     The total energy is F=E-TS. E is the sum of the following terms:
     one-electron contribution =  -24214.07063923 Ry
     hartree contribution      =   12197.10515932 Ry
     xc contribution           =    -488.75670388 Ry
     ewald contribution        =    9551.71105955 Ry
     electric field correction =       0.00008758 Ry

     convergence has been achieved in  74 iterations

     Forces acting on atoms (cartesian axes, Ry/au):

     atom    1 type  1   force =     0.00018272   -0.00052420    0.12566586
     atom    2 type  1   force =     0.00000161    0.00026842   -0.15440732
     atom    3 type  2   force =     0.00002316   -0.00022385   -0.06671617
     atom    4 type  2   force =    -0.00002034    0.00008227    0.01672726
     atom    5 type  2   force =    -0.00391532   -0.00229240   -0.01291283
     atom    6 type  2   force =     0.00531227   -0.00149653   -0.01432247
     atom    7 type  1   force =    -0.00049265   -0.00698364    0.05721659
     atom    8 type  1   force =     0.00071581    0.00723024    0.09829707
     atom    9 type  2   force =     0.00002606    0.00009882   -0.00007039
     atom   10 type  2   force =    -0.00290048    0.00059266   -0.06193913
     atom   11 type  2   force =     0.00000143   -0.00006708   -0.00001296
     atom   12 type  2   force =    -0.00008326    0.00015161    0.00015886
     atom   13 type  1   force =     0.00010183    0.00016732   -0.00006525
     atom   14 type  1   force =     0.00000920   -0.00003400    0.00008085
     atom   15 type  2   force =    -0.00002030    0.00004663   -0.00006397
     atom   16 type  2   force =     0.00008327    0.00013198   -0.00000075
     atom   17 type  2   force =    -0.00003365    0.00023109   -0.00012640
     atom   18 type  2   force =     0.00009255    0.00014798    0.00015577
     atom   19 type  1   force =     0.00009219   -0.00001004    0.00017670
     atom   20 type  1   force =     0.00007977    0.00013469    0.00025947
     atom   21 type  2   force =     0.00006926    0.00021819    0.09780488
     atom   22 type  2   force =     0.00056934    0.00001468   -0.00012190
     atom   23 type  2   force =    -0.08272028    0.00009162   -0.03300425
     atom   24 type  2   force =     0.08267942    0.00050869   -0.03305208
     atom   25 type  1   force =     0.00010370   -0.00059794    0.12551948
     atom   26 type  1   force =     0.00000574   -0.00169777   -0.15481681
     atom   27 type  2   force =     0.00008880   -0.00076674   -0.06515184
     atom   28 type  2   force =     0.00005014    0.00188853    0.01157735
     atom   29 type  2   force =    -0.00251684    0.00468428   -0.01585770
     atom   30 type  2   force =     0.00368702    0.00502042   -0.01728639
     atom   31 type  1   force =    -0.00029507    0.00180063    0.04009826
     atom   32 type  1   force =     0.00091305   -0.01042251    0.09795377
     atom   33 type  2   force =    -0.00004216   -0.00003221    0.00011606
     atom   34 type  2   force =    -0.00229968    0.00078260   -0.07402649
     atom   35 type  2   force =     0.00012808    0.00002788    0.00001967
     atom   36 type  2   force =    -0.00010583   -0.00007661   -0.00003701
     atom   37 type  1   force =     0.00034448    0.00005542    0.00014770
     atom   38 type  1   force =     0.00012458   -0.00009440   -0.00028863
     atom   39 type  2   force =     0.00018652   -0.00010959   -0.00010829
     atom   40 type  2   force =     0.00000668    0.00003874   -0.00017487
     atom   41 type  2   force =    -0.00005060    0.00005374   -0.00017318
     atom   42 type  2   force =     0.00008686    0.00015703    0.00029136
     atom   43 type  1   force =     0.00079665   -0.00018461    0.00079885
     atom   44 type  1   force =     0.00014138    0.00016471    0.00028455
     atom   45 type  2   force =     0.00004571    0.00004679    0.09759880
     atom   46 type  2   force =    -0.08277927    0.00005012   -0.03301958
     atom   47 type  2   force =     0.08270619    0.00048266   -0.03303758
     atom   48 type  3   force =    -0.00018246    0.00004127    0.00008494
     atom   49 type  4   force =     0.00011151    0.00014647    0.00003686
     atom   50 type  5   force =    -0.00017550   -0.00064577    0.00020898
     atom   51 type  3   force =    -0.00010682    0.00007889    0.00021212
     atom   52 type  3   force =    -0.00018370    0.00052137    0.00004016
     atom   53 type  3   force =     0.00023217    0.00028810    0.00011430
     atom   54 type  2   force =    -0.01617933    0.00135013   -0.00740521
     atom   55 type  3   force =     0.01530439   -0.00153676    0.00655293

     Total force =     0.417885     Total SCF correction =     0.000618
  @ DRIVER MODE: Message from server: STATUS
  @ DRIVER MODE: Message from server: GETFORCE
  @ DRIVER MODE: Returning v,forces,stress,ensemble

     Writing output data file ./calc.save/
  @ DRIVER MODE: Message from server: EXIT
  @ DRIVE MODE: Exiting

     General routines

     Parallel routines

   This run was terminated on:   1:31:30  24Sep2021

   JOB DONE.