     Program PWSCF v.6.7GPU starts on 10Sep2021 at  8: 6:40

     R & G space division:  proc/nbgrp/npool/nimage =      10
     Reading input from /storage/home/hcoda1/3/ntian30/research/carbon/CxH_vib/CH3_calc/ads_slab/CH3N2H2O_e/out_0033/pw.inp
Warning: card &CELL ignored
Warning: card   CELL_DYNAMICS='IPI', ignored
Warning: card / ignored

     Current dimensions of program PWSCF are:
     Max number of different atomic species (ntypx) = 10
     Max number of k-points (npk) =  40000
     Max angular momentum in pseudopotentials (lmaxx) =  3
     Presently no symmetry can be used with electric field

     Message from routine cell_base_init:
     DEPRECATED: use true lattice parameter, not A to a.u. conversion factor

     IMPORTANT: XC functional enforced from input :
     Exchange-correlation= BEEF-VDW
                           (   1   4  43  14   2   0   0)
     Any further DFT definition will be discarded
     Please, verify this is what you really want

  @ DRIVER MODE: Connecting to
 qe_1139763_2779715.sched-torque.pace.gatech.edud7pttcoh_scratch
  using UNIX socket
  @ DRIVER MODE: Message from server: STATUS
  @ DRIVER MODE: Message from server: INIT
  @ DRIVER MODE: Receiving replica           0          -1
  @ DRIVER MODE: Receiving encoded integer          25
  @ DRIVER MODE:  SCF:  T  FORCE:  T  STRESS:  F  VC:  F  ENSEMBLE:  F
  @ DRIVER MODE:  SCF:  T  FORCE:  T  STRESS:  F  VC:  F  ENSEMBLE:  F

     Using Slab Decomposition

     bravais-lattice index     =            0
     lattice parameter (alat)  =       1.8897  a.u.
     unit-cell volume          =    6658.9804 (a.u.)^3
     number of atoms/cell      =           56
     number of atomic types    =            5
     number of electrons       =       403.00
     number of Kohn-Sham states=          211
     kinetic-energy cutoff     =      29.3995  Ry
     charge density cutoff     =     293.9946  Ry
     scf convergence threshold =      7.3E-08
     mixing beta               =       0.0500
     number of iterations used =            8  plain     mixing
     Exchange-correlation= BEEF-VDW
                           (   1   4  43  14   2   0   0)

     celldm(1)=   1.889726  celldm(2)=   0.000000  celldm(3)=   0.000000
     celldm(4)=   0.000000  celldm(5)=   0.000000  celldm(6)=   0.000000

     crystal axes: (cart. coord. in units of alat)
               a(1) = (   6.579727   0.000000   0.000000 )
               a(2) = (  -0.000775   5.961596   0.000000 )
               a(3) = (   0.000000   0.000000  25.155947 )

     reciprocal axes: (cart. coord. in units 2 pi/alat)
               b(1) = (  0.151982  0.000020  0.000000 )
               b(2) = (  0.000000  0.167740  0.000000 )
               b(3) = (  0.000000  0.000000  0.039752 )

     PseudoPot. # 1 for Ti read from file:
     /storage/coda1/p-amedford6/0/shared/rich_project_chbe-medford/medford-share/data/pseudos_module/espresso/nninc/pbe/van/Ti.UPF
     MD5 check sum: 8e4df49b7f0d34bbd5052bf3f5ea0213
     Pseudo is Ultrasoft, Zval = 12.0
     Generated by new atomic code, or converted to UPF format
     Using radial grid of  851 points,  6 beta functions with:
                l(1) =   0
                l(2) =   0
                l(3) =   1
                l(4) =   1
                l(5) =   2
                l(6) =   2
     Q(r) pseudized with  8 coefficients,  rinner =    1.000   1.000   1.000
                                                       1.000   1.000

     PseudoPot. # 2 for O  read from file:
     /storage/coda1/p-amedford6/0/shared/rich_project_chbe-medford/medford-share/data/pseudos_module/espresso/nninc/pbe/van/O.UPF
     MD5 check sum: 78c19812648e8988a0fe644b0f25305e
     Pseudo is Ultrasoft, Zval =  6.0
     Generated by new atomic code, or converted to UPF format
     Using radial grid of  737 points,  4 beta functions with:
                l(1) =   0
                l(2) =   0
                l(3) =   1
                l(4) =   1
     Q(r) pseudized with  8 coefficients,  rinner =    0.800   0.800   0.800

     PseudoPot. # 3 for N  read from file:
     /storage/coda1/p-amedford6/0/shared/rich_project_chbe-medford/medford-share/data/pseudos_module/espresso/nninc/pbe/van/N.UPF
     MD5 check sum: 90d10febe142ad51ac9d5be1deb811c4
     Pseudo is Ultrasoft, Zval =  5.0
     Generated by new atomic code, or converted to UPF format
     Using radial grid of  729 points,  4 beta functions with:
                l(1) =   0
                l(2) =   0
                l(3) =   1
                l(4) =   1
     Q(r) pseudized with  8 coefficients,  rinner =    0.800   0.800   0.800

     PseudoPot. # 4 for C  read from file:
     /storage/coda1/p-amedford6/0/shared/rich_project_chbe-medford/medford-share/data/pseudos_module/espresso/nninc/pbe/van/C.UPF
     MD5 check sum: 1a69bf6b8db32088f5b2163dbdb77a27
     Pseudo is Ultrasoft, Zval =  4.0
     Generated by new atomic code, or converted to UPF format
     Using radial grid of  721 points,  4 beta functions with:
                l(1) =   0
                l(2) =   0
                l(3) =   1
                l(4) =   1
     Q(r) pseudized with  8 coefficients,  rinner =    0.800   0.800   0.800

     PseudoPot. # 5 for H  read from file:
     /storage/coda1/p-amedford6/0/shared/rich_project_chbe-medford/medford-share/data/pseudos_module/espresso/nninc/pbe/van/H.UPF
     MD5 check sum: b5ee9d7bfd3a09ee7748110bda690ff7
     Pseudo is Ultrasoft, Zval =  1.0
     Generated by new atomic code, or converted to UPF format
     Using radial grid of  615 points,  1 beta functions with:
                l(1) =   0
     Q(r) pseudized with  8 coefficients,  rinner =    0.800

     atomic species   valence    mass     pseudopotential
        Ti1           12.00    47.86700     Ti( 1.00)
        O1             6.00    15.99900     O ( 1.00)
        N1             5.00    14.00700     N ( 1.00)
        C1             4.00    12.01100     C ( 1.00)
        H1             1.00     1.00800     H ( 1.00)

     No symmetry found

   Cartesian axes

     site n.     atom                  positions (alat units)
         1           Ti1 tau(   1) = (   0.0004258   2.9801865   6.0000000  )
         2           Ti1 tau(   2) = (   3.2906075   1.4906267   6.0002472  )
         3           O1  tau(   3) = (   0.0006271   0.0005054   7.9858123  )
         4           O1  tau(   4) = (   3.2906025   0.0005020   7.3038282  )
         5           O1  tau(   5) = (   4.5942328   1.4918067   9.2879030  )
         6           O1  tau(   6) = (   1.9868534   1.4903216   9.2879459  )
         7           Ti1 tau(   7) = (   3.2907910   2.8959150   9.1758416  )
         8           Ti1 tau(   8) = (   0.0015273   1.4827037   9.2680791  )
         9           O1  tau(   9) = (   3.2823942   0.0140684  11.3428430  )
        10           O1  tau(  10) = (   0.0116148   5.9584955  10.6183126  )
        11           O1  tau(  11) = (   1.2742013   1.4978990  12.6323156  )
        12           O1  tau(  12) = (   5.2614901   1.5083079  12.6129891  )
        13           Ti1 tau(  13) = (   0.0550148   2.9595524  12.6160221  )
        14           Ti1 tau(  14) = (   3.3718896   1.5084997  12.4944496  )
        15           O1  tau(  15) = (   6.5380961   0.0278828  14.6255036  )
        16           O1  tau(  16) = (   3.2758616   0.0189586  13.9121306  )
        17           O1  tau(  17) = (   4.4976875   1.5333668  16.0433440  )
        18           O1  tau(  18) = (   1.9922867   1.5271532  16.0291573  )
        19           Ti1 tau(  19) = (   3.1858679   3.0241111  15.7732818  )
        20           Ti1 tau(  20) = (   6.4842391   1.5502874  15.8011710  )
        21           O1  tau(  21) = (   3.2904802   0.0005063   4.7018136  )
        22           O1  tau(  22) = (   6.5196731   0.0665875  17.1891134  )
        23           O1  tau(  23) = (   1.3043587   1.4918075   6.0039043  )
        24           O1  tau(  24) = (   5.2767064   1.4903225   6.0039473  )
        25           Ti1 tau(  25) = (   0.0000382   5.9609847   6.0000000  )
        26           Ti1 tau(  26) = (   3.2902200   4.4714249   6.0002472  )
        27           O1  tau(  27) = (   0.0002396   2.9813036   7.9858123  )
        28           O1  tau(  28) = (   3.2902150   2.9813002   7.3038282  )
        29           O1  tau(  29) = (   4.5938453   4.4726049   9.2879030  )
        30           O1  tau(  30) = (   1.9864658   4.4711199   9.2879459  )
        31           Ti1 tau(  31) = (   3.2891106   5.8743827   9.1763621  )
        32           Ti1 tau(  32) = (   0.0006254   4.4649316   9.2693709  )
        33           O1  tau(  33) = (   3.2807012   2.9937711  11.3380227  )
        34           O1  tau(  34) = (   0.0092240   2.9805883  10.6323155  )
        35           O1  tau(  35) = (   1.2734598   4.4826339  12.6318047  )
        36           O1  tau(  36) = (   5.2665626   4.4910389  12.6093644  )
        37           Ti1 tau(  37) = (   0.0550181   5.9329888  12.5453996  )
        38           Ti1 tau(  38) = (   3.3741151   4.4737790  12.4977360  )
        39           O1  tau(  39) = (   6.5373474   2.9946220  14.6524478  )
        40           O1  tau(  40) = (   3.2677173   3.0168568  13.9399215  )
        41           O1  tau(  41) = (   4.4884636   4.5316779  16.1079578  )
        42           O1  tau(  42) = (   1.9830865   4.5332738  16.0531499  )
        43           Ti1 tau(  43) = (   3.2469912   0.0413792  15.7000251  )
        44           Ti1 tau(  44) = (   6.5198411   4.7064707  16.0702691  )
        45           O1  tau(  45) = (   3.2900926   2.9813045   4.7018136  )
        46           O1  tau(  46) = (   1.3039711   4.4726057   6.0039043  )
        47           O1  tau(  47) = (   5.2763189   4.4711207   6.0039473  )
        48           N1  tau(  48) = (   0.0943371   2.6987919  18.6315974  )
        49           N1  tau(  49) = (   6.5718678   2.9345059  17.4339123  )
        50           C1  tau(  50) = (   0.1779456   3.8407003  19.5793842  )
        51           H1  tau(  51) = (   6.4148796   4.7858965  19.1557567  )
        52           H1  tau(  52) = (   6.1971438   3.5603257  20.4715321  )
        53           H1  tau(  53) = (   1.2306852   3.9182498  19.8556806  )
        54           O1  tau(  54) = (   3.3096034   3.0730741  18.2289406  )
        55           H1  tau(  55) = (   4.0988663   3.6297178  18.3192648  )
        56           H1  tau(  56) = (   3.5789210   2.1977314  18.5501991  )

     number of k points=    10  Fermi-Dirac smearing, width (Ry)=  0.0073
                       cart. coord. in units 2pi/alat
        k(    1) = (   0.0000000   0.0000000   0.0000000), wk =   0.1250000
        k(    2) = (   0.0000000   0.0419351   0.0000000), wk =   0.2500000
        k(    3) = (   0.0000000  -0.0838702   0.0000000), wk =   0.1250000
        k(    4) = (   0.0379955   0.0000049   0.0000000), wk =   0.2500000
        k(    5) = (   0.0379955   0.0419400   0.0000000), wk =   0.2500000
        k(    6) = (   0.0379955  -0.0838652   0.0000000), wk =   0.2500000
        k(    7) = (   0.0379955  -0.0419301   0.0000000), wk =   0.2500000
        k(    8) = (  -0.0759910  -0.0000099   0.0000000), wk =   0.1250000
        k(    9) = (  -0.0759910   0.0419252   0.0000000), wk =   0.2500000
        k(   10) = (  -0.0759910  -0.0838800   0.0000000), wk =   0.1250000

     Initial potential from superposition of free atoms

     starting charge  386.99914, renormalised to  403.00000

     negative rho (up, down):  1.478E-02 0.000E+00

     %%%%%%%%%%%%%%%%%%%%%%%%%%%%%%%%%%%%%%%%%%%%%%%%%%%%%%%%%%%%%%%%%%%%%%%%
     %                                                                      %
     % You are using vdW-DF, which was implemented by the Thonhauser group. %
     % Please cite the following two papers that made this development      %
     % possible and the two reviews that describe the various versions:     %
     %                                                                      %
     %   T. Thonhauser et al., PRL 115, 136402 (2015).                      %
     %   T. Thonhauser et al., PRB 76, 125112 (2007).                       %
     %   K. Berland et al., Rep. Prog. Phys. 78, 066501 (2015).             %
     %   D.C. Langreth et al., J. Phys.: Condens. Matter 21, 084203 (2009). %
     %                                                                      %
     %                                                                      %
     % If you are calculating the stress with vdW-DF, please also cite:     %
     %                                                                      %
     %   R. Sabatini et al., J. Phys.: Condens. Matter 24, 424209 (2012).   %
     %                                                                      %
     %%%%%%%%%%%%%%%%%%%%%%%%%%%%%%%%%%%%%%%%%%%%%%%%%%%%%%%%%%%%%%%%%%%%%%%%

     Adding external electric field

     Computed dipole along edir(3) :
        Dipole              -13.2300 Ry au,        -33.6274 Debye
        Dipole field         -0.0250 Ry au,

        Potential amp.        2.3144 Ry
        Total length         46.3494 bohr

     Starting wfcs are  305 atomic wfcs
  @ DRIVER MODE: Message from server: STATUS
  @ DRIVER MODE: Message from server: POSDATA
  @ DRIVER MODE: Reading and sharing cell
  @ DRIVER MODE: Reading and sharing positions
  @ DRIVER MODE: Received positions

     Self-consistent Calculation

     iteration #  1     ecut=    29.40 Ry     beta= 0.05
     Davidson diagonalization with overlap
     c_bands:  5 eigenvalues not converged
     c_bands:  2 eigenvalues not converged
     c_bands:  5 eigenvalues not converged
     c_bands:  5 eigenvalues not converged
     c_bands:  1 eigenvalues not converged
     c_bands:  1 eigenvalues not converged
     c_bands:  4 eigenvalues not converged
     c_bands:  2 eigenvalues not converged
     c_bands:  3 eigenvalues not converged
     ethr =  1.00E-05,  avg # of iterations = 26.9

[...]

     total energy              =   -2368.07285309 Ry
     estimated scf accuracy    <    6912.99200344 Ry

     iteration #  2     ecut=    29.40 Ry     beta= 0.05
     Davidson diagonalization with overlap
     ethr =  1.00E-02,  avg # of iterations = 23.6

[...]

     iteration # 69     ecut=    29.40 Ry     beta= 0.05
     Davidson diagonalization with overlap
     c_bands:  1 eigenvalues not converged
     ethr =  6.11E-11,  avg # of iterations =  8.7

[...]

     total energy              =   -2973.98646029 Ry
     estimated scf accuracy    <       0.00000009 Ry

     iteration # 70     ecut=    29.40 Ry     beta= 0.05
     Davidson diagonalization with overlap
     ethr =  2.23E-11,  avg # of iterations = 12.6

     negative rho (up, down):  1.504E-02 0.000E+00

     Adding external electric field

     Computed dipole along edir(3) :
        Dipole                0.9070 Ry au,          2.3054 Debye
        Dipole field          0.0017 Ry au,

        Potential amp.       -0.1587 Ry
        Total length         46.3494 bohr

     End of self-consistent calculation

          k = 0.0000 0.0000 0.0000 ( 18029 PWs)   bands (ev):

   -55.6028 -55.5687 -55.5670 -55.5312 -55.4989 -55.4486 -55.4385 -55.4142
   -55.4020 -55.3802 -55.3787 -55.3446 -55.0089 -54.8375 -54.5826 -54.5485
   -32.1118 -32.0855 -31.9591 -31.9425 -31.9128 -31.8958 -31.8812 -31.8684
   -31.8462 -31.8062 -31.7984 -31.7677 -31.7551 -31.7457 -31.7375 -31.7272
   -31.7073 -31.6980 -31.6956 -31.6600 -31.6561 -31.6457 -31.6330 -31.6071
   -31.6027 -31.5981 -31.5928 -31.5858 -31.5780 -31.5691 -31.5541 -31.5540
   -31.5451 -31.5315 -31.5209 -31.5091 -31.4904 -31.2861 -31.1996 -31.0979
   -31.0930 -31.0564 -30.9898 -30.9012 -30.8788 -30.8064 -30.7199 -30.6090
   -19.0412 -18.3024 -16.3176 -16.0766 -15.8746 -15.7594 -15.7187 -15.5261
   -15.4281 -15.3295 -15.2327 -15.1644 -15.1411 -15.1340 -15.1302 -15.1046
   -15.0795 -15.0678 -15.0465 -15.0300 -15.0152 -14.9555 -14.9419 -14.9331
   -14.8435 -14.7886 -14.7541 -14.7352 -14.6777 -14.6589 -14.1778 -13.0850
   -12.9686 -11.2939  -6.8756  -6.7264  -4.1933  -4.0654  -3.8062  -3.6878
    -3.5561  -3.5088  -3.4477  -3.4175  -3.2205  -3.1017  -3.0300  -2.8435
    -2.7862  -2.7586  -2.7290  -2.6579  -2.5215  -2.4713  -2.4200  -2.4135
    -2.4017  -2.3702  -2.3654  -2.3445  -2.2452  -2.2415  -2.1894  -2.1501
    -2.0815  -2.0011  -1.9819  -1.9349  -1.9159  -1.9038  -1.8757  -1.8524
    -1.8417  -1.8067  -1.7940  -1.7207  -1.6186  -1.5503  -1.4981  -1.4659
    -1.3977  -1.3846  -1.2176  -1.1531  -1.1082  -1.0712  -1.0524  -1.0319
    -0.9982  -0.9907  -0.8815  -0.7573  -0.7533  -0.6734  -0.6128  -0.5349
    -0.5265  -0.4487  -0.3918  -0.3735  -0.3611  -0.3500  -0.3211  -0.2484
    -0.1027  -0.0596  -0.0350   0.0004   0.0297   0.0954   0.1389   0.2083
     0.2431   0.2843   0.3194   0.3433   0.3676   0.3753   0.3905   0.4026
     0.4219   0.6043   0.6643   0.6853   0.7506   0.7798   0.9229   0.9893
     1.0534   1.1600   1.3648   1.4395   1.5305   1.6317   2.0110   2.0568
     2.7725   3.5313   3.6163   3.6631   3.7050   3.7776   3.7952   3.9678
     3.9868   4.0296   4.1188

[...]

          k = 0.0380-0.0419 0.0000 ( 17876 PWs)   bands (ev):

[...]

          k =-0.0760-0.0000 0.0000 ( 17886 PWs)   bands (ev):

[...]

          k =-0.0760-0.0839 0.0000 ( 17948 PWs)   bands (ev):

   -55.5862 -55.5853 -55.5500 -55.5479 -55.4920 -55.4553 -55.4262 -55.4144
   -55.3979 -55.3960 -55.3644 -55.3591 -55.0073 -54.8389 -54.5656 -54.5654
   -31.9260 -31.9106 -31.9010 -31.9004 -31.8816 -31.8808 -31.8509 -31.8165
   -31.7942 -31.7903 -31.7813 -31.7614 -31.7584 -31.7395 -31.7179 -31.7132
   -31.7113 -31.7067 -31.7058 -31.7048 -31.7043 -31.7019 -31.6976 -31.6585
   -31.6471 -31.6339 -31.6238 -31.6102 -31.5975 -31.5967 -31.5948 -31.5873
   -31.5785 -31.5748 -31.5681 -31.5645 -31.4267 -31.2878 -31.2051 -31.1540
   -31.0991 -31.0824 -30.8916 -30.8914 -30.8026 -30.8025 -30.7632 -30.7632
   -19.0362 -18.3041 -15.7641 -15.6820 -15.5597 -15.5211 -15.4775 -15.4337
   -15.4137 -15.3206 -15.3009 -15.2915 -15.2402 -15.2260 -15.2031 -15.1595
   -15.1373 -15.1280 -15.1239 -15.0882 -15.0597 -15.0431 -15.0396 -15.0338
   -14.9717 -14.9227 -14.9207 -14.9158 -14.7891 -14.6603 -14.3564 -13.0704
   -13.0703 -11.2916  -6.8760  -6.7402  -4.1224  -3.8731  -3.7862  -3.2828
    -3.0489  -2.8877  -2.8176  -2.7271  -2.6977  -2.6903  -2.5469  -2.5144
    -2.4847  -2.4370  -2.4324  -2.4284  -2.4210  -2.4055  -2.3987  -2.3826
    -2.3308  -2.3183  -2.2935  -2.2806  -2.2730  -2.2556  -2.2338  -2.2235
    -2.2016  -2.1675  -2.1533  -2.1180  -2.1116  -2.0213  -1.8358  -1.8248
    -1.7788  -1.7456  -1.7315  -1.7064  -1.6694  -1.6559  -1.6478  -1.5961
    -1.4752  -1.4313  -1.3441  -1.2956  -1.2785  -1.2258  -1.1621  -1.1379
    -1.0688  -1.0235  -0.9869  -0.9649  -0.9418  -0.7972  -0.7851  -0.7313
    -0.7181  -0.6810  -0.6333  -0.5753  -0.5630  -0.5528  -0.5370  -0.5031
    -0.4347  -0.3651  -0.3534  -0.3252  -0.2742  -0.2578  -0.2144  -0.1261
    -0.1063  -0.0699   0.0280   0.1301   0.2213   0.3563   0.4421   0.4654
     0.5217   0.5987   0.6968   0.7065   0.7150   0.7512   0.7749   0.8350
     0.9288   0.9488   0.9757   1.0984   1.8030   1.8037   1.8764   1.8766
     2.8136   3.7925   3.8519   3.8976   3.9167   4.0094   4.0425   4.0643
     4.0668   4.1141   4.2042

     the Fermi energy is     3.5305 ev

!    total energy              =   -2973.98648055 Ry
     estimated scf accuracy    <       0.00000006 Ry
     smearing contrib. (-TS)   =      -0.02192028 Ry
     internal energy E=F+TS    =   -2973.96456027 Ry

     The total energy is F=E-TS. E is the sum of the following terms:
     one-electron contribution =  -23875.35490153 Ry
     hartree contribution      =   12032.13852744 Ry
     xc contribution           =    -494.08349276 Ry
     ewald contribution        =    9363.33375410 Ry
     electric field correction =       0.00155249 Ry

     convergence has been achieved in  70 iterations

     Forces acting on atoms (cartesian axes, Ry/au):

     atom    1 type  1   force =     0.00006509   -0.00016862    0.09644125
     atom    2 type  1   force =    -0.00015748   -0.00063604   -0.17545458
     atom    3 type  2   force =    -0.00003664    0.00001951   -0.02464880
     atom    4 type  2   force =     0.00005893   -0.00136595    0.05309873
     atom    5 type  2   force =    -0.01209254    0.00003679    0.00386358
     atom    6 type  2   force =     0.01331025    0.00071399    0.00206744
     atom    7 type  1   force =    -0.00148156    0.00064847   -0.01047495
     atom    8 type  1   force =     0.00072352    0.00972990    0.02661760
     atom    9 type  2   force =    -0.00040596    0.00008415   -0.00033362
     atom   10 type  2   force =    -0.00181148    0.00306520   -0.01772100
     atom   11 type  2   force =    -0.00015182   -0.00023437    0.00012121
     atom   12 type  2   force =    -0.00016883   -0.00028920   -0.00030013
     atom   13 type  1   force =    -0.00021954   -0.00020813   -0.00010746
     atom   14 type  1   force =    -0.00036313   -0.00017644   -0.00035950
     atom   15 type  2   force =     0.00003599   -0.00090983    0.00025057
     atom   16 type  2   force =     0.00005910    0.00015237   -0.00001536
     atom   17 type  2   force =    -0.00002786   -0.00057051    0.00022654
     atom   18 type  2   force =     0.00024746   -0.00041682    0.00038611
     atom   19 type  1   force =     0.00040234   -0.00022012   -0.00012737
     atom   20 type  1   force =     0.00031411   -0.00068054    0.00012792
     atom   21 type  2   force =     0.00008336   -0.00004598    0.10322287
     atom   22 type  2   force =     0.00052327   -0.00049843   -0.00029676
     atom   23 type  2   force =    -0.07147722   -0.00008364   -0.02773525
     atom   24 type  2   force =     0.07141480    0.00030177   -0.02773761
     atom   25 type  1   force =     0.00007517   -0.00029247    0.09591583
     atom   26 type  1   force =    -0.00025183   -0.00023421   -0.17573043
     atom   27 type  2   force =     0.00006969   -0.00008872   -0.02366985
     atom   28 type  2   force =     0.00006222   -0.00118829    0.05338194
     atom   29 type  2   force =    -0.01232954    0.00061846    0.00390229
     atom   30 type  2   force =     0.01348499    0.00110014    0.00207114
     atom   31 type  1   force =    -0.00129758    0.00372293   -0.00845781
     atom   32 type  1   force =     0.00085061   -0.01167721    0.02703986
     atom   33 type  2   force =    -0.00002178    0.00013875   -0.00011433
     atom   34 type  2   force =    -0.00128306    0.00169237   -0.02363004
     atom   35 type  2   force =    -0.00023514   -0.00003732    0.00004154
     atom   36 type  2   force =     0.00005032   -0.00002825    0.00018089
     atom   37 type  1   force =    -0.00000363   -0.00018670    0.00014534
     atom   38 type  1   force =    -0.00056558   -0.00029453    0.00053148
     atom   39 type  2   force =     0.00022336   -0.00060430    0.00052330
     atom   40 type  2   force =    -0.00002148   -0.00008970    0.00019293
     atom   41 type  2   force =     0.00021356   -0.00051121   -0.00032078
     atom   42 type  2   force =     0.00013557   -0.00036359   -0.00044011
     atom   43 type  1   force =     0.00073292   -0.00040093    0.00016386
     atom   44 type  1   force =    -0.00003830   -0.00019807   -0.00085466
     atom   45 type  2   force =     0.00008933   -0.00005760    0.10321186
     atom   46 type  2   force =    -0.07146642   -0.00007816   -0.02774089
     atom   47 type  2   force =     0.07141414    0.00035744   -0.02775552
     atom   48 type  3   force =    -0.00117626   -0.00084371    0.00073716
     atom   49 type  3   force =     0.00016840    0.00059768   -0.00043493
     atom   50 type  4   force =    -0.00112157   -0.00029674   -0.00053457
     atom   51 type  5   force =     0.00235663   -0.00055176    0.00048928
     atom   52 type  5   force =    -0.00006649    0.00003597   -0.00042589
     atom   53 type  5   force =     0.00073761    0.00164349    0.00071380
     atom   54 type  2   force =    -0.00059812   -0.00113867    0.00002144
     atom   55 type  5   force =     0.00041587    0.00030294    0.00025919
     atom   56 type  5   force =     0.00055222    0.00070442   -0.00052477

     Total force =     0.367825     Total SCF correction =     0.000733
  @ DRIVER MODE: Message from server: STATUS
  @ DRIVER MODE: Message from server: GETFORCE
  @ DRIVER MODE: Returning v,forces,stress,ensemble

     Writing output data file ./calc.save/
  @ DRIVER MODE: Message from server: EXIT
  @ DRIVE MODE: Exiting

     General routines

     Parallel routines

   This run was terminated on:   8:28: 1  10Sep2021

   JOB DONE.