     Program PWSCF v.6.7GPU starts on 28Sep2021 at 18: 8:50

     R & G space division:  proc/nbgrp/npool/nimage =       8
     Reading input from /storage/home/hcoda1/3/ntian30/research/carbon/CxH_vib/H2O_calc/ads_slab/CHNHNH2HO_b/out_0018/pw.inp
Warning: card &CELL ignored
Warning: card   CELL_DYNAMICS='IPI', ignored
Warning: card / ignored

     Current dimensions of program PWSCF are:
     Max number of different atomic species (ntypx) = 10
     Max number of k-points (npk) =  40000
     Max angular momentum in pseudopotentials (lmaxx) =  3
     Presently no symmetry can be used with electric field

     Message from routine cell_base_init:
     DEPRECATED: use true lattice parameter, not A to a.u. conversion factor

     IMPORTANT: XC functional enforced from input :
     Exchange-correlation= BEEF-VDW
                           (   1   4  43  14   2   0   0)
     Any further DFT definition will be discarded
     Please, verify this is what you really want

  @ DRIVER MODE: Connecting to
 qe_1139763_3009830.sched-torque.pace.gatech.edu60ezqrjb_scratch
  using UNIX socket
  @ DRIVER MODE: Message from server: STATUS
  @ DRIVER MODE: Message from server: INIT
  @ DRIVER MODE: Receiving replica           0          -1
  @ DRIVER MODE: Receiving encoded integer          25
  @ DRIVER MODE:  SCF:  T  FORCE:  T  STRESS:  F  VC:  F  ENSEMBLE:  F
  @ DRIVER MODE:  SCF:  T  FORCE:  T  STRESS:  F  VC:  F  ENSEMBLE:  F

     Using Slab Decomposition

     bravais-lattice index     =            0
     lattice parameter (alat)  =       1.8897  a.u.
     unit-cell volume          =    6658.9804 (a.u.)^3
     number of atoms/cell      =           56
     number of atomic types    =            5
     number of electrons       =       403.00
     number of Kohn-Sham states=          211
     kinetic-energy cutoff     =      29.3995  Ry
     charge density cutoff     =     293.9946  Ry
     scf convergence threshold =      7.3E-08
     mixing beta               =       0.0500
     number of iterations used =            8  plain     mixing
     Exchange-correlation= BEEF-VDW
                           (   1   4  43  14   2   0   0)

     celldm(1)=   1.889726  celldm(2)=   0.000000  celldm(3)=   0.000000
     celldm(4)=   0.000000  celldm(5)=   0.000000  celldm(6)=   0.000000

     crystal axes: (cart. coord. in units of alat)
               a(1) = (   6.579727   0.000000   0.000000 )
               a(2) = (  -0.000775   5.961596   0.000000 )
               a(3) = (   0.000000   0.000000  25.155947 )

     reciprocal axes: (cart. coord. in units 2 pi/alat)
               b(1) = (  0.151982  0.000020  0.000000 )
               b(2) = (  0.000000  0.167740  0.000000 )
               b(3) = (  0.000000  0.000000  0.039752 )

     PseudoPot. # 1 for Ti read from file:
     /storage/coda1/p-amedford6/0/shared/rich_project_chbe-medford/medford-share/data/pseudos_module/espresso/nninc/pbe/van/Ti.UPF
     MD5 check sum: 8e4df49b7f0d34bbd5052bf3f5ea0213
     Pseudo is Ultrasoft, Zval = 12.0
     Generated by new atomic code, or converted to UPF format
     Using radial grid of  851 points,  6 beta functions with:
                l(1) =   0
                l(2) =   0
                l(3) =   1
                l(4) =   1
                l(5) =   2
                l(6) =   2
     Q(r) pseudized with  8 coefficients,  rinner =    1.000   1.000   1.000
                                                       1.000   1.000

     PseudoPot. # 2 for O  read from file:
     /storage/coda1/p-amedford6/0/shared/rich_project_chbe-medford/medford-share/data/pseudos_module/espresso/nninc/pbe/van/O.UPF
     MD5 check sum: 78c19812648e8988a0fe644b0f25305e
     Pseudo is Ultrasoft, Zval =  6.0
     Generated by new atomic code, or converted to UPF format
     Using radial grid of  737 points,  4 beta functions with:
                l(1) =   0
                l(2) =   0
                l(3) =   1
                l(4) =   1
     Q(r) pseudized with  8 coefficients,  rinner =    0.800   0.800   0.800

     PseudoPot. # 3 for N  read from file:
     /storage/coda1/p-amedford6/0/shared/rich_project_chbe-medford/medford-share/data/pseudos_module/espresso/nninc/pbe/van/N.UPF
     MD5 check sum: 90d10febe142ad51ac9d5be1deb811c4
     Pseudo is Ultrasoft, Zval =  5.0
     Generated by new atomic code, or converted to UPF format
     Using radial grid of  729 points,  4 beta functions with:
                l(1) =   0
                l(2) =   0
                l(3) =   1
                l(4) =   1
     Q(r) pseudized with  8 coefficients,  rinner =    0.800   0.800   0.800

     PseudoPot. # 4 for C  read from file:
     /storage/coda1/p-amedford6/0/shared/rich_project_chbe-medford/medford-share/data/pseudos_module/espresso/nninc/pbe/van/C.UPF
     MD5 check sum: 1a69bf6b8db32088f5b2163dbdb77a27
     Pseudo is Ultrasoft, Zval =  4.0
     Generated by new atomic code, or converted to UPF format
     Using radial grid of  721 points,  4 beta functions with:
                l(1) =   0
                l(2) =   0
                l(3) =   1
                l(4) =   1
     Q(r) pseudized with  8 coefficients,  rinner =    0.800   0.800   0.800

     PseudoPot. # 5 for H  read from file:
     /storage/coda1/p-amedford6/0/shared/rich_project_chbe-medford/medford-share/data/pseudos_module/espresso/nninc/pbe/van/H.UPF
     MD5 check sum: b5ee9d7bfd3a09ee7748110bda690ff7
     Pseudo is Ultrasoft, Zval =  1.0
     Generated by new atomic code, or converted to UPF format
     Using radial grid of  615 points,  1 beta functions with:
                l(1) =   0
     Q(r) pseudized with  8 coefficients,  rinner =    0.800

     atomic species   valence    mass     pseudopotential
        Ti1           12.00    47.86700     Ti( 1.00)
        O1             6.00    15.99900     O ( 1.00)
        N1             5.00    14.00700     N ( 1.00)
        C1             4.00    12.01100     C ( 1.00)
        H1             1.00     1.00800     H ( 1.00)

     No symmetry found

   Cartesian axes

     site n.     atom                  positions (alat units)
         1           Ti1 tau(   1) = (   0.0004258   2.9801865   6.0000000  )
         2           Ti1 tau(   2) = (   3.2906075   1.4906267   6.0002472  )
         3           O1  tau(   3) = (   0.0006271   0.0005054   7.9858123  )
         4           O1  tau(   4) = (   3.2906025   0.0005020   7.3038282  )
         5           O1  tau(   5) = (   4.5942328   1.4918067   9.2879030  )
         6           O1  tau(   6) = (   1.9868534   1.4903216   9.2879459  )
         7           Ti1 tau(   7) = (   3.2907910   2.8959150   9.1758416  )
         8           Ti1 tau(   8) = (   0.0015273   1.4827037   9.2680791  )
         9           O1  tau(   9) = (   3.2982983   0.0405180  11.3424948  )
        10           O1  tau(  10) = (   0.0116148   5.9584955  10.6183126  )
        11           O1  tau(  11) = (   1.2753745   1.5072422  12.7016807  )
        12           O1  tau(  12) = (   5.3195175   1.5181342  12.6954276  )
        13           Ti1 tau(  13) = (   0.0019584   2.9687762  12.4995492  )
        14           Ti1 tau(  14) = (   3.3051642   1.5697923  12.4614731  )
        15           O1  tau(  15) = (   6.5474216   5.8614089  14.6874354  )
        16           O1  tau(  16) = (   3.3077571   5.9224049  13.9445013  )
        17           O1  tau(  17) = (   4.5645563   1.5748115  16.1270233  )
        18           O1  tau(  18) = (   2.0342606   1.5395256  16.0843959  )
        19           Ti1 tau(  19) = (   3.2752269   2.9899004  15.7194909  )
        20           Ti1 tau(  20) = (   6.5310352   1.3332667  15.7916221  )
        21           O1  tau(  21) = (   3.2904802   0.0005063   4.7018136  )
        22           O1  tau(  22) = (   0.0193913   0.2006272  17.2172921  )
        23           O1  tau(  23) = (   1.3043587   1.4918075   6.0039043  )
        24           O1  tau(  24) = (   5.2767064   1.4903225   6.0039473  )
        25           Ti1 tau(  25) = (   0.0000382   5.9609847   6.0000000  )
        26           Ti1 tau(  26) = (   3.2902200   4.4714249   6.0002472  )
        27           O1  tau(  27) = (   0.0002396   2.9813036   7.9858123  )
        28           O1  tau(  28) = (   3.2902150   2.9813002   7.3038282  )
        29           O1  tau(  29) = (   4.5938453   4.4726049   9.2879030  )
        30           O1  tau(  30) = (   1.9864658   4.4711199   9.2879459  )
        31           Ti1 tau(  31) = (   3.2891106   5.8743827   9.1763621  )
        32           Ti1 tau(  32) = (   0.0006254   4.4649316   9.2693709  )
        33           O1  tau(  33) = (   3.2939295   2.9453814  11.3217152  )
        34           O1  tau(  34) = (   0.0092240   2.9805883  10.6323155  )
        35           O1  tau(  35) = (   1.2781447   4.4822909  12.6561401  )
        36           O1  tau(  36) = (   5.3212068   4.4743896  12.6463055  )
        37           Ti1 tau(  37) = (   0.0302233   5.9315785  12.5023592  )
        38           Ti1 tau(  38) = (   3.3112215   4.6713144  12.7097751  )
        39           O1  tau(  39) = (   0.0192075   3.0624537  14.9697097  )
        40           O1  tau(  40) = (   3.2993887   3.0147307  13.9488589  )
        41           O1  tau(  41) = (   4.5718800   4.4489939  16.2708329  )
        42           O1  tau(  42) = (   2.0246426   4.4466800  16.2581844  )
        43           Ti1 tau(  43) = (   3.2612680   0.0306108  16.4716933  )
        44           Ti1 tau(  44) = (   6.5506247   4.5497786  16.0606151  )
        45           O1  tau(  45) = (   3.2900926   2.9813045   4.7018136  )
        46           O1  tau(  46) = (   1.3039711   4.4726057   6.0039043  )
        47           O1  tau(  47) = (   5.2763189   4.4711207   6.0039473  )
        48           N1  tau(  48) = (   0.9981237   2.4704741  18.7333368  )
        49           N1  tau(  49) = (   6.5532285   3.4232418  18.2716252  )
        50           C1  tau(  50) = (   2.1690532   2.7243113  19.1979583  )
        51           H1  tau(  51) = (   2.3212509   3.8010200  19.3435938  )
        52           H1  tau(  52) = (   0.7222050   1.5235952  18.4365492  )
        53           H1  tau(  53) = (   0.1086806   4.2950834  18.7847415  )
        54           H1  tau(  54) = (   5.6367167   3.0457734  18.5222562  )
        55           O1  tau(  55) = (   3.2473456   0.1866190  18.2687603  )
        56           H1  tau(  56) = (   3.0571027   1.0491837  18.7494863  )

     number of k points=    10  Fermi-Dirac smearing, width (Ry)=  0.0073
                       cart. coord. in units 2pi/alat
        k(    1) = (   0.0000000   0.0000000   0.0000000), wk =   0.1250000
        k(    2) = (   0.0000000   0.0419351   0.0000000), wk =   0.2500000
        k(    3) = (   0.0000000  -0.0838702   0.0000000), wk =   0.1250000
        k(    4) = (   0.0379955   0.0000049   0.0000000), wk =   0.2500000
        k(    5) = (   0.0379955   0.0419400   0.0000000), wk =   0.2500000
        k(    6) = (   0.0379955  -0.0838652   0.0000000), wk =   0.2500000
        k(    7) = (   0.0379955  -0.0419301   0.0000000), wk =   0.2500000
        k(    8) = (  -0.0759910  -0.0000099   0.0000000), wk =   0.1250000
        k(    9) = (  -0.0759910   0.0419252   0.0000000), wk =   0.2500000
        k(   10) = (  -0.0759910  -0.0838800   0.0000000), wk =   0.1250000

     Initial potential from superposition of free atoms

     starting charge  386.99914, renormalised to  403.00000

     negative rho (up, down):  1.627E-02 0.000E+00

     %%%%%%%%%%%%%%%%%%%%%%%%%%%%%%%%%%%%%%%%%%%%%%%%%%%%%%%%%%%%%%%%%%%%%%%%
     %                                                                      %
     % You are using vdW-DF, which was implemented by the Thonhauser group. %
     % Please cite the following two papers that made this development      %
     % possible and the two reviews that describe the various versions:     %
     %                                                                      %
     %   T. Thonhauser et al., PRL 115, 136402 (2015).                      %
     %   T. Thonhauser et al., PRB 76, 125112 (2007).                       %
     %   K. Berland et al., Rep. Prog. Phys. 78, 066501 (2015).             %
     %   D.C. Langreth et al., J. Phys.: Condens. Matter 21, 084203 (2009). %
     %                                                                      %
     %                                                                      %
     % If you are calculating the stress with vdW-DF, please also cite:     %
     %                                                                      %
     %   R. Sabatini et al., J. Phys.: Condens. Matter 24, 424209 (2012).   %
     %                                                                      %
     %%%%%%%%%%%%%%%%%%%%%%%%%%%%%%%%%%%%%%%%%%%%%%%%%%%%%%%%%%%%%%%%%%%%%%%%

     Adding external electric field

     Computed dipole along edir(3) :
        Dipole              -13.0999 Ry au,        -33.2967 Debye
        Dipole field         -0.0247 Ry au,

        Potential amp.        2.2916 Ry
        Total length         46.3494 bohr

     Starting wfcs are  305 atomic wfcs
  @ DRIVER MODE: Message from server: STATUS
  @ DRIVER MODE: Message from server: POSDATA
  @ DRIVER MODE: Reading and sharing cell
  @ DRIVER MODE: Reading and sharing positions
  @ DRIVER MODE: Received positions

     Self-consistent Calculation

     iteration #  1     ecut=    29.40 Ry     beta= 0.05
     Davidson diagonalization with overlap
     c_bands:  5 eigenvalues not converged
     c_bands:  2 eigenvalues not converged
     c_bands:  1 eigenvalues not converged
     c_bands:  1 eigenvalues not converged
     c_bands:  4 eigenvalues not converged
     c_bands:  1 eigenvalues not converged
     ethr =  1.00E-05,  avg # of iterations = 28.5

[...]

     total energy              =   -2288.66538356 Ry
     estimated scf accuracy    <    7756.22382302 Ry

     iteration #  2     ecut=    29.40 Ry     beta= 0.05
     Davidson diagonalization with overlap
     ethr =  1.00E-02,  avg # of iterations = 25.4

[...]

     iteration # 52     ecut=    29.40 Ry     beta= 0.05
     Davidson diagonalization with overlap
     c_bands:  1 eigenvalues not converged
     c_bands:  1 eigenvalues not converged
     ethr =  2.57E-07,  avg # of iterations = 13.6

[...]

     total energy              =   -2973.89800161 Ry
     estimated scf accuracy    <       0.00000014 Ry

     iteration # 71     ecut=    29.40 Ry     beta= 0.05
     Davidson diagonalization with overlap
     ethr =  3.43E-11,  avg # of iterations =  5.1

     negative rho (up, down):  1.610E-02 0.000E+00

     Adding external electric field

     Computed dipole along edir(3) :
        Dipole                0.8484 Ry au,          2.1564 Debye
        Dipole field          0.0016 Ry au,

        Potential amp.       -0.1484 Ry
        Total length         46.3494 bohr

     End of self-consistent calculation

          k = 0.0000 0.0000 0.0000 ( 18029 PWs)   bands (ev):

   -55.6441 -55.6408 -55.6067 -55.5711 -55.4912 -55.4686 -55.4490 -55.4453
   -55.4346 -55.3917 -55.3495 -55.2921 -55.2140 -55.0686 -54.6039 -54.5698
   -32.1251 -32.0987 -31.9791 -31.9734 -31.9724 -31.9313 -31.9071 -31.8866
   -31.8796 -31.8651 -31.8458 -31.8344 -31.7936 -31.7638 -31.7500 -31.7471
   -31.7423 -31.7291 -31.7084 -31.7042 -31.6987 -31.6724 -31.6667 -31.6540
   -31.6433 -31.6419 -31.6198 -31.6106 -31.5958 -31.5914 -31.5863 -31.5750
   -31.5634 -31.5465 -31.5032 -31.4959 -31.4928 -31.4777 -31.4139 -31.3281
   -31.2942 -31.2862 -31.0090 -30.9245 -30.9020 -30.8269 -30.7406 -30.6286
   -18.6868 -16.3088 -16.2554 -16.1135 -15.8905 -15.8035 -15.7721 -15.6111
   -15.4847 -15.4431 -15.3193 -15.1730 -15.1427 -15.1349 -15.1288 -15.1203
   -15.1028 -15.0750 -15.0614 -15.0570 -15.0434 -14.9790 -14.9606 -14.9315
   -14.8509 -14.7996 -14.7716 -14.7013 -14.6585 -14.5548 -14.4986 -14.2739
   -13.1015 -12.9854  -9.5830  -6.9078  -5.8616  -4.3077  -4.0931  -3.8259
    -3.6265  -3.5394  -3.5160  -3.4074  -3.3149  -3.0874  -3.0642  -2.9935
    -2.8431  -2.7501  -2.6653  -2.6382  -2.5968  -2.5434  -2.5294  -2.4866
    -2.4207  -2.3893  -2.3478  -2.3356  -2.2862  -2.2785  -2.2321  -2.1547
    -2.1479  -2.0423  -1.9743  -1.9699  -1.9551  -1.9466  -1.8967  -1.8814
    -1.8736  -1.8033  -1.7481  -1.7136  -1.6480  -1.6216  -1.5507  -1.3059
    -1.2271  -1.2142  -1.1524  -1.0714  -1.0408  -1.0266  -1.0160  -0.9899
    -0.9634  -0.8743  -0.8480  -0.7077  -0.7017  -0.6626  -0.6357  -0.6068
    -0.4966  -0.4334  -0.4096  -0.3642  -0.3432  -0.3018  -0.2408  -0.2218
    -0.1423  -0.0983  -0.0192  -0.0169   0.0087   0.0795   0.1392   0.1732
     0.1897   0.2897   0.3046   0.3332   0.3400   0.3626   0.3889   0.4821
     0.4999   0.5418   0.5644   0.7058   0.7166   0.7685   0.9120   0.9426
     1.0448   1.1427   1.3644   1.3834   1.4235   1.4505   1.6196   1.9883
     2.0332   3.4387   3.5980   3.6111   3.7077   3.7205   3.7974   3.9333
     4.0276   4.0992   4.1329

[...]

          k = 0.0380-0.0419 0.0000 ( 17876 PWs)   bands (ev):

[...]

          k =-0.0760-0.0000 0.0000 ( 17886 PWs)   bands (ev):

[...]

          k =-0.0760-0.0839 0.0000 ( 17948 PWs)   bands (ev):

   -55.6432 -55.6238 -55.6236 -55.5699 -55.4829 -55.4544 -55.4523 -55.4497
   -55.4497 -55.3833 -55.3579 -55.2932 -55.2120 -55.0704 -54.5869 -54.5867
   -32.0237 -31.9404 -31.9403 -31.9333 -31.9168 -31.9168 -31.9077 -31.8456
   -31.8205 -31.8119 -31.8016 -31.7857 -31.7803 -31.7644 -31.7624 -31.7439
   -31.7438 -31.7336 -31.7327 -31.7215 -31.7204 -31.7068 -31.6957 -31.6892
   -31.6529 -31.6495 -31.6485 -31.6421 -31.6274 -31.6248 -31.6172 -31.6042
   -31.5882 -31.5820 -31.5715 -31.5682 -31.4975 -31.4691 -31.4174 -31.4093
   -31.3328 -31.2896 -30.9147 -30.9147 -30.8222 -30.8218 -30.7839 -30.7836
   -18.6806 -16.2612 -15.9425 -15.6371 -15.6363 -15.6161 -15.4576 -15.4236
   -15.3916 -15.3620 -15.3118 -15.3061 -15.2808 -15.2455 -15.2320 -15.1791
   -15.1549 -15.1380 -15.1195 -15.1005 -15.0810 -15.0520 -15.0417 -15.0400
   -14.9604 -14.9516 -14.9367 -14.9289 -14.8517 -14.6399 -14.4706 -14.4317
   -13.0873 -13.0872  -9.5699  -6.9016  -5.8252  -4.4894  -3.9490  -3.7522
    -3.0695  -2.8713  -2.8420  -2.7144  -2.6817  -2.6582  -2.5936  -2.5528
    -2.5515  -2.4747  -2.4618  -2.4167  -2.4126  -2.3677  -2.3652  -2.3377
    -2.3288  -2.3151  -2.3055  -2.2986  -2.2500  -2.2241  -2.2209  -2.2083
    -2.1849  -2.1708  -2.1470  -2.1300  -2.0708  -1.9956  -1.8832  -1.8607
    -1.8013  -1.7663  -1.7519  -1.7329  -1.7109  -1.6831  -1.6648  -1.5665
    -1.4847  -1.4230  -1.3207  -1.2350  -1.2146  -1.1615  -1.1538  -1.1110
    -1.0883  -1.0682  -1.0317  -0.9633  -0.8531  -0.8423  -0.7735  -0.6877
    -0.6437  -0.5801  -0.5781  -0.5719  -0.5561  -0.5321  -0.5127  -0.4618
    -0.4572  -0.3667  -0.3425  -0.3356  -0.3176  -0.2868  -0.1535  -0.1147
    -0.0654   0.1345   0.1413   0.1695   0.2770   0.3672   0.4327   0.4431
     0.5004   0.5485   0.5826   0.6224   0.6781   0.7019   0.7679   0.8773
     0.8837   0.9025   0.9443   1.0057   1.2405   1.7886   1.7954   1.8536
     1.8537   3.6530   3.8474   3.9625   3.9679   3.9833   4.0246   4.0338
     4.0474   4.1081   4.1222

     the Fermi energy is     3.4793 ev

!    total energy              =   -2973.89802352 Ry
     estimated scf accuracy    <       0.00000007 Ry
     smearing contrib. (-TS)   =      -0.01933591 Ry
     internal energy E=F+TS    =   -2973.87868761 Ry

     The total energy is F=E-TS. E is the sum of the following terms:
     one-electron contribution =  -23219.69718256 Ry
     hartree contribution      =   11704.24075360 Ry
     xc contribution           =    -493.95175020 Ry
     ewald contribution        =    9035.52813326 Ry
     electric field correction =       0.00135829 Ry

     convergence has been achieved in  71 iterations

     Forces acting on atoms (cartesian axes, Ry/au):

     atom    1 type  1   force =     0.00006838   -0.00020277    0.09416677
     atom    2 type  1   force =    -0.00016106    0.00003491   -0.17482831
     atom    3 type  2   force =     0.00002888   -0.00049781   -0.02069686
     atom    4 type  2   force =     0.00004310   -0.00070743    0.05226985
     atom    5 type  2   force =    -0.00297926   -0.00196370    0.00013528
     atom    6 type  2   force =     0.00461380   -0.00149908   -0.00032214
     atom    7 type  1   force =    -0.00018998    0.00281632    0.01404198
     atom    8 type  1   force =    -0.00011797   -0.00123008   -0.00060363
     atom    9 type  2   force =     0.00005250   -0.00010402   -0.00008071
     atom   10 type  2   force =    -0.00139825    0.00347212   -0.00729159
     atom   11 type  2   force =    -0.00018599    0.00025253    0.00020850
     atom   12 type  2   force =     0.00037371    0.00039355    0.00061628
     atom   13 type  1   force =    -0.00042819    0.00057296   -0.00030084
     atom   14 type  1   force =     0.00000432   -0.00008074    0.00069680
     atom   15 type  2   force =     0.00037971    0.00090980    0.00062311
     atom   16 type  2   force =    -0.00009202   -0.00077817    0.00093899
     atom   17 type  2   force =     0.00054776   -0.00024802   -0.00009127
     atom   18 type  2   force =     0.00026609   -0.00009008   -0.00021216
     atom   19 type  1   force =    -0.00005487    0.00007012   -0.00059496
     atom   20 type  1   force =    -0.00024421   -0.00029212   -0.00046564
     atom   21 type  2   force =     0.00006687   -0.00000206    0.10297130
     atom   22 type  2   force =     0.00036944    0.00038837   -0.00007054
     atom   23 type  2   force =    -0.07235139   -0.00017789   -0.02724438
     atom   24 type  2   force =     0.07229540    0.00026942   -0.02729300
     atom   25 type  1   force =     0.00007386   -0.00031042    0.09360494
     atom   26 type  1   force =    -0.00006449   -0.00116604   -0.17493045
     atom   27 type  2   force =     0.00017374   -0.00002433   -0.01957149
     atom   28 type  2   force =     0.00003212   -0.00104233    0.04854998
     atom   29 type  2   force =    -0.00592807    0.00106104    0.00313289
     atom   30 type  2   force =     0.00740934    0.00157591    0.00263520
     atom   31 type  1   force =     0.00004620    0.00142193    0.00263529
     atom   32 type  1   force =     0.00006733    0.00067345   -0.00038603
     atom   33 type  2   force =    -0.00016988   -0.00012504   -0.00048782
     atom   34 type  2   force =    -0.00061471   -0.00196930   -0.01091233
     atom   35 type  2   force =     0.00023369   -0.00040340   -0.00014165
     atom   36 type  2   force =    -0.00003620   -0.00025996   -0.00020555
     atom   37 type  1   force =    -0.00026106   -0.00038715   -0.00051812
     atom   38 type  1   force =     0.00025404    0.00023835    0.00034029
     atom   39 type  2   force =    -0.00036892   -0.00119519   -0.00031640
     atom   40 type  2   force =    -0.00012835    0.00035652    0.00082996
     atom   41 type  2   force =    -0.00085306    0.00011517    0.00032908
     atom   42 type  2   force =     0.00036558   -0.00047623   -0.00005971
     atom   43 type  1   force =    -0.00035931    0.00059379   -0.00006929
     atom   44 type  1   force =     0.00015012   -0.00119821    0.00006537
     atom   45 type  2   force =     0.00006521    0.00005698    0.10282772
     atom   46 type  2   force =    -0.07230690   -0.00006435   -0.02719536
     atom   47 type  2   force =     0.07221583    0.00038420   -0.02722911
     atom   48 type  3   force =     0.00442159    0.00181491    0.00410098
     atom   49 type  3   force =     0.00071166    0.00014830    0.00005568
     atom   50 type  4   force =    -0.00626913   -0.00273904   -0.00528054
     atom   51 type  5   force =    -0.00037328    0.00048924    0.00187383
     atom   52 type  5   force =     0.00017734    0.00147501    0.00098118
     atom   53 type  5   force =     0.00007807   -0.00040772   -0.00072356
     atom   54 type  5   force =     0.00045316    0.00062133    0.00038891
     atom   55 type  2   force =     0.00024117    0.00079784   -0.00024120
     atom   56 type  5   force =    -0.00034348   -0.00136141   -0.00065549

     Total force =     0.361168     Total SCF correction =     0.000428
  @ DRIVER MODE: Message from server: STATUS
  @ DRIVER MODE: Message from server: GETFORCE
  @ DRIVER MODE: Returning v,forces,stress,ensemble

     Writing output data file ./calc.save/
  @ DRIVER MODE: Message from server: EXIT
  @ DRIVE MODE: Exiting

     General routines

     Parallel routines

   This run was terminated on:  18:33:31  28Sep2021

   JOB DONE.