     Program PWSCF v.6.7GPU starts on 12Oct2021 at 11:48:59

     R & G space division:  proc/nbgrp/npool/nimage =       8
     Reading input from /storage/home/hcoda1/3/ntian30/research/carbon/ACS_vib/ads_slab/H2NNH2/out_0006/pw.inp
Warning: card &CELL ignored
Warning: card   CELL_DYNAMICS='IPI', ignored
Warning: card / ignored

     Current dimensions of program PWSCF are:
     Max number of different atomic species (ntypx) = 10
     Max number of k-points (npk) =  40000
     Max angular momentum in pseudopotentials (lmaxx) =  3
     Presently no symmetry can be used with electric field

     Message from routine cell_base_init:
     DEPRECATED: use true lattice parameter, not A to a.u. conversion factor

     IMPORTANT: XC functional enforced from input :
     Exchange-correlation= BEEF-VDW
                           (   1   4  43  14   2   0   0)
     Any further DFT definition will be discarded
     Please, verify this is what you really want

  @ DRIVER MODE: Connecting to
 qe_1139763_3181310.sched-torque.pace.gatech.eduyy695w09_scratch
  using UNIX socket
  @ DRIVER MODE: Message from server: STATUS
  @ DRIVER MODE: Message from server: INIT
  @ DRIVER MODE: Receiving replica           0          -1
  @ DRIVER MODE: Receiving encoded integer          25
  @ DRIVER MODE:  SCF:  T  FORCE:  T  STRESS:  F  VC:  F  ENSEMBLE:  F
  @ DRIVER MODE:  SCF:  T  FORCE:  T  STRESS:  F  VC:  F  ENSEMBLE:  F

     Using Slab Decomposition

     bravais-lattice index     =            0
     lattice parameter (alat)  =       1.8897  a.u.
     unit-cell volume          =    6658.9804 (a.u.)^3
     number of atoms/cell      =           53
     number of atomic types    =            4
     number of electrons       =       392.00
     number of Kohn-Sham states=          206
     kinetic-energy cutoff     =      29.3995  Ry
     charge density cutoff     =     293.9946  Ry
     scf convergence threshold =      7.3E-08
     mixing beta               =       0.0500
     number of iterations used =            8  plain     mixing
     Exchange-correlation= BEEF-VDW
                           (   1   4  43  14   2   0   0)

     celldm(1)=   1.889726  celldm(2)=   0.000000  celldm(3)=   0.000000
     celldm(4)=   0.000000  celldm(5)=   0.000000  celldm(6)=   0.000000

     crystal axes: (cart. coord. in units of alat)
               a(1) = (   6.579727   0.000000   0.000000 )
               a(2) = (  -0.000775   5.961596   0.000000 )
               a(3) = (   0.000000   0.000000  25.155947 )

     reciprocal axes: (cart. coord. in units 2 pi/alat)
               b(1) = (  0.151982  0.000020  0.000000 )
               b(2) = (  0.000000  0.167740  0.000000 )
               b(3) = (  0.000000  0.000000  0.039752 )

     PseudoPot. # 1 for Ti read from file:
     /storage/coda1/p-amedford6/0/shared/rich_project_chbe-medford/medford-share/data/pseudos_module/espresso/nninc/pbe/van/Ti.UPF
     MD5 check sum: 8e4df49b7f0d34bbd5052bf3f5ea0213
     Pseudo is Ultrasoft, Zval = 12.0
     Generated by new atomic code, or converted to UPF format
     Using radial grid of  851 points,  6 beta functions with:
                l(1) =   0
                l(2) =   0
                l(3) =   1
                l(4) =   1
                l(5) =   2
                l(6) =   2
     Q(r) pseudized with  8 coefficients,  rinner =    1.000   1.000   1.000
                                                       1.000   1.000

     PseudoPot. # 2 for O  read from file:
     /storage/coda1/p-amedford6/0/shared/rich_project_chbe-medford/medford-share/data/pseudos_module/espresso/nninc/pbe/van/O.UPF
     MD5 check sum: 78c19812648e8988a0fe644b0f25305e
     Pseudo is Ultrasoft, Zval =  6.0
     Generated by new atomic code, or converted to UPF format
     Using radial grid of  737 points,  4 beta functions with:
                l(1) =   0
                l(2) =   0
                l(3) =   1
                l(4) =   1
     Q(r) pseudized with  8 coefficients,  rinner =    0.800   0.800   0.800

     PseudoPot. # 3 for H  read from file:
     /storage/coda1/p-amedford6/0/shared/rich_project_chbe-medford/medford-share/data/pseudos_module/espresso/nninc/pbe/van/H.UPF
     MD5 check sum: b5ee9d7bfd3a09ee7748110bda690ff7
     Pseudo is Ultrasoft, Zval =  1.0
     Generated by new atomic code, or converted to UPF format
     Using radial grid of  615 points,  1 beta functions with:
                l(1) =   0
     Q(r) pseudized with  8 coefficients,  rinner =    0.800

     PseudoPot. # 4 for N  read from file:
     /storage/coda1/p-amedford6/0/shared/rich_project_chbe-medford/medford-share/data/pseudos_module/espresso/nninc/pbe/van/N.UPF
     MD5 check sum: 90d10febe142ad51ac9d5be1deb811c4
     Pseudo is Ultrasoft, Zval =  5.0
     Generated by new atomic code, or converted to UPF format
     Using radial grid of  729 points,  4 beta functions with:
                l(1) =   0
                l(2) =   0
                l(3) =   1
                l(4) =   1
     Q(r) pseudized with  8 coefficients,  rinner =    0.800   0.800   0.800

     atomic species   valence    mass     pseudopotential
        Ti1           12.00    47.86700     Ti( 1.00)
        O1             6.00    15.99900     O ( 1.00)
        H1             1.00     1.00800     H ( 1.00)
        N1             5.00    14.00700     N ( 1.00)

     No symmetry found

   Cartesian axes

     site n.     atom                  positions (alat units)
         1           Ti1 tau(   1) = (   0.0004258   2.9801865   6.0000000  )
         2           Ti1 tau(   2) = (   3.2906075   1.4906267   6.0002472  )
         3           O1  tau(   3) = (   0.0006271   0.0005054   7.9858123  )
         4           O1  tau(   4) = (   3.2906025   0.0005020   7.3038282  )
         5           O1  tau(   5) = (   4.5942328   1.4918067   9.2879030  )
         6           O1  tau(   6) = (   1.9868534   1.4903216   9.2879459  )
         7           Ti1 tau(   7) = (   3.2907910   2.8959150   9.1758416  )
         8           Ti1 tau(   8) = (   0.0001184   1.4796821   9.2618995  )
         9           O1  tau(   9) = (   3.3033009   5.9571037  11.3689245  )
        10           O1  tau(  10) = (   0.0046093   5.9606512  10.6148452  )
        11           O1  tau(  11) = (   1.3031693   1.4924284  12.6635891  )
        12           O1  tau(  12) = (   5.3048943   1.4931164  12.6630676  )
        13           Ti1 tau(  13) = (   0.0220873   2.9701805  12.5026553  )
        14           Ti1 tau(  14) = (   3.3209497   1.4853901  12.5165241  )
        15           O1  tau(  15) = (   0.0111090   5.9548334  14.6950652  )
        16           O1  tau(  16) = (   3.3059555   5.9578033  13.9930857  )
        17           O1  tau(  17) = (   4.5400856   1.4977043  16.1996482  )
        18           O1  tau(  18) = (   2.0449602   1.5055634  16.1912035  )
        19           Ti1 tau(  19) = (   3.3033294   2.9754315  15.7369611  )
        20           Ti1 tau(  20) = (   0.0669189   1.3514287  15.9855452  )
        21           O1  tau(  21) = (   3.2904802   0.0005063   4.7018136  )
        22           O1  tau(  22) = (   0.0169155   5.9572437  17.2386537  )
        23           O1  tau(  23) = (   1.3043587   1.4918075   6.0039043  )
        24           O1  tau(  24) = (   5.2767064   1.4903225   6.0039473  )
        25           Ti1 tau(  25) = (   0.0000382   5.9609847   6.0000000  )
        26           Ti1 tau(  26) = (   3.2902200   4.4714249   6.0002472  )
        27           O1  tau(  27) = (   0.0002396   2.9813036   7.9858123  )
        28           O1  tau(  28) = (   3.2902150   2.9813002   7.3038282  )
        29           O1  tau(  29) = (   4.5938453   4.4726049   9.2879030  )
        30           O1  tau(  30) = (   1.9864658   4.4711199   9.2879459  )
        31           Ti1 tau(  31) = (   3.2891106   5.8743827   9.1763621  )
        32           Ti1 tau(  32) = (  -0.0005703   4.4645639   9.2621285  )
        33           O1  tau(  33) = (   3.3036452   2.9764387  11.3618117  )
        34           O1  tau(  34) = (   0.0064946   2.9800876  10.6274040  )
        35           O1  tau(  35) = (   1.3025983   4.4627906  12.6614389  )
        36           O1  tau(  36) = (   5.3044333   4.4622094  12.6652126  )
        37           Ti1 tau(  37) = (   0.0242538   5.9517307  12.5043500  )
        38           Ti1 tau(  38) = (   3.3173473   4.4639239  12.5158395  )
        39           O1  tau(  39) = (   0.0133908   2.9741471  14.9664594  )
        40           O1  tau(  40) = (   3.3068033   2.9766936  13.9537582  )
        41           O1  tau(  41) = (   4.5624531   4.4468677  16.1922021  )
        42           O1  tau(  42) = (   2.0658021   4.4533190  16.1937748  )
        43           Ti1 tau(  43) = (   3.3070936   5.9559909  15.7859554  )
        44           Ti1 tau(  44) = (   6.5464735   4.5686029  15.9538643  )
        45           O1  tau(  45) = (   3.2900926   2.9813045   4.7018136  )
        46           O1  tau(  46) = (   1.3039711   4.4726057   6.0039043  )
        47           O1  tau(  47) = (   5.2763189   4.4711207   6.0039473  )
        48           H1  tau(  48) = (   6.1991321   4.2482542  18.7514658  )
        49           H1  tau(  49) = (   1.1283133   3.8395711  18.1715982  )
        50           N1  tau(  50) = (   0.1317752   3.6792193  18.0720352  )
        51           N1  tau(  51) = (   6.4315599   2.2892659  18.0961467  )
        52           H1  tau(  52) = (   5.4285218   2.1347736  18.1483859  )
        53           H1  tau(  53) = (   0.3235236   1.7579878  18.8239140  )

     number of k points=    10  Fermi-Dirac smearing, width (Ry)=  0.0073
                       cart. coord. in units 2pi/alat
        k(    1) = (   0.0000000   0.0000000   0.0000000), wk =   0.1250000
        k(    2) = (   0.0000000   0.0419351   0.0000000), wk =   0.2500000
        k(    3) = (   0.0000000  -0.0838702   0.0000000), wk =   0.1250000
        k(    4) = (   0.0379955   0.0000049   0.0000000), wk =   0.2500000
        k(    5) = (   0.0379955   0.0419400   0.0000000), wk =   0.2500000
        k(    6) = (   0.0379955  -0.0838652   0.0000000), wk =   0.2500000
        k(    7) = (   0.0379955  -0.0419301   0.0000000), wk =   0.2500000
        k(    8) = (  -0.0759910  -0.0000099   0.0000000), wk =   0.1250000
        k(    9) = (  -0.0759910   0.0419252   0.0000000), wk =   0.2500000
        k(   10) = (  -0.0759910  -0.0838800   0.0000000), wk =   0.1250000

     Initial potential from superposition of free atoms

     starting charge  375.99919, renormalised to  392.00000

     negative rho (up, down):  1.864E-02 0.000E+00

     %%%%%%%%%%%%%%%%%%%%%%%%%%%%%%%%%%%%%%%%%%%%%%%%%%%%%%%%%%%%%%%%%%%%%%%%
     %                                                                      %
     % You are using vdW-DF, which was implemented by the Thonhauser group. %
     % Please cite the following two papers that made this development      %
     % possible and the two reviews that describe the various versions:     %
     %                                                                      %
     %   T. Thonhauser et al., PRL 115, 136402 (2015).                      %
     %   T. Thonhauser et al., PRB 76, 125112 (2007).                       %
     %   K. Berland et al., Rep. Prog. Phys. 78, 066501 (2015).             %
     %   D.C. Langreth et al., J. Phys.: Condens. Matter 21, 084203 (2009). %
     %                                                                      %
     %                                                                      %
     % If you are calculating the stress with vdW-DF, please also cite:     %
     %                                                                      %
     %   R. Sabatini et al., J. Phys.: Condens. Matter 24, 424209 (2012).   %
     %                                                                      %
     %%%%%%%%%%%%%%%%%%%%%%%%%%%%%%%%%%%%%%%%%%%%%%%%%%%%%%%%%%%%%%%%%%%%%%%%

     Adding external electric field

     Computed dipole along edir(3) :
        Dipole               -7.0285 Ry au,        -17.8646 Debye
        Dipole field         -0.0133 Ry au,

        Potential amp.        1.2295 Ry
        Total length         46.3494 bohr

     Starting wfcs are  296 atomic wfcs
  @ DRIVER MODE: Message from server: STATUS
  @ DRIVER MODE: Message from server: POSDATA
  @ DRIVER MODE: Reading and sharing cell
  @ DRIVER MODE: Reading and sharing positions
  @ DRIVER MODE: Received positions

     Self-consistent Calculation

     iteration #  1     ecut=    29.40 Ry     beta= 0.05
     Davidson diagonalization with overlap
     c_bands:  1 eigenvalues not converged
     c_bands:  1 eigenvalues not converged
     c_bands:  2 eigenvalues not converged
     c_bands:  1 eigenvalues not converged
     c_bands:  1 eigenvalues not converged
     c_bands:  1 eigenvalues not converged
     ethr =  1.00E-05,  avg # of iterations = 19.6

[...]

     total energy              =   -2685.32619118 Ry
     estimated scf accuracy    <    2688.10672558 Ry

[...]

     iteration #  3     ecut=    29.40 Ry     beta= 0.05
     Davidson diagonalization with overlap
     ethr =  1.00E-02,  avg # of iterations = 15.6

[...]

     iteration # 59     ecut=    29.40 Ry     beta= 0.05
     Davidson diagonalization with overlap
     ethr =  2.86E-05,  avg # of iterations =  5.7

[...]

     total energy              =   -2928.89052896 Ry
     estimated scf accuracy    <       0.00000008 Ry

     iteration # 91     ecut=    29.40 Ry     beta= 0.05
     Davidson diagonalization with overlap
     c_bands:  2 eigenvalues not converged
     ethr =  1.98E-11,  avg # of iterations = 11.9

     negative rho (up, down):  1.633E-02 0.000E+00

     Adding external electric field

     Computed dipole along edir(3) :
        Dipole                1.6240 Ry au,          4.1279 Debye
        Dipole field          0.0031 Ry au,

        Potential amp.       -0.2841 Ry
        Total length         46.3494 bohr

     End of self-consistent calculation

          k = 0.0000 0.0000 0.0000 ( 18029 PWs)   bands (ev):

   -55.3075 -55.2715 -55.2566 -55.2225 -55.1820 -55.1762 -55.1477 -55.1208
   -55.1000 -55.0894 -55.0861 -55.0809 -55.0556 -55.0261 -54.2853 -54.2512
   -31.8797 -31.7504 -31.6947 -31.6695 -31.6247 -31.6107 -31.6055 -31.5975
   -31.5477 -31.5468 -31.5181 -31.5162 -31.5023 -31.4803 -31.4645 -31.4512
   -31.4450 -31.4255 -31.4194 -31.4084 -31.3987 -31.3721 -31.3716 -31.3605
   -31.3521 -31.3237 -31.3131 -31.3126 -31.3052 -31.2987 -31.2939 -31.2902
   -31.2845 -31.2749 -31.2731 -31.2689 -31.2630 -31.2351 -31.2200 -31.2171
   -31.2014 -31.1303 -30.6946 -30.6008 -30.5788 -30.5110 -30.4242 -30.3133
   -18.6122 -16.1485 -15.8865 -15.7515 -15.5968 -15.5053 -15.4011 -15.3433
   -15.2373 -15.1556 -15.0679 -15.0556 -15.0307 -15.0042 -14.9652 -14.9323
   -14.8477 -14.8431 -14.8201 -14.8002 -14.7984 -14.7502 -14.7412 -14.7218
   -14.7023 -14.6816 -14.5471 -14.4620 -14.3941 -14.1300 -13.3054 -12.7883
   -12.6709  -7.5272  -6.9900  -5.5148  -3.4856  -3.3208  -3.2931  -3.2385
    -3.2002  -3.0599  -2.9458  -2.7263  -2.6992  -2.6216  -2.5870  -2.5391
    -2.5171  -2.4984  -2.3320  -2.3031  -2.2895  -2.2333  -2.1727  -2.1185
    -2.1035  -2.0994  -2.0883  -2.0695  -2.0648  -1.9439  -1.8702  -1.7965
    -1.7327  -1.7000  -1.6632  -1.6545  -1.6358  -1.5958  -1.5882  -1.5575
    -1.5430  -1.4973  -1.4693  -1.3394  -1.2871  -1.2159  -1.0288  -0.9418
    -0.8963  -0.8820  -0.8480  -0.8021  -0.7889  -0.6853  -0.6726  -0.6499
    -0.6036  -0.5408  -0.4843  -0.4335  -0.3641  -0.3048  -0.2962  -0.1909
    -0.0953  -0.0856  -0.0644   0.0331   0.0680   0.1157   0.1944   0.2114
     0.2232   0.3093   0.3521   0.3903   0.4271   0.4518   0.5751   0.6190
     0.6326   0.6472   0.6520   0.6767   0.7031   0.7682   0.7988   0.8681
     0.9938   1.0983   1.1686   1.2654   1.3081   1.6405   1.6441   1.7371
     1.9210   2.3116   2.3586   3.7932   3.8622   3.9362   3.9458   3.9554
     4.0273   4.1086   4.2666   4.2905   4.2985   4.3149

[...]

          k = 0.0380-0.0419 0.0000 ( 17876 PWs)   bands (ev):

[...]

          k =-0.0760-0.0000 0.0000 ( 17886 PWs)   bands (ev):

[...]

          k =-0.0760-0.0839 0.0000 ( 17948 PWs)   bands (ev):

   -55.2896 -55.2892 -55.2397 -55.2392 -55.1720 -55.1649 -55.1648 -55.1055
   -55.1039 -55.1009 -55.0740 -55.0739 -55.0713 -55.0331 -54.2683 -54.2681
   -31.6837 -31.6818 -31.6024 -31.5913 -31.5714 -31.5657 -31.5651 -31.5329
   -31.5314 -31.5113 -31.5085 -31.5066 -31.5003 -31.4450 -31.4422 -31.4390
   -31.4342 -31.4334 -31.4317 -31.4283 -31.3980 -31.3855 -31.3818 -31.3716
   -31.3586 -31.3583 -31.3574 -31.3571 -31.3429 -31.3394 -31.3345 -31.3261
   -31.3193 -31.3146 -31.3034 -31.2993 -31.2992 -31.2903 -31.2703 -31.2564
   -31.2546 -31.2354 -30.5915 -30.5914 -30.5072 -30.5070 -30.4676 -30.4676
   -18.5972 -15.5930 -15.5714 -15.5308 -15.3364 -15.3261 -15.3130 -15.3100
   -15.2070 -15.1927 -15.1208 -15.0949 -15.0485 -15.0288 -15.0136 -15.0121
   -14.9192 -14.8997 -14.8940 -14.8917 -14.8211 -14.8129 -14.8046 -14.7956
   -14.7655 -14.7586 -14.6566 -14.6539 -14.6239 -14.6008 -13.1377 -12.7725
   -12.7723  -7.5267  -7.0143  -5.5667  -3.0513  -2.8610  -2.7872  -2.7113
    -2.5540  -2.5332  -2.4932  -2.3826  -2.3437  -2.3294  -2.3226  -2.2912
    -2.2383  -2.2198  -2.2089  -2.1478  -2.1457  -2.1258  -2.1165  -2.0909
    -2.0791  -2.0359  -2.0271  -2.0081  -1.9709  -1.9543  -1.9300  -1.9051
    -1.8998  -1.8821  -1.8238  -1.7906  -1.6833  -1.6696  -1.6064  -1.5132
    -1.5058  -1.4241  -1.3965  -1.3615  -1.3399  -1.3376  -1.2176  -1.1356
    -1.0819  -1.0507  -1.0437  -0.9344  -0.8982  -0.8162  -0.8031  -0.7897
    -0.7321  -0.6486  -0.6264  -0.6103  -0.5256  -0.4639  -0.4550  -0.3601
    -0.3378  -0.2756  -0.2620  -0.2603  -0.2176  -0.1988  -0.1691  -0.1131
    -0.0774  -0.0402  -0.0180   0.0214   0.2181   0.2389   0.2627   0.3922
     0.5114   0.5330   0.5661   0.6042   0.6988   0.7637   0.8038   0.8499
     0.9022   0.9859   0.9951   1.0899   1.0962   1.1515   1.1580   2.0937
     2.0946   2.1794   2.1803   3.9633   4.0055   4.0657   4.0953   4.1784
     4.3069   4.3224   4.3764   4.3781   4.4478   4.4493

     the Fermi energy is     3.8564 ev

!    total energy              =   -2928.89053132 Ry
     estimated scf accuracy    <       0.00000002 Ry
     smearing contrib. (-TS)   =      -0.03700890 Ry
     internal energy E=F+TS    =   -2928.85352242 Ry

     The total energy is F=E-TS. E is the sum of the following terms:
     one-electron contribution =  -24386.39600588 Ry
     hartree contribution      =   12284.71810269 Ry
     xc contribution           =    -482.73855770 Ry
     ewald contribution        =    9655.55796116 Ry
     electric field correction =       0.00497731 Ry

     convergence has been achieved in  91 iterations

     Forces acting on atoms (cartesian axes, Ry/au):

     atom    1 type  1   force =     0.00007581   -0.00018085    0.09195398
     atom    2 type  1   force =    -0.00017618   -0.00022634   -0.17806273
     atom    3 type  2   force =     0.00000775   -0.00050154   -0.02212808
     atom    4 type  2   force =     0.00002900   -0.00184633    0.05826419
     atom    5 type  2   force =    -0.01042051   -0.00081893    0.00667740
     atom    6 type  2   force =     0.01171622   -0.00037335    0.00700109
     atom    7 type  1   force =    -0.00031780    0.00236536   -0.01478106
     atom    8 type  1   force =     0.00006086    0.00001401    0.00013126
     atom    9 type  2   force =    -0.00010677   -0.00011386   -0.00083579
     atom   10 type  2   force =     0.00012767   -0.00004882    0.00051751
     atom   11 type  2   force =     0.00011521   -0.00006547   -0.00027741
     atom   12 type  2   force =    -0.00032577   -0.00005350   -0.00019236
     atom   13 type  1   force =     0.00006782    0.00019647    0.00014043
     atom   14 type  1   force =    -0.00009852   -0.00010447   -0.00012948
     atom   15 type  2   force =     0.00023109    0.00010507    0.00072609
     atom   16 type  2   force =    -0.00010137    0.00007843   -0.00028588
     atom   17 type  2   force =    -0.00036395   -0.00010793    0.00024698
     atom   18 type  2   force =     0.00065159   -0.00013290    0.00035889
     atom   19 type  1   force =     0.00001313   -0.00001310    0.00047206
     atom   20 type  1   force =    -0.00084922   -0.00061245    0.00068095
     atom   21 type  2   force =     0.00000741   -0.00002595    0.10387958
     atom   22 type  2   force =     0.00002555    0.00048657   -0.00136275
     atom   23 type  2   force =    -0.07049873   -0.00019563   -0.02663483
     atom   24 type  2   force =     0.07034056    0.00022915   -0.02669167
     atom   25 type  1   force =     0.00003089   -0.00013003    0.09065043
     atom   26 type  1   force =    -0.00018276   -0.00036275   -0.17822856
     atom   27 type  2   force =     0.00000828   -0.00017718   -0.02112982
     atom   28 type  2   force =     0.00006286   -0.00153220    0.05748130
     atom   29 type  2   force =    -0.01049967   -0.00097095    0.00672665
     atom   30 type  2   force =     0.01166311   -0.00039462    0.00703453
     atom   31 type  1   force =    -0.00036731    0.00548439   -0.01571880
     atom   32 type  1   force =     0.00003517    0.00001018    0.00006997
     atom   33 type  2   force =    -0.00010560   -0.00008880   -0.00053428
     atom   34 type  2   force =    -0.00002792    0.00000464    0.00021428
     atom   35 type  2   force =     0.00015364   -0.00021185   -0.00015194
     atom   36 type  2   force =    -0.00036473   -0.00018799   -0.00014846
     atom   37 type  1   force =     0.00004025   -0.00007626    0.00076241
     atom   38 type  1   force =    -0.00016434   -0.00038126   -0.00009941
     atom   39 type  2   force =     0.00001281    0.00005180   -0.00012266
     atom   40 type  2   force =    -0.00039236   -0.00004815   -0.00026670
     atom   41 type  2   force =    -0.00064791    0.00006898    0.00022895
     atom   42 type  2   force =     0.00034256    0.00004606    0.00059802
     atom   43 type  1   force =    -0.00009670   -0.00012766   -0.00011527
     atom   44 type  1   force =     0.00008194    0.00117649    0.00160652
     atom   45 type  2   force =     0.00000905   -0.00004262    0.10384767
     atom   46 type  2   force =    -0.07049972   -0.00003189   -0.02666444
     atom   47 type  2   force =     0.07035282    0.00042884   -0.02669856
     atom   48 type  3   force =     0.00567048   -0.00554519   -0.00672532
     atom   49 type  3   force =     0.00133533   -0.00020856    0.00014568
     atom   50 type  4   force =    -0.00709280    0.00473750    0.00801673
     atom   51 type  4   force =    -0.00108536    0.00019585   -0.00000486
     atom   52 type  3   force =     0.00148632    0.00054037   -0.00008087
     atom   53 type  3   force =     0.00003077   -0.00028075   -0.00036156

     Total force =     0.365367     Total SCF correction =     0.000429
  @ DRIVER MODE: Message from server: STATUS
  @ DRIVER MODE: Message from server: GETFORCE
  @ DRIVER MODE: Returning v,forces,stress,ensemble

     Writing output data file ./calc.save/
  @ DRIVER MODE: Message from server: EXIT
  @ DRIVE MODE: Exiting

     General routines

     Parallel routines

   This run was terminated on:  12:44:29  12Oct2021

   JOB DONE.