     Program PWSCF v.6.7GPU starts on 24Aug2021 at 16: 7:53

     R & G space division:  proc/nbgrp/npool/nimage =      72
     Reading input from /storage/home/hcoda1/3/ntian30/research/carbon/CH2_vib/ads_slab/CH2N_a/out_0023/pw.inp
Warning: card &CELL ignored
Warning: card   CELL_DYNAMICS='IPI', ignored
Warning: card / ignored

     Current dimensions of program PWSCF are:
     Max number of different atomic species (ntypx) = 10
     Max number of k-points (npk) =  40000
     Max angular momentum in pseudopotentials (lmaxx) =  3
     Presently no symmetry can be used with electric field

     Message from routine cell_base_init:
     DEPRECATED: use true lattice parameter, not A to a.u. conversion factor

     IMPORTANT: XC functional enforced from input :
     Exchange-correlation= BEEF-VDW
                           (   1   4  43  14   2   0   0)
     Any further DFT definition will be discarded
     Please, verify this is what you really want

  @ DRIVER MODE: Connecting to
 qe_1139763_2641441.sched-torque.pace.gatech.edupfdw3e0__scratch
  using UNIX socket
  @ DRIVER MODE: Message from server: STATUS
  @ DRIVER MODE: Message from server: INIT
  @ DRIVER MODE: Receiving replica           0          -1
  @ DRIVER MODE: Receiving encoded integer          25
  @ DRIVER MODE:  SCF:  T  FORCE:  T  STRESS:  F  VC:  F  ENSEMBLE:  F
  @ DRIVER MODE:  SCF:  T  FORCE:  T  STRESS:  F  VC:  F  ENSEMBLE:  F

     Using Slab Decomposition

     bravais-lattice index     =            0
     lattice parameter (alat)  =       1.8897  a.u.
     unit-cell volume          =    6658.9804 (a.u.)^3
     number of atoms/cell      =           51
     number of atomic types    =            5
     number of electrons       =       389.00
     number of Kohn-Sham states=          204
     kinetic-energy cutoff     =      29.3995  Ry
     charge density cutoff     =     293.9946  Ry
     scf convergence threshold =      7.3E-08
     mixing beta               =       0.0500
     number of iterations used =            8  plain     mixing
     Exchange-correlation= BEEF-VDW
                           (   1   4  43  14   2   0   0)

     celldm(1)=   1.889726  celldm(2)=   0.000000  celldm(3)=   0.000000
     celldm(4)=   0.000000  celldm(5)=   0.000000  celldm(6)=   0.000000

     crystal axes: (cart. coord. in units of alat)
               a(1) = (   6.579727   0.000000   0.000000 )
               a(2) = (  -0.000775   5.961596   0.000000 )
               a(3) = (   0.000000   0.000000  25.155947 )

     reciprocal axes: (cart. coord. in units 2 pi/alat)
               b(1) = (  0.151982  0.000020  0.000000 )
               b(2) = (  0.000000  0.167740  0.000000 )
               b(3) = (  0.000000  0.000000  0.039752 )

     PseudoPot. # 1 for Ti read from file:
     /storage/coda1/p-amedford6/0/shared/rich_project_chbe-medford/medford-share/data/pseudos_module/espresso/nninc/pbe/van/Ti.UPF
     MD5 check sum: 8e4df49b7f0d34bbd5052bf3f5ea0213
     Pseudo is Ultrasoft, Zval = 12.0
     Generated by new atomic code, or converted to UPF format
     Using radial grid of  851 points,  6 beta functions with:
                l(1) =   0
                l(2) =   0
                l(3) =   1
                l(4) =   1
                l(5) =   2
                l(6) =   2
     Q(r) pseudized with  8 coefficients,  rinner =    1.000   1.000   1.000
                                                       1.000   1.000

     PseudoPot. # 2 for O  read from file:
     /storage/coda1/p-amedford6/0/shared/rich_project_chbe-medford/medford-share/data/pseudos_module/espresso/nninc/pbe/van/O.UPF
     MD5 check sum: 78c19812648e8988a0fe644b0f25305e
     Pseudo is Ultrasoft, Zval =  6.0
     Generated by new atomic code, or converted to UPF format
     Using radial grid of  737 points,  4 beta functions with:
                l(1) =   0
                l(2) =   0
                l(3) =   1
                l(4) =   1
     Q(r) pseudized with  8 coefficients,  rinner =    0.800   0.800   0.800

     PseudoPot. # 3 for N  read from file:
     /storage/coda1/p-amedford6/0/shared/rich_project_chbe-medford/medford-share/data/pseudos_module/espresso/nninc/pbe/van/N.UPF
     MD5 check sum: 90d10febe142ad51ac9d5be1deb811c4
     Pseudo is Ultrasoft, Zval =  5.0
     Generated by new atomic code, or converted to UPF format
     Using radial grid of  729 points,  4 beta functions with:
                l(1) =   0
                l(2) =   0
                l(3) =   1
                l(4) =   1
     Q(r) pseudized with  8 coefficients,  rinner =    0.800   0.800   0.800

     PseudoPot. # 4 for C  read from file:
     /storage/coda1/p-amedford6/0/shared/rich_project_chbe-medford/medford-share/data/pseudos_module/espresso/nninc/pbe/van/C.UPF
     MD5 check sum: 1a69bf6b8db32088f5b2163dbdb77a27
     Pseudo is Ultrasoft, Zval =  4.0
     Generated by new atomic code, or converted to UPF format
     Using radial grid of  721 points,  4 beta functions with:
                l(1) =   0
                l(2) =   0
                l(3) =   1
                l(4) =   1
     Q(r) pseudized with  8 coefficients,  rinner =    0.800   0.800   0.800

     PseudoPot. # 5 for H  read from file:
     /storage/coda1/p-amedford6/0/shared/rich_project_chbe-medford/medford-share/data/pseudos_module/espresso/nninc/pbe/van/H.UPF
     MD5 check sum: b5ee9d7bfd3a09ee7748110bda690ff7
     Pseudo is Ultrasoft, Zval =  1.0
     Generated by new atomic code, or converted to UPF format
     Using radial grid of  615 points,  1 beta functions with:
                l(1) =   0
     Q(r) pseudized with  8 coefficients,  rinner =    0.800

     atomic species   valence    mass     pseudopotential
        Ti1           12.00    47.86700     Ti( 1.00)
        O1             6.00    15.99900     O ( 1.00)
        N1             5.00    14.00700     N ( 1.00)
        C1             4.00    12.01100     C ( 1.00)
        H1             1.00     1.00800     H ( 1.00)

     No symmetry found

   Cartesian axes

     site n.     atom                  positions (alat units)
         1           Ti1 tau(   1) = (   0.0004258   2.9801865   6.0000000  )
         2           Ti1 tau(   2) = (   3.2906075   1.4906267   6.0002472  )
         3           O1  tau(   3) = (   0.0006271   0.0005054   7.9858123  )
         4           O1  tau(   4) = (   3.2906025   0.0005020   7.3038282  )
         5           O1  tau(   5) = (   4.5942328   1.4918067   9.2879030  )
         6           O1  tau(   6) = (   1.9868534   1.4903216   9.2879459  )
         7           Ti1 tau(   7) = (   3.2907910   2.8959150   9.1758416  )
         8           Ti1 tau(   8) = (   0.0015273   1.4827037   9.2680791  )
         9           O1  tau(   9) = (   3.3121109   0.0111249  11.3310253  )
        10           O1  tau(  10) = (   0.0116148   5.9584955  10.6183126  )
        11           O1  tau(  11) = (   1.3329579   1.5011098  12.6063046  )
        12           O1  tau(  12) = (   5.3158149   1.4916659  12.6245769  )
        13           Ti1 tau(  13) = (   6.5431557   2.9598450  12.6156978  )
        14           Ti1 tau(  14) = (   3.2273839   1.5049138  12.4779161  )
        15           O1  tau(  15) = (   0.0471551   0.0364395  14.6528705  )
        16           O1  tau(  16) = (   3.3160098   0.0207640  13.9215624  )
        17           O1  tau(  17) = (   4.5810600   1.5471256  16.0564497  )
        18           O1  tau(  18) = (   2.0947546   1.5446786  16.0656860  )
        19           Ti1 tau(  19) = (   3.3354243   3.0239694  15.7034691  )
        20           Ti1 tau(  20) = (   0.0419518   1.5622418  15.8401859  )
        21           O1  tau(  21) = (   3.2904802   0.0005063   4.7018136  )
        22           O1  tau(  22) = (   0.0415632   0.0558952  17.2248266  )
        23           O1  tau(  23) = (   1.3043587   1.4918075   6.0039043  )
        24           O1  tau(  24) = (   5.2767064   1.4903225   6.0039473  )
        25           Ti1 tau(  25) = (   0.0000382   5.9609847   6.0000000  )
        26           Ti1 tau(  26) = (   3.2902200   4.4714249   6.0002472  )
        27           O1  tau(  27) = (   0.0002396   2.9813036   7.9858123  )
        28           O1  tau(  28) = (   3.2902150   2.9813002   7.3038282  )
        29           O1  tau(  29) = (   4.5938453   4.4726049   9.2879030  )
        30           O1  tau(  30) = (   1.9864658   4.4711199   9.2879459  )
        31           Ti1 tau(  31) = (   3.2891106   5.8743827   9.1763621  )
        32           Ti1 tau(  32) = (   0.0006254   4.4649316   9.2693709  )
        33           O1  tau(  33) = (   3.3101407   2.9955762  11.3294870  )
        34           O1  tau(  34) = (   0.0092240   2.9805883  10.6323155  )
        35           O1  tau(  35) = (   1.3272401   4.4878838  12.6173354  )
        36           O1  tau(  36) = (   5.3164082   4.4812184  12.6342743  )
        37           Ti1 tau(  37) = (   6.5430856   5.9365306  12.5602028  )
        38           Ti1 tau(  38) = (   3.2246414   4.4845729  12.4831641  )
        39           O1  tau(  39) = (   0.0420920   2.9623338  14.6463429  )
        40           O1  tau(  40) = (   3.3182946   3.0055568  13.9055467  )
        41           O1  tau(  41) = (   4.5797692   4.5125808  16.0776662  )
        42           O1  tau(  42) = (   2.0972274   4.5146901  16.0918111  )
        43           Ti1 tau(  43) = (   3.3319946   0.0399457  15.7186693  )
        44           Ti1 tau(  44) = (   0.0407629   4.6953510  16.1098173  )
        45           O1  tau(  45) = (   3.2900926   2.9813045   4.7018136  )
        46           O1  tau(  46) = (   1.3039711   4.4726057   6.0039043  )
        47           O1  tau(  47) = (   5.2763189   4.4711207   6.0039473  )
        48           N1  tau(  48) = (   0.0554023   2.9932257  17.3910969  )
        49           C1  tau(  49) = (   0.1090839   2.9222626  18.6472186  )
        50           H1  tau(  50) = (   0.1225839   3.8204711  19.2773028  )
        51           H1  tau(  51) = (   0.1417253   1.9549180  19.1525725  )

     number of k points=    10  Fermi-Dirac smearing, width (Ry)=  0.0073
                       cart. coord. in units 2pi/alat
        k(    1) = (   0.0000000   0.0000000   0.0000000), wk =   0.1250000
        k(    2) = (   0.0000000   0.0419351   0.0000000), wk =   0.2500000
        k(    3) = (   0.0000000  -0.0838702   0.0000000), wk =   0.1250000
        k(    4) = (   0.0379955   0.0000049   0.0000000), wk =   0.2500000
        k(    5) = (   0.0379955   0.0419400   0.0000000), wk =   0.2500000
        k(    6) = (   0.0379955  -0.0838652   0.0000000), wk =   0.2500000
        k(    7) = (   0.0379955  -0.0419301   0.0000000), wk =   0.2500000
        k(    8) = (  -0.0759910  -0.0000099   0.0000000), wk =   0.1250000
        k(    9) = (  -0.0759910   0.0419252   0.0000000), wk =   0.2500000
        k(   10) = (  -0.0759910  -0.0838800   0.0000000), wk =   0.1250000

     Initial potential from superposition of free atoms

     starting charge  372.99918, renormalised to  389.00000

     negative rho (up, down):  1.814E-02 0.000E+00

     %%%%%%%%%%%%%%%%%%%%%%%%%%%%%%%%%%%%%%%%%%%%%%%%%%%%%%%%%%%%%%%%%%%%%%%%
     %                                                                      %
     % You are using vdW-DF, which was implemented by the Thonhauser group. %
     % Please cite the following two papers that made this development      %
     % possible and the two reviews that describe the various versions:     %
     %                                                                      %
     %   T. Thonhauser et al., PRL 115, 136402 (2015).                      %
     %   T. Thonhauser et al., PRB 76, 125112 (2007).                       %
     %   K. Berland et al., Rep. Prog. Phys. 78, 066501 (2015).             %
     %   D.C. Langreth et al., J. Phys.: Condens. Matter 21, 084203 (2009). %
     %                                                                      %
     %                                                                      %
     % If you are calculating the stress with vdW-DF, please also cite:     %
     %                                                                      %
     %   R. Sabatini et al., J. Phys.: Condens. Matter 24, 424209 (2012).   %
     %                                                                      %
     %%%%%%%%%%%%%%%%%%%%%%%%%%%%%%%%%%%%%%%%%%%%%%%%%%%%%%%%%%%%%%%%%%%%%%%%

     Adding external electric field

     Computed dipole along edir(3) :
        Dipole               -4.6848 Ry au,        -11.9076 Debye
        Dipole field         -0.0088 Ry au,

        Potential amp.        0.8195 Ry
        Total length         46.3494 bohr

     Starting wfcs are  294 atomic wfcs
  @ DRIVER MODE: Message from server: STATUS
  @ DRIVER MODE: Message from server: POSDATA
  @ DRIVER MODE: Reading and sharing cell
  @ DRIVER MODE: Reading and sharing positions
  @ DRIVER MODE: Received positions

     Self-consistent Calculation

     iteration #  1     ecut=    29.40 Ry     beta= 0.05
     Davidson diagonalization with overlap
     c_bands:  3 eigenvalues not converged
     c_bands:  1 eigenvalues not converged
     c_bands:  1 eigenvalues not converged
     c_bands:  3 eigenvalues not converged
     c_bands:  3 eigenvalues not converged
     c_bands:  2 eigenvalues not converged
     c_bands:  2 eigenvalues not converged
     ethr =  1.00E-05,  avg # of iterations = 19.8

[...]

     total energy              =   -2866.09296519 Ry
     estimated scf accuracy    <     591.08201436 Ry

     iteration #  2     ecut=    29.40 Ry     beta= 0.05
     Davidson diagonalization with overlap
     ethr =  1.00E-02,  avg # of iterations = 14.9

[...]

     iteration # 46     ecut=    29.40 Ry     beta= 0.05
     Davidson diagonalization with overlap
     c_bands:  1 eigenvalues not converged
     ethr =  8.50E-11,  avg # of iterations = 11.6

[...]

     total energy              =   -2917.92284974 Ry
     estimated scf accuracy    <       0.00000028 Ry

     iteration # 50     ecut=    29.40 Ry     beta= 0.05
     Davidson diagonalization with overlap
     ethr =  3.46E-11,  avg # of iterations = 10.4

     negative rho (up, down):  1.844E-02 0.000E+00

     Adding external electric field

     Computed dipole along edir(3) :
        Dipole                0.7702 Ry au,          1.9577 Debye
        Dipole field          0.0015 Ry au,

        Potential amp.       -0.1347 Ry
        Total length         46.3494 bohr

     End of self-consistent calculation

          k = 0.0000 0.0000 0.0000 ( 18029 PWs)   bands (ev):

   -55.9936 -55.9846 -55.9595 -55.9483 -55.8712 -55.8413 -55.8213 -55.8070
   -55.8024 -55.7685 -55.7662 -55.7326 -55.5199 -55.2462 -54.9704 -54.9364
   -32.5390 -32.4759 -32.3426 -32.3234 -32.3013 -32.2964 -32.2865 -32.2569
   -32.2362 -32.2113 -32.2044 -32.1823 -32.1648 -32.1458 -32.1377 -32.1245
   -32.1038 -32.0978 -32.0833 -32.0507 -32.0501 -32.0471 -32.0010 -31.9997
   -31.9983 -31.9968 -31.9903 -31.9826 -31.9685 -31.9563 -31.9483 -31.9417
   -31.9329 -31.9328 -31.9194 -31.9099 -31.8785 -31.7697 -31.7018 -31.5355
   -31.5010 -31.4582 -31.3776 -31.2893 -31.2668 -31.1943 -31.1078 -30.9968
   -16.7363 -16.4677 -16.2429 -16.1457 -16.1149 -15.9986 -15.8325 -15.7140
   -15.6632 -15.5652 -15.5514 -15.5294 -15.4959 -15.4656 -15.4634 -15.4371
   -15.4337 -15.4140 -15.4010 -15.3530 -15.3308 -15.2963 -15.1986 -15.1677
   -15.1276 -15.1000 -15.0588 -15.0494 -14.9276 -14.5616 -13.4731 -13.3567
    -7.5633  -4.3602  -4.1137  -4.0007  -3.9484  -3.8989  -3.8404  -3.6332
    -3.5425  -3.5181  -3.2241  -3.1775  -3.1600  -3.1477  -3.1093  -2.8936
    -2.8402  -2.8083  -2.7873  -2.7731  -2.7620  -2.7541  -2.7341  -2.7072
    -2.5939  -2.5382  -2.5347  -2.4117  -2.3840  -2.3269  -2.3055  -2.2587
    -2.2432  -2.2345  -2.2077  -2.1964  -2.1833  -2.1521  -2.0752  -1.9613
    -1.8111  -1.7917  -1.7564  -1.6306  -1.6006  -1.5395  -1.4495  -1.4336
    -1.4191  -1.3848  -1.3679  -1.2964  -1.1708  -1.1463  -1.1366  -1.0360
    -0.9892  -0.9710  -0.8744  -0.8390  -0.7690  -0.7577  -0.7463  -0.7093
    -0.5485  -0.4915  -0.4621  -0.3954  -0.3659  -0.3071  -0.2941  -0.2651
    -0.1828  -0.1305  -0.1103  -0.1039  -0.0552  -0.0187  -0.0021   0.0074
     0.0185   0.0326   0.2050   0.2781   0.2850   0.3640   0.3739   0.5349
     0.5955   0.6636   0.7714   0.9768   1.0514   1.1403   1.2437   1.4386
     1.6226   1.6682   3.1428   3.2264   3.2746   3.2840   3.3854   3.4220
     3.5960   3.6022   3.6163   3.6903

[...]

          k = 0.0380-0.0419 0.0000 ( 17876 PWs)   bands (ev):

[...]

          k =-0.0760-0.0000 0.0000 ( 17886 PWs)   bands (ev):

[...]

          k =-0.0760-0.0839 0.0000 ( 17948 PWs)   bands (ev):

   -55.9769 -55.9760 -55.9690 -55.9636 -55.8643 -55.8281 -55.8245 -55.8237
   -55.7859 -55.7844 -55.7503 -55.7487 -55.5189 -55.2471 -54.9534 -54.9533
   -32.3448 -32.3397 -32.2915 -32.2908 -32.2723 -32.2714 -32.2544 -32.2424
   -32.1943 -32.1881 -32.1820 -32.1752 -32.1383 -32.1200 -32.1149 -32.1136
   -32.1042 -32.0982 -32.0964 -32.0955 -32.0893 -32.0867 -32.0676 -32.0435
   -32.0399 -32.0294 -32.0198 -32.0061 -31.9850 -31.9846 -31.9819 -31.9804
   -31.9650 -31.9641 -31.9602 -31.9572 -31.8822 -31.7723 -31.6980 -31.6008
   -31.5026 -31.4791 -31.2796 -31.2795 -31.1904 -31.1903 -31.1511 -31.1511
   -16.1686 -16.1493 -15.9373 -15.9101 -15.9054 -15.8939 -15.7654 -15.7049
   -15.6883 -15.6863 -15.6079 -15.5861 -15.5646 -15.5370 -15.5255 -15.5131
   -15.5070 -15.4986 -15.4553 -15.4492 -15.4296 -15.4225 -15.3197 -15.3100
   -15.3060 -15.2502 -15.1766 -15.0379 -14.9448 -14.7298 -13.4586 -13.4585
    -7.5592  -4.3428  -3.6833  -3.4589  -3.4363  -3.1675  -3.1506  -3.1417
    -3.0813  -2.9087  -2.8928  -2.8699  -2.8490  -2.8202  -2.8184  -2.7971
    -2.7951  -2.7842  -2.7402  -2.7329  -2.7073  -2.6705  -2.6603  -2.6488
    -2.6403  -2.6163  -2.6059  -2.5641  -2.5346  -2.5275  -2.5127  -2.4890
    -2.3035  -2.2208  -2.1944  -2.1311  -2.1238  -2.0888  -2.0572  -2.0452
    -2.0296  -1.9788  -1.9013  -1.7267  -1.6937  -1.6757  -1.6182  -1.5893
    -1.5485  -1.4624  -1.3942  -1.3695  -1.3635  -1.3149  -1.2063  -1.1848
    -1.1707  -1.0970  -1.0618  -1.0441  -1.0022  -0.9872  -0.9537  -0.9484
    -0.8553  -0.8058  -0.7589  -0.7566  -0.7111  -0.6447  -0.6319  -0.6043
    -0.4953  -0.4764  -0.4063  -0.3776  -0.2760  -0.2078  -0.0098   0.0523
     0.0782   0.1362   0.2166   0.2974   0.3121   0.3257   0.3263   0.3736
     0.4422   0.5388   0.5482   0.6017   0.7065   1.3328   1.4151   1.4157
     1.4880   1.4881   3.4284   3.4382   3.4775   3.4993   3.6356   3.6512
     3.6742   3.6753   3.7305   3.8146

     the Fermi energy is     3.1404 ev

!    total energy              =   -2917.92294945 Ry
     estimated scf accuracy    <       0.00000005 Ry
     smearing contrib. (-TS)   =      -0.02181783 Ry
     internal energy E=F+TS    =   -2917.90113162 Ry

     The total energy is F=E-TS. E is the sum of the following terms:
     one-electron contribution =  -24778.71457073 Ry
     hartree contribution      =   12473.02907648 Ry
     xc contribution           =    -479.18887456 Ry
     ewald contribution        =    9866.97211769 Ry
     electric field correction =       0.00111950 Ry

     convergence has been achieved in  50 iterations

     Forces acting on atoms (cartesian axes, Ry/au):

     atom    1 type  1   force =     0.00017427   -0.00023963    0.09669167
     atom    2 type  1   force =     0.00006910   -0.00053741   -0.17542091
     atom    3 type  2   force =     0.00017883    0.00000468   -0.02477051
     atom    4 type  2   force =     0.00005544   -0.00133405    0.05290746
     atom    5 type  2   force =    -0.01178335    0.00012959    0.00257845
     atom    6 type  2   force =     0.01395073    0.00051634    0.00338063
     atom    7 type  1   force =     0.00129414    0.00072030   -0.01179234
     atom    8 type  1   force =    -0.00005270    0.00766389    0.02820082
     atom    9 type  2   force =    -0.00024385   -0.00023785   -0.00010356
     atom   10 type  2   force =    -0.00220882    0.00207368   -0.01529459
     atom   11 type  2   force =     0.00000650   -0.00009336    0.00022302
     atom   12 type  2   force =    -0.00003642    0.00014430   -0.00007179
     atom   13 type  1   force =    -0.00104496   -0.00025481   -0.00000506
     atom   14 type  1   force =    -0.00023175   -0.00026435    0.00058345
     atom   15 type  2   force =    -0.00030683   -0.00000566   -0.00025731
     atom   16 type  2   force =     0.00025412    0.00007375   -0.00053771
     atom   17 type  2   force =     0.00005957    0.00007376   -0.00017974
     atom   18 type  2   force =    -0.00012639    0.00031703   -0.00048957
     atom   19 type  1   force =    -0.00062326    0.00010762   -0.00032315
     atom   20 type  1   force =     0.00014103   -0.00088307    0.00021840
     atom   21 type  2   force =     0.00009067   -0.00004991    0.10325987
     atom   22 type  2   force =     0.00044441   -0.00020108    0.00013137
     atom   23 type  2   force =    -0.07148940   -0.00015498   -0.02770266
     atom   24 type  2   force =     0.07147768    0.00033649   -0.02778836
     atom   25 type  1   force =     0.00019105   -0.00022340    0.09619435
     atom   26 type  1   force =     0.00011136   -0.00028833   -0.17555363
     atom   27 type  2   force =     0.00022148   -0.00011725   -0.02386093
     atom   28 type  2   force =     0.00008830   -0.00110127    0.05285169
     atom   29 type  2   force =    -0.01198839    0.00068369    0.00232988
     atom   30 type  2   force =     0.01401882    0.00103366    0.00317923
     atom   31 type  1   force =     0.00113877    0.00335806   -0.01211040
     atom   32 type  1   force =    -0.00024357   -0.00974601    0.02863793
     atom   33 type  2   force =    -0.00017686    0.00031088   -0.00007632
     atom   34 type  2   force =    -0.00173010    0.00175599   -0.02358393
     atom   35 type  2   force =     0.00000159    0.00009047    0.00022359
     atom   36 type  2   force =     0.00055732    0.00012196    0.00020810
     atom   37 type  1   force =    -0.00098160   -0.00038188    0.00027880
     atom   38 type  1   force =     0.00023075   -0.00012211    0.00051811
     atom   39 type  2   force =    -0.00005690   -0.00052545   -0.00077564
     atom   40 type  2   force =    -0.00004492    0.00025421    0.00045829
     atom   41 type  2   force =    -0.00068107   -0.00045876   -0.00013894
     atom   42 type  2   force =    -0.00011614   -0.00074059   -0.00069414
     atom   43 type  1   force =    -0.00047229    0.00000922   -0.00009496
     atom   44 type  1   force =     0.00013322    0.00012962    0.00041281
     atom   45 type  2   force =     0.00006842   -0.00006724    0.10327502
     atom   46 type  2   force =    -0.07149235   -0.00008690   -0.02771316
     atom   47 type  2   force =     0.07150267    0.00033496   -0.02779376
     atom   48 type  3   force =     0.00091499    0.00062964   -0.00109463
     atom   49 type  4   force =    -0.00158952    0.00258129   -0.00372882
     atom   50 type  5   force =     0.00033327   -0.00069237    0.00043181
     atom   51 type  5   force =     0.00001291   -0.00464733    0.00478177

     Total force =     0.368090     Total SCF correction =     0.000683
  @ DRIVER MODE: Message from server: STATUS
  @ DRIVER MODE: Message from server: GETFORCE
  @ DRIVER MODE: Returning v,forces,stress,ensemble

     Writing output data file ./calc.save/
  @ DRIVER MODE: Message from server: EXIT
  @ DRIVE MODE: Exiting

     General routines

     Parallel routines

   This run was terminated on:  16:23:59  24Aug2021

   JOB DONE.