     Program PWSCF v.6.7GPU starts on  5Aug2021 at 21:20: 2

     R & G space division:  proc/nbgrp/npool/nimage =      16
     Reading input from /storage/home/hcoda1/3/ntian30/research/carbon/02Aug_vib_paired/ads_slab/CH3_a/out_0020/pw.inp
Warning: card &CELL ignored
Warning: card   CELL_DYNAMICS='IPI', ignored
Warning: card / ignored

     Current dimensions of program PWSCF are:
     Max number of different atomic species (ntypx) = 10
     Max number of k-points (npk) =  40000
     Max angular momentum in pseudopotentials (lmaxx) =  3
     Presently no symmetry can be used with electric field

     Message from routine cell_base_init:
     DEPRECATED: use true lattice parameter, not A to a.u. conversion factor

     IMPORTANT: XC functional enforced from input :
     Exchange-correlation= BEEF-VDW
                           (   1   4  43  14   2   0   0)
     Any further DFT definition will be discarded
     Please, verify this is what you really want

  @ DRIVER MODE: Connecting to
 qe_1139763_2507748.sched-torque.pace.gatech.eduxey2pq46_scratch
  using UNIX socket
  @ DRIVER MODE: Message from server: STATUS
  @ DRIVER MODE: Message from server: INIT
  @ DRIVER MODE: Receiving replica           0          -1
  @ DRIVER MODE: Receiving encoded integer          25
  @ DRIVER MODE:  SCF:  T  FORCE:  T  STRESS:  F  VC:  F  ENSEMBLE:  F
  @ DRIVER MODE:  SCF:  T  FORCE:  T  STRESS:  F  VC:  F  ENSEMBLE:  F

     Using Slab Decomposition

     bravais-lattice index     =            0
     lattice parameter (alat)  =       1.8897  a.u.
     unit-cell volume          =    6658.9804 (a.u.)^3
     number of atoms/cell      =           51
     number of atomic types    =            4
     number of electrons       =       385.00
     number of Kohn-Sham states=          202
     kinetic-energy cutoff     =      29.3995  Ry
     charge density cutoff     =     293.9946  Ry
     scf convergence threshold =      7.3E-08
     mixing beta               =       0.0500
     number of iterations used =            8  plain     mixing
     Exchange-correlation= BEEF-VDW
                           (   1   4  43  14   2   0   0)

     celldm(1)=   1.889726  celldm(2)=   0.000000  celldm(3)=   0.000000
     celldm(4)=   0.000000  celldm(5)=   0.000000  celldm(6)=   0.000000

     crystal axes: (cart. coord. in units of alat)
               a(1) = (   6.579727   0.000000   0.000000 )
               a(2) = (  -0.000775   5.961596   0.000000 )
               a(3) = (   0.000000   0.000000  25.155947 )

     reciprocal axes: (cart. coord. in units 2 pi/alat)
               b(1) = (  0.151982  0.000020  0.000000 )
               b(2) = (  0.000000  0.167740  0.000000 )
               b(3) = (  0.000000  0.000000  0.039752 )

     PseudoPot. # 1 for Ti read from file:
     /storage/coda1/p-amedford6/0/shared/rich_project_chbe-medford/medford-share/data/pseudos_module/espresso/nninc/pbe/van/Ti.UPF
     MD5 check sum: 8e4df49b7f0d34bbd5052bf3f5ea0213
     Pseudo is Ultrasoft, Zval = 12.0
     Generated by new atomic code, or converted to UPF format
     Using radial grid of  851 points,  6 beta functions with:
                l(1) =   0
                l(2) =   0
                l(3) =   1
                l(4) =   1
                l(5) =   2
                l(6) =   2
     Q(r) pseudized with  8 coefficients,  rinner =    1.000   1.000   1.000
                                                       1.000   1.000

     PseudoPot. # 2 for O  read from file:
     /storage/coda1/p-amedford6/0/shared/rich_project_chbe-medford/medford-share/data/pseudos_module/espresso/nninc/pbe/van/O.UPF
     MD5 check sum: 78c19812648e8988a0fe644b0f25305e
     Pseudo is Ultrasoft, Zval =  6.0
     Generated by new atomic code, or converted to UPF format
     Using radial grid of  737 points,  4 beta functions with:
                l(1) =   0
                l(2) =   0
                l(3) =   1
                l(4) =   1
     Q(r) pseudized with  8 coefficients,  rinner =    0.800   0.800   0.800

     PseudoPot. # 3 for C  read from file:
     /storage/coda1/p-amedford6/0/shared/rich_project_chbe-medford/medford-share/data/pseudos_module/espresso/nninc/pbe/van/C.UPF
     MD5 check sum: 1a69bf6b8db32088f5b2163dbdb77a27
     Pseudo is Ultrasoft, Zval =  4.0
     Generated by new atomic code, or converted to UPF format
     Using radial grid of  721 points,  4 beta functions with:
                l(1) =   0
                l(2) =   0
                l(3) =   1
                l(4) =   1
     Q(r) pseudized with  8 coefficients,  rinner =    0.800   0.800   0.800

     PseudoPot. # 4 for H  read from file:
     /storage/coda1/p-amedford6/0/shared/rich_project_chbe-medford/medford-share/data/pseudos_module/espresso/nninc/pbe/van/H.UPF
     MD5 check sum: b5ee9d7bfd3a09ee7748110bda690ff7
     Pseudo is Ultrasoft, Zval =  1.0
     Generated by new atomic code, or converted to UPF format
     Using radial grid of  615 points,  1 beta functions with:
                l(1) =   0
     Q(r) pseudized with  8 coefficients,  rinner =    0.800

     atomic species   valence    mass     pseudopotential
        Ti1           12.00    47.86700     Ti( 1.00)
        O1             6.00    15.99900     O ( 1.00)
        C1             4.00    12.01100     C ( 1.00)
        H1             1.00     1.00800     H ( 1.00)

     No symmetry found

   Cartesian axes

     site n.     atom                  positions (alat units)
         1           Ti1 tau(   1) = (   0.0004258   2.9801865   6.0000000  )
         2           Ti1 tau(   2) = (   3.2906075   1.4906267   6.0002472  )
         3           O1  tau(   3) = (   0.0006271   0.0005054   7.9858123  )
         4           O1  tau(   4) = (   3.2906025   0.0005020   7.3038282  )
         5           O1  tau(   5) = (   4.5942328   1.4918067   9.2879030  )
         6           O1  tau(   6) = (   1.9868534   1.4903216   9.2879459  )
         7           Ti1 tau(   7) = (   3.3226903   2.9514341   9.1576891  )
         8           Ti1 tau(   8) = (   0.0343464   1.5915341   9.3698150  )
         9           O1  tau(   9) = (   3.2914246   5.9565917  11.3520874  )
        10           O1  tau(  10) = (   0.0056322   0.0001635  10.6062760  )
        11           O1  tau(  11) = (   1.2817320   1.4815673  12.6483243  )
        12           O1  tau(  12) = (   5.2831613   1.4908443  12.6423163  )
        13           Ti1 tau(  13) = (   0.0382653   2.9371430  12.8126397  )
        14           Ti1 tau(  14) = (   3.3532929   1.4821923  12.4951370  )
        15           O1  tau(  15) = (   6.5662424   5.9331786  14.6600200  )
        16           O1  tau(  16) = (   3.2816364   5.9551084  13.9465949  )
        17           O1  tau(  17) = (   4.5315606   1.5040344  16.0986503  )
        18           O1  tau(  18) = (   2.0287349   1.4998145  16.0995964  )
        19           Ti1 tau(  19) = (   3.2668404   2.9769305  15.7222481  )
        20           Ti1 tau(  20) = (   6.5415330   1.4777109  16.1743724  )
        21           O1  tau(  21) = (   3.2904802   0.0005063   4.7018136  )
        22           O1  tau(  22) = (   6.5659521   0.0029676  17.1944956  )
        23           O1  tau(  23) = (   1.3043587   1.4918075   6.0039043  )
        24           O1  tau(  24) = (   5.2767064   1.4903225   6.0039473  )
        25           Ti1 tau(  25) = (   0.0000382   5.9609847   6.0000000  )
        26           Ti1 tau(  26) = (   3.2902200   4.4714249   6.0002472  )
        27           O1  tau(  27) = (   0.0002396   2.9813036   7.9858123  )
        28           O1  tau(  28) = (   3.2902150   2.9813002   7.3038282  )
        29           O1  tau(  29) = (   4.5938453   4.4726049   9.2879030  )
        30           O1  tau(  30) = (   1.9864658   4.4711199   9.2879459  )
        31           Ti1 tau(  31) = (   3.3086233   5.9367107   9.1526142  )
        32           Ti1 tau(  32) = (   0.0357814   4.5182409   9.2638332  )
        33           O1  tau(  33) = (   3.2921447   2.9709340  11.3500156  )
        34           O1  tau(  34) = (   0.0064783   2.9842416  10.5732297  )
        35           O1  tau(  35) = (   1.2836142   4.4569143  12.6423601  )
        36           O1  tau(  36) = (   5.2821634   4.4598214  12.6376843  )
        37           Ti1 tau(  37) = (   0.0453433   5.9192801  12.5257453  )
        38           Ti1 tau(  38) = (   3.3504828   4.4607682  12.4868234  )
        39           O1  tau(  39) = (   0.0004961   2.9772524  14.7247240  )
        40           O1  tau(  40) = (   3.2810368   2.9729593  13.9290527  )
        41           O1  tau(  41) = (   4.5304642   4.4591278  16.0913236  )
        42           O1  tau(  42) = (   2.0231910   4.4609068  16.0933517  )
        43           Ti1 tau(  43) = (   3.2586866   5.9546939  15.7393459  )
        44           Ti1 tau(  44) = (   6.5465221   4.6060206  15.8931146  )
        45           O1  tau(  45) = (   3.2900926   2.9813045   4.7018136  )
        46           O1  tau(  46) = (   1.3039711   4.4726057   6.0039043  )
        47           O1  tau(  47) = (   5.2763189   4.4711207   6.0039473  )
        48           C1  tau(  48) = (   6.5676456   2.8990966  17.8516705  )
        49           H1  tau(  49) = (   6.5659762   3.9554521  18.1205428  )
        50           H1  tau(  50) = (   0.8773746   2.4756544  18.3284787  )
        51           H1  tau(  51) = (   5.6945275   2.4719798  18.3396978  )

     number of k points=    10  Fermi-Dirac smearing, width (Ry)=  0.0073
                       cart. coord. in units 2pi/alat
        k(    1) = (   0.0000000   0.0000000   0.0000000), wk =   0.1250000
        k(    2) = (   0.0000000   0.0419351   0.0000000), wk =   0.2500000
        k(    3) = (   0.0000000  -0.0838702   0.0000000), wk =   0.1250000
        k(    4) = (   0.0379955   0.0000049   0.0000000), wk =   0.2500000
        k(    5) = (   0.0379955   0.0419400   0.0000000), wk =   0.2500000
        k(    6) = (   0.0379955  -0.0838652   0.0000000), wk =   0.2500000
        k(    7) = (   0.0379955  -0.0419301   0.0000000), wk =   0.2500000
        k(    8) = (  -0.0759910  -0.0000099   0.0000000), wk =   0.1250000
        k(    9) = (  -0.0759910   0.0419252   0.0000000), wk =   0.2500000
        k(   10) = (  -0.0759910  -0.0838800   0.0000000), wk =   0.1250000

     Initial potential from superposition of free atoms

     starting charge  368.99918, renormalised to  385.00000

     negative rho (up, down):  2.033E-02 0.000E+00

     %%%%%%%%%%%%%%%%%%%%%%%%%%%%%%%%%%%%%%%%%%%%%%%%%%%%%%%%%%%%%%%%%%%%%%%%
     %                                                                      %
     % You are using vdW-DF, which was implemented by the Thonhauser group. %
     % Please cite the following two papers that made this development      %
     % possible and the two reviews that describe the various versions:     %
     %                                                                      %
     %   T. Thonhauser et al., PRL 115, 136402 (2015).                      %
     %   T. Thonhauser et al., PRB 76, 125112 (2007).                       %
     %   K. Berland et al., Rep. Prog. Phys. 78, 066501 (2015).             %
     %   D.C. Langreth et al., J. Phys.: Condens. Matter 21, 084203 (2009). %
     %                                                                      %
     %                                                                      %
     % If you are calculating the stress with vdW-DF, please also cite:     %
     %                                                                      %
     %   R. Sabatini et al., J. Phys.: Condens. Matter 24, 424209 (2012).   %
     %                                                                      %
     %%%%%%%%%%%%%%%%%%%%%%%%%%%%%%%%%%%%%%%%%%%%%%%%%%%%%%%%%%%%%%%%%%%%%%%%

     Adding external electric field

     Computed dipole along edir(3) :
        Dipole               -1.9974 Ry au,         -5.0769 Debye
        Dipole field         -0.0038 Ry au,

        Potential amp.        0.3494 Ry
        Total length         46.3494 bohr

     Starting wfcs are  291 atomic wfcs
  @ DRIVER MODE: Message from server: STATUS
  @ DRIVER MODE: Message from server: POSDATA
  @ DRIVER MODE: Reading and sharing cell
  @ DRIVER MODE: Reading and sharing positions
  @ DRIVER MODE: Received positions

     Self-consistent Calculation

     iteration #  1     ecut=    29.40 Ry     beta= 0.05
     Davidson diagonalization with overlap
     c_bands:  2 eigenvalues not converged
     c_bands:  1 eigenvalues not converged
     c_bands:  3 eigenvalues not converged
     c_bands:  1 eigenvalues not converged
     ethr =  1.00E-05,  avg # of iterations = 18.5

[...]

     total energy              =   -2900.52666743 Ry
     estimated scf accuracy    <      12.60770350 Ry

     iteration #  2     ecut=    29.40 Ry     beta= 0.05
     Davidson diagonalization with overlap
     ethr =  3.27E-03,  avg # of iterations =  1.0

[...]

     iteration # 51     ecut=    29.40 Ry     beta= 0.05
     Davidson diagonalization with overlap
     c_bands:  1 eigenvalues not converged
     c_bands:  3 eigenvalues not converged
     ethr =  2.71E-10,  avg # of iterations = 17.6

[...]

     total energy              =   -2899.02574077 Ry
     estimated scf accuracy    <       0.00000007 Ry

     iteration # 69     ecut=    29.40 Ry     beta= 0.05
     Davidson diagonalization with overlap
     ethr =  1.94E-11,  avg # of iterations =  9.1

     negative rho (up, down):  1.951E-02 0.000E+00

     Adding external electric field

     Computed dipole along edir(3) :
        Dipole                0.4700 Ry au,          1.1946 Debye
        Dipole field          0.0009 Ry au,

        Potential amp.       -0.0822 Ry
        Total length         46.3494 bohr

     End of self-consistent calculation

          k = 0.0000 0.0000 0.0000 ( 18029 PWs)   bands (ev):

   -56.2364 -56.2156 -56.1998 -56.1794 -56.1262 -56.1250 -56.0886 -56.0731
   -56.0036 -55.9972 -55.9647 -55.9618 -55.8917 -55.8700 -55.2529 -55.2188
   -32.7802 -32.7039 -32.6036 -32.5742 -32.5416 -32.5274 -32.5038 -32.4735
   -32.4637 -32.4594 -32.4448 -32.4425 -32.4379 -32.3981 -32.3971 -32.3629
   -32.3599 -32.3573 -32.3423 -32.3261 -32.3060 -32.3019 -32.2912 -32.2757
   -32.2738 -32.2539 -32.2494 -32.2407 -32.2320 -32.2249 -32.2173 -32.1889
   -32.1652 -32.1570 -32.1386 -32.1310 -32.1096 -32.0980 -32.0907 -32.0797
   -32.0755 -31.9723 -31.6631 -31.5652 -31.5429 -31.4796 -31.3935 -31.2825
   -16.9846 -16.6856 -16.5414 -16.3928 -16.3650 -16.2462 -16.0642 -15.9287
   -15.9144 -15.8395 -15.8117 -15.8063 -15.7759 -15.7579 -15.7494 -15.7429
   -15.6895 -15.6855 -15.6501 -15.6396 -15.6099 -15.5360 -15.5125 -15.4524
   -15.4113 -15.3546 -15.2598 -15.2313 -15.1978 -13.7538 -13.6354  -9.5054
    -4.3412  -4.1724  -4.1469  -4.1277  -4.0436  -3.8050  -3.7870  -3.5414
    -3.4180  -3.3971  -3.3727  -3.3682  -3.3207  -3.1822  -3.0905  -3.0647
    -3.0628  -3.0507  -3.0225  -3.0151  -2.9836  -2.9800  -2.9493  -2.9253
    -2.8984  -2.7309  -2.6534  -2.6473  -2.5872  -2.5375  -2.5227  -2.5049
    -2.4673  -2.4582  -2.4435  -2.4273  -2.3748  -2.2891  -2.2427  -2.1460
    -2.0667  -2.0361  -1.9447  -1.8546  -1.7792  -1.6887  -1.6617  -1.6358
    -1.5593  -1.5535  -1.4862  -1.4406  -1.4245  -1.3309  -1.2664  -1.2344
    -1.1349  -1.0948  -1.0047  -0.9901  -0.9747  -0.9585  -0.9462  -0.7705
    -0.7214  -0.6987  -0.6902  -0.5708  -0.5576  -0.5324  -0.5015  -0.4430
    -0.4032  -0.3492  -0.3195  -0.2723  -0.2543  -0.2483  -0.2319  -0.2083
    -0.1282  -0.0489  -0.0307   0.0631   0.1149   0.2363   0.3026   0.4080
     0.4949   0.6736   0.7714   0.8110   0.8486   0.9395   1.3611   1.4235
     2.9526   2.9943   3.0192   3.0539   3.0659   3.2229   3.3286   3.4055
     3.4075   3.4472

[...]

          k = 0.0380-0.0419 0.0000 ( 17876 PWs)   bands (ev):

[...]

          k =-0.0760-0.0000 0.0000 ( 17886 PWs)   bands (ev):

[...]

          k =-0.0760-0.0839 0.0000 ( 17948 PWs)   bands (ev):

   -56.2248 -56.2113 -56.1982 -56.1966 -56.1199 -56.1150 -56.0986 -56.0792
   -55.9994 -55.9819 -55.9813 -55.9591 -55.8943 -55.8726 -55.2363 -55.2353
   -32.5837 -32.5810 -32.5274 -32.5167 -32.5128 -32.5093 -32.4952 -32.4881
   -32.4526 -32.4365 -32.4251 -32.4212 -32.3912 -32.3720 -32.3657 -32.3565
   -32.3541 -32.3514 -32.3428 -32.3401 -32.3258 -32.3197 -32.3143 -32.3101
   -32.2993 -32.2989 -32.2970 -32.2764 -32.2436 -32.2406 -32.2354 -32.2275
   -32.2010 -32.1846 -32.1836 -32.1751 -32.1638 -32.1346 -32.1271 -32.1191
   -32.0892 -32.0208 -31.5562 -31.5549 -31.4764 -31.4756 -31.4371 -31.4362
   -16.4197 -16.3948 -16.1656 -16.1562 -16.1485 -16.0839 -15.9987 -15.9768
   -15.9599 -15.9556 -15.9010 -15.8824 -15.8737 -15.8373 -15.7796 -15.7715
   -15.7640 -15.7404 -15.6891 -15.6829 -15.6279 -15.6025 -15.5874 -15.5835
   -15.5652 -15.5608 -15.4630 -15.4203 -15.3862 -13.7376 -13.7357  -9.5211
    -3.7124  -3.6808  -3.4169  -3.3708  -3.3656  -3.2876  -3.2054  -3.1731
    -3.1481  -3.1387  -3.0854  -3.0752  -3.0736  -3.0683  -3.0426  -3.0280
    -3.0065  -2.9925  -2.9878  -2.9740  -2.9295  -2.8660  -2.8577  -2.8569
    -2.8451  -2.7998  -2.7897  -2.7827  -2.7635  -2.7628  -2.7082  -2.5105
    -2.4914  -2.4360  -2.3775  -2.3582  -2.3309  -2.3212  -2.2953  -2.2709
    -2.2061  -2.1365  -2.0188  -1.9794  -1.9560  -1.9411  -1.8875  -1.8379
    -1.7229  -1.6822  -1.6553  -1.6368  -1.5709  -1.4976  -1.4730  -1.4577
    -1.3740  -1.3474  -1.3049  -1.2406  -1.2037  -1.1905  -1.1395  -1.1265
    -1.0405  -0.9803  -0.9448  -0.9030  -0.8904  -0.8570  -0.8085  -0.7576
    -0.7447  -0.6838  -0.6219  -0.5262  -0.3154  -0.2302  -0.2204  -0.1784
    -0.1212  -0.0953   0.0118   0.0465   0.0613   0.1553   0.2214   0.2874
     0.3047   0.3300   0.3975   0.8869   1.1315   1.1324   1.2240   1.2343
     3.1568   3.1669   3.1966   3.2638   3.4101   3.4161   3.4353   3.4409
     3.5338   3.5837

     the Fermi energy is     2.9197 ev

!    total energy              =   -2899.02575443 Ry
     estimated scf accuracy    <       0.00000007 Ry
     smearing contrib. (-TS)   =      -0.02330235 Ry
     internal energy E=F+TS    =   -2899.00245208 Ry

     The total energy is F=E-TS. E is the sum of the following terms:
     one-electron contribution =  -24814.70251705 Ry
     hartree contribution      =   12486.29856042 Ry
     xc contribution           =    -474.70661944 Ry
     ewald contribution        =    9904.10770717 Ry
     electric field correction =       0.00041683 Ry

     convergence has been achieved in  69 iterations

     Forces acting on atoms (cartesian axes, Ry/au):

     atom    1 type  1   force =    -0.00012875   -0.00194153    0.10688987
     atom    2 type  1   force =    -0.00037318    0.00069608   -0.18023420
     atom    3 type  2   force =     0.00034941   -0.00662423   -0.03349447
     atom    4 type  2   force =     0.00056908   -0.00062717    0.04571060
     atom    5 type  2   force =    -0.01961077   -0.00121568    0.00436013
     atom    6 type  2   force =     0.02144564   -0.00006966    0.00424633
     atom    7 type  1   force =    -0.00028733    0.00033122   -0.00016981
     atom    8 type  1   force =    -0.00048726    0.00045625    0.00011834
     atom    9 type  2   force =    -0.00004745   -0.00039290   -0.00055816
     atom   10 type  2   force =     0.00010159    0.00046792   -0.00034727
     atom   11 type  2   force =     0.00015469   -0.00002618   -0.00002681
     atom   12 type  2   force =     0.00025351   -0.00015135   -0.00002892
     atom   13 type  1   force =    -0.00054826    0.00007840    0.00066319
     atom   14 type  1   force =    -0.00058820    0.00015794    0.00002321
     atom   15 type  2   force =    -0.00004927    0.00023370   -0.00020222
     atom   16 type  2   force =    -0.00003052   -0.00003311    0.00050779
     atom   17 type  2   force =    -0.00081570   -0.00086322   -0.00010211
     atom   18 type  2   force =     0.00079117   -0.00081703   -0.00044642
     atom   19 type  1   force =    -0.00026845    0.00041640   -0.00028520
     atom   20 type  1   force =     0.00059062    0.00073450    0.00038215
     atom   21 type  2   force =     0.00000196    0.00003879    0.10430170
     atom   22 type  2   force =    -0.00011744   -0.00012027   -0.00065328
     atom   23 type  2   force =    -0.06875365    0.00084389   -0.02964424
     atom   24 type  2   force =     0.06851065    0.00129394   -0.02971292
     atom   25 type  1   force =    -0.00009266    0.00131057    0.11802425
     atom   26 type  1   force =    -0.00020114   -0.00065677   -0.18055612
     atom   27 type  2   force =     0.00055346    0.00239712   -0.02740818
     atom   28 type  2   force =     0.00072901   -0.00048859    0.04722616
     atom   29 type  2   force =    -0.01934936    0.00075767    0.00376400
     atom   30 type  2   force =     0.01930193    0.00249671    0.00344658
     atom   31 type  1   force =    -0.00007881   -0.00075678    0.00032039
     atom   32 type  1   force =    -0.00042516    0.00002976    0.00034026
     atom   33 type  2   force =    -0.00013591    0.00036409   -0.00073796
     atom   34 type  2   force =    -0.00007630    0.00004720   -0.00010528
     atom   35 type  2   force =     0.00043565    0.00023085   -0.00041389
     atom   36 type  2   force =    -0.00080185    0.00002481   -0.00040531
     atom   37 type  1   force =    -0.00054801    0.00050404    0.00061330
     atom   38 type  1   force =     0.00014289   -0.00042762    0.00034181
     atom   39 type  2   force =    -0.00030315   -0.00014453   -0.00017880
     atom   40 type  2   force =    -0.00004464    0.00077839    0.00060896
     atom   41 type  2   force =    -0.00018932    0.00123521   -0.00019210
     atom   42 type  2   force =     0.00040194    0.00130053   -0.00046269
     atom   43 type  1   force =    -0.00022311    0.00063429   -0.00023451
     atom   44 type  1   force =     0.00042300    0.00000175    0.00009574
     atom   45 type  2   force =    -0.00000501    0.00006386    0.10429708
     atom   46 type  2   force =    -0.06828835   -0.00103112   -0.02970832
     atom   47 type  2   force =     0.06813869   -0.00065013   -0.02974870
     atom   48 type  3   force =     0.00707156    0.00173788   -0.00274586
     atom   49 type  4   force =     0.00006368   -0.00076087   -0.00010163
     atom   50 type  4   force =     0.00040811    0.00084352   -0.00071315
     atom   51 type  4   force =    -0.00756926   -0.00270856    0.00333664

     Total force =     0.377527     Total SCF correction =     0.000933
  @ DRIVER MODE: Message from server: STATUS
  @ DRIVER MODE: Message from server: GETFORCE
  @ DRIVER MODE: Returning v,forces,stress,ensemble

     Writing output data file ./calc.save/
  @ DRIVER MODE: Message from server: EXIT
  @ DRIVE MODE: Exiting

     General routines

     Parallel routines

   This run was terminated on:  21:52: 0   5Aug2021

   JOB DONE.