     Program PWSCF v.6.7GPU starts on 12Oct2021 at  9:27: 5

     R & G space division:  proc/nbgrp/npool/nimage =       8
     Reading input from /storage/home/hcoda1/3/ntian30/research/carbon/ACS_vib/ads_slab/HNNH2/out_0002/pw.inp
Warning: card &CELL ignored
Warning: card   CELL_DYNAMICS='IPI', ignored
Warning: card / ignored

     Current dimensions of program PWSCF are:
     Max number of different atomic species (ntypx) = 10
     Max number of k-points (npk) =  40000
     Max angular momentum in pseudopotentials (lmaxx) =  3
     Presently no symmetry can be used with electric field

     Message from routine cell_base_init:
     DEPRECATED: use true lattice parameter, not A to a.u. conversion factor

     IMPORTANT: XC functional enforced from input :
     Exchange-correlation= BEEF-VDW
                           (   1   4  43  14   2   0   0)
     Any further DFT definition will be discarded
     Please, verify this is what you really want

  @ DRIVER MODE: Connecting to
 qe_1139763_3181312.sched-torque.pace.gatech.edu61hcb0to_scratch
  using UNIX socket
  @ DRIVER MODE: Message from server: STATUS
  @ DRIVER MODE: Message from server: INIT
  @ DRIVER MODE: Receiving replica           0          -1
  @ DRIVER MODE: Receiving encoded integer          25
  @ DRIVER MODE:  SCF:  T  FORCE:  T  STRESS:  F  VC:  F  ENSEMBLE:  F
  @ DRIVER MODE:  SCF:  T  FORCE:  T  STRESS:  F  VC:  F  ENSEMBLE:  F

     Using Slab Decomposition

     bravais-lattice index     =            0
     lattice parameter (alat)  =       1.8897  a.u.
     unit-cell volume          =    6658.9804 (a.u.)^3
     number of atoms/cell      =           52
     number of atomic types    =            4
     number of electrons       =       391.00
     number of Kohn-Sham states=          205
     kinetic-energy cutoff     =      29.3995  Ry
     charge density cutoff     =     293.9946  Ry
     scf convergence threshold =      7.3E-08
     mixing beta               =       0.0500
     number of iterations used =            8  plain     mixing
     Exchange-correlation= BEEF-VDW
                           (   1   4  43  14   2   0   0)

     celldm(1)=   1.889726  celldm(2)=   0.000000  celldm(3)=   0.000000
     celldm(4)=   0.000000  celldm(5)=   0.000000  celldm(6)=   0.000000

     crystal axes: (cart. coord. in units of alat)
               a(1) = (   6.579727   0.000000   0.000000 )
               a(2) = (  -0.000775   5.961596   0.000000 )
               a(3) = (   0.000000   0.000000  25.155947 )

     reciprocal axes: (cart. coord. in units 2 pi/alat)
               b(1) = (  0.151982  0.000020  0.000000 )
               b(2) = (  0.000000  0.167740  0.000000 )
               b(3) = (  0.000000  0.000000  0.039752 )

     PseudoPot. # 1 for Ti read from file:
     /storage/coda1/p-amedford6/0/shared/rich_project_chbe-medford/medford-share/data/pseudos_module/espresso/nninc/pbe/van/Ti.UPF
     MD5 check sum: 8e4df49b7f0d34bbd5052bf3f5ea0213
     Pseudo is Ultrasoft, Zval = 12.0
     Generated by new atomic code, or converted to UPF format
     Using radial grid of  851 points,  6 beta functions with:
                l(1) =   0
                l(2) =   0
                l(3) =   1
                l(4) =   1
                l(5) =   2
                l(6) =   2
     Q(r) pseudized with  8 coefficients,  rinner =    1.000   1.000   1.000
                                                       1.000   1.000

     PseudoPot. # 2 for O  read from file:
     /storage/coda1/p-amedford6/0/shared/rich_project_chbe-medford/medford-share/data/pseudos_module/espresso/nninc/pbe/van/O.UPF
     MD5 check sum: 78c19812648e8988a0fe644b0f25305e
     Pseudo is Ultrasoft, Zval =  6.0
     Generated by new atomic code, or converted to UPF format
     Using radial grid of  737 points,  4 beta functions with:
                l(1) =   0
                l(2) =   0
                l(3) =   1
                l(4) =   1
     Q(r) pseudized with  8 coefficients,  rinner =    0.800   0.800   0.800

     PseudoPot. # 3 for H  read from file:
     /storage/coda1/p-amedford6/0/shared/rich_project_chbe-medford/medford-share/data/pseudos_module/espresso/nninc/pbe/van/H.UPF
     MD5 check sum: b5ee9d7bfd3a09ee7748110bda690ff7
     Pseudo is Ultrasoft, Zval =  1.0
     Generated by new atomic code, or converted to UPF format
     Using radial grid of  615 points,  1 beta functions with:
                l(1) =   0
     Q(r) pseudized with  8 coefficients,  rinner =    0.800

     PseudoPot. # 4 for N  read from file:
     /storage/coda1/p-amedford6/0/shared/rich_project_chbe-medford/medford-share/data/pseudos_module/espresso/nninc/pbe/van/N.UPF
     MD5 check sum: 90d10febe142ad51ac9d5be1deb811c4
     Pseudo is Ultrasoft, Zval =  5.0
     Generated by new atomic code, or converted to UPF format
     Using radial grid of  729 points,  4 beta functions with:
                l(1) =   0
                l(2) =   0
                l(3) =   1
                l(4) =   1
     Q(r) pseudized with  8 coefficients,  rinner =    0.800   0.800   0.800

     atomic species   valence    mass     pseudopotential
        Ti1           12.00    47.86700     Ti( 1.00)
        O1             6.00    15.99900     O ( 1.00)
        H1             1.00     1.00800     H ( 1.00)
        N1             5.00    14.00700     N ( 1.00)

     No symmetry found

   Cartesian axes

     site n.     atom                  positions (alat units)
         1           Ti1 tau(   1) = (   0.0004258   2.9801865   6.0000000  )
         2           Ti1 tau(   2) = (   3.2906075   1.4906267   6.0002472  )
         3           O1  tau(   3) = (   0.0006271   0.0005054   7.9858123  )
         4           O1  tau(   4) = (   3.2906025   0.0005020   7.3038282  )
         5           O1  tau(   5) = (   4.5942328   1.4918067   9.2879030  )
         6           O1  tau(   6) = (   1.9868534   1.4903216   9.2879459  )
         7           Ti1 tau(   7) = (   3.2908112   2.9011704   9.1816539  )
         8           Ti1 tau(   8) = (   0.0015097   1.3932332   9.2931702  )
         9           O1  tau(   9) = (   3.2819087   5.9526348  11.3504271  )
        10           O1  tau(  10) = (   6.5772260   5.9545827  10.6088576  )
        11           O1  tau(  11) = (   1.2874804   1.4832564  12.6509691  )
        12           O1  tau(  12) = (   5.2781146   1.4858874  12.6440994  )
        13           Ti1 tau(  13) = (   6.5585775   2.9503744  12.8030734  )
        14           Ti1 tau(  14) = (   3.2696126   1.4733128  12.4944632  )
        15           O1  tau(  15) = (   6.5513721   5.9458199  14.6768215  )
        16           O1  tau(  16) = (   3.2879482   5.9481552  13.9547078  )
        17           O1  tau(  17) = (   4.5181657   1.4884665  16.1124167  )
        18           O1  tau(  18) = (   2.0188244   1.4835402  16.0984261  )
        19           Ti1 tau(  19) = (   3.2766105   2.9578040  15.7125626  )
        20           Ti1 tau(  20) = (   0.0270592   1.3580474  16.0627221  )
        21           O1  tau(  21) = (   3.2904802   0.0005063   4.7018136  )
        22           O1  tau(  22) = (   0.0072818   5.9434210  17.2237418  )
        23           O1  tau(  23) = (   1.3043587   1.4918075   6.0039043  )
        24           O1  tau(  24) = (   5.2767064   1.4903225   6.0039473  )
        25           Ti1 tau(  25) = (   0.0000382   5.9609847   6.0000000  )
        26           Ti1 tau(  26) = (   3.2902200   4.4714249   6.0002472  )
        27           O1  tau(  27) = (   0.0002396   2.9813036   7.9858123  )
        28           O1  tau(  28) = (   3.2902150   2.9813002   7.3038282  )
        29           O1  tau(  29) = (   4.5938453   4.4726049   9.2879030  )
        30           O1  tau(  30) = (   1.9864658   4.4711199   9.2879459  )
        31           Ti1 tau(  31) = (   3.2900885   5.8829342   9.1674613  )
        32           Ti1 tau(  32) = (   0.0009626   4.3321112   9.3579051  )
        33           O1  tau(  33) = (   3.2805539   2.9674959  11.3464436  )
        34           O1  tau(  34) = (   6.5791951   2.9642230  10.5753725  )
        35           O1  tau(  35) = (   1.2880645   4.4660911  12.6414962  )
        36           O1  tau(  36) = (   5.2770833   4.4616490  12.6331305  )
        37           Ti1 tau(  37) = (   6.5652171   5.9330851  12.5680926  )
        38           Ti1 tau(  38) = (   3.2703904   4.4534766  12.4879229  )
        39           O1  tau(  39) = (   6.5642693   2.9891374  14.6930774  )
        40           O1  tau(  40) = (   3.2814391   2.9717942  13.9260038  )
        41           O1  tau(  41) = (   4.5200678   4.4336085  16.1105754  )
        42           O1  tau(  42) = (   2.0169658   4.4359636  16.1171003  )
        43           Ti1 tau(  43) = (   3.3139371   5.9425984  15.7429620  )
        44           Ti1 tau(  44) = (   0.0173840   4.5100783  16.0001754  )
        45           O1  tau(  45) = (   3.2900926   2.9813045   4.7018136  )
        46           O1  tau(  46) = (   1.3039711   4.4726057   6.0039043  )
        47           O1  tau(  47) = (   5.2763189   4.4711207   6.0039473  )
        48           H1  tau(  48) = (   5.5910648   2.9993886  17.8866560  )
        49           N1  tau(  49) = (   6.5184219   2.9788514  17.4915934  )
        50           N1  tau(  50) = (   0.8269126   2.9775512  18.6276789  )
        51           H1  tau(  51) = (   1.2125983   2.0437984  18.7562651  )
        52           H1  tau(  52) = (   1.5963704   3.6133177  18.4401992  )

     number of k points=    10  Fermi-Dirac smearing, width (Ry)=  0.0073
                       cart. coord. in units 2pi/alat
        k(    1) = (   0.0000000   0.0000000   0.0000000), wk =   0.1250000
        k(    2) = (   0.0000000   0.0419351   0.0000000), wk =   0.2500000
        k(    3) = (   0.0000000  -0.0838702   0.0000000), wk =   0.1250000
        k(    4) = (   0.0379955   0.0000049   0.0000000), wk =   0.2500000
        k(    5) = (   0.0379955   0.0419400   0.0000000), wk =   0.2500000
        k(    6) = (   0.0379955  -0.0838652   0.0000000), wk =   0.2500000
        k(    7) = (   0.0379955  -0.0419301   0.0000000), wk =   0.2500000
        k(    8) = (  -0.0759910  -0.0000099   0.0000000), wk =   0.1250000
        k(    9) = (  -0.0759910   0.0419252   0.0000000), wk =   0.2500000
        k(   10) = (  -0.0759910  -0.0838800   0.0000000), wk =   0.1250000

     Initial potential from superposition of free atoms

     starting charge  374.99920, renormalised to  391.00000

     negative rho (up, down):  1.966E-02 0.000E+00

     %%%%%%%%%%%%%%%%%%%%%%%%%%%%%%%%%%%%%%%%%%%%%%%%%%%%%%%%%%%%%%%%%%%%%%%%
     %                                                                      %
     % You are using vdW-DF, which was implemented by the Thonhauser group. %
     % Please cite the following two papers that made this development      %
     % possible and the two reviews that describe the various versions:     %
     %                                                                      %
     %   T. Thonhauser et al., PRL 115, 136402 (2015).                      %
     %   T. Thonhauser et al., PRB 76, 125112 (2007).                       %
     %   K. Berland et al., Rep. Prog. Phys. 78, 066501 (2015).             %
     %   D.C. Langreth et al., J. Phys.: Condens. Matter 21, 084203 (2009). %
     %                                                                      %
     %                                                                      %
     % If you are calculating the stress with vdW-DF, please also cite:     %
     %                                                                      %
     %   R. Sabatini et al., J. Phys.: Condens. Matter 24, 424209 (2012).   %
     %                                                                      %
     %%%%%%%%%%%%%%%%%%%%%%%%%%%%%%%%%%%%%%%%%%%%%%%%%%%%%%%%%%%%%%%%%%%%%%%%

     Adding external electric field

     Computed dipole along edir(3) :
        Dipole               -5.4650 Ry au,        -13.8907 Debye
        Dipole field         -0.0103 Ry au,

        Potential amp.        0.9560 Ry
        Total length         46.3494 bohr

     Starting wfcs are  295 atomic wfcs
  @ DRIVER MODE: Message from server: STATUS
  @ DRIVER MODE: Message from server: POSDATA
  @ DRIVER MODE: Reading and sharing cell
  @ DRIVER MODE: Reading and sharing positions
  @ DRIVER MODE: Received positions

     Self-consistent Calculation

     iteration #  1     ecut=    29.40 Ry     beta= 0.05
     Davidson diagonalization with overlap
     c_bands:  3 eigenvalues not converged
     c_bands:  1 eigenvalues not converged
     c_bands:  2 eigenvalues not converged
     c_bands:  3 eigenvalues not converged
     c_bands:  4 eigenvalues not converged
     c_bands:  2 eigenvalues not converged
     c_bands:  1 eigenvalues not converged
     c_bands:  1 eigenvalues not converged
     c_bands:  2 eigenvalues not converged
     ethr =  1.00E-05,  avg # of iterations = 19.9

[...]

     total energy              =   -2794.96909355 Ry
     estimated scf accuracy    <    1457.12796974 Ry

     iteration #  2     ecut=    29.40 Ry     beta= 0.05
     Davidson diagonalization with overlap
     ethr =  1.00E-02,  avg # of iterations = 16.6

[...]

     iteration # 62     ecut=    29.40 Ry     beta= 0.05
     Davidson diagonalization with overlap
     c_bands:  1 eigenvalues not converged
     ethr =  2.02E-10,  avg # of iterations =  6.8

[...]

     total energy              =   -2927.71115555 Ry
     estimated scf accuracy    <       0.00000010 Ry

     iteration # 67     ecut=    29.40 Ry     beta= 0.05
     Davidson diagonalization with overlap
     ethr =  2.60E-11,  avg # of iterations =  9.4

     negative rho (up, down):  1.937E-02 0.000E+00

     Adding external electric field

     Computed dipole along edir(3) :
        Dipole                0.4594 Ry au,          1.1676 Debye
        Dipole field          0.0009 Ry au,

        Potential amp.       -0.0804 Ry
        Total length         46.3494 bohr

     End of self-consistent calculation

          k = 0.0000 0.0000 0.0000 ( 18029 PWs)   bands (ev):

   -56.1409 -56.1254 -56.1051 -56.0892 -56.0428 -56.0093 -55.9691 -55.9450
   -55.8952 -55.8819 -55.8675 -55.8315 -55.7617 -55.7564 -55.0774 -55.0433
   -32.6968 -32.6007 -32.4824 -32.4707 -32.4599 -32.4281 -32.4022 -32.3843
   -32.3745 -32.3533 -32.3482 -32.3446 -32.3312 -32.3069 -32.3031 -32.2823
   -32.2762 -32.2551 -32.2238 -32.2123 -32.2089 -32.1912 -32.1596 -32.1540
   -32.1521 -32.1325 -32.1306 -32.1066 -32.0996 -32.0954 -32.0949 -32.0745
   -32.0730 -32.0398 -32.0176 -32.0160 -31.9801 -31.9767 -31.9682 -31.9553
   -31.9411 -31.8984 -31.4846 -31.3961 -31.3732 -31.3008 -31.2144 -31.1039
   -16.9043 -16.6739 -16.5266 -16.3754 -16.2655 -16.2419 -16.1849 -15.9066
   -15.8395 -15.7779 -15.7597 -15.7383 -15.7273 -15.6639 -15.6630 -15.6289
   -15.5846 -15.5502 -15.5393 -15.5099 -15.5025 -15.4534 -15.4284 -15.3985
   -15.3640 -15.2801 -15.2256 -15.1546 -15.1180 -15.0790 -13.5813 -13.4653
   -11.3074  -5.2644  -4.6109  -4.2497  -4.1390  -4.0494  -3.9981  -3.9312
    -3.7870  -3.7249  -3.5905  -3.3397  -3.3022  -3.2879  -3.2585  -3.2208
    -3.0330  -2.9833  -2.9472  -2.9253  -2.9195  -2.9124  -2.8747  -2.8424
    -2.8350  -2.8322  -2.7166  -2.6450  -2.5573  -2.5500  -2.4771  -2.4392
    -2.4148  -2.4111  -2.3707  -2.3476  -2.3266  -2.3087  -2.2830  -2.1808
    -2.1558  -2.0727  -1.9836  -1.8986  -1.7767  -1.7134  -1.7016  -1.5744
    -1.5147  -1.5123  -1.4786  -1.4570  -1.4172  -1.3402  -1.3024  -1.2551
    -1.1757  -1.1320  -1.0623  -1.0333  -1.0181  -0.9779  -0.9027  -0.8540
    -0.8470  -0.8360  -0.6304  -0.6030  -0.5934  -0.5791  -0.4609  -0.3796
    -0.3623  -0.3324  -0.3157  -0.3031  -0.2495  -0.1586  -0.1298  -0.1179
    -0.0986  -0.0127   0.0571   0.0645   0.0979   0.1862   0.2095   0.3259
     0.3908   0.5666   0.6022   0.7181   0.8632   0.9421   0.9761   1.1364
     1.5224   1.5599   1.5731   3.0558   3.0736   3.1109   3.1317   3.2683
     3.3780   3.3819   3.4802   3.5011   3.5533

[...]

          k = 0.0380-0.0419 0.0000 ( 17876 PWs)   bands (ev):

[...]

          k =-0.0760-0.0000 0.0000 ( 17886 PWs)   bands (ev):

[...]

          k =-0.0760-0.0839 0.0000 ( 17948 PWs)   bands (ev):

   -56.1288 -56.1171 -56.1081 -56.1064 -56.0385 -56.0048 -55.9732 -55.9494
   -55.8930 -55.8789 -55.8564 -55.8429 -55.7638 -55.7587 -55.0606 -55.0600
   -32.5007 -32.4972 -32.4338 -32.4242 -32.4171 -32.4111 -32.4011 -32.3994
   -32.3381 -32.3376 -32.3339 -32.3045 -32.3025 -32.2864 -32.2715 -32.2578
   -32.2498 -32.2484 -32.2354 -32.2334 -32.2208 -32.2095 -32.1949 -32.1844
   -32.1766 -32.1677 -32.1652 -32.1600 -32.1430 -32.1081 -32.0872 -32.0854
   -32.0845 -32.0665 -32.0661 -32.0599 -32.0486 -32.0220 -32.0189 -31.9915
   -31.9493 -31.9479 -31.3864 -31.3856 -31.2979 -31.2971 -31.2579 -31.2572
   -16.5542 -16.3598 -16.3135 -16.0817 -16.0664 -16.0238 -15.9463 -15.8935
   -15.8883 -15.8637 -15.8561 -15.7963 -15.7858 -15.7737 -15.7456 -15.6488
   -15.6471 -15.6354 -15.6165 -15.5549 -15.5393 -15.5051 -15.4744 -15.4652
   -15.4384 -15.4104 -15.3802 -15.3584 -15.2976 -15.2800 -13.5675 -13.5667
   -11.3154  -5.2629  -4.5712  -3.7076  -3.6481  -3.5988  -3.2947  -3.2768
    -3.2482  -3.1335  -3.0655  -3.0395  -3.0067  -2.9777  -2.9421  -2.9307
    -2.9157  -2.9114  -2.9031  -2.9004  -2.8690  -2.8389  -2.8234  -2.7769
    -2.7491  -2.7417  -2.7242  -2.7081  -2.7032  -2.6534  -2.6498  -2.6448
    -2.6362  -2.5196  -2.3863  -2.3693  -2.3311  -2.2122  -2.1886  -2.1825
    -2.1530  -2.1419  -2.1363  -2.0798  -1.9749  -1.8698  -1.8208  -1.7999
    -1.7761  -1.7142  -1.5977  -1.5470  -1.5361  -1.5050  -1.4432  -1.4235
    -1.3724  -1.3663  -1.2615  -1.2345  -1.2111  -1.1365  -1.0752  -1.0575
    -1.0351  -0.9766  -0.9293  -0.9083  -0.9014  -0.8541  -0.7534  -0.7447
    -0.6962  -0.6855  -0.6332  -0.6276  -0.5745  -0.4458  -0.2051  -0.1671
    -0.0946  -0.0720   0.0196   0.0517   0.0790   0.1737   0.2022   0.3037
     0.3441   0.4390   0.4458   0.4615   0.5040   0.6669   1.3070   1.3097
     1.3832   1.3896   1.5620   3.2121   3.2497   3.2744   3.3382   3.5187
     3.5422   3.5432   3.5579   3.5903   3.6608

     the Fermi energy is     3.0142 ev

!    total energy              =   -2927.71117564 Ry
     estimated scf accuracy    <       0.00000006 Ry
     smearing contrib. (-TS)   =      -0.02327140 Ry
     internal energy E=F+TS    =   -2927.68790424 Ry

     The total energy is F=E-TS. E is the sum of the following terms:
     one-electron contribution =  -24559.89306205 Ry
     hartree contribution      =   12363.12403856 Ry
     xc contribution           =    -481.66063998 Ry
     ewald contribution        =    9750.74136098 Ry
     electric field correction =       0.00039825 Ry

     convergence has been achieved in  67 iterations

     Forces acting on atoms (cartesian axes, Ry/au):

     atom    1 type  1   force =     0.00025992    0.00111969    0.11028411
     atom    2 type  1   force =     0.00005944    0.00172561   -0.17424513
     atom    3 type  2   force =     0.00010733    0.00665597   -0.03418505
     atom    4 type  2   force =     0.00001563   -0.00085625    0.05080595
     atom    5 type  2   force =    -0.01744802   -0.00134867    0.00575950
     atom    6 type  2   force =     0.01689889   -0.00101816    0.00538682
     atom    7 type  1   force =     0.00006978    0.00260494   -0.01785626
     atom    8 type  1   force =    -0.00002056    0.00012487    0.00031560
     atom    9 type  2   force =    -0.00001349    0.00009464   -0.00039625
     atom   10 type  2   force =     0.00000180   -0.00051133   -0.00006515
     atom   11 type  2   force =     0.00010069   -0.00025745   -0.00005014
     atom   12 type  2   force =    -0.00009878   -0.00036816   -0.00020968
     atom   13 type  1   force =    -0.00038471   -0.00034715    0.00004978
     atom   14 type  1   force =    -0.00075599    0.00008120   -0.00011621
     atom   15 type  2   force =    -0.00011556   -0.00028539    0.00068172
     atom   16 type  2   force =     0.00011616   -0.00014942   -0.00028926
     atom   17 type  2   force =     0.00018609   -0.00023562    0.00054093
     atom   18 type  2   force =     0.00095995   -0.00049570    0.00046019
     atom   19 type  1   force =    -0.00002496    0.00037327    0.00011478
     atom   20 type  1   force =    -0.00010342   -0.00085591    0.00098917
     atom   21 type  2   force =     0.00009681    0.00006686    0.10309802
     atom   22 type  2   force =     0.00006417    0.00050138   -0.00153255
     atom   23 type  2   force =    -0.07110635    0.00062661   -0.03026263
     atom   24 type  2   force =     0.07107132    0.00104302   -0.03027080
     atom   25 type  1   force =     0.00005434   -0.00109722    0.11742771
     atom   26 type  1   force =     0.00004583   -0.00256220   -0.17408685
     atom   27 type  2   force =     0.00006930   -0.00281584   -0.02989744
     atom   28 type  2   force =     0.00002462   -0.00148773    0.05396665
     atom   29 type  2   force =    -0.01860409    0.00056758    0.00665918
     atom   30 type  2   force =     0.01808285    0.00123923    0.00630206
     atom   31 type  1   force =     0.00039972   -0.00271749   -0.01224174
     atom   32 type  1   force =     0.00000317    0.00038771    0.00069512
     atom   33 type  2   force =     0.00002326   -0.00009160   -0.00045017
     atom   34 type  2   force =     0.00006837    0.00031689    0.00040287
     atom   35 type  2   force =     0.00000913    0.00006418   -0.00028228
     atom   36 type  2   force =     0.00006442    0.00001609   -0.00031789
     atom   37 type  1   force =    -0.00050266   -0.00043323    0.00098310
     atom   38 type  1   force =    -0.00070423    0.00003752   -0.00013780
     atom   39 type  2   force =    -0.00012378   -0.00062891   -0.00040834
     atom   40 type  2   force =     0.00001177   -0.00009587   -0.00061641
     atom   41 type  2   force =    -0.00018244    0.00013617    0.00049504
     atom   42 type  2   force =     0.00079926    0.00038135    0.00001228
     atom   43 type  1   force =     0.00029469   -0.00019170   -0.00002051
     atom   44 type  1   force =     0.00050575    0.00064242    0.00046993
     atom   45 type  2   force =     0.00008099    0.00013766    0.10302809
     atom   46 type  2   force =    -0.07139747   -0.00054979   -0.03019452
     atom   47 type  2   force =     0.07136319   -0.00010797   -0.03024478
     atom   48 type  3   force =    -0.01369675    0.00054306    0.00477319
     atom   49 type  4   force =     0.01300566   -0.00031634   -0.00485018
     atom   50 type  4   force =     0.00088943   -0.00062059   -0.00068538
     atom   51 type  3   force =    -0.00008066    0.00059892   -0.00033708
     atom   52 type  3   force =    -0.00043978    0.00035883    0.00054872

     Total force =     0.376514     Total SCF correction =     0.000841
  @ DRIVER MODE: Message from server: STATUS
  @ DRIVER MODE: Message from server: GETFORCE
  @ DRIVER MODE: Returning v,forces,stress,ensemble

     Writing output data file ./calc.save/
  @ DRIVER MODE: Message from server: EXIT
  @ DRIVE MODE: Exiting

     General routines

     Parallel routines

   This run was terminated on:   9:48:24  12Oct2021

   JOB DONE.