     Program PWSCF v.6.7GPU starts on 16Sep2021 at  5: 4:31

     R & G space division:  proc/nbgrp/npool/nimage =      10
     Reading input from /storage/home/hcoda1/3/ntian30/research/carbon/CxH_vib/H2O_calc/ads_slab/CH3N2H2O_c/out_0042/pw.inp
Warning: card &CELL ignored
Warning: card   CELL_DYNAMICS='IPI', ignored
Warning: card / ignored

     Current dimensions of program PWSCF are:
     Max number of different atomic species (ntypx) = 10
     Max number of k-points (npk) =  40000
     Max angular momentum in pseudopotentials (lmaxx) =  3
     Presently no symmetry can be used with electric field

     Message from routine cell_base_init:
     DEPRECATED: use true lattice parameter, not A to a.u. conversion factor

     IMPORTANT: XC functional enforced from input :
     Exchange-correlation= BEEF-VDW
                           (   1   4  43  14   2   0   0)
     Any further DFT definition will be discarded
     Please, verify this is what you really want

  @ DRIVER MODE: Connecting to
 qe_1139763_2852616.sched-torque.pace.gatech.edujswykv_2_scratch
  using UNIX socket
  @ DRIVER MODE: Message from server: STATUS
  @ DRIVER MODE: Message from server: INIT
  @ DRIVER MODE: Receiving replica           0          -1
  @ DRIVER MODE: Receiving encoded integer          25
  @ DRIVER MODE:  SCF:  T  FORCE:  T  STRESS:  F  VC:  F  ENSEMBLE:  F
  @ DRIVER MODE:  SCF:  T  FORCE:  T  STRESS:  F  VC:  F  ENSEMBLE:  F

     Using Slab Decomposition

     bravais-lattice index     =            0
     lattice parameter (alat)  =       1.8897  a.u.
     unit-cell volume          =    6658.9804 (a.u.)^3
     number of atoms/cell      =           56
     number of atomic types    =            5
     number of electrons       =       403.00
     number of Kohn-Sham states=          211
     kinetic-energy cutoff     =      29.3995  Ry
     charge density cutoff     =     293.9946  Ry
     scf convergence threshold =      7.3E-08
     mixing beta               =       0.0500
     number of iterations used =            8  plain     mixing
     Exchange-correlation= BEEF-VDW
                           (   1   4  43  14   2   0   0)

     celldm(1)=   1.889726  celldm(2)=   0.000000  celldm(3)=   0.000000
     celldm(4)=   0.000000  celldm(5)=   0.000000  celldm(6)=   0.000000

     crystal axes: (cart. coord. in units of alat)
               a(1) = (   6.579727   0.000000   0.000000 )
               a(2) = (  -0.000775   5.961596   0.000000 )
               a(3) = (   0.000000   0.000000  25.155947 )

     reciprocal axes: (cart. coord. in units 2 pi/alat)
               b(1) = (  0.151982  0.000020  0.000000 )
               b(2) = (  0.000000  0.167740  0.000000 )
               b(3) = (  0.000000  0.000000  0.039752 )

     PseudoPot. # 1 for Ti read from file:
     /storage/coda1/p-amedford6/0/shared/rich_project_chbe-medford/medford-share/data/pseudos_module/espresso/nninc/pbe/van/Ti.UPF
     MD5 check sum: 8e4df49b7f0d34bbd5052bf3f5ea0213
     Pseudo is Ultrasoft, Zval = 12.0
     Generated by new atomic code, or converted to UPF format
     Using radial grid of  851 points,  6 beta functions with:
                l(1) =   0
                l(2) =   0
                l(3) =   1
                l(4) =   1
                l(5) =   2
                l(6) =   2
     Q(r) pseudized with  8 coefficients,  rinner =    1.000   1.000   1.000
                                                       1.000   1.000

     PseudoPot. # 2 for O  read from file:
     /storage/coda1/p-amedford6/0/shared/rich_project_chbe-medford/medford-share/data/pseudos_module/espresso/nninc/pbe/van/O.UPF
     MD5 check sum: 78c19812648e8988a0fe644b0f25305e
     Pseudo is Ultrasoft, Zval =  6.0
     Generated by new atomic code, or converted to UPF format
     Using radial grid of  737 points,  4 beta functions with:
                l(1) =   0
                l(2) =   0
                l(3) =   1
                l(4) =   1
     Q(r) pseudized with  8 coefficients,  rinner =    0.800   0.800   0.800

     PseudoPot. # 3 for N  read from file:
     /storage/coda1/p-amedford6/0/shared/rich_project_chbe-medford/medford-share/data/pseudos_module/espresso/nninc/pbe/van/N.UPF
     MD5 check sum: 90d10febe142ad51ac9d5be1deb811c4
     Pseudo is Ultrasoft, Zval =  5.0
     Generated by new atomic code, or converted to UPF format
     Using radial grid of  729 points,  4 beta functions with:
                l(1) =   0
                l(2) =   0
                l(3) =   1
                l(4) =   1
     Q(r) pseudized with  8 coefficients,  rinner =    0.800   0.800   0.800

     PseudoPot. # 4 for C  read from file:
     /storage/coda1/p-amedford6/0/shared/rich_project_chbe-medford/medford-share/data/pseudos_module/espresso/nninc/pbe/van/C.UPF
     MD5 check sum: 1a69bf6b8db32088f5b2163dbdb77a27
     Pseudo is Ultrasoft, Zval =  4.0
     Generated by new atomic code, or converted to UPF format
     Using radial grid of  721 points,  4 beta functions with:
                l(1) =   0
                l(2) =   0
                l(3) =   1
                l(4) =   1
     Q(r) pseudized with  8 coefficients,  rinner =    0.800   0.800   0.800

     PseudoPot. # 5 for H  read from file:
     /storage/coda1/p-amedford6/0/shared/rich_project_chbe-medford/medford-share/data/pseudos_module/espresso/nninc/pbe/van/H.UPF
     MD5 check sum: b5ee9d7bfd3a09ee7748110bda690ff7
     Pseudo is Ultrasoft, Zval =  1.0
     Generated by new atomic code, or converted to UPF format
     Using radial grid of  615 points,  1 beta functions with:
                l(1) =   0
     Q(r) pseudized with  8 coefficients,  rinner =    0.800

     atomic species   valence    mass     pseudopotential
        Ti1           12.00    47.86700     Ti( 1.00)
        O1             6.00    15.99900     O ( 1.00)
        N1             5.00    14.00700     N ( 1.00)
        C1             4.00    12.01100     C ( 1.00)
        H1             1.00     1.00800     H ( 1.00)

     No symmetry found

   Cartesian axes

     site n.     atom                  positions (alat units)
         1           Ti1 tau(   1) = (   0.0004258   2.9801865   6.0000000  )
         2           Ti1 tau(   2) = (   3.2906075   1.4906267   6.0002472  )
         3           O1  tau(   3) = (   0.0006271   0.0005054   7.9858123  )
         4           O1  tau(   4) = (   3.2906025   0.0005020   7.3038282  )
         5           O1  tau(   5) = (   4.5942328   1.4918067   9.2879030  )
         6           O1  tau(   6) = (   1.9868534   1.4903216   9.2879459  )
         7           Ti1 tau(   7) = (   3.2907910   2.8959150   9.1758416  )
         8           Ti1 tau(   8) = (   0.0015273   1.4827037   9.2680791  )
         9           O1  tau(   9) = (   3.2828550   5.9398922  11.3444325  )
        10           O1  tau(  10) = (   0.0116148   5.9584955  10.6183126  )
        11           O1  tau(  11) = (   1.2785533   1.4626539  12.6279770  )
        12           O1  tau(  12) = (   5.2704455   1.4657548  12.6160130  )
        13           Ti1 tau(  13) = (   0.0600808   2.9393476  12.6134163  )
        14           Ti1 tau(  14) = (   3.3737088   1.4602624  12.5010433  )
        15           O1  tau(  15) = (   6.5684750   5.9323085  14.6353932  )
        16           O1  tau(  16) = (   3.2849856   5.9366180  13.9618146  )
        17           O1  tau(  17) = (   4.5362432   1.5114280  16.0576559  )
        18           O1  tau(  18) = (   2.0240554   1.5008084  16.0383298  )
        19           Ti1 tau(  19) = (   3.2703657   2.9522362  15.6888820  )
        20           Ti1 tau(  20) = (   6.5391562   1.4934284  15.8005638  )
        21           O1  tau(  21) = (   3.2904802   0.0005063   4.7018136  )
        22           O1  tau(  22) = (   6.5583345   5.9570231  17.1947061  )
        23           O1  tau(  23) = (   1.3043587   1.4918075   6.0039043  )
        24           O1  tau(  24) = (   5.2767064   1.4903225   6.0039473  )
        25           Ti1 tau(  25) = (   0.0000382   5.9609847   6.0000000  )
        26           Ti1 tau(  26) = (   3.2902200   4.4714249   6.0002472  )
        27           O1  tau(  27) = (   0.0002396   2.9813036   7.9858123  )
        28           O1  tau(  28) = (   3.2902150   2.9813002   7.3038282  )
        29           O1  tau(  29) = (   4.5938453   4.4726049   9.2879030  )
        30           O1  tau(  30) = (   1.9864658   4.4711199   9.2879459  )
        31           Ti1 tau(  31) = (   3.2891106   5.8743827   9.1763621  )
        32           Ti1 tau(  32) = (   0.0006254   4.4649316   9.2693709  )
        33           O1  tau(  33) = (   3.2888364   2.9620848  11.3424199  )
        34           O1  tau(  34) = (   0.0092240   2.9805883  10.6323155  )
        35           O1  tau(  35) = (   1.2785924   4.4508711  12.6313046  )
        36           O1  tau(  36) = (   5.2742027   4.4576360  12.6186982  )
        37           Ti1 tau(  37) = (   0.0560446   5.9134488  12.5469576  )
        38           Ti1 tau(  38) = (   3.3742563   4.4530221  12.5021653  )
        39           O1  tau(  39) = (   6.5655761   2.9369947  14.6516633  )
        40           O1  tau(  40) = (   3.2805149   2.9594171  13.8967751  )
        41           O1  tau(  41) = (   4.5308665   4.4203993  16.0704334  )
        42           O1  tau(  42) = (   2.0169005   4.4237906  16.0574931  )
        43           Ti1 tau(  43) = (   3.2493829   5.9208236  15.8028744  )
        44           Ti1 tau(  44) = (   6.5423592   4.6318136  16.0678394  )
        45           O1  tau(  45) = (   3.2900926   2.9813045   4.7018136  )
        46           O1  tau(  46) = (   1.3039711   4.4726057   6.0039043  )
        47           O1  tau(  47) = (   5.2763189   4.4711207   6.0039473  )
        48           N1  tau(  48) = (   0.1516996   2.6368831  18.6397825  )
        49           N1  tau(  49) = (   0.0343947   2.8734663  17.4441277  )
        50           C1  tau(  50) = (   0.1908864   3.7705318  19.5986308  )
        51           H1  tau(  51) = (   6.5333492   4.7333814  19.1494580  )
        52           H1  tau(  52) = (   6.0816938   3.5230213  20.4074400  )
        53           H1  tau(  53) = (   1.1988782   3.7880179  20.0220438  )
        54           O1  tau(  54) = (   3.2442500   5.9498283  18.2124067  )
        55           H1  tau(  55) = (   4.0366425   0.4867780  18.4672138  )
        56           H1  tau(  56) = (   2.4709518   0.5160301  18.4623371  )

     number of k points=    10  Fermi-Dirac smearing, width (Ry)=  0.0073
                       cart. coord. in units 2pi/alat
        k(    1) = (   0.0000000   0.0000000   0.0000000), wk =   0.1250000
        k(    2) = (   0.0000000   0.0419351   0.0000000), wk =   0.2500000
        k(    3) = (   0.0000000  -0.0838702   0.0000000), wk =   0.1250000
        k(    4) = (   0.0379955   0.0000049   0.0000000), wk =   0.2500000
        k(    5) = (   0.0379955   0.0419400   0.0000000), wk =   0.2500000
        k(    6) = (   0.0379955  -0.0838652   0.0000000), wk =   0.2500000
        k(    7) = (   0.0379955  -0.0419301   0.0000000), wk =   0.2500000
        k(    8) = (  -0.0759910  -0.0000099   0.0000000), wk =   0.1250000
        k(    9) = (  -0.0759910   0.0419252   0.0000000), wk =   0.2500000
        k(   10) = (  -0.0759910  -0.0838800   0.0000000), wk =   0.1250000

     Initial potential from superposition of free atoms

     starting charge  386.99914, renormalised to  403.00000

     negative rho (up, down):  1.445E-02 0.000E+00

     %%%%%%%%%%%%%%%%%%%%%%%%%%%%%%%%%%%%%%%%%%%%%%%%%%%%%%%%%%%%%%%%%%%%%%%%
     %                                                                      %
     % You are using vdW-DF, which was implemented by the Thonhauser group. %
     % Please cite the following two papers that made this development      %
     % possible and the two reviews that describe the various versions:     %
     %                                                                      %
     %   T. Thonhauser et al., PRL 115, 136402 (2015).                      %
     %   T. Thonhauser et al., PRB 76, 125112 (2007).                       %
     %   K. Berland et al., Rep. Prog. Phys. 78, 066501 (2015).             %
     %   D.C. Langreth et al., J. Phys.: Condens. Matter 21, 084203 (2009). %
     %                                                                      %
     %                                                                      %
     % If you are calculating the stress with vdW-DF, please also cite:     %
     %                                                                      %
     %   R. Sabatini et al., J. Phys.: Condens. Matter 24, 424209 (2012).   %
     %                                                                      %
     %%%%%%%%%%%%%%%%%%%%%%%%%%%%%%%%%%%%%%%%%%%%%%%%%%%%%%%%%%%%%%%%%%%%%%%%

     Adding external electric field

     Computed dipole along edir(3) :
        Dipole              -13.2332 Ry au,        -33.6355 Debye
        Dipole field         -0.0250 Ry au,

        Potential amp.        2.3150 Ry
        Total length         46.3494 bohr

     Starting wfcs are  305 atomic wfcs
  @ DRIVER MODE: Message from server: STATUS
  @ DRIVER MODE: Message from server: POSDATA
  @ DRIVER MODE: Reading and sharing cell
  @ DRIVER MODE: Reading and sharing positions
  @ DRIVER MODE: Received positions

     Self-consistent Calculation

     iteration #  1     ecut=    29.40 Ry     beta= 0.05
     Davidson diagonalization with overlap
     c_bands:  4 eigenvalues not converged
     c_bands:  2 eigenvalues not converged
     c_bands:  4 eigenvalues not converged
     c_bands:  1 eigenvalues not converged
     c_bands:  1 eigenvalues not converged
     c_bands:  1 eigenvalues not converged
     c_bands:  4 eigenvalues not converged
     c_bands:  1 eigenvalues not converged
     c_bands:  1 eigenvalues not converged
     ethr =  1.00E-05,  avg # of iterations = 29.9

[...]

     total energy              =   -2367.54262200 Ry
     estimated scf accuracy    <    6916.49192538 Ry

     iteration #  2     ecut=    29.40 Ry     beta= 0.05
     Davidson diagonalization with overlap
     ethr =  1.00E-02,  avg # of iterations = 24.1

[...]

     iteration # 59     ecut=    29.40 Ry     beta= 0.05
     Davidson diagonalization with overlap
     c_bands:  1 eigenvalues not converged
     c_bands:  1 eigenvalues not converged
     ethr =  3.07E-11,  avg # of iterations = 14.6

[...]

     total energy              =   -2974.00303993 Ry
     estimated scf accuracy    <       0.00000015 Ry

     iteration # 61     ecut=    29.40 Ry     beta= 0.05
     Davidson diagonalization with overlap
     ethr =  3.07E-11,  avg # of iterations = 12.7

     negative rho (up, down):  1.457E-02 0.000E+00

     Adding external electric field

     Computed dipole along edir(3) :
        Dipole                0.9184 Ry au,          2.3343 Debye
        Dipole field          0.0017 Ry au,

        Potential amp.       -0.1607 Ry
        Total length         46.3494 bohr

     End of self-consistent calculation

          k = 0.0000 0.0000 0.0000 ( 18029 PWs)   bands (ev):

   -55.6062 -55.5722 -55.5663 -55.5595 -55.5302 -55.4399 -55.4167 -55.3996
   -55.3828 -55.3823 -55.3544 -55.3485 -55.0049 -54.8760 -54.5854 -54.5514
   -32.1085 -32.0887 -31.9582 -31.9399 -31.9155 -31.8992 -31.8720 -31.8698
   -31.8493 -31.8032 -31.7957 -31.7816 -31.7585 -31.7447 -31.7289 -31.7231
   -31.7106 -31.6986 -31.6934 -31.6634 -31.6569 -31.6444 -31.6097 -31.6053
   -31.5945 -31.5921 -31.5886 -31.5812 -31.5572 -31.5539 -31.5515 -31.5466
   -31.5351 -31.5338 -31.5236 -31.5143 -31.4941 -31.2747 -31.2036 -31.1336
   -31.1128 -31.0825 -30.9926 -30.9041 -30.8816 -30.8093 -30.7228 -30.6118
   -18.9095 -18.3029 -16.3063 -16.0731 -15.8478 -15.7560 -15.7148 -15.5086
   -15.4081 -15.3319 -15.2144 -15.1500 -15.1417 -15.1225 -15.1111 -15.1070
   -15.0478 -15.0445 -15.0421 -15.0280 -15.0026 -14.9551 -14.9403 -14.9359
   -14.8409 -14.7686 -14.7443 -14.7271 -14.6843 -14.6595 -14.2061 -13.0878
   -12.9713 -11.3139  -6.8630  -6.7243  -4.2055  -3.8539  -3.8245  -3.6796
    -3.5514  -3.5112  -3.4366  -3.3675  -3.2237  -3.1982  -3.0288  -2.8405
    -2.7806  -2.7505  -2.7060  -2.6343  -2.5197  -2.4635  -2.4131  -2.4103
    -2.3904  -2.3851  -2.3603  -2.3425  -2.2433  -2.2250  -2.1541  -2.1397
    -2.0894  -1.9901  -1.9607  -1.9190  -1.9097  -1.8817  -1.8686  -1.8550
    -1.8321  -1.8076  -1.7671  -1.6985  -1.6203  -1.5847  -1.5051  -1.4517
    -1.4112  -1.3532  -1.2170  -1.1413  -1.0921  -1.0613  -1.0517  -1.0335
    -0.9993  -0.9821  -0.8712  -0.7590  -0.7427  -0.6780  -0.6155  -0.5326
    -0.4966  -0.4377  -0.3735  -0.3561  -0.3509  -0.3153  -0.2723  -0.2264
    -0.0889  -0.0340  -0.0007   0.0080   0.0691   0.1101   0.1419   0.2245
     0.2394   0.2789   0.3222   0.3535   0.3646   0.3746   0.3954   0.4262
     0.4310   0.6206   0.6638   0.7086   0.7430   0.7813   0.9270   0.9464
     1.0526   1.1581   1.3635   1.4368   1.5358   1.6288   2.0082   2.0540
     2.7596   3.5277   3.6153   3.6599   3.6974   3.7734   3.7841   3.9830
     3.9983   4.0368   4.1678

[...]

          k = 0.0380-0.0419 0.0000 ( 17876 PWs)   bands (ev):

[...]

          k =-0.0760-0.0000 0.0000 ( 17886 PWs)   bands (ev):

[...]

          k =-0.0760-0.0839 0.0000 ( 17948 PWs)   bands (ev):

   -55.5897 -55.5885 -55.5584 -55.5493 -55.5465 -55.4301 -55.4095 -55.4002
   -55.3987 -55.3674 -55.3636 -55.3558 -55.0028 -54.8780 -54.5684 -54.5683
   -31.9222 -31.9058 -31.9045 -31.9035 -31.8852 -31.8840 -31.8455 -31.8368
   -31.8093 -31.7880 -31.7764 -31.7686 -31.7637 -31.7194 -31.7163 -31.7132
   -31.7111 -31.7093 -31.7082 -31.7045 -31.7020 -31.7013 -31.6613 -31.6487
   -31.6279 -31.6216 -31.6146 -31.6003 -31.5995 -31.5971 -31.5908 -31.5823
   -31.5783 -31.5683 -31.5679 -31.5593 -31.4250 -31.2766 -31.2223 -31.1666
   -31.1354 -31.1095 -30.8944 -30.8943 -30.8054 -30.8053 -30.7661 -30.7661
   -18.9085 -18.2992 -15.7605 -15.6563 -15.5590 -15.5235 -15.4673 -15.4074
   -15.3934 -15.3114 -15.2878 -15.2843 -15.2236 -15.2014 -15.1667 -15.1540
   -15.1325 -15.1193 -15.1157 -15.0598 -15.0535 -15.0437 -15.0371 -15.0337
   -14.9667 -14.9244 -14.9208 -14.9162 -14.7916 -14.6660 -14.3854 -13.0732
   -13.0730 -11.3113  -6.8914  -6.7029  -4.1310  -3.8783  -3.7937  -3.2230
    -3.0432  -2.8380  -2.8120  -2.7177  -2.7025  -2.6725  -2.5398  -2.5002
    -2.4605  -2.4462  -2.4229  -2.4220  -2.4092  -2.4025  -2.3849  -2.3608
    -2.3337  -2.3082  -2.2773  -2.2705  -2.2584  -2.2396  -2.2266  -2.2095
    -2.2066  -2.1624  -2.1403  -2.1311  -2.0481  -1.9944  -1.8317  -1.7894
    -1.7453  -1.7356  -1.7102  -1.7058  -1.6728  -1.6587  -1.6044  -1.5943
    -1.4788  -1.3651  -1.3264  -1.3031  -1.2933  -1.2749  -1.2039  -1.1022
    -1.0775  -1.0038  -0.9992  -0.8940  -0.8816  -0.8011  -0.7909  -0.7661
    -0.7109  -0.6749  -0.6550  -0.5709  -0.5655  -0.5423  -0.4990  -0.4699
    -0.4135  -0.3573  -0.3278  -0.3184  -0.2809  -0.2563  -0.2155  -0.1658
    -0.1026  -0.0651   0.0306   0.1336   0.2184   0.3537   0.4637   0.4914
     0.5660   0.6028   0.6770   0.7067   0.7137   0.7745   0.7876   0.8773
     0.9341   0.9469   0.9829   1.1016   1.8001   1.8015   1.8735   1.8738
     2.7843   3.7527   3.8617   3.9045   3.9255   4.0011   4.0420   4.0620
     4.0645   4.1009   4.2035

     the Fermi energy is     3.5271 ev

!    total energy              =   -2974.00308719 Ry
     estimated scf accuracy    <       0.00000006 Ry
     smearing contrib. (-TS)   =      -0.02181129 Ry
     internal energy E=F+TS    =   -2973.98127590 Ry

     The total energy is F=E-TS. E is the sum of the following terms:
     one-electron contribution =  -23848.59199986 Ry
     hartree contribution      =   12018.84069156 Ry
     xc contribution           =    -494.04193279 Ry
     ewald contribution        =    9349.81037357 Ry
     electric field correction =       0.00159163 Ry

     convergence has been achieved in  61 iterations

     Forces acting on atoms (cartesian axes, Ry/au):

     atom    1 type  1   force =     0.00016584   -0.00021902    0.09634370
     atom    2 type  1   force =    -0.00018173   -0.00045201   -0.17541087
     atom    3 type  2   force =     0.00001848   -0.00014959   -0.02470883
     atom    4 type  2   force =     0.00005480   -0.00161784    0.05344836
     atom    5 type  2   force =    -0.01201153   -0.00148757    0.00368915
     atom    6 type  2   force =     0.01346701   -0.00064664    0.00222440
     atom    7 type  1   force =    -0.00108650    0.00055952   -0.00699389
     atom    8 type  1   force =     0.00064701    0.00918298    0.02675335
     atom    9 type  2   force =     0.00017665    0.00020402   -0.00045278
     atom   10 type  2   force =    -0.00157822   -0.00030698   -0.01790448
     atom   11 type  2   force =     0.00092026    0.00089734   -0.00000322
     atom   12 type  2   force =    -0.00063035    0.00059878   -0.00003749
     atom   13 type  1   force =    -0.00026660    0.00024406   -0.00032202
     atom   14 type  1   force =     0.00027303    0.00032645    0.00002115
     atom   15 type  2   force =     0.00009019    0.00020584   -0.00034726
     atom   16 type  2   force =     0.00000031    0.00019311    0.00109409
     atom   17 type  2   force =     0.00086247   -0.00015291    0.00032428
     atom   18 type  2   force =    -0.00121162   -0.00024972    0.00016660
     atom   19 type  1   force =    -0.00005141    0.00142212    0.00000629
     atom   20 type  1   force =    -0.00027348   -0.00010847   -0.00006017
     atom   21 type  2   force =     0.00009877    0.00001444    0.10320509
     atom   22 type  2   force =    -0.00012370    0.00029544    0.00042858
     atom   23 type  2   force =    -0.07144445   -0.00009297   -0.02778592
     atom   24 type  2   force =     0.07143000    0.00035074   -0.02778014
     atom   25 type  1   force =     0.00001862   -0.00031895    0.09608885
     atom   26 type  1   force =    -0.00030207   -0.00044661   -0.17578384
     atom   27 type  2   force =     0.00008847   -0.00024901   -0.02369628
     atom   28 type  2   force =     0.00011992   -0.00130177    0.05284723
     atom   29 type  2   force =    -0.01227959    0.00021032    0.00356514
     atom   30 type  2   force =     0.01361888    0.00042530    0.00206554
     atom   31 type  1   force =    -0.00118086    0.00350389   -0.01018946
     atom   32 type  1   force =     0.00083245   -0.01098958    0.02705977
     atom   33 type  2   force =     0.00010635   -0.00000498    0.00058790
     atom   34 type  2   force =    -0.00116305   -0.00122764   -0.02346280
     atom   35 type  2   force =     0.00084003   -0.00052237   -0.00011821
     atom   36 type  2   force =    -0.00060814   -0.00018135   -0.00014374
     atom   37 type  1   force =    -0.00055947    0.00019621   -0.00039046
     atom   38 type  1   force =     0.00028968   -0.00031083    0.00007636
     atom   39 type  2   force =     0.00012039    0.00046157    0.00004927
     atom   40 type  2   force =     0.00019667    0.00014317   -0.00054371
     atom   41 type  2   force =     0.00069881    0.00079138    0.00041346
     atom   42 type  2   force =    -0.00077008    0.00078852    0.00027876
     atom   43 type  1   force =     0.00001499   -0.00108785   -0.00085887
     atom   44 type  1   force =    -0.00026425    0.00112027    0.00048781
     atom   45 type  2   force =     0.00008497   -0.00002628    0.10319924
     atom   46 type  2   force =    -0.07145211   -0.00001549   -0.02778899
     atom   47 type  2   force =     0.07143661    0.00040021   -0.02778854
     atom   48 type  3   force =     0.00017292   -0.00137836   -0.00055059
     atom   49 type  3   force =     0.00007816   -0.00029880    0.00031077
     atom   50 type  4   force =     0.00023011    0.00117838    0.00074421
     atom   51 type  5   force =     0.00009813   -0.00065779   -0.00096343
     atom   52 type  5   force =     0.00022228   -0.00006176   -0.00034032
     atom   53 type  5   force =     0.00003758   -0.00021111   -0.00049271
     atom   54 type  2   force =     0.00142087   -0.00604128   -0.00480722
     atom   55 type  5   force =     0.00265586    0.00310304    0.00182373
     atom   56 type  5   force =    -0.00414836    0.00399841    0.00242311

     Total force =     0.367913     Total SCF correction =     0.000763
  @ DRIVER MODE: Message from server: STATUS
  @ DRIVER MODE: Message from server: GETFORCE
  @ DRIVER MODE: Returning v,forces,stress,ensemble

     Writing output data file ./calc.save/
  @ DRIVER MODE: Message from server: EXIT
  @ DRIVE MODE: Exiting

     General routines

     Parallel routines

   This run was terminated on:   5:23:10  16Sep2021

   JOB DONE.