     Program PWSCF v.6.7GPU starts on 15Sep2021 at 18:44:14

     R & G space division:  proc/nbgrp/npool/nimage =      10
     Reading input from /storage/home/hcoda1/3/ntian30/research/carbon/CxH_vib/H2O_calc/ads_slab/CH3N2H2O_c/out_0010/pw.inp
Warning: card &CELL ignored
Warning: card   CELL_DYNAMICS='IPI', ignored
Warning: card / ignored

     Current dimensions of program PWSCF are:
     Max number of different atomic species (ntypx) = 10
     Max number of k-points (npk) =  40000
     Max angular momentum in pseudopotentials (lmaxx) =  3
     Presently no symmetry can be used with electric field

     Message from routine cell_base_init:
     DEPRECATED: use true lattice parameter, not A to a.u. conversion factor

     IMPORTANT: XC functional enforced from input :
     Exchange-correlation= BEEF-VDW
                           (   1   4  43  14   2   0   0)
     Any further DFT definition will be discarded
     Please, verify this is what you really want

  @ DRIVER MODE: Connecting to
 qe_1139763_2852616.sched-torque.pace.gatech.edudoeop5ur_scratch
  using UNIX socket
  @ DRIVER MODE: Message from server: STATUS
  @ DRIVER MODE: Message from server: INIT
  @ DRIVER MODE: Receiving replica           0          -1
  @ DRIVER MODE: Receiving encoded integer          25
  @ DRIVER MODE:  SCF:  T  FORCE:  T  STRESS:  F  VC:  F  ENSEMBLE:  F
  @ DRIVER MODE:  SCF:  T  FORCE:  T  STRESS:  F  VC:  F  ENSEMBLE:  F

     Using Slab Decomposition

     bravais-lattice index     =            0
     lattice parameter (alat)  =       1.8897  a.u.
     unit-cell volume          =    6658.9804 (a.u.)^3
     number of atoms/cell      =           56
     number of atomic types    =            5
     number of electrons       =       403.00
     number of Kohn-Sham states=          211
     kinetic-energy cutoff     =      29.3995  Ry
     charge density cutoff     =     293.9946  Ry
     scf convergence threshold =      7.3E-08
     mixing beta               =       0.0500
     number of iterations used =            8  plain     mixing
     Exchange-correlation= BEEF-VDW
                           (   1   4  43  14   2   0   0)

     celldm(1)=   1.889726  celldm(2)=   0.000000  celldm(3)=   0.000000
     celldm(4)=   0.000000  celldm(5)=   0.000000  celldm(6)=   0.000000

     crystal axes: (cart. coord. in units of alat)
               a(1) = (   6.579727   0.000000   0.000000 )
               a(2) = (  -0.000775   5.961596   0.000000 )
               a(3) = (   0.000000   0.000000  25.155947 )

     reciprocal axes: (cart. coord. in units 2 pi/alat)
               b(1) = (  0.151982  0.000020  0.000000 )
               b(2) = (  0.000000  0.167740  0.000000 )
               b(3) = (  0.000000  0.000000  0.039752 )

     PseudoPot. # 1 for Ti read from file:
     /storage/coda1/p-amedford6/0/shared/rich_project_chbe-medford/medford-share/data/pseudos_module/espresso/nninc/pbe/van/Ti.UPF
     MD5 check sum: 8e4df49b7f0d34bbd5052bf3f5ea0213
     Pseudo is Ultrasoft, Zval = 12.0
     Generated by new atomic code, or converted to UPF format
     Using radial grid of  851 points,  6 beta functions with:
                l(1) =   0
                l(2) =   0
                l(3) =   1
                l(4) =   1
                l(5) =   2
                l(6) =   2
     Q(r) pseudized with  8 coefficients,  rinner =    1.000   1.000   1.000
                                                       1.000   1.000

     PseudoPot. # 2 for O  read from file:
     /storage/coda1/p-amedford6/0/shared/rich_project_chbe-medford/medford-share/data/pseudos_module/espresso/nninc/pbe/van/O.UPF
     MD5 check sum: 78c19812648e8988a0fe644b0f25305e
     Pseudo is Ultrasoft, Zval =  6.0
     Generated by new atomic code, or converted to UPF format
     Using radial grid of  737 points,  4 beta functions with:
                l(1) =   0
                l(2) =   0
                l(3) =   1
                l(4) =   1
     Q(r) pseudized with  8 coefficients,  rinner =    0.800   0.800   0.800

     PseudoPot. # 3 for N  read from file:
     /storage/coda1/p-amedford6/0/shared/rich_project_chbe-medford/medford-share/data/pseudos_module/espresso/nninc/pbe/van/N.UPF
     MD5 check sum: 90d10febe142ad51ac9d5be1deb811c4
     Pseudo is Ultrasoft, Zval =  5.0
     Generated by new atomic code, or converted to UPF format
     Using radial grid of  729 points,  4 beta functions with:
                l(1) =   0
                l(2) =   0
                l(3) =   1
                l(4) =   1
     Q(r) pseudized with  8 coefficients,  rinner =    0.800   0.800   0.800

     PseudoPot. # 4 for C  read from file:
     /storage/coda1/p-amedford6/0/shared/rich_project_chbe-medford/medford-share/data/pseudos_module/espresso/nninc/pbe/van/C.UPF
     MD5 check sum: 1a69bf6b8db32088f5b2163dbdb77a27
     Pseudo is Ultrasoft, Zval =  4.0
     Generated by new atomic code, or converted to UPF format
     Using radial grid of  721 points,  4 beta functions with:
                l(1) =   0
                l(2) =   0
                l(3) =   1
                l(4) =   1
     Q(r) pseudized with  8 coefficients,  rinner =    0.800   0.800   0.800

     PseudoPot. # 5 for H  read from file:
     /storage/coda1/p-amedford6/0/shared/rich_project_chbe-medford/medford-share/data/pseudos_module/espresso/nninc/pbe/van/H.UPF
     MD5 check sum: b5ee9d7bfd3a09ee7748110bda690ff7
     Pseudo is Ultrasoft, Zval =  1.0
     Generated by new atomic code, or converted to UPF format
     Using radial grid of  615 points,  1 beta functions with:
                l(1) =   0
     Q(r) pseudized with  8 coefficients,  rinner =    0.800

     atomic species   valence    mass     pseudopotential
        Ti1           12.00    47.86700     Ti( 1.00)
        O1             6.00    15.99900     O ( 1.00)
        N1             5.00    14.00700     N ( 1.00)
        C1             4.00    12.01100     C ( 1.00)
        H1             1.00     1.00800     H ( 1.00)

     No symmetry found

   Cartesian axes

     site n.     atom                  positions (alat units)
         1           Ti1 tau(   1) = (   0.0004258   2.9801865   6.0000000  )
         2           Ti1 tau(   2) = (   3.2906075   1.4906267   6.0002472  )
         3           O1  tau(   3) = (   0.0006271   0.0005054   7.9858123  )
         4           O1  tau(   4) = (   3.2906025   0.0005020   7.3038282  )
         5           O1  tau(   5) = (   4.5942328   1.4918067   9.2879030  )
         6           O1  tau(   6) = (   1.9868534   1.4903216   9.2879459  )
         7           Ti1 tau(   7) = (   3.2907910   2.8959150   9.1758416  )
         8           Ti1 tau(   8) = (   0.0015273   1.4827037   9.2680791  )
         9           O1  tau(   9) = (   3.2828550   5.9398922  11.3444325  )
        10           O1  tau(  10) = (   0.0116148   5.9584955  10.6183126  )
        11           O1  tau(  11) = (   1.2785533   1.4626539  12.6279770  )
        12           O1  tau(  12) = (   5.2704455   1.4657548  12.6160130  )
        13           Ti1 tau(  13) = (   0.0600808   2.9393476  12.6134163  )
        14           Ti1 tau(  14) = (   3.3737088   1.4602624  12.5010433  )
        15           O1  tau(  15) = (   6.5684750   5.9323085  14.6353932  )
        16           O1  tau(  16) = (   3.2849856   5.9366180  13.9618146  )
        17           O1  tau(  17) = (   4.5362432   1.5114280  16.0576559  )
        18           O1  tau(  18) = (   2.0240554   1.5008084  16.0383298  )
        19           Ti1 tau(  19) = (   3.2703657   2.9522362  15.6888820  )
        20           Ti1 tau(  20) = (   6.5391562   1.4934284  15.8005638  )
        21           O1  tau(  21) = (   3.2904802   0.0005063   4.7018136  )
        22           O1  tau(  22) = (   6.5583345   5.9570231  17.1947061  )
        23           O1  tau(  23) = (   1.3043587   1.4918075   6.0039043  )
        24           O1  tau(  24) = (   5.2767064   1.4903225   6.0039473  )
        25           Ti1 tau(  25) = (   0.0000382   5.9609847   6.0000000  )
        26           Ti1 tau(  26) = (   3.2902200   4.4714249   6.0002472  )
        27           O1  tau(  27) = (   0.0002396   2.9813036   7.9858123  )
        28           O1  tau(  28) = (   3.2902150   2.9813002   7.3038282  )
        29           O1  tau(  29) = (   4.5938453   4.4726049   9.2879030  )
        30           O1  tau(  30) = (   1.9864658   4.4711199   9.2879459  )
        31           Ti1 tau(  31) = (   3.2891106   5.8743827   9.1763621  )
        32           Ti1 tau(  32) = (   0.0006254   4.4649316   9.2693709  )
        33           O1  tau(  33) = (   3.2888364   2.9620848  11.3424199  )
        34           O1  tau(  34) = (   0.0092240   2.9805883  10.6323155  )
        35           O1  tau(  35) = (   1.2785924   4.4508711  12.6313046  )
        36           O1  tau(  36) = (   5.2742027   4.4576360  12.6186982  )
        37           Ti1 tau(  37) = (   0.0560446   5.9134488  12.5469576  )
        38           Ti1 tau(  38) = (   3.3742563   4.4530221  12.5021653  )
        39           O1  tau(  39) = (   6.5655761   2.9369947  14.6516633  )
        40           O1  tau(  40) = (   3.2805149   2.9594171  13.8967751  )
        41           O1  tau(  41) = (   4.5308665   4.4203993  16.0704334  )
        42           O1  tau(  42) = (   2.0169005   4.4237906  16.0574931  )
        43           Ti1 tau(  43) = (   3.2493829   5.9208236  15.8028744  )
        44           Ti1 tau(  44) = (   6.5423592   4.6318136  16.0678394  )
        45           O1  tau(  45) = (   3.2900926   2.9813045   4.7018136  )
        46           O1  tau(  46) = (   1.3039711   4.4726057   6.0039043  )
        47           O1  tau(  47) = (   5.2763189   4.4711207   6.0039473  )
        48           N1  tau(  48) = (   0.1516996   2.6368831  18.6397825  )
        49           N1  tau(  49) = (   0.0343947   2.8834663  17.4441277  )
        50           C1  tau(  50) = (   0.1908864   3.7705318  19.5986308  )
        51           H1  tau(  51) = (   6.5333492   4.7333814  19.1494580  )
        52           H1  tau(  52) = (   6.0816938   3.5230213  20.4074400  )
        53           H1  tau(  53) = (   1.1988782   3.7880179  20.0220438  )
        54           O1  tau(  54) = (   3.2442500   5.9498283  18.2024067  )
        55           H1  tau(  55) = (   4.0366425   0.4867780  18.4672138  )
        56           H1  tau(  56) = (   2.4709518   0.5160301  18.4623371  )

     number of k points=    10  Fermi-Dirac smearing, width (Ry)=  0.0073
                       cart. coord. in units 2pi/alat
        k(    1) = (   0.0000000   0.0000000   0.0000000), wk =   0.1250000
        k(    2) = (   0.0000000   0.0419351   0.0000000), wk =   0.2500000
        k(    3) = (   0.0000000  -0.0838702   0.0000000), wk =   0.1250000
        k(    4) = (   0.0379955   0.0000049   0.0000000), wk =   0.2500000
        k(    5) = (   0.0379955   0.0419400   0.0000000), wk =   0.2500000
        k(    6) = (   0.0379955  -0.0838652   0.0000000), wk =   0.2500000
        k(    7) = (   0.0379955  -0.0419301   0.0000000), wk =   0.2500000
        k(    8) = (  -0.0759910  -0.0000099   0.0000000), wk =   0.1250000
        k(    9) = (  -0.0759910   0.0419252   0.0000000), wk =   0.2500000
        k(   10) = (  -0.0759910  -0.0838800   0.0000000), wk =   0.1250000

     Initial potential from superposition of free atoms

     starting charge  386.99914, renormalised to  403.00000

     negative rho (up, down):  1.445E-02 0.000E+00

     %%%%%%%%%%%%%%%%%%%%%%%%%%%%%%%%%%%%%%%%%%%%%%%%%%%%%%%%%%%%%%%%%%%%%%%%
     %                                                                      %
     % You are using vdW-DF, which was implemented by the Thonhauser group. %
     % Please cite the following two papers that made this development      %
     % possible and the two reviews that describe the various versions:     %
     %                                                                      %
     %   T. Thonhauser et al., PRL 115, 136402 (2015).                      %
     %   T. Thonhauser et al., PRB 76, 125112 (2007).                       %
     %   K. Berland et al., Rep. Prog. Phys. 78, 066501 (2015).             %
     %   D.C. Langreth et al., J. Phys.: Condens. Matter 21, 084203 (2009). %
     %                                                                      %
     %                                                                      %
     % If you are calculating the stress with vdW-DF, please also cite:     %
     %                                                                      %
     %   R. Sabatini et al., J. Phys.: Condens. Matter 24, 424209 (2012).   %
     %                                                                      %
     %%%%%%%%%%%%%%%%%%%%%%%%%%%%%%%%%%%%%%%%%%%%%%%%%%%%%%%%%%%%%%%%%%%%%%%%

     Adding external electric field

     Computed dipole along edir(3) :
        Dipole              -13.2286 Ry au,        -33.6236 Debye
        Dipole field         -0.0250 Ry au,

        Potential amp.        2.3141 Ry
        Total length         46.3494 bohr

     Starting wfcs are  305 atomic wfcs
  @ DRIVER MODE: Message from server: STATUS
  @ DRIVER MODE: Message from server: POSDATA
  @ DRIVER MODE: Reading and sharing cell
  @ DRIVER MODE: Reading and sharing positions
  @ DRIVER MODE: Received positions

     Self-consistent Calculation

     iteration #  1     ecut=    29.40 Ry     beta= 0.05
     Davidson diagonalization with overlap
     c_bands:  4 eigenvalues not converged
     c_bands:  2 eigenvalues not converged
     c_bands:  4 eigenvalues not converged
     c_bands:  1 eigenvalues not converged
     c_bands:  1 eigenvalues not converged
     c_bands:  1 eigenvalues not converged
     c_bands:  4 eigenvalues not converged
     c_bands:  1 eigenvalues not converged
     c_bands:  1 eigenvalues not converged
     ethr =  1.00E-05,  avg # of iterations = 29.9

[...]

     total energy              =   -2367.45616381 Ry
     estimated scf accuracy    <    6917.30904815 Ry

     iteration #  2     ecut=    29.40 Ry     beta= 0.05
     Davidson diagonalization with overlap
     ethr =  1.00E-02,  avg # of iterations = 23.9

[...]

     iteration # 75     ecut=    29.40 Ry     beta= 0.05
     Davidson diagonalization with overlap
     c_bands:  1 eigenvalues not converged
     ethr =  4.64E-11,  avg # of iterations = 14.0

[...]

     total energy              =   -2974.00306944 Ry
     estimated scf accuracy    <       0.00000008 Ry

     iteration # 78     ecut=    29.40 Ry     beta= 0.05
     Davidson diagonalization with overlap
     ethr =  1.95E-11,  avg # of iterations = 10.7

     negative rho (up, down):  1.457E-02 0.000E+00

     Adding external electric field

     Computed dipole along edir(3) :
        Dipole                0.9200 Ry au,          2.3384 Debye
        Dipole field          0.0017 Ry au,

        Potential amp.       -0.1609 Ry
        Total length         46.3494 bohr

     End of self-consistent calculation

          k = 0.0000 0.0000 0.0000 ( 18029 PWs)   bands (ev):

   -55.6058 -55.5718 -55.5650 -55.5572 -55.5290 -55.4396 -55.4159 -55.3990
   -55.3820 -55.3813 -55.3528 -55.3475 -55.0114 -54.8752 -54.5849 -54.5508
   -32.1072 -32.0883 -31.9563 -31.9394 -31.9147 -31.8987 -31.8710 -31.8680
   -31.8488 -31.8013 -31.7945 -31.7797 -31.7581 -31.7436 -31.7273 -31.7219
   -31.7102 -31.6977 -31.6922 -31.6630 -31.6563 -31.6438 -31.6087 -31.6044
   -31.5941 -31.5922 -31.5881 -31.5802 -31.5562 -31.5523 -31.5510 -31.5458
   -31.5340 -31.5321 -31.5228 -31.5173 -31.4931 -31.2794 -31.2077 -31.1324
   -31.1160 -31.0831 -30.9920 -30.9035 -30.8811 -30.8087 -30.7222 -30.6112
   -18.8993 -18.2717 -16.3049 -16.0719 -15.8458 -15.7547 -15.7137 -15.5071
   -15.4066 -15.3309 -15.2129 -15.1489 -15.1407 -15.1217 -15.1102 -15.1048
   -15.0466 -15.0427 -15.0403 -15.0269 -15.0014 -14.9541 -14.9393 -14.9357
   -14.8403 -14.7671 -14.7430 -14.7257 -14.6836 -14.6584 -14.2063 -13.0869
   -12.9705 -11.2958  -6.8616  -6.6899  -4.1911  -3.8431  -3.8150  -3.6792
    -3.5504  -3.5105  -3.4389  -3.3659  -3.2340  -3.2108  -3.0381  -2.8396
    -2.7795  -2.7506  -2.7048  -2.6335  -2.5184  -2.4629  -2.4119  -2.4088
    -2.3887  -2.3841  -2.3594  -2.3415  -2.2425  -2.2238  -2.1516  -2.1385
    -2.0879  -1.9893  -1.9591  -1.9183  -1.9084  -1.8801  -1.8667  -1.8532
    -1.8310  -1.8065  -1.7654  -1.6939  -1.6136  -1.5817  -1.4955  -1.4479
    -1.4108  -1.3510  -1.2161  -1.1399  -1.0908  -1.0601  -1.0506  -1.0324
    -0.9984  -0.9811  -0.8701  -0.7579  -0.7428  -0.6761  -0.6143  -0.5313
    -0.4968  -0.4368  -0.3727  -0.3551  -0.3499  -0.3133  -0.2686  -0.2246
    -0.0878  -0.0324   0.0012   0.0093   0.0712   0.1118   0.1431   0.2260
     0.2409   0.2801   0.3233   0.3545   0.3658   0.3755   0.3966   0.4272
     0.4318   0.6220   0.6652   0.7099   0.7441   0.7817   0.9281   0.9473
     1.0536   1.1595   1.3643   1.4376   1.5370   1.6297   2.0089   2.0547
     2.7553   3.5281   3.6159   3.6606   3.6982   3.7740   3.7854   3.9836
     3.9984   4.0378   4.1145

[...]

          k = 0.0380-0.0419 0.0000 ( 17876 PWs)   bands (ev):

[...]

          k =-0.0760-0.0000 0.0000 ( 17886 PWs)   bands (ev):

[...]

          k =-0.0760-0.0839 0.0000 ( 17948 PWs)   bands (ev):

   -55.5892 -55.5882 -55.5561 -55.5481 -55.5453 -55.4300 -55.4087 -55.3995
   -55.3978 -55.3664 -55.3626 -55.3542 -55.0094 -54.8771 -54.5679 -54.5677
   -31.9210 -31.9045 -31.9039 -31.9032 -31.8846 -31.8835 -31.8432 -31.8346
   -31.8080 -31.7874 -31.7755 -31.7667 -31.7622 -31.7186 -31.7148 -31.7124
   -31.7103 -31.7088 -31.7078 -31.7035 -31.7011 -31.7003 -31.6597 -31.6485
   -31.6272 -31.6209 -31.6144 -31.5993 -31.5987 -31.5960 -31.5899 -31.5812
   -31.5773 -31.5676 -31.5673 -31.5577 -31.4288 -31.2814 -31.2241 -31.1728
   -31.1341 -31.1090 -30.8939 -30.8937 -30.8048 -30.8046 -30.7655 -30.7654
   -18.8983 -18.2679 -15.7589 -15.6548 -15.5580 -15.5226 -15.4659 -15.4064
   -15.3915 -15.3107 -15.2865 -15.2829 -15.2215 -15.1997 -15.1649 -15.1525
   -15.1313 -15.1178 -15.1146 -15.0583 -15.0519 -15.0427 -15.0360 -15.0326
   -14.9655 -14.9233 -14.9197 -14.9150 -14.7912 -14.6669 -14.3848 -13.0724
   -13.0722 -11.2934  -6.8879  -6.6702  -4.1152  -3.8680  -3.7836  -3.2600
    -3.0418  -2.8390  -2.8112  -2.7163  -2.7017  -2.6715  -2.5391  -2.4993
    -2.4596  -2.4452  -2.4219  -2.4212  -2.4082  -2.4014  -2.3828  -2.3583
    -2.3320  -2.3071  -2.2773  -2.2694  -2.2573  -2.2387  -2.2253  -2.2085
    -2.2053  -2.1616  -2.1399  -2.1305  -2.0474  -1.9932  -1.8301  -1.7885
    -1.7440  -1.7345  -1.7086  -1.7034  -1.6720  -1.6575  -1.6004  -1.5912
    -1.4654  -1.3609  -1.3250  -1.2992  -1.2912  -1.2739  -1.2029  -1.1019
    -1.0772  -1.0024  -0.9980  -0.8941  -0.8797  -0.7984  -0.7893  -0.7628
    -0.7095  -0.6732  -0.6537  -0.5701  -0.5645  -0.5414  -0.4988  -0.4699
    -0.4116  -0.3562  -0.3267  -0.3171  -0.2799  -0.2553  -0.2147  -0.1616
    -0.1013  -0.0635   0.0322   0.1346   0.2182   0.3549   0.4648   0.4925
     0.5674   0.6039   0.6783   0.7076   0.7146   0.7758   0.7887   0.8792
     0.9352   0.9480   0.9841   1.1026   1.8010   1.8024   1.8743   1.8746
     2.7752   3.7535   3.8630   3.9058   3.9266   4.0016   4.0429   4.0628
     4.0652   4.1014   4.2048

     the Fermi energy is     3.5277 ev

!    total energy              =   -2974.00308592 Ry
     estimated scf accuracy    <       0.00000003 Ry
     smearing contrib. (-TS)   =      -0.02179912 Ry
     internal energy E=F+TS    =   -2973.98128680 Ry

     The total energy is F=E-TS. E is the sum of the following terms:
     one-electron contribution =  -23851.62433348 Ry
     hartree contribution      =   12020.36818787 Ry
     xc contribution           =    -494.03501395 Ry
     ewald contribution        =    9351.30827555 Ry
     electric field correction =       0.00159722 Ry

     convergence has been achieved in  78 iterations

     Forces acting on atoms (cartesian axes, Ry/au):

     atom    1 type  1   force =     0.00017068   -0.00020802    0.09633752
     atom    2 type  1   force =    -0.00018474   -0.00045676   -0.17543504
     atom    3 type  2   force =     0.00001836   -0.00014687   -0.02470146
     atom    4 type  2   force =     0.00005400   -0.00161798    0.05344356
     atom    5 type  2   force =    -0.01198941   -0.00148066    0.00370369
     atom    6 type  2   force =     0.01344507   -0.00063904    0.00223935
     atom    7 type  1   force =    -0.00108863    0.00055323   -0.00696854
     atom    8 type  1   force =     0.00064568    0.00916027    0.02677004
     atom    9 type  2   force =     0.00017716    0.00020510   -0.00045979
     atom   10 type  2   force =    -0.00157215   -0.00030762   -0.01787111
     atom   11 type  2   force =     0.00089882    0.00093052    0.00000269
     atom   12 type  2   force =    -0.00059674    0.00062096   -0.00003332
     atom   13 type  1   force =    -0.00027189    0.00025618   -0.00055314
     atom   14 type  1   force =     0.00025734    0.00027116    0.00005294
     atom   15 type  2   force =     0.00011190    0.00075283   -0.00046222
     atom   16 type  2   force =     0.00001398    0.00021936    0.00075471
     atom   17 type  2   force =     0.00114154    0.00003636    0.00010759
     atom   18 type  2   force =    -0.00145659   -0.00006206   -0.00004757
     atom   19 type  1   force =    -0.00007681    0.00135849    0.00005754
     atom   20 type  1   force =    -0.00024903    0.00018833    0.00017658
     atom   21 type  2   force =     0.00010038    0.00001815    0.10319481
     atom   22 type  2   force =    -0.00014353    0.00149000    0.00020903
     atom   23 type  2   force =    -0.07145705   -0.00009025   -0.02777760
     atom   24 type  2   force =     0.07144586    0.00035297   -0.02777309
     atom   25 type  1   force =     0.00000812   -0.00032314    0.09608684
     atom   26 type  1   force =    -0.00030672   -0.00044542   -0.17578524
     atom   27 type  2   force =     0.00008858   -0.00024852   -0.02368400
     atom   28 type  2   force =     0.00011937   -0.00129880    0.05284826
     atom   29 type  2   force =    -0.01225963    0.00021485    0.00358029
     atom   30 type  2   force =     0.01359858    0.00042963    0.00208221
     atom   31 type  1   force =    -0.00117950    0.00349115   -0.01016773
     atom   32 type  1   force =     0.00083093   -0.01097632    0.02704907
     atom   33 type  2   force =     0.00010258   -0.00000117    0.00059270
     atom   34 type  2   force =    -0.00115580   -0.00122940   -0.02337957
     atom   35 type  2   force =     0.00082686   -0.00054715   -0.00011244
     atom   36 type  2   force =    -0.00058537   -0.00020147   -0.00013580
     atom   37 type  1   force =    -0.00056049    0.00021074   -0.00040884
     atom   38 type  1   force =     0.00028070   -0.00025176    0.00011228
     atom   39 type  2   force =     0.00008899    0.00015416    0.00053125
     atom   40 type  2   force =     0.00020018    0.00015090   -0.00059928
     atom   41 type  2   force =     0.00073048    0.00072652    0.00022552
     atom   42 type  2   force =    -0.00074884    0.00073889    0.00004330
     atom   43 type  1   force =    -0.00002273   -0.00100180   -0.00067668
     atom   44 type  1   force =    -0.00028847    0.00107701    0.00066016
     atom   45 type  2   force =     0.00008727   -0.00002399    0.10318402
     atom   46 type  2   force =    -0.07146334   -0.00001548   -0.02778684
     atom   47 type  2   force =     0.07144920    0.00039951   -0.02778537
     atom   48 type  3   force =    -0.00034897    0.00207390   -0.00486032
     atom   49 type  3   force =     0.00040876   -0.00505954    0.00285286
     atom   50 type  4   force =     0.00033798    0.00066267    0.00186750
     atom   51 type  5   force =     0.00012768   -0.00085154   -0.00095296
     atom   52 type  5   force =     0.00021124    0.00004455   -0.00012973
     atom   53 type  5   force =     0.00008822   -0.00012939   -0.00032880
     atom   54 type  2   force =     0.00162717    0.00014805   -0.00032904
     atom   55 type  5   force =    -0.00061290   -0.00007563   -0.00009876
     atom   56 type  5   force =    -0.00107432    0.00075335    0.00053795

     Total force =     0.367842     Total SCF correction =     0.000436
  @ DRIVER MODE: Message from server: STATUS
  @ DRIVER MODE: Message from server: GETFORCE
  @ DRIVER MODE: Returning v,forces,stress,ensemble

     Writing output data file ./calc.save/
  @ DRIVER MODE: Message from server: EXIT
  @ DRIVE MODE: Exiting

     General routines

     Parallel routines

   This run was terminated on:  19: 5: 5  15Sep2021

   JOB DONE.