     Program PWSCF v.6.7GPU starts on  2Aug2021 at 19:44:42

     R & G space division:  proc/nbgrp/npool/nimage =      16
     Reading input from /storage/home/hcoda1/3/ntian30/research/carbon/02Aug_vib_paired/ads_slab/CH3NH_a/out_0032/pw.inp
Warning: card &CELL ignored
Warning: card   CELL_DYNAMICS='IPI', ignored
Warning: card / ignored

     Current dimensions of program PWSCF are:
     Max number of different atomic species (ntypx) = 10
     Max number of k-points (npk) =  40000
     Max angular momentum in pseudopotentials (lmaxx) =  3
     Presently no symmetry can be used with electric field

     Message from routine cell_base_init:
     DEPRECATED: use true lattice parameter, not A to a.u. conversion factor

     IMPORTANT: XC functional enforced from input :
     Exchange-correlation= BEEF-VDW
                           (   1   4  43  14   2   0   0)
     Any further DFT definition will be discarded
     Please, verify this is what you really want

  @ DRIVER MODE: Connecting to
 qe_1139763_2482540.sched-torque.pace.gatech.edubgphltx8_scratch
  using UNIX socket
  @ DRIVER MODE: Message from server: STATUS
  @ DRIVER MODE: Message from server: INIT
  @ DRIVER MODE: Receiving replica           0          -1
  @ DRIVER MODE: Receiving encoded integer          25
  @ DRIVER MODE:  SCF:  T  FORCE:  T  STRESS:  F  VC:  F  ENSEMBLE:  F
  @ DRIVER MODE:  SCF:  T  FORCE:  T  STRESS:  F  VC:  F  ENSEMBLE:  F

     Using Slab Decomposition

     bravais-lattice index     =            0
     lattice parameter (alat)  =       1.8897  a.u.
     unit-cell volume          =    6658.9804 (a.u.)^3
     number of atoms/cell      =           53
     number of atomic types    =            5
     number of electrons       =       391.00
     number of Kohn-Sham states=          205
     kinetic-energy cutoff     =      29.3995  Ry
     charge density cutoff     =     293.9946  Ry
     scf convergence threshold =      7.3E-08
     mixing beta               =       0.0500
     number of iterations used =            8  plain     mixing
     Exchange-correlation= BEEF-VDW
                           (   1   4  43  14   2   0   0)

     celldm(1)=   1.889726  celldm(2)=   0.000000  celldm(3)=   0.000000
     celldm(4)=   0.000000  celldm(5)=   0.000000  celldm(6)=   0.000000

     crystal axes: (cart. coord. in units of alat)
               a(1) = (   6.579727   0.000000   0.000000 )
               a(2) = (  -0.000775   5.961596   0.000000 )
               a(3) = (   0.000000   0.000000  25.155947 )

     reciprocal axes: (cart. coord. in units 2 pi/alat)
               b(1) = (  0.151982  0.000020  0.000000 )
               b(2) = (  0.000000  0.167740  0.000000 )
               b(3) = (  0.000000  0.000000  0.039752 )

     PseudoPot. # 1 for Ti read from file:
     /storage/coda1/p-amedford6/0/shared/rich_project_chbe-medford/medford-share/data/pseudos_module/espresso/nninc/pbe/van/Ti.UPF
     MD5 check sum: 8e4df49b7f0d34bbd5052bf3f5ea0213
     Pseudo is Ultrasoft, Zval = 12.0
     Generated by new atomic code, or converted to UPF format
     Using radial grid of  851 points,  6 beta functions with:
                l(1) =   0
                l(2) =   0
                l(3) =   1
                l(4) =   1
                l(5) =   2
                l(6) =   2
     Q(r) pseudized with  8 coefficients,  rinner =    1.000   1.000   1.000
                                                       1.000   1.000

     PseudoPot. # 2 for O  read from file:
     /storage/coda1/p-amedford6/0/shared/rich_project_chbe-medford/medford-share/data/pseudos_module/espresso/nninc/pbe/van/O.UPF
     MD5 check sum: 78c19812648e8988a0fe644b0f25305e
     Pseudo is Ultrasoft, Zval =  6.0
     Generated by new atomic code, or converted to UPF format
     Using radial grid of  737 points,  4 beta functions with:
                l(1) =   0
                l(2) =   0
                l(3) =   1
                l(4) =   1
     Q(r) pseudized with  8 coefficients,  rinner =    0.800   0.800   0.800

     PseudoPot. # 3 for H  read from file:
     /storage/coda1/p-amedford6/0/shared/rich_project_chbe-medford/medford-share/data/pseudos_module/espresso/nninc/pbe/van/H.UPF
     MD5 check sum: b5ee9d7bfd3a09ee7748110bda690ff7
     Pseudo is Ultrasoft, Zval =  1.0
     Generated by new atomic code, or converted to UPF format
     Using radial grid of  615 points,  1 beta functions with:
                l(1) =   0
     Q(r) pseudized with  8 coefficients,  rinner =    0.800

     PseudoPot. # 4 for N  read from file:
     /storage/coda1/p-amedford6/0/shared/rich_project_chbe-medford/medford-share/data/pseudos_module/espresso/nninc/pbe/van/N.UPF
     MD5 check sum: 90d10febe142ad51ac9d5be1deb811c4
     Pseudo is Ultrasoft, Zval =  5.0
     Generated by new atomic code, or converted to UPF format
     Using radial grid of  729 points,  4 beta functions with:
                l(1) =   0
                l(2) =   0
                l(3) =   1
                l(4) =   1
     Q(r) pseudized with  8 coefficients,  rinner =    0.800   0.800   0.800

     PseudoPot. # 5 for C  read from file:
     /storage/coda1/p-amedford6/0/shared/rich_project_chbe-medford/medford-share/data/pseudos_module/espresso/nninc/pbe/van/C.UPF
     MD5 check sum: 1a69bf6b8db32088f5b2163dbdb77a27
     Pseudo is Ultrasoft, Zval =  4.0
     Generated by new atomic code, or converted to UPF format
     Using radial grid of  721 points,  4 beta functions with:
                l(1) =   0
                l(2) =   0
                l(3) =   1
                l(4) =   1
     Q(r) pseudized with  8 coefficients,  rinner =    0.800   0.800   0.800

     atomic species   valence    mass     pseudopotential
        Ti1           12.00    47.86700     Ti( 1.00)
        O1             6.00    15.99900     O ( 1.00)
        H1             1.00     1.00800     H ( 1.00)
        N1             5.00    14.00700     N ( 1.00)
        C1             4.00    12.01100     C ( 1.00)

     No symmetry found

   Cartesian axes

     site n.     atom                  positions (alat units)
         1           Ti1 tau(   1) = (   0.0004258   2.9801865   6.0000000  )
         2           Ti1 tau(   2) = (   3.2906075   1.4906267   6.0002472  )
         3           O1  tau(   3) = (   0.0006271   0.0005054   7.9858123  )
         4           O1  tau(   4) = (   3.2906025   0.0005020   7.3038282  )
         5           O1  tau(   5) = (   4.5942328   1.4918067   9.2879030  )
         6           O1  tau(   6) = (   1.9868534   1.4903216   9.2879459  )
         7           Ti1 tau(   7) = (   3.2907910   2.8959150   9.1758416  )
         8           Ti1 tau(   8) = (   0.0015273   1.4827037   9.2680791  )
         9           O1  tau(   9) = (   3.2884659   0.0075485  11.3235732  )
        10           O1  tau(  10) = (   0.0116148   5.9584955  10.6183126  )
        11           O1  tau(  11) = (   1.3171120   1.5008813  12.6157184  )
        12           O1  tau(  12) = (   5.2946386   1.4924346  12.6071097  )
        13           Ti1 tau(  13) = (   6.5241923   2.9548932  12.6217359  )
        14           Ti1 tau(  14) = (   3.2094326   1.4975571  12.4685497  )
        15           O1  tau(  15) = (   6.5712017   0.0435206  14.6415704  )
        16           O1  tau(  16) = (   3.3105969   0.0188825  13.9167609  )
        17           O1  tau(  17) = (   4.5276945   1.5520673  16.0775932  )
        18           O1  tau(  18) = (   2.0451199   1.5488911  16.0433559  )
        19           Ti1 tau(  19) = (   3.3056363   3.0248959  15.6834923  )
        20           Ti1 tau(  20) = (   0.0598299   1.5678558  15.8702049  )
        21           O1  tau(  21) = (   3.2904802   0.0005063   4.7018136  )
        22           O1  tau(  22) = (   0.0261329   0.0581799  17.1997403  )
        23           O1  tau(  23) = (   1.3043587   1.4918075   6.0039043  )
        24           O1  tau(  24) = (   5.2767064   1.4903225   6.0039473  )
        25           Ti1 tau(  25) = (   0.0000382   5.9609847   6.0000000  )
        26           Ti1 tau(  26) = (   3.2902200   4.4714249   6.0002472  )
        27           O1  tau(  27) = (   0.0002396   2.9813036   7.9858123  )
        28           O1  tau(  28) = (   3.2902150   2.9813002   7.3038282  )
        29           O1  tau(  29) = (   4.5938453   4.4726049   9.2879030  )
        30           O1  tau(  30) = (   1.9864658   4.4711199   9.2879459  )
        31           Ti1 tau(  31) = (   3.2891106   5.8743827   9.1763621  )
        32           Ti1 tau(  32) = (   0.0006254   4.4649316   9.2693709  )
        33           O1  tau(  33) = (   3.2900467   2.9919642  11.3219399  )
        34           O1  tau(  34) = (   0.0092240   2.9805883  10.6323155  )
        35           O1  tau(  35) = (   1.3109590   4.4888342  12.6262493  )
        36           O1  tau(  36) = (   5.2962169   4.4808628  12.6191006  )
        37           Ti1 tau(  37) = (   6.5213093   5.9327278  12.5667326  )
        38           Ti1 tau(  38) = (   3.2063601   4.4772876  12.4706241  )
        39           O1  tau(  39) = (   6.5765807   2.9606619  14.6437028  )
        40           O1  tau(  40) = (   3.3047873   3.0036736  13.8926904  )
        41           O1  tau(  41) = (   4.5386289   4.5058657  16.0833063  )
        42           O1  tau(  42) = (   2.0584685   4.5123608  16.0729366  )
        43           Ti1 tau(  43) = (   3.3398093   0.0384087  15.7085799  )
        44           Ti1 tau(  44) = (   0.0478225   4.6849499  16.0879628  )
        45           O1  tau(  45) = (   3.2900926   2.9813045   4.7018136  )
        46           O1  tau(  46) = (   1.3039711   4.4726057   6.0039043  )
        47           O1  tau(  47) = (   5.2763189   4.4711207   6.0039473  )
        48           H1  tau(  48) = (   5.6109407   2.9912845  17.7881963  )
        49           N1  tau(  49) = (   6.5652763   3.0051276  17.4431066  )
        50           C1  tau(  50) = (   0.8863280   2.9891452  18.6126320  )
        51           H1  tau(  51) = (   1.3596840   3.9617220  18.7724638  )
        52           H1  tau(  52) = (   0.3315535   2.7344040  19.5171108  )
        53           H1  tau(  53) = (   1.6805027   2.2407838  18.4910999  )

     number of k points=    10  Fermi-Dirac smearing, width (Ry)=  0.0073
                       cart. coord. in units 2pi/alat
        k(    1) = (   0.0000000   0.0000000   0.0000000), wk =   0.1250000
        k(    2) = (   0.0000000   0.0419351   0.0000000), wk =   0.2500000
        k(    3) = (   0.0000000  -0.0838702   0.0000000), wk =   0.1250000
        k(    4) = (   0.0379955   0.0000049   0.0000000), wk =   0.2500000
        k(    5) = (   0.0379955   0.0419400   0.0000000), wk =   0.2500000
        k(    6) = (   0.0379955  -0.0838652   0.0000000), wk =   0.2500000
        k(    7) = (   0.0379955  -0.0419301   0.0000000), wk =   0.2500000
        k(    8) = (  -0.0759910  -0.0000099   0.0000000), wk =   0.1250000
        k(    9) = (  -0.0759910   0.0419252   0.0000000), wk =   0.2500000
        k(   10) = (  -0.0759910  -0.0838800   0.0000000), wk =   0.1250000

     Initial potential from superposition of free atoms

     starting charge  374.99916, renormalised to  391.00000

     negative rho (up, down):  1.778E-02 0.000E+00

     %%%%%%%%%%%%%%%%%%%%%%%%%%%%%%%%%%%%%%%%%%%%%%%%%%%%%%%%%%%%%%%%%%%%%%%%
     %                                                                      %
     % You are using vdW-DF, which was implemented by the Thonhauser group. %
     % Please cite the following two papers that made this development      %
     % possible and the two reviews that describe the various versions:     %
     %                                                                      %
     %   T. Thonhauser et al., PRL 115, 136402 (2015).                      %
     %   T. Thonhauser et al., PRB 76, 125112 (2007).                       %
     %   K. Berland et al., Rep. Prog. Phys. 78, 066501 (2015).             %
     %   D.C. Langreth et al., J. Phys.: Condens. Matter 21, 084203 (2009). %
     %                                                                      %
     %                                                                      %
     % If you are calculating the stress with vdW-DF, please also cite:     %
     %                                                                      %
     %   R. Sabatini et al., J. Phys.: Condens. Matter 24, 424209 (2012).   %
     %                                                                      %
     %%%%%%%%%%%%%%%%%%%%%%%%%%%%%%%%%%%%%%%%%%%%%%%%%%%%%%%%%%%%%%%%%%%%%%%%

     Adding external electric field

     Computed dipole along edir(3) :
        Dipole               -5.8084 Ry au,        -14.7635 Debye
        Dipole field         -0.0110 Ry au,

        Potential amp.        1.0161 Ry
        Total length         46.3494 bohr

     Starting wfcs are  296 atomic wfcs
  @ DRIVER MODE: Message from server: STATUS
  @ DRIVER MODE: Message from server: POSDATA
  @ DRIVER MODE: Reading and sharing cell
  @ DRIVER MODE: Reading and sharing positions
  @ DRIVER MODE: Received positions

     Self-consistent Calculation

     iteration #  1     ecut=    29.40 Ry     beta= 0.05
     Davidson diagonalization with overlap
     c_bands:  3 eigenvalues not converged
     c_bands:  1 eigenvalues not converged
     c_bands:  1 eigenvalues not converged
     c_bands:  2 eigenvalues not converged
     c_bands:  4 eigenvalues not converged
     c_bands:  2 eigenvalues not converged
     c_bands:  1 eigenvalues not converged
     c_bands:  1 eigenvalues not converged
     c_bands:  2 eigenvalues not converged
     ethr =  1.00E-05,  avg # of iterations = 19.5

[...]

     total energy              =   -2770.89660921 Ry
     estimated scf accuracy    <    1638.92105590 Ry

     iteration #  2     ecut=    29.40 Ry     beta= 0.05
     Davidson diagonalization with overlap
     ethr =  1.00E-02,  avg # of iterations = 18.7

[...]

     iteration # 65     ecut=    29.40 Ry     beta= 0.05
     Davidson diagonalization with overlap
     c_bands:  1 eigenvalues not converged
     ethr =  4.88E-10,  avg # of iterations = 10.9

[...]

     total energy              =   -2920.41985561 Ry
     estimated scf accuracy    <       0.00000016 Ry

     iteration # 72     ecut=    29.40 Ry     beta= 0.05
     Davidson diagonalization with overlap
     ethr =  3.37E-11,  avg # of iterations =  8.3

     negative rho (up, down):  1.825E-02 0.000E+00

     Adding external electric field

     Computed dipole along edir(3) :
        Dipole                0.6947 Ry au,          1.7659 Debye
        Dipole field          0.0013 Ry au,

        Potential amp.       -0.1215 Ry
        Total length         46.3494 bohr

     End of self-consistent calculation

          k = 0.0000 0.0000 0.0000 ( 18029 PWs)   bands (ev):

   -55.9825 -55.9739 -55.9484 -55.9377 -55.8859 -55.8252 -55.8204 -55.7875
   -55.7858 -55.7535 -55.7467 -55.7130 -55.5561 -55.2759 -54.9549 -54.9209
   -32.5338 -32.4640 -32.3351 -32.3217 -32.3012 -32.2867 -32.2757 -32.2378
   -32.2240 -32.2213 -32.1969 -32.1900 -32.1571 -32.1346 -32.1256 -32.1188
   -32.1168 -32.0859 -32.0655 -32.0396 -32.0316 -32.0274 -32.0118 -31.9903
   -31.9805 -31.9785 -31.9738 -31.9637 -31.9503 -31.9436 -31.9413 -31.9358
   -31.9237 -31.9177 -31.9000 -31.8943 -31.8594 -31.8208 -31.7251 -31.5502
   -31.5437 -31.4728 -31.3619 -31.2740 -31.2515 -31.1787 -31.0922 -30.9811
   -16.7433 -16.4599 -16.2807 -16.1376 -16.1045 -16.0194 -15.8189 -15.6937
   -15.6808 -15.5777 -15.5398 -15.5168 -15.5091 -15.4824 -15.4791 -15.4203
   -15.4172 -15.4047 -15.3923 -15.3363 -15.3123 -15.2726 -15.1784 -15.1545
   -15.1388 -15.1122 -15.0313 -15.0241 -14.5840 -14.1019 -13.4575 -13.3411
    -8.9214  -4.3717  -4.1141  -3.9372  -3.8983  -3.8849  -3.8364  -3.5847
    -3.5683  -3.2973  -3.1894  -3.1789  -3.1679  -3.1530  -3.1383  -3.1191
    -2.8816  -2.8099  -2.7974  -2.7752  -2.7679  -2.7648  -2.7528  -2.7484
    -2.7062  -2.6461  -2.5291  -2.5146  -2.4096  -2.3623  -2.3403  -2.2920
    -2.2484  -2.2415  -2.2298  -2.2122  -2.1987  -2.1785  -2.1606  -2.0262
    -1.9629  -1.8340  -1.7869  -1.7809  -1.5831  -1.5383  -1.4482  -1.4253
    -1.4090  -1.4014  -1.3692  -1.2891  -1.1976  -1.1406  -1.1270  -1.0743
    -0.9976  -0.9860  -0.8755  -0.8709  -0.8072  -0.7512  -0.7420  -0.7325
    -0.6866  -0.6148  -0.5402  -0.4669  -0.4173  -0.3958  -0.3688  -0.2901
    -0.2600  -0.1635  -0.1449  -0.0982  -0.0951  -0.0459  -0.0041   0.0057
     0.0123   0.0271   0.0447   0.1934   0.3004   0.3571   0.3905   0.4013
     0.5568   0.5928   0.6809   0.7684   0.9939   1.0670   1.1606   1.2599
     1.3241   1.6378   1.6831   3.1607   3.2396   3.2928   3.3012   3.4026
     3.4052   3.6104   3.6229   3.6334   3.7017

[...]

          k = 0.0380-0.0419 0.0000 ( 17876 PWs)   bands (ev):

[...]

          k =-0.0760-0.0000 0.0000 ( 17886 PWs)   bands (ev):

[...]

          k =-0.0760-0.0839 0.0000 ( 17948 PWs)   bands (ev):

   -55.9657 -55.9650 -55.9567 -55.9547 -55.8805 -55.8305 -55.8053 -55.8010
   -55.7712 -55.7693 -55.7306 -55.7294 -55.5551 -55.2767 -54.9379 -54.9377
   -32.3382 -32.3353 -32.2795 -32.2790 -32.2667 -32.2614 -32.2607 -32.2463
   -32.1840 -32.1830 -32.1764 -32.1726 -32.1495 -32.1213 -32.1026 -32.0985
   -32.0879 -32.0852 -32.0845 -32.0844 -32.0824 -32.0705 -32.0681 -32.0367
   -32.0257 -32.0198 -31.9954 -31.9862 -31.9680 -31.9675 -31.9636 -31.9624
   -31.9455 -31.9448 -31.9427 -31.9410 -31.8890 -31.8236 -31.7203 -31.6134
   -31.5458 -31.4982 -31.2643 -31.2642 -31.1747 -31.1746 -31.1355 -31.1354
   -16.1952 -16.1619 -15.9263 -15.9167 -15.9079 -15.8917 -15.7471 -15.6950
   -15.6868 -15.6801 -15.6556 -15.6320 -15.5808 -15.5503 -15.5165 -15.5099
   -15.5032 -15.4979 -15.4416 -15.4351 -15.4128 -15.4054 -15.2919 -15.2877
   -15.2863 -15.2103 -15.1458 -15.0126 -14.7540 -14.1229 -13.4430 -13.4429
    -8.9252  -4.3828  -3.4898  -3.4516  -3.2552  -3.1972  -3.1662  -3.1531
    -3.1311  -3.0527  -2.8926  -2.8782  -2.8595  -2.8469  -2.8066  -2.8015
    -2.7897  -2.7757  -2.7685  -2.7510  -2.7171  -2.6760  -2.6483  -2.6412
    -2.6321  -2.6074  -2.5951  -2.5686  -2.5632  -2.5304  -2.5221  -2.5035
    -2.4796  -2.2185  -2.1993  -2.1819  -2.1128  -2.1059  -2.0712  -2.0629
    -2.0439  -2.0305  -1.9784  -1.8773  -1.7139  -1.6812  -1.6683  -1.6518
    -1.5866  -1.5657  -1.4171  -1.3889  -1.3720  -1.3319  -1.2833  -1.2536
    -1.2165  -1.1768  -1.1397  -1.0791  -1.0708  -0.9919  -0.9419  -0.9414
    -0.9142  -0.8444  -0.7653  -0.7483  -0.7366  -0.6953  -0.6819  -0.6003
    -0.5775  -0.4793  -0.4665  -0.3966  -0.3631  -0.2977  -0.0951   0.0028
     0.0617   0.0853   0.1386   0.2358   0.2902   0.3038   0.3372   0.3421
     0.4020   0.4429   0.5571   0.5647   0.6331   0.7367   1.2718   1.4314
     1.4320   1.5029   1.5030   3.4225   3.4283   3.4777   3.5086   3.6602
     3.6646   3.6874   3.6885   3.8096   3.8273

     the Fermi energy is     3.1538 ev

!    total energy              =   -2920.41987052 Ry
     estimated scf accuracy    <       0.00000004 Ry
     smearing contrib. (-TS)   =      -0.02203232 Ry
     internal energy E=F+TS    =   -2920.39783820 Ry

     The total energy is F=E-TS. E is the sum of the following terms:
     one-electron contribution =  -24727.62381194 Ry
     hartree contribution      =   12448.46799294 Ry
     xc contribution           =    -480.87036269 Ry
     ewald contribution        =    9839.62743261 Ry
     electric field correction =       0.00091087 Ry

     convergence has been achieved in  72 iterations

     Forces acting on atoms (cartesian axes, Ry/au):

     atom    1 type  1   force =     0.00011288   -0.00017810    0.09686489
     atom    2 type  1   force =     0.00004926   -0.00047471   -0.17504593
     atom    3 type  2   force =     0.00012799    0.00000864   -0.02535252
     atom    4 type  2   force =    -0.00003517   -0.00127977    0.05235121
     atom    5 type  2   force =    -0.01221456   -0.00000855    0.00298728
     atom    6 type  2   force =     0.01365080    0.00058466    0.00232196
     atom    7 type  1   force =     0.00057273    0.00034041   -0.01301822
     atom    8 type  1   force =     0.00045790    0.00731119    0.03072574
     atom    9 type  2   force =     0.00056185    0.00003614   -0.00021679
     atom   10 type  2   force =    -0.00267686    0.00211157   -0.01737159
     atom   11 type  2   force =    -0.00014652    0.00007458   -0.00002482
     atom   12 type  2   force =     0.00046384    0.00034041    0.00018283
     atom   13 type  1   force =    -0.00009128   -0.00053897   -0.00017437
     atom   14 type  1   force =    -0.00042539    0.00003439    0.00079577
     atom   15 type  2   force =    -0.00000302   -0.00076858    0.00081203
     atom   16 type  2   force =     0.00026187    0.00062984   -0.00048509
     atom   17 type  2   force =     0.00066361    0.00009126    0.00064306
     atom   18 type  2   force =    -0.00011062   -0.00009861   -0.00003379
     atom   19 type  1   force =    -0.00002769    0.00044657   -0.00027476
     atom   20 type  1   force =    -0.00021457   -0.00064664    0.00004602
     atom   21 type  2   force =     0.00006081   -0.00002650    0.10309597
     atom   22 type  2   force =     0.00011233   -0.00090093    0.00096970
     atom   23 type  2   force =    -0.07164603   -0.00015356   -0.02781103
     atom   24 type  2   force =     0.07154310    0.00034318   -0.02786798
     atom   25 type  1   force =     0.00007946   -0.00014109    0.09658949
     atom   26 type  1   force =     0.00009002   -0.00020073   -0.17517869
     atom   27 type  2   force =     0.00011529   -0.00011231   -0.02441295
     atom   28 type  2   force =     0.00004525   -0.00103904    0.05226821
     atom   29 type  2   force =    -0.01241198    0.00063679    0.00277836
     atom   30 type  2   force =     0.01371939    0.00098046    0.00212327
     atom   31 type  1   force =     0.00045760    0.00315817   -0.01357564
     atom   32 type  1   force =     0.00031802   -0.00952332    0.03110015
     atom   33 type  2   force =    -0.00006928    0.00030891   -0.00060520
     atom   34 type  2   force =    -0.00206416    0.00182400   -0.02536721
     atom   35 type  2   force =    -0.00018601   -0.00029178    0.00037593
     atom   36 type  2   force =     0.00025734   -0.00078204    0.00040502
     atom   37 type  1   force =     0.00004550    0.00026489    0.00102212
     atom   38 type  1   force =    -0.00020852    0.00038568    0.00076577
     atom   39 type  2   force =    -0.00006640   -0.00016627   -0.00061524
     atom   40 type  2   force =     0.00042714    0.00007293    0.00058304
     atom   41 type  2   force =     0.00031524   -0.00026685   -0.00001753
     atom   42 type  2   force =    -0.00050881   -0.00040597   -0.00034780
     atom   43 type  1   force =    -0.00080528   -0.00018210    0.00042533
     atom   44 type  1   force =    -0.00031927   -0.00061078    0.00049822
     atom   45 type  2   force =     0.00004219   -0.00005021    0.10311532
     atom   46 type  2   force =    -0.07163626   -0.00007203   -0.02780847
     atom   47 type  2   force =     0.07155694    0.00034887   -0.02787559
     atom   48 type  3   force =     0.00001752   -0.00052746    0.00007243
     atom   49 type  4   force =     0.00052319   -0.00047626   -0.00020670
     atom   50 type  5   force =     0.00667642   -0.00490558   -0.00047233
     atom   51 type  3   force =    -0.00125259    0.00061571    0.00032840
     atom   52 type  3   force =     0.00065127   -0.00106156   -0.00053062
     atom   53 type  3   force =    -0.00685646    0.00494109    0.00044335

     Total force =     0.368607     Total SCF correction =     0.000440
  @ DRIVER MODE: Message from server: STATUS
  @ DRIVER MODE: Message from server: GETFORCE
  @ DRIVER MODE: Returning v,forces,stress,ensemble

     Writing output data file ./calc.save/
  @ DRIVER MODE: Message from server: EXIT
  @ DRIVE MODE: Exiting

     General routines

     Parallel routines

   This run was terminated on:  20: 1: 0   2Aug2021

   JOB DONE.