     Program PWSCF v.6.7GPU starts on 22Sep2021 at 16:12: 1

     R & G space division:  proc/nbgrp/npool/nimage =      10
     Reading input from /storage/home/hcoda1/3/ntian30/research/carbon/CxH_vib/H2O_calc/ads_slab/CHNHNHH2O_b/out_0001/pw.inp
Warning: card &CELL ignored
Warning: card   CELL_DYNAMICS='IPI', ignored
Warning: card / ignored

     Current dimensions of program PWSCF are:
     Max number of different atomic species (ntypx) = 10
     Max number of k-points (npk) =  40000
     Max angular momentum in pseudopotentials (lmaxx) =  3
     Presently no symmetry can be used with electric field

     Message from routine cell_base_init:
     DEPRECATED: use true lattice parameter, not A to a.u. conversion factor

     IMPORTANT: XC functional enforced from input :
     Exchange-correlation= BEEF-VDW
                           (   1   4  43  14   2   0   0)
     Any further DFT definition will be discarded
     Please, verify this is what you really want

  @ DRIVER MODE: Connecting to
 qe_1139763_2937311.sched-torque.pace.gatech.edu8a991hbr_scratch
  using UNIX socket
  @ DRIVER MODE: Message from server: STATUS
  @ DRIVER MODE: Message from server: INIT
  @ DRIVER MODE: Receiving replica           0          -1
  @ DRIVER MODE: Receiving encoded integer          25
  @ DRIVER MODE:  SCF:  T  FORCE:  T  STRESS:  F  VC:  F  ENSEMBLE:  F
  @ DRIVER MODE:  SCF:  T  FORCE:  T  STRESS:  F  VC:  F  ENSEMBLE:  F

     Using Slab Decomposition

     bravais-lattice index     =            0
     lattice parameter (alat)  =       1.8897  a.u.
     unit-cell volume          =    6658.9804 (a.u.)^3
     number of atoms/cell      =           56
     number of atomic types    =            5
     number of electrons       =       403.00
     number of Kohn-Sham states=          211
     kinetic-energy cutoff     =      29.3995  Ry
     charge density cutoff     =     293.9946  Ry
     scf convergence threshold =      7.3E-08
     mixing beta               =       0.0500
     number of iterations used =            8  plain     mixing
     Exchange-correlation= BEEF-VDW
                           (   1   4  43  14   2   0   0)

     celldm(1)=   1.889726  celldm(2)=   0.000000  celldm(3)=   0.000000
     celldm(4)=   0.000000  celldm(5)=   0.000000  celldm(6)=   0.000000

     crystal axes: (cart. coord. in units of alat)
               a(1) = (   6.579727   0.000000   0.000000 )
               a(2) = (  -0.000775   5.961596   0.000000 )
               a(3) = (   0.000000   0.000000  25.155947 )

     reciprocal axes: (cart. coord. in units 2 pi/alat)
               b(1) = (  0.151982  0.000020  0.000000 )
               b(2) = (  0.000000  0.167740  0.000000 )
               b(3) = (  0.000000  0.000000  0.039752 )

     PseudoPot. # 1 for Ti read from file:
     /storage/coda1/p-amedford6/0/shared/rich_project_chbe-medford/medford-share/data/pseudos_module/espresso/nninc/pbe/van/Ti.UPF
     MD5 check sum: 8e4df49b7f0d34bbd5052bf3f5ea0213
     Pseudo is Ultrasoft, Zval = 12.0
     Generated by new atomic code, or converted to UPF format
     Using radial grid of  851 points,  6 beta functions with:
                l(1) =   0
                l(2) =   0
                l(3) =   1
                l(4) =   1
                l(5) =   2
                l(6) =   2
     Q(r) pseudized with  8 coefficients,  rinner =    1.000   1.000   1.000
                                                       1.000   1.000

     PseudoPot. # 2 for O  read from file:
     /storage/coda1/p-amedford6/0/shared/rich_project_chbe-medford/medford-share/data/pseudos_module/espresso/nninc/pbe/van/O.UPF
     MD5 check sum: 78c19812648e8988a0fe644b0f25305e
     Pseudo is Ultrasoft, Zval =  6.0
     Generated by new atomic code, or converted to UPF format
     Using radial grid of  737 points,  4 beta functions with:
                l(1) =   0
                l(2) =   0
                l(3) =   1
                l(4) =   1
     Q(r) pseudized with  8 coefficients,  rinner =    0.800   0.800   0.800

     PseudoPot. # 3 for N  read from file:
     /storage/coda1/p-amedford6/0/shared/rich_project_chbe-medford/medford-share/data/pseudos_module/espresso/nninc/pbe/van/N.UPF
     MD5 check sum: 90d10febe142ad51ac9d5be1deb811c4
     Pseudo is Ultrasoft, Zval =  5.0
     Generated by new atomic code, or converted to UPF format
     Using radial grid of  729 points,  4 beta functions with:
                l(1) =   0
                l(2) =   0
                l(3) =   1
                l(4) =   1
     Q(r) pseudized with  8 coefficients,  rinner =    0.800   0.800   0.800

     PseudoPot. # 4 for C  read from file:
     /storage/coda1/p-amedford6/0/shared/rich_project_chbe-medford/medford-share/data/pseudos_module/espresso/nninc/pbe/van/C.UPF
     MD5 check sum: 1a69bf6b8db32088f5b2163dbdb77a27
     Pseudo is Ultrasoft, Zval =  4.0
     Generated by new atomic code, or converted to UPF format
     Using radial grid of  721 points,  4 beta functions with:
                l(1) =   0
                l(2) =   0
                l(3) =   1
                l(4) =   1
     Q(r) pseudized with  8 coefficients,  rinner =    0.800   0.800   0.800

     PseudoPot. # 5 for H  read from file:
     /storage/coda1/p-amedford6/0/shared/rich_project_chbe-medford/medford-share/data/pseudos_module/espresso/nninc/pbe/van/H.UPF
     MD5 check sum: b5ee9d7bfd3a09ee7748110bda690ff7
     Pseudo is Ultrasoft, Zval =  1.0
     Generated by new atomic code, or converted to UPF format
     Using radial grid of  615 points,  1 beta functions with:
                l(1) =   0
     Q(r) pseudized with  8 coefficients,  rinner =    0.800

     atomic species   valence    mass     pseudopotential
        Ti1           12.00    47.86700     Ti( 1.00)
        O1             6.00    15.99900     O ( 1.00)
        N1             5.00    14.00700     N ( 1.00)
        C1             4.00    12.01100     C ( 1.00)
        H1             1.00     1.00800     H ( 1.00)

     No symmetry found

   Cartesian axes

     site n.     atom                  positions (alat units)
         1           Ti1 tau(   1) = (   0.0004258   2.9801865   6.0000000  )
         2           Ti1 tau(   2) = (   3.2906075   1.4906267   6.0002472  )
         3           O1  tau(   3) = (   0.0006271   0.0005054   7.9858123  )
         4           O1  tau(   4) = (   3.2906025   0.0005020   7.3038282  )
         5           O1  tau(   5) = (   4.5942328   1.4918067   9.2879030  )
         6           O1  tau(   6) = (   1.9868534   1.4903216   9.2879459  )
         7           Ti1 tau(   7) = (   3.2907910   2.8959150   9.1758416  )
         8           Ti1 tau(   8) = (   0.0015273   1.4827037   9.2680791  )
         9           O1  tau(   9) = (   3.2780774   5.9605562  11.3537357  )
        10           O1  tau(  10) = (   0.0116148   5.9584955  10.6183126  )
        11           O1  tau(  11) = (   1.2922713   1.4781662  12.6511241  )
        12           O1  tau(  12) = (   5.2965393   1.5043564  12.6031353  )
        13           Ti1 tau(  13) = (   6.5273184   3.0207086  12.5807821  )
        14           Ti1 tau(  14) = (   3.2344070   1.4559942  12.5004267  )
        15           O1  tau(  15) = (   6.4759410   0.0295824  14.6525783  )
        16           O1  tau(  16) = (   3.3604338   0.0238249  13.9383540  )
        17           O1  tau(  17) = (   4.5324113   1.5808541  16.1066768  )
        18           O1  tau(  18) = (   1.9684897   1.4712893  15.8817925  )
        19           Ti1 tau(  19) = (   3.2566353   3.0739815  15.8599551  )
        20           Ti1 tau(  20) = (   6.5466614   1.5318677  15.7800735  )
        21           O1  tau(  21) = (   3.2904802   0.0005063   4.7018136  )
        22           O1  tau(  22) = (   6.5744325   0.0155309  17.2227980  )
        23           O1  tau(  23) = (   1.3043587   1.4918075   6.0039043  )
        24           O1  tau(  24) = (   5.2767064   1.4903225   6.0039473  )
        25           Ti1 tau(  25) = (   0.0000382   5.9609847   6.0000000  )
        26           Ti1 tau(  26) = (   3.2902200   4.4714249   6.0002472  )
        27           O1  tau(  27) = (   0.0002396   2.9813036   7.9858123  )
        28           O1  tau(  28) = (   3.2902150   2.9813002   7.3038282  )
        29           O1  tau(  29) = (   4.5938453   4.4726049   9.2879030  )
        30           O1  tau(  30) = (   1.9864658   4.4711199   9.2879459  )
        31           Ti1 tau(  31) = (   3.2891106   5.8743827   9.1763621  )
        32           Ti1 tau(  32) = (   0.0006254   4.4649316   9.2693709  )
        33           O1  tau(  33) = (   3.2727763   2.9788165  11.3438337  )
        34           O1  tau(  34) = (   0.0092240   2.9805883  10.6323155  )
        35           O1  tau(  35) = (   1.2865780   4.4896361  12.6556599  )
        36           O1  tau(  36) = (   5.2967437   4.4749066  12.6066920  )
        37           Ti1 tau(  37) = (   6.5467059   0.0356701  12.5108493  )
        38           Ti1 tau(  38) = (   3.2305653   4.4019604  12.5605372  )
        39           O1  tau(  39) = (   6.5199767   2.9846217  14.6905747  )
        40           O1  tau(  40) = (   3.2851694   3.0254550  13.9321539  )
        41           O1  tau(  41) = (   4.5310495   4.4602642  16.1636806  )
        42           O1  tau(  42) = (   1.9842988   4.5744318  15.9411167  )
        43           Ti1 tau(  43) = (   3.2691225   0.1036042  15.7405456  )
        44           Ti1 tau(  44) = (   6.5697781   4.6877429  16.0360384  )
        45           O1  tau(  45) = (   3.2900926   2.9813045   4.7018136  )
        46           O1  tau(  46) = (   1.3039711   4.4726057   6.0039043  )
        47           O1  tau(  47) = (   5.2763189   4.4711207   6.0039473  )
        48           N1  tau(  48) = (   1.2692381   2.8578196  18.3696018  )
        49           N1  tau(  49) = (   0.1888888   2.9646215  17.5057353  )
        50           C1  tau(  50) = (   2.5352320   2.9081513  18.0382144  )
        51           H1  tau(  51) = (   3.1442446   2.7411670  18.9317345  )
        52           H1  tau(  52) = (   1.0014291   2.6635404  19.3302151  )
        53           H1  tau(  53) = (   5.9397212   2.8571719  18.0851170  )
        54           O1  tau(  54) = (   3.2630597   0.0341043  18.2348460  )
        55           H1  tau(  55) = (   4.0455299   5.4198958  18.2485053  )
        56           H1  tau(  56) = (   2.4923979   5.4091459  18.3156537  )

     number of k points=    10  Fermi-Dirac smearing, width (Ry)=  0.0073
                       cart. coord. in units 2pi/alat
        k(    1) = (   0.0000000   0.0000000   0.0000000), wk =   0.1250000
        k(    2) = (   0.0000000   0.0419351   0.0000000), wk =   0.2500000
        k(    3) = (   0.0000000  -0.0838702   0.0000000), wk =   0.1250000
        k(    4) = (   0.0379955   0.0000049   0.0000000), wk =   0.2500000
        k(    5) = (   0.0379955   0.0419400   0.0000000), wk =   0.2500000
        k(    6) = (   0.0379955  -0.0838652   0.0000000), wk =   0.2500000
        k(    7) = (   0.0379955  -0.0419301   0.0000000), wk =   0.2500000
        k(    8) = (  -0.0759910  -0.0000099   0.0000000), wk =   0.1250000
        k(    9) = (  -0.0759910   0.0419252   0.0000000), wk =   0.2500000
        k(   10) = (  -0.0759910  -0.0838800   0.0000000), wk =   0.1250000

     Initial potential from superposition of free atoms

     starting charge  386.99914, renormalised to  403.00000

     negative rho (up, down):  1.738E-02 0.000E+00

     %%%%%%%%%%%%%%%%%%%%%%%%%%%%%%%%%%%%%%%%%%%%%%%%%%%%%%%%%%%%%%%%%%%%%%%%
     %                                                                      %
     % You are using vdW-DF, which was implemented by the Thonhauser group. %
     % Please cite the following two papers that made this development      %
     % possible and the two reviews that describe the various versions:     %
     %                                                                      %
     %   T. Thonhauser et al., PRL 115, 136402 (2015).                      %
     %   T. Thonhauser et al., PRB 76, 125112 (2007).                       %
     %   K. Berland et al., Rep. Prog. Phys. 78, 066501 (2015).             %
     %   D.C. Langreth et al., J. Phys.: Condens. Matter 21, 084203 (2009). %
     %                                                                      %
     %                                                                      %
     % If you are calculating the stress with vdW-DF, please also cite:     %
     %                                                                      %
     %   R. Sabatini et al., J. Phys.: Condens. Matter 24, 424209 (2012).   %
     %                                                                      %
     %%%%%%%%%%%%%%%%%%%%%%%%%%%%%%%%%%%%%%%%%%%%%%%%%%%%%%%%%%%%%%%%%%%%%%%%

     Adding external electric field

     Computed dipole along edir(3) :
        Dipole              -12.3463 Ry au,        -31.3811 Debye
        Dipole field         -0.0233 Ry au,

        Potential amp.        2.1598 Ry
        Total length         46.3494 bohr

     Starting wfcs are  305 atomic wfcs
  @ DRIVER MODE: Message from server: STATUS
  @ DRIVER MODE: Message from server: POSDATA
  @ DRIVER MODE: Reading and sharing cell
  @ DRIVER MODE: Reading and sharing positions
  @ DRIVER MODE: Received positions

     Self-consistent Calculation

     iteration #  1     ecut=    29.40 Ry     beta= 0.05
     Davidson diagonalization with overlap
     c_bands:  5 eigenvalues not converged
     c_bands:  3 eigenvalues not converged
     c_bands:  3 eigenvalues not converged
     c_bands:  1 eigenvalues not converged
     c_bands:  2 eigenvalues not converged
     c_bands:  2 eigenvalues not converged
     c_bands:  5 eigenvalues not converged
     c_bands:  2 eigenvalues not converged
     c_bands:  4 eigenvalues not converged
     ethr =  1.00E-05,  avg # of iterations = 29.3

[...]

     total energy              =   -2358.74353536 Ry
     estimated scf accuracy    <    6971.27892835 Ry

     iteration #  2     ecut=    29.40 Ry     beta= 0.05
     Davidson diagonalization with overlap
     ethr =  1.00E-02,  avg # of iterations = 25.1

[...]

     iteration # 45     ecut=    29.40 Ry     beta= 0.05
     Davidson diagonalization with overlap
     c_bands:  1 eigenvalues not converged
     c_bands:  1 eigenvalues not converged
     ethr =  3.83E-09,  avg # of iterations = 12.1

[...]

     total energy              =   -2973.93979501 Ry
     estimated scf accuracy    <       0.00000013 Ry

     iteration # 55     ecut=    29.40 Ry     beta= 0.05
     Davidson diagonalization with overlap
     ethr =  3.21E-11,  avg # of iterations =  8.4

     negative rho (up, down):  1.725E-02 0.000E+00

     Adding external electric field

     Computed dipole along edir(3) :
        Dipole                1.3951 Ry au,          3.5460 Debye
        Dipole field          0.0026 Ry au,

        Potential amp.       -0.2441 Ry
        Total length         46.3494 bohr

     End of self-consistent calculation

          k = 0.0000 0.0000 0.0000 ( 18029 PWs)   bands (ev):

   -55.3218 -55.2877 -55.2124 -55.1876 -55.1695 -55.1581 -55.1427 -55.1209
   -55.1088 -55.1041 -55.0998 -55.0652 -54.9951 -54.8382 -54.3023 -54.2682
   -31.8060 -31.7333 -31.6579 -31.6525 -31.6424 -31.6138 -31.5894 -31.5670
   -31.5216 -31.5050 -31.4742 -31.4662 -31.4574 -31.4423 -31.4278 -31.4237
   -31.4006 -31.3824 -31.3791 -31.3672 -31.3361 -31.3353 -31.3313 -31.3282
   -31.3251 -31.3215 -31.3175 -31.2994 -31.2913 -31.2814 -31.2746 -31.2726
   -31.2635 -31.2603 -31.2542 -31.2504 -31.2435 -31.2174 -31.2123 -31.0948
   -31.0791 -31.0533 -30.7091 -30.6211 -30.5987 -30.5261 -30.4396 -30.3284
   -18.8726 -18.6790 -15.9801 -15.7961 -15.6149 -15.4762 -15.3944 -15.1627
   -15.1047 -15.0659 -14.9847 -14.9611 -14.8613 -14.8423 -14.8403 -14.8228
   -14.8199 -14.7646 -14.7501 -14.7452 -14.6968 -14.6899 -14.6646 -14.6490
   -14.5956 -14.5178 -14.5086 -14.4627 -14.4176 -14.3710 -14.0267 -13.3852
   -12.8032 -12.6867  -8.7949  -7.2854  -6.6109  -4.3222  -3.7845  -3.3622
    -3.2849  -3.2516  -3.2266  -3.0913  -2.9738  -2.8695  -2.7607  -2.6727
    -2.5868  -2.4826  -2.4255  -2.3805  -2.3199  -2.2597  -2.2335  -2.1481
    -2.1281  -2.1085  -2.0866  -2.0601  -2.0306  -1.9926  -1.8713  -1.8608
    -1.7781  -1.7220  -1.6814  -1.6657  -1.6430  -1.6361  -1.6043  -1.5831
    -1.5744  -1.5631  -1.5605  -1.5261  -1.3876  -1.3625  -1.3346  -1.3161
    -1.1644  -1.0270  -0.9389  -0.9368  -0.8272  -0.7623  -0.7594  -0.7211
    -0.7054  -0.6036  -0.5176  -0.4814  -0.4565  -0.3756  -0.3175  -0.2649
    -0.2129  -0.1755  -0.1108  -0.0876  -0.0706  -0.0536   0.0173   0.0787
     0.1393   0.2246   0.2676   0.2924   0.3833   0.3968   0.4205   0.4851
     0.5195   0.5621   0.5974   0.6267   0.6501   0.6804   0.7058   0.7488
     0.7882   0.9126   0.9307   0.9595   0.9821   1.1549   1.2041   1.3108
     1.3376   1.4491   1.4853   1.6605   1.7216   1.8011   1.9135   2.2917
     2.3375   3.7873   3.8987   3.9327   3.9580   3.9974   4.0483   4.2550
     4.3280   4.3694   4.4301

[...]

          k = 0.0380-0.0419 0.0000 ( 17876 PWs)   bands (ev):

[...]

          k =-0.0760-0.0000 0.0000 ( 17886 PWs)   bands (ev):

[...]

          k =-0.0760-0.0839 0.0000 ( 17948 PWs)   bands (ev):

   -55.3050 -55.3044 -55.2029 -55.1843 -55.1781 -55.1467 -55.1327 -55.1258
   -55.1250 -55.1076 -55.0865 -55.0786 -54.9934 -54.8399 -54.2852 -54.2852
   -31.6215 -31.6210 -31.5994 -31.5990 -31.5675 -31.5353 -31.5041 -31.4917
   -31.4853 -31.4699 -31.4512 -31.4442 -31.4420 -31.4324 -31.4275 -31.4269
   -31.4244 -31.4241 -31.4188 -31.4029 -31.3920 -31.3782 -31.3669 -31.3639
   -31.3603 -31.3557 -31.3467 -31.3340 -31.3281 -31.3266 -31.3113 -31.3021
   -31.2990 -31.2982 -31.2965 -31.2938 -31.2601 -31.2367 -31.2224 -31.1505
   -31.0970 -31.0821 -30.6114 -30.6113 -30.5220 -30.5219 -30.4829 -30.4829
   -18.8607 -18.6865 -15.3581 -15.3222 -15.2843 -15.2571 -15.2414 -15.1201
   -15.1060 -15.0708 -15.0290 -15.0159 -14.9854 -14.9568 -14.9084 -14.8995
   -14.8655 -14.8460 -14.8071 -14.7805 -14.7611 -14.7568 -14.7399 -14.7184
   -14.6745 -14.6528 -14.6405 -14.6362 -14.5844 -14.4911 -14.2123 -13.4074
   -12.7885 -12.7884  -8.7915  -7.2107  -6.6119  -4.5248  -3.5715  -2.8624
    -2.6768  -2.6336  -2.5798  -2.4903  -2.4439  -2.3213  -2.3148  -2.2921
    -2.2469  -2.2338  -2.1932  -2.1531  -2.1468  -2.1191  -2.1067  -2.0621
    -2.0505  -2.0476  -2.0332  -1.9989  -1.9940  -1.9733  -1.9493  -1.9461
    -1.9360  -1.9197  -1.8872  -1.8799  -1.8525  -1.8343  -1.6818  -1.6068
    -1.5656  -1.4879  -1.4647  -1.4478  -1.4290  -1.3943  -1.3741  -1.3485
    -1.3201  -1.1740  -1.0308  -0.9988  -0.9738  -0.8749  -0.8606  -0.8409
    -0.7939  -0.7518  -0.7179  -0.6584  -0.6492  -0.6042  -0.5832  -0.4632
    -0.4243  -0.3253  -0.2903  -0.2884  -0.2707  -0.2565  -0.2390  -0.2132
    -0.1646  -0.0923  -0.0767  -0.0279  -0.0042  -0.0014   0.0114   0.1594
     0.2284   0.2513   0.3532   0.3810   0.5552   0.7201   0.7316   0.7998
     0.8622   0.9189   0.9515   0.9914   1.0017   1.0674   1.0935   1.1982
     1.2071   1.2569   1.2631   1.3486   1.3533   2.0853   2.0870   2.1574
     2.1576   4.1515   4.1641   4.1951   4.2583   4.3014   4.3131   4.3507
     4.3545   4.4571   4.4726

     the Fermi energy is     3.8054 ev

!    total energy              =   -2973.93987045 Ry
     estimated scf accuracy    <       0.00000007 Ry
     smearing contrib. (-TS)   =      -0.02072679 Ry
     internal energy E=F+TS    =   -2973.91914366 Ry

     The total energy is F=E-TS. E is the sum of the following terms:
     one-electron contribution =  -24338.89990987 Ry
     hartree contribution      =   12267.12737157 Ry
     xc contribution           =    -494.11586800 Ry
     ewald contribution        =    9591.96558960 Ry
     electric field correction =       0.00367304 Ry

     convergence has been achieved in  55 iterations

     Forces acting on atoms (cartesian axes, Ry/au):

     atom    1 type  1   force =     0.00002626   -0.00008642    0.09507600
     atom    2 type  1   force =     0.00016786   -0.00069716   -0.17562292
     atom    3 type  2   force =     0.00008792   -0.00005078   -0.02293766
     atom    4 type  2   force =     0.00001993   -0.00143342    0.05289634
     atom    5 type  2   force =    -0.01001715   -0.00031095    0.00380985
     atom    6 type  2   force =     0.01114032    0.00020707    0.00206459
     atom    7 type  1   force =    -0.00021618    0.00179833   -0.00588415
     atom    8 type  1   force =     0.00082156    0.01007993    0.01604399
     atom    9 type  2   force =    -0.00015699    0.00086832    0.00031609
     atom   10 type  2   force =    -0.00227721    0.00217541   -0.01800769
     atom   11 type  2   force =     0.00020547   -0.00003669    0.00007912
     atom   12 type  2   force =    -0.00031554   -0.00018892    0.00056395
     atom   13 type  1   force =    -0.00001328    0.00124846    0.00010521
     atom   14 type  1   force =    -0.00012405    0.00010901    0.00000684
     atom   15 type  2   force =     0.00015462    0.00025180    0.00014764
     atom   16 type  2   force =    -0.00037340    0.00044355   -0.00028075
     atom   17 type  2   force =    -0.00002979   -0.00025941   -0.00008420
     atom   18 type  2   force =    -0.00027145   -0.00001665    0.00039561
     atom   19 type  1   force =    -0.00069788    0.00032843    0.00058755
     atom   20 type  1   force =    -0.00044909   -0.00052730   -0.00036037
     atom   21 type  2   force =     0.00009466   -0.00008806    0.10319124
     atom   22 type  2   force =     0.00039022    0.00002090    0.00052591
     atom   23 type  2   force =    -0.07159974   -0.00016756   -0.02756509
     atom   24 type  2   force =     0.07156044    0.00024677   -0.02761443
     atom   25 type  1   force =     0.00023137   -0.00039755    0.09520774
     atom   26 type  1   force =    -0.00003211   -0.00019977   -0.17578756
     atom   27 type  2   force =     0.00012070   -0.00011843   -0.02196378
     atom   28 type  2   force =     0.00001381   -0.00139795    0.05322341
     atom   29 type  2   force =    -0.01036013   -0.00022437    0.00365063
     atom   30 type  2   force =     0.01139860    0.00042695    0.00191779
     atom   31 type  1   force =    -0.00030436    0.00266811   -0.00007630
     atom   32 type  1   force =     0.00067563   -0.01114907    0.01690864
     atom   33 type  2   force =     0.00037619   -0.00027597   -0.00000914
     atom   34 type  2   force =    -0.00034291    0.00144570   -0.01893967
     atom   35 type  2   force =    -0.00003881   -0.00035124   -0.00016944
     atom   36 type  2   force =     0.00003103   -0.00024373    0.00043406
     atom   37 type  1   force =    -0.00003687   -0.00123408    0.00027671
     atom   38 type  1   force =    -0.00039821    0.00083670    0.00009722
     atom   39 type  2   force =     0.00009332    0.00008325    0.00023372
     atom   40 type  2   force =    -0.00051609   -0.00060269   -0.00023642
     atom   41 type  2   force =     0.00034707   -0.00011719    0.00021929
     atom   42 type  2   force =    -0.00040196   -0.00026129   -0.00029985
     atom   43 type  1   force =    -0.00023825   -0.00021701    0.00067595
     atom   44 type  1   force =    -0.00005287    0.00007663   -0.00031164
     atom   45 type  2   force =     0.00009739   -0.00010199    0.10320641
     atom   46 type  2   force =    -0.07158662   -0.00016703   -0.02755556
     atom   47 type  2   force =     0.07158690    0.00024547   -0.02756962
     atom   48 type  3   force =     0.02788218    0.00059900   -0.00353964
     atom   49 type  3   force =    -0.00619716   -0.00011300   -0.00048739
     atom   50 type  4   force =    -0.01493610   -0.00044828    0.00271719
     atom   51 type  5   force =    -0.00150173   -0.00066176    0.00046108
     atom   52 type  5   force =    -0.00295616   -0.00172339    0.00221618
     atom   53 type  5   force =    -0.00119822   -0.00018524   -0.00219850
     atom   54 type  2   force =     0.00007631    0.00116836   -0.00024042
     atom   55 type  5   force =     0.00006926   -0.00028500    0.00002385
     atom   56 type  5   force =    -0.00002870   -0.00098880    0.00046239

     Total force =     0.366659     Total SCF correction =     0.000919
  @ DRIVER MODE: Message from server: STATUS
  @ DRIVER MODE: Message from server: GETFORCE
  @ DRIVER MODE: Returning v,forces,stress,ensemble

     Writing output data file ./calc.save/
  @ DRIVER MODE: Message from server: EXIT
  @ DRIVE MODE: Exiting

     General routines

     Parallel routines

   This run was terminated on:  16:29: 9  22Sep2021

   JOB DONE.