     Program PWSCF v.6.7GPU starts on 19Oct2021 at  7:56:15

     R & G space division:  proc/nbgrp/npool/nimage =       8
     Reading input from /storage/home/hcoda1/3/ntian30/research/carbon/CxH_vib/Thiel_calc/ads_slab/NH2NH2HH_perslab/out_0042/pw.inp
Warning: card &CELL ignored
Warning: card   CELL_DYNAMICS='IPI', ignored
Warning: card / ignored

     Current dimensions of program PWSCF are:
     Max number of different atomic species (ntypx) = 10
     Max number of k-points (npk) =  40000
     Max angular momentum in pseudopotentials (lmaxx) =  3
     Presently no symmetry can be used with electric field

     Message from routine cell_base_init:
     DEPRECATED: use true lattice parameter, not A to a.u. conversion factor

     IMPORTANT: XC functional enforced from input :
     Exchange-correlation= BEEF-VDW
                           (   1   4  43  14   2   0   0)
     Any further DFT definition will be discarded
     Please, verify this is what you really want

  @ DRIVER MODE: Connecting to
 qe_1139763_3255137.sched-torque.pace.gatech.eduah3359iz_scratch
  using UNIX socket
  @ DRIVER MODE: Message from server: STATUS
  @ DRIVER MODE: Message from server: INIT
  @ DRIVER MODE: Receiving replica           0          -1
  @ DRIVER MODE: Receiving encoded integer          25
  @ DRIVER MODE:  SCF:  T  FORCE:  T  STRESS:  F  VC:  F  ENSEMBLE:  F
  @ DRIVER MODE:  SCF:  T  FORCE:  T  STRESS:  F  VC:  F  ENSEMBLE:  F

     Using Slab Decomposition

     bravais-lattice index     =            0
     lattice parameter (alat)  =       1.8897  a.u.
     unit-cell volume          =    9988.4706 (a.u.)^3
     number of atoms/cell      =           61
     number of atomic types    =            4
     number of electrons       =       442.00
     number of Kohn-Sham states=          231
     kinetic-energy cutoff     =      29.3995  Ry
     charge density cutoff     =     293.9946  Ry
     scf convergence threshold =      7.3E-08
     mixing beta               =       0.0500
     number of iterations used =            8  plain     mixing
     Exchange-correlation= BEEF-VDW
                           (   1   4  43  14   2   0   0)

     celldm(1)=   1.889726  celldm(2)=   0.000000  celldm(3)=   0.000000
     celldm(4)=   0.000000  celldm(5)=   0.000000  celldm(6)=   0.000000

     crystal axes: (cart. coord. in units of alat)
               a(1) = (   6.579727   0.000000   0.000000 )
               a(2) = (  -0.001163   8.942395   0.000000 )
               a(3) = (   0.000000   0.000000  25.155947 )

     reciprocal axes: (cart. coord. in units 2 pi/alat)
               b(1) = (  0.151982  0.000020  0.000000 )
               b(2) = (  0.000000  0.111827  0.000000 )
               b(3) = (  0.000000  0.000000  0.039752 )

     PseudoPot. # 1 for O  read from file:
     /storage/coda1/p-amedford6/0/shared/rich_project_chbe-medford/medford-share/data/pseudos_module/espresso/nninc/pbe/van/O.UPF
     MD5 check sum: 78c19812648e8988a0fe644b0f25305e
     Pseudo is Ultrasoft, Zval =  6.0
     Generated by new atomic code, or converted to UPF format
     Using radial grid of  737 points,  4 beta functions with:
                l(1) =   0
                l(2) =   0
                l(3) =   1
                l(4) =   1
     Q(r) pseudized with  8 coefficients,  rinner =    0.800   0.800   0.800

     PseudoPot. # 2 for Ti read from file:
     /storage/coda1/p-amedford6/0/shared/rich_project_chbe-medford/medford-share/data/pseudos_module/espresso/nninc/pbe/van/Ti.UPF
     MD5 check sum: 8e4df49b7f0d34bbd5052bf3f5ea0213
     Pseudo is Ultrasoft, Zval = 12.0
     Generated by new atomic code, or converted to UPF format
     Using radial grid of  851 points,  6 beta functions with:
                l(1) =   0
                l(2) =   0
                l(3) =   1
                l(4) =   1
                l(5) =   2
                l(6) =   2
     Q(r) pseudized with  8 coefficients,  rinner =    1.000   1.000   1.000
                                                       1.000   1.000

     PseudoPot. # 3 for N  read from file:
     /storage/coda1/p-amedford6/0/shared/rich_project_chbe-medford/medford-share/data/pseudos_module/espresso/nninc/pbe/van/N.UPF
     MD5 check sum: 90d10febe142ad51ac9d5be1deb811c4
     Pseudo is Ultrasoft, Zval =  5.0
     Generated by new atomic code, or converted to UPF format
     Using radial grid of  729 points,  4 beta functions with:
                l(1) =   0
                l(2) =   0
                l(3) =   1
                l(4) =   1
     Q(r) pseudized with  8 coefficients,  rinner =    0.800   0.800   0.800

     PseudoPot. # 4 for H  read from file:
     /storage/coda1/p-amedford6/0/shared/rich_project_chbe-medford/medford-share/data/pseudos_module/espresso/nninc/pbe/van/H.UPF
     MD5 check sum: b5ee9d7bfd3a09ee7748110bda690ff7
     Pseudo is Ultrasoft, Zval =  1.0
     Generated by new atomic code, or converted to UPF format
     Using radial grid of  615 points,  1 beta functions with:
                l(1) =   0
     Q(r) pseudized with  8 coefficients,  rinner =    0.800

     atomic species   valence    mass     pseudopotential
        O1             6.00    15.99900     O ( 1.00)
        Ti1           12.00    47.86700     Ti( 1.00)
        N1             5.00    14.00700     N ( 1.00)
        H1             1.00     1.00800     H ( 1.00)

     No symmetry found

   Cartesian axes

     site n.     atom                  positions (alat units)
         1           O1  tau(   1) = (   0.0007354   0.0005023  10.5931620  )
         2           O1  tau(   2) = (   3.2456387   0.0208629  13.8623892  )
         3           O1  tau(   3) = (   6.5569189   0.0555649  17.3369326  )
         4           O1  tau(   4) = (   0.0006271   0.0005054   7.9858123  )
         5           O1  tau(   5) = (   3.2933513   8.9300833  11.1812556  )
         6           O1  tau(   6) = (   0.0337597   0.0712708  14.6279364  )
         7           O1  tau(   7) = (   1.9868534   1.4903216   9.2879459  )
         8           O1  tau(   8) = (   5.2215124   1.6184176  12.5791628  )
         9           O1  tau(   9) = (   1.9922958   1.5902288  16.0980526  )
        10           Ti1 tau(  10) = (   0.0007404   1.4906270   9.2895810  )
        11           Ti1 tau(  11) = (   3.2860490   1.3455809  12.4359399  )
        12           Ti1 tau(  12) = (   6.5618936   1.3602716  15.8812525  )
        13           O1  tau(  13) = (   4.5942328   1.4918067   9.2879030  )
        14           O1  tau(  14) = (   1.3307156   1.5887400  12.5381291  )
        15           O1  tau(  15) = (   4.5725103   1.6118788  16.0006659  )
        16           Ti1 tau(  16) = (   3.2902859   2.9801868   9.2893338  )
        17           Ti1 tau(  17) = (   0.0046584   2.8227806  12.4510757  )
        18           Ti1 tau(  18) = (   3.2555632   2.8898243  15.6661830  )
        19           O1  tau(  19) = (   0.0003479   2.9813005  10.5931620  )
        20           O1  tau(  20) = (   3.2279248   2.9553539  13.8813459  )
        21           O1  tau(  21) = (   0.0002396   2.9813036   7.9858123  )
        22           O1  tau(  22) = (   3.2889556   2.9859946  11.1941525  )
        23           O1  tau(  23) = (   0.0559812   2.9852445  14.6488683  )
        24           O1  tau(  24) = (   1.9864658   4.4711199   9.2879459  )
        25           O1  tau(  25) = (   5.2314886   4.5920767  12.6107679  )
        26           O1  tau(  26) = (   1.9969377   4.5324570  16.1535429  )
        27           Ti1 tau(  27) = (   0.0003529   4.4714252   9.2895810  )
        28           Ti1 tau(  28) = (   3.2845268   4.3564118  12.5295435  )
        29           Ti1 tau(  29) = (   6.5676402   4.3565080  15.8255799  )
        30           O1  tau(  30) = (   4.5938453   4.4726049   9.2879030  )
        31           O1  tau(  31) = (   1.3315080   4.5776727  12.5731030  )
        32           O1  tau(  32) = (   4.5871741   4.4544688  15.9274438  )
        33           Ti1 tau(  33) = (   3.2898983   5.9609850   9.2893338  )
        34           Ti1 tau(  34) = (   6.5783773   5.8108302  12.4536689  )
        35           Ti1 tau(  35) = (   3.3162440   5.8110762  16.0333210  )
        36           O1  tau(  36) = (  -0.0000397   5.9620987  10.5931620  )
        37           O1  tau(  37) = (   3.2636778   5.9869953  13.9790019  )
        38           O1  tau(  38) = (   6.4104969   6.0475349  17.2872242  )
        39           O1  tau(  39) = (  -0.0001480   5.9621018   7.9858123  )
        40           O1  tau(  40) = (   3.2905218   5.9516507  11.2202175  )
        41           O1  tau(  41) = (   0.0617018   5.9803669  14.6637187  )
        42           O1  tau(  42) = (   1.9860782   7.4519181   9.2879459  )
        43           O1  tau(  43) = (   5.2407037   7.5572870  12.6049163  )
        44           O1  tau(  44) = (   1.9881273   7.5959696  16.0809372  )
        45           Ti1 tau(  45) = (  -0.0000347   7.4522234   9.2895810  )
        46           Ti1 tau(  46) = (   3.2912638   7.2305267  12.6172466  )
        47           Ti1 tau(  47) = (   0.0232661   7.3094817  15.9177444  )
        48           O1  tau(  48) = (   4.5934577   7.4534031   9.2879030  )
        49           O1  tau(  49) = (   1.3287160   7.5404973  12.5734398  )
        50           O1  tau(  50) = (   4.6507959   7.6754627  15.9163669  )
        51           Ti1 tau(  51) = (   3.2895107   8.9417832   9.2893338  )
        52           Ti1 tau(  52) = (   0.0077981   8.7799231  12.4640552  )
        53           Ti1 tau(  53) = (   3.2910717   8.8534038  15.6608489  )
        54           N1  tau(  54) = (   3.7626148   6.0985185  18.0019073  )
        55           H1  tau(  55) = (   3.4663780   5.3841571  18.6619304  )
        56           H1  tau(  56) = (   3.5565419   6.9988739  18.4208443  )
        57           N1  tau(  57) = (   6.5319303   3.0529623  17.4095181  )
        58           H1  tau(  58) = (   5.7013393   3.0140474  17.9904383  )
        59           H1  tau(  59) = (   0.7603229   3.1006543  18.0203722  )
        60           H1  tau(  60) = (   5.4974376   6.0468821  17.7523635  )
        61           H1  tau(  61) = (   0.7324116   0.0679216  17.9402240  )

     number of k points=    10  Fermi-Dirac smearing, width (Ry)=  0.0073
                       cart. coord. in units 2pi/alat
        k(    1) = (   0.0000000   0.0000000   0.0000000), wk =   0.1250000
        k(    2) = (   0.0000000   0.0279567   0.0000000), wk =   0.2500000
        k(    3) = (   0.0000000  -0.0559134   0.0000000), wk =   0.1250000
        k(    4) = (   0.0379955   0.0000049   0.0000000), wk =   0.2500000
        k(    5) = (   0.0379955   0.0279617   0.0000000), wk =   0.2500000
        k(    6) = (   0.0379955  -0.0559085   0.0000000), wk =   0.2500000
        k(    7) = (   0.0379955  -0.0279518   0.0000000), wk =   0.2500000
        k(    8) = (  -0.0759910  -0.0000099   0.0000000), wk =   0.1250000
        k(    9) = (  -0.0759910   0.0279468   0.0000000), wk =   0.2500000
        k(   10) = (  -0.0759910  -0.0559233   0.0000000), wk =   0.1250000

     Initial potential from superposition of free atoms

     starting charge  423.99908, renormalised to  442.00000

     negative rho (up, down):  3.745E-02 0.000E+00

     %%%%%%%%%%%%%%%%%%%%%%%%%%%%%%%%%%%%%%%%%%%%%%%%%%%%%%%%%%%%%%%%%%%%%%%%
     %                                                                      %
     % You are using vdW-DF, which was implemented by the Thonhauser group. %
     % Please cite the following two papers that made this development      %
     % possible and the two reviews that describe the various versions:     %
     %                                                                      %
     %   T. Thonhauser et al., PRL 115, 136402 (2015).                      %
     %   T. Thonhauser et al., PRB 76, 125112 (2007).                       %
     %   K. Berland et al., Rep. Prog. Phys. 78, 066501 (2015).             %
     %   D.C. Langreth et al., J. Phys.: Condens. Matter 21, 084203 (2009). %
     %                                                                      %
     %                                                                      %
     % If you are calculating the stress with vdW-DF, please also cite:     %
     %                                                                      %
     %   R. Sabatini et al., J. Phys.: Condens. Matter 24, 424209 (2012).   %
     %                                                                      %
     %%%%%%%%%%%%%%%%%%%%%%%%%%%%%%%%%%%%%%%%%%%%%%%%%%%%%%%%%%%%%%%%%%%%%%%%

     Adding external electric field

     Computed dipole along edir(3) :
        Dipole               -5.9695 Ry au,        -15.1729 Debye
        Dipole field         -0.0075 Ry au,

        Potential amp.        0.6962 Ry
        Total length         46.3494 bohr

     Starting wfcs are  334 atomic wfcs
  @ DRIVER MODE: Message from server: STATUS
  @ DRIVER MODE: Message from server: POSDATA
  @ DRIVER MODE: Reading and sharing cell
  @ DRIVER MODE: Reading and sharing positions
  @ DRIVER MODE: Received positions

     Self-consistent Calculation

     iteration #  1     ecut=    29.40 Ry     beta= 0.05
     Davidson diagonalization with overlap
     c_bands:  1 eigenvalues not converged
     c_bands:  3 eigenvalues not converged
     c_bands:  5 eigenvalues not converged
     c_bands:  2 eigenvalues not converged
     c_bands:  4 eigenvalues not converged
     c_bands:  4 eigenvalues not converged
     c_bands:  3 eigenvalues not converged
     c_bands:  2 eigenvalues not converged
     c_bands:  4 eigenvalues not converged
     ethr =  1.00E-05,  avg # of iterations = 21.0

[...]

     total energy              =   -3277.93199264 Ry
     estimated scf accuracy    <     239.69480103 Ry

     iteration #  2     ecut=    29.40 Ry     beta= 0.05
     Davidson diagonalization with overlap
     ethr =  1.00E-02,  avg # of iterations = 15.9

[...]

     iteration # 55     ecut=    29.40 Ry     beta= 0.05
     Davidson diagonalization with overlap
     c_bands:  1 eigenvalues not converged
     ethr =  1.88E-09,  avg # of iterations = 12.0

[...]

     total energy              =   -3295.80754989 Ry
     estimated scf accuracy    <       0.00000020 Ry

     iteration # 67     ecut=    29.40 Ry     beta= 0.05
     Davidson diagonalization with overlap
     ethr =  2.70E-11,  avg # of iterations =  6.1

     negative rho (up, down):  3.606E-02 0.000E+00

     Adding external electric field

     Computed dipole along edir(3) :
        Dipole                1.5140 Ry au,          3.8483 Debye
        Dipole field          0.0019 Ry au,

        Potential amp.       -0.1766 Ry
        Total length         46.3494 bohr

     End of self-consistent calculation

          k = 0.0000 0.0000 0.0000 ( 26871 PWs)   bands (ev):

   -57.7229 -57.6972 -57.6869 -57.6608 -57.6517 -57.6170 -57.6055 -57.5967
   -57.5689 -57.5555 -57.5064 -57.4759 -57.4595 -57.4533 -57.4452 -56.7450
   -56.7209 -56.7163 -34.1046 -34.1018 -34.0925 -34.0837 -34.0712 -34.0548
   -34.0539 -34.0402 -34.0271 -34.0159 -33.9859 -33.9680 -33.9481 -33.9420
   -33.9342 -33.9158 -33.9103 -33.9093 -33.8907 -33.8855 -33.8626 -33.8603
   -33.8409 -33.8314 -33.8272 -33.8211 -33.8102 -33.8082 -33.8026 -33.7930
   -33.7818 -33.7800 -33.7654 -33.7311 -33.7209 -33.7169 -33.7020 -33.7014
   -33.6940 -33.6929 -33.6814 -33.6730 -33.6662 -33.6602 -33.6377 -33.0603
   -33.0593 -33.0547 -33.0432 -33.0389 -32.9711 -32.9091 -32.9037 -32.7709
   -19.3008 -18.7357 -18.5210 -18.2232 -18.0144 -17.9719 -17.9388 -17.8177
   -17.7822 -17.7581 -17.6604 -17.6493 -17.5857 -17.5319 -17.5039 -17.4550
   -17.4371 -17.3767 -17.3627 -17.3545 -17.3491 -17.3389 -17.3288 -17.2630
   -17.2358 -17.2081 -17.1691 -17.1534 -17.1467 -17.1393 -17.1168 -16.8442
   -15.5009 -15.2115 -15.1534 -15.1521 -15.0884  -6.9848  -6.8110  -6.6355
    -6.3457  -5.8584  -5.7847  -5.6355  -5.5116  -5.2195  -5.1916  -5.1402
    -5.1136  -5.0845  -5.0201  -5.0001  -4.9870  -4.9318  -4.9144  -4.8418
    -4.8189  -4.7772  -4.7535  -4.7279  -4.6829  -4.6430  -4.6159  -4.6038
    -4.5731  -4.5655  -4.5090  -4.4853  -4.4559  -4.4504  -4.4343  -4.3248
    -4.2930  -4.2366  -4.1676  -4.0902  -4.0375  -4.0292  -3.9728  -3.9538
    -3.9012  -3.8603  -3.8241  -3.8156  -3.7791  -3.7404  -3.6404  -3.6097
    -3.5859  -3.5202  -3.4977  -3.4296  -3.4120  -3.3786  -3.3373  -3.3315
    -3.2943  -3.1966  -3.1622  -3.0815  -3.0252  -2.9724  -2.9331  -2.8884
    -2.8419  -2.8085  -2.7833  -2.7014  -2.6259  -2.5418  -2.4913  -2.4788
    -2.4666  -2.4163  -2.4090  -2.4067  -2.3492  -2.3234  -2.3124  -2.2735
    -2.2240  -2.2012  -2.1389  -2.0934  -2.0589  -1.9913  -1.9755  -1.8949
    -1.8856  -1.8250  -1.7817  -1.7423  -1.6306  -1.5946  -1.5637  -1.5611
    -1.4422  -1.4059  -1.1432  -1.0029  -0.7904  -0.7546  -0.4985  -0.4498
    -0.4469  -0.1839  -0.1805  -0.0523   1.3240   1.5127   1.6463   1.7019
     1.7067   1.7403   1.8066   1.8928   1.9182   1.9653   1.9966

[...]

          k = 0.0380-0.0280 0.0000 ( 26873 PWs)   bands (ev):

[...]

          k =-0.0760-0.0000 0.0000 ( 26902 PWs)   bands (ev):

[...]

          k =-0.0760-0.0559 0.0000 ( 26868 PWs)   bands (ev):

   -57.7194 -57.7048 -57.6827 -57.6597 -57.6517 -57.6176 -57.6069 -57.5964
   -57.5683 -57.5552 -57.5066 -57.4709 -57.4634 -57.4590 -57.4404 -56.7389
   -56.7334 -56.7100 -34.1919 -34.1551 -34.1518 -34.0925 -34.0583 -34.0506
   -34.0401 -34.0374 -33.9999 -33.9660 -33.9327 -33.9185 -33.9131 -33.9118
   -33.9004 -33.8978 -33.8781 -33.8713 -33.8666 -33.8663 -33.8624 -33.8572
   -33.8519 -33.8434 -33.8295 -33.8245 -33.8219 -33.8163 -33.8120 -33.7917
   -33.7910 -33.7687 -33.7619 -33.7545 -33.7487 -33.7311 -33.7238 -33.7187
   -33.6992 -33.6987 -33.6967 -33.6934 -33.6842 -33.6660 -33.6491 -33.1491
   -33.0601 -33.0547 -33.0324 -32.9527 -32.9466 -32.8849 -32.8704 -32.8651
   -19.2875 -18.7059 -18.2700 -18.1332 -17.9611 -17.9196 -17.8460 -17.8329
   -17.8210 -17.7917 -17.6998 -17.6765 -17.6499 -17.5671 -17.5475 -17.4984
   -17.4545 -17.4413 -17.4228 -17.4121 -17.4040 -17.3871 -17.3534 -17.3213
   -17.2884 -17.2366 -17.1749 -17.1559 -17.1075 -17.0928 -17.0621 -16.8780
   -15.4956 -15.2095 -15.2074 -15.0906 -15.0897  -6.9895  -6.8439  -6.6262
    -6.3269  -5.5152  -5.4522  -5.3689  -5.3545  -5.2366  -5.2041  -5.0125
    -5.0025  -4.9876  -4.9556  -4.9236  -4.8874  -4.8607  -4.8366  -4.8231
    -4.8092  -4.7878  -4.7620  -4.7499  -4.7337  -4.6895  -4.6429  -4.6365
    -4.6254  -4.6030  -4.5488  -4.5037  -4.4760  -4.4232  -4.4197  -4.3395
    -4.3162  -4.2981  -4.2241  -4.2158  -4.0960  -3.9461  -3.8853  -3.8651
    -3.8413  -3.7939  -3.7827  -3.7301  -3.7085  -3.6909  -3.5536  -3.4720
    -3.4484  -3.4143  -3.3827  -3.3595  -3.3241  -3.2965  -3.2744  -3.2492
    -3.2330  -3.1800  -3.1635  -3.1207  -3.0784  -2.9969  -2.9528  -2.8946
    -2.8721  -2.8536  -2.8353  -2.8315  -2.8111  -2.7783  -2.7489  -2.6923
    -2.6842  -2.6540  -2.5824  -2.5279  -2.4998  -2.4750  -2.4329  -2.4258
    -2.2710  -2.2508  -2.2183  -2.2065  -2.1326  -2.0882  -1.9976  -1.9713
    -1.9482  -1.8770  -1.8049  -1.7621  -1.7055  -1.5093  -1.5006  -1.3815
    -1.3447  -1.2959  -1.2704  -1.2280  -1.0676  -0.7404  -0.6611  -0.3778
    -0.3666  -0.3405  -0.1851  -0.1788   1.4311   1.4548   1.5400   1.5968
     1.6151   1.6528   1.6656   1.7045   1.7251   1.7819   1.9173

     the Fermi energy is     1.3749 ev

!    total energy              =   -3295.80756924 Ry
     estimated scf accuracy    <       0.00000002 Ry
     smearing contrib. (-TS)   =      -0.03571369 Ry
     internal energy E=F+TS    =   -3295.77185555 Ry

     The total energy is F=E-TS. E is the sum of the following terms:
     one-electron contribution =  -34705.26253284 Ry
     hartree contribution      =   17418.57001736 Ry
     xc contribution           =    -543.86075080 Ry
     ewald contribution        =   14534.77852684 Ry
     electric field correction =       0.00288389 Ry

     convergence has been achieved in  67 iterations

     Forces acting on atoms (cartesian axes, Ry/au):

     atom    1 type  1   force =    -0.00168697    0.00377298    0.05474351
     atom    2 type  1   force =     0.00024075   -0.00250120   -0.00841788
     atom    3 type  1   force =     0.00045034   -0.00351325    0.00039102
     atom    4 type  1   force =     0.00004373   -0.00002851    0.10675878
     atom    5 type  1   force =    -0.00020444    0.00065785    0.00661140
     atom    6 type  1   force =     0.00003142   -0.00444178    0.00376119
     atom    7 type  1   force =     0.06648228    0.00079765   -0.02965850
     atom    8 type  1   force =     0.00659412   -0.02713219    0.00197012
     atom    9 type  1   force =     0.00660673   -0.02255751    0.00515014
     atom   10 type  2   force =    -0.00010823   -0.00450102   -0.18344393
     atom   11 type  2   force =     0.00067411    0.02087508   -0.00412560
     atom   12 type  2   force =    -0.00178443    0.02770491   -0.00669023
     atom   13 type  1   force =    -0.06653988    0.00045456   -0.02980218
     atom   14 type  1   force =    -0.00433441   -0.02771096    0.00254696
     atom   15 type  1   force =    -0.00656954   -0.02335648    0.00503169
     atom   16 type  2   force =     0.00008510    0.00068818    0.06698137
     atom   17 type  2   force =    -0.00238319    0.03353381    0.00352064
     atom   18 type  2   force =     0.00129889    0.02457054   -0.00371072
     atom   19 type  1   force =    -0.00169699    0.00674908    0.05329128
     atom   20 type  1   force =     0.00023444   -0.00117020   -0.00659527
     atom   21 type  1   force =     0.00003525    0.00110719    0.10722514
     atom   22 type  1   force =    -0.00025158   -0.00199401    0.00723106
     atom   23 type  1   force =     0.00072227   -0.00586326    0.00415923
     atom   24 type  1   force =     0.06751420    0.00137351   -0.02906692
     atom   25 type  1   force =     0.00528130   -0.03016096    0.00246854
     atom   26 type  1   force =     0.00680978   -0.02606163   -0.00411926
     atom   27 type  2   force =     0.00011110   -0.00120353   -0.18675372
     atom   28 type  2   force =     0.00007962    0.02386675   -0.00245632
     atom   29 type  2   force =    -0.00126007    0.02234132    0.00099735
     atom   30 type  1   force =    -0.06762063    0.00087000   -0.02892085
     atom   31 type  1   force =    -0.00537200   -0.02962635    0.00280642
     atom   32 type  1   force =    -0.00442291   -0.02245294    0.00261112
     atom   33 type  2   force =    -0.00004632    0.00132886    0.07473097
     atom   34 type  2   force =     0.00092027    0.03692478    0.00409751
     atom   35 type  2   force =    -0.00201313    0.03472877    0.00455994
     atom   36 type  1   force =    -0.00186687    0.00288911    0.05591174
     atom   37 type  1   force =     0.00133117    0.00399737   -0.01125068
     atom   38 type  1   force =    -0.00374494   -0.00384061    0.00672784
     atom   39 type  1   force =     0.00002236   -0.00064510    0.10725171
     atom   40 type  1   force =     0.00015648   -0.00141240    0.00716146
     atom   41 type  1   force =    -0.00022982   -0.00398309    0.00184480
     atom   42 type  1   force =     0.06784284   -0.00221950   -0.02969927
     atom   43 type  1   force =     0.00369131   -0.02635886    0.00153990
     atom   44 type  1   force =     0.01017987   -0.01797666    0.00268856
     atom   45 type  2   force =     0.00002799    0.00216358   -0.18330015
     atom   46 type  2   force =    -0.00023780    0.01481175    0.00205806
     atom   47 type  2   force =     0.00265743    0.02593452   -0.00823870
     atom   48 type  1   force =    -0.06790729   -0.00284775   -0.02985959
     atom   49 type  1   force =    -0.00375379   -0.02550309    0.00184042
     atom   50 type  1   force =    -0.00810794   -0.02358236    0.00523295
     atom   51 type  2   force =     0.00045372   -0.00350901    0.06840578
     atom   52 type  2   force =    -0.00011557    0.03119231    0.00596943
     atom   53 type  2   force =    -0.00206342    0.02586023   -0.00062387
     atom   54 type  3   force =     0.00148721   -0.00198566   -0.00022977
     atom   55 type  4   force =    -0.00086039    0.00040988   -0.00048204
     atom   56 type  4   force =     0.00017949    0.00088653    0.00128644
     atom   57 type  3   force =     0.00132050   -0.00273925   -0.00024596
     atom   58 type  4   force =     0.00049724    0.00102285   -0.00007640
     atom   59 type  4   force =     0.00006829    0.00027546    0.00070806
     atom   60 type  4   force =     0.00227505    0.00020146   -0.00360284
     atom   61 type  4   force =    -0.00122411   -0.00111173    0.00109809

     Total force =     0.459545     Total SCF correction =     0.000356
  @ DRIVER MODE: Message from server: STATUS
  @ DRIVER MODE: Message from server: GETFORCE
  @ DRIVER MODE: Returning v,forces,stress,ensemble

     Writing output data file ./calc.save/
  @ DRIVER MODE: Message from server: EXIT
  @ DRIVE MODE: Exiting

     General routines

     Parallel routines

   This run was terminated on:   8:29:14  19Oct2021

   JOB DONE.