     Program PWSCF v.6.7GPU starts on 23Aug2021 at 23:59:20

     R & G space division:  proc/nbgrp/npool/nimage =       6
     Reading input from /storage/home/hcoda1/3/ntian30/research/carbon/CH_vib/ads_slab/CHNHHH_a/out_0021/pw.inp
Warning: card &CELL ignored
Warning: card   CELL_DYNAMICS='IPI', ignored
Warning: card / ignored

     Current dimensions of program PWSCF are:
     Max number of different atomic species (ntypx) = 10
     Max number of k-points (npk) =  40000
     Max angular momentum in pseudopotentials (lmaxx) =  3
     Presently no symmetry can be used with electric field

     Message from routine cell_base_init:
     DEPRECATED: use true lattice parameter, not A to a.u. conversion factor

     IMPORTANT: XC functional enforced from input :
     Exchange-correlation= BEEF-VDW
                           (   1   4  43  14   2   0   0)
     Any further DFT definition will be discarded
     Please, verify this is what you really want

  @ DRIVER MODE: Connecting to
 qe_1139763_2632793.sched-torque.pace.gatech.edutibu8jst_scratch
  using UNIX socket
  @ DRIVER MODE: Message from server: STATUS
  @ DRIVER MODE: Message from server: INIT
  @ DRIVER MODE: Receiving replica           0          -1
  @ DRIVER MODE: Receiving encoded integer          25
  @ DRIVER MODE:  SCF:  T  FORCE:  T  STRESS:  F  VC:  F  ENSEMBLE:  F
  @ DRIVER MODE:  SCF:  T  FORCE:  T  STRESS:  F  VC:  F  ENSEMBLE:  F

     Using Slab Decomposition

     bravais-lattice index     =            0
     lattice parameter (alat)  =       1.8897  a.u.
     unit-cell volume          =    6658.9804 (a.u.)^3
     number of atoms/cell      =           53
     number of atomic types    =            5
     number of electrons       =       391.00
     number of Kohn-Sham states=          205
     kinetic-energy cutoff     =      29.3995  Ry
     charge density cutoff     =     293.9946  Ry
     scf convergence threshold =      7.3E-08
     mixing beta               =       0.0500
     number of iterations used =            8  plain     mixing
     Exchange-correlation= BEEF-VDW
                           (   1   4  43  14   2   0   0)

     celldm(1)=   1.889726  celldm(2)=   0.000000  celldm(3)=   0.000000
     celldm(4)=   0.000000  celldm(5)=   0.000000  celldm(6)=   0.000000

     crystal axes: (cart. coord. in units of alat)
               a(1) = (   6.579727   0.000000   0.000000 )
               a(2) = (  -0.000775   5.961596   0.000000 )
               a(3) = (   0.000000   0.000000  25.155947 )

     reciprocal axes: (cart. coord. in units 2 pi/alat)
               b(1) = (  0.151982  0.000020  0.000000 )
               b(2) = (  0.000000  0.167740  0.000000 )
               b(3) = (  0.000000  0.000000  0.039752 )

     PseudoPot. # 1 for Ti read from file:
     /storage/coda1/p-amedford6/0/shared/rich_project_chbe-medford/medford-share/data/pseudos_module/espresso/nninc/pbe/van/Ti.UPF
     MD5 check sum: 8e4df49b7f0d34bbd5052bf3f5ea0213
     Pseudo is Ultrasoft, Zval = 12.0
     Generated by new atomic code, or converted to UPF format
     Using radial grid of  851 points,  6 beta functions with:
                l(1) =   0
                l(2) =   0
                l(3) =   1
                l(4) =   1
                l(5) =   2
                l(6) =   2
     Q(r) pseudized with  8 coefficients,  rinner =    1.000   1.000   1.000
                                                       1.000   1.000

     PseudoPot. # 2 for O  read from file:
     /storage/coda1/p-amedford6/0/shared/rich_project_chbe-medford/medford-share/data/pseudos_module/espresso/nninc/pbe/van/O.UPF
     MD5 check sum: 78c19812648e8988a0fe644b0f25305e
     Pseudo is Ultrasoft, Zval =  6.0
     Generated by new atomic code, or converted to UPF format
     Using radial grid of  737 points,  4 beta functions with:
                l(1) =   0
                l(2) =   0
                l(3) =   1
                l(4) =   1
     Q(r) pseudized with  8 coefficients,  rinner =    0.800   0.800   0.800

     PseudoPot. # 3 for N  read from file:
     /storage/coda1/p-amedford6/0/shared/rich_project_chbe-medford/medford-share/data/pseudos_module/espresso/nninc/pbe/van/N.UPF
     MD5 check sum: 90d10febe142ad51ac9d5be1deb811c4
     Pseudo is Ultrasoft, Zval =  5.0
     Generated by new atomic code, or converted to UPF format
     Using radial grid of  729 points,  4 beta functions with:
                l(1) =   0
                l(2) =   0
                l(3) =   1
                l(4) =   1
     Q(r) pseudized with  8 coefficients,  rinner =    0.800   0.800   0.800

     PseudoPot. # 4 for C  read from file:
     /storage/coda1/p-amedford6/0/shared/rich_project_chbe-medford/medford-share/data/pseudos_module/espresso/nninc/pbe/van/C.UPF
     MD5 check sum: 1a69bf6b8db32088f5b2163dbdb77a27
     Pseudo is Ultrasoft, Zval =  4.0
     Generated by new atomic code, or converted to UPF format
     Using radial grid of  721 points,  4 beta functions with:
                l(1) =   0
                l(2) =   0
                l(3) =   1
                l(4) =   1
     Q(r) pseudized with  8 coefficients,  rinner =    0.800   0.800   0.800

     PseudoPot. # 5 for H  read from file:
     /storage/coda1/p-amedford6/0/shared/rich_project_chbe-medford/medford-share/data/pseudos_module/espresso/nninc/pbe/van/H.UPF
     MD5 check sum: b5ee9d7bfd3a09ee7748110bda690ff7
     Pseudo is Ultrasoft, Zval =  1.0
     Generated by new atomic code, or converted to UPF format
     Using radial grid of  615 points,  1 beta functions with:
                l(1) =   0
     Q(r) pseudized with  8 coefficients,  rinner =    0.800

     atomic species   valence    mass     pseudopotential
        Ti1           12.00    47.86700     Ti( 1.00)
        O1             6.00    15.99900     O ( 1.00)
        N1             5.00    14.00700     N ( 1.00)
        C1             4.00    12.01100     C ( 1.00)
        H1             1.00     1.00800     H ( 1.00)

     No symmetry found

   Cartesian axes

     site n.     atom                  positions (alat units)
         1           Ti1 tau(   1) = (   0.0004258   2.9801865   6.0000000  )
         2           Ti1 tau(   2) = (   3.2906075   1.4906267   6.0002472  )
         3           O1  tau(   3) = (   0.0006271   0.0005054   7.9858123  )
         4           O1  tau(   4) = (   3.2906025   0.0005020   7.3038282  )
         5           O1  tau(   5) = (   4.5942328   1.4918067   9.2879030  )
         6           O1  tau(   6) = (   1.9868534   1.4903216   9.2879459  )
         7           Ti1 tau(   7) = (   3.2907910   2.8959150   9.1758416  )
         8           Ti1 tau(   8) = (   0.0015273   1.4827037   9.2680791  )
         9           O1  tau(   9) = (   3.3113122   5.9567026  11.3833813  )
        10           O1  tau(  10) = (   0.0116148   5.9584955  10.6183126  )
        11           O1  tau(  11) = (   1.3074368   1.4838846  12.6958875  )
        12           O1  tau(  12) = (   5.3165545   1.4905306  12.6890028  )
        13           Ti1 tau(  13) = (   0.0319163   2.9634337  12.5060949  )
        14           Ti1 tau(  14) = (   3.3348194   1.4676286  12.5406051  )
        15           O1  tau(  15) = (   6.5718004   5.8756060  14.7032446  )
        16           O1  tau(  16) = (   3.3285255   5.9545307  14.0046557  )
        17           O1  tau(  17) = (   4.5620449   1.5282301  16.1894795  )
        18           O1  tau(  18) = (   2.0507131   1.5111456  16.1254446  )
        19           Ti1 tau(  19) = (   3.3090684   3.0029381  15.7706148  )
        20           Ti1 tau(  20) = (   0.0350077   1.2886257  15.8758580  )
        21           O1  tau(  21) = (   3.2904802   0.0005063   4.7018136  )
        22           O1  tau(  22) = (   0.0240991   0.1326893  17.2553962  )
        23           O1  tau(  23) = (   1.3043587   1.4918075   6.0039043  )
        24           O1  tau(  24) = (   5.2767064   1.4903225   6.0039473  )
        25           Ti1 tau(  25) = (   0.0000382   5.9609847   6.0000000  )
        26           Ti1 tau(  26) = (   3.2902200   4.4714249   6.0002472  )
        27           O1  tau(  27) = (   0.0002396   2.9813036   7.9858123  )
        28           O1  tau(  28) = (   3.2902150   2.9813002   7.3038282  )
        29           O1  tau(  29) = (   4.5938453   4.4726049   9.2879030  )
        30           O1  tau(  30) = (   1.9864658   4.4711199   9.2879459  )
        31           Ti1 tau(  31) = (   3.2891106   5.8743827   9.1763621  )
        32           Ti1 tau(  32) = (   0.0006254   4.4649316   9.2693709  )
        33           O1  tau(  33) = (   3.3073171   2.9646269  11.3784001  )
        34           O1  tau(  34) = (   0.0092240   2.9805883  10.6323155  )
        35           O1  tau(  35) = (   1.3112202   4.4579144  12.6624112  )
        36           O1  tau(  36) = (   5.3138049   4.4530836  12.6532163  )
        37           Ti1 tau(  37) = (   0.0383750   5.9352221  12.5084026  )
        38           Ti1 tau(  38) = (   3.3346062   4.4465110  12.5317211  )
        39           O1  tau(  39) = (   0.0124192   3.0170750  14.9941726  )
        40           O1  tau(  40) = (   3.3221393   2.9969786  13.9787254  )
        41           O1  tau(  41) = (   4.5445774   4.4782521  16.2319081  )
        42           O1  tau(  42) = (   2.0501905   4.4790704  16.2078326  )
        43           Ti1 tau(  43) = (   3.3285819   0.0194352  15.8051934  )
        44           Ti1 tau(  44) = (   0.0611752   4.5099810  16.0683830  )
        45           O1  tau(  45) = (   3.2900926   2.9813045   4.7018136  )
        46           O1  tau(  46) = (   1.3039711   4.4726057   6.0039043  )
        47           O1  tau(  47) = (   5.2763189   4.4711207   6.0039473  )
        48           N1  tau(  48) = (   6.2166669   3.4226028  18.2351681  )
        49           C1  tau(  49) = (   0.7325778   3.1430902  19.0455235  )
        50           H1  tau(  50) = (   1.1688338   2.1628109  18.9760543  )
        51           H1  tau(  51) = (   5.7007151   4.2493073  18.4945226  )
        52           H1  tau(  52) = (   5.5741914   2.6425579  18.1107425  )
        53           H1  tau(  53) = (   1.2593429   3.9788434  19.4721980  )

     number of k points=    10  Fermi-Dirac smearing, width (Ry)=  0.0073
                       cart. coord. in units 2pi/alat
        k(    1) = (   0.0000000   0.0000000   0.0000000), wk =   0.1250000
        k(    2) = (   0.0000000   0.0419351   0.0000000), wk =   0.2500000
        k(    3) = (   0.0000000  -0.0838702   0.0000000), wk =   0.1250000
        k(    4) = (   0.0379955   0.0000049   0.0000000), wk =   0.2500000
        k(    5) = (   0.0379955   0.0419400   0.0000000), wk =   0.2500000
        k(    6) = (   0.0379955  -0.0838652   0.0000000), wk =   0.2500000
        k(    7) = (   0.0379955  -0.0419301   0.0000000), wk =   0.2500000
        k(    8) = (  -0.0759910  -0.0000099   0.0000000), wk =   0.1250000
        k(    9) = (  -0.0759910   0.0419252   0.0000000), wk =   0.2500000
        k(   10) = (  -0.0759910  -0.0838800   0.0000000), wk =   0.1250000

     Initial potential from superposition of free atoms

     starting charge  374.99916, renormalised to  391.00000

     negative rho (up, down):  1.698E-02 0.000E+00

     %%%%%%%%%%%%%%%%%%%%%%%%%%%%%%%%%%%%%%%%%%%%%%%%%%%%%%%%%%%%%%%%%%%%%%%%
     %                                                                      %
     % You are using vdW-DF, which was implemented by the Thonhauser group. %
     % Please cite the following two papers that made this development      %
     % possible and the two reviews that describe the various versions:     %
     %                                                                      %
     %   T. Thonhauser et al., PRL 115, 136402 (2015).                      %
     %   T. Thonhauser et al., PRB 76, 125112 (2007).                       %
     %   K. Berland et al., Rep. Prog. Phys. 78, 066501 (2015).             %
     %   D.C. Langreth et al., J. Phys.: Condens. Matter 21, 084203 (2009). %
     %                                                                      %
     %                                                                      %
     % If you are calculating the stress with vdW-DF, please also cite:     %
     %                                                                      %
     %   R. Sabatini et al., J. Phys.: Condens. Matter 24, 424209 (2012).   %
     %                                                                      %
     %%%%%%%%%%%%%%%%%%%%%%%%%%%%%%%%%%%%%%%%%%%%%%%%%%%%%%%%%%%%%%%%%%%%%%%%

     Adding external electric field

     Computed dipole along edir(3) :
        Dipole               -6.8871 Ry au,        -17.5052 Debye
        Dipole field         -0.0130 Ry au,

        Potential amp.        1.2048 Ry
        Total length         46.3494 bohr

     Starting wfcs are  296 atomic wfcs
  @ DRIVER MODE: Message from server: STATUS
  @ DRIVER MODE: Message from server: POSDATA
  @ DRIVER MODE: Reading and sharing cell
  @ DRIVER MODE: Reading and sharing positions
  @ DRIVER MODE: Received positions

     Self-consistent Calculation

     iteration #  1     ecut=    29.40 Ry     beta= 0.05
     Davidson diagonalization with overlap
     c_bands:  1 eigenvalues not converged
     c_bands:  2 eigenvalues not converged
     ethr =  1.00E-05,  avg # of iterations = 15.9

[...]

     total energy              =   -2713.95387948 Ry
     estimated scf accuracy    <    2275.95630478 Ry

     iteration #  2     ecut=    29.40 Ry     beta= 0.05
     Davidson diagonalization with overlap
     ethr =  1.00E-02,  avg # of iterations = 18.5

[...]

     iteration # 84     ecut=    29.40 Ry     beta= 0.05
     Davidson diagonalization with overlap
     c_bands:  1 eigenvalues not converged
     c_bands:  1 eigenvalues not converged
     c_bands:  1 eigenvalues not converged
     c_bands:  2 eigenvalues not converged
     c_bands:  1 eigenvalues not converged
     ethr =  7.51E-11,  avg # of iterations = 19.2

[...]

     total energy              =   -2920.25690581 Ry
     estimated scf accuracy    <       0.00000011 Ry

     iteration # 87     ecut=    29.40 Ry     beta= 0.05
     Davidson diagonalization with overlap
     ethr =  2.67E-11,  avg # of iterations =  1.9

     negative rho (up, down):  1.634E-02 0.000E+00

     Adding external electric field

     Computed dipole along edir(3) :
        Dipole                0.9004 Ry au,          2.2886 Debye
        Dipole field          0.0017 Ry au,

        Potential amp.       -0.1575 Ry
        Total length         46.3494 bohr

     End of self-consistent calculation

          k = 0.0000 0.0000 0.0000 ( 18029 PWs)   bands (ev):

   -55.7217 -55.6854 -55.6751 -55.6410 -55.6085 -55.6050 -55.5707 -55.5467
   -55.5386 -55.5123 -55.5071 -55.4735 -55.4518 -55.2889 -54.7066 -54.6726
   -32.2867 -32.1680 -32.0925 -32.0429 -32.0390 -32.0357 -32.0310 -32.0130
   -31.9641 -31.9543 -31.9341 -31.9290 -31.9201 -31.8906 -31.8755 -31.8750
   -31.8603 -31.8465 -31.8426 -31.8277 -31.8227 -31.7894 -31.7823 -31.7771
   -31.7489 -31.7367 -31.7358 -31.7323 -31.7263 -31.7191 -31.7070 -31.7051
   -31.6955 -31.6929 -31.6601 -31.6583 -31.6546 -31.6351 -31.6241 -31.6186
   -31.5087 -31.4616 -31.1162 -31.0216 -30.9995 -30.9325 -30.8457 -30.7348
   -16.7081 -16.5292 -16.2720 -16.1060 -16.0068 -15.9216 -15.7795 -15.7607
   -15.6447 -15.5680 -15.4255 -15.3880 -15.3756 -15.3591 -15.3359 -15.3236
   -15.2697 -15.2640 -15.2430 -15.2189 -15.2145 -15.1666 -15.1633 -15.1229
   -15.0997 -15.0372 -14.9676 -14.8840 -14.8118 -14.4790 -13.2094 -13.0919
    -9.5475  -6.8853  -4.9687  -3.8851  -3.7422  -3.6756  -3.6229  -3.6165
    -3.4722  -3.3010  -3.1524  -3.1332  -3.0969  -2.9905  -2.9266  -2.9123
    -2.8883  -2.7583  -2.7325  -2.6815  -2.6457  -2.5716  -2.5678  -2.5275
    -2.5139  -2.4688  -2.4628  -2.4371  -2.3047  -2.2896  -2.2533  -2.1892
    -2.1291  -2.1270  -2.0705  -2.0528  -2.0131  -2.0043  -1.9928  -1.9510
    -1.9457  -1.9107  -1.8082  -1.7462  -1.6138  -1.5796  -1.4334  -1.3637
    -1.3149  -1.2964  -1.2131  -1.1913  -1.1402  -1.1023  -1.0908  -1.0598
    -0.9463  -0.8599  -0.8091  -0.7548  -0.7216  -0.7061  -0.6169  -0.5241
    -0.5027  -0.4894  -0.4471  -0.3456  -0.3249  -0.2616  -0.2031  -0.1875
    -0.1782  -0.0814  -0.0510   0.0213   0.0725   0.0934   0.1646   0.1907
     0.2094   0.2147   0.2503   0.2613   0.3381   0.3542   0.3786   0.4656
     0.5915   0.8387   0.8867   0.9014   1.2167   1.2208   1.3160   1.4992
     1.8924   1.9408   3.3694   3.3871   3.4511   3.5201   3.5239   3.5884
     3.6110   3.8561   3.8774   3.8847   3.9014

[...]

          k = 0.0380-0.0419 0.0000 ( 17876 PWs)   bands (ev):

[...]

          k =-0.0760-0.0000 0.0000 ( 17886 PWs)   bands (ev):

[...]

          k =-0.0760-0.0839 0.0000 ( 17948 PWs)   bands (ev):

   -55.7065 -55.7003 -55.6581 -55.6579 -55.6040 -55.5885 -55.5872 -55.5430
   -55.5309 -55.5276 -55.4908 -55.4900 -55.4497 -55.2909 -54.6897 -54.6894
   -32.0935 -32.0888 -31.9973 -31.9831 -31.9830 -31.9793 -31.9512 -31.9494
   -31.9494 -31.9333 -31.9267 -31.9178 -31.9126 -31.8720 -31.8686 -31.8633
   -31.8593 -31.8546 -31.8493 -31.8459 -31.8299 -31.8098 -31.8017 -31.8010
   -31.7836 -31.7789 -31.7779 -31.7775 -31.7637 -31.7604 -31.7437 -31.7402
   -31.7395 -31.7245 -31.7233 -31.7205 -31.6727 -31.6709 -31.6696 -31.6302
   -31.5528 -31.5108 -31.0123 -31.0121 -30.9287 -30.9285 -30.8891 -30.8890
   -16.6792 -16.0105 -15.9460 -15.9079 -15.7599 -15.7188 -15.6839 -15.6722
   -15.5488 -15.5167 -15.4958 -15.4758 -15.4397 -15.4259 -15.4191 -15.3663
   -15.3406 -15.3206 -15.3164 -15.3024 -15.2401 -15.2337 -15.2289 -15.2216
   -15.1739 -15.1703 -15.0789 -15.0760 -15.0517 -14.7653 -13.1934 -13.1933
    -9.5494  -6.8672  -4.9481  -3.2154  -3.1939  -3.1620  -3.1346  -2.9802
    -2.9200  -2.9036  -2.8736  -2.8017  -2.7490  -2.7331  -2.6885  -2.6853
    -2.6316  -2.5980  -2.5736  -2.5596  -2.5533  -2.5398  -2.5182  -2.4817
    -2.4532  -2.4512  -2.4424  -2.3964  -2.3703  -2.3597  -2.3218  -2.3154
    -2.3077  -2.2800  -2.2159  -2.1162  -2.0863  -2.0585  -1.9620  -1.9312
    -1.9261  -1.8461  -1.8130  -1.7581  -1.7512  -1.7432  -1.5779  -1.5059
    -1.4701  -1.4667  -1.4441  -1.3170  -1.3023  -1.2238  -1.2002  -1.1876
    -1.0972  -1.0789  -1.0356  -1.0087  -0.9323  -0.9029  -0.8411  -0.7543
    -0.7156  -0.7086  -0.6796  -0.6758  -0.6267  -0.6156  -0.5304  -0.4919
    -0.4570  -0.4467  -0.3982  -0.2129  -0.1964  -0.1657  -0.0273   0.0244
     0.1491   0.1721   0.2336   0.3068   0.3473   0.3907   0.4275   0.5724
     0.5820   0.6159   0.6596   0.6708   0.7288   0.7376   1.6723   1.6728
     1.7606   1.7609   3.3829   3.6305   3.6328   3.6679   3.6907   3.8460
     3.8905   3.9346   3.9566   3.9594   3.9822

     the Fermi energy is     3.4375 ev

!    total energy              =   -2920.25691202 Ry
     estimated scf accuracy    <       0.00000006 Ry
     smearing contrib. (-TS)   =      -0.04243560 Ry
     internal energy E=F+TS    =   -2920.21447642 Ry

     The total energy is F=E-TS. E is the sum of the following terms:
     one-electron contribution =  -24059.35872517 Ry
     hartree contribution      =   12115.85904512 Ry
     xc contribution           =    -480.86457480 Ry
     ewald contribution        =    9504.14824851 Ry
     electric field correction =       0.00152991 Ry

     convergence has been achieved in  87 iterations

     Forces acting on atoms (cartesian axes, Ry/au):

     atom    1 type  1   force =    -0.00001494   -0.00019432    0.09316847
     atom    2 type  1   force =    -0.00011413   -0.00033958   -0.17841489
     atom    3 type  2   force =     0.00009110   -0.00039685   -0.02006467
     atom    4 type  2   force =     0.00004590   -0.00199695    0.05912100
     atom    5 type  2   force =    -0.01018731   -0.00082384    0.00743047
     atom    6 type  2   force =     0.01219451   -0.00043287    0.00774320
     atom    7 type  1   force =     0.00015397    0.00228496   -0.01370872
     atom    8 type  1   force =    -0.00035358   -0.00183146   -0.00452645
     atom    9 type  2   force =    -0.00034193    0.00036622   -0.00022391
     atom   10 type  2   force =    -0.00026818    0.00141153    0.00223795
     atom   11 type  2   force =    -0.00012734    0.00010466   -0.00010779
     atom   12 type  2   force =    -0.00027939   -0.00022712   -0.00062158
     atom   13 type  1   force =    -0.00048171    0.00090341   -0.00021862
     atom   14 type  1   force =    -0.00069500    0.00042977   -0.00046471
     atom   15 type  2   force =     0.00003942   -0.00019607    0.00011487
     atom   16 type  2   force =    -0.00041065   -0.00009818    0.00000823
     atom   17 type  2   force =    -0.00017114   -0.00030481   -0.00048481
     atom   18 type  2   force =    -0.00026144   -0.00015628    0.00044273
     atom   19 type  1   force =    -0.00060587   -0.00008813    0.00004325
     atom   20 type  1   force =    -0.00013225   -0.00041035   -0.00017572
     atom   21 type  2   force =     0.00002602   -0.00005912    0.10397446
     atom   22 type  2   force =    -0.00046358    0.00000780   -0.00004816
     atom   23 type  2   force =    -0.07034845   -0.00014462   -0.02685762
     atom   24 type  2   force =     0.07022482    0.00029289   -0.02694444
     atom   25 type  1   force =     0.00002547   -0.00014537    0.09256011
     atom   26 type  1   force =    -0.00014732   -0.00045970   -0.17848074
     atom   27 type  2   force =     0.00015869   -0.00028141   -0.01914738
     atom   28 type  2   force =     0.00005822   -0.00176756    0.05850261
     atom   29 type  2   force =    -0.01066700   -0.00129949    0.00789810
     atom   30 type  2   force =     0.01254236   -0.00083123    0.00816554
     atom   31 type  1   force =     0.00028797    0.00600530   -0.01443819
     atom   32 type  1   force =    -0.00036670    0.00122277   -0.00499742
     atom   33 type  2   force =    -0.00004822   -0.00045748   -0.00007822
     atom   34 type  2   force =     0.00078316   -0.00258263    0.00063551
     atom   35 type  2   force =    -0.00059639   -0.00028726   -0.00012469
     atom   36 type  2   force =     0.00059063    0.00005547    0.00004500
     atom   37 type  1   force =    -0.00046606   -0.00043811    0.00008185
     atom   38 type  1   force =    -0.00026627    0.00035382   -0.00083538
     atom   39 type  2   force =    -0.00062801    0.00037121   -0.00017567
     atom   40 type  2   force =    -0.00015173   -0.00036166   -0.00058292
     atom   41 type  2   force =    -0.00107769    0.00007082    0.00002911
     atom   42 type  2   force =     0.00009711   -0.00013986    0.00026075
     atom   43 type  1   force =     0.00051093   -0.00000996   -0.00038757
     atom   44 type  1   force =     0.00038569    0.00075973    0.00012166
     atom   45 type  2   force =     0.00003791   -0.00007706    0.10392725
     atom   46 type  2   force =    -0.07032035   -0.00009344   -0.02683834
     atom   47 type  2   force =     0.07022212    0.00034839   -0.02689381
     atom   48 type  3   force =     0.00458528   -0.00944392   -0.00352631
     atom   49 type  4   force =    -0.00015784    0.00133166    0.00106821
     atom   50 type  5   force =     0.00057041   -0.00077912   -0.00034389
     atom   51 type  5   force =    -0.00457355    0.01084991    0.00308552
     atom   52 type  5   force =     0.00054028   -0.00004401   -0.00034054
     atom   53 type  5   force =     0.00055203    0.00002953   -0.00061274

     Total force =     0.366674     Total SCF correction =     0.000655
  @ DRIVER MODE: Message from server: STATUS
  @ DRIVER MODE: Message from server: GETFORCE
  @ DRIVER MODE: Returning v,forces,stress,ensemble

     Writing output data file ./calc.save/
  @ DRIVER MODE: Message from server: EXIT
  @ DRIVE MODE: Exiting

     General routines

     Parallel routines

   This run was terminated on:   0:34:39  24Aug2021

   JOB DONE.