     Program PWSCF v.6.7GPU starts on 16Sep2021 at 11:26:26

     R & G space division:  proc/nbgrp/npool/nimage =      10
     Reading input from /storage/home/hcoda1/3/ntian30/research/carbon/CxH_vib/H2O_calc/ads_slab/CH3NNHHHH2O_a/out_0056/pw.inp
Warning: card &CELL ignored
Warning: card   CELL_DYNAMICS='IPI', ignored
Warning: card / ignored

     Current dimensions of program PWSCF are:
     Max number of different atomic species (ntypx) = 10
     Max number of k-points (npk) =  40000
     Max angular momentum in pseudopotentials (lmaxx) =  3
     Presently no symmetry can be used with electric field

     Message from routine cell_base_init:
     DEPRECATED: use true lattice parameter, not A to a.u. conversion factor

     IMPORTANT: XC functional enforced from input :
     Exchange-correlation= BEEF-VDW
                           (   1   4  43  14   2   0   0)
     Any further DFT definition will be discarded
     Please, verify this is what you really want

  @ DRIVER MODE: Connecting to
 qe_1139763_2852622.sched-torque.pace.gatech.eduh3xxk0by_scratch
  using UNIX socket
  @ DRIVER MODE: Message from server: STATUS
  @ DRIVER MODE: Message from server: INIT
  @ DRIVER MODE: Receiving replica           0          -1
  @ DRIVER MODE: Receiving encoded integer          25
  @ DRIVER MODE:  SCF:  T  FORCE:  T  STRESS:  F  VC:  F  ENSEMBLE:  F
  @ DRIVER MODE:  SCF:  T  FORCE:  T  STRESS:  F  VC:  F  ENSEMBLE:  F

     Using Slab Decomposition

     bravais-lattice index     =            0
     lattice parameter (alat)  =       1.8897  a.u.
     unit-cell volume          =    6658.9804 (a.u.)^3
     number of atoms/cell      =           59
     number of atomic types    =            5
     number of electrons       =       406.00
     number of Kohn-Sham states=          213
     kinetic-energy cutoff     =      29.3995  Ry
     charge density cutoff     =     293.9946  Ry
     scf convergence threshold =      7.3E-08
     mixing beta               =       0.0500
     number of iterations used =            8  plain     mixing
     Exchange-correlation= BEEF-VDW
                           (   1   4  43  14   2   0   0)

     celldm(1)=   1.889726  celldm(2)=   0.000000  celldm(3)=   0.000000
     celldm(4)=   0.000000  celldm(5)=   0.000000  celldm(6)=   0.000000

     crystal axes: (cart. coord. in units of alat)
               a(1) = (   6.579727   0.000000   0.000000 )
               a(2) = (  -0.000775   5.961596   0.000000 )
               a(3) = (   0.000000   0.000000  25.155947 )

     reciprocal axes: (cart. coord. in units 2 pi/alat)
               b(1) = (  0.151982  0.000020  0.000000 )
               b(2) = (  0.000000  0.167740  0.000000 )
               b(3) = (  0.000000  0.000000  0.039752 )

     PseudoPot. # 1 for Ti read from file:
     /storage/coda1/p-amedford6/0/shared/rich_project_chbe-medford/medford-share/data/pseudos_module/espresso/nninc/pbe/van/Ti.UPF
     MD5 check sum: 8e4df49b7f0d34bbd5052bf3f5ea0213
     Pseudo is Ultrasoft, Zval = 12.0
     Generated by new atomic code, or converted to UPF format
     Using radial grid of  851 points,  6 beta functions with:
                l(1) =   0
                l(2) =   0
                l(3) =   1
                l(4) =   1
                l(5) =   2
                l(6) =   2
     Q(r) pseudized with  8 coefficients,  rinner =    1.000   1.000   1.000
                                                       1.000   1.000

     PseudoPot. # 2 for O  read from file:
     /storage/coda1/p-amedford6/0/shared/rich_project_chbe-medford/medford-share/data/pseudos_module/espresso/nninc/pbe/van/O.UPF
     MD5 check sum: 78c19812648e8988a0fe644b0f25305e
     Pseudo is Ultrasoft, Zval =  6.0
     Generated by new atomic code, or converted to UPF format
     Using radial grid of  737 points,  4 beta functions with:
                l(1) =   0
                l(2) =   0
                l(3) =   1
                l(4) =   1
     Q(r) pseudized with  8 coefficients,  rinner =    0.800   0.800   0.800

     PseudoPot. # 3 for N  read from file:
     /storage/coda1/p-amedford6/0/shared/rich_project_chbe-medford/medford-share/data/pseudos_module/espresso/nninc/pbe/van/N.UPF
     MD5 check sum: 90d10febe142ad51ac9d5be1deb811c4
     Pseudo is Ultrasoft, Zval =  5.0
     Generated by new atomic code, or converted to UPF format
     Using radial grid of  729 points,  4 beta functions with:
                l(1) =   0
                l(2) =   0
                l(3) =   1
                l(4) =   1
     Q(r) pseudized with  8 coefficients,  rinner =    0.800   0.800   0.800

     PseudoPot. # 4 for C  read from file:
     /storage/coda1/p-amedford6/0/shared/rich_project_chbe-medford/medford-share/data/pseudos_module/espresso/nninc/pbe/van/C.UPF
     MD5 check sum: 1a69bf6b8db32088f5b2163dbdb77a27
     Pseudo is Ultrasoft, Zval =  4.0
     Generated by new atomic code, or converted to UPF format
     Using radial grid of  721 points,  4 beta functions with:
                l(1) =   0
                l(2) =   0
                l(3) =   1
                l(4) =   1
     Q(r) pseudized with  8 coefficients,  rinner =    0.800   0.800   0.800

     PseudoPot. # 5 for H  read from file:
     /storage/coda1/p-amedford6/0/shared/rich_project_chbe-medford/medford-share/data/pseudos_module/espresso/nninc/pbe/van/H.UPF
     MD5 check sum: b5ee9d7bfd3a09ee7748110bda690ff7
     Pseudo is Ultrasoft, Zval =  1.0
     Generated by new atomic code, or converted to UPF format
     Using radial grid of  615 points,  1 beta functions with:
                l(1) =   0
     Q(r) pseudized with  8 coefficients,  rinner =    0.800

     atomic species   valence    mass     pseudopotential
        Ti1           12.00    47.86700     Ti( 1.00)
        O1             6.00    15.99900     O ( 1.00)
        N1             5.00    14.00700     N ( 1.00)
        C1             4.00    12.01100     C ( 1.00)
        H1             1.00     1.00800     H ( 1.00)

     No symmetry found

   Cartesian axes

     site n.     atom                  positions (alat units)
         1           Ti1 tau(   1) = (   0.0004258   2.9801865   6.0000000  )
         2           Ti1 tau(   2) = (   3.2906075   1.4906267   6.0002472  )
         3           O1  tau(   3) = (   0.0006271   0.0005054   7.9858123  )
         4           O1  tau(   4) = (   3.2906025   0.0005020   7.3038282  )
         5           O1  tau(   5) = (   4.5942328   1.4918067   9.2879030  )
         6           O1  tau(   6) = (   1.9868534   1.4903216   9.2879459  )
         7           Ti1 tau(   7) = (   3.2907910   2.8959150   9.1758416  )
         8           Ti1 tau(   8) = (   0.0015273   1.4827037   9.2680791  )
         9           O1  tau(   9) = (   3.2800960   5.9426830  11.3808346  )
        10           O1  tau(  10) = (   0.0116148   5.9584955  10.6183126  )
        11           O1  tau(  11) = (   1.2797812   1.4911726  12.6624455  )
        12           O1  tau(  12) = (   5.2824698   1.4871998  12.6412817  )
        13           Ti1 tau(  13) = (   0.0041451   2.9720195  12.5119452  )
        14           Ti1 tau(  14) = (   3.3095611   1.4699318  12.5307708  )
        15           O1  tau(  15) = (   6.5436702   0.0697967  14.6864816  )
        16           O1  tau(  16) = (   3.2812162   5.9597207  14.0300411  )
        17           O1  tau(  17) = (   4.5129646   1.5046642  16.2361130  )
        18           O1  tau(  18) = (   1.9708392   1.5012857  16.1671103  )
        19           Ti1 tau(  19) = (   3.2655272   2.9480959  15.7331506  )
        20           Ti1 tau(  20) = (   6.5674642   1.4497656  15.9937491  )
        21           O1  tau(  21) = (   3.2904802   0.0005063   4.7018136  )
        22           O1  tau(  22) = (   6.5217933   5.8323795  17.2454964  )
        23           O1  tau(  23) = (   1.3043587   1.4918075   6.0039043  )
        24           O1  tau(  24) = (   5.2767064   1.4903225   6.0039473  )
        25           Ti1 tau(  25) = (   0.0000382   5.9609847   6.0000000  )
        26           Ti1 tau(  26) = (   3.2902200   4.4714249   6.0002472  )
        27           O1  tau(  27) = (   0.0002396   2.9813036   7.9858123  )
        28           O1  tau(  28) = (   3.2902150   2.9813002   7.3038282  )
        29           O1  tau(  29) = (   4.5938453   4.4726049   9.2879030  )
        30           O1  tau(  30) = (   1.9864658   4.4711199   9.2879459  )
        31           Ti1 tau(  31) = (   3.2891106   5.8743827   9.1763621  )
        32           Ti1 tau(  32) = (   0.0006254   4.4649316   9.2693709  )
        33           O1  tau(  33) = (   3.2830490   2.9749636  11.3746576  )
        34           O1  tau(  34) = (   0.0092240   2.9805883  10.6323155  )
        35           O1  tau(  35) = (   1.2760807   4.4612897  12.6946019  )
        36           O1  tau(  36) = (   5.2846406   4.4647657  12.6742532  )
        37           Ti1 tau(  37) = (   0.0173662   5.9591775  12.4970172  )
        38           Ti1 tau(  38) = (   3.3070294   4.4569304  12.5379467  )
        39           O1  tau(  39) = (   6.5190077   2.9374781  14.9220565  )
        40           O1  tau(  40) = (   3.2909943   2.9519766  13.9498127  )
        41           O1  tau(  41) = (   4.5146313   4.4149292  16.1460290  )
        42           O1  tau(  42) = (   1.9668235   4.4047650  16.1116202  )
        43           Ti1 tau(  43) = (   3.2426406   5.9218513  15.8539982  )
        44           Ti1 tau(  44) = (   6.5337747   4.6515477  15.8702276  )
        45           O1  tau(  45) = (   3.2900926   2.9813045   4.7018136  )
        46           O1  tau(  46) = (   1.3039711   4.4726057   6.0039043  )
        47           O1  tau(  47) = (   5.2763189   4.4711207   6.0039473  )
        48           N1  tau(  48) = (   1.0802268   3.0592680  18.8437747  )
        49           N1  tau(  49) = (   6.4825355   2.6367244  18.1156036  )
        50           C1  tau(  50) = (   0.7269815   3.7261681  20.0984356  )
        51           H1  tau(  51) = (   0.0344531   4.5672025  19.9493712  )
        52           H1  tau(  52) = (   0.2718923   3.0081313  20.7822053  )
        53           H1  tau(  53) = (   1.6424345   4.1087450  20.5485440  )
        54           H1  tau(  54) = (   5.7152520   3.3097272  18.2274121  )
        55           H1  tau(  55) = (   6.1788988   1.7551022  18.5268573  )
        56           H1  tau(  56) = (   1.5478348   3.7306874  18.2371031  )
        57           O1  tau(  57) = (   3.1761568   0.0027346  18.3937517  )
        58           H1  tau(  58) = (   4.0701885   0.3469208  18.4697374  )
        59           H1  tau(  59) = (   2.5798038   0.7742236  18.5044111  )

     number of k points=    10  Fermi-Dirac smearing, width (Ry)=  0.0073
                       cart. coord. in units 2pi/alat
        k(    1) = (   0.0000000   0.0000000   0.0000000), wk =   0.1250000
        k(    2) = (   0.0000000   0.0419351   0.0000000), wk =   0.2500000
        k(    3) = (   0.0000000  -0.0838702   0.0000000), wk =   0.1250000
        k(    4) = (   0.0379955   0.0000049   0.0000000), wk =   0.2500000
        k(    5) = (   0.0379955   0.0419400   0.0000000), wk =   0.2500000
        k(    6) = (   0.0379955  -0.0838652   0.0000000), wk =   0.2500000
        k(    7) = (   0.0379955  -0.0419301   0.0000000), wk =   0.2500000
        k(    8) = (  -0.0759910  -0.0000099   0.0000000), wk =   0.1250000
        k(    9) = (  -0.0759910   0.0419252   0.0000000), wk =   0.2500000
        k(   10) = (  -0.0759910  -0.0838800   0.0000000), wk =   0.1250000

     Initial potential from superposition of free atoms

     starting charge  389.99912, renormalised to  406.00000

     negative rho (up, down):  1.306E-02 0.000E+00

     %%%%%%%%%%%%%%%%%%%%%%%%%%%%%%%%%%%%%%%%%%%%%%%%%%%%%%%%%%%%%%%%%%%%%%%%
     %                                                                      %
     % You are using vdW-DF, which was implemented by the Thonhauser group. %
     % Please cite the following two papers that made this development      %
     % possible and the two reviews that describe the various versions:     %
     %                                                                      %
     %   T. Thonhauser et al., PRL 115, 136402 (2015).                      %
     %   T. Thonhauser et al., PRB 76, 125112 (2007).                       %
     %   K. Berland et al., Rep. Prog. Phys. 78, 066501 (2015).             %
     %   D.C. Langreth et al., J. Phys.: Condens. Matter 21, 084203 (2009). %
     %                                                                      %
     %                                                                      %
     % If you are calculating the stress with vdW-DF, please also cite:     %
     %                                                                      %
     %   R. Sabatini et al., J. Phys.: Condens. Matter 24, 424209 (2012).   %
     %                                                                      %
     %%%%%%%%%%%%%%%%%%%%%%%%%%%%%%%%%%%%%%%%%%%%%%%%%%%%%%%%%%%%%%%%%%%%%%%%

     Adding external electric field

     Computed dipole along edir(3) :
        Dipole              -16.1158 Ry au,        -40.9623 Debye
        Dipole field         -0.0304 Ry au,

        Potential amp.        2.8192 Ry
        Total length         46.3494 bohr

     Starting wfcs are  308 atomic wfcs
  @ DRIVER MODE: Message from server: STATUS
  @ DRIVER MODE: Message from server: POSDATA
  @ DRIVER MODE: Reading and sharing cell
  @ DRIVER MODE: Reading and sharing positions
  @ DRIVER MODE: Received positions

     Self-consistent Calculation

     iteration #  1     ecut=    29.40 Ry     beta= 0.05
     Davidson diagonalization with overlap
     c_bands:  2 eigenvalues not converged
     c_bands:  3 eigenvalues not converged
     c_bands:  2 eigenvalues not converged
     c_bands:  3 eigenvalues not converged
     c_bands:  4 eigenvalues not converged
     c_bands:  2 eigenvalues not converged
     c_bands:  1 eigenvalues not converged
     c_bands:  5 eigenvalues not converged
     c_bands:  1 eigenvalues not converged
     ethr =  1.00E-05,  avg # of iterations = 23.1

[...]

     total energy              =   -2140.63238981 Ry
     estimated scf accuracy    <    9598.80304592 Ry

     iteration #  2     ecut=    29.40 Ry     beta= 0.05
     Davidson diagonalization with overlap
     ethr =  1.00E-02,  avg # of iterations = 31.7

[...]

     iteration # 63     ecut=    29.40 Ry     beta= 0.05
     Davidson diagonalization with overlap
     c_bands:  1 eigenvalues not converged
     c_bands:  1 eigenvalues not converged
     c_bands:  1 eigenvalues not converged
     c_bands:  1 eigenvalues not converged
     ethr =  5.91E-10,  avg # of iterations = 18.6

[...]

     total energy              =   -2977.69987922 Ry
     estimated scf accuracy    <       0.00000009 Ry

     iteration # 68     ecut=    29.40 Ry     beta= 0.05
     Davidson diagonalization with overlap
     ethr =  2.13E-11,  avg # of iterations = 11.2

     negative rho (up, down):  1.407E-02 0.000E+00

     Adding external electric field

     Computed dipole along edir(3) :
        Dipole                1.3396 Ry au,          3.4050 Debye
        Dipole field          0.0025 Ry au,

        Potential amp.       -0.2343 Ry
        Total length         46.3494 bohr

     End of self-consistent calculation

          k = 0.0000 0.0000 0.0000 ( 18029 PWs)   bands (ev):

   -55.1192 -55.0825 -55.0750 -55.0409 -55.0351 -55.0301 -54.9985 -54.9626
   -54.9440 -54.9092 -54.9054 -54.8884 -54.8717 -54.8380 -54.1048 -54.0708
   -31.6810 -31.5949 -31.5674 -31.4875 -31.4331 -31.4304 -31.4168 -31.4109
   -31.3640 -31.3411 -31.3308 -31.3197 -31.3130 -31.3102 -31.2920 -31.2838
   -31.2635 -31.2609 -31.2585 -31.2402 -31.2276 -31.2183 -31.2009 -31.1964
   -31.1888 -31.1772 -31.1741 -31.1450 -31.1323 -31.1293 -31.1244 -31.1039
   -31.1013 -31.0936 -31.0902 -31.0664 -31.0574 -31.0408 -31.0334 -31.0315
   -31.0164 -31.0153 -30.5142 -30.4199 -30.3979 -30.3306 -30.2438 -30.1329
   -18.8228 -17.8200 -15.9503 -15.6949 -15.5583 -15.4573 -15.3226 -15.2164
   -15.1350 -15.0209 -14.9711 -14.8559 -14.8238 -14.8195 -14.7786 -14.7481
   -14.6993 -14.6607 -14.6584 -14.6361 -14.6167 -14.6088 -14.5660 -14.5593
   -14.5195 -14.5177 -14.4979 -14.3617 -14.2802 -14.2101 -14.0279 -13.2025
   -12.6076 -12.4901  -9.7787  -6.5634  -6.4040  -5.4507  -4.9216  -3.5344
    -3.2839  -3.1392  -3.0860  -3.0504  -3.0154  -2.9549  -2.8812  -2.8036
    -2.6496  -2.5815  -2.5563  -2.4041  -2.3300  -2.3203  -2.2636  -2.1640
    -2.1393  -2.0928  -2.0504  -1.9860  -1.9480  -1.9248  -1.9031  -1.8675
    -1.8647  -1.8103  -1.7564  -1.6870  -1.5973  -1.5659  -1.5201  -1.4766
    -1.4544  -1.4517  -1.4114  -1.4050  -1.3953  -1.3499  -1.3438  -1.3137
    -1.2677  -1.1581  -1.0083  -0.9458  -0.8564  -0.7617  -0.7373  -0.7108
    -0.6907  -0.6287  -0.6061  -0.5768  -0.5012  -0.4529  -0.3738  -0.3275
    -0.3049  -0.2251  -0.1205  -0.1036  -0.0961  -0.0078   0.0842   0.0971
     0.1118   0.1214   0.2192   0.2848   0.3185   0.3602   0.4243   0.4335
     0.4913   0.5204   0.5716   0.6382   0.6713   0.7502   0.7896   0.8106
     0.8163   0.8388   0.8582   0.8696   0.9512   0.9602   0.9857   1.0744
     1.1788   1.3331   1.4793   1.4901   1.8234   1.8245   1.9178   2.1014
     2.4940   2.5423   3.9752   4.0508   4.1093   4.1204   4.1260   4.2110
     4.4600   4.4778   4.4892   4.4908   4.5257

[...]

          k = 0.0380-0.0419 0.0000 ( 17876 PWs)   bands (ev):

[...]

          k =-0.0760-0.0000 0.0000 ( 17886 PWs)   bands (ev):

[...]

          k =-0.0760-0.0839 0.0000 ( 17948 PWs)   bands (ev):

   -55.1048 -55.0968 -55.0580 -55.0578 -55.0324 -55.0290 -54.9857 -54.9754
   -54.9296 -54.9232 -54.8903 -54.8892 -54.8881 -54.8397 -54.0878 -54.0877
   -31.5102 -31.4907 -31.4809 -31.3826 -31.3824 -31.3770 -31.3704 -31.3493
   -31.3491 -31.3288 -31.3236 -31.3180 -31.3083 -31.2894 -31.2759 -31.2614
   -31.2571 -31.2558 -31.2523 -31.2459 -31.2439 -31.2402 -31.2282 -31.2272
   -31.1978 -31.1970 -31.1799 -31.1777 -31.1776 -31.1688 -31.1687 -31.1627
   -31.1543 -31.1420 -31.1364 -31.1208 -31.1194 -31.1033 -31.0693 -31.0688
   -31.0673 -31.0442 -30.4105 -30.4105 -30.3268 -30.3266 -30.2873 -30.2872
   -18.8214 -17.8166 -15.5303 -15.3918 -15.2527 -15.1490 -15.1341 -15.0806
   -15.0315 -14.9898 -14.9481 -14.9039 -14.8936 -14.8758 -14.8467 -14.8202
   -14.7957 -14.7367 -14.7204 -14.7048 -14.6825 -14.6357 -14.6279 -14.6251
   -14.6180 -14.5716 -14.5690 -14.5440 -14.4755 -14.4734 -14.2871 -13.2045
   -12.5917 -12.5915  -9.7756  -6.6105  -6.3307  -5.4480  -4.9324  -3.5078
    -2.9487  -2.8182  -2.6538  -2.6178  -2.4718  -2.3718  -2.3267  -2.2985
    -2.2448  -2.1991  -2.1390  -2.1239  -2.1056  -2.0469  -2.0212  -2.0028
    -1.9713  -1.9524  -1.9387  -1.9208  -1.9029  -1.8742  -1.8485  -1.8397
    -1.8349  -1.8067  -1.7905  -1.7509  -1.7441  -1.7364  -1.6929  -1.6811
    -1.6548  -1.5980  -1.4909  -1.4806  -1.3283  -1.3259  -1.2918  -1.2463
    -1.2267  -1.2161  -1.1556  -1.1477  -1.1353  -0.9000  -0.8725  -0.8624
    -0.8355  -0.7776  -0.7595  -0.6968  -0.6874  -0.6042  -0.5882  -0.4868
    -0.4710  -0.4151  -0.3312  -0.3237  -0.3110  -0.1999  -0.1503  -0.1125
    -0.0861  -0.0759  -0.0585  -0.0206  -0.0204   0.0693   0.1127   0.1430
     0.1583   0.1882   0.3527   0.4015   0.4100   0.5493   0.5631   0.7109
     0.7751   0.7887   0.8750   0.8968   0.9843   0.9945   1.0341   1.1737
     1.1853   1.2084   1.2555   1.2839   1.3358   1.3410   2.2741   2.2754
     2.3622   2.3624   4.1075   4.2328   4.2392   4.2998   4.4092   4.4424
     4.4885   4.5222   4.5595   4.5621   4.6302

     the Fermi energy is     4.0372 ev

!    total energy              =   -2977.69991145 Ry
     estimated scf accuracy    <       0.00000006 Ry
     smearing contrib. (-TS)   =      -0.03675202 Ry
     internal energy E=F+TS    =   -2977.66315944 Ry

     The total energy is F=E-TS. E is the sum of the following terms:
     one-electron contribution =  -23082.87251277 Ry
     hartree contribution      =   11640.58100652 Ry
     xc contribution           =    -496.62509358 Ry
     ewald contribution        =    8961.25005383 Ry
     electric field correction =       0.00338657 Ry

     convergence has been achieved in  68 iterations

     Forces acting on atoms (cartesian axes, Ry/au):

     atom    1 type  1   force =     0.00018104   -0.00018303    0.09315810
     atom    2 type  1   force =    -0.00010076   -0.00033116   -0.17817341
     atom    3 type  2   force =     0.00002178   -0.00017768   -0.02035711
     atom    4 type  2   force =    -0.00002550   -0.00200541    0.05899768
     atom    5 type  2   force =    -0.01060429   -0.00141858    0.00860113
     atom    6 type  2   force =     0.01187102   -0.00070121    0.00713472
     atom    7 type  1   force =    -0.00089016    0.00313574   -0.01230604
     atom    8 type  1   force =     0.00054260    0.00111601   -0.00452106
     atom    9 type  2   force =    -0.00007383   -0.00037081    0.00014580
     atom   10 type  2   force =    -0.00129394   -0.00050777   -0.00194482
     atom   11 type  2   force =    -0.00021947   -0.00022293   -0.00006010
     atom   12 type  2   force =     0.00060970   -0.00007928   -0.00024767
     atom   13 type  1   force =    -0.00102297   -0.00063320    0.00022108
     atom   14 type  1   force =     0.00011185   -0.00005075    0.00017931
     atom   15 type  2   force =    -0.00026582   -0.00050837   -0.00005356
     atom   16 type  2   force =    -0.00001180   -0.00007567    0.00066975
     atom   17 type  2   force =    -0.00026392    0.00037486    0.00036231
     atom   18 type  2   force =     0.00023219   -0.00007624    0.00048150
     atom   19 type  1   force =     0.00039573    0.00003816    0.00056953
     atom   20 type  1   force =    -0.00032809   -0.00022268    0.00023351
     atom   21 type  2   force =     0.00007212   -0.00001750    0.10394592
     atom   22 type  2   force =     0.00018532   -0.00022294   -0.00108437
     atom   23 type  2   force =    -0.07038664   -0.00010210   -0.02687560
     atom   24 type  2   force =     0.07026755    0.00034405   -0.02691627
     atom   25 type  1   force =    -0.00000097   -0.00022400    0.09279645
     atom   26 type  1   force =    -0.00019503   -0.00036981   -0.17828990
     atom   27 type  2   force =     0.00010652   -0.00028832   -0.01933134
     atom   28 type  2   force =     0.00003792   -0.00162601    0.05806933
     atom   29 type  2   force =    -0.01069098   -0.00080727    0.00799886
     atom   30 type  2   force =     0.01181055   -0.00047783    0.00652499
     atom   31 type  1   force =    -0.00072455    0.00505293   -0.01492483
     atom   32 type  1   force =     0.00040279   -0.00138150   -0.00479888
     atom   33 type  2   force =    -0.00010942    0.00021393    0.00029298
     atom   34 type  2   force =    -0.00128690    0.00140183   -0.00091391
     atom   35 type  2   force =     0.00019508    0.00014088    0.00001614
     atom   36 type  2   force =     0.00011829   -0.00001125   -0.00012260
     atom   37 type  1   force =    -0.00103450    0.00056611    0.00003741
     atom   38 type  1   force =     0.00014887   -0.00013969   -0.00003663
     atom   39 type  2   force =     0.00000819   -0.00015812    0.00010532
     atom   40 type  2   force =    -0.00021806    0.00020469    0.00025641
     atom   41 type  2   force =     0.00002483   -0.00024880    0.00024464
     atom   42 type  2   force =    -0.00012469    0.00004117    0.00021116
     atom   43 type  1   force =     0.00042697    0.00028047    0.00043413
     atom   44 type  1   force =    -0.00021578    0.00022366   -0.00038134
     atom   45 type  2   force =     0.00003954   -0.00005221    0.10394085
     atom   46 type  2   force =    -0.07037537   -0.00006458   -0.02690071
     atom   47 type  2   force =     0.07028312    0.00036411   -0.02693494
     atom   48 type  3   force =     0.00004891    0.00013481   -0.00033954
     atom   49 type  3   force =    -0.00088692   -0.00031893    0.00024562
     atom   50 type  4   force =     0.00068445    0.00039198   -0.00048586
     atom   51 type  5   force =     0.00012341   -0.00029305    0.00008222
     atom   52 type  5   force =     0.00033631   -0.00060439    0.00048872
     atom   53 type  5   force =     0.00061134    0.00009889   -0.00019880
     atom   54 type  5   force =     0.00080642   -0.00023560   -0.00028315
     atom   55 type  5   force =     0.00040693    0.00083894   -0.00000957
     atom   56 type  5   force =     0.00008746    0.00028983    0.00016735
     atom   57 type  2   force =    -0.02533184    0.00218294   -0.00090586
     atom   58 type  5   force =     0.01783680    0.00666556    0.00159758
     atom   59 type  5   force =     0.00764659   -0.00889285   -0.00081263

     Total force =     0.367605     Total SCF correction =     0.000791
  @ DRIVER MODE: Message from server: STATUS
  @ DRIVER MODE: Message from server: GETFORCE
  @ DRIVER MODE: Returning v,forces,stress,ensemble

     Writing output data file ./calc.save/
  @ DRIVER MODE: Message from server: EXIT
  @ DRIVE MODE: Exiting

     General routines

     Parallel routines

   This run was terminated on:  11:46:37  16Sep2021

   JOB DONE.