     Program PWSCF v.6.7GPU starts on  8Sep2021 at 22:35:23

     R & G space division:  proc/nbgrp/npool/nimage =      10
     Reading input from /storage/home/hcoda1/3/ntian30/research/carbon/CxH_vib/CH3_calc/ads_slab/CH3N_a/out_0003/pw.inp
Warning: card &CELL ignored
Warning: card   CELL_DYNAMICS='IPI', ignored
Warning: card / ignored

     Current dimensions of program PWSCF are:
     Max number of different atomic species (ntypx) = 10
     Max number of k-points (npk) =  40000
     Max angular momentum in pseudopotentials (lmaxx) =  3
     Presently no symmetry can be used with electric field

     Message from routine cell_base_init:
     DEPRECATED: use true lattice parameter, not A to a.u. conversion factor

     IMPORTANT: XC functional enforced from input :
     Exchange-correlation= BEEF-VDW
                           (   1   4  43  14   2   0   0)
     Any further DFT definition will be discarded
     Please, verify this is what you really want

  @ DRIVER MODE: Connecting to
 qe_1139763_2767403.sched-torque.pace.gatech.edugfmea259_scratch
  using UNIX socket
  @ DRIVER MODE: Message from server: STATUS
  @ DRIVER MODE: Message from server: INIT
  @ DRIVER MODE: Receiving replica           0          -1
  @ DRIVER MODE: Receiving encoded integer          25
  @ DRIVER MODE:  SCF:  T  FORCE:  T  STRESS:  F  VC:  F  ENSEMBLE:  F
  @ DRIVER MODE:  SCF:  T  FORCE:  T  STRESS:  F  VC:  F  ENSEMBLE:  F

     Using Slab Decomposition

     bravais-lattice index     =            0
     lattice parameter (alat)  =       1.8897  a.u.
     unit-cell volume          =    6658.9804 (a.u.)^3
     number of atoms/cell      =           52
     number of atomic types    =            5
     number of electrons       =       390.00
     number of Kohn-Sham states=          205
     kinetic-energy cutoff     =      29.3995  Ry
     charge density cutoff     =     293.9946  Ry
     scf convergence threshold =      7.3E-08
     mixing beta               =       0.0500
     number of iterations used =            8  plain     mixing
     Exchange-correlation= BEEF-VDW
                           (   1   4  43  14   2   0   0)

     celldm(1)=   1.889726  celldm(2)=   0.000000  celldm(3)=   0.000000
     celldm(4)=   0.000000  celldm(5)=   0.000000  celldm(6)=   0.000000

     crystal axes: (cart. coord. in units of alat)
               a(1) = (   6.579727   0.000000   0.000000 )
               a(2) = (  -0.000775   5.961596   0.000000 )
               a(3) = (   0.000000   0.000000  25.155947 )

     reciprocal axes: (cart. coord. in units 2 pi/alat)
               b(1) = (  0.151982  0.000020  0.000000 )
               b(2) = (  0.000000  0.167740  0.000000 )
               b(3) = (  0.000000  0.000000  0.039752 )

     PseudoPot. # 1 for Ti read from file:
     /storage/coda1/p-amedford6/0/shared/rich_project_chbe-medford/medford-share/data/pseudos_module/espresso/nninc/pbe/van/Ti.UPF
     MD5 check sum: 8e4df49b7f0d34bbd5052bf3f5ea0213
     Pseudo is Ultrasoft, Zval = 12.0
     Generated by new atomic code, or converted to UPF format
     Using radial grid of  851 points,  6 beta functions with:
                l(1) =   0
                l(2) =   0
                l(3) =   1
                l(4) =   1
                l(5) =   2
                l(6) =   2
     Q(r) pseudized with  8 coefficients,  rinner =    1.000   1.000   1.000
                                                       1.000   1.000

     PseudoPot. # 2 for O  read from file:
     /storage/coda1/p-amedford6/0/shared/rich_project_chbe-medford/medford-share/data/pseudos_module/espresso/nninc/pbe/van/O.UPF
     MD5 check sum: 78c19812648e8988a0fe644b0f25305e
     Pseudo is Ultrasoft, Zval =  6.0
     Generated by new atomic code, or converted to UPF format
     Using radial grid of  737 points,  4 beta functions with:
                l(1) =   0
                l(2) =   0
                l(3) =   1
                l(4) =   1
     Q(r) pseudized with  8 coefficients,  rinner =    0.800   0.800   0.800

     PseudoPot. # 3 for N  read from file:
     /storage/coda1/p-amedford6/0/shared/rich_project_chbe-medford/medford-share/data/pseudos_module/espresso/nninc/pbe/van/N.UPF
     MD5 check sum: 90d10febe142ad51ac9d5be1deb811c4
     Pseudo is Ultrasoft, Zval =  5.0
     Generated by new atomic code, or converted to UPF format
     Using radial grid of  729 points,  4 beta functions with:
                l(1) =   0
                l(2) =   0
                l(3) =   1
                l(4) =   1
     Q(r) pseudized with  8 coefficients,  rinner =    0.800   0.800   0.800

     PseudoPot. # 4 for C  read from file:
     /storage/coda1/p-amedford6/0/shared/rich_project_chbe-medford/medford-share/data/pseudos_module/espresso/nninc/pbe/van/C.UPF
     MD5 check sum: 1a69bf6b8db32088f5b2163dbdb77a27
     Pseudo is Ultrasoft, Zval =  4.0
     Generated by new atomic code, or converted to UPF format
     Using radial grid of  721 points,  4 beta functions with:
                l(1) =   0
                l(2) =   0
                l(3) =   1
                l(4) =   1
     Q(r) pseudized with  8 coefficients,  rinner =    0.800   0.800   0.800

     PseudoPot. # 5 for H  read from file:
     /storage/coda1/p-amedford6/0/shared/rich_project_chbe-medford/medford-share/data/pseudos_module/espresso/nninc/pbe/van/H.UPF
     MD5 check sum: b5ee9d7bfd3a09ee7748110bda690ff7
     Pseudo is Ultrasoft, Zval =  1.0
     Generated by new atomic code, or converted to UPF format
     Using radial grid of  615 points,  1 beta functions with:
                l(1) =   0
     Q(r) pseudized with  8 coefficients,  rinner =    0.800

     atomic species   valence    mass     pseudopotential
        Ti1           12.00    47.86700     Ti( 1.00)
        O1             6.00    15.99900     O ( 1.00)
        N1             5.00    14.00700     N ( 1.00)
        C1             4.00    12.01100     C ( 1.00)
        H1             1.00     1.00800     H ( 1.00)

     No symmetry found

   Cartesian axes

     site n.     atom                  positions (alat units)
         1           Ti1 tau(   1) = (   0.0004258   2.9801865   6.0000000  )
         2           Ti1 tau(   2) = (   3.2906075   1.4906267   6.0002472  )
         3           O1  tau(   3) = (   0.0006271   0.0005054   7.9858123  )
         4           O1  tau(   4) = (   3.2906025   0.0005020   7.3038282  )
         5           O1  tau(   5) = (   4.5942328   1.4918067   9.2879030  )
         6           O1  tau(   6) = (   1.9868534   1.4903216   9.2879459  )
         7           Ti1 tau(   7) = (   3.2907910   2.8959150   9.1758416  )
         8           Ti1 tau(   8) = (   0.0015273   1.4827037   9.2680791  )
         9           O1  tau(   9) = (   3.3018735   5.9614316  11.2970789  )
        10           O1  tau(  10) = (   0.0116148   5.9584955  10.6183126  )
        11           O1  tau(  11) = (   1.3353665   1.4968727  12.6140821  )
        12           O1  tau(  12) = (   5.3123320   1.5002621  12.6324210  )
        13           Ti1 tau(  13) = (   6.4913169   2.9877414  12.7576577  )
        14           Ti1 tau(  14) = (   3.1819880   1.4874128  12.4666476  )
        15           O1  tau(  15) = (   0.0325390   5.9514364  14.5942808  )
        16           O1  tau(  16) = (   3.3157460   0.0104736  13.8786857  )
        17           O1  tau(  17) = (   4.5538541   1.5308062  16.0536203  )
        18           O1  tau(  18) = (   2.1012647   1.5271178  16.0466835  )
        19           Ti1 tau(  19) = (   3.3239613   3.0121693  15.6870930  )
        20           Ti1 tau(  20) = (   0.0188375   1.6096557  16.0875739  )
        21           O1  tau(  21) = (   3.2904802   0.0005063   4.7018136  )
        22           O1  tau(  22) = (   0.0443345   0.0604659  17.2041813  )
        23           O1  tau(  23) = (   1.3043587   1.4918075   6.0039043  )
        24           O1  tau(  24) = (   5.2767064   1.4903225   6.0039473  )
        25           Ti1 tau(  25) = (   0.0000382   5.9609847   6.0000000  )
        26           Ti1 tau(  26) = (   3.2902200   4.4714249   6.0002472  )
        27           O1  tau(  27) = (   0.0002396   2.9813036   7.9858123  )
        28           O1  tau(  28) = (   3.2902150   2.9813002   7.3038282  )
        29           O1  tau(  29) = (   4.5938453   4.4726049   9.2879030  )
        30           O1  tau(  30) = (   1.9864658   4.4711199   9.2879459  )
        31           Ti1 tau(  31) = (   3.2891106   5.8743827   9.1763621  )
        32           Ti1 tau(  32) = (   0.0006254   4.4649316   9.2693709  )
        33           O1  tau(  33) = (   3.3028429   2.9834257  11.2952420  )
        34           O1  tau(  34) = (   0.0092240   2.9805883  10.6323155  )
        35           O1  tau(  35) = (   1.3370139   4.4664586  12.6123119  )
        36           O1  tau(  36) = (   5.3107101   4.4655690  12.6333123  )
        37           Ti1 tau(  37) = (   6.5188704   0.0058144  12.7695920  )
        38           Ti1 tau(  38) = (   3.1805296   4.4670443  12.4671176  )
        39           O1  tau(  39) = (   0.0099197   2.9765079  14.6559069  )
        40           O1  tau(  40) = (   3.3143426   2.9928857  13.8797190  )
        41           O1  tau(  41) = (   4.5573730   4.5089470  16.0521860  )
        42           O1  tau(  42) = (   2.1018054   4.5121927  16.0508938  )
        43           Ti1 tau(  43) = (   3.3145791   0.0316975  15.6896801  )
        44           Ti1 tau(  44) = (   0.0207397   4.5876961  16.1385408  )
        45           O1  tau(  45) = (   3.2900926   2.9813045   4.7018136  )
        46           O1  tau(  46) = (   1.3039711   4.4726057   6.0039043  )
        47           O1  tau(  47) = (   5.2763189   4.4711207   6.0039473  )
        48           N1  tau(  48) = (   0.0936308   3.0133000  17.3257847  )
        49           C1  tau(  49) = (   0.4281149   3.0137428  18.7308649  )
        50           H1  tau(  50) = (   0.7292188   4.0033843  19.0862330  )
        51           H1  tau(  51) = (   6.1445545   2.6862439  19.3232575  )
        52           H1  tau(  52) = (   1.2401080   2.3040860  18.9332505  )

     number of k points=    10  Fermi-Dirac smearing, width (Ry)=  0.0073
                       cart. coord. in units 2pi/alat
        k(    1) = (   0.0000000   0.0000000   0.0000000), wk =   0.1250000
        k(    2) = (   0.0000000   0.0419351   0.0000000), wk =   0.2500000
        k(    3) = (   0.0000000  -0.0838702   0.0000000), wk =   0.1250000
        k(    4) = (   0.0379955   0.0000049   0.0000000), wk =   0.2500000
        k(    5) = (   0.0379955   0.0419400   0.0000000), wk =   0.2500000
        k(    6) = (   0.0379955  -0.0838652   0.0000000), wk =   0.2500000
        k(    7) = (   0.0379955  -0.0419301   0.0000000), wk =   0.2500000
        k(    8) = (  -0.0759910  -0.0000099   0.0000000), wk =   0.1250000
        k(    9) = (  -0.0759910   0.0419252   0.0000000), wk =   0.2500000
        k(   10) = (  -0.0759910  -0.0838800   0.0000000), wk =   0.1250000

     Initial potential from superposition of free atoms

     starting charge  373.99917, renormalised to  390.00000

     negative rho (up, down):  1.729E-02 0.000E+00

     %%%%%%%%%%%%%%%%%%%%%%%%%%%%%%%%%%%%%%%%%%%%%%%%%%%%%%%%%%%%%%%%%%%%%%%%
     %                                                                      %
     % You are using vdW-DF, which was implemented by the Thonhauser group. %
     % Please cite the following two papers that made this development      %
     % possible and the two reviews that describe the various versions:     %
     %                                                                      %
     %   T. Thonhauser et al., PRL 115, 136402 (2015).                      %
     %   T. Thonhauser et al., PRB 76, 125112 (2007).                       %
     %   K. Berland et al., Rep. Prog. Phys. 78, 066501 (2015).             %
     %   D.C. Langreth et al., J. Phys.: Condens. Matter 21, 084203 (2009). %
     %                                                                      %
     %                                                                      %
     % If you are calculating the stress with vdW-DF, please also cite:     %
     %                                                                      %
     %   R. Sabatini et al., J. Phys.: Condens. Matter 24, 424209 (2012).   %
     %                                                                      %
     %%%%%%%%%%%%%%%%%%%%%%%%%%%%%%%%%%%%%%%%%%%%%%%%%%%%%%%%%%%%%%%%%%%%%%%%

     Adding external electric field

     Computed dipole along edir(3) :
        Dipole               -4.6272 Ry au,        -11.7612 Debye
        Dipole field         -0.0087 Ry au,

        Potential amp.        0.8095 Ry
        Total length         46.3494 bohr

     Starting wfcs are  295 atomic wfcs
  @ DRIVER MODE: Message from server: STATUS
  @ DRIVER MODE: Message from server: POSDATA
  @ DRIVER MODE: Reading and sharing cell
  @ DRIVER MODE: Reading and sharing positions
  @ DRIVER MODE: Received positions

     Self-consistent Calculation

     iteration #  1     ecut=    29.40 Ry     beta= 0.05
     Davidson diagonalization with overlap
     c_bands:  4 eigenvalues not converged
     c_bands:  2 eigenvalues not converged
     c_bands:  2 eigenvalues not converged
     c_bands:  4 eigenvalues not converged
     c_bands:  4 eigenvalues not converged
     c_bands:  2 eigenvalues not converged
     c_bands:  2 eigenvalues not converged
     c_bands:  2 eigenvalues not converged
     ethr =  1.00E-05,  avg # of iterations = 19.7

[...]

     total energy              =   -2877.54559137 Ry
     estimated scf accuracy    <     479.92282133 Ry

     iteration #  2     ecut=    29.40 Ry     beta= 0.05
     Davidson diagonalization with overlap
     ethr =  1.00E-02,  avg # of iterations = 13.6

[...]

     iteration # 35     ecut=    29.40 Ry     beta= 0.05
     Davidson diagonalization with overlap
     c_bands:  1 eigenvalues not converged
     ethr =  1.13E-06,  avg # of iterations =  9.0

[...]

     total energy              =   -2919.13182431 Ry
     estimated scf accuracy    <       0.00000009 Ry

     iteration # 61     ecut=    29.40 Ry     beta= 0.05
     Davidson diagonalization with overlap
     ethr =  2.38E-11,  avg # of iterations =  5.6

     negative rho (up, down):  1.787E-02 0.000E+00

     Adding external electric field

     Computed dipole along edir(3) :
        Dipole                0.2603 Ry au,          0.6616 Debye
        Dipole field          0.0005 Ry au,

        Potential amp.       -0.0455 Ry
        Total length         46.3494 bohr

     End of self-consistent calculation

          k = 0.0000 0.0000 0.0000 ( 18029 PWs)   bands (ev):

   -56.8882 -56.8546 -56.0098 -55.9981 -55.9748 -55.9652 -55.8621 -55.8234
   -55.6452 -55.6099 -55.5523 -55.5468 -55.5184 -55.4395 -54.9803 -54.9010
   -33.3161 -33.1629 -33.1347 -33.0643 -32.9732 -32.9421 -32.4808 -32.4744
   -32.4028 -32.2940 -32.2475 -32.2235 -32.2052 -32.1838 -32.1503 -32.1459
   -32.1412 -32.1389 -32.1133 -32.1096 -32.0993 -32.0691 -32.0428 -32.0288
   -32.0158 -31.9963 -31.9889 -31.9654 -31.9446 -31.8908 -31.8765 -31.8667
   -31.7885 -31.7839 -31.7633 -31.7217 -31.7118 -31.6798 -31.6686 -31.6441
   -31.6245 -31.5689 -31.4962 -31.2287 -31.2074 -31.1560 -31.1214 -31.0205
   -17.0523 -16.6165 -16.3858 -16.2507 -16.1831 -16.1288 -16.0848 -15.9592
   -15.8872 -15.8828 -15.8426 -15.8092 -15.7388 -15.6010 -15.5024 -15.4445
   -15.4007 -15.2815 -15.2237 -15.1891 -15.1830 -15.1432 -15.1284 -14.9324
   -14.9066 -14.8186 -14.7976 -14.6720 -14.4383 -14.0508 -13.9407 -13.0833
    -7.8125  -4.6179  -4.1130  -3.8713  -3.7888  -3.6801  -3.6682  -3.5862
    -3.4689  -3.4217  -3.3754  -3.2593  -3.2552  -3.1095  -3.1063  -3.0639
    -3.0610  -3.0247  -2.9638  -2.9415  -2.9043  -2.8932  -2.8851  -2.7327
    -2.6327  -2.5648  -2.5386  -2.5253  -2.4953  -2.4225  -2.3929  -2.3845
    -2.3806  -2.2738  -2.1305  -2.1269  -2.0958  -2.0538  -2.0524  -2.0125
    -1.9994  -1.8759  -1.7852  -1.6786  -1.6665  -1.6290  -1.5679  -1.5614
    -1.4692  -1.3889  -1.3153  -1.3011  -1.1919  -1.1476  -1.1237  -1.0335
    -0.9723  -0.9354  -0.9120  -0.8960  -0.7924  -0.7775  -0.7690  -0.6757
    -0.6634  -0.6205  -0.5272  -0.5041  -0.4987  -0.4165  -0.4094  -0.3032
    -0.2761  -0.2311  -0.1983  -0.0931  -0.0726   0.0251   0.0622   0.0812
     0.2015   0.2209   0.2807   0.3535   0.4179   0.4347   0.4695   0.5007
     0.5167   0.5961   0.7072   0.7137   0.8183   0.8518   1.0220   1.0608
     1.3436   1.3537   2.0447   2.3865   2.5462   2.8446   3.0340   3.1472
     3.3614   3.3769   3.3822   3.5551   3.6065

[...]

          k = 0.0380-0.0419 0.0000 ( 17876 PWs)   bands (ev):

[...]

          k =-0.0760-0.0000 0.0000 ( 17886 PWs)   bands (ev):

[...]

          k =-0.0760-0.0839 0.0000 ( 17948 PWs)   bands (ev):

   -56.8715 -56.8711 -55.9946 -55.9888 -55.9824 -55.9818 -55.8506 -55.8347
   -55.6304 -55.6246 -55.5439 -55.5353 -55.5352 -55.4423 -54.9762 -54.9050
   -33.1487 -33.1485 -33.1330 -33.1328 -33.0173 -33.0170 -32.3106 -32.3083
   -32.2989 -32.2923 -32.2391 -32.2357 -32.1970 -32.1934 -32.1922 -32.1875
   -32.1842 -32.1813 -32.1791 -32.1774 -32.1010 -32.0883 -32.0498 -32.0374
   -31.9810 -31.9725 -31.9127 -31.9069 -31.8797 -31.8796 -31.8722 -31.8290
   -31.8274 -31.7976 -31.7614 -31.7609 -31.7608 -31.7218 -31.7217 -31.7173
   -31.6850 -31.6459 -31.3682 -31.2717 -31.2060 -31.1767 -31.1273 -31.0897
   -16.4010 -16.3989 -16.3662 -16.3659 -16.0970 -16.0934 -16.0466 -16.0432
   -15.8714 -15.8644 -15.6600 -15.6511 -15.6438 -15.6409 -15.5134 -15.5075
   -15.4432 -15.4297 -15.3422 -15.3374 -15.2761 -15.2699 -15.2306 -15.2118
   -14.8997 -14.8848 -14.7711 -14.7475 -14.5832 -14.0442 -14.0441 -13.0998
    -7.8033  -3.4994  -3.4986  -3.4350  -3.4341  -3.3090  -3.3032  -3.2307
    -3.2300  -3.1279  -3.1242  -3.0825  -2.9962  -2.9850  -2.9820  -2.9714
    -2.9606  -2.8295  -2.8280  -2.8166  -2.8010  -2.7451  -2.7429  -2.7286
    -2.6524  -2.6376  -2.6037  -2.5655  -2.4564  -2.4431  -2.4294  -2.3981
    -2.3433  -2.3293  -2.3160  -2.2742  -2.2497  -2.1624  -2.1064  -2.0562
    -1.9392  -1.9362  -1.9272  -1.9115  -1.7606  -1.7200  -1.6911  -1.6847
    -1.6758  -1.6317  -1.5345  -1.5277  -1.3928  -1.3923  -1.3121  -1.2327
    -1.2157  -1.1859  -1.0558  -1.0151  -0.9785  -0.9708  -0.9427  -0.9232
    -0.8994  -0.8622  -0.7209  -0.7087  -0.6703  -0.6353  -0.6296  -0.5746
    -0.5179  -0.4378  -0.3617  -0.3605  -0.3084  -0.2324  -0.1725  -0.0908
    -0.0781  -0.0731   0.2070   0.2860   0.3784   0.4560   0.5235   0.5786
     0.6118   0.6765   0.7159   0.8482   0.8525   0.8701   0.8704   0.9334
     0.9345   1.3347   1.9342   2.9595   2.9599   3.0267   3.0271   3.3507
     3.3566   3.4648   3.4743   3.5861   3.5885

     the Fermi energy is     2.2251 ev

!    total energy              =   -2919.13185747 Ry
     estimated scf accuracy    <       0.00000007 Ry
     smearing contrib. (-TS)   =      -0.00480244 Ry
     internal energy E=F+TS    =   -2919.12705504 Ry

     The total energy is F=E-TS. E is the sum of the following terms:
     one-electron contribution =  -24569.42534151 Ry
     hartree contribution      =   12368.94912372 Ry
     xc contribution           =    -479.90067031 Ry
     ewald contribution        =    9761.24970519 Ry
     electric field correction =       0.00012787 Ry

     convergence has been achieved in  61 iterations

     Forces acting on atoms (cartesian axes, Ry/au):

     atom    1 type  1   force =     0.00004760   -0.00050384    0.12428779
     atom    2 type  1   force =    -0.00009065   -0.00054801   -0.16063159
     atom    3 type  2   force =     0.00022309   -0.00024009   -0.06813298
     atom    4 type  2   force =    -0.00000149   -0.00031995    0.02756340
     atom    5 type  2   force =    -0.01620171    0.00174377   -0.00937205
     atom    6 type  2   force =     0.01825760    0.00228052   -0.00892452
     atom    7 type  1   force =     0.00112598   -0.00381552    0.02207676
     atom    8 type  1   force =    -0.00062068   -0.00323110    0.11126606
     atom    9 type  2   force =    -0.00010479    0.00139755   -0.00039779
     atom   10 type  2   force =    -0.00190527    0.00177818   -0.07345951
     atom   11 type  2   force =     0.00080309    0.00002389    0.00006637
     atom   12 type  2   force =    -0.00066228    0.00013345    0.00015006
     atom   13 type  1   force =     0.00008859    0.00022626   -0.00009275
     atom   14 type  1   force =    -0.00101165   -0.00023273   -0.00043238
     atom   15 type  2   force =    -0.00000242   -0.00148532    0.00058080
     atom   16 type  2   force =    -0.00006274    0.00103154    0.00073244
     atom   17 type  2   force =    -0.00060581   -0.00001970   -0.00071807
     atom   18 type  2   force =     0.00067292    0.00002852   -0.00031034
     atom   19 type  1   force =     0.00014820   -0.00080679   -0.00073275
     atom   20 type  1   force =     0.00013640   -0.00179386   -0.00165892
     atom   21 type  2   force =     0.00004108   -0.00006613    0.09974022
     atom   22 type  2   force =     0.00014540   -0.00267405   -0.00012040
     atom   23 type  2   force =    -0.07920205   -0.00005433   -0.03244409
     atom   24 type  2   force =     0.07907154    0.00038113   -0.03246837
     atom   25 type  1   force =     0.00004643   -0.00049794    0.12372541
     atom   26 type  1   force =    -0.00009536   -0.00050737   -0.16064832
     atom   27 type  2   force =     0.00032611   -0.00048398   -0.06718928
     atom   28 type  2   force =     0.00002762   -0.00014087    0.02725557
     atom   29 type  2   force =    -0.01660127    0.00134331   -0.00957556
     atom   30 type  2   force =     0.01854594    0.00165102   -0.00914172
     atom   31 type  1   force =     0.00110709   -0.00129853    0.02162887
     atom   32 type  1   force =    -0.00052229    0.00067529    0.11192520
     atom   33 type  2   force =    -0.00033863   -0.00116258    0.00010595
     atom   34 type  2   force =    -0.00155968    0.00135735   -0.07247042
     atom   35 type  2   force =    -0.00178514   -0.00017045    0.00026192
     atom   36 type  2   force =     0.00068237   -0.00035167   -0.00005472
     atom   37 type  1   force =     0.00069662   -0.00034655    0.00060151
     atom   38 type  1   force =    -0.00016916    0.00051195    0.00026353
     atom   39 type  2   force =     0.00019330    0.00018622   -0.00079239
     atom   40 type  2   force =     0.00010294   -0.00013378    0.00030564
     atom   41 type  2   force =     0.00066924    0.00034108    0.00012373
     atom   42 type  2   force =    -0.00038477    0.00038424    0.00023270
     atom   43 type  1   force =     0.00039367    0.00095914   -0.00038109
     atom   44 type  1   force =    -0.00006794   -0.00010645    0.00061240
     atom   45 type  2   force =     0.00002409   -0.00007014    0.09975180
     atom   46 type  2   force =    -0.07921138   -0.00000532   -0.03244549
     atom   47 type  2   force =     0.07908250    0.00042443   -0.03246728
     atom   48 type  3   force =     0.00002360    0.00486622    0.00044509
     atom   49 type  4   force =    -0.00058833   -0.00181943    0.00083470
     atom   50 type  5   force =    -0.00088346    0.00026220   -0.00077354
     atom   51 type  5   force =     0.00030281    0.00026419    0.00049197
     atom   52 type  5   force =    -0.00030692    0.00063503    0.00080644

     Total force =     0.424714     Total SCF correction =     0.000754
  @ DRIVER MODE: Message from server: STATUS
  @ DRIVER MODE: Message from server: GETFORCE
  @ DRIVER MODE: Returning v,forces,stress,ensemble

     Writing output data file ./calc.save/
  @ DRIVER MODE: Message from server: EXIT
  @ DRIVE MODE: Exiting

     General routines

     Parallel routines

   This run was terminated on:  22:50:20   8Sep2021

   JOB DONE.