     Program PWSCF v.6.7GPU starts on 19Aug2021 at  4:23:23

     R & G space division:  proc/nbgrp/npool/nimage =       6
     Reading input from /storage/home/hcoda1/3/ntian30/research/carbon/CH3_vib_side_on/ads_slab/CH3N2_c/out_0033/pw.inp
Warning: card &CELL ignored
Warning: card   CELL_DYNAMICS='IPI', ignored
Warning: card / ignored

     Current dimensions of program PWSCF are:
     Max number of different atomic species (ntypx) = 10
     Max number of k-points (npk) =  40000
     Max angular momentum in pseudopotentials (lmaxx) =  3
     Presently no symmetry can be used with electric field

     Message from routine cell_base_init:
     DEPRECATED: use true lattice parameter, not A to a.u. conversion factor

     IMPORTANT: XC functional enforced from input :
     Exchange-correlation= BEEF-VDW
                           (   1   4  43  14   2   0   0)
     Any further DFT definition will be discarded
     Please, verify this is what you really want

  @ DRIVER MODE: Connecting to
 qe_1139763_2594174.sched-torque.pace.gatech.edumccfjpwz_scratch
  using UNIX socket
  @ DRIVER MODE: Message from server: STATUS
  @ DRIVER MODE: Message from server: INIT
  @ DRIVER MODE: Receiving replica           0          -1
  @ DRIVER MODE: Receiving encoded integer          25
  @ DRIVER MODE:  SCF:  T  FORCE:  T  STRESS:  F  VC:  F  ENSEMBLE:  F
  @ DRIVER MODE:  SCF:  T  FORCE:  T  STRESS:  F  VC:  F  ENSEMBLE:  F

     Using Slab Decomposition

     bravais-lattice index     =            0
     lattice parameter (alat)  =       1.8897  a.u.
     unit-cell volume          =    6658.9804 (a.u.)^3
     number of atoms/cell      =           53
     number of atomic types    =            5
     number of electrons       =       395.00
     number of Kohn-Sham states=          207
     kinetic-energy cutoff     =      29.3995  Ry
     charge density cutoff     =     293.9946  Ry
     scf convergence threshold =      7.3E-08
     mixing beta               =       0.0500
     number of iterations used =            8  plain     mixing
     Exchange-correlation= BEEF-VDW
                           (   1   4  43  14   2   0   0)

     celldm(1)=   1.889726  celldm(2)=   0.000000  celldm(3)=   0.000000
     celldm(4)=   0.000000  celldm(5)=   0.000000  celldm(6)=   0.000000

     crystal axes: (cart. coord. in units of alat)
               a(1) = (   6.579727   0.000000   0.000000 )
               a(2) = (  -0.000775   5.961596   0.000000 )
               a(3) = (   0.000000   0.000000  25.155947 )

     reciprocal axes: (cart. coord. in units 2 pi/alat)
               b(1) = (  0.151982  0.000020  0.000000 )
               b(2) = (  0.000000  0.167740  0.000000 )
               b(3) = (  0.000000  0.000000  0.039752 )

     PseudoPot. # 1 for Ti read from file:
     /storage/coda1/p-amedford6/0/shared/rich_project_chbe-medford/medford-share/data/pseudos_module/espresso/nninc/pbe/van/Ti.UPF
     MD5 check sum: 8e4df49b7f0d34bbd5052bf3f5ea0213
     Pseudo is Ultrasoft, Zval = 12.0
     Generated by new atomic code, or converted to UPF format
     Using radial grid of  851 points,  6 beta functions with:
                l(1) =   0
                l(2) =   0
                l(3) =   1
                l(4) =   1
                l(5) =   2
                l(6) =   2
     Q(r) pseudized with  8 coefficients,  rinner =    1.000   1.000   1.000
                                                       1.000   1.000

     PseudoPot. # 2 for O  read from file:
     /storage/coda1/p-amedford6/0/shared/rich_project_chbe-medford/medford-share/data/pseudos_module/espresso/nninc/pbe/van/O.UPF
     MD5 check sum: 78c19812648e8988a0fe644b0f25305e
     Pseudo is Ultrasoft, Zval =  6.0
     Generated by new atomic code, or converted to UPF format
     Using radial grid of  737 points,  4 beta functions with:
                l(1) =   0
                l(2) =   0
                l(3) =   1
                l(4) =   1
     Q(r) pseudized with  8 coefficients,  rinner =    0.800   0.800   0.800

     PseudoPot. # 3 for N  read from file:
     /storage/coda1/p-amedford6/0/shared/rich_project_chbe-medford/medford-share/data/pseudos_module/espresso/nninc/pbe/van/N.UPF
     MD5 check sum: 90d10febe142ad51ac9d5be1deb811c4
     Pseudo is Ultrasoft, Zval =  5.0
     Generated by new atomic code, or converted to UPF format
     Using radial grid of  729 points,  4 beta functions with:
                l(1) =   0
                l(2) =   0
                l(3) =   1
                l(4) =   1
     Q(r) pseudized with  8 coefficients,  rinner =    0.800   0.800   0.800

     PseudoPot. # 4 for C  read from file:
     /storage/coda1/p-amedford6/0/shared/rich_project_chbe-medford/medford-share/data/pseudos_module/espresso/nninc/pbe/van/C.UPF
     MD5 check sum: 1a69bf6b8db32088f5b2163dbdb77a27
     Pseudo is Ultrasoft, Zval =  4.0
     Generated by new atomic code, or converted to UPF format
     Using radial grid of  721 points,  4 beta functions with:
                l(1) =   0
                l(2) =   0
                l(3) =   1
                l(4) =   1
     Q(r) pseudized with  8 coefficients,  rinner =    0.800   0.800   0.800

     PseudoPot. # 5 for H  read from file:
     /storage/coda1/p-amedford6/0/shared/rich_project_chbe-medford/medford-share/data/pseudos_module/espresso/nninc/pbe/van/H.UPF
     MD5 check sum: b5ee9d7bfd3a09ee7748110bda690ff7
     Pseudo is Ultrasoft, Zval =  1.0
     Generated by new atomic code, or converted to UPF format
     Using radial grid of  615 points,  1 beta functions with:
                l(1) =   0
     Q(r) pseudized with  8 coefficients,  rinner =    0.800

     atomic species   valence    mass     pseudopotential
        Ti1           12.00    47.86700     Ti( 1.00)
        O1             6.00    15.99900     O ( 1.00)
        N1             5.00    14.00700     N ( 1.00)
        C1             4.00    12.01100     C ( 1.00)
        H1             1.00     1.00800     H ( 1.00)

     No symmetry found

   Cartesian axes

     site n.     atom                  positions (alat units)
         1           Ti1 tau(   1) = (   0.0004258   2.9801865   6.0000000  )
         2           Ti1 tau(   2) = (   3.2906075   1.4906267   6.0002472  )
         3           O1  tau(   3) = (   0.0006271   0.0005054   7.9858123  )
         4           O1  tau(   4) = (   3.2906025   0.0005020   7.3038282  )
         5           O1  tau(   5) = (   4.5942328   1.4918067   9.2879030  )
         6           O1  tau(   6) = (   1.9868534   1.4903216   9.2879459  )
         7           Ti1 tau(   7) = (   3.2907910   2.8959150   9.1758416  )
         8           Ti1 tau(   8) = (   0.0015273   1.4827037   9.2680791  )
         9           O1  tau(   9) = (   3.2868105   5.9447858  11.3346005  )
        10           O1  tau(  10) = (   0.0116148   5.9584955  10.6183126  )
        11           O1  tau(  11) = (   1.2897616   1.4699164  12.6258314  )
        12           O1  tau(  12) = (   5.2713851   1.4716199  12.6109895  )
        13           Ti1 tau(  13) = (   0.0629619   2.9460495  12.6207869  )
        14           Ti1 tau(  14) = (   3.3778125   1.4702366  12.4807322  )
        15           O1  tau(  15) = (   6.5741670   5.9392046  14.6271830  )
        16           O1  tau(  16) = (   3.2925211   5.9405975  13.9303826  )
        17           O1  tau(  17) = (   4.5331425   1.4971777  16.0590535  )
        18           O1  tau(  18) = (   2.0416154   1.4974824  16.0477615  )
        19           Ti1 tau(  19) = (   3.2901388   2.9722967  15.7036181  )
        20           Ti1 tau(  20) = (   6.5714728   1.5019933  15.8140906  )
        21           O1  tau(  21) = (   3.2904802   0.0005063   4.7018136  )
        22           O1  tau(  22) = (   6.5775371   0.0159386  17.1814867  )
        23           O1  tau(  23) = (   1.3043587   1.4918075   6.0039043  )
        24           O1  tau(  24) = (   5.2767064   1.4903225   6.0039473  )
        25           Ti1 tau(  25) = (   0.0000382   5.9609847   6.0000000  )
        26           Ti1 tau(  26) = (   3.2902200   4.4714249   6.0002472  )
        27           O1  tau(  27) = (   0.0002396   2.9813036   7.9858123  )
        28           O1  tau(  28) = (   3.2902150   2.9813002   7.3038282  )
        29           O1  tau(  29) = (   4.5938453   4.4726049   9.2879030  )
        30           O1  tau(  30) = (   1.9864658   4.4711199   9.2879459  )
        31           Ti1 tau(  31) = (   3.2891106   5.8743827   9.1763621  )
        32           Ti1 tau(  32) = (   0.0006254   4.4649316   9.2693709  )
        33           O1  tau(  33) = (   3.2909631   2.9655588  11.3316111  )
        34           O1  tau(  34) = (   0.0092240   2.9805883  10.6323155  )
        35           O1  tau(  35) = (   1.2884032   4.4536117  12.6269208  )
        36           O1  tau(  36) = (   5.2752684   4.4605011  12.6109535  )
        37           Ti1 tau(  37) = (   0.0626277   5.9200555  12.5524633  )
        38           Ti1 tau(  38) = (   3.3797810   4.4486816  12.4846537  )
        39           O1  tau(  39) = (   6.5720240   2.9440667  14.6479771  )
        40           O1  tau(  40) = (   3.2941106   2.9728877  13.9057494  )
        41           O1  tau(  41) = (   4.5311790   4.4530262  16.1020043  )
        42           O1  tau(  42) = (   2.0427069   4.4534008  16.0946336  )
        43           Ti1 tau(  43) = (   3.2818950   5.9508925  15.7274921  )
        44           Ti1 tau(  44) = (   6.5750914   4.6476268  16.0792144  )
        45           O1  tau(  45) = (   3.2900926   2.9813045   4.7018136  )
        46           O1  tau(  46) = (   1.3039711   4.4726057   6.0039043  )
        47           O1  tau(  47) = (   5.2763189   4.4711207   6.0039473  )
        48           N1  tau(  48) = (   0.0795740   2.6614725  18.6386781  )
        49           N1  tau(  49) = (   0.0132033   2.8794178  17.4383708  )
        50           C1  tau(  50) = (   0.1510961   3.8031638  19.5808395  )
        51           H1  tau(  51) = (   6.4701351   4.7592986  19.1328852  )
        52           H1  tau(  52) = (   6.0910372   3.5604803  20.4266230  )
        53           H1  tau(  53) = (   1.1812797   3.8185794  19.9476819  )

     number of k points=    10  Fermi-Dirac smearing, width (Ry)=  0.0073
                       cart. coord. in units 2pi/alat
        k(    1) = (   0.0000000   0.0000000   0.0000000), wk =   0.1250000
        k(    2) = (   0.0000000   0.0419351   0.0000000), wk =   0.2500000
        k(    3) = (   0.0000000  -0.0838702   0.0000000), wk =   0.1250000
        k(    4) = (   0.0379955   0.0000049   0.0000000), wk =   0.2500000
        k(    5) = (   0.0379955   0.0419400   0.0000000), wk =   0.2500000
        k(    6) = (   0.0379955  -0.0838652   0.0000000), wk =   0.2500000
        k(    7) = (   0.0379955  -0.0419301   0.0000000), wk =   0.2500000
        k(    8) = (  -0.0759910  -0.0000099   0.0000000), wk =   0.1250000
        k(    9) = (  -0.0759910   0.0419252   0.0000000), wk =   0.2500000
        k(   10) = (  -0.0759910  -0.0838800   0.0000000), wk =   0.1250000

     Initial potential from superposition of free atoms

     starting charge  378.99916, renormalised to  395.00000

     negative rho (up, down):  1.506E-02 0.000E+00

     %%%%%%%%%%%%%%%%%%%%%%%%%%%%%%%%%%%%%%%%%%%%%%%%%%%%%%%%%%%%%%%%%%%%%%%%
     %                                                                      %
     % You are using vdW-DF, which was implemented by the Thonhauser group. %
     % Please cite the following two papers that made this development      %
     % possible and the two reviews that describe the various versions:     %
     %                                                                      %
     %   T. Thonhauser et al., PRL 115, 136402 (2015).                      %
     %   T. Thonhauser et al., PRB 76, 125112 (2007).                       %
     %   K. Berland et al., Rep. Prog. Phys. 78, 066501 (2015).             %
     %   D.C. Langreth et al., J. Phys.: Condens. Matter 21, 084203 (2009). %
     %                                                                      %
     %                                                                      %
     % If you are calculating the stress with vdW-DF, please also cite:     %
     %                                                                      %
     %   R. Sabatini et al., J. Phys.: Condens. Matter 24, 424209 (2012).   %
     %                                                                      %
     %%%%%%%%%%%%%%%%%%%%%%%%%%%%%%%%%%%%%%%%%%%%%%%%%%%%%%%%%%%%%%%%%%%%%%%%

     Adding external electric field

     Computed dipole along edir(3) :
        Dipole               -8.8495 Ry au,        -22.4931 Debye
        Dipole field         -0.0167 Ry au,

        Potential amp.        1.5481 Ry
        Total length         46.3494 bohr

     Starting wfcs are  299 atomic wfcs
  @ DRIVER MODE: Message from server: STATUS
  @ DRIVER MODE: Message from server: POSDATA
  @ DRIVER MODE: Reading and sharing cell
  @ DRIVER MODE: Reading and sharing positions
  @ DRIVER MODE: Received positions

     Self-consistent Calculation

     iteration #  1     ecut=    29.40 Ry     beta= 0.05
     Davidson diagonalization with overlap
     c_bands:  1 eigenvalues not converged
     c_bands:  2 eigenvalues not converged
     c_bands:  1 eigenvalues not converged
     c_bands:  3 eigenvalues not converged
     c_bands:  3 eigenvalues not converged
     c_bands:  1 eigenvalues not converged
     ethr =  1.00E-05,  avg # of iterations = 19.1

[...]

     total energy              =   -2605.57662122 Ry
     estimated scf accuracy    <    3700.13906966 Ry

     iteration #  2     ecut=    29.40 Ry     beta= 0.05
     Davidson diagonalization with overlap
     ethr =  1.00E-02,  avg # of iterations = 22.4

[...]

     iteration # 77     ecut=    29.40 Ry     beta= 0.05
     Davidson diagonalization with overlap
     c_bands:  1 eigenvalues not converged
     ethr =  3.58E-11,  avg # of iterations =  3.1

[...]

     total energy              =   -2939.15478652 Ry
     estimated scf accuracy    <       0.00000018 Ry

     iteration # 79     ecut=    29.40 Ry     beta= 0.05
     Davidson diagonalization with overlap
     ethr =  3.58E-11,  avg # of iterations = 16.0

     negative rho (up, down):  1.565E-02 0.000E+00

     Adding external electric field

     Computed dipole along edir(3) :
        Dipole                0.7080 Ry au,          1.7995 Debye
        Dipole field          0.0013 Ry au,

        Potential amp.       -0.1239 Ry
        Total length         46.3494 bohr

     End of self-consistent calculation

          k = 0.0000 0.0000 0.0000 ( 18029 PWs)   bands (ev):

   -55.8943 -55.8796 -55.8602 -55.8437 -55.7953 -55.7295 -55.7039 -55.7029
   -55.6929 -55.6689 -55.6678 -55.6342 -55.2856 -55.0952 -54.8718 -54.8378
   -32.4339 -32.3765 -32.2296 -32.2274 -32.2016 -32.1985 -32.1873 -32.1584
   -32.1368 -32.1238 -32.1019 -32.0663 -32.0602 -32.0466 -32.0330 -32.0195
   -32.0173 -31.9984 -31.9842 -31.9516 -31.9435 -31.9391 -31.8980 -31.8935
   -31.8908 -31.8874 -31.8792 -31.8744 -31.8700 -31.8434 -31.8427 -31.8338
   -31.8329 -31.8208 -31.8094 -31.7801 -31.7774 -31.5658 -31.4590 -31.3572
   -31.3554 -31.3108 -31.2790 -31.1906 -31.1682 -31.0957 -31.0092 -30.8981
   -18.4502 -16.6323 -16.3674 -16.1387 -16.0448 -16.0127 -15.8946 -15.7322
   -15.6146 -15.5598 -15.4624 -15.4429 -15.4297 -15.3978 -15.3798 -15.3743
   -15.3405 -15.3362 -15.3176 -15.3025 -15.2541 -15.2304 -15.2089 -15.1095
   -15.0633 -15.0292 -15.0142 -14.9510 -14.9459 -14.4417 -13.3744 -13.2580
   -11.3661  -6.9244  -4.3441  -4.0022  -3.9009  -3.8635  -3.8469  -3.7998
    -3.7433  -3.6242  -3.4984  -3.4363  -3.1255  -3.0776  -3.0616  -3.0445
    -3.0068  -2.7992  -2.7482  -2.7077  -2.6832  -2.6760  -2.6649  -2.6574
    -2.6456  -2.6071  -2.5051  -2.4356  -2.4287  -2.3433  -2.2929  -2.2696
    -2.2063  -2.1867  -2.1648  -2.1417  -2.1302  -2.1096  -2.0893  -2.0783
    -1.9734  -1.8824  -1.7506  -1.6940  -1.6723  -1.6569  -1.6469  -1.5020
    -1.3699  -1.3372  -1.3284  -1.3194  -1.2859  -1.2744  -1.1912  -1.0627
    -1.0515  -1.0118  -0.9595  -0.9013  -0.8763  -0.7744  -0.7377  -0.6607
    -0.6555  -0.6387  -0.5859  -0.5340  -0.3757  -0.3342  -0.3079  -0.2858
    -0.2613  -0.1905  -0.1689  -0.0526  -0.0352  -0.0176   0.0427   0.0658
     0.0788   0.0887   0.1064   0.1245   0.1420   0.3091   0.3816   0.4336
     0.4574   0.5151   0.6403   0.7091   0.7643   0.8646   1.0759   1.1501
     1.2428   1.3422   1.7215   1.7671   2.6490   3.2450   3.3257   3.3748
     3.3894   3.4865   3.5198   3.6968   3.6979   3.7264   3.7975

[...]

          k = 0.0380-0.0419 0.0000 ( 17876 PWs)   bands (ev):

[...]

          k =-0.0760-0.0000 0.0000 ( 17886 PWs)   bands (ev):

[...]

          k =-0.0760-0.0839 0.0000 ( 17948 PWs)   bands (ev):

   -55.8776 -55.8768 -55.8618 -55.8613 -55.7918 -55.7174 -55.7072 -55.7050
   -55.6868 -55.6844 -55.6518 -55.6505 -55.2841 -55.0965 -54.8550 -54.8545
   -32.2385 -32.2366 -32.1920 -32.1915 -32.1730 -32.1723 -32.1691 -32.1336
   -32.0880 -32.0850 -32.0791 -32.0784 -32.0419 -32.0123 -32.0045 -32.0039
   -31.9975 -31.9973 -31.9971 -31.9963 -31.9927 -31.9906 -31.9881 -31.9372
   -31.9234 -31.9117 -31.9103 -31.8990 -31.8859 -31.8854 -31.8829 -31.8818
   -31.8662 -31.8655 -31.8565 -31.8538 -31.6942 -31.5675 -31.4674 -31.4141
   -31.3572 -31.3364 -31.1811 -31.1807 -31.0919 -31.0915 -31.0526 -31.0523
   -18.4460 -16.0681 -16.0421 -15.8420 -15.8089 -15.8049 -15.7905 -15.6817
   -15.5969 -15.5896 -15.5868 -15.5206 -15.4907 -15.4747 -15.4339 -15.4214
   -15.4140 -15.4025 -15.3923 -15.3550 -15.3477 -15.3304 -15.3229 -15.2390
   -15.2109 -15.2068 -15.1813 -15.0633 -14.9320 -14.6179 -13.3598 -13.3597
   -11.3638  -6.9361  -4.2535  -3.9077  -3.8396  -3.3575  -3.3287  -3.0884
    -3.0497  -3.0360  -2.9827  -2.8212  -2.7908  -2.7651  -2.7535  -2.7219
    -2.7166  -2.7046  -2.6993  -2.6793  -2.6382  -2.6171  -2.5993  -2.5813
    -2.5619  -2.5479  -2.5322  -2.5154  -2.5058  -2.4665  -2.4429  -2.4315
    -2.4128  -2.4011  -2.2449  -2.1217  -2.0872  -2.0325  -2.0223  -2.0010
    -1.9609  -1.9569  -1.9452  -1.8809  -1.8085  -1.6523  -1.6118  -1.5936
    -1.5760  -1.5589  -1.4998  -1.4596  -1.3728  -1.2980  -1.2744  -1.2699
    -1.2016  -1.1143  -1.1066  -1.0596  -1.0166  -1.0072  -0.9524  -0.8876
    -0.8568  -0.8525  -0.8006  -0.7318  -0.7131  -0.6627  -0.6559  -0.6115
    -0.5565  -0.5485  -0.5274  -0.4864  -0.4044  -0.3808  -0.2425  -0.1626
    -0.0404   0.0743   0.1684   0.1828   0.2627   0.3148   0.3985   0.4162
     0.4267   0.4357   0.4789   0.5619   0.6378   0.6525   0.6983   0.8193
     1.5138   1.5146   1.5867   1.5870   2.7059   3.4921   3.5366   3.5788
     3.6111   3.7177   3.7499   3.7735   3.7747   3.8029   3.9158

     the Fermi energy is     3.2402 ev

!    total energy              =   -2939.15479445 Ry
     estimated scf accuracy    <       0.00000006 Ry
     smearing contrib. (-TS)   =      -0.02244894 Ry
     internal energy E=F+TS    =   -2939.13234551 Ry

     The total energy is F=E-TS. E is the sum of the following terms:
     one-electron contribution =  -24176.19772462 Ry
     hartree contribution      =   12175.35104717 Ry
     xc contribution           =    -485.18471865 Ry
     ewald contribution        =    9546.89810467 Ry
     electric field correction =       0.00094591 Ry

     convergence has been achieved in  79 iterations

     Forces acting on atoms (cartesian axes, Ry/au):

     atom    1 type  1   force =     0.00011896   -0.00024345    0.09664433
     atom    2 type  1   force =    -0.00012379   -0.00049746   -0.17523755
     atom    3 type  2   force =     0.00000260   -0.00010289   -0.02499745
     atom    4 type  2   force =     0.00005292   -0.00150729    0.05299500
     atom    5 type  2   force =    -0.01215697   -0.00108826    0.00361556
     atom    6 type  2   force =     0.01370769   -0.00028054    0.00228916
     atom    7 type  1   force =    -0.00117152    0.00037046   -0.01149578
     atom    8 type  1   force =     0.00055719    0.00942020    0.02851758
     atom    9 type  2   force =     0.00019952    0.00053320   -0.00011943
     atom   10 type  2   force =    -0.00114637    0.00028153   -0.01821960
     atom   11 type  2   force =    -0.00010947    0.00000474   -0.00013428
     atom   12 type  2   force =     0.00012052    0.00021861    0.00018221
     atom   13 type  1   force =     0.00008840   -0.00029482    0.00012830
     atom   14 type  1   force =     0.00021501    0.00016760    0.00018735
     atom   15 type  2   force =     0.00022204   -0.00006923   -0.00010901
     atom   16 type  2   force =    -0.00032925    0.00034094    0.00035987
     atom   17 type  2   force =    -0.00014411    0.00040981   -0.00013451
     atom   18 type  2   force =     0.00014030    0.00015202    0.00022937
     atom   19 type  1   force =    -0.00008555    0.00014535    0.00006081
     atom   20 type  1   force =    -0.00057902   -0.00019960    0.00021944
     atom   21 type  2   force =     0.00008811    0.00001017    0.10326382
     atom   22 type  2   force =    -0.00020658    0.00025682    0.00082257
     atom   23 type  2   force =    -0.07147038   -0.00006688   -0.02771840
     atom   24 type  2   force =     0.07143708    0.00035436   -0.02772510
     atom   25 type  1   force =     0.00007189   -0.00022367    0.09636292
     atom   26 type  1   force =    -0.00022623   -0.00026268   -0.17563694
     atom   27 type  2   force =     0.00007146   -0.00025040   -0.02400463
     atom   28 type  2   force =     0.00009617   -0.00125641    0.05286675
     atom   29 type  2   force =    -0.01239767    0.00003737    0.00352838
     atom   30 type  2   force =     0.01386467    0.00032941    0.00217240
     atom   31 type  1   force =    -0.00113739    0.00333048   -0.01190894
     atom   32 type  1   force =     0.00065070   -0.01118230    0.02911820
     atom   33 type  2   force =     0.00011014   -0.00020462   -0.00037352
     atom   34 type  2   force =    -0.00089389   -0.00093489   -0.02481201
     atom   35 type  2   force =    -0.00038135    0.00026794    0.00001947
     atom   36 type  2   force =     0.00071295    0.00029129    0.00034072
     atom   37 type  1   force =    -0.00001195   -0.00022749    0.00004224
     atom   38 type  1   force =    -0.00001731    0.00010158   -0.00002274
     atom   39 type  2   force =     0.00033186    0.00034361   -0.00044759
     atom   40 type  2   force =    -0.00030362    0.00010195    0.00014240
     atom   41 type  2   force =    -0.00044109    0.00053489    0.00013866
     atom   42 type  2   force =     0.00002606    0.00045729    0.00043943
     atom   43 type  1   force =    -0.00006099    0.00038978    0.00041103
     atom   44 type  1   force =    -0.00041808    0.00019209    0.00072255
     atom   45 type  2   force =     0.00008278   -0.00002296    0.10326760
     atom   46 type  2   force =    -0.07149434   -0.00003819   -0.02773113
     atom   47 type  2   force =     0.07145957    0.00038365   -0.02775698
     atom   48 type  3   force =    -0.00040757   -0.00105232   -0.00074013
     atom   49 type  3   force =     0.00057311    0.00018026   -0.00029405
     atom   50 type  4   force =     0.00171718   -0.00118304   -0.00044919
     atom   51 type  5   force =     0.00111460    0.00085388   -0.00014310
     atom   52 type  5   force =    -0.00148204   -0.00085482    0.00094999
     atom   53 type  5   force =    -0.00063695    0.00158294    0.00017397

     Total force =     0.368347     Total SCF correction =     0.000487
  @ DRIVER MODE: Message from server: STATUS
  @ DRIVER MODE: Message from server: GETFORCE
  @ DRIVER MODE: Returning v,forces,stress,ensemble

     Writing output data file ./calc.save/
  @ DRIVER MODE: Message from server: EXIT
  @ DRIVE MODE: Exiting

     General routines

     Parallel routines

   This run was terminated on:   4:57:45  19Aug2021

   JOB DONE.