     Program PWSCF v.6.7GPU starts on  9Sep2021 at  4: 2:51

     R & G space division:  proc/nbgrp/npool/nimage =      10
     Reading input from /storage/home/hcoda1/3/ntian30/research/carbon/CxH_vib/CH2_calc/ads_slab/CH2N_a/out_0024/pw.inp
Warning: card &CELL ignored
Warning: card   CELL_DYNAMICS='IPI', ignored
Warning: card / ignored

     Current dimensions of program PWSCF are:
     Max number of different atomic species (ntypx) = 10
     Max number of k-points (npk) =  40000
     Max angular momentum in pseudopotentials (lmaxx) =  3
     Presently no symmetry can be used with electric field

     Message from routine cell_base_init:
     DEPRECATED: use true lattice parameter, not A to a.u. conversion factor

     IMPORTANT: XC functional enforced from input :
     Exchange-correlation= BEEF-VDW
                           (   1   4  43  14   2   0   0)
     Any further DFT definition will be discarded
     Please, verify this is what you really want

  @ DRIVER MODE: Connecting to
 qe_1139763_2767392.sched-torque.pace.gatech.edupxpn96w2_scratch
  using UNIX socket
  @ DRIVER MODE: Message from server: STATUS
  @ DRIVER MODE: Message from server: INIT
  @ DRIVER MODE: Receiving replica           0          -1
  @ DRIVER MODE: Receiving encoded integer          25
  @ DRIVER MODE:  SCF:  T  FORCE:  T  STRESS:  F  VC:  F  ENSEMBLE:  F
  @ DRIVER MODE:  SCF:  T  FORCE:  T  STRESS:  F  VC:  F  ENSEMBLE:  F

     Using Slab Decomposition

     bravais-lattice index     =            0
     lattice parameter (alat)  =       1.8897  a.u.
     unit-cell volume          =    6658.9804 (a.u.)^3
     number of atoms/cell      =           51
     number of atomic types    =            5
     number of electrons       =       389.00
     number of Kohn-Sham states=          204
     kinetic-energy cutoff     =      29.3995  Ry
     charge density cutoff     =     293.9946  Ry
     scf convergence threshold =      7.3E-08
     mixing beta               =       0.0500
     number of iterations used =            8  plain     mixing
     Exchange-correlation= BEEF-VDW
                           (   1   4  43  14   2   0   0)

     celldm(1)=   1.889726  celldm(2)=   0.000000  celldm(3)=   0.000000
     celldm(4)=   0.000000  celldm(5)=   0.000000  celldm(6)=   0.000000

     crystal axes: (cart. coord. in units of alat)
               a(1) = (   6.579727   0.000000   0.000000 )
               a(2) = (  -0.000775   5.961596   0.000000 )
               a(3) = (   0.000000   0.000000  25.155947 )

     reciprocal axes: (cart. coord. in units 2 pi/alat)
               b(1) = (  0.151982  0.000020  0.000000 )
               b(2) = (  0.000000  0.167740  0.000000 )
               b(3) = (  0.000000  0.000000  0.039752 )

     PseudoPot. # 1 for Ti read from file:
     /storage/coda1/p-amedford6/0/shared/rich_project_chbe-medford/medford-share/data/pseudos_module/espresso/nninc/pbe/van/Ti.UPF
     MD5 check sum: 8e4df49b7f0d34bbd5052bf3f5ea0213
     Pseudo is Ultrasoft, Zval = 12.0
     Generated by new atomic code, or converted to UPF format
     Using radial grid of  851 points,  6 beta functions with:
                l(1) =   0
                l(2) =   0
                l(3) =   1
                l(4) =   1
                l(5) =   2
                l(6) =   2
     Q(r) pseudized with  8 coefficients,  rinner =    1.000   1.000   1.000
                                                       1.000   1.000

     PseudoPot. # 2 for O  read from file:
     /storage/coda1/p-amedford6/0/shared/rich_project_chbe-medford/medford-share/data/pseudos_module/espresso/nninc/pbe/van/O.UPF
     MD5 check sum: 78c19812648e8988a0fe644b0f25305e
     Pseudo is Ultrasoft, Zval =  6.0
     Generated by new atomic code, or converted to UPF format
     Using radial grid of  737 points,  4 beta functions with:
                l(1) =   0
                l(2) =   0
                l(3) =   1
                l(4) =   1
     Q(r) pseudized with  8 coefficients,  rinner =    0.800   0.800   0.800

     PseudoPot. # 3 for N  read from file:
     /storage/coda1/p-amedford6/0/shared/rich_project_chbe-medford/medford-share/data/pseudos_module/espresso/nninc/pbe/van/N.UPF
     MD5 check sum: 90d10febe142ad51ac9d5be1deb811c4
     Pseudo is Ultrasoft, Zval =  5.0
     Generated by new atomic code, or converted to UPF format
     Using radial grid of  729 points,  4 beta functions with:
                l(1) =   0
                l(2) =   0
                l(3) =   1
                l(4) =   1
     Q(r) pseudized with  8 coefficients,  rinner =    0.800   0.800   0.800

     PseudoPot. # 4 for C  read from file:
     /storage/coda1/p-amedford6/0/shared/rich_project_chbe-medford/medford-share/data/pseudos_module/espresso/nninc/pbe/van/C.UPF
     MD5 check sum: 1a69bf6b8db32088f5b2163dbdb77a27
     Pseudo is Ultrasoft, Zval =  4.0
     Generated by new atomic code, or converted to UPF format
     Using radial grid of  721 points,  4 beta functions with:
                l(1) =   0
                l(2) =   0
                l(3) =   1
                l(4) =   1
     Q(r) pseudized with  8 coefficients,  rinner =    0.800   0.800   0.800

     PseudoPot. # 5 for H  read from file:
     /storage/coda1/p-amedford6/0/shared/rich_project_chbe-medford/medford-share/data/pseudos_module/espresso/nninc/pbe/van/H.UPF
     MD5 check sum: b5ee9d7bfd3a09ee7748110bda690ff7
     Pseudo is Ultrasoft, Zval =  1.0
     Generated by new atomic code, or converted to UPF format
     Using radial grid of  615 points,  1 beta functions with:
                l(1) =   0
     Q(r) pseudized with  8 coefficients,  rinner =    0.800

     atomic species   valence    mass     pseudopotential
        Ti1           12.00    47.86700     Ti( 1.00)
        O1             6.00    15.99900     O ( 1.00)
        N1             5.00    14.00700     N ( 1.00)
        C1             4.00    12.01100     C ( 1.00)
        H1             1.00     1.00800     H ( 1.00)

     No symmetry found

   Cartesian axes

     site n.     atom                  positions (alat units)
         1           Ti1 tau(   1) = (   0.0004258   2.9801865   6.0000000  )
         2           Ti1 tau(   2) = (   3.2906075   1.4906267   6.0002472  )
         3           O1  tau(   3) = (   0.0006271   0.0005054   7.9858123  )
         4           O1  tau(   4) = (   3.2906025   0.0005020   7.3038282  )
         5           O1  tau(   5) = (   4.5942328   1.4918067   9.2879030  )
         6           O1  tau(   6) = (   1.9868534   1.4903216   9.2879459  )
         7           Ti1 tau(   7) = (   3.2907910   2.8959150   9.1758416  )
         8           Ti1 tau(   8) = (   0.0015273   1.4827037   9.2680791  )
         9           O1  tau(   9) = (   3.3121109   0.0111249  11.3310253  )
        10           O1  tau(  10) = (   0.0116148   5.9584955  10.6183126  )
        11           O1  tau(  11) = (   1.3329579   1.5011098  12.6063046  )
        12           O1  tau(  12) = (   5.3158149   1.4916659  12.6245769  )
        13           Ti1 tau(  13) = (   6.5431557   2.9598450  12.6156978  )
        14           Ti1 tau(  14) = (   3.2273839   1.5049138  12.4779161  )
        15           O1  tau(  15) = (   0.0471551   0.0364395  14.6528705  )
        16           O1  tau(  16) = (   3.3160098   0.0207640  13.9215624  )
        17           O1  tau(  17) = (   4.5810600   1.5471256  16.0564497  )
        18           O1  tau(  18) = (   2.0947546   1.5446786  16.0656860  )
        19           Ti1 tau(  19) = (   3.3354243   3.0239694  15.7034691  )
        20           Ti1 tau(  20) = (   0.0419518   1.5622418  15.8401859  )
        21           O1  tau(  21) = (   3.2904802   0.0005063   4.7018136  )
        22           O1  tau(  22) = (   0.0415632   0.0558952  17.2248266  )
        23           O1  tau(  23) = (   1.3043587   1.4918075   6.0039043  )
        24           O1  tau(  24) = (   5.2767064   1.4903225   6.0039473  )
        25           Ti1 tau(  25) = (   0.0000382   5.9609847   6.0000000  )
        26           Ti1 tau(  26) = (   3.2902200   4.4714249   6.0002472  )
        27           O1  tau(  27) = (   0.0002396   2.9813036   7.9858123  )
        28           O1  tau(  28) = (   3.2902150   2.9813002   7.3038282  )
        29           O1  tau(  29) = (   4.5938453   4.4726049   9.2879030  )
        30           O1  tau(  30) = (   1.9864658   4.4711199   9.2879459  )
        31           Ti1 tau(  31) = (   3.2891106   5.8743827   9.1763621  )
        32           Ti1 tau(  32) = (   0.0006254   4.4649316   9.2693709  )
        33           O1  tau(  33) = (   3.3101407   2.9955762  11.3294870  )
        34           O1  tau(  34) = (   0.0092240   2.9805883  10.6323155  )
        35           O1  tau(  35) = (   1.3272401   4.4878838  12.6173354  )
        36           O1  tau(  36) = (   5.3164082   4.4812184  12.6342743  )
        37           Ti1 tau(  37) = (   6.5430856   5.9365306  12.5602028  )
        38           Ti1 tau(  38) = (   3.2246414   4.4845729  12.4831641  )
        39           O1  tau(  39) = (   0.0420920   2.9623338  14.6463429  )
        40           O1  tau(  40) = (   3.3182946   3.0055568  13.9055467  )
        41           O1  tau(  41) = (   4.5797692   4.5125808  16.0776662  )
        42           O1  tau(  42) = (   2.0972274   4.5146901  16.0918111  )
        43           Ti1 tau(  43) = (   3.3319946   0.0399457  15.7186693  )
        44           Ti1 tau(  44) = (   0.0407629   4.6953510  16.1098173  )
        45           O1  tau(  45) = (   3.2900926   2.9813045   4.7018136  )
        46           O1  tau(  46) = (   1.3039711   4.4726057   6.0039043  )
        47           O1  tau(  47) = (   5.2763189   4.4711207   6.0039473  )
        48           N1  tau(  48) = (   0.0554023   2.9932257  17.3910969  )
        49           C1  tau(  49) = (   0.1090839   2.9222626  18.6472186  )
        50           H1  tau(  50) = (   0.1225839   3.8204711  19.2773028  )
        51           H1  tau(  51) = (   0.1417253   1.9549180  19.1725725  )

     number of k points=    10  Fermi-Dirac smearing, width (Ry)=  0.0073
                       cart. coord. in units 2pi/alat
        k(    1) = (   0.0000000   0.0000000   0.0000000), wk =   0.1250000
        k(    2) = (   0.0000000   0.0419351   0.0000000), wk =   0.2500000
        k(    3) = (   0.0000000  -0.0838702   0.0000000), wk =   0.1250000
        k(    4) = (   0.0379955   0.0000049   0.0000000), wk =   0.2500000
        k(    5) = (   0.0379955   0.0419400   0.0000000), wk =   0.2500000
        k(    6) = (   0.0379955  -0.0838652   0.0000000), wk =   0.2500000
        k(    7) = (   0.0379955  -0.0419301   0.0000000), wk =   0.2500000
        k(    8) = (  -0.0759910  -0.0000099   0.0000000), wk =   0.1250000
        k(    9) = (  -0.0759910   0.0419252   0.0000000), wk =   0.2500000
        k(   10) = (  -0.0759910  -0.0838800   0.0000000), wk =   0.1250000

     Initial potential from superposition of free atoms

     starting charge  372.99918, renormalised to  389.00000

     negative rho (up, down):  1.812E-02 0.000E+00

     %%%%%%%%%%%%%%%%%%%%%%%%%%%%%%%%%%%%%%%%%%%%%%%%%%%%%%%%%%%%%%%%%%%%%%%%
     %                                                                      %
     % You are using vdW-DF, which was implemented by the Thonhauser group. %
     % Please cite the following two papers that made this development      %
     % possible and the two reviews that describe the various versions:     %
     %                                                                      %
     %   T. Thonhauser et al., PRL 115, 136402 (2015).                      %
     %   T. Thonhauser et al., PRB 76, 125112 (2007).                       %
     %   K. Berland et al., Rep. Prog. Phys. 78, 066501 (2015).             %
     %   D.C. Langreth et al., J. Phys.: Condens. Matter 21, 084203 (2009). %
     %                                                                      %
     %                                                                      %
     % If you are calculating the stress with vdW-DF, please also cite:     %
     %                                                                      %
     %   R. Sabatini et al., J. Phys.: Condens. Matter 24, 424209 (2012).   %
     %                                                                      %
     %%%%%%%%%%%%%%%%%%%%%%%%%%%%%%%%%%%%%%%%%%%%%%%%%%%%%%%%%%%%%%%%%%%%%%%%

     Adding external electric field

     Computed dipole along edir(3) :
        Dipole               -4.6864 Ry au,        -11.9117 Debye
        Dipole field         -0.0088 Ry au,

        Potential amp.        0.8198 Ry
        Total length         46.3494 bohr

     Starting wfcs are  294 atomic wfcs
  @ DRIVER MODE: Message from server: STATUS
  @ DRIVER MODE: Message from server: POSDATA
  @ DRIVER MODE: Reading and sharing cell
  @ DRIVER MODE: Reading and sharing positions
  @ DRIVER MODE: Received positions

     Self-consistent Calculation

     iteration #  1     ecut=    29.40 Ry     beta= 0.05
     Davidson diagonalization with overlap
     c_bands:  3 eigenvalues not converged
     c_bands:  1 eigenvalues not converged
     c_bands:  1 eigenvalues not converged
     c_bands:  3 eigenvalues not converged
     c_bands:  3 eigenvalues not converged
     c_bands:  2 eigenvalues not converged
     c_bands:  2 eigenvalues not converged
     ethr =  1.00E-05,  avg # of iterations = 19.9

[...]

     total energy              =   -2865.48948354 Ry
     estimated scf accuracy    <     597.38211613 Ry

     iteration #  2     ecut=    29.40 Ry     beta= 0.05
     Davidson diagonalization with overlap
     ethr =  1.00E-02,  avg # of iterations = 14.3

[...]

     iteration # 67     ecut=    29.40 Ry     beta= 0.05
     Davidson diagonalization with overlap
     c_bands:  1 eigenvalues not converged
     ethr =  3.43E-11,  avg # of iterations = 11.8

[...]

     total energy              =   -2917.92295509 Ry
     estimated scf accuracy    <       0.00000007 Ry

     iteration # 71     ecut=    29.40 Ry     beta= 0.05
     Davidson diagonalization with overlap
     ethr =  1.90E-11,  avg # of iterations =  6.3

     negative rho (up, down):  1.842E-02 0.000E+00

     Adding external electric field

     Computed dipole along edir(3) :
        Dipole                0.7677 Ry au,          1.9514 Debye
        Dipole field          0.0014 Ry au,

        Potential amp.       -0.1343 Ry
        Total length         46.3494 bohr

     End of self-consistent calculation

          k = 0.0000 0.0000 0.0000 ( 18029 PWs)   bands (ev):

   -55.9949 -55.9854 -55.9608 -55.9491 -55.8722 -55.8425 -55.8223 -55.8081
   -55.8036 -55.7697 -55.7673 -55.7336 -55.5218 -55.2483 -54.9720 -54.9379
   -32.5398 -32.4775 -32.3437 -32.3243 -32.3025 -32.2973 -32.2879 -32.2579
   -32.2375 -32.2122 -32.2053 -32.1833 -32.1656 -32.1468 -32.1386 -32.1253
   -32.1047 -32.0994 -32.0845 -32.0518 -32.0512 -32.0483 -32.0020 -32.0009
   -31.9997 -31.9979 -31.9915 -31.9838 -31.9696 -31.9575 -31.9500 -31.9428
   -31.9340 -31.9338 -31.9204 -31.9111 -31.8795 -31.7714 -31.7038 -31.5371
   -31.5029 -31.4608 -31.3791 -31.2909 -31.2685 -31.1958 -31.1093 -30.9983
   -16.7371 -16.4688 -16.2436 -16.1468 -16.1158 -15.9993 -15.8335 -15.7151
   -15.6640 -15.5659 -15.5523 -15.5309 -15.4970 -15.4663 -15.4643 -15.4380
   -15.4345 -15.4153 -15.4019 -15.3541 -15.3317 -15.2973 -15.1996 -15.1687
   -15.1290 -15.1007 -15.0597 -15.0504 -14.9223 -14.5613 -13.4746 -13.3582
    -7.5539  -4.3067  -4.1147  -4.0049  -3.9496  -3.9004  -3.8414  -3.6351
    -3.5440  -3.5215  -3.2250  -3.1786  -3.1611  -3.1487  -3.1102  -2.8947
    -2.8408  -2.8096  -2.7884  -2.7742  -2.7630  -2.7552  -2.7350  -2.7082
    -2.5949  -2.5391  -2.5357  -2.4128  -2.3851  -2.3284  -2.3070  -2.2598
    -2.2442  -2.2355  -2.2085  -2.1977  -2.1845  -2.1541  -2.0761  -1.9626
    -1.8114  -1.7927  -1.7569  -1.6305  -1.6018  -1.5406  -1.4503  -1.4348
    -1.4203  -1.3861  -1.3687  -1.2974  -1.1715  -1.1474  -1.1379  -1.0371
    -0.9903  -0.9720  -0.8754  -0.8399  -0.7698  -0.7588  -0.7474  -0.7098
    -0.5482  -0.4925  -0.4632  -0.3963  -0.3666  -0.3075  -0.2949  -0.2661
    -0.1836  -0.1315  -0.1113  -0.1045  -0.0562  -0.0200  -0.0033   0.0063
     0.0175   0.0316   0.2042   0.2771   0.2841   0.3631   0.3730   0.5339
     0.5950   0.6624   0.7705   0.9755   1.0499   1.1393   1.2424   1.4369
     1.6211   1.6667   3.1417   3.2253   3.2734   3.2830   3.3842   3.4210
     3.5948   3.6011   3.6155   3.6896

[...]

          k = 0.0380-0.0419 0.0000 ( 17876 PWs)   bands (ev):

[...]

          k =-0.0760-0.0000 0.0000 ( 17886 PWs)   bands (ev):

[...]

          k =-0.0760-0.0839 0.0000 ( 17948 PWs)   bands (ev):

   -55.9782 -55.9773 -55.9699 -55.9644 -55.8652 -55.8291 -55.8256 -55.8249
   -55.7872 -55.7857 -55.7513 -55.7498 -55.5208 -55.2492 -54.9549 -54.9548
   -32.3456 -32.3405 -32.2931 -32.2924 -32.2737 -32.2728 -32.2553 -32.2432
   -32.1953 -32.1891 -32.1828 -32.1761 -32.1392 -32.1210 -32.1159 -32.1146
   -32.1054 -32.0995 -32.0975 -32.0966 -32.0903 -32.0878 -32.0686 -32.0446
   -32.0411 -32.0304 -32.0210 -32.0073 -31.9861 -31.9857 -31.9829 -31.9815
   -31.9660 -31.9652 -31.9614 -31.9584 -31.8840 -31.7740 -31.7000 -31.6027
   -31.5045 -31.4815 -31.2812 -31.2812 -31.1920 -31.1918 -31.1526 -31.1526
   -16.1693 -16.1501 -15.9384 -15.9112 -15.9062 -15.8947 -15.7665 -15.7059
   -15.6895 -15.6876 -15.6086 -15.5869 -15.5656 -15.5381 -15.5264 -15.5141
   -15.5079 -15.4993 -15.4563 -15.4502 -15.4307 -15.4235 -15.3207 -15.3111
   -15.3071 -15.2515 -15.1776 -15.0389 -14.9392 -14.7292 -13.4600 -13.4599
    -7.5497  -4.2881  -3.6928  -3.4598  -3.4371  -3.1687  -3.1515  -3.1425
    -3.0826  -2.9098  -2.8939  -2.8708  -2.8500  -2.8213  -2.8195  -2.7983
    -2.7963  -2.7854  -2.7409  -2.7339  -2.7083  -2.6717  -2.6614  -2.6499
    -2.6413  -2.6175  -2.6072  -2.5654  -2.5359  -2.5285  -2.5137  -2.4902
    -2.3049  -2.2218  -2.1954  -2.1322  -2.1248  -2.0900  -2.0587  -2.0466
    -2.0305  -1.9801  -1.9020  -1.7276  -1.6948  -1.6767  -1.6187  -1.5902
    -1.5493  -1.4631  -1.3952  -1.3705  -1.3645  -1.3160  -1.2073  -1.1856
    -1.1716  -1.0981  -1.0626  -1.0439  -1.0031  -0.9880  -0.9551  -0.9497
    -0.8561  -0.8067  -0.7602  -0.7578  -0.7122  -0.6460  -0.6329  -0.6053
    -0.4965  -0.4776  -0.4063  -0.3779  -0.2763  -0.2080  -0.0109   0.0515
     0.0769   0.1355   0.2155   0.2966   0.3108   0.3248   0.3251   0.3725
     0.4420   0.5378   0.5472   0.6007   0.7055   1.3306   1.4137   1.4143
     1.4866   1.4866   3.4275   3.4373   3.4766   3.4984   3.6345   3.6501
     3.6729   3.6740   3.7293   3.8194

     the Fermi energy is     3.1393 ev

!    total energy              =   -2917.92296937 Ry
     estimated scf accuracy    <       0.00000006 Ry
     smearing contrib. (-TS)   =      -0.02181274 Ry
     internal energy E=F+TS    =   -2917.90115663 Ry

     The total energy is F=E-TS. E is the sum of the following terms:
     one-electron contribution =  -24777.70731686 Ry
     hartree contribution      =   12472.50775736 Ry
     xc contribution           =    -479.18158607 Ry
     ewald contribution        =    9866.47887659 Ry
     electric field correction =       0.00111235 Ry

     convergence has been achieved in  71 iterations

     Forces acting on atoms (cartesian axes, Ry/au):

     atom    1 type  1   force =     0.00017449   -0.00024295    0.09669084
     atom    2 type  1   force =     0.00007407   -0.00053373   -0.17540489
     atom    3 type  2   force =     0.00018017    0.00000356   -0.02481163
     atom    4 type  2   force =     0.00005705   -0.00133403    0.05290979
     atom    5 type  2   force =    -0.01177829    0.00012854    0.00258266
     atom    6 type  2   force =     0.01394909    0.00051823    0.00338621
     atom    7 type  1   force =     0.00129345    0.00069964   -0.01175204
     atom    8 type  1   force =    -0.00005257    0.00767345    0.02822108
     atom    9 type  2   force =    -0.00024106   -0.00023986   -0.00012035
     atom   10 type  2   force =    -0.00220616    0.00206685   -0.01527466
     atom   11 type  2   force =     0.00000026   -0.00009486    0.00021833
     atom   12 type  2   force =    -0.00004089    0.00014198   -0.00007322
     atom   13 type  1   force =    -0.00104510   -0.00025678   -0.00002842
     atom   14 type  1   force =    -0.00021537   -0.00026240    0.00058434
     atom   15 type  2   force =    -0.00030768   -0.00005150   -0.00019342
     atom   16 type  2   force =     0.00025346    0.00007722   -0.00055995
     atom   17 type  2   force =     0.00008181    0.00007062   -0.00023146
     atom   18 type  2   force =    -0.00014906    0.00031169   -0.00053812
     atom   19 type  1   force =    -0.00063435    0.00009841   -0.00031423
     atom   20 type  1   force =     0.00014294   -0.00111966    0.00025455
     atom   21 type  2   force =     0.00008605   -0.00004739    0.10327054
     atom   22 type  2   force =     0.00043733   -0.00033733   -0.00013826
     atom   23 type  2   force =    -0.07149701   -0.00016295   -0.02768245
     atom   24 type  2   force =     0.07148935    0.00033049   -0.02776720
     atom   25 type  1   force =     0.00018600   -0.00023201    0.09620199
     atom   26 type  1   force =     0.00011423   -0.00029675   -0.17554476
     atom   27 type  2   force =     0.00022346   -0.00011365   -0.02389259
     atom   28 type  2   force =     0.00009007   -0.00110194    0.05285526
     atom   29 type  2   force =    -0.01198009    0.00068181    0.00233414
     atom   30 type  2   force =     0.01401469    0.00103236    0.00318552
     atom   31 type  1   force =     0.00114270    0.00334553   -0.01207583
     atom   32 type  1   force =    -0.00024213   -0.00974586    0.02865684
     atom   33 type  2   force =    -0.00017459    0.00031744   -0.00010049
     atom   34 type  2   force =    -0.00172836    0.00176004   -0.02356143
     atom   35 type  2   force =     0.00000160    0.00009550    0.00021486
     atom   36 type  2   force =     0.00055096    0.00012720    0.00020199
     atom   37 type  1   force =    -0.00099767   -0.00039370    0.00025402
     atom   38 type  1   force =     0.00023805   -0.00011732    0.00051814
     atom   39 type  2   force =    -0.00005916   -0.00054459   -0.00072446
     atom   40 type  2   force =    -0.00004315    0.00025875    0.00043872
     atom   41 type  2   force =    -0.00064363   -0.00046917   -0.00017188
     atom   42 type  2   force =    -0.00014476   -0.00074395   -0.00074092
     atom   43 type  1   force =    -0.00047818    0.00002411   -0.00007999
     atom   44 type  1   force =     0.00013327    0.00046326    0.00045786
     atom   45 type  2   force =     0.00006443   -0.00006774    0.10327685
     atom   46 type  2   force =    -0.07150189   -0.00008192   -0.02770087
     atom   47 type  2   force =     0.07151839    0.00034013   -0.02777825
     atom   48 type  3   force =     0.00107220   -0.00179597    0.00142797
     atom   49 type  4   force =    -0.00137677   -0.00368559    0.00301240
     atom   50 type  5   force =     0.00033035    0.00030548   -0.00016704
     atom   51 type  5   force =    -0.00036199    0.00320128   -0.00372608

     Total force =     0.368071     Total SCF correction =     0.000876
  @ DRIVER MODE: Message from server: STATUS
  @ DRIVER MODE: Message from server: GETFORCE
  @ DRIVER MODE: Returning v,forces,stress,ensemble

     Writing output data file ./calc.save/
  @ DRIVER MODE: Message from server: EXIT
  @ DRIVE MODE: Exiting

     General routines

     Parallel routines

   This run was terminated on:   4:19:51   9Sep2021

   JOB DONE.