     Program PWSCF v.6.7GPU starts on 16Sep2021 at 10:17:53

     R & G space division:  proc/nbgrp/npool/nimage =      10
     Reading input from /storage/home/hcoda1/3/ntian30/research/carbon/CxH_vib/H2O_calc/ads_slab/CH3NH2NHH2O_c/out_0052/pw.inp
Warning: card &CELL ignored
Warning: card   CELL_DYNAMICS='IPI', ignored
Warning: card / ignored

     Current dimensions of program PWSCF are:
     Max number of different atomic species (ntypx) = 10
     Max number of k-points (npk) =  40000
     Max angular momentum in pseudopotentials (lmaxx) =  3
     Presently no symmetry can be used with electric field

     Message from routine cell_base_init:
     DEPRECATED: use true lattice parameter, not A to a.u. conversion factor

     IMPORTANT: XC functional enforced from input :
     Exchange-correlation= BEEF-VDW
                           (   1   4  43  14   2   0   0)
     Any further DFT definition will be discarded
     Please, verify this is what you really want

  @ DRIVER MODE: Connecting to
 qe_1139763_2852614.sched-torque.pace.gatech.edubcx72tzn_scratch
  using UNIX socket
  @ DRIVER MODE: Message from server: STATUS
  @ DRIVER MODE: Message from server: INIT
  @ DRIVER MODE: Receiving replica           0          -1
  @ DRIVER MODE: Receiving encoded integer          25
  @ DRIVER MODE:  SCF:  T  FORCE:  T  STRESS:  F  VC:  F  ENSEMBLE:  F
  @ DRIVER MODE:  SCF:  T  FORCE:  T  STRESS:  F  VC:  F  ENSEMBLE:  F

     Using Slab Decomposition

     bravais-lattice index     =            0
     lattice parameter (alat)  =       1.8897  a.u.
     unit-cell volume          =    6658.9804 (a.u.)^3
     number of atoms/cell      =           59
     number of atomic types    =            5
     number of electrons       =       406.00
     number of Kohn-Sham states=          213
     kinetic-energy cutoff     =      29.3995  Ry
     charge density cutoff     =     293.9946  Ry
     scf convergence threshold =      7.3E-08
     mixing beta               =       0.0500
     number of iterations used =            8  plain     mixing
     Exchange-correlation= BEEF-VDW
                           (   1   4  43  14   2   0   0)

     celldm(1)=   1.889726  celldm(2)=   0.000000  celldm(3)=   0.000000
     celldm(4)=   0.000000  celldm(5)=   0.000000  celldm(6)=   0.000000

     crystal axes: (cart. coord. in units of alat)
               a(1) = (   6.579727   0.000000   0.000000 )
               a(2) = (  -0.000775   5.961596   0.000000 )
               a(3) = (   0.000000   0.000000  25.155947 )

     reciprocal axes: (cart. coord. in units 2 pi/alat)
               b(1) = (  0.151982  0.000020  0.000000 )
               b(2) = (  0.000000  0.167740  0.000000 )
               b(3) = (  0.000000  0.000000  0.039752 )

     PseudoPot. # 1 for Ti read from file:
     /storage/coda1/p-amedford6/0/shared/rich_project_chbe-medford/medford-share/data/pseudos_module/espresso/nninc/pbe/van/Ti.UPF
     MD5 check sum: 8e4df49b7f0d34bbd5052bf3f5ea0213
     Pseudo is Ultrasoft, Zval = 12.0
     Generated by new atomic code, or converted to UPF format
     Using radial grid of  851 points,  6 beta functions with:
                l(1) =   0
                l(2) =   0
                l(3) =   1
                l(4) =   1
                l(5) =   2
                l(6) =   2
     Q(r) pseudized with  8 coefficients,  rinner =    1.000   1.000   1.000
                                                       1.000   1.000

     PseudoPot. # 2 for O  read from file:
     /storage/coda1/p-amedford6/0/shared/rich_project_chbe-medford/medford-share/data/pseudos_module/espresso/nninc/pbe/van/O.UPF
     MD5 check sum: 78c19812648e8988a0fe644b0f25305e
     Pseudo is Ultrasoft, Zval =  6.0
     Generated by new atomic code, or converted to UPF format
     Using radial grid of  737 points,  4 beta functions with:
                l(1) =   0
                l(2) =   0
                l(3) =   1
                l(4) =   1
     Q(r) pseudized with  8 coefficients,  rinner =    0.800   0.800   0.800

     PseudoPot. # 3 for N  read from file:
     /storage/coda1/p-amedford6/0/shared/rich_project_chbe-medford/medford-share/data/pseudos_module/espresso/nninc/pbe/van/N.UPF
     MD5 check sum: 90d10febe142ad51ac9d5be1deb811c4
     Pseudo is Ultrasoft, Zval =  5.0
     Generated by new atomic code, or converted to UPF format
     Using radial grid of  729 points,  4 beta functions with:
                l(1) =   0
                l(2) =   0
                l(3) =   1
                l(4) =   1
     Q(r) pseudized with  8 coefficients,  rinner =    0.800   0.800   0.800

     PseudoPot. # 4 for C  read from file:
     /storage/coda1/p-amedford6/0/shared/rich_project_chbe-medford/medford-share/data/pseudos_module/espresso/nninc/pbe/van/C.UPF
     MD5 check sum: 1a69bf6b8db32088f5b2163dbdb77a27
     Pseudo is Ultrasoft, Zval =  4.0
     Generated by new atomic code, or converted to UPF format
     Using radial grid of  721 points,  4 beta functions with:
                l(1) =   0
                l(2) =   0
                l(3) =   1
                l(4) =   1
     Q(r) pseudized with  8 coefficients,  rinner =    0.800   0.800   0.800

     PseudoPot. # 5 for H  read from file:
     /storage/coda1/p-amedford6/0/shared/rich_project_chbe-medford/medford-share/data/pseudos_module/espresso/nninc/pbe/van/H.UPF
     MD5 check sum: b5ee9d7bfd3a09ee7748110bda690ff7
     Pseudo is Ultrasoft, Zval =  1.0
     Generated by new atomic code, or converted to UPF format
     Using radial grid of  615 points,  1 beta functions with:
                l(1) =   0
     Q(r) pseudized with  8 coefficients,  rinner =    0.800

     atomic species   valence    mass     pseudopotential
        Ti1           12.00    47.86700     Ti( 1.00)
        O1             6.00    15.99900     O ( 1.00)
        N1             5.00    14.00700     N ( 1.00)
        C1             4.00    12.01100     C ( 1.00)
        H1             1.00     1.00800     H ( 1.00)

     No symmetry found

   Cartesian axes

     site n.     atom                  positions (alat units)
         1           Ti1 tau(   1) = (   0.0004258   2.9801865   6.0000000  )
         2           Ti1 tau(   2) = (   3.2906075   1.4906267   6.0002472  )
         3           O1  tau(   3) = (   0.0006271   0.0005054   7.9858123  )
         4           O1  tau(   4) = (   3.2906025   0.0005020   7.3038282  )
         5           O1  tau(   5) = (   4.5942328   1.4918067   9.2879030  )
         6           O1  tau(   6) = (   1.9868534   1.4903216   9.2879459  )
         7           Ti1 tau(   7) = (   3.2907910   2.8959150   9.1758416  )
         8           Ti1 tau(   8) = (   0.0015273   1.4827037   9.2680791  )
         9           O1  tau(   9) = (   3.2795193   0.0050042  11.3600746  )
        10           O1  tau(  10) = (   0.0116148   5.9584955  10.6183126  )
        11           O1  tau(  11) = (   1.2764768   1.4833402  12.6625751  )
        12           O1  tau(  12) = (   5.2691860   1.4824858  12.6730715  )
        13           Ti1 tau(  13) = (   6.5785005   2.9712200  12.5432933  )
        14           Ti1 tau(  14) = (   3.2815129   1.4861921  12.5133659  )
        15           O1  tau(  15) = (   0.0084525   5.9333602  14.7514412  )
        16           O1  tau(  16) = (   3.2474592   5.9449689  14.0025778  )
        17           O1  tau(  17) = (   4.5272503   1.5270814  16.0535473  )
        18           O1  tau(  18) = (   2.0088677   1.5398698  16.1918835  )
        19           Ti1 tau(  19) = (   3.2695027   3.0127370  15.7044713  )
        20           Ti1 tau(  20) = (   6.4897317   1.5391078  15.7731133  )
        21           O1  tau(  21) = (   3.2904802   0.0005063   4.7018136  )
        22           O1  tau(  22) = (   6.4943121   0.0104379  17.3746616  )
        23           O1  tau(  23) = (   1.3043587   1.4918075   6.0039043  )
        24           O1  tau(  24) = (   5.2767064   1.4903225   6.0039473  )
        25           Ti1 tau(  25) = (   0.0000382   5.9609847   6.0000000  )
        26           Ti1 tau(  26) = (   3.2902200   4.4714249   6.0002472  )
        27           O1  tau(  27) = (   0.0002396   2.9813036   7.9858123  )
        28           O1  tau(  28) = (   3.2902150   2.9813002   7.3038282  )
        29           O1  tau(  29) = (   4.5938453   4.4726049   9.2879030  )
        30           O1  tau(  30) = (   1.9864658   4.4711199   9.2879459  )
        31           Ti1 tau(  31) = (   3.2891106   5.8743827   9.1763621  )
        32           Ti1 tau(  32) = (   0.0006254   4.4649316   9.2693709  )
        33           O1  tau(  33) = (   3.2806081   2.9711243  11.3509633  )
        34           O1  tau(  34) = (   0.0092240   2.9805883  10.6323155  )
        35           O1  tau(  35) = (   1.2760424   4.4718827  12.6381679  )
        36           O1  tau(  36) = (   5.2690016   4.4731519  12.6446470  )
        37           Ti1 tau(  37) = (   6.5708669   5.9382087  12.5160675  )
        38           Ti1 tau(  38) = (   3.2845625   4.4656782  12.4980923  )
        39           O1  tau(  39) = (   6.5779858   3.0049062  14.7590937  )
        40           O1  tau(  40) = (   3.2501146   3.0001303  13.9242794  )
        41           O1  tau(  41) = (   4.5300198   4.4412671  16.1793791  )
        42           O1  tau(  42) = (   2.0030354   4.4482434  16.2507355  )
        43           Ti1 tau(  43) = (   3.2558399   0.0045369  15.7947069  )
        44           Ti1 tau(  44) = (   0.0024851   4.6597080  16.1671864  )
        45           O1  tau(  45) = (   3.2900926   2.9813045   4.7018136  )
        46           O1  tau(  46) = (   1.3039711   4.4726057   6.0039043  )
        47           O1  tau(  47) = (   5.2763189   4.4711207   6.0039473  )
        48           N1  tau(  48) = (   0.8610865   2.3037131  18.4629187  )
        49           N1  tau(  49) = (   6.4642385   2.8627238  17.5618644  )
        50           C1  tau(  50) = (   1.1134797   3.0572184  19.7121060  )
        51           H1  tau(  51) = (   0.2160447   3.0254214  20.3281890  )
        52           H1  tau(  52) = (   1.9467850   2.5864873  20.2353232  )
        53           H1  tau(  53) = (   1.3463996   4.0866186  19.4485780  )
        54           H1  tau(  54) = (   0.5832711   1.3114681  18.6183785  )
        55           H1  tau(  55) = (   5.5643591   2.7461405  18.0238738  )
        56           H1  tau(  56) = (   1.7079168   2.1991883  17.8702682  )
        57           O1  tau(  57) = (   4.0734316   0.3075885  18.7765601  )
        58           H1  tau(  58) = (   4.9241673   0.1787741  18.2816895  )
        59           H1  tau(  59) = (   3.8734322   5.3936830  19.1372508  )

     number of k points=    10  Fermi-Dirac smearing, width (Ry)=  0.0073
                       cart. coord. in units 2pi/alat
        k(    1) = (   0.0000000   0.0000000   0.0000000), wk =   0.1250000
        k(    2) = (   0.0000000   0.0419351   0.0000000), wk =   0.2500000
        k(    3) = (   0.0000000  -0.0838702   0.0000000), wk =   0.1250000
        k(    4) = (   0.0379955   0.0000049   0.0000000), wk =   0.2500000
        k(    5) = (   0.0379955   0.0419400   0.0000000), wk =   0.2500000
        k(    6) = (   0.0379955  -0.0838652   0.0000000), wk =   0.2500000
        k(    7) = (   0.0379955  -0.0419301   0.0000000), wk =   0.2500000
        k(    8) = (  -0.0759910  -0.0000099   0.0000000), wk =   0.1250000
        k(    9) = (  -0.0759910   0.0419252   0.0000000), wk =   0.2500000
        k(   10) = (  -0.0759910  -0.0838800   0.0000000), wk =   0.1250000

     Initial potential from superposition of free atoms

     starting charge  389.99912, renormalised to  406.00000

     negative rho (up, down):  1.392E-02 0.000E+00

     %%%%%%%%%%%%%%%%%%%%%%%%%%%%%%%%%%%%%%%%%%%%%%%%%%%%%%%%%%%%%%%%%%%%%%%%
     %                                                                      %
     % You are using vdW-DF, which was implemented by the Thonhauser group. %
     % Please cite the following two papers that made this development      %
     % possible and the two reviews that describe the various versions:     %
     %                                                                      %
     %   T. Thonhauser et al., PRL 115, 136402 (2015).                      %
     %   T. Thonhauser et al., PRB 76, 125112 (2007).                       %
     %   K. Berland et al., Rep. Prog. Phys. 78, 066501 (2015).             %
     %   D.C. Langreth et al., J. Phys.: Condens. Matter 21, 084203 (2009). %
     %                                                                      %
     %                                                                      %
     % If you are calculating the stress with vdW-DF, please also cite:     %
     %                                                                      %
     %   R. Sabatini et al., J. Phys.: Condens. Matter 24, 424209 (2012).   %
     %                                                                      %
     %%%%%%%%%%%%%%%%%%%%%%%%%%%%%%%%%%%%%%%%%%%%%%%%%%%%%%%%%%%%%%%%%%%%%%%%

     Adding external electric field

     Computed dipole along edir(3) :
        Dipole              -15.6809 Ry au,        -39.8568 Debye
        Dipole field         -0.0296 Ry au,

        Potential amp.        2.7431 Ry
        Total length         46.3494 bohr

     Starting wfcs are  308 atomic wfcs
  @ DRIVER MODE: Message from server: STATUS
  @ DRIVER MODE: Message from server: POSDATA
  @ DRIVER MODE: Reading and sharing cell
  @ DRIVER MODE: Reading and sharing positions
  @ DRIVER MODE: Received positions

     Self-consistent Calculation

     iteration #  1     ecut=    29.40 Ry     beta= 0.05
     Davidson diagonalization with overlap
     c_bands:  2 eigenvalues not converged
     c_bands:  5 eigenvalues not converged
     c_bands:  2 eigenvalues not converged
     c_bands:  4 eigenvalues not converged
     c_bands:  4 eigenvalues not converged
     c_bands:  5 eigenvalues not converged
     c_bands:  5 eigenvalues not converged
     c_bands:  1 eigenvalues not converged
     ethr =  1.00E-05,  avg # of iterations = 22.5

[...]

     total energy              =   -2140.12932750 Ry
     estimated scf accuracy    <    9575.50204294 Ry

     iteration #  2     ecut=    29.40 Ry     beta= 0.05
     Davidson diagonalization with overlap
     ethr =  1.00E-02,  avg # of iterations = 32.3

[...]

     iteration # 76     ecut=    29.40 Ry     beta= 0.05
     Davidson diagonalization with overlap
     ethr =  5.34E-11,  avg # of iterations = 11.3

[...]

     total energy              =   -2977.68490823 Ry
     estimated scf accuracy    <       0.00000011 Ry

     iteration # 78     ecut=    29.40 Ry     beta= 0.05
     Davidson diagonalization with overlap
     c_bands:  1 eigenvalues not converged
     ethr =  2.59E-11,  avg # of iterations = 10.6

     negative rho (up, down):  1.242E-02 0.000E+00

     Adding external electric field

     Computed dipole along edir(3) :
        Dipole                1.6066 Ry au,          4.0836 Debye
        Dipole field          0.0030 Ry au,

        Potential amp.       -0.2811 Ry
        Total length         46.3494 bohr

     End of self-consistent calculation

          k = 0.0000 0.0000 0.0000 ( 18029 PWs)   bands (ev):

   -54.9541 -54.9175 -54.9147 -54.8834 -54.8435 -54.8338 -54.7936 -54.7620
   -54.7574 -54.7467 -54.7268 -54.7215 -54.7135 -54.6593 -53.9324 -53.8983
   -31.5260 -31.4076 -31.3204 -31.2816 -31.2646 -31.2514 -31.2489 -31.2434
   -31.2092 -31.2073 -31.1629 -31.1624 -31.1568 -31.1268 -31.1081 -31.0883
   -31.0776 -31.0715 -31.0706 -31.0631 -31.0291 -31.0246 -31.0180 -31.0124
   -30.9924 -30.9745 -30.9638 -30.9629 -30.9554 -30.9551 -30.9449 -30.9364
   -30.9200 -30.9199 -30.9113 -30.9095 -30.8840 -30.8775 -30.8756 -30.8746
   -30.8558 -30.8555 -30.3411 -30.2487 -30.2265 -30.1576 -30.0709 -29.9599
   -18.9684 -18.2083 -15.7891 -15.5211 -15.3959 -15.1961 -15.1427 -15.0380
   -14.8779 -14.8173 -14.7523 -14.7273 -14.7199 -14.6948 -14.6222 -14.5669
   -14.5376 -14.4850 -14.4846 -14.4488 -14.4414 -14.4361 -14.3819 -14.3780
   -14.3413 -14.3278 -14.3201 -14.1774 -14.0985 -14.0508 -14.0398 -13.2003
   -12.4353 -12.3181 -10.9796  -7.6122  -6.3892  -5.9732  -5.7632  -4.0117
    -3.8469  -3.1332  -2.9626  -2.9505  -2.8725  -2.8489  -2.6782  -2.6180
    -2.5095  -2.3950  -2.3181  -2.2204  -2.1764  -2.1585  -2.1447  -2.0311
    -1.9456  -1.9079  -1.8688  -1.8303  -1.8131  -1.7678  -1.7466  -1.7365
    -1.7039  -1.6786  -1.5255  -1.4512  -1.4148  -1.3810  -1.3404  -1.2830
    -1.2616  -1.2450  -1.2396  -1.2316  -1.2153  -1.1905  -1.1551  -1.1232
    -1.0552  -0.9712  -0.9618  -0.8503  -0.7658  -0.6336  -0.5802  -0.5229
    -0.4923  -0.4257  -0.3840  -0.3363  -0.3005  -0.2940  -0.2476  -0.1597
    -0.1470  -0.0896  -0.0709   0.0137   0.0594   0.0654   0.0766   0.2531
     0.2633   0.2812   0.3841   0.4658   0.5038   0.5205   0.5780   0.6404
     0.6427   0.6811   0.7032   0.7338   0.8165   0.9203   0.9453   0.9834
     0.9980   1.0233   1.0403   1.0677   1.1066   1.1879   1.1939   1.2711
     1.3632   1.3746   1.6377   1.6698   2.0006   2.0274   2.0899   2.2757
     2.6644   2.7118   4.1480   4.2100   4.2552   4.2808   4.2990   4.3802
     4.3996   4.6160   4.6422   4.6432   4.6525

[...]

          k = 0.0380-0.0419 0.0000 ( 17876 PWs)   bands (ev):

[...]

          k =-0.0760-0.0000 0.0000 ( 17886 PWs)   bands (ev):

[...]

          k =-0.0760-0.0839 0.0000 ( 17948 PWs)   bands (ev):

   -54.9422 -54.9264 -54.9004 -54.9003 -54.8410 -54.8242 -54.8031 -54.7549
   -54.7467 -54.7411 -54.7320 -54.7288 -54.7238 -54.6617 -53.9154 -53.9152
   -31.3348 -31.3234 -31.2572 -31.2227 -31.2226 -31.2163 -31.1927 -31.1927
   -31.1675 -31.1653 -31.1562 -31.1524 -31.1444 -31.0941 -31.0808 -31.0802
   -31.0758 -31.0746 -31.0714 -31.0686 -31.0414 -31.0314 -31.0288 -31.0225
   -31.0218 -31.0199 -31.0198 -31.0184 -30.9977 -30.9802 -30.9740 -30.9671
   -30.9609 -30.9552 -30.9538 -30.9495 -30.9491 -30.9221 -30.9150 -30.9122
   -30.9075 -30.8970 -30.2393 -30.2391 -30.1538 -30.1535 -30.1143 -30.1142
   -18.9635 -18.2088 -15.2797 -15.1529 -15.0540 -14.9978 -14.9518 -14.9358
   -14.9182 -14.8647 -14.8347 -14.7745 -14.7512 -14.7030 -14.6589 -14.6549
   -14.6272 -14.5480 -14.5326 -14.5203 -14.5128 -14.4617 -14.4477 -14.4249
   -14.4022 -14.3982 -14.3798 -14.3074 -14.2974 -14.2932 -14.2541 -13.2096
   -12.4198 -12.4196 -10.9802  -7.6230  -6.3797  -5.9727  -5.7481  -3.9893
    -3.8419  -2.5615  -2.5398  -2.4049  -2.3930  -2.2794  -2.1873  -2.1370
    -2.1314  -1.9923  -1.9595  -1.9433  -1.9283  -1.9160  -1.8674  -1.8433
    -1.8078  -1.7907  -1.7810  -1.7710  -1.7554  -1.7351  -1.6830  -1.6791
    -1.6682  -1.6538  -1.6098  -1.5941  -1.5632  -1.5524  -1.5241  -1.5014
    -1.4344  -1.3402  -1.2926  -1.2488  -1.1950  -1.1422  -1.1362  -1.0575
    -1.0397  -1.0080  -0.9771  -0.9524  -0.8565  -0.7830  -0.6887  -0.6865
    -0.6825  -0.5630  -0.5226  -0.5049  -0.4922  -0.4622  -0.3780  -0.3679
    -0.3083  -0.2337  -0.2075  -0.2028  -0.1767  -0.0575  -0.0323   0.0280
     0.0586   0.0908   0.0930   0.1723   0.1857   0.2445   0.2591   0.2724
     0.3174   0.3350   0.4333   0.5233   0.5585   0.6621   0.7548   0.7841
     0.8797   0.9370   1.0413   1.0625   1.0858   1.1824   1.1906   1.2255
     1.3546   1.3614   1.4773   1.5172   1.5270   1.5297   2.4480   2.4494
     2.5319   2.5320   4.2744   4.3975   4.4129   4.4591   4.5130   4.6547
     4.6782   4.7253   4.7271   4.8011   4.8097

     the Fermi energy is     4.2002 ev

!    total energy              =   -2977.68492740 Ry
     estimated scf accuracy    <       0.00000005 Ry
     smearing contrib. (-TS)   =      -0.03700423 Ry
     internal energy E=F+TS    =   -2977.64792317 Ry

     The total energy is F=E-TS. E is the sum of the following terms:
     one-electron contribution =  -23305.74089086 Ry
     hartree contribution      =   11753.86185334 Ry
     xc contribution           =    -496.60913300 Ry
     ewald contribution        =    9070.83537624 Ry
     electric field correction =       0.00487111 Ry

     convergence has been achieved in  78 iterations

     Forces acting on atoms (cartesian axes, Ry/au):

     atom    1 type  1   force =     0.00008984   -0.00025152    0.09411268
     atom    2 type  1   force =    -0.00008690   -0.00045927   -0.17745675
     atom    3 type  2   force =     0.00006178   -0.00032745   -0.02124039
     atom    4 type  2   force =     0.00003781   -0.00179040    0.05729185
     atom    5 type  2   force =    -0.01079251   -0.00102102    0.00667180
     atom    6 type  2   force =     0.01198999   -0.00033514    0.00502122
     atom    7 type  1   force =    -0.00060285    0.00105689   -0.01463241
     atom    8 type  1   force =     0.00086255    0.00331318    0.00459707
     atom    9 type  2   force =     0.00000918   -0.00005201    0.00013846
     atom   10 type  2   force =    -0.00368742    0.00211478   -0.00164562
     atom   11 type  2   force =    -0.00017518    0.00061742   -0.00010454
     atom   12 type  2   force =     0.00019205    0.00028370   -0.00021714
     atom   13 type  1   force =    -0.00019680   -0.00027587    0.00010260
     atom   14 type  1   force =     0.00024468   -0.00021851   -0.00036265
     atom   15 type  2   force =     0.00020238    0.00034315   -0.00009835
     atom   16 type  2   force =    -0.00011774    0.00023706   -0.00023105
     atom   17 type  2   force =    -0.00005233   -0.00028497    0.00033224
     atom   18 type  2   force =     0.00023333    0.00016725   -0.00027579
     atom   19 type  1   force =     0.00000780    0.00003623   -0.00051021
     atom   20 type  1   force =     0.00053995   -0.00009072   -0.00001132
     atom   21 type  2   force =     0.00012060   -0.00008107    0.10379551
     atom   22 type  2   force =     0.00053140   -0.00032495   -0.00066209
     atom   23 type  2   force =    -0.07067623   -0.00015241   -0.02712023
     atom   24 type  2   force =     0.07064521    0.00032323   -0.02712757
     atom   25 type  1   force =     0.00011070   -0.00017113    0.09373321
     atom   26 type  1   force =    -0.00006469   -0.00053103   -0.17769347
     atom   27 type  2   force =     0.00006816   -0.00005684   -0.02034017
     atom   28 type  2   force =     0.00006621   -0.00146222    0.05629567
     atom   29 type  2   force =    -0.01130223   -0.00039363    0.00735241
     atom   30 type  2   force =     0.01241794    0.00000434    0.00574147
     atom   31 type  1   force =    -0.00074564    0.00573933   -0.01567166
     atom   32 type  1   force =     0.00081911   -0.00458858    0.00433913
     atom   33 type  2   force =     0.00002139    0.00015297    0.00028456
     atom   34 type  2   force =    -0.00321088   -0.00103587   -0.00519654
     atom   35 type  2   force =    -0.00011292   -0.00039491    0.00007431
     atom   36 type  2   force =     0.00021476   -0.00006543   -0.00010098
     atom   37 type  1   force =    -0.00013062    0.00043610   -0.00012340
     atom   38 type  1   force =     0.00008975    0.00015056   -0.00011461
     atom   39 type  2   force =    -0.00045963   -0.00028950   -0.00014662
     atom   40 type  2   force =     0.00013257   -0.00007255    0.00023056
     atom   41 type  2   force =    -0.00000919    0.00021551   -0.00013654
     atom   42 type  2   force =     0.00041497    0.00000053   -0.00018717
     atom   43 type  1   force =    -0.00022046    0.00017374   -0.00000919
     atom   44 type  1   force =     0.00028384    0.00047095    0.00026451
     atom   45 type  2   force =     0.00010756   -0.00006567    0.10377491
     atom   46 type  2   force =    -0.07067178   -0.00007293   -0.02709752
     atom   47 type  2   force =     0.07064881    0.00033457   -0.02712138
     atom   48 type  3   force =     0.00013474    0.00139391    0.00138120
     atom   49 type  3   force =    -0.00089918   -0.00037264    0.00068469
     atom   50 type  4   force =    -0.00015647    0.00048329    0.00020535
     atom   51 type  5   force =     0.00065381    0.00082098   -0.00021967
     atom   52 type  5   force =    -0.00008422    0.00030041    0.00018621
     atom   53 type  5   force =     0.00011103   -0.00053528   -0.00050393
     atom   54 type  5   force =     0.00155855   -0.00022155   -0.00055562
     atom   55 type  5   force =     0.00028958   -0.00055182   -0.00018434
     atom   56 type  5   force =     0.00064436   -0.00240590    0.00041816
     atom   57 type  2   force =    -0.00081782    0.00078813    0.00146790
     atom   58 type  5   force =     0.00032394   -0.00064128   -0.00104797
     atom   59 type  5   force =     0.00039335   -0.00036414   -0.00035080

     Total force =     0.365844     Total SCF correction =     0.000740
  @ DRIVER MODE: Message from server: STATUS
  @ DRIVER MODE: Message from server: GETFORCE
  @ DRIVER MODE: Returning v,forces,stress,ensemble

     Writing output data file ./calc.save/
  @ DRIVER MODE: Message from server: EXIT
  @ DRIVE MODE: Exiting

     General routines

     Parallel routines

   This run was terminated on:  10:39:58  16Sep2021

   JOB DONE.