     Program PWSCF v.6.7GPU starts on 24Sep2021 at  4:10:58

     R & G space division:  proc/nbgrp/npool/nimage =       8
     Reading input from /storage/home/hcoda1/3/ntian30/research/carbon/CxH_vib/H2O_calc/ads_slab/CH3NHHO_a/out_0046/pw.inp
Warning: card &CELL ignored
Warning: card   CELL_DYNAMICS='IPI', ignored
Warning: card / ignored

     Current dimensions of program PWSCF are:
     Max number of different atomic species (ntypx) = 10
     Max number of k-points (npk) =  40000
     Max angular momentum in pseudopotentials (lmaxx) =  3
     Presently no symmetry can be used with electric field

     Message from routine cell_base_init:
     DEPRECATED: use true lattice parameter, not A to a.u. conversion factor

     IMPORTANT: XC functional enforced from input :
     Exchange-correlation= BEEF-VDW
                           (   1   4  43  14   2   0   0)
     Any further DFT definition will be discarded
     Please, verify this is what you really want

  @ DRIVER MODE: Connecting to
 qe_1139763_2947309.sched-torque.pace.gatech.eduujyn1qw3_scratch
  using UNIX socket
  @ DRIVER MODE: Message from server: STATUS
  @ DRIVER MODE: Message from server: INIT
  @ DRIVER MODE: Receiving replica           0          -1
  @ DRIVER MODE: Receiving encoded integer          25
  @ DRIVER MODE:  SCF:  T  FORCE:  T  STRESS:  F  VC:  F  ENSEMBLE:  F
  @ DRIVER MODE:  SCF:  T  FORCE:  T  STRESS:  F  VC:  F  ENSEMBLE:  F

     Using Slab Decomposition

     bravais-lattice index     =            0
     lattice parameter (alat)  =       1.8897  a.u.
     unit-cell volume          =    6658.9804 (a.u.)^3
     number of atoms/cell      =           55
     number of atomic types    =            5
     number of electrons       =       398.00
     number of Kohn-Sham states=          209
     kinetic-energy cutoff     =      29.3995  Ry
     charge density cutoff     =     293.9946  Ry
     scf convergence threshold =      7.3E-08
     mixing beta               =       0.0500
     number of iterations used =            8  plain     mixing
     Exchange-correlation= BEEF-VDW
                           (   1   4  43  14   2   0   0)

     celldm(1)=   1.889726  celldm(2)=   0.000000  celldm(3)=   0.000000
     celldm(4)=   0.000000  celldm(5)=   0.000000  celldm(6)=   0.000000

     crystal axes: (cart. coord. in units of alat)
               a(1) = (   6.579727   0.000000   0.000000 )
               a(2) = (  -0.000775   5.961596   0.000000 )
               a(3) = (   0.000000   0.000000  25.155947 )

     reciprocal axes: (cart. coord. in units 2 pi/alat)
               b(1) = (  0.151982  0.000020  0.000000 )
               b(2) = (  0.000000  0.167740  0.000000 )
               b(3) = (  0.000000  0.000000  0.039752 )

     PseudoPot. # 1 for Ti read from file:
     /storage/coda1/p-amedford6/0/shared/rich_project_chbe-medford/medford-share/data/pseudos_module/espresso/nninc/pbe/van/Ti.UPF
     MD5 check sum: 8e4df49b7f0d34bbd5052bf3f5ea0213
     Pseudo is Ultrasoft, Zval = 12.0
     Generated by new atomic code, or converted to UPF format
     Using radial grid of  851 points,  6 beta functions with:
                l(1) =   0
                l(2) =   0
                l(3) =   1
                l(4) =   1
                l(5) =   2
                l(6) =   2
     Q(r) pseudized with  8 coefficients,  rinner =    1.000   1.000   1.000
                                                       1.000   1.000

     PseudoPot. # 2 for O  read from file:
     /storage/coda1/p-amedford6/0/shared/rich_project_chbe-medford/medford-share/data/pseudos_module/espresso/nninc/pbe/van/O.UPF
     MD5 check sum: 78c19812648e8988a0fe644b0f25305e
     Pseudo is Ultrasoft, Zval =  6.0
     Generated by new atomic code, or converted to UPF format
     Using radial grid of  737 points,  4 beta functions with:
                l(1) =   0
                l(2) =   0
                l(3) =   1
                l(4) =   1
     Q(r) pseudized with  8 coefficients,  rinner =    0.800   0.800   0.800

     PseudoPot. # 3 for H  read from file:
     /storage/coda1/p-amedford6/0/shared/rich_project_chbe-medford/medford-share/data/pseudos_module/espresso/nninc/pbe/van/H.UPF
     MD5 check sum: b5ee9d7bfd3a09ee7748110bda690ff7
     Pseudo is Ultrasoft, Zval =  1.0
     Generated by new atomic code, or converted to UPF format
     Using radial grid of  615 points,  1 beta functions with:
                l(1) =   0
     Q(r) pseudized with  8 coefficients,  rinner =    0.800

     PseudoPot. # 4 for N  read from file:
     /storage/coda1/p-amedford6/0/shared/rich_project_chbe-medford/medford-share/data/pseudos_module/espresso/nninc/pbe/van/N.UPF
     MD5 check sum: 90d10febe142ad51ac9d5be1deb811c4
     Pseudo is Ultrasoft, Zval =  5.0
     Generated by new atomic code, or converted to UPF format
     Using radial grid of  729 points,  4 beta functions with:
                l(1) =   0
                l(2) =   0
                l(3) =   1
                l(4) =   1
     Q(r) pseudized with  8 coefficients,  rinner =    0.800   0.800   0.800

     PseudoPot. # 5 for C  read from file:
     /storage/coda1/p-amedford6/0/shared/rich_project_chbe-medford/medford-share/data/pseudos_module/espresso/nninc/pbe/van/C.UPF
     MD5 check sum: 1a69bf6b8db32088f5b2163dbdb77a27
     Pseudo is Ultrasoft, Zval =  4.0
     Generated by new atomic code, or converted to UPF format
     Using radial grid of  721 points,  4 beta functions with:
                l(1) =   0
                l(2) =   0
                l(3) =   1
                l(4) =   1
     Q(r) pseudized with  8 coefficients,  rinner =    0.800   0.800   0.800

     atomic species   valence    mass     pseudopotential
        Ti1           12.00    47.86700     Ti( 1.00)
        O1             6.00    15.99900     O ( 1.00)
        H1             1.00     1.00800     H ( 1.00)
        N1             5.00    14.00700     N ( 1.00)
        C1             4.00    12.01100     C ( 1.00)

     No symmetry found

   Cartesian axes

     site n.     atom                  positions (alat units)
         1           Ti1 tau(   1) = (   0.0004258   2.9801865   6.0000000  )
         2           Ti1 tau(   2) = (   3.2906075   1.4906267   6.0002472  )
         3           O1  tau(   3) = (   0.0006271   0.0005054   7.9858123  )
         4           O1  tau(   4) = (   3.2906025   0.0005020   7.3038282  )
         5           O1  tau(   5) = (   4.5942328   1.4918067   9.2879030  )
         6           O1  tau(   6) = (   1.9868534   1.4903216   9.2879459  )
         7           Ti1 tau(   7) = (   3.2907910   2.8959150   9.1758416  )
         8           Ti1 tau(   8) = (   0.0015273   1.4827037   9.2680791  )
         9           O1  tau(   9) = (   3.2831040   5.9360571  11.2641146  )
        10           O1  tau(  10) = (   0.0116148   5.9584955  10.6183126  )
        11           O1  tau(  11) = (   1.2851963   1.4867209  12.6255510  )
        12           O1  tau(  12) = (   5.2924406   1.4772461  12.6192171  )
        13           Ti1 tau(  13) = (   0.0036382   2.8404764  12.7021481  )
        14           Ti1 tau(  14) = (   3.2814461   1.2926050  12.6442039  )
        15           O1  tau(  15) = (   6.5789252   5.9354829  14.6389027  )
        16           O1  tau(  16) = (   3.2852549   0.0163589  13.8648689  )
        17           O1  tau(  17) = (   4.5445832   1.5164849  16.0197972  )
        18           O1  tau(  18) = (   2.0258823   1.4930055  16.0750729  )
        19           Ti1 tau(  19) = (   3.3156224   2.9699746  15.6194889  )
        20           Ti1 tau(  20) = (   0.0515760   1.3234122  16.0730098  )
        21           O1  tau(  21) = (   3.2904802   0.0005063   4.7018136  )
        22           O1  tau(  22) = (   6.5454194   5.9222349  17.1870725  )
        23           O1  tau(  23) = (   1.3043587   1.4918075   6.0039043  )
        24           O1  tau(  24) = (   5.2767064   1.4903225   6.0039473  )
        25           Ti1 tau(  25) = (   0.0000382   5.9609847   6.0000000  )
        26           Ti1 tau(  26) = (   3.2902200   4.4714249   6.0002472  )
        27           O1  tau(  27) = (   0.0002396   2.9813036   7.9858123  )
        28           O1  tau(  28) = (   3.2902150   2.9813002   7.3038282  )
        29           O1  tau(  29) = (   4.5938453   4.4726049   9.2879030  )
        30           O1  tau(  30) = (   1.9864658   4.4711199   9.2879459  )
        31           Ti1 tau(  31) = (   3.2891106   5.8743827   9.1763621  )
        32           Ti1 tau(  32) = (   0.0006254   4.4649316   9.2693709  )
        33           O1  tau(  33) = (   3.2861177   3.0127509  11.2320142  )
        34           O1  tau(  34) = (   0.0092240   2.9805883  10.6323155  )
        35           O1  tau(  35) = (   1.2872320   4.4646868  12.6147789  )
        36           O1  tau(  36) = (   5.2799320   4.4658550  12.6114028  )
        37           Ti1 tau(  37) = (   6.5510365   5.8261734  12.6423015  )
        38           Ti1 tau(  38) = (   3.2652589   4.3917841  12.4002916  )
        39           O1  tau(  39) = (   0.0003569   2.9920414  14.6539809  )
        40           O1  tau(  40) = (   3.2835110   2.9651371  13.8409569  )
        41           O1  tau(  41) = (   4.5245492   4.4030193  16.0142317  )
        42           O1  tau(  42) = (   2.0132503   4.4096711  16.0494848  )
        43           Ti1 tau(  43) = (   3.3389516   5.9588577  16.2858146  )
        44           Ti1 tau(  44) = (   0.0865397   4.4271626  15.8895714  )
        45           O1  tau(  45) = (   3.2900926   2.9813045   4.7018136  )
        46           O1  tau(  46) = (   1.3039711   4.4726057   6.0039043  )
        47           O1  tau(  47) = (   5.2763189   4.4711207   6.0039473  )
        48           H1  tau(  48) = (   5.5649379   3.0085428  17.7754687  )
        49           N1  tau(  49) = (   6.5266086   2.9804045  17.4451690  )
        50           C1  tau(  50) = (   0.8252436   3.0135910  18.6253707  )
        51           H1  tau(  51) = (   0.7415300   3.9712607  19.1474969  )
        52           H1  tau(  52) = (   0.5789590   2.2014881  19.3161603  )
        53           H1  tau(  53) = (   1.8636945   2.8847911  18.3311598  )
        54           O1  tau(  54) = (   3.4430348   5.9447220  18.1074838  )
        55           H1  tau(  55) = (   4.3135669   5.8464121  18.5244127  )

     number of k points=    10  Fermi-Dirac smearing, width (Ry)=  0.0073
                       cart. coord. in units 2pi/alat
        k(    1) = (   0.0000000   0.0000000   0.0000000), wk =   0.1250000
        k(    2) = (   0.0000000   0.0419351   0.0000000), wk =   0.2500000
        k(    3) = (   0.0000000  -0.0838702   0.0000000), wk =   0.1250000
        k(    4) = (   0.0379955   0.0000049   0.0000000), wk =   0.2500000
        k(    5) = (   0.0379955   0.0419400   0.0000000), wk =   0.2500000
        k(    6) = (   0.0379955  -0.0838652   0.0000000), wk =   0.2500000
        k(    7) = (   0.0379955  -0.0419301   0.0000000), wk =   0.2500000
        k(    8) = (  -0.0759910  -0.0000099   0.0000000), wk =   0.1250000
        k(    9) = (  -0.0759910   0.0419252   0.0000000), wk =   0.2500000
        k(   10) = (  -0.0759910  -0.0838800   0.0000000), wk =   0.1250000

     Initial potential from superposition of free atoms

     starting charge  381.99915, renormalised to  398.00000

     negative rho (up, down):  1.687E-02 0.000E+00

     %%%%%%%%%%%%%%%%%%%%%%%%%%%%%%%%%%%%%%%%%%%%%%%%%%%%%%%%%%%%%%%%%%%%%%%%
     %                                                                      %
     % You are using vdW-DF, which was implemented by the Thonhauser group. %
     % Please cite the following two papers that made this development      %
     % possible and the two reviews that describe the various versions:     %
     %                                                                      %
     %   T. Thonhauser et al., PRL 115, 136402 (2015).                      %
     %   T. Thonhauser et al., PRB 76, 125112 (2007).                       %
     %   K. Berland et al., Rep. Prog. Phys. 78, 066501 (2015).             %
     %   D.C. Langreth et al., J. Phys.: Condens. Matter 21, 084203 (2009). %
     %                                                                      %
     %                                                                      %
     % If you are calculating the stress with vdW-DF, please also cite:     %
     %                                                                      %
     %   R. Sabatini et al., J. Phys.: Condens. Matter 24, 424209 (2012).   %
     %                                                                      %
     %%%%%%%%%%%%%%%%%%%%%%%%%%%%%%%%%%%%%%%%%%%%%%%%%%%%%%%%%%%%%%%%%%%%%%%%

     Adding external electric field

     Computed dipole along edir(3) :
        Dipole               -8.7629 Ry au,        -22.2732 Debye
        Dipole field         -0.0165 Ry au,

        Potential amp.        1.5329 Ry
        Total length         46.3494 bohr

     Starting wfcs are  301 atomic wfcs
  @ DRIVER MODE: Message from server: STATUS
  @ DRIVER MODE: Message from server: POSDATA
  @ DRIVER MODE: Reading and sharing cell
  @ DRIVER MODE: Reading and sharing positions
  @ DRIVER MODE: Received positions

     Self-consistent Calculation

     iteration #  1     ecut=    29.40 Ry     beta= 0.05
     Davidson diagonalization with overlap
     c_bands:  1 eigenvalues not converged
     c_bands:  1 eigenvalues not converged
     c_bands:  1 eigenvalues not converged
     c_bands:  2 eigenvalues not converged
     ethr =  1.00E-05,  avg # of iterations = 18.0

[...]

     total energy              =   -2565.53512313 Ry
     estimated scf accuracy    <    4291.60371133 Ry

     iteration #  2     ecut=    29.40 Ry     beta= 0.05
     Davidson diagonalization with overlap
     ethr =  1.00E-02,  avg # of iterations = 22.9

[...]

     iteration # 42     ecut=    29.40 Ry     beta= 0.05
     Davidson diagonalization with overlap
     c_bands:  1 eigenvalues not converged
     ethr =  1.34E-07,  avg # of iterations =  7.5

[...]

     total energy              =   -2954.01290395 Ry
     estimated scf accuracy    <       0.00000008 Ry

     iteration # 66     ecut=    29.40 Ry     beta= 0.05
     Davidson diagonalization with overlap
     ethr =  2.04E-11,  avg # of iterations =  4.0

     negative rho (up, down):  1.731E-02 0.000E+00

     Adding external electric field

     Computed dipole along edir(3) :
        Dipole                0.2154 Ry au,          0.5474 Debye
        Dipole field          0.0004 Ry au,

        Potential amp.       -0.0377 Ry
        Total length         46.3494 bohr

     End of self-consistent calculation

          k = 0.0000 0.0000 0.0000 ( 18029 PWs)   bands (ev):

   -56.9292 -56.8957 -56.0283 -55.9935 -55.7929 -55.7249 -55.6382 -55.4808
   -55.4469 -55.4070 -55.3948 -55.3289 -55.3237 -55.2786 -55.1326 -55.0554
   -33.3484 -33.2012 -33.1731 -33.1078 -33.0176 -32.9754 -32.5111 -32.2686
   -32.2490 -32.2230 -32.1707 -32.1657 -32.1401 -32.0286 -32.0087 -31.9617
   -31.9450 -31.9295 -31.9132 -31.8901 -31.8881 -31.8669 -31.8598 -31.8284
   -31.8280 -31.8035 -31.7587 -31.7179 -31.6851 -31.6771 -31.6186 -31.6076
   -31.6046 -31.5882 -31.5763 -31.5469 -31.5268 -31.5209 -31.5076 -31.5006
   -31.4929 -31.4420 -31.3983 -31.3749 -31.3362 -31.3110 -31.3047 -31.2381
   -17.0356 -16.4901 -16.4515 -16.2471 -16.1443 -16.1246 -16.0871 -16.0378
   -15.8381 -15.7884 -15.7505 -15.6845 -15.5871 -15.4306 -15.3337 -15.1606
   -15.1109 -15.0795 -15.0618 -15.0557 -15.0499 -15.0372 -14.9821 -14.9261
   -14.8858 -14.8028 -14.7482 -14.6378 -14.4118 -14.3821 -13.9782 -13.8712
   -13.8086  -8.4907  -4.6093  -4.1083  -3.9701  -3.9393  -3.7798  -3.6266
    -3.5018  -3.4490  -3.4235  -3.3146  -3.2980  -3.2883  -3.1988  -3.0698
    -2.9990  -2.9876  -2.9198  -2.9025  -2.8743  -2.8599  -2.6962  -2.6639
    -2.5697  -2.5177  -2.4961  -2.4152  -2.4060  -2.3462  -2.2958  -2.2844
    -2.2618  -2.2028  -2.1993  -2.1281  -2.1013  -2.0252  -2.0004  -1.9685
    -1.9450  -1.8742  -1.7982  -1.7635  -1.6088  -1.5721  -1.5395  -1.5043
    -1.4876  -1.4067  -1.3364  -1.2542  -1.2201  -1.1531  -1.1044  -1.0644
    -1.0516  -0.9371  -0.9117  -0.8549  -0.7911  -0.7746  -0.7679  -0.7220
    -0.6078  -0.5285  -0.5185  -0.4966  -0.4349  -0.4149  -0.3774  -0.3529
    -0.2770  -0.2601  -0.1518  -0.0788  -0.0476  -0.0227   0.0783   0.1570
     0.1788   0.2211   0.2632   0.3065   0.3355   0.3791   0.4472   0.4951
     0.5180   0.5407   0.5701   0.6660   0.7166   0.7532   0.8092   0.8245
     0.8894   0.9599   0.9873   1.0757   1.1200   1.4860   1.6372   2.3641
     2.5347   2.8108   2.9841   3.3000   3.3499   3.3657   3.3672   3.6534
     3.7736

[...]

          k = 0.0380-0.0419 0.0000 ( 17876 PWs)   bands (ev):

[...]

          k =-0.0760-0.0000 0.0000 ( 17886 PWs)   bands (ev):

[...]

          k =-0.0760-0.0839 0.0000 ( 17948 PWs)   bands (ev):

   -56.9131 -56.9117 -56.0155 -56.0061 -55.7883 -55.7294 -55.6374 -55.4644
   -55.4632 -55.4029 -55.3954 -55.3326 -55.3224 -55.2774 -55.1340 -55.0566
   -33.1876 -33.1862 -33.1663 -33.1649 -33.0618 -33.0607 -32.3351 -32.3271
   -32.2104 -32.2008 -32.1999 -32.1940 -32.0918 -32.0461 -32.0218 -32.0075
   -31.9564 -31.9555 -31.9100 -31.8775 -31.8663 -31.8170 -31.8161 -31.7735
   -31.7348 -31.7027 -31.6844 -31.6828 -31.6787 -31.6745 -31.6455 -31.6445
   -31.6338 -31.6293 -31.6083 -31.5974 -31.5747 -31.5659 -31.5351 -31.5244
   -31.5159 -31.4836 -31.4375 -31.3998 -31.3742 -31.3407 -31.3129 -31.2656
   -16.4387 -16.3963 -16.3943 -16.3472 -16.3455 -16.0907 -16.0861 -15.8402
   -15.8082 -15.6870 -15.5339 -15.5045 -15.4672 -15.4176 -15.3716 -15.3017
   -15.2829 -15.2426 -15.2092 -15.1528 -15.1274 -15.0495 -15.0154 -14.9565
   -14.9204 -14.8316 -14.7848 -14.7785 -14.5583 -14.5420 -13.9758 -13.9752
   -13.8254  -8.4957  -4.0744  -3.9930  -3.4694  -3.4643  -3.4432  -3.4340
    -3.2196  -3.2140  -3.0462  -3.0031  -2.9839  -2.9427  -2.9265  -2.8388
    -2.8205  -2.7910  -2.7503  -2.7452  -2.7367  -2.7186  -2.6714  -2.6628
    -2.6224  -2.4856  -2.4711  -2.4514  -2.3924  -2.3286  -2.2977  -2.2465
    -2.2189  -2.2052  -2.1785  -2.1709  -2.1655  -2.1362  -2.1088  -1.9524
    -1.9109  -1.8091  -1.7765  -1.7514  -1.7300  -1.6756  -1.6720  -1.6420
    -1.6191  -1.5872  -1.5269  -1.4934  -1.4518  -1.3272  -1.3058  -1.2662
    -1.2486  -1.1897  -1.0933  -1.0039  -0.9910  -0.9480  -0.9288  -0.8827
    -0.8686  -0.8393  -0.7605  -0.7026  -0.5957  -0.5658  -0.5536  -0.5310
    -0.5009  -0.4584  -0.4111  -0.3428  -0.3274  -0.2082  -0.1393  -0.0932
    -0.0277   0.0384   0.0785   0.1191   0.1706   0.2677   0.2863   0.3602
     0.3739   0.4948   0.6033   0.6216   0.7744   0.8069   0.8755   0.9159
     0.9206   0.9312   0.9488   0.9603   1.0130   1.0893   1.5863   2.9556
     2.9586   3.0158   3.0216   3.3315   3.3325   3.4424   3.4443   3.7598
     3.7696

     the Fermi energy is     2.0644 ev

!    total energy              =   -2954.01292943 Ry
     estimated scf accuracy    <       0.00000003 Ry
     smearing contrib. (-TS)   =      -0.00173442 Ry
     internal energy E=F+TS    =   -2954.01119501 Ry

     The total energy is F=E-TS. E is the sum of the following terms:
     one-electron contribution =  -24214.01863457 Ry
     hartree contribution      =   12197.08672312 Ry
     xc contribution           =    -488.75021177 Ry
     ewald contribution        =    9551.67084068 Ry
     electric field correction =       0.00008753 Ry

     convergence has been achieved in  66 iterations

     Forces acting on atoms (cartesian axes, Ry/au):

     atom    1 type  1   force =     0.00017754   -0.00052689    0.12567963
     atom    2 type  1   force =     0.00000598    0.00026262   -0.15442288
     atom    3 type  2   force =     0.00002281   -0.00022294   -0.06671210
     atom    4 type  2   force =    -0.00001995    0.00008388    0.01673415
     atom    5 type  2   force =    -0.00392730   -0.00228922   -0.01290473
     atom    6 type  2   force =     0.00532275   -0.00149336   -0.01431453
     atom    7 type  1   force =    -0.00049590   -0.00698824    0.05721914
     atom    8 type  1   force =     0.00071771    0.00723001    0.09828726
     atom    9 type  2   force =     0.00002809    0.00009211   -0.00007509
     atom   10 type  2   force =    -0.00290254    0.00059353   -0.06192432
     atom   11 type  2   force =    -0.00002769   -0.00005456   -0.00002175
     atom   12 type  2   force =    -0.00005857    0.00016058    0.00015312
     atom   13 type  1   force =     0.00010429    0.00015139   -0.00010351
     atom   14 type  1   force =     0.00000521   -0.00006440    0.00009043
     atom   15 type  2   force =    -0.00002965    0.00004667   -0.00002164
     atom   16 type  2   force =     0.00006101    0.00016918   -0.00017480
     atom   17 type  2   force =    -0.00004046   -0.00002379    0.00026849
     atom   18 type  2   force =    -0.00008994    0.00032374   -0.00011013
     atom   19 type  1   force =    -0.00011587    0.00006771    0.00013835
     atom   20 type  1   force =     0.00036510    0.00020485    0.00013434
     atom   21 type  2   force =     0.00006965    0.00021768    0.09781593
     atom   22 type  2   force =     0.00037309    0.00002201    0.00006472
     atom   23 type  2   force =    -0.08273740    0.00008945   -0.03301371
     atom   24 type  2   force =     0.08269559    0.00050486   -0.03306287
     atom   25 type  1   force =     0.00010262   -0.00059975    0.12552309
     atom   26 type  1   force =     0.00000396   -0.00169715   -0.15483894
     atom   27 type  2   force =     0.00008883   -0.00077310   -0.06514712
     atom   28 type  2   force =     0.00004968    0.00188264    0.01158725
     atom   29 type  2   force =    -0.00252916    0.00468524   -0.01585028
     atom   30 type  2   force =     0.00369916    0.00502163   -0.01727996
     atom   31 type  1   force =    -0.00029372    0.00180902    0.04010398
     atom   32 type  1   force =     0.00091304   -0.01042233    0.09794683
     atom   33 type  2   force =    -0.00004439   -0.00001709    0.00012201
     atom   34 type  2   force =    -0.00230147    0.00077668   -0.07401841
     atom   35 type  2   force =     0.00010152    0.00002790    0.00001600
     atom   36 type  2   force =    -0.00008138   -0.00007416   -0.00004084
     atom   37 type  1   force =     0.00034886    0.00006736    0.00010354
     atom   38 type  1   force =     0.00012449   -0.00006655   -0.00030124
     atom   39 type  2   force =     0.00016563   -0.00010531   -0.00008296
     atom   40 type  2   force =     0.00001852    0.00003067   -0.00013326
     atom   41 type  2   force =     0.00002557    0.00007923    0.00001001
     atom   42 type  2   force =     0.00005162    0.00011081    0.00015495
     atom   43 type  1   force =     0.00017598   -0.00021098   -0.00007472
     atom   44 type  1   force =     0.00020647    0.00012863    0.00022686
     atom   45 type  2   force =     0.00004346    0.00004540    0.09760065
     atom   46 type  2   force =    -0.08279888    0.00004915   -0.03303222
     atom   47 type  2   force =     0.08272513    0.00048238   -0.03304887
     atom   48 type  3   force =    -0.00018390    0.00010367    0.00008462
     atom   49 type  4   force =     0.00009929    0.00009820    0.00002602
     atom   50 type  5   force =    -0.00015832   -0.00062949    0.00023591
     atom   51 type  3   force =    -0.00010616    0.00007609    0.00020291
     atom   52 type  3   force =    -0.00017498    0.00050686    0.00004473
     atom   53 type  3   force =     0.00021974    0.00028581    0.00011719
     atom   54 type  2   force =    -0.00145558   -0.00030376    0.00001161
     atom   55 type  3   force =     0.00146084    0.00007548    0.00000716

     Total force =     0.417204     Total SCF correction =     0.000660
  @ DRIVER MODE: Message from server: STATUS
  @ DRIVER MODE: Message from server: GETFORCE
  @ DRIVER MODE: Returning v,forces,stress,ensemble

     Writing output data file ./calc.save/
  @ DRIVER MODE: Message from server: EXIT
  @ DRIVE MODE: Exiting

     General routines

     Parallel routines

   This run was terminated on:   4:32:21  24Sep2021

   JOB DONE.