     Program PWSCF v.6.7GPU starts on 16Sep2021 at  0:34:33

     R & G space division:  proc/nbgrp/npool/nimage =      10
     Reading input from /storage/home/hcoda1/3/ntian30/research/carbon/CxH_vib/H2O_calc/ads_slab/CH2OH2O_a/out_0027/pw.inp
Warning: card &CELL ignored
Warning: card   CELL_DYNAMICS='IPI', ignored
Warning: card / ignored

     Current dimensions of program PWSCF are:
     Max number of different atomic species (ntypx) = 10
     Max number of k-points (npk) =  40000
     Max angular momentum in pseudopotentials (lmaxx) =  3
     Presently no symmetry can be used with electric field

     Message from routine cell_base_init:
     DEPRECATED: use true lattice parameter, not A to a.u. conversion factor

     IMPORTANT: XC functional enforced from input :
     Exchange-correlation= BEEF-VDW
                           (   1   4  43  14   2   0   0)
     Any further DFT definition will be discarded
     Please, verify this is what you really want

  @ DRIVER MODE: Connecting to
 qe_1139763_2852613.sched-torque.pace.gatech.eduf72ec_6o_scratch
  using UNIX socket
  @ DRIVER MODE: Message from server: STATUS
  @ DRIVER MODE: Message from server: INIT
  @ DRIVER MODE: Receiving replica           0          -1
  @ DRIVER MODE: Receiving encoded integer          25
  @ DRIVER MODE:  SCF:  T  FORCE:  T  STRESS:  F  VC:  F  ENSEMBLE:  F
  @ DRIVER MODE:  SCF:  T  FORCE:  T  STRESS:  F  VC:  F  ENSEMBLE:  F

     Using Slab Decomposition

     bravais-lattice index     =            0
     lattice parameter (alat)  =       1.8897  a.u.
     unit-cell volume          =    6658.9804 (a.u.)^3
     number of atoms/cell      =           54
     number of atomic types    =            4
     number of electrons       =       398.00
     number of Kohn-Sham states=          209
     kinetic-energy cutoff     =      29.3995  Ry
     charge density cutoff     =     293.9946  Ry
     scf convergence threshold =      7.3E-08
     mixing beta               =       0.0500
     number of iterations used =            8  plain     mixing
     Exchange-correlation= BEEF-VDW
                           (   1   4  43  14   2   0   0)

     celldm(1)=   1.889726  celldm(2)=   0.000000  celldm(3)=   0.000000
     celldm(4)=   0.000000  celldm(5)=   0.000000  celldm(6)=   0.000000

     crystal axes: (cart. coord. in units of alat)
               a(1) = (   6.579727   0.000000   0.000000 )
               a(2) = (  -0.000775   5.961596   0.000000 )
               a(3) = (   0.000000   0.000000  25.155947 )

     reciprocal axes: (cart. coord. in units 2 pi/alat)
               b(1) = (  0.151982  0.000020  0.000000 )
               b(2) = (  0.000000  0.167740  0.000000 )
               b(3) = (  0.000000  0.000000  0.039752 )

     PseudoPot. # 1 for O  read from file:
     /storage/coda1/p-amedford6/0/shared/rich_project_chbe-medford/medford-share/data/pseudos_module/espresso/nninc/pbe/van/O.UPF
     MD5 check sum: 78c19812648e8988a0fe644b0f25305e
     Pseudo is Ultrasoft, Zval =  6.0
     Generated by new atomic code, or converted to UPF format
     Using radial grid of  737 points,  4 beta functions with:
                l(1) =   0
                l(2) =   0
                l(3) =   1
                l(4) =   1
     Q(r) pseudized with  8 coefficients,  rinner =    0.800   0.800   0.800

     PseudoPot. # 2 for Ti read from file:
     /storage/coda1/p-amedford6/0/shared/rich_project_chbe-medford/medford-share/data/pseudos_module/espresso/nninc/pbe/van/Ti.UPF
     MD5 check sum: 8e4df49b7f0d34bbd5052bf3f5ea0213
     Pseudo is Ultrasoft, Zval = 12.0
     Generated by new atomic code, or converted to UPF format
     Using radial grid of  851 points,  6 beta functions with:
                l(1) =   0
                l(2) =   0
                l(3) =   1
                l(4) =   1
                l(5) =   2
                l(6) =   2
     Q(r) pseudized with  8 coefficients,  rinner =    1.000   1.000   1.000
                                                       1.000   1.000

     PseudoPot. # 3 for C  read from file:
     /storage/coda1/p-amedford6/0/shared/rich_project_chbe-medford/medford-share/data/pseudos_module/espresso/nninc/pbe/van/C.UPF
     MD5 check sum: 1a69bf6b8db32088f5b2163dbdb77a27
     Pseudo is Ultrasoft, Zval =  4.0
     Generated by new atomic code, or converted to UPF format
     Using radial grid of  721 points,  4 beta functions with:
                l(1) =   0
                l(2) =   0
                l(3) =   1
                l(4) =   1
     Q(r) pseudized with  8 coefficients,  rinner =    0.800   0.800   0.800

     PseudoPot. # 4 for H  read from file:
     /storage/coda1/p-amedford6/0/shared/rich_project_chbe-medford/medford-share/data/pseudos_module/espresso/nninc/pbe/van/H.UPF
     MD5 check sum: b5ee9d7bfd3a09ee7748110bda690ff7
     Pseudo is Ultrasoft, Zval =  1.0
     Generated by new atomic code, or converted to UPF format
     Using radial grid of  615 points,  1 beta functions with:
                l(1) =   0
     Q(r) pseudized with  8 coefficients,  rinner =    0.800

     atomic species   valence    mass     pseudopotential
        O1             6.00    15.99900     O ( 1.00)
        Ti1           12.00    47.86700     Ti( 1.00)
        C1             4.00    12.01100     C ( 1.00)
        H1             1.00     1.00800     H ( 1.00)

     No symmetry found

   Cartesian axes

     site n.     atom                  positions (alat units)
         1           O1  tau(   1) = (   3.2904802   0.0005063   4.7018136  )
         2           O1  tau(   2) = (   3.2900926   2.9813045   4.7018136  )
         3           Ti1 tau(   3) = (   0.0004258   2.9801865   6.0000000  )
         4           Ti1 tau(   4) = (   0.0000382   5.9609847   6.0000000  )
         5           Ti1 tau(   5) = (   3.2906075   1.4906267   6.0002472  )
         6           Ti1 tau(   6) = (   3.2902200   4.4714249   6.0002472  )
         7           O1  tau(   7) = (   1.3043587   1.4918075   6.0039043  )
         8           O1  tau(   8) = (   1.3039711   4.4726057   6.0039043  )
         9           O1  tau(   9) = (   5.2767064   1.4903225   6.0039473  )
        10           O1  tau(  10) = (   5.2763189   4.4711207   6.0039473  )
        11           O1  tau(  11) = (   3.2906025   0.0005020   7.3038282  )
        12           O1  tau(  12) = (   3.2902150   2.9813002   7.3038282  )
        13           O1  tau(  13) = (   0.0006271   0.0005054   7.9858123  )
        14           O1  tau(  14) = (   0.0002396   2.9813036   7.9858123  )
        15           Ti1 tau(  15) = (   3.3036605   0.0548493   9.1550340  )
        16           Ti1 tau(  16) = (   3.3179312   3.0323762   9.1622521  )
        17           Ti1 tau(  17) = (   0.0293130   4.5303424   9.2586280  )
        18           Ti1 tau(  18) = (   0.0255512   1.6071936   9.3606264  )
        19           O1  tau(  19) = (   4.5942328   1.4918067   9.2879030  )
        20           O1  tau(  20) = (   4.5938453   4.4726049   9.2879030  )
        21           O1  tau(  21) = (   1.9868534   1.4903216   9.2879459  )
        22           O1  tau(  22) = (   1.9864658   4.4711199   9.2879459  )
        23           O1  tau(  23) = (   0.0067149   0.0090568  10.6008527  )
        24           O1  tau(  24) = (   0.0066098   2.9904127  10.5810825  )
        25           O1  tau(  25) = (   3.3023248   2.9935247  11.3558429  )
        26           O1  tau(  26) = (   3.3019398   0.0103095  11.3581380  )
        27           Ti1 tau(  27) = (   0.0322082   0.0188897  12.5014682  )
        28           Ti1 tau(  28) = (   3.3323403   4.4947089  12.5096490  )
        29           Ti1 tau(  29) = (   3.3327227   1.5059056  12.5040540  )
        30           Ti1 tau(  30) = (   0.0321551   3.0004163  12.7750784  )
        31           O1  tau(  31) = (   1.2963378   4.4834263  12.6382484  )
        32           O1  tau(  32) = (   1.2968596   1.4996660  12.6342602  )
        33           O1  tau(  33) = (   5.3004736   4.4821179  12.6410582  )
        34           O1  tau(  34) = (   5.3007909   1.4998706  12.6367838  )
        35           O1  tau(  35) = (   3.3017874   2.9879694  13.9086975  )
        36           O1  tau(  36) = (   3.3040514   0.0100701  13.9766235  )
        37           O1  tau(  37) = (   0.0177811   0.0165449  14.6846256  )
        38           O1  tau(  38) = (   0.0218693   2.9952767  14.7100221  )
        39           Ti1 tau(  39) = (   3.3083447   2.9915206  15.7010863  )
        40           Ti1 tau(  40) = (   3.3165693   0.0114089  15.8055842  )
        41           Ti1 tau(  41) = (   0.0300915   4.5703342  15.9344200  )
        42           Ti1 tau(  42) = (   0.0294271   1.3911826  15.9958598  )
        43           O1  tau(  43) = (   4.5666857   4.4545776  16.0545193  )
        44           O1  tau(  44) = (   4.5654216   1.5273373  16.0688375  )
        45           O1  tau(  45) = (   2.0398213   1.5345912  16.0698912  )
        46           O1  tau(  46) = (   2.0372649   4.4468515  16.0554978  )
        47           O1  tau(  47) = (   0.0160947   0.0056016  17.2166677  )
        48           O1  tau(  48) = (   6.5639191   3.0028441  17.4181802  )
        49           C1  tau(  49) = (   6.3909186   3.0704891  18.6902598  )
        50           H1  tau(  50) = (   6.3116585   4.0479728  19.1570877  )
        51           H1  tau(  51) = (   6.3127454   2.1532251  19.2664540  )
        52           O1  tau(  52) = (   3.2659488   5.9219982  18.2141537  )
        53           H1  tau(  53) = (   4.0486762   5.9278262  18.7801078  )
        54           H1  tau(  54) = (   2.4667005   5.9275743  18.7583984  )

     number of k points=    10  Fermi-Dirac smearing, width (Ry)=  0.0073
                       cart. coord. in units 2pi/alat
        k(    1) = (   0.0000000   0.0000000   0.0000000), wk =   0.1250000
        k(    2) = (   0.0000000   0.0419351   0.0000000), wk =   0.2500000
        k(    3) = (   0.0000000  -0.0838702   0.0000000), wk =   0.1250000
        k(    4) = (   0.0379955   0.0000049   0.0000000), wk =   0.2500000
        k(    5) = (   0.0379955   0.0419400   0.0000000), wk =   0.2500000
        k(    6) = (   0.0379955  -0.0838652   0.0000000), wk =   0.2500000
        k(    7) = (   0.0379955  -0.0419301   0.0000000), wk =   0.2500000
        k(    8) = (  -0.0759910  -0.0000099   0.0000000), wk =   0.1250000
        k(    9) = (  -0.0759910   0.0419252   0.0000000), wk =   0.2500000
        k(   10) = (  -0.0759910  -0.0838800   0.0000000), wk =   0.1250000

     Initial potential from superposition of free atoms

     starting charge  381.99917, renormalised to  398.00000

     negative rho (up, down):  1.686E-02 0.000E+00

     %%%%%%%%%%%%%%%%%%%%%%%%%%%%%%%%%%%%%%%%%%%%%%%%%%%%%%%%%%%%%%%%%%%%%%%%
     %                                                                      %
     % You are using vdW-DF, which was implemented by the Thonhauser group. %
     % Please cite the following two papers that made this development      %
     % possible and the two reviews that describe the various versions:     %
     %                                                                      %
     %   T. Thonhauser et al., PRL 115, 136402 (2015).                      %
     %   T. Thonhauser et al., PRB 76, 125112 (2007).                       %
     %   K. Berland et al., Rep. Prog. Phys. 78, 066501 (2015).             %
     %   D.C. Langreth et al., J. Phys.: Condens. Matter 21, 084203 (2009). %
     %                                                                      %
     %                                                                      %
     % If you are calculating the stress with vdW-DF, please also cite:     %
     %                                                                      %
     %   R. Sabatini et al., J. Phys.: Condens. Matter 24, 424209 (2012).   %
     %                                                                      %
     %%%%%%%%%%%%%%%%%%%%%%%%%%%%%%%%%%%%%%%%%%%%%%%%%%%%%%%%%%%%%%%%%%%%%%%%

     Adding external electric field

     Computed dipole along edir(3) :
        Dipole               -9.6373 Ry au,        -24.4955 Debye
        Dipole field         -0.0182 Ry au,

        Potential amp.        1.6859 Ry
        Total length         46.3494 bohr

     Starting wfcs are  300 atomic wfcs
  @ DRIVER MODE: Message from server: STATUS
  @ DRIVER MODE: Message from server: POSDATA
  @ DRIVER MODE: Reading and sharing cell
  @ DRIVER MODE: Reading and sharing positions
  @ DRIVER MODE: Received positions

     Self-consistent Calculation

     iteration #  1     ecut=    29.40 Ry     beta= 0.05
     Davidson diagonalization with overlap
     c_bands:  1 eigenvalues not converged
     c_bands:  3 eigenvalues not converged
     c_bands:  2 eigenvalues not converged
     c_bands:  2 eigenvalues not converged
     c_bands:  2 eigenvalues not converged
     c_bands:  1 eigenvalues not converged
     c_bands:  2 eigenvalues not converged
     c_bands:  1 eigenvalues not converged
     c_bands:  2 eigenvalues not converged
     ethr =  1.00E-05,  avg # of iterations = 19.6

[...]

     total energy              =   -2526.83779111 Ry
     estimated scf accuracy    <    4873.64966902 Ry

     iteration #  2     ecut=    29.40 Ry     beta= 0.05
     Davidson diagonalization with overlap
     ethr =  1.00E-02,  avg # of iterations = 26.3

[...]

     iteration # 78     ecut=    29.40 Ry     beta= 0.05
     Davidson diagonalization with overlap
     c_bands:  2 eigenvalues not converged
     ethr =  2.39E-11,  avg # of iterations = 12.4

[...]

     total energy              =   -2964.99536421 Ry
     estimated scf accuracy    <       0.00000021 Ry

     iteration # 79     ecut=    29.40 Ry     beta= 0.05
     Davidson diagonalization with overlap
     ethr =  2.39E-11,  avg # of iterations =  9.4

     negative rho (up, down):  1.529E-02 0.000E+00

     Adding external electric field

     Computed dipole along edir(3) :
        Dipole                1.2220 Ry au,          3.1059 Debye
        Dipole field          0.0023 Ry au,

        Potential amp.       -0.2138 Ry
        Total length         46.3494 bohr

     End of self-consistent calculation

          k = 0.0000 0.0000 0.0000 ( 18029 PWs)   bands (ev):

   -55.5392 -55.5025 -55.5017 -55.4655 -55.4624 -55.4179 -55.3816 -55.3148
   -55.3020 -55.2789 -55.2686 -55.2591 -55.2178 -55.2095 -54.5504 -54.5163
   -32.0572 -32.0096 -31.8957 -31.8530 -31.8511 -31.8334 -31.8132 -31.8044
   -31.7810 -31.7693 -31.7355 -31.7254 -31.6980 -31.6855 -31.6830 -31.6490
   -31.6457 -31.6394 -31.6345 -31.6316 -31.6027 -31.5973 -31.5897 -31.5857
   -31.5582 -31.5539 -31.5506 -31.5301 -31.5229 -31.5213 -31.4758 -31.4744
   -31.4485 -31.4467 -31.4331 -31.4279 -31.4218 -31.4079 -31.3963 -31.3949
   -31.3917 -31.3753 -30.9599 -30.8637 -30.8414 -30.7765 -30.6903 -30.5793
   -19.3635 -19.1358 -16.2544 -15.9918 -15.8200 -15.7089 -15.6620 -15.4598
   -15.3669 -15.2862 -15.2225 -15.1449 -15.1283 -15.0906 -15.0648 -15.0590
   -15.0537 -15.0052 -14.9960 -14.9566 -14.9449 -14.9434 -14.9248 -14.9060
   -14.8242 -14.7216 -14.6782 -14.6602 -14.6013 -14.5449 -14.5313 -13.0514
   -12.9333  -9.0160  -7.1497  -5.2205  -5.1813  -3.7749  -3.5755  -3.4581
    -3.4236  -3.3877  -3.3190  -3.1378  -3.1294  -3.0364  -2.7992  -2.7088
    -2.6756  -2.6179  -2.6077  -2.5081  -2.4672  -2.3609  -2.3521  -2.3477
    -2.3316  -2.3054  -2.2727  -2.2306  -2.2062  -2.1940  -2.0665  -2.0553
    -1.9271  -1.9212  -1.8979  -1.8432  -1.8382  -1.7962  -1.7831  -1.7795
    -1.7668  -1.7185  -1.7068  -1.5937  -1.5198  -1.4567  -1.3696  -1.2316
    -1.1710  -1.0966  -1.0435  -1.0090  -0.9463  -0.9434  -0.8890  -0.8484
    -0.7900  -0.7783  -0.7712  -0.6747  -0.5758  -0.5540  -0.5238  -0.4455
    -0.3671  -0.2807  -0.2616  -0.2593  -0.2581  -0.2369  -0.0995  -0.0159
     0.0414   0.0464   0.1426   0.1757   0.2109   0.2251   0.2572   0.2781
     0.3340   0.4088   0.4205   0.4337   0.4593   0.5051   0.5108   0.6233
     0.6996   0.7011   0.7373   0.7700   0.9455   0.9804   1.1072   1.2145
     1.3807   1.4737   1.5458   1.6467   2.0598   2.1174   3.6340   3.6759
     3.6908   3.7332   3.7827   3.8094   3.8770   4.0763   4.0925   4.1024
     4.1418

[...]

          k = 0.0380-0.0419 0.0000 ( 17876 PWs)   bands (ev):

[...]

          k =-0.0760-0.0000 0.0000 ( 17886 PWs)   bands (ev):

[...]

          k =-0.0760-0.0839 0.0000 ( 17948 PWs)   bands (ev):

   -55.5277 -55.5139 -55.4849 -55.4821 -55.4609 -55.4077 -55.3918 -55.3113
   -55.2867 -55.2843 -55.2734 -55.2606 -55.2231 -55.2123 -54.5339 -54.5327
   -31.8679 -31.8531 -31.8336 -31.8209 -31.8183 -31.7989 -31.7737 -31.7560
   -31.7429 -31.7381 -31.7376 -31.7299 -31.6965 -31.6625 -31.6564 -31.6524
   -31.6434 -31.6406 -31.6373 -31.6348 -31.6290 -31.6101 -31.6094 -31.6082
   -31.6035 -31.5887 -31.5678 -31.5527 -31.5396 -31.5381 -31.5312 -31.5141
   -31.4966 -31.4921 -31.4851 -31.4836 -31.4655 -31.4472 -31.4419 -31.4366
   -31.4061 -31.3998 -30.8547 -30.8533 -30.7733 -30.7724 -30.7339 -30.7329
   -19.3547 -19.1355 -15.7057 -15.5965 -15.5624 -15.4155 -15.4112 -15.3602
   -15.3518 -15.3161 -15.2360 -15.2328 -15.1829 -15.1636 -15.1291 -15.1054
   -15.0937 -15.0482 -15.0459 -15.0270 -15.0031 -14.9847 -14.9682 -14.9407
   -14.9166 -14.9093 -14.8715 -14.8632 -14.7987 -14.7441 -14.7230 -13.0357
   -13.0335  -9.0169  -7.1471  -5.1974  -5.1582  -3.7310  -3.1563  -2.9896
    -2.8026  -2.7870  -2.6545  -2.6198  -2.6016  -2.5113  -2.4780  -2.4443
    -2.3813  -2.3705  -2.3640  -2.3423  -2.3373  -2.3236  -2.3025  -2.2650
    -2.2554  -2.2238  -2.1940  -2.1802  -2.1596  -2.1499  -2.1214  -2.1019
    -2.0892  -2.0857  -2.0234  -1.9956  -1.9104  -1.8443  -1.7632  -1.7108
    -1.6794  -1.6773  -1.6411  -1.6024  -1.5948  -1.5795  -1.4336  -1.3841
    -1.2615  -1.2481  -1.2290  -1.1527  -1.1371  -1.1028  -1.0974  -1.0310
    -0.9447  -0.9397  -0.9173  -0.8889  -0.8016  -0.7333  -0.6923  -0.6562
    -0.6125  -0.5826  -0.5087  -0.4953  -0.4844  -0.4220  -0.3815  -0.2965
    -0.2829  -0.2637  -0.2126  -0.1835  -0.1487  -0.0800  -0.0618  -0.0390
     0.0420   0.1082   0.1143   0.3241   0.4865   0.5155   0.5324   0.6168
     0.6638   0.7724   0.7956   0.8051   0.8471   0.8927   0.9801   1.0061
     1.0079   1.0854   1.8341   1.8348   1.9223   1.9328   3.5658   3.8797
     3.9441   3.9674   3.9924   4.1075   4.1101   4.1294   4.1379   4.2801
     4.2985

     the Fermi energy is     3.6122 ev

!    total energy              =   -2964.99537036 Ry
     estimated scf accuracy    <       0.00000005 Ry
     smearing contrib. (-TS)   =      -0.03111335 Ry
     internal energy E=F+TS    =   -2964.96425701 Ry

     The total energy is F=E-TS. E is the sum of the following terms:
     one-electron contribution =  -24342.46192211 Ry
     hartree contribution      =   12264.28764197 Ry
     xc contribution           =    -490.10235412 Ry
     ewald contribution        =    9603.30955941 Ry
     electric field correction =       0.00281784 Ry

     convergence has been achieved in  79 iterations

     Forces acting on atoms (cartesian axes, Ry/au):

     atom    1 type  1   force =    -0.00009665    0.00006562    0.10408763
     atom    2 type  1   force =    -0.00008836    0.00006272    0.10408621
     atom    3 type  2   force =    -0.00029965   -0.00188538    0.10331240
     atom    4 type  2   force =    -0.00015633    0.00151754    0.11462928
     atom    5 type  2   force =    -0.00037171    0.00124189   -0.17935132
     atom    6 type  2   force =    -0.00016915   -0.00076723   -0.17974195
     atom    7 type  1   force =    -0.06940998    0.00065516   -0.02928870
     atom    8 type  1   force =    -0.06895521   -0.00123026   -0.02933474
     atom    9 type  1   force =     0.06905341    0.00114887   -0.02935012
     atom   10 type  1   force =     0.06868657   -0.00081098   -0.02940649
     atom   11 type  1   force =     0.00041978    0.00056825    0.04681363
     atom   12 type  1   force =     0.00063272    0.00080655    0.04851961
     atom   13 type  1   force =     0.00026718   -0.00569008   -0.03325231
     atom   14 type  1   force =     0.00033269    0.00339420   -0.02638453
     atom   15 type  2   force =    -0.00010058   -0.00001533    0.00040281
     atom   16 type  2   force =     0.00001538    0.00002826    0.00051754
     atom   17 type  2   force =    -0.00002534    0.00012434    0.00042998
     atom   18 type  2   force =    -0.00006284   -0.00033812    0.00008590
     atom   19 type  1   force =    -0.01806341   -0.00015708    0.00402792
     atom   20 type  1   force =    -0.01683895    0.00147815    0.00328092
     atom   21 type  1   force =     0.01933259   -0.00136725    0.00447513
     atom   22 type  1   force =     0.01790036    0.00116318    0.00355320
     atom   23 type  1   force =     0.00001829    0.00003004   -0.00013848
     atom   24 type  1   force =    -0.00005396   -0.00001033   -0.00008639
     atom   25 type  1   force =    -0.00004880    0.00000345   -0.00060974
     atom   26 type  1   force =    -0.00023099    0.00014490   -0.00068591
     atom   27 type  2   force =     0.00004220    0.00013946   -0.00042527
     atom   28 type  2   force =     0.00022697    0.00002462   -0.00007947
     atom   29 type  2   force =     0.00021501    0.00001037   -0.00021451
     atom   30 type  2   force =    -0.00008485    0.00020198    0.00019021
     atom   31 type  1   force =    -0.00064809   -0.00023982    0.00052673
     atom   32 type  1   force =    -0.00055726    0.00032116    0.00055848
     atom   33 type  1   force =     0.00040731   -0.00013930    0.00034378
     atom   34 type  1   force =     0.00032769    0.00018739    0.00037513
     atom   35 type  1   force =    -0.00014873   -0.00000240    0.00021287
     atom   36 type  1   force =    -0.00009051    0.00001187   -0.00020231
     atom   37 type  1   force =    -0.00036475    0.00002578   -0.00021481
     atom   38 type  1   force =    -0.00051426    0.00024534   -0.00004362
     atom   39 type  2   force =    -0.00017105    0.00010644    0.00130385
     atom   40 type  2   force =     0.00008799    0.00004043   -0.00134772
     atom   41 type  2   force =    -0.00031012   -0.00092782   -0.00059930
     atom   42 type  2   force =    -0.00028877    0.00090764   -0.00048545
     atom   43 type  1   force =     0.00004819    0.00017166    0.00015870
     atom   44 type  1   force =    -0.00013558   -0.00015149    0.00024812
     atom   45 type  1   force =    -0.00033825   -0.00032111    0.00015302
     atom   46 type  1   force =    -0.00053852    0.00036596   -0.00002079
     atom   47 type  1   force =    -0.00004929   -0.00016054    0.00023062
     atom   48 type  1   force =    -0.00022536    0.00010772    0.00071920
     atom   49 type  3   force =     0.00021261   -0.00054123    0.00016953
     atom   50 type  4   force =     0.00047493   -0.00117182    0.00043981
     atom   51 type  4   force =     0.00037407   -0.00028454   -0.00062211
     atom   52 type  1   force =     0.00048121    0.00043126   -0.00057854
     atom   53 type  4   force =     0.00034825    0.00025901    0.00024336
     atom   54 type  4   force =    -0.00046812    0.00022086   -0.00163100

     Total force =     0.374503     Total SCF correction =     0.000734
  @ DRIVER MODE: Message from server: STATUS
  @ DRIVER MODE: Message from server: GETFORCE
  @ DRIVER MODE: Returning v,forces,stress,ensemble

     Writing output data file ./calc.save/
  @ DRIVER MODE: Message from server: EXIT
  @ DRIVE MODE: Exiting

     General routines

     Parallel routines

   This run was terminated on:   0:57: 4  16Sep2021

   JOB DONE.