     Program PWSCF v.6.7GPU starts on 23Sep2021 at 17: 3:58

     R & G space division:  proc/nbgrp/npool/nimage =       8
     Reading input from /storage/home/hcoda1/3/ntian30/research/carbon/CxH_vib/H2O_calc/ads_slab/CH3NNHHHHO_a/out_0016/pw.inp
Warning: card &CELL ignored
Warning: card   CELL_DYNAMICS='IPI', ignored
Warning: card / ignored

     Current dimensions of program PWSCF are:
     Max number of different atomic species (ntypx) = 10
     Max number of k-points (npk) =  40000
     Max angular momentum in pseudopotentials (lmaxx) =  3
     Presently no symmetry can be used with electric field

     Message from routine cell_base_init:
     DEPRECATED: use true lattice parameter, not A to a.u. conversion factor

     IMPORTANT: XC functional enforced from input :
     Exchange-correlation= BEEF-VDW
                           (   1   4  43  14   2   0   0)
     Any further DFT definition will be discarded
     Please, verify this is what you really want

  @ DRIVER MODE: Connecting to
 qe_1139763_2947308.sched-torque.pace.gatech.edus6dbfm40_scratch
  using UNIX socket
  @ DRIVER MODE: Message from server: STATUS
  @ DRIVER MODE: Message from server: INIT
  @ DRIVER MODE: Receiving replica           0          -1
  @ DRIVER MODE: Receiving encoded integer          25
  @ DRIVER MODE:  SCF:  T  FORCE:  T  STRESS:  F  VC:  F  ENSEMBLE:  F
  @ DRIVER MODE:  SCF:  T  FORCE:  T  STRESS:  F  VC:  F  ENSEMBLE:  F

     Using Slab Decomposition

     bravais-lattice index     =            0
     lattice parameter (alat)  =       1.8897  a.u.
     unit-cell volume          =    6658.9804 (a.u.)^3
     number of atoms/cell      =           58
     number of atomic types    =            5
     number of electrons       =       405.00
     number of Kohn-Sham states=          212
     kinetic-energy cutoff     =      29.3995  Ry
     charge density cutoff     =     293.9946  Ry
     scf convergence threshold =      7.3E-08
     mixing beta               =       0.0500
     number of iterations used =            8  plain     mixing
     Exchange-correlation= BEEF-VDW
                           (   1   4  43  14   2   0   0)

     celldm(1)=   1.889726  celldm(2)=   0.000000  celldm(3)=   0.000000
     celldm(4)=   0.000000  celldm(5)=   0.000000  celldm(6)=   0.000000

     crystal axes: (cart. coord. in units of alat)
               a(1) = (   6.579727   0.000000   0.000000 )
               a(2) = (  -0.000775   5.961596   0.000000 )
               a(3) = (   0.000000   0.000000  25.155947 )

     reciprocal axes: (cart. coord. in units 2 pi/alat)
               b(1) = (  0.151982  0.000020  0.000000 )
               b(2) = (  0.000000  0.167740  0.000000 )
               b(3) = (  0.000000  0.000000  0.039752 )

     PseudoPot. # 1 for Ti read from file:
     /storage/coda1/p-amedford6/0/shared/rich_project_chbe-medford/medford-share/data/pseudos_module/espresso/nninc/pbe/van/Ti.UPF
     MD5 check sum: 8e4df49b7f0d34bbd5052bf3f5ea0213
     Pseudo is Ultrasoft, Zval = 12.0
     Generated by new atomic code, or converted to UPF format
     Using radial grid of  851 points,  6 beta functions with:
                l(1) =   0
                l(2) =   0
                l(3) =   1
                l(4) =   1
                l(5) =   2
                l(6) =   2
     Q(r) pseudized with  8 coefficients,  rinner =    1.000   1.000   1.000
                                                       1.000   1.000

     PseudoPot. # 2 for O  read from file:
     /storage/coda1/p-amedford6/0/shared/rich_project_chbe-medford/medford-share/data/pseudos_module/espresso/nninc/pbe/van/O.UPF
     MD5 check sum: 78c19812648e8988a0fe644b0f25305e
     Pseudo is Ultrasoft, Zval =  6.0
     Generated by new atomic code, or converted to UPF format
     Using radial grid of  737 points,  4 beta functions with:
                l(1) =   0
                l(2) =   0
                l(3) =   1
                l(4) =   1
     Q(r) pseudized with  8 coefficients,  rinner =    0.800   0.800   0.800

     PseudoPot. # 3 for N  read from file:
     /storage/coda1/p-amedford6/0/shared/rich_project_chbe-medford/medford-share/data/pseudos_module/espresso/nninc/pbe/van/N.UPF
     MD5 check sum: 90d10febe142ad51ac9d5be1deb811c4
     Pseudo is Ultrasoft, Zval =  5.0
     Generated by new atomic code, or converted to UPF format
     Using radial grid of  729 points,  4 beta functions with:
                l(1) =   0
                l(2) =   0
                l(3) =   1
                l(4) =   1
     Q(r) pseudized with  8 coefficients,  rinner =    0.800   0.800   0.800

     PseudoPot. # 4 for C  read from file:
     /storage/coda1/p-amedford6/0/shared/rich_project_chbe-medford/medford-share/data/pseudos_module/espresso/nninc/pbe/van/C.UPF
     MD5 check sum: 1a69bf6b8db32088f5b2163dbdb77a27
     Pseudo is Ultrasoft, Zval =  4.0
     Generated by new atomic code, or converted to UPF format
     Using radial grid of  721 points,  4 beta functions with:
                l(1) =   0
                l(2) =   0
                l(3) =   1
                l(4) =   1
     Q(r) pseudized with  8 coefficients,  rinner =    0.800   0.800   0.800

     PseudoPot. # 5 for H  read from file:
     /storage/coda1/p-amedford6/0/shared/rich_project_chbe-medford/medford-share/data/pseudos_module/espresso/nninc/pbe/van/H.UPF
     MD5 check sum: b5ee9d7bfd3a09ee7748110bda690ff7
     Pseudo is Ultrasoft, Zval =  1.0
     Generated by new atomic code, or converted to UPF format
     Using radial grid of  615 points,  1 beta functions with:
                l(1) =   0
     Q(r) pseudized with  8 coefficients,  rinner =    0.800

     atomic species   valence    mass     pseudopotential
        Ti1           12.00    47.86700     Ti( 1.00)
        O1             6.00    15.99900     O ( 1.00)
        N1             5.00    14.00700     N ( 1.00)
        C1             4.00    12.01100     C ( 1.00)
        H1             1.00     1.00800     H ( 1.00)

     No symmetry found

   Cartesian axes

     site n.     atom                  positions (alat units)
         1           Ti1 tau(   1) = (   0.0004258   2.9801865   6.0000000  )
         2           Ti1 tau(   2) = (   3.2906075   1.4906267   6.0002472  )
         3           O1  tau(   3) = (   0.0006271   0.0005054   7.9858123  )
         4           O1  tau(   4) = (   3.2906025   0.0005020   7.3038282  )
         5           O1  tau(   5) = (   4.5942328   1.4918067   9.2879030  )
         6           O1  tau(   6) = (   1.9868534   1.4903216   9.2879459  )
         7           Ti1 tau(   7) = (   3.2907910   2.8959150   9.1758416  )
         8           Ti1 tau(   8) = (   0.0015273   1.4827037   9.2680791  )
         9           O1  tau(   9) = (   3.3066316   0.0080679  11.3583267  )
        10           O1  tau(  10) = (   0.0116148   5.9584955  10.6183126  )
        11           O1  tau(  11) = (   1.3000076   1.5005770  12.6434233  )
        12           O1  tau(  12) = (   5.3281586   1.4930334  12.6431679  )
        13           Ti1 tau(  13) = (   0.0126194   3.0144704  12.5166071  )
        14           Ti1 tau(  14) = (   3.3185830   1.5708444  12.4374219  )
        15           O1  tau(  15) = (   0.0449490   0.0685618  14.6579901  )
        16           O1  tau(  16) = (   3.3164028   5.8986079  13.9921319  )
        17           O1  tau(  17) = (   4.5763498   1.4919541  16.1892649  )
        18           O1  tau(  18) = (   2.0390356   1.5007807  16.1677599  )
        19           Ti1 tau(  19) = (   3.3152479   2.9236451  15.6986563  )
        20           Ti1 tau(  20) = (   0.0808212   1.4292116  16.0039943  )
        21           O1  tau(  21) = (   3.2904802   0.0005063   4.7018136  )
        22           O1  tau(  22) = (   0.0303022   5.8046116  17.1736243  )
        23           O1  tau(  23) = (   1.3043587   1.4918075   6.0039043  )
        24           O1  tau(  24) = (   5.2767064   1.4903225   6.0039473  )
        25           Ti1 tau(  25) = (   0.0000382   5.9609847   6.0000000  )
        26           Ti1 tau(  26) = (   3.2902200   4.4714249   6.0002472  )
        27           O1  tau(  27) = (   0.0002396   2.9813036   7.9858123  )
        28           O1  tau(  28) = (   3.2902150   2.9813002   7.3038282  )
        29           O1  tau(  29) = (   4.5938453   4.4726049   9.2879030  )
        30           O1  tau(  30) = (   1.9864658   4.4711199   9.2879459  )
        31           Ti1 tau(  31) = (   3.2891106   5.8743827   9.1763621  )
        32           Ti1 tau(  32) = (   0.0006254   4.4649316   9.2693709  )
        33           O1  tau(  33) = (   3.3101163   2.9547251  11.3177968  )
        34           O1  tau(  34) = (   0.0092240   2.9805883  10.6323155  )
        35           O1  tau(  35) = (   1.2917786   4.4638488  12.6831265  )
        36           O1  tau(  36) = (   5.3332004   4.4701953  12.6833355  )
        37           Ti1 tau(  37) = (   0.0360484   0.0435164  12.5022323  )
        38           Ti1 tau(  38) = (   3.3166134   4.6596848  12.7231989  )
        39           O1  tau(  39) = (   6.5734590   2.9070644  14.8960501  )
        40           O1  tau(  40) = (   3.3256711   2.9499323  13.9293234  )
        41           O1  tau(  41) = (   4.5718193   4.3849529  16.1598725  )
        42           O1  tau(  42) = (   2.0293811   4.3548050  16.0908550  )
        43           Ti1 tau(  43) = (   3.3839698   5.9011270  16.3477160  )
        44           Ti1 tau(  44) = (   0.0762916   4.6312412  15.8077656  )
        45           O1  tau(  45) = (   3.2900926   2.9813045   4.7018136  )
        46           O1  tau(  46) = (   1.3039711   4.4726057   6.0039043  )
        47           O1  tau(  47) = (   5.2763189   4.4711207   6.0039473  )
        48           N1  tau(  48) = (   1.0338470   3.0145746  18.8549854  )
        49           N1  tau(  49) = (   6.4614719   2.5758313  18.0922931  )
        50           C1  tau(  50) = (   0.6385090   3.7589381  20.0602371  )
        51           H1  tau(  51) = (   6.5128770   4.5633600  19.8465500  )
        52           H1  tau(  52) = (   0.1876125   3.0656416  20.7809517  )
        53           H1  tau(  53) = (   1.5398112   4.1767214  20.4987412  )
        54           H1  tau(  54) = (   5.7034478   3.2665398  18.1448723  )
        55           H1  tau(  55) = (   6.1095767   1.7263867  18.5341855  )
        56           H1  tau(  56) = (   1.5400177   3.6533120  18.2466354  )
        57           O1  tau(  57) = (   3.2295176   5.8880611  18.1942677  )
        58           H1  tau(  58) = (   2.6769533   0.6239085  18.5854980  )

     number of k points=    10  Fermi-Dirac smearing, width (Ry)=  0.0073
                       cart. coord. in units 2pi/alat
        k(    1) = (   0.0000000   0.0000000   0.0000000), wk =   0.1250000
        k(    2) = (   0.0000000   0.0419351   0.0000000), wk =   0.2500000
        k(    3) = (   0.0000000  -0.0838702   0.0000000), wk =   0.1250000
        k(    4) = (   0.0379955   0.0000049   0.0000000), wk =   0.2500000
        k(    5) = (   0.0379955   0.0419400   0.0000000), wk =   0.2500000
        k(    6) = (   0.0379955  -0.0838652   0.0000000), wk =   0.2500000
        k(    7) = (   0.0379955  -0.0419301   0.0000000), wk =   0.2500000
        k(    8) = (  -0.0759910  -0.0000099   0.0000000), wk =   0.1250000
        k(    9) = (  -0.0759910   0.0419252   0.0000000), wk =   0.2500000
        k(   10) = (  -0.0759910  -0.0838800   0.0000000), wk =   0.1250000

     Initial potential from superposition of free atoms

     starting charge  388.99913, renormalised to  405.00000

     negative rho (up, down):  1.325E-02 0.000E+00

     %%%%%%%%%%%%%%%%%%%%%%%%%%%%%%%%%%%%%%%%%%%%%%%%%%%%%%%%%%%%%%%%%%%%%%%%
     %                                                                      %
     % You are using vdW-DF, which was implemented by the Thonhauser group. %
     % Please cite the following two papers that made this development      %
     % possible and the two reviews that describe the various versions:     %
     %                                                                      %
     %   T. Thonhauser et al., PRL 115, 136402 (2015).                      %
     %   T. Thonhauser et al., PRB 76, 125112 (2007).                       %
     %   K. Berland et al., Rep. Prog. Phys. 78, 066501 (2015).             %
     %   D.C. Langreth et al., J. Phys.: Condens. Matter 21, 084203 (2009). %
     %                                                                      %
     %                                                                      %
     % If you are calculating the stress with vdW-DF, please also cite:     %
     %                                                                      %
     %   R. Sabatini et al., J. Phys.: Condens. Matter 24, 424209 (2012).   %
     %                                                                      %
     %%%%%%%%%%%%%%%%%%%%%%%%%%%%%%%%%%%%%%%%%%%%%%%%%%%%%%%%%%%%%%%%%%%%%%%%

     Adding external electric field

     Computed dipole along edir(3) :
        Dipole              -14.7651 Ry au,        -37.5293 Debye
        Dipole field         -0.0279 Ry au,

        Potential amp.        2.5829 Ry
        Total length         46.3494 bohr

     Starting wfcs are  307 atomic wfcs
  @ DRIVER MODE: Message from server: STATUS
  @ DRIVER MODE: Message from server: POSDATA
  @ DRIVER MODE: Reading and sharing cell
  @ DRIVER MODE: Reading and sharing positions
  @ DRIVER MODE: Received positions

     Self-consistent Calculation

     iteration #  1     ecut=    29.40 Ry     beta= 0.05
     Davidson diagonalization with overlap
     c_bands:  3 eigenvalues not converged
     c_bands:  4 eigenvalues not converged
     c_bands:  2 eigenvalues not converged
     c_bands:  3 eigenvalues not converged
     c_bands:  3 eigenvalues not converged
     c_bands:  3 eigenvalues not converged
     ethr =  1.00E-05,  avg # of iterations = 23.2

[...]

     total energy              =   -2204.24003150 Ry
     estimated scf accuracy    <    8785.85547108 Ry

     iteration #  2     ecut=    29.40 Ry     beta= 0.05
     Davidson diagonalization with overlap
     ethr =  1.00E-02,  avg # of iterations = 30.0

[...]

     iteration # 70     ecut=    29.40 Ry     beta= 0.05
     Davidson diagonalization with overlap
     c_bands:  1 eigenvalues not converged
     c_bands:  1 eigenvalues not converged
     ethr =  7.07E-10,  avg # of iterations = 17.6

[...]

     total energy              =   -2976.49808076 Ry
     estimated scf accuracy    <       0.00000044 Ry

     iteration # 75     ecut=    29.40 Ry     beta= 0.05
     Davidson diagonalization with overlap
     ethr =  1.08E-10,  avg # of iterations =  9.5

     negative rho (up, down):  1.443E-02 0.000E+00

     Adding external electric field

     Computed dipole along edir(3) :
        Dipole                0.9926 Ry au,          2.5230 Debye
        Dipole field          0.0019 Ry au,

        Potential amp.       -0.1736 Ry
        Total length         46.3494 bohr

     End of self-consistent calculation

          k = 0.0000 0.0000 0.0000 ( 18029 PWs)   bands (ev):

   -55.5819 -55.4986 -55.4646 -55.3640 -55.3424 -55.3265 -55.3127 -55.3060
   -55.2927 -55.2631 -55.2194 -55.0970 -55.0865 -55.0093 -54.4679 -54.4338
   -31.9832 -31.9184 -31.8777 -31.8301 -31.8284 -31.8093 -31.7988 -31.7895
   -31.7496 -31.7446 -31.7265 -31.6513 -31.6276 -31.6069 -31.6052 -31.6032
   -31.5975 -31.5855 -31.5831 -31.5562 -31.5499 -31.5248 -31.5240 -31.5124
   -31.4972 -31.4860 -31.4782 -31.4613 -31.4567 -31.4538 -31.4441 -31.4383
   -31.4344 -31.4151 -31.3732 -31.3712 -31.3010 -31.2936 -31.2799 -31.2590
   -31.2220 -31.2148 -30.8735 -30.7880 -30.7655 -30.6912 -30.6048 -30.4929
   -17.5684 -16.4006 -16.1395 -15.9769 -15.7611 -15.6757 -15.6472 -15.4547
   -15.3493 -15.2965 -15.1102 -15.0640 -15.0336 -15.0220 -15.0070 -14.9843
   -14.9643 -14.9262 -14.9179 -14.9076 -14.9020 -14.8633 -14.8409 -14.7903
   -14.7676 -14.7050 -14.6330 -14.5652 -14.5177 -14.2568 -14.2388 -12.9664
   -12.9524 -12.8501  -9.4660  -6.1475  -5.1958  -4.6166  -3.9622  -3.5044
    -3.4036  -3.3878  -3.3341  -3.2697  -3.1878  -2.9958  -2.8871  -2.8348
    -2.7325  -2.6252  -2.5701  -2.5065  -2.4764  -2.4292  -2.3973  -2.3846
    -2.3782  -2.2826  -2.2726  -2.2470  -2.2103  -2.1555  -2.1396  -2.0620
    -2.0257  -2.0171  -1.8926  -1.8802  -1.8144  -1.8101  -1.8037  -1.7700
    -1.7490  -1.7342  -1.7050  -1.6212  -1.5684  -1.4979  -1.4748  -1.4450
    -1.1859  -1.0943  -1.0566  -1.0288  -0.9309  -0.9127  -0.9002  -0.8976
    -0.8837  -0.8340  -0.7872  -0.7035  -0.5937  -0.5732  -0.5651  -0.5202
    -0.4548  -0.3728  -0.2998  -0.2702  -0.2330  -0.2196  -0.1536  -0.0761
    -0.0600  -0.0477   0.0610   0.0754   0.1577   0.2164   0.2303   0.2750
     0.3162   0.3490   0.4054   0.4418   0.4723   0.4780   0.5115   0.5560
     0.6118   0.6421   0.6700   0.7523   0.8079   0.8533   0.8810   1.0514
     1.0810   1.1338   1.1785   1.2659   1.5083   1.5585   1.5981   1.7530
     2.1249   2.1701   3.5861   3.7371   3.7522   3.8218   3.8469   3.9380
     4.0754   4.1430   4.2756   4.2834

[...]

          k = 0.0380-0.0419 0.0000 ( 17876 PWs)   bands (ev):

[...]

          k =-0.0760-0.0000 0.0000 ( 17886 PWs)   bands (ev):

[...]

          k =-0.0760-0.0839 0.0000 ( 17948 PWs)   bands (ev):

   -55.5812 -55.4817 -55.4814 -55.3628 -55.3293 -55.3190 -55.3133 -55.3096
   -55.3092 -55.2552 -55.2274 -55.0938 -55.0876 -55.0124 -54.4509 -54.4506
   -31.8657 -31.8079 -31.8032 -31.7986 -31.7984 -31.7837 -31.7751 -31.7748
   -31.7060 -31.6498 -31.6418 -31.6344 -31.6296 -31.6165 -31.6017 -31.6016
   -31.5993 -31.5991 -31.5847 -31.5743 -31.5667 -31.5583 -31.5371 -31.5189
   -31.5163 -31.5123 -31.5050 -31.5019 -31.4898 -31.4823 -31.4799 -31.4741
   -31.4688 -31.4503 -31.4445 -31.3672 -31.3557 -31.3412 -31.3029 -31.2976
   -31.2642 -31.2182 -30.7783 -30.7782 -30.6866 -30.6862 -30.6482 -30.6479
   -17.5623 -16.3865 -15.7478 -15.5695 -15.4735 -15.4670 -15.3362 -15.2704
   -15.2616 -15.2270 -15.2084 -15.1933 -15.1604 -15.1430 -15.1032 -15.0507
   -15.0173 -14.9947 -14.9830 -14.9460 -14.9334 -14.9114 -14.9041 -14.8955
   -14.8372 -14.8053 -14.7962 -14.7653 -14.5698 -14.5479 -14.3712 -12.9539
   -12.9521 -12.9519  -9.4635  -6.1326  -5.1980  -4.6269  -3.9582  -3.1933
    -2.9220  -2.7785  -2.7024  -2.5685  -2.5584  -2.5007  -2.4871  -2.4476
    -2.4386  -2.3983  -2.3443  -2.3281  -2.2852  -2.2794  -2.2497  -2.2366
    -2.2260  -2.2171  -2.1913  -2.1725  -2.1635  -2.1226  -2.1183  -2.1024
    -2.0816  -2.0664  -2.0388  -2.0277  -1.9874  -1.9480  -1.8826  -1.8090
    -1.7232  -1.6406  -1.6300  -1.6193  -1.5730  -1.5665  -1.5197  -1.5076
    -1.4603  -1.4085  -1.2954  -1.1723  -1.1324  -1.1062  -1.0741  -1.0413
    -0.9873  -0.9646  -0.9296  -0.8813  -0.8494  -0.7257  -0.7145  -0.6493
    -0.5635  -0.5311  -0.4556  -0.4424  -0.4277  -0.4116  -0.3898  -0.3730
    -0.3434  -0.3273  -0.2232  -0.1992  -0.1961  -0.1733  -0.1219  -0.0198
     0.0543   0.1372   0.2399   0.2895   0.3174   0.3511   0.4511   0.5691
     0.5943   0.6574   0.6893   0.7323   0.7993   0.8200   0.8680   0.9530
     1.0063   1.0389   1.0650   1.0700   1.1243   1.1481   1.9216   1.9301
     1.9903   1.9906   3.7996   4.0759   4.1015   4.1175   4.1547   4.1589
     4.1808   4.1954   4.2605   4.2756

     the Fermi energy is     3.6230 ev

!    total energy              =   -2976.49810012 Ry
     estimated scf accuracy    <       0.00000005 Ry
     smearing contrib. (-TS)   =      -0.01952964 Ry
     internal energy E=F+TS    =   -2976.47857047 Ry

     The total energy is F=E-TS. E is the sum of the following terms:
     one-electron contribution =  -23034.40692915 Ry
     hartree contribution      =   11613.55960253 Ry
     xc contribution           =    -495.70889191 Ry
     ewald contribution        =    8940.07578862 Ry
     electric field correction =       0.00185943 Ry

     convergence has been achieved in  75 iterations

     Forces acting on atoms (cartesian axes, Ry/au):

     atom    1 type  1   force =     0.00000743   -0.00022160    0.09406233
     atom    2 type  1   force =    -0.00015727    0.00025293   -0.17514425
     atom    3 type  2   force =     0.00007432   -0.00016316   -0.02115461
     atom    4 type  2   force =     0.00000362   -0.00104399    0.05354754
     atom    5 type  2   force =    -0.00455582   -0.00322409    0.00115641
     atom    6 type  2   force =     0.00661357   -0.00242404    0.00162071
     atom    7 type  1   force =     0.00037233    0.00456505    0.01038525
     atom    8 type  1   force =    -0.00056051    0.00198782    0.00313323
     atom    9 type  2   force =     0.00010372   -0.00049799   -0.00046665
     atom   10 type  2   force =    -0.00030782   -0.00004305   -0.01128794
     atom   11 type  2   force =    -0.00023276    0.00045364    0.00004331
     atom   12 type  2   force =    -0.00026857    0.00066883    0.00008036
     atom   13 type  1   force =     0.00061623   -0.00065137    0.00022710
     atom   14 type  1   force =    -0.00035992    0.00015987    0.00019579
     atom   15 type  2   force =    -0.00017335    0.00009591    0.00049765
     atom   16 type  2   force =     0.00004929   -0.00002612    0.00040055
     atom   17 type  2   force =    -0.00037625    0.00022775    0.00007925
     atom   18 type  2   force =     0.00003684    0.00007696    0.00024327
     atom   19 type  1   force =    -0.00012607    0.00055539   -0.00028218
     atom   20 type  1   force =     0.00000131   -0.00011241   -0.00012402
     atom   21 type  2   force =     0.00002806   -0.00001292    0.10310671
     atom   22 type  2   force =    -0.00009749   -0.00016254   -0.00033752
     atom   23 type  2   force =    -0.07213391   -0.00020711   -0.02724294
     atom   24 type  2   force =     0.07203893    0.00023570   -0.02732075
     atom   25 type  1   force =     0.00006983   -0.00034715    0.09404104
     atom   26 type  1   force =    -0.00000371   -0.00129153   -0.17517636
     atom   27 type  2   force =     0.00015352   -0.00021425   -0.01993572
     atom   28 type  2   force =     0.00008658   -0.00110934    0.04906631
     atom   29 type  2   force =    -0.00669180    0.00152641    0.00213004
     atom   30 type  2   force =     0.00855954    0.00170539    0.00250053
     atom   31 type  1   force =     0.00049873   -0.00020473    0.00053803
     atom   32 type  1   force =    -0.00020306   -0.00145732    0.00353015
     atom   33 type  2   force =    -0.00007821   -0.00001313   -0.00001649
     atom   34 type  2   force =    -0.00088879    0.00246218   -0.01149962
     atom   35 type  2   force =     0.00003368   -0.00042863    0.00048770
     atom   36 type  2   force =    -0.00052959   -0.00040654    0.00034316
     atom   37 type  1   force =     0.00037636    0.00029161    0.00001890
     atom   38 type  1   force =    -0.00038169    0.00022042    0.00031420
     atom   39 type  2   force =    -0.00051299    0.00043570    0.00045072
     atom   40 type  2   force =    -0.00001903   -0.00008130   -0.00008447
     atom   41 type  2   force =    -0.00037309   -0.00027239    0.00026843
     atom   42 type  2   force =    -0.00019974   -0.00021768   -0.00031835
     atom   43 type  1   force =    -0.00006118   -0.00038343    0.00070653
     atom   44 type  1   force =    -0.00013951    0.00016037    0.00011160
     atom   45 type  2   force =     0.00002190   -0.00001713    0.10296548
     atom   46 type  2   force =    -0.07214048   -0.00008911   -0.02724131
     atom   47 type  2   force =     0.07199331    0.00034758   -0.02728254
     atom   48 type  3   force =     0.00044225    0.00318028    0.00222212
     atom   49 type  3   force =    -0.00087906    0.00061653    0.00054585
     atom   50 type  4   force =    -0.00096772   -0.01960749    0.00209136
     atom   51 type  5   force =    -0.00442042    0.00684003   -0.00161973
     atom   52 type  5   force =     0.00227312    0.00503764   -0.00376813
     atom   53 type  5   force =     0.00341640    0.00261565    0.00143013
     atom   54 type  5   force =     0.00018633    0.00002473   -0.00074654
     atom   55 type  5   force =    -0.00016845    0.00035618    0.00049729
     atom   56 type  5   force =     0.00039616   -0.00009749   -0.00110882
     atom   57 type  2   force =    -0.00020653    0.00054181   -0.00069879
     atom   58 type  5   force =    -0.00023859   -0.00061332   -0.00018128

     Total force =     0.362438     Total SCF correction =     0.000523
  @ DRIVER MODE: Message from server: STATUS
  @ DRIVER MODE: Message from server: GETFORCE
  @ DRIVER MODE: Returning v,forces,stress,ensemble

     Writing output data file ./calc.save/
  @ DRIVER MODE: Message from server: EXIT
  @ DRIVE MODE: Exiting

     General routines

     Parallel routines

   This run was terminated on:  17:31: 0  23Sep2021

   JOB DONE.