     Program PWSCF v.6.7GPU starts on 22Sep2021 at 19:38:23

     R & G space division:  proc/nbgrp/npool/nimage =      10
     Reading input from /storage/home/hcoda1/3/ntian30/research/carbon/CxH_vib/H2O_calc/ads_slab/CH2NHHHO_a/out_0009/pw.inp
Warning: card &CELL ignored
Warning: card   CELL_DYNAMICS='IPI', ignored
Warning: card / ignored

     Current dimensions of program PWSCF are:
     Max number of different atomic species (ntypx) = 10
     Max number of k-points (npk) =  40000
     Max angular momentum in pseudopotentials (lmaxx) =  3
     Presently no symmetry can be used with electric field

     Message from routine cell_base_init:
     DEPRECATED: use true lattice parameter, not A to a.u. conversion factor

     IMPORTANT: XC functional enforced from input :
     Exchange-correlation= BEEF-VDW
                           (   1   4  43  14   2   0   0)
     Any further DFT definition will be discarded
     Please, verify this is what you really want

  @ DRIVER MODE: Connecting to
 qe_1139763_2937325.sched-torque.pace.gatech.edux6s4rhkc_scratch
  using UNIX socket
  @ DRIVER MODE: Message from server: STATUS
  @ DRIVER MODE: Message from server: INIT
  @ DRIVER MODE: Receiving replica           0          -1
  @ DRIVER MODE: Receiving encoded integer          25
  @ DRIVER MODE:  SCF:  T  FORCE:  T  STRESS:  F  VC:  F  ENSEMBLE:  F
  @ DRIVER MODE:  SCF:  T  FORCE:  T  STRESS:  F  VC:  F  ENSEMBLE:  F

     Using Slab Decomposition

     bravais-lattice index     =            0
     lattice parameter (alat)  =       1.8897  a.u.
     unit-cell volume          =    6658.9804 (a.u.)^3
     number of atoms/cell      =           55
     number of atomic types    =            5
     number of electrons       =       398.00
     number of Kohn-Sham states=          209
     kinetic-energy cutoff     =      29.3995  Ry
     charge density cutoff     =     293.9946  Ry
     scf convergence threshold =      7.3E-08
     mixing beta               =       0.0500
     number of iterations used =            8  plain     mixing
     Exchange-correlation= BEEF-VDW
                           (   1   4  43  14   2   0   0)

     celldm(1)=   1.889726  celldm(2)=   0.000000  celldm(3)=   0.000000
     celldm(4)=   0.000000  celldm(5)=   0.000000  celldm(6)=   0.000000

     crystal axes: (cart. coord. in units of alat)
               a(1) = (   6.579727   0.000000   0.000000 )
               a(2) = (  -0.000775   5.961596   0.000000 )
               a(3) = (   0.000000   0.000000  25.155947 )

     reciprocal axes: (cart. coord. in units 2 pi/alat)
               b(1) = (  0.151982  0.000020  0.000000 )
               b(2) = (  0.000000  0.167740  0.000000 )
               b(3) = (  0.000000  0.000000  0.039752 )

     PseudoPot. # 1 for Ti read from file:
     /storage/coda1/p-amedford6/0/shared/rich_project_chbe-medford/medford-share/data/pseudos_module/espresso/nninc/pbe/van/Ti.UPF
     MD5 check sum: 8e4df49b7f0d34bbd5052bf3f5ea0213
     Pseudo is Ultrasoft, Zval = 12.0
     Generated by new atomic code, or converted to UPF format
     Using radial grid of  851 points,  6 beta functions with:
                l(1) =   0
                l(2) =   0
                l(3) =   1
                l(4) =   1
                l(5) =   2
                l(6) =   2
     Q(r) pseudized with  8 coefficients,  rinner =    1.000   1.000   1.000
                                                       1.000   1.000

     PseudoPot. # 2 for O  read from file:
     /storage/coda1/p-amedford6/0/shared/rich_project_chbe-medford/medford-share/data/pseudos_module/espresso/nninc/pbe/van/O.UPF
     MD5 check sum: 78c19812648e8988a0fe644b0f25305e
     Pseudo is Ultrasoft, Zval =  6.0
     Generated by new atomic code, or converted to UPF format
     Using radial grid of  737 points,  4 beta functions with:
                l(1) =   0
                l(2) =   0
                l(3) =   1
                l(4) =   1
     Q(r) pseudized with  8 coefficients,  rinner =    0.800   0.800   0.800

     PseudoPot. # 3 for N  read from file:
     /storage/coda1/p-amedford6/0/shared/rich_project_chbe-medford/medford-share/data/pseudos_module/espresso/nninc/pbe/van/N.UPF
     MD5 check sum: 90d10febe142ad51ac9d5be1deb811c4
     Pseudo is Ultrasoft, Zval =  5.0
     Generated by new atomic code, or converted to UPF format
     Using radial grid of  729 points,  4 beta functions with:
                l(1) =   0
                l(2) =   0
                l(3) =   1
                l(4) =   1
     Q(r) pseudized with  8 coefficients,  rinner =    0.800   0.800   0.800

     PseudoPot. # 4 for C  read from file:
     /storage/coda1/p-amedford6/0/shared/rich_project_chbe-medford/medford-share/data/pseudos_module/espresso/nninc/pbe/van/C.UPF
     MD5 check sum: 1a69bf6b8db32088f5b2163dbdb77a27
     Pseudo is Ultrasoft, Zval =  4.0
     Generated by new atomic code, or converted to UPF format
     Using radial grid of  721 points,  4 beta functions with:
                l(1) =   0
                l(2) =   0
                l(3) =   1
                l(4) =   1
     Q(r) pseudized with  8 coefficients,  rinner =    0.800   0.800   0.800

     PseudoPot. # 5 for H  read from file:
     /storage/coda1/p-amedford6/0/shared/rich_project_chbe-medford/medford-share/data/pseudos_module/espresso/nninc/pbe/van/H.UPF
     MD5 check sum: b5ee9d7bfd3a09ee7748110bda690ff7
     Pseudo is Ultrasoft, Zval =  1.0
     Generated by new atomic code, or converted to UPF format
     Using radial grid of  615 points,  1 beta functions with:
                l(1) =   0
     Q(r) pseudized with  8 coefficients,  rinner =    0.800

     atomic species   valence    mass     pseudopotential
        Ti1           12.00    47.86700     Ti( 1.00)
        O1             6.00    15.99900     O ( 1.00)
        N1             5.00    14.00700     N ( 1.00)
        C1             4.00    12.01100     C ( 1.00)
        H1             1.00     1.00800     H ( 1.00)

     No symmetry found

   Cartesian axes

     site n.     atom                  positions (alat units)
         1           Ti1 tau(   1) = (   0.0004258   2.9801865   6.0000000  )
         2           Ti1 tau(   2) = (   3.2906075   1.4906267   6.0002472  )
         3           O1  tau(   3) = (   0.0006271   0.0005054   7.9858123  )
         4           O1  tau(   4) = (   3.2906025   0.0005020   7.3038282  )
         5           O1  tau(   5) = (   4.5942328   1.4918067   9.2879030  )
         6           O1  tau(   6) = (   1.9868534   1.4903216   9.2879459  )
         7           Ti1 tau(   7) = (   3.2907910   2.8959150   9.1758416  )
         8           Ti1 tau(   8) = (   0.0015273   1.4827037   9.2680791  )
         9           O1  tau(   9) = (   3.3134935   5.9450930  11.3716456  )
        10           O1  tau(  10) = (   0.0116148   5.9584955  10.6183126  )
        11           O1  tau(  11) = (   1.3009377   1.4930576  12.6823270  )
        12           O1  tau(  12) = (   5.3410967   1.4903504  12.6863499  )
        13           Ti1 tau(  13) = (   0.0342001   2.9430440  12.5112676  )
        14           Ti1 tau(  14) = (   3.3297267   1.2953541  12.7310232  )
        15           O1  tau(  15) = (   0.0493764   5.9086628  14.6689690  )
        16           O1  tau(  16) = (   3.3288597   0.0714287  14.0177558  )
        17           O1  tau(  17) = (   4.6153468   1.5975901  16.1787110  )
        18           O1  tau(  18) = (   2.0592605   1.5839887  16.0909148  )
        19           Ti1 tau(  19) = (   3.3163104   3.0362344  15.7082748  )
        20           Ti1 tau(  20) = (   0.1120434   1.3330501  15.8434463  )
        21           O1  tau(  21) = (   3.2904802   0.0005063   4.7018136  )
        22           O1  tau(  22) = (   0.0690725   0.1374024  17.2087871  )
        23           O1  tau(  23) = (   1.3043587   1.4918075   6.0039043  )
        24           O1  tau(  24) = (   5.2767064   1.4903225   6.0039473  )
        25           Ti1 tau(  25) = (   0.0000382   5.9609847   6.0000000  )
        26           Ti1 tau(  26) = (   3.2902200   4.4714249   6.0002472  )
        27           O1  tau(  27) = (   0.0002396   2.9813036   7.9858123  )
        28           O1  tau(  28) = (   3.2902150   2.9813002   7.3038282  )
        29           O1  tau(  29) = (   4.5938453   4.4726049   9.2879030  )
        30           O1  tau(  30) = (   1.9864658   4.4711199   9.2879459  )
        31           Ti1 tau(  31) = (   3.2891106   5.8743827   9.1763621  )
        32           Ti1 tau(  32) = (   0.0006254   4.4649316   9.2693709  )
        33           O1  tau(  33) = (   3.3165203   3.0043058  11.3207354  )
        34           O1  tau(  34) = (   0.0092240   2.9805883  10.6323155  )
        35           O1  tau(  35) = (   1.3050136   4.4578615  12.6552238  )
        36           O1  tau(  36) = (   5.3353050   4.4620295  12.6594116  )
        37           Ti1 tau(  37) = (   0.0330755   5.9154870  12.5003292  )
        38           Ti1 tau(  38) = (   3.3291962   4.3779952  12.4454333  )
        39           O1  tau(  39) = (   0.0233967   3.0352723  14.9286183  )
        40           O1  tau(  40) = (   3.3272303   3.0068708  13.9347379  )
        41           O1  tau(  41) = (   4.5962338   4.4808180  16.1645836  )
        42           O1  tau(  42) = (   2.0526765   4.4464907  16.1857218  )
        43           Ti1 tau(  43) = (   3.4309460   0.0633718  16.3216252  )
        44           Ti1 tau(  44) = (   0.1034465   4.5521166  15.9739525  )
        45           O1  tau(  45) = (   3.2900926   2.9813045   4.7018136  )
        46           O1  tau(  46) = (   1.3039711   4.4726057   6.0039043  )
        47           O1  tau(  47) = (   5.2763189   4.4711207   6.0039473  )
        48           N1  tau(  48) = (   6.1597698   3.4535781  18.2989460  )
        49           C1  tau(  49) = (   0.6557129   3.1370513  19.0816575  )
        50           H1  tau(  50) = (   1.2037892   3.9510289  19.5415217  )
        51           H1  tau(  51) = (   1.0557295   2.1499681  19.0337936  )
        52           H1  tau(  52) = (   5.6880836   4.3337965  18.4846543  )
        53           H1  tau(  53) = (   5.5056413   2.7003945  18.1017309  )
        54           O1  tau(  54) = (   3.2744276   0.0793712  18.1757868  )
        55           H1  tau(  55) = (   2.3604784   5.9194474  18.4805682  )

     number of k points=    10  Fermi-Dirac smearing, width (Ry)=  0.0073
                       cart. coord. in units 2pi/alat
        k(    1) = (   0.0000000   0.0000000   0.0000000), wk =   0.1250000
        k(    2) = (   0.0000000   0.0419351   0.0000000), wk =   0.2500000
        k(    3) = (   0.0000000  -0.0838702   0.0000000), wk =   0.1250000
        k(    4) = (   0.0379955   0.0000049   0.0000000), wk =   0.2500000
        k(    5) = (   0.0379955   0.0419400   0.0000000), wk =   0.2500000
        k(    6) = (   0.0379955  -0.0838652   0.0000000), wk =   0.2500000
        k(    7) = (   0.0379955  -0.0419301   0.0000000), wk =   0.2500000
        k(    8) = (  -0.0759910  -0.0000099   0.0000000), wk =   0.1250000
        k(    9) = (  -0.0759910   0.0419252   0.0000000), wk =   0.2500000
        k(   10) = (  -0.0759910  -0.0838800   0.0000000), wk =   0.1250000

     Initial potential from superposition of free atoms

     starting charge  381.99915, renormalised to  398.00000

     negative rho (up, down):  1.644E-02 0.000E+00

     %%%%%%%%%%%%%%%%%%%%%%%%%%%%%%%%%%%%%%%%%%%%%%%%%%%%%%%%%%%%%%%%%%%%%%%%
     %                                                                      %
     % You are using vdW-DF, which was implemented by the Thonhauser group. %
     % Please cite the following two papers that made this development      %
     % possible and the two reviews that describe the various versions:     %
     %                                                                      %
     %   T. Thonhauser et al., PRL 115, 136402 (2015).                      %
     %   T. Thonhauser et al., PRB 76, 125112 (2007).                       %
     %   K. Berland et al., Rep. Prog. Phys. 78, 066501 (2015).             %
     %   D.C. Langreth et al., J. Phys.: Condens. Matter 21, 084203 (2009). %
     %                                                                      %
     %                                                                      %
     % If you are calculating the stress with vdW-DF, please also cite:     %
     %                                                                      %
     %   R. Sabatini et al., J. Phys.: Condens. Matter 24, 424209 (2012).   %
     %                                                                      %
     %%%%%%%%%%%%%%%%%%%%%%%%%%%%%%%%%%%%%%%%%%%%%%%%%%%%%%%%%%%%%%%%%%%%%%%%

     Adding external electric field

     Computed dipole along edir(3) :
        Dipole              -10.2322 Ry au,        -26.0075 Debye
        Dipole field         -0.0193 Ry au,

        Potential amp.        1.7900 Ry
        Total length         46.3494 bohr

     Starting wfcs are  301 atomic wfcs
  @ DRIVER MODE: Message from server: STATUS
  @ DRIVER MODE: Message from server: POSDATA
  @ DRIVER MODE: Reading and sharing cell
  @ DRIVER MODE: Reading and sharing positions
  @ DRIVER MODE: Received positions

     Self-consistent Calculation

     iteration #  1     ecut=    29.40 Ry     beta= 0.05
     Davidson diagonalization with overlap
     c_bands:  1 eigenvalues not converged
     c_bands:  3 eigenvalues not converged
     c_bands:  2 eigenvalues not converged
     c_bands:  1 eigenvalues not converged
     c_bands:  4 eigenvalues not converged
     c_bands:  4 eigenvalues not converged
     c_bands:  4 eigenvalues not converged
     c_bands:  2 eigenvalues not converged
     c_bands:  3 eigenvalues not converged
     c_bands:  4 eigenvalues not converged
     ethr =  1.00E-05,  avg # of iterations = 20.0

[...]

     total energy              =   -2477.33592155 Ry
     estimated scf accuracy    <    5313.88874802 Ry

     iteration #  2     ecut=    29.40 Ry     beta= 0.05
     Davidson diagonalization with overlap
     ethr =  1.00E-02,  avg # of iterations = 23.9

[...]

     iteration # 40     ecut=    29.40 Ry     beta= 0.05
     Davidson diagonalization with overlap
     c_bands:  1 eigenvalues not converged
     c_bands:  1 eigenvalues not converged
     ethr =  2.67E-07,  avg # of iterations = 15.3

[...]

     total energy              =   -2953.88642739 Ry
     estimated scf accuracy    <       0.00000014 Ry

     iteration # 64     ecut=    29.40 Ry     beta= 0.05
     Davidson diagonalization with overlap
     ethr =  3.41E-11,  avg # of iterations =  4.5

     negative rho (up, down):  1.575E-02 0.000E+00

     Adding external electric field

     Computed dipole along edir(3) :
        Dipole                0.8504 Ry au,          2.1616 Debye
        Dipole field          0.0016 Ry au,

        Potential amp.       -0.1488 Ry
        Total length         46.3494 bohr

     End of self-consistent calculation

          k = 0.0000 0.0000 0.0000 ( 18029 PWs)   bands (ev):

   -55.7681 -55.7161 -55.6821 -55.5848 -55.5461 -55.5452 -55.5304 -55.5115
   -55.5027 -55.4517 -55.4517 -55.3399 -55.3098 -55.2668 -54.6945 -54.6604
   -32.2020 -32.0868 -32.0698 -32.0628 -32.0488 -32.0346 -32.0066 -31.9856
   -31.9833 -31.9619 -31.9467 -31.8688 -31.8537 -31.8531 -31.8316 -31.8246
   -31.8239 -31.7941 -31.7737 -31.7473 -31.7468 -31.7386 -31.7290 -31.7257
   -31.7239 -31.7176 -31.6893 -31.6802 -31.6722 -31.6708 -31.6627 -31.6587
   -31.6477 -31.6393 -31.6175 -31.6077 -31.5342 -31.5304 -31.5123 -31.4794
   -31.4714 -31.4624 -31.1006 -31.0138 -30.9914 -30.9182 -30.8317 -30.7199
   -16.8590 -16.6114 -16.3805 -16.2148 -15.9921 -15.9399 -15.8795 -15.7073
   -15.5922 -15.5370 -15.3514 -15.2832 -15.2562 -15.2434 -15.2379 -15.2216
   -15.2084 -15.1655 -15.1478 -15.1458 -15.1401 -15.1055 -15.0782 -15.0368
   -14.9890 -14.9542 -14.8580 -14.8028 -14.7630 -14.5184 -14.4837 -13.1930
   -13.0765  -9.7951  -7.0504  -5.3178  -4.1420  -3.7439  -3.6305  -3.6196
    -3.5575  -3.5033  -3.3448  -3.2254  -3.1434  -3.1278  -2.9757  -2.8621
    -2.8158  -2.7500  -2.7104  -2.6753  -2.6389  -2.6269  -2.5955  -2.5047
    -2.4819  -2.4676  -2.4055  -2.3813  -2.3094  -2.2890  -2.2594  -2.2456
    -2.1396  -2.0871  -2.0538  -2.0457  -2.0294  -2.0011  -1.9744  -1.9672
    -1.9396  -1.8558  -1.8020  -1.7467  -1.7197  -1.7043  -1.4008  -1.3293
    -1.2940  -1.2566  -1.1671  -1.1488  -1.1145  -1.0952  -1.0795  -1.0726
    -0.9581  -0.8894  -0.8309  -0.8016  -0.7577  -0.7243  -0.6126  -0.5592
    -0.5095  -0.4692  -0.4560  -0.4321  -0.3446  -0.3179  -0.3024  -0.2003
    -0.1581  -0.0934  -0.0231  -0.0095   0.0404   0.0697   0.1086   0.1445
     0.2023   0.2352   0.2525   0.2969   0.3358   0.3466   0.4045   0.4211
     0.5168   0.6010   0.6200   0.6916   0.7801   0.8269   0.9447   1.0078
     1.2783   1.3323   1.3455   1.5238   1.8996   1.9452   3.3612   3.3986
     3.5145   3.5276   3.6039   3.6146   3.6992   3.8546   3.9040   4.0147
     4.1620

[...]

          k = 0.0380-0.0419 0.0000 ( 17876 PWs)   bands (ev):

[...]

          k =-0.0760-0.0000 0.0000 ( 17886 PWs)   bands (ev):

[...]

          k =-0.0760-0.0839 0.0000 ( 17948 PWs)   bands (ev):

   -55.7673 -55.6992 -55.6988 -55.5741 -55.5563 -55.5310 -55.5289 -55.5277
   -55.4965 -55.4580 -55.4492 -55.3361 -55.3122 -55.2705 -54.6778 -54.6769
   -32.0321 -32.0174 -32.0171 -32.0159 -31.9923 -31.9918 -31.9873 -31.9756
   -31.9171 -31.8919 -31.8743 -31.8614 -31.8568 -31.8366 -31.8214 -31.8193
   -31.8186 -31.8156 -31.8119 -31.8067 -31.7814 -31.7552 -31.7465 -31.7400
   -31.7316 -31.7301 -31.7144 -31.7136 -31.7121 -31.7036 -31.7031 -31.6823
   -31.6810 -31.6765 -31.6460 -31.6154 -31.5968 -31.5588 -31.5382 -31.5325
   -31.5200 -31.4750 -31.0045 -31.0038 -30.9141 -30.9128 -30.8753 -30.8746
   -16.8398 -16.6012 -16.0532 -15.8040 -15.7123 -15.7020 -15.5697 -15.5022
   -15.4915 -15.4496 -15.4291 -15.4076 -15.4014 -15.3773 -15.3359 -15.2832
   -15.2534 -15.2269 -15.2206 -15.1810 -15.1736 -15.1548 -15.1526 -15.1310
   -15.0809 -15.0402 -15.0267 -15.0103 -14.8264 -14.7715 -14.6419 -13.1785
   -13.1780  -9.7956  -7.0423  -5.3025  -4.1270  -3.3707  -3.1776  -3.0145
    -2.9435  -2.8798  -2.7942  -2.7512  -2.7332  -2.6917  -2.6678  -2.6460
    -2.5664  -2.5507  -2.5220  -2.5112  -2.4815  -2.4668  -2.4604  -2.4506
    -2.4069  -2.3980  -2.3873  -2.3560  -2.3483  -2.3377  -2.2987  -2.2767
    -2.2673  -2.2560  -2.2072  -2.1820  -2.1037  -2.0658  -1.9691  -1.8864
    -1.8759  -1.8527  -1.8051  -1.7934  -1.7510  -1.7347  -1.6911  -1.6158
    -1.5320  -1.4642  -1.3537  -1.3104  -1.2989  -1.2401  -1.2225  -1.1661
    -1.1322  -1.0998  -1.0712  -0.9717  -0.9392  -0.8822  -0.7662  -0.7023
    -0.6899  -0.6671  -0.6565  -0.6207  -0.6000  -0.5853  -0.5541  -0.4719
    -0.4346  -0.4195  -0.4103  -0.3736  -0.2477  -0.1255  -0.0812  -0.0207
     0.0442   0.0605   0.1147   0.1548   0.3093   0.3433   0.4398   0.4545
     0.4757   0.5886   0.5962   0.6775   0.7199   0.7639   0.7920   0.8247
     0.8294   0.8689   1.6935   1.7020   1.7655   1.7656   3.3702   3.7426
     3.8456   3.8616   3.8789   3.9200   3.9337   3.9629   3.9687   4.0325
     4.0482

     the Fermi energy is     3.4033 ev

!    total energy              =   -2953.88646545 Ry
     estimated scf accuracy    <       0.00000005 Ry
     smearing contrib. (-TS)   =      -0.02905898 Ry
     internal energy E=F+TS    =   -2953.85740647 Ry

     The total energy is F=E-TS. E is the sum of the following terms:
     one-electron contribution =  -23669.67476246 Ry
     hartree contribution      =   11925.76631627 Ry
     xc contribution           =    -488.85115864 Ry
     ewald contribution        =    9278.90083356 Ry
     electric field correction =       0.00136481 Ry

     convergence has been achieved in  64 iterations

     Forces acting on atoms (cartesian axes, Ry/au):

     atom    1 type  1   force =    -0.00001907   -0.00029396    0.09377575
     atom    2 type  1   force =    -0.00009470    0.00049430   -0.17552856
     atom    3 type  2   force =     0.00011172   -0.00024452   -0.02088367
     atom    4 type  2   force =     0.00001231   -0.00197774    0.05496338
     atom    5 type  2   force =    -0.00644558   -0.00243799    0.00277518
     atom    6 type  2   force =     0.00860452   -0.00176930    0.00361501
     atom    7 type  1   force =     0.00058975   -0.00335339    0.00971140
     atom    8 type  1   force =    -0.00066502    0.00046911    0.00111323
     atom    9 type  2   force =    -0.00001316    0.00059062   -0.00098046
     atom   10 type  2   force =    -0.00024925    0.00115567   -0.00783231
     atom   11 type  2   force =    -0.00013677   -0.00001470    0.00014974
     atom   12 type  2   force =    -0.00040256   -0.00018096    0.00001150
     atom   13 type  1   force =    -0.00028455    0.00002039   -0.00038430
     atom   14 type  1   force =    -0.00061050    0.00042436    0.00043929
     atom   15 type  2   force =    -0.00003950    0.00106506   -0.00009287
     atom   16 type  2   force =    -0.00008275    0.00008681   -0.00025478
     atom   17 type  2   force =    -0.00051180    0.00047243   -0.00044562
     atom   18 type  2   force =     0.00019955    0.00069156   -0.00025835
     atom   19 type  1   force =     0.00006635   -0.00018538    0.00070758
     atom   20 type  1   force =    -0.00015783   -0.00051988    0.00023105
     atom   21 type  2   force =     0.00001643    0.00008391    0.10330596
     atom   22 type  2   force =    -0.00008521    0.00028549   -0.00020752
     atom   23 type  2   force =    -0.07187274   -0.00017621   -0.02714502
     atom   24 type  2   force =     0.07174115    0.00029675   -0.02722360
     atom   25 type  1   force =     0.00008857   -0.00019584    0.09357492
     atom   26 type  1   force =    -0.00025833   -0.00138398   -0.17565922
     atom   27 type  2   force =     0.00015227   -0.00016149   -0.01963228
     atom   28 type  2   force =     0.00011075   -0.00028456    0.05020344
     atom   29 type  2   force =    -0.00550880    0.00259658    0.00166855
     atom   30 type  2   force =     0.00765630    0.00269005    0.00256136
     atom   31 type  1   force =     0.00071209    0.00799173   -0.00203850
     atom   32 type  1   force =    -0.00071321   -0.00207148    0.00021414
     atom   33 type  2   force =    -0.00017044   -0.00072510   -0.00012548
     atom   34 type  2   force =     0.00011466   -0.00173160   -0.00875683
     atom   35 type  2   force =    -0.00005788   -0.00011792   -0.00060106
     atom   36 type  2   force =    -0.00017906   -0.00019083   -0.00040811
     atom   37 type  1   force =     0.00044390    0.00066521   -0.00066703
     atom   38 type  1   force =    -0.00062836   -0.00052837    0.00023609
     atom   39 type  2   force =    -0.00003232    0.00013203    0.00016618
     atom   40 type  2   force =     0.00011337    0.00002452    0.00060304
     atom   41 type  2   force =    -0.00061945   -0.00019268    0.00001775
     atom   42 type  2   force =     0.00062921    0.00008967   -0.00075458
     atom   43 type  1   force =    -0.00021832    0.00049956   -0.00005965
     atom   44 type  1   force =    -0.00001503   -0.00126118    0.00042454
     atom   45 type  2   force =     0.00001923   -0.00005626    0.10309059
     atom   46 type  2   force =    -0.07188380   -0.00002062   -0.02715852
     atom   47 type  2   force =     0.07178998    0.00040002   -0.02724587
     atom   48 type  3   force =     0.00234010   -0.00503620   -0.00009323
     atom   49 type  4   force =    -0.00134866    0.02541693    0.00456709
     atom   50 type  5   force =    -0.00412153   -0.00833985   -0.00323105
     atom   51 type  5   force =     0.00385671   -0.01268125   -0.00058722
     atom   52 type  5   force =     0.00087319    0.00051092    0.00043812
     atom   53 type  5   force =    -0.00133292   -0.00061972   -0.00055705
     atom   54 type  2   force =    -0.00130650   -0.00058175   -0.00068180
     atom   55 type  5   force =    -0.00017650    0.00018104    0.00092966

     Total force =     0.363389     Total SCF correction =     0.000590
  @ DRIVER MODE: Message from server: STATUS
  @ DRIVER MODE: Message from server: GETFORCE
  @ DRIVER MODE: Returning v,forces,stress,ensemble

     Writing output data file ./calc.save/
  @ DRIVER MODE: Message from server: EXIT
  @ DRIVE MODE: Exiting

     General routines

     Parallel routines

   This run was terminated on:  19:56: 6  22Sep2021

   JOB DONE.