     Program PWSCF v.6.7GPU starts on 23Sep2021 at  7: 4:40

     R & G space division:  proc/nbgrp/npool/nimage =      10
     Reading input from /storage/home/hcoda1/3/ntian30/research/carbon/CxH_vib/H2O_calc/ads_slab/CHNNHHHO_a/out_0045/pw.inp
Warning: card &CELL ignored
Warning: card   CELL_DYNAMICS='IPI', ignored
Warning: card / ignored

     Current dimensions of program PWSCF are:
     Max number of different atomic species (ntypx) = 10
     Max number of k-points (npk) =  40000
     Max angular momentum in pseudopotentials (lmaxx) =  3
     Presently no symmetry can be used with electric field

     Message from routine cell_base_init:
     DEPRECATED: use true lattice parameter, not A to a.u. conversion factor

     IMPORTANT: XC functional enforced from input :
     Exchange-correlation= BEEF-VDW
                           (   1   4  43  14   2   0   0)
     Any further DFT definition will be discarded
     Please, verify this is what you really want

  @ DRIVER MODE: Connecting to
 qe_1139763_2937315.sched-torque.pace.gatech.edueyezzq7h_scratch
  using UNIX socket
  @ DRIVER MODE: Message from server: STATUS
  @ DRIVER MODE: Message from server: INIT
  @ DRIVER MODE: Receiving replica           0          -1
  @ DRIVER MODE: Receiving encoded integer          25
  @ DRIVER MODE:  SCF:  T  FORCE:  T  STRESS:  F  VC:  F  ENSEMBLE:  F
  @ DRIVER MODE:  SCF:  T  FORCE:  T  STRESS:  F  VC:  F  ENSEMBLE:  F

     Using Slab Decomposition

     bravais-lattice index     =            0
     lattice parameter (alat)  =       1.8897  a.u.
     unit-cell volume          =    6658.9804 (a.u.)^3
     number of atoms/cell      =           55
     number of atomic types    =            5
     number of electrons       =       402.00
     number of Kohn-Sham states=          211
     kinetic-energy cutoff     =      29.3995  Ry
     charge density cutoff     =     293.9946  Ry
     scf convergence threshold =      7.3E-08
     mixing beta               =       0.0500
     number of iterations used =            8  plain     mixing
     Exchange-correlation= BEEF-VDW
                           (   1   4  43  14   2   0   0)

     celldm(1)=   1.889726  celldm(2)=   0.000000  celldm(3)=   0.000000
     celldm(4)=   0.000000  celldm(5)=   0.000000  celldm(6)=   0.000000

     crystal axes: (cart. coord. in units of alat)
               a(1) = (   6.579727   0.000000   0.000000 )
               a(2) = (  -0.000775   5.961596   0.000000 )
               a(3) = (   0.000000   0.000000  25.155947 )

     reciprocal axes: (cart. coord. in units 2 pi/alat)
               b(1) = (  0.151982  0.000020  0.000000 )
               b(2) = (  0.000000  0.167740  0.000000 )
               b(3) = (  0.000000  0.000000  0.039752 )

     PseudoPot. # 1 for Ti read from file:
     /storage/coda1/p-amedford6/0/shared/rich_project_chbe-medford/medford-share/data/pseudos_module/espresso/nninc/pbe/van/Ti.UPF
     MD5 check sum: 8e4df49b7f0d34bbd5052bf3f5ea0213
     Pseudo is Ultrasoft, Zval = 12.0
     Generated by new atomic code, or converted to UPF format
     Using radial grid of  851 points,  6 beta functions with:
                l(1) =   0
                l(2) =   0
                l(3) =   1
                l(4) =   1
                l(5) =   2
                l(6) =   2
     Q(r) pseudized with  8 coefficients,  rinner =    1.000   1.000   1.000
                                                       1.000   1.000

     PseudoPot. # 2 for O  read from file:
     /storage/coda1/p-amedford6/0/shared/rich_project_chbe-medford/medford-share/data/pseudos_module/espresso/nninc/pbe/van/O.UPF
     MD5 check sum: 78c19812648e8988a0fe644b0f25305e
     Pseudo is Ultrasoft, Zval =  6.0
     Generated by new atomic code, or converted to UPF format
     Using radial grid of  737 points,  4 beta functions with:
                l(1) =   0
                l(2) =   0
                l(3) =   1
                l(4) =   1
     Q(r) pseudized with  8 coefficients,  rinner =    0.800   0.800   0.800

     PseudoPot. # 3 for N  read from file:
     /storage/coda1/p-amedford6/0/shared/rich_project_chbe-medford/medford-share/data/pseudos_module/espresso/nninc/pbe/van/N.UPF
     MD5 check sum: 90d10febe142ad51ac9d5be1deb811c4
     Pseudo is Ultrasoft, Zval =  5.0
     Generated by new atomic code, or converted to UPF format
     Using radial grid of  729 points,  4 beta functions with:
                l(1) =   0
                l(2) =   0
                l(3) =   1
                l(4) =   1
     Q(r) pseudized with  8 coefficients,  rinner =    0.800   0.800   0.800

     PseudoPot. # 4 for C  read from file:
     /storage/coda1/p-amedford6/0/shared/rich_project_chbe-medford/medford-share/data/pseudos_module/espresso/nninc/pbe/van/C.UPF
     MD5 check sum: 1a69bf6b8db32088f5b2163dbdb77a27
     Pseudo is Ultrasoft, Zval =  4.0
     Generated by new atomic code, or converted to UPF format
     Using radial grid of  721 points,  4 beta functions with:
                l(1) =   0
                l(2) =   0
                l(3) =   1
                l(4) =   1
     Q(r) pseudized with  8 coefficients,  rinner =    0.800   0.800   0.800

     PseudoPot. # 5 for H  read from file:
     /storage/coda1/p-amedford6/0/shared/rich_project_chbe-medford/medford-share/data/pseudos_module/espresso/nninc/pbe/van/H.UPF
     MD5 check sum: b5ee9d7bfd3a09ee7748110bda690ff7
     Pseudo is Ultrasoft, Zval =  1.0
     Generated by new atomic code, or converted to UPF format
     Using radial grid of  615 points,  1 beta functions with:
                l(1) =   0
     Q(r) pseudized with  8 coefficients,  rinner =    0.800

     atomic species   valence    mass     pseudopotential
        Ti1           12.00    47.86700     Ti( 1.00)
        O1             6.00    15.99900     O ( 1.00)
        N1             5.00    14.00700     N ( 1.00)
        C1             4.00    12.01100     C ( 1.00)
        H1             1.00     1.00800     H ( 1.00)

     No symmetry found

   Cartesian axes

     site n.     atom                  positions (alat units)
         1           Ti1 tau(   1) = (   0.0004258   2.9801865   6.0000000  )
         2           Ti1 tau(   2) = (   3.2906075   1.4906267   6.0002472  )
         3           O1  tau(   3) = (   0.0006271   0.0005054   7.9858123  )
         4           O1  tau(   4) = (   3.2906025   0.0005020   7.3038282  )
         5           O1  tau(   5) = (   4.5942328   1.4918067   9.2879030  )
         6           O1  tau(   6) = (   1.9868534   1.4903216   9.2879459  )
         7           Ti1 tau(   7) = (   3.2907910   2.8959150   9.1758416  )
         8           Ti1 tau(   8) = (   0.0015273   1.4827037   9.2680791  )
         9           O1  tau(   9) = (   3.3019041   5.9340972  11.2780832  )
        10           O1  tau(  10) = (   0.0116148   5.9584955  10.6183126  )
        11           O1  tau(  11) = (   1.2869077   1.4717189  12.6473688  )
        12           O1  tau(  12) = (   5.3188397   1.4655789  12.6430575  )
        13           Ti1 tau(  13) = (   0.0521173   3.0639968  12.7333969  )
        14           Ti1 tau(  14) = (   3.2906581   1.3001642  12.6471297  )
        15           O1  tau(  15) = (   0.0021475   5.9326859  14.6872502  )
        16           O1  tau(  16) = (   3.3040199   0.0265785  13.8678754  )
        17           O1  tau(  17) = (   4.6240569   1.6264218  16.1080407  )
        18           O1  tau(  18) = (   2.0715169   1.5429601  15.9546445  )
        19           Ti1 tau(  19) = (   3.3363059   2.9874148  15.6109769  )
        20           Ti1 tau(  20) = (   0.0492893   1.4028208  15.7974426  )
        21           O1  tau(  21) = (   3.2904802   0.0005063   4.7018136  )
        22           O1  tau(  22) = (   0.0944532   0.0627470  17.1934044  )
        23           O1  tau(  23) = (   1.3043587   1.4918075   6.0039043  )
        24           O1  tau(  24) = (   5.2767064   1.4903225   6.0039473  )
        25           Ti1 tau(  25) = (   0.0000382   5.9609847   6.0000000  )
        26           Ti1 tau(  26) = (   3.2902200   4.4714249   6.0002472  )
        27           O1  tau(  27) = (   0.0002396   2.9813036   7.9858123  )
        28           O1  tau(  28) = (   3.2902150   2.9813002   7.3038282  )
        29           O1  tau(  29) = (   4.5938453   4.4726049   9.2879030  )
        30           O1  tau(  30) = (   1.9864658   4.4711199   9.2879459  )
        31           Ti1 tau(  31) = (   3.2891106   5.8743827   9.1763621  )
        32           Ti1 tau(  32) = (   0.0006254   4.4649316   9.2693709  )
        33           O1  tau(  33) = (   3.3033179   3.0104581  11.2528581  )
        34           O1  tau(  34) = (   0.0092240   2.9805883  10.6323155  )
        35           O1  tau(  35) = (   1.3074756   4.4469578  12.6382572  )
        36           O1  tau(  36) = (   5.3202433   4.4545580  12.6357595  )
        37           Ti1 tau(  37) = (   6.5572640   0.0741000  12.5519234  )
        38           Ti1 tau(  38) = (   3.3179412   4.3950854  12.4030220  )
        39           O1  tau(  39) = (   0.0383827   2.9948909  14.7437145  )
        40           O1  tau(  40) = (   3.3238341   2.9662938  13.8354460  )
        41           O1  tau(  41) = (   4.5722604   4.5101538  15.9256862  )
        42           O1  tau(  42) = (   2.0839069   4.4665637  16.0501180  )
        43           Ti1 tau(  43) = (   3.2507700   5.9423238  16.2547716  )
        44           Ti1 tau(  44) = (   6.5063516   4.5631136  16.2071476  )
        45           O1  tau(  45) = (   3.2900926   2.9813045   4.7018136  )
        46           O1  tau(  46) = (   1.3039711   4.4726057   6.0039043  )
        47           O1  tau(  47) = (   5.2763189   4.4711207   6.0039473  )
        48           N1  tau(  48) = (   0.4124544   2.9287237  17.8391456  )
        49           C1  tau(  49) = (   1.3780350   3.0145335  18.6736463  )
        50           H1  tau(  50) = (   2.3027514   2.5668077  18.2879847  )
        51           N1  tau(  51) = (   5.7762606   3.6115528  18.1636368  )
        52           H1  tau(  52) = (   5.8537390   4.1179332  19.0469945  )
        53           H1  tau(  53) = (   5.0130290   2.9392956  18.1702355  )
        54           O1  tau(  54) = (   3.2882145   0.0116813  18.0866318  )
        55           H1  tau(  55) = (   2.5950809   5.5638040  18.6371346  )

     number of k points=    10  Fermi-Dirac smearing, width (Ry)=  0.0073
                       cart. coord. in units 2pi/alat
        k(    1) = (   0.0000000   0.0000000   0.0000000), wk =   0.1250000
        k(    2) = (   0.0000000   0.0419351   0.0000000), wk =   0.2500000
        k(    3) = (   0.0000000  -0.0838702   0.0000000), wk =   0.1250000
        k(    4) = (   0.0379955   0.0000049   0.0000000), wk =   0.2500000
        k(    5) = (   0.0379955   0.0419400   0.0000000), wk =   0.2500000
        k(    6) = (   0.0379955  -0.0838652   0.0000000), wk =   0.2500000
        k(    7) = (   0.0379955  -0.0419301   0.0000000), wk =   0.2500000
        k(    8) = (  -0.0759910  -0.0000099   0.0000000), wk =   0.1250000
        k(    9) = (  -0.0759910   0.0419252   0.0000000), wk =   0.2500000
        k(   10) = (  -0.0759910  -0.0838800   0.0000000), wk =   0.1250000

     Initial potential from superposition of free atoms

     starting charge  385.99915, renormalised to  402.00000

     negative rho (up, down):  1.703E-02 0.000E+00

     %%%%%%%%%%%%%%%%%%%%%%%%%%%%%%%%%%%%%%%%%%%%%%%%%%%%%%%%%%%%%%%%%%%%%%%%
     %                                                                      %
     % You are using vdW-DF, which was implemented by the Thonhauser group. %
     % Please cite the following two papers that made this development      %
     % possible and the two reviews that describe the various versions:     %
     %                                                                      %
     %   T. Thonhauser et al., PRL 115, 136402 (2015).                      %
     %   T. Thonhauser et al., PRB 76, 125112 (2007).                       %
     %   K. Berland et al., Rep. Prog. Phys. 78, 066501 (2015).             %
     %   D.C. Langreth et al., J. Phys.: Condens. Matter 21, 084203 (2009). %
     %                                                                      %
     %                                                                      %
     % If you are calculating the stress with vdW-DF, please also cite:     %
     %                                                                      %
     %   R. Sabatini et al., J. Phys.: Condens. Matter 24, 424209 (2012).   %
     %                                                                      %
     %%%%%%%%%%%%%%%%%%%%%%%%%%%%%%%%%%%%%%%%%%%%%%%%%%%%%%%%%%%%%%%%%%%%%%%%

     Adding external electric field

     Computed dipole along edir(3) :
        Dipole              -11.1544 Ry au,        -28.3516 Debye
        Dipole field         -0.0210 Ry au,

        Potential amp.        1.9513 Ry
        Total length         46.3494 bohr

     Starting wfcs are  304 atomic wfcs
  @ DRIVER MODE: Message from server: STATUS
  @ DRIVER MODE: Message from server: POSDATA
  @ DRIVER MODE: Reading and sharing cell
  @ DRIVER MODE: Reading and sharing positions
  @ DRIVER MODE: Received positions

     Self-consistent Calculation

     iteration #  1     ecut=    29.40 Ry     beta= 0.05
     Davidson diagonalization with overlap
     c_bands:  2 eigenvalues not converged
     c_bands:  3 eigenvalues not converged
     c_bands:  1 eigenvalues not converged
     c_bands:  5 eigenvalues not converged
     c_bands:  1 eigenvalues not converged
     c_bands:  5 eigenvalues not converged
     c_bands:  3 eigenvalues not converged
     ethr =  1.00E-05,  avg # of iterations = 27.6

[...]

     total energy              =   -2400.32731130 Ry
     estimated scf accuracy    <    6416.19617906 Ry

     iteration #  2     ecut=    29.40 Ry     beta= 0.05
     Davidson diagonalization with overlap
     ethr =  1.00E-02,  avg # of iterations = 24.4

[...]

     iteration # 49     ecut=    29.40 Ry     beta= 0.05
     Davidson diagonalization with overlap
     c_bands:  1 eigenvalues not converged
     ethr =  6.95E-07,  avg # of iterations = 10.1

[...]

     total energy              =   -2972.60996311 Ry
     estimated scf accuracy    <       0.00000031 Ry

     iteration # 73     ecut=    29.40 Ry     beta= 0.05
     Davidson diagonalization with overlap
     ethr =  5.95E-11,  avg # of iterations =  5.5

     negative rho (up, down):  1.638E-02 0.000E+00

     Adding external electric field

     Computed dipole along edir(3) :
        Dipole                0.2197 Ry au,          0.5585 Debye
        Dipole field          0.0004 Ry au,

        Potential amp.       -0.0384 Ry
        Total length         46.3494 bohr

     End of self-consistent calculation

          k = 0.0000 0.0000 0.0000 ( 18029 PWs)   bands (ev):

   -56.4675 -56.4337 -56.0104 -55.9745 -55.7588 -55.7043 -55.6456 -55.6344
   -55.6036 -55.5139 -55.5051 -55.4501 -55.4061 -55.2819 -55.2114 -55.1774
   -32.9140 -32.7588 -32.7315 -32.6274 -32.5385 -32.5351 -32.4919 -32.2421
   -32.2281 -32.2060 -32.1593 -32.1542 -32.1280 -32.1090 -32.0250 -32.0104
   -31.9932 -31.9801 -31.9616 -31.9235 -31.9155 -31.9095 -31.9068 -31.8830
   -31.8652 -31.8626 -31.8568 -31.8055 -31.7889 -31.7688 -31.7465 -31.7217
   -31.7098 -31.6941 -31.6777 -31.6718 -31.6445 -31.6065 -31.5955 -31.5765
   -31.5467 -31.5465 -31.5227 -31.5135 -31.4900 -31.4256 -31.3413 -31.2292
   -17.9080 -16.7390 -16.4524 -16.3996 -16.2020 -16.0131 -15.9200 -15.9028
   -15.8854 -15.7642 -15.7639 -15.6129 -15.5324 -15.4774 -15.4146 -15.4024
   -15.3338 -15.3172 -15.2532 -15.2256 -15.2126 -15.1868 -15.1375 -15.0763
   -15.0656 -15.0398 -14.8520 -14.8281 -14.8119 -14.6268 -14.5338 -13.7090
   -13.5974 -13.2151  -7.8379  -6.1744  -4.2570  -4.2516  -4.1238  -3.9339
    -3.7348  -3.6726  -3.5761  -3.4348  -3.4035  -3.1617  -3.1467  -3.1052
    -3.0164  -2.9883  -2.9609  -2.9016  -2.8432  -2.8237  -2.7630  -2.6858
    -2.6840  -2.6733  -2.6413  -2.6189  -2.5152  -2.4752  -2.4130  -2.3741
    -2.3478  -2.3375  -2.2982  -2.2430  -2.2157  -2.1632  -2.1451  -2.0642
    -2.0343  -1.9473  -1.8874  -1.8696  -1.8159  -1.7596  -1.7544  -1.6984
    -1.5673  -1.4576  -1.3910  -1.3488  -1.2947  -1.2394  -1.2093  -1.1545
    -1.0896  -1.0660  -1.0430  -1.0059  -0.9450  -0.9167  -0.8703  -0.8151
    -0.7384  -0.6718  -0.6260  -0.6036  -0.4997  -0.4344  -0.3958  -0.3804
    -0.3435  -0.2878  -0.2342  -0.1942  -0.1840  -0.1603  -0.1003   0.0238
     0.0348   0.0934   0.1487   0.1818   0.1941   0.2094   0.2717   0.3395
     0.4128   0.4558   0.4683   0.5260   0.5904   0.6298   0.7437   0.8129
     0.8385   0.8802   0.9570   1.0322   1.0476   1.3542   1.3680   1.3966
     2.5144   2.7677   2.8985   3.0781   3.1987   3.3340   3.6534   3.6697
     3.6813   3.7042   3.7948

[...]

          k = 0.0380-0.0419 0.0000 ( 17876 PWs)   bands (ev):

[...]

          k =-0.0760-0.0000 0.0000 ( 17886 PWs)   bands (ev):

[...]

          k =-0.0760-0.0839 0.0000 ( 17948 PWs)   bands (ev):

   -56.4508 -56.4503 -55.9987 -55.9860 -55.7529 -55.7102 -55.6370 -55.6329
   -55.6120 -55.5116 -55.5065 -55.4484 -55.4081 -55.2835 -55.1949 -55.1938
   -32.7446 -32.7441 -32.7302 -32.7300 -32.5800 -32.5791 -32.3207 -32.3097
   -32.1906 -32.1843 -32.1762 -32.1746 -32.0607 -32.0282 -31.9817 -31.9747
   -31.9601 -31.9562 -31.9473 -31.9390 -31.9366 -31.9287 -31.9060 -31.8686
   -31.8628 -31.8555 -31.8542 -31.8396 -31.8203 -31.7950 -31.7815 -31.7716
   -31.7254 -31.7080 -31.7007 -31.6813 -31.6503 -31.6315 -31.6295 -31.5998
   -31.5490 -31.5360 -31.5353 -31.4941 -31.4222 -31.4209 -31.3840 -31.3832
   -17.8987 -16.4287 -16.1447 -16.1338 -16.0161 -16.0105 -15.8570 -15.8380
   -15.8199 -15.7459 -15.6813 -15.6605 -15.5122 -15.4996 -15.4630 -15.4275
   -15.3994 -15.3625 -15.3577 -15.3344 -15.3005 -15.2357 -15.2142 -15.1893
   -15.1789 -15.1020 -14.9225 -14.8992 -14.8966 -14.8223 -14.6833 -13.7010
   -13.7001 -13.2262  -7.8022  -6.1044  -4.3748  -4.0676  -3.3151  -3.2513
    -3.1758  -3.1399  -3.1297  -3.0568  -3.0417  -2.9266  -2.8987  -2.8598
    -2.8332  -2.8228  -2.8025  -2.7518  -2.7292  -2.6846  -2.6680  -2.6662
    -2.6347  -2.5939  -2.5738  -2.5505  -2.5400  -2.4701  -2.4404  -2.3976
    -2.3815  -2.3694  -2.3217  -2.2607  -2.2423  -2.1861  -2.1740  -2.1420
    -2.1052  -2.0442  -2.0047  -1.9632  -1.8650  -1.8440  -1.7752  -1.6582
    -1.6371  -1.5532  -1.5252  -1.5036  -1.4816  -1.4041  -1.3714  -1.3381
    -1.2509  -1.2244  -1.2160  -1.1894  -1.1559  -1.1313  -1.0741  -1.0128
    -0.9173  -0.8540  -0.8419  -0.8233  -0.7836  -0.7574  -0.7162  -0.6244
    -0.6031  -0.5681  -0.5580  -0.5155  -0.4042  -0.3773  -0.2283  -0.1904
    -0.1018  -0.0741  -0.0542  -0.0137   0.1082   0.1359   0.1864   0.2065
     0.2660   0.3107   0.3630   0.4521   0.5537   0.5661   0.6972   0.7244
     0.7450   0.8181   0.9512   0.9926   1.2072   1.2118   1.2134   1.2157
     2.4939   3.3204   3.3229   3.3562   3.3685   3.5717   3.5919   3.7179
     3.8025   3.8100   3.8116

     the Fermi energy is     2.6942 ev

!    total energy              =   -2972.60997795 Ry
     estimated scf accuracy    <       0.00000005 Ry
     smearing contrib. (-TS)   =      -0.01174107 Ry
     internal energy E=F+TS    =   -2972.59823688 Ry

     The total energy is F=E-TS. E is the sum of the following terms:
     one-electron contribution =  -24036.54528436 Ry
     hartree contribution      =   12109.66906942 Ry
     xc contribution           =    -493.07236373 Ry
     ewald contribution        =    9447.35025067 Ry
     electric field correction =       0.00009112 Ry

     convergence has been achieved in  73 iterations

     Forces acting on atoms (cartesian axes, Ry/au):

     atom    1 type  1   force =    -0.00003527   -0.00046877    0.10841755
     atom    2 type  1   force =     0.00001756    0.00008700   -0.16404971
     atom    3 type  2   force =     0.00013223    0.00046874   -0.04120744
     atom    4 type  2   force =     0.00009418   -0.00056605    0.03212612
     atom    5 type  2   force =    -0.00380460   -0.00332737   -0.00776785
     atom    6 type  2   force =     0.00586495   -0.00273552   -0.00759264
     atom    7 type  1   force =     0.00016889   -0.00552377    0.03634070
     atom    8 type  1   force =     0.00012978    0.02544001    0.06351837
     atom    9 type  2   force =     0.00013871    0.00039536    0.00011524
     atom   10 type  2   force =    -0.00195159    0.00076169   -0.03780022
     atom   11 type  2   force =     0.00009766   -0.00015640   -0.00017837
     atom   12 type  2   force =    -0.00073509    0.00020304   -0.00018363
     atom   13 type  1   force =     0.00045319    0.00044412    0.00088946
     atom   14 type  1   force =    -0.00056633   -0.00026526    0.00018220
     atom   15 type  2   force =    -0.00012690    0.00001960    0.00079765
     atom   16 type  2   force =    -0.00011926    0.00031985   -0.00021888
     atom   17 type  2   force =    -0.00108528    0.00047571    0.00006628
     atom   18 type  2   force =     0.00057140    0.00004653   -0.00035098
     atom   19 type  1   force =     0.00028363   -0.00078280   -0.00000992
     atom   20 type  1   force =    -0.00039029   -0.00004057   -0.00019122
     atom   21 type  2   force =     0.00009640    0.00019061    0.10011536
     atom   22 type  2   force =    -0.00014079   -0.00036622    0.00031717
     atom   23 type  2   force =    -0.07740888    0.00001546   -0.03031964
     atom   24 type  2   force =     0.07740183    0.00043243   -0.03036227
     atom   25 type  1   force =    -0.00000818   -0.00031989    0.10859962
     atom   26 type  1   force =    -0.00004005   -0.00110490   -0.16408518
     atom   27 type  2   force =     0.00011680   -0.00017880   -0.03921759
     atom   28 type  2   force =     0.00011665    0.00117895    0.02834242
     atom   29 type  2   force =    -0.00230653    0.00468266   -0.01050002
     atom   30 type  2   force =     0.00438328    0.00496475   -0.01045909
     atom   31 type  1   force =     0.00005402    0.00318532    0.01916590
     atom   32 type  1   force =     0.00036584   -0.02766383    0.06525917
     atom   33 type  2   force =    -0.00003379   -0.00078919   -0.00042973
     atom   34 type  2   force =    -0.00062781    0.00085827   -0.05569571
     atom   35 type  2   force =    -0.00035345   -0.00023862   -0.00027033
     atom   36 type  2   force =    -0.00006229   -0.00004098   -0.00019848
     atom   37 type  1   force =     0.00029705   -0.00051878    0.00012343
     atom   38 type  1   force =    -0.00036651   -0.00014929    0.00028224
     atom   39 type  2   force =    -0.00017167    0.00033809   -0.00015519
     atom   40 type  2   force =    -0.00016693   -0.00026061   -0.00032303
     atom   41 type  2   force =    -0.00024461    0.00006090   -0.00000753
     atom   42 type  2   force =    -0.00044143   -0.00000210    0.00012124
     atom   43 type  1   force =     0.00022118    0.00032466   -0.00002490
     atom   44 type  1   force =    -0.00045179    0.00029055   -0.00065235
     atom   45 type  2   force =     0.00010352    0.00001085    0.09992477
     atom   46 type  2   force =    -0.07744132   -0.00001216   -0.03033025
     atom   47 type  2   force =     0.07746179    0.00041863   -0.03036698
     atom   48 type  3   force =    -0.00028392   -0.00004508   -0.00004578
     atom   49 type  4   force =     0.00008945   -0.00002340   -0.00070079
     atom   50 type  5   force =    -0.00025517   -0.00019735   -0.00018322
     atom   51 type  3   force =     0.00100380   -0.00081329    0.00000062
     atom   52 type  5   force =     0.00023767    0.00023516   -0.00036461
     atom   53 type  5   force =     0.00011620    0.00069791    0.00003980
     atom   54 type  2   force =    -0.00469183   -0.00263209    0.00308159
     atom   55 type  5   force =     0.00429392    0.00267623   -0.00358338

     Total force =     0.382973     Total SCF correction =     0.000651
  @ DRIVER MODE: Message from server: STATUS
  @ DRIVER MODE: Message from server: GETFORCE
  @ DRIVER MODE: Returning v,forces,stress,ensemble

     Writing output data file ./calc.save/
  @ DRIVER MODE: Message from server: EXIT
  @ DRIVE MODE: Exiting

     General routines

     Parallel routines

   This run was terminated on:   7:24:24  23Sep2021

   JOB DONE.