     Program PWSCF v.6.7GPU starts on 15Sep2021 at 17: 0:14

     R & G space division:  proc/nbgrp/npool/nimage =      10
     Reading input from /storage/home/hcoda1/3/ntian30/research/carbon/CxH_vib/H2O_calc/ads_slab/CH2NHH2O_a/out_0004/pw.inp
Warning: card &CELL ignored
Warning: card   CELL_DYNAMICS='IPI', ignored
Warning: card / ignored

     Current dimensions of program PWSCF are:
     Max number of different atomic species (ntypx) = 10
     Max number of k-points (npk) =  40000
     Max angular momentum in pseudopotentials (lmaxx) =  3
     Presently no symmetry can be used with electric field

     Message from routine cell_base_init:
     DEPRECATED: use true lattice parameter, not A to a.u. conversion factor

     IMPORTANT: XC functional enforced from input :
     Exchange-correlation= BEEF-VDW
                           (   1   4  43  14   2   0   0)
     Any further DFT definition will be discarded
     Please, verify this is what you really want

  @ DRIVER MODE: Connecting to
 qe_1139763_2852608.sched-torque.pace.gatech.eduf1a98q7c_scratch
  using UNIX socket
  @ DRIVER MODE: Message from server: STATUS
  @ DRIVER MODE: Message from server: INIT
  @ DRIVER MODE: Receiving replica           0          -1
  @ DRIVER MODE: Receiving encoded integer          25
  @ DRIVER MODE:  SCF:  T  FORCE:  T  STRESS:  F  VC:  F  ENSEMBLE:  F
  @ DRIVER MODE:  SCF:  T  FORCE:  T  STRESS:  F  VC:  F  ENSEMBLE:  F

     Using Slab Decomposition

     bravais-lattice index     =            0
     lattice parameter (alat)  =       1.8897  a.u.
     unit-cell volume          =    6658.9804 (a.u.)^3
     number of atoms/cell      =           55
     number of atomic types    =            5
     number of electrons       =       398.00
     number of Kohn-Sham states=          209
     kinetic-energy cutoff     =      29.3995  Ry
     charge density cutoff     =     293.9946  Ry
     scf convergence threshold =      7.3E-08
     mixing beta               =       0.0500
     number of iterations used =            8  plain     mixing
     Exchange-correlation= BEEF-VDW
                           (   1   4  43  14   2   0   0)

     celldm(1)=   1.889726  celldm(2)=   0.000000  celldm(3)=   0.000000
     celldm(4)=   0.000000  celldm(5)=   0.000000  celldm(6)=   0.000000

     crystal axes: (cart. coord. in units of alat)
               a(1) = (   6.579727   0.000000   0.000000 )
               a(2) = (  -0.000775   5.961596   0.000000 )
               a(3) = (   0.000000   0.000000  25.155947 )

     reciprocal axes: (cart. coord. in units 2 pi/alat)
               b(1) = (  0.151982  0.000020  0.000000 )
               b(2) = (  0.000000  0.167740  0.000000 )
               b(3) = (  0.000000  0.000000  0.039752 )

     PseudoPot. # 1 for Ti read from file:
     /storage/coda1/p-amedford6/0/shared/rich_project_chbe-medford/medford-share/data/pseudos_module/espresso/nninc/pbe/van/Ti.UPF
     MD5 check sum: 8e4df49b7f0d34bbd5052bf3f5ea0213
     Pseudo is Ultrasoft, Zval = 12.0
     Generated by new atomic code, or converted to UPF format
     Using radial grid of  851 points,  6 beta functions with:
                l(1) =   0
                l(2) =   0
                l(3) =   1
                l(4) =   1
                l(5) =   2
                l(6) =   2
     Q(r) pseudized with  8 coefficients,  rinner =    1.000   1.000   1.000
                                                       1.000   1.000

     PseudoPot. # 2 for O  read from file:
     /storage/coda1/p-amedford6/0/shared/rich_project_chbe-medford/medford-share/data/pseudos_module/espresso/nninc/pbe/van/O.UPF
     MD5 check sum: 78c19812648e8988a0fe644b0f25305e
     Pseudo is Ultrasoft, Zval =  6.0
     Generated by new atomic code, or converted to UPF format
     Using radial grid of  737 points,  4 beta functions with:
                l(1) =   0
                l(2) =   0
                l(3) =   1
                l(4) =   1
     Q(r) pseudized with  8 coefficients,  rinner =    0.800   0.800   0.800

     PseudoPot. # 3 for N  read from file:
     /storage/coda1/p-amedford6/0/shared/rich_project_chbe-medford/medford-share/data/pseudos_module/espresso/nninc/pbe/van/N.UPF
     MD5 check sum: 90d10febe142ad51ac9d5be1deb811c4
     Pseudo is Ultrasoft, Zval =  5.0
     Generated by new atomic code, or converted to UPF format
     Using radial grid of  729 points,  4 beta functions with:
                l(1) =   0
                l(2) =   0
                l(3) =   1
                l(4) =   1
     Q(r) pseudized with  8 coefficients,  rinner =    0.800   0.800   0.800

     PseudoPot. # 4 for C  read from file:
     /storage/coda1/p-amedford6/0/shared/rich_project_chbe-medford/medford-share/data/pseudos_module/espresso/nninc/pbe/van/C.UPF
     MD5 check sum: 1a69bf6b8db32088f5b2163dbdb77a27
     Pseudo is Ultrasoft, Zval =  4.0
     Generated by new atomic code, or converted to UPF format
     Using radial grid of  721 points,  4 beta functions with:
                l(1) =   0
                l(2) =   0
                l(3) =   1
                l(4) =   1
     Q(r) pseudized with  8 coefficients,  rinner =    0.800   0.800   0.800

     PseudoPot. # 5 for H  read from file:
     /storage/coda1/p-amedford6/0/shared/rich_project_chbe-medford/medford-share/data/pseudos_module/espresso/nninc/pbe/van/H.UPF
     MD5 check sum: b5ee9d7bfd3a09ee7748110bda690ff7
     Pseudo is Ultrasoft, Zval =  1.0
     Generated by new atomic code, or converted to UPF format
     Using radial grid of  615 points,  1 beta functions with:
                l(1) =   0
     Q(r) pseudized with  8 coefficients,  rinner =    0.800

     atomic species   valence    mass     pseudopotential
        Ti1           12.00    47.86700     Ti( 1.00)
        O1             6.00    15.99900     O ( 1.00)
        N1             5.00    14.00700     N ( 1.00)
        C1             4.00    12.01100     C ( 1.00)
        H1             1.00     1.00800     H ( 1.00)

     No symmetry found

   Cartesian axes

     site n.     atom                  positions (alat units)
         1           Ti1 tau(   1) = (   0.0004258   2.9801865   6.0000000  )
         2           Ti1 tau(   2) = (   3.2906075   1.4906267   6.0002472  )
         3           O1  tau(   3) = (   0.0006271   0.0005054   7.9858123  )
         4           O1  tau(   4) = (   3.2906025   0.0005020   7.3038282  )
         5           O1  tau(   5) = (   4.5942328   1.4918067   9.2879030  )
         6           O1  tau(   6) = (   1.9868534   1.4903216   9.2879459  )
         7           Ti1 tau(   7) = (   3.2907910   2.8959150   9.1758416  )
         8           Ti1 tau(   8) = (   0.0015273   1.4827037   9.2680791  )
         9           O1  tau(   9) = (   3.2898722   0.0008919  11.3582996  )
        10           O1  tau(  10) = (   0.0116148   5.9584955  10.6183126  )
        11           O1  tau(  11) = (   1.2941175   1.4997011  12.6415926  )
        12           O1  tau(  12) = (   5.2900041   1.4988670  12.6311679  )
        13           Ti1 tau(  13) = (   0.0286627   2.9677426  12.5549903  )
        14           Ti1 tau(  14) = (   3.3305619   1.4761135  12.5169476  )
        15           O1  tau(  15) = (   0.0011522   0.0488603  14.6479508  )
        16           O1  tau(  16) = (   3.3026717   0.0283160  13.9913086  )
        17           O1  tau(  17) = (   4.5493611   1.5432082  16.1208237  )
        18           O1  tau(  18) = (   2.0202358   1.5417912  16.1150647  )
        19           Ti1 tau(  19) = (   3.2887705   3.0075965  15.7001020  )
        20           Ti1 tau(  20) = (   0.0091052   1.4341126  16.0176487  )
        21           O1  tau(  21) = (   3.2904802   0.0005063   4.7018136  )
        22           O1  tau(  22) = (   6.5755782   5.8726442  17.1894482  )
        23           O1  tau(  23) = (   1.3043587   1.4918075   6.0039043  )
        24           O1  tau(  24) = (   5.2767064   1.4903225   6.0039473  )
        25           Ti1 tau(  25) = (   0.0000382   5.9609847   6.0000000  )
        26           Ti1 tau(  26) = (   3.2902200   4.4714249   6.0002472  )
        27           O1  tau(  27) = (   0.0002396   2.9813036   7.9858123  )
        28           O1  tau(  28) = (   3.2902150   2.9813002   7.3038282  )
        29           O1  tau(  29) = (   4.5938453   4.4726049   9.2879030  )
        30           O1  tau(  30) = (   1.9864658   4.4711199   9.2879459  )
        31           Ti1 tau(  31) = (   3.2891106   5.8743827   9.1763621  )
        32           Ti1 tau(  32) = (   0.0006254   4.4649316   9.2693709  )
        33           O1  tau(  33) = (   3.2934734   2.9861727  11.3537610  )
        34           O1  tau(  34) = (   0.0092240   2.9805883  10.6323155  )
        35           O1  tau(  35) = (   1.2909626   4.4766429  12.6619247  )
        36           O1  tau(  36) = (   5.2900193   4.4803912  12.6490267  )
        37           Ti1 tau(  37) = (   0.0281377   5.9553508  12.5047683  )
        38           Ti1 tau(  38) = (   3.3302429   4.4653876  12.5079491  )
        39           O1  tau(  39) = (   6.5693844   2.9599090  14.8264494  )
        40           O1  tau(  40) = (   3.2969629   2.9925989  13.9157470  )
        41           O1  tau(  41) = (   4.5484520   4.4472025  16.1223275  )
        42           O1  tau(  42) = (   2.0280084   4.4594140  16.0867804  )
        43           Ti1 tau(  43) = (   3.2969344   0.0408593  15.8189202  )
        44           Ti1 tau(  44) = (   0.0203989   4.6198729  15.8219907  )
        45           O1  tau(  45) = (   3.2900926   2.9813045   4.7018136  )
        46           O1  tau(  46) = (   1.3039711   4.4726057   6.0039043  )
        47           O1  tau(  47) = (   5.2763189   4.4711207   6.0039473  )
        48           N1  tau(  48) = (   6.4956655   2.7644209  17.8339637  )
        49           C1  tau(  49) = (   0.7364952   2.7663736  18.8366375  )
        50           H1  tau(  50) = (   0.4484493   3.1383336  19.8159577  )
        51           H1  tau(  51) = (   1.7396475   2.3816028  18.7013769  )
        52           H1  tau(  52) = (   5.5670006   3.0916272  18.0761613  )
        53           O1  tau(  53) = (   3.3072362   0.1002980  18.2711691  )
        54           H1  tau(  54) = (   4.1501014   5.6086691  18.4387546  )
        55           H1  tau(  55) = (   2.5909652   5.4478326  18.5068232  )

     number of k points=    10  Fermi-Dirac smearing, width (Ry)=  0.0073
                       cart. coord. in units 2pi/alat
        k(    1) = (   0.0000000   0.0000000   0.0000000), wk =   0.1250000
        k(    2) = (   0.0000000   0.0419351   0.0000000), wk =   0.2500000
        k(    3) = (   0.0000000  -0.0838702   0.0000000), wk =   0.1250000
        k(    4) = (   0.0379955   0.0000049   0.0000000), wk =   0.2500000
        k(    5) = (   0.0379955   0.0419400   0.0000000), wk =   0.2500000
        k(    6) = (   0.0379955  -0.0838652   0.0000000), wk =   0.2500000
        k(    7) = (   0.0379955  -0.0419301   0.0000000), wk =   0.2500000
        k(    8) = (  -0.0759910  -0.0000099   0.0000000), wk =   0.1250000
        k(    9) = (  -0.0759910   0.0419252   0.0000000), wk =   0.2500000
        k(   10) = (  -0.0759910  -0.0838800   0.0000000), wk =   0.1250000

     Initial potential from superposition of free atoms

     starting charge  381.99915, renormalised to  398.00000

     negative rho (up, down):  1.643E-02 0.000E+00

     %%%%%%%%%%%%%%%%%%%%%%%%%%%%%%%%%%%%%%%%%%%%%%%%%%%%%%%%%%%%%%%%%%%%%%%%
     %                                                                      %
     % You are using vdW-DF, which was implemented by the Thonhauser group. %
     % Please cite the following two papers that made this development      %
     % possible and the two reviews that describe the various versions:     %
     %                                                                      %
     %   T. Thonhauser et al., PRL 115, 136402 (2015).                      %
     %   T. Thonhauser et al., PRB 76, 125112 (2007).                       %
     %   K. Berland et al., Rep. Prog. Phys. 78, 066501 (2015).             %
     %   D.C. Langreth et al., J. Phys.: Condens. Matter 21, 084203 (2009). %
     %                                                                      %
     %                                                                      %
     % If you are calculating the stress with vdW-DF, please also cite:     %
     %                                                                      %
     %   R. Sabatini et al., J. Phys.: Condens. Matter 24, 424209 (2012).   %
     %                                                                      %
     %%%%%%%%%%%%%%%%%%%%%%%%%%%%%%%%%%%%%%%%%%%%%%%%%%%%%%%%%%%%%%%%%%%%%%%%

     Adding external electric field

     Computed dipole along edir(3) :
        Dipole              -10.4007 Ry au,        -26.4360 Debye
        Dipole field         -0.0196 Ry au,

        Potential amp.        1.8194 Ry
        Total length         46.3494 bohr

     Starting wfcs are  301 atomic wfcs
  @ DRIVER MODE: Message from server: STATUS
  @ DRIVER MODE: Message from server: POSDATA
  @ DRIVER MODE: Reading and sharing cell
  @ DRIVER MODE: Reading and sharing positions
  @ DRIVER MODE: Received positions

     Self-consistent Calculation

     iteration #  1     ecut=    29.40 Ry     beta= 0.05
     Davidson diagonalization with overlap
     c_bands:  3 eigenvalues not converged
     c_bands:  3 eigenvalues not converged
     c_bands:  1 eigenvalues not converged
     c_bands:  4 eigenvalues not converged
     c_bands:  4 eigenvalues not converged
     c_bands:  4 eigenvalues not converged
     c_bands:  2 eigenvalues not converged
     c_bands:  3 eigenvalues not converged
     c_bands:  2 eigenvalues not converged
     ethr =  1.00E-05,  avg # of iterations = 19.9

[...]

     total energy              =   -2485.31782258 Ry
     estimated scf accuracy    <    5245.67515186 Ry

     iteration #  2     ecut=    29.40 Ry     beta= 0.05
     Davidson diagonalization with overlap
     ethr =  1.00E-02,  avg # of iterations = 24.6

[...]

     iteration # 45     ecut=    29.40 Ry     beta= 0.05
     Davidson diagonalization with overlap
     c_bands:  2 eigenvalues not converged
     ethr =  6.04E-07,  avg # of iterations = 13.4

[...]

     total energy              =   -2953.94953713 Ry
     estimated scf accuracy    <       0.00000008 Ry

     iteration # 65     ecut=    29.40 Ry     beta= 0.05
     Davidson diagonalization with overlap
     ethr =  2.06E-11,  avg # of iterations = 12.1

     negative rho (up, down):  1.567E-02 0.000E+00

     Adding external electric field

     Computed dipole along edir(3) :
        Dipole                1.2814 Ry au,          3.2569 Debye
        Dipole field          0.0024 Ry au,

        Potential amp.       -0.2242 Ry
        Total length         46.3494 bohr

     End of self-consistent calculation

          k = 0.0000 0.0000 0.0000 ( 18029 PWs)   bands (ev):

   -55.3921 -55.3723 -55.3560 -55.3391 -55.3382 -55.2723 -55.2279 -55.2074
   -55.1977 -55.1885 -55.1718 -55.1652 -55.1257 -54.9939 -54.3824 -54.3484
   -31.9524 -31.8616 -31.7602 -31.7455 -31.7005 -31.6974 -31.6959 -31.6623
   -31.6573 -31.6225 -31.6169 -31.6059 -31.5861 -31.5691 -31.5684 -31.5341
   -31.5315 -31.5251 -31.5107 -31.5079 -31.4831 -31.4557 -31.4528 -31.4354
   -31.4295 -31.4064 -31.4054 -31.4023 -31.4016 -31.3941 -31.3744 -31.3678
   -31.3625 -31.3572 -31.3476 -31.3322 -31.3288 -31.3222 -31.3050 -31.2959
   -31.2205 -31.1092 -30.7909 -30.6990 -30.6768 -30.6074 -30.5208 -30.4097
   -19.1652 -16.2547 -16.1590 -15.9146 -15.7340 -15.6451 -15.5830 -15.3936
   -15.3529 -15.2615 -15.1787 -15.0870 -15.0325 -14.9889 -14.9791 -14.9581
   -14.9323 -14.9223 -14.8845 -14.8699 -14.8682 -14.8214 -14.8192 -14.7804
   -14.7715 -14.7275 -14.7055 -14.5967 -14.5408 -14.4866 -14.0597 -12.8850
   -12.7679  -9.1077  -6.9816  -5.9842  -4.4727  -3.5504  -3.4020  -3.3891
    -3.3025  -3.2961  -3.2284  -3.1178  -2.9283  -2.7742  -2.6889  -2.6447
    -2.5934  -2.5690  -2.5105  -2.4559  -2.3616  -2.2902  -2.2600  -2.2271
    -2.2096  -2.1908  -2.1668  -2.1431  -2.1029  -2.0784  -2.0417  -1.9398
    -1.8536  -1.8003  -1.7854  -1.7149  -1.6922  -1.6863  -1.6778  -1.6682
    -1.6638  -1.6554  -1.6022  -1.5782  -1.5374  -1.4101  -1.3395  -1.2323
    -1.1199  -1.0711  -1.0295  -1.0097  -0.9249  -0.9194  -0.8645  -0.7881
    -0.7555  -0.7144  -0.7019  -0.5745  -0.4926  -0.4813  -0.4306  -0.3567
    -0.2990  -0.2579  -0.2017  -0.1771  -0.1547  -0.1378   0.0017   0.0348
     0.0784   0.1065   0.1353   0.2100   0.2468   0.3090   0.3569   0.3641
     0.4118   0.4983   0.5117   0.5618   0.5660   0.6108   0.6297   0.7258
     0.7603   0.7689   0.8347   0.8683   1.0113   1.2273   1.2346   1.2822
     1.5550   1.6169   1.6402   1.8271   2.2142   2.2614   3.7016   3.7923
     3.8312   3.8499   3.8626   3.9374   4.0773   4.1920   4.1965   4.2261
     4.2395

[...]

          k = 0.0380-0.0419 0.0000 ( 17876 PWs)   bands (ev):

[...]

          k =-0.0760-0.0000 0.0000 ( 17886 PWs)   bands (ev):

[...]

          k =-0.0760-0.0839 0.0000 ( 17948 PWs)   bands (ev):

   -55.3759 -55.3720 -55.3554 -55.3551 -55.3371 -55.2642 -55.2359 -55.1914
   -55.1903 -55.1863 -55.1825 -55.1816 -55.1234 -54.9961 -54.3654 -54.3653
   -31.7622 -31.7512 -31.6768 -31.6766 -31.6594 -31.6488 -31.6478 -31.6475
   -31.6201 -31.6087 -31.5904 -31.5861 -31.5800 -31.5598 -31.5403 -31.5259
   -31.5245 -31.5216 -31.5173 -31.5123 -31.5067 -31.4939 -31.4749 -31.4745
   -31.4685 -31.4668 -31.4650 -31.4349 -31.4238 -31.4162 -31.4058 -31.4018
   -31.4013 -31.4008 -31.3898 -31.3851 -31.3619 -31.3600 -31.3400 -31.2931
   -31.2240 -31.1944 -30.6896 -30.6894 -30.6036 -30.6033 -30.5642 -30.5641
   -19.1644 -16.1984 -15.6512 -15.5928 -15.5216 -15.3671 -15.3609 -15.3357
   -15.2739 -15.1754 -15.1621 -15.1300 -15.1222 -15.0876 -15.0765 -15.0558
   -15.0341 -14.9619 -14.9538 -14.9491 -14.9264 -14.8951 -14.8803 -14.8715
   -14.8495 -14.8449 -14.7893 -14.7424 -14.7394 -14.5480 -14.3553 -12.8695
   -12.8695  -9.1130  -6.9798  -5.9827  -4.4550  -3.3317  -2.9265  -2.7965
    -2.7445  -2.5945  -2.5675  -2.5201  -2.4631  -2.4028  -2.3760  -2.3565
    -2.3090  -2.3030  -2.2550  -2.2414  -2.2207  -2.2195  -2.2106  -2.1641
    -2.1467  -2.1394  -2.1206  -2.1057  -2.0947  -2.0766  -2.0475  -2.0379
    -2.0038  -1.9734  -1.9599  -1.9380  -1.8808  -1.7672  -1.7375  -1.6942
    -1.5832  -1.5753  -1.5661  -1.5253  -1.4813  -1.4753  -1.4476  -1.4178
    -1.3492  -1.3215  -1.1302  -1.1179  -1.1038  -1.0387  -1.0124  -0.9146
    -0.8961  -0.8290  -0.8123  -0.7970  -0.7104  -0.6788  -0.5728  -0.5640
    -0.5490  -0.5134  -0.4073  -0.3595  -0.3519  -0.3460  -0.3257  -0.2429
    -0.2277  -0.2098  -0.1756  -0.1477  -0.1143  -0.1007  -0.0174   0.1527
     0.1626   0.2503   0.3498   0.4438   0.5649   0.6360   0.6447   0.6996
     0.7426   0.8238   0.8676   0.9055   0.9248   1.0359   1.0678   1.0843
     1.0907   1.1462   1.9993   2.0006   2.0814   2.0816   3.7821   3.9312
     4.0009   4.0181   4.0579   4.1835   4.2230   4.2754   4.2773   4.2815
     4.3712

     the Fermi energy is     3.7472 ev

!    total energy              =   -2953.94958580 Ry
     estimated scf accuracy    <       0.00000006 Ry
     smearing contrib. (-TS)   =      -0.03632254 Ry
     internal energy E=F+TS    =   -2953.91326326 Ry

     The total energy is F=E-TS. E is the sum of the following terms:
     one-electron contribution =  -24165.67986517 Ry
     hartree contribution      =   12176.22026864 Ry
     xc contribution           =    -488.89572524 Ry
     ewald contribution        =    9524.43896008 Ry
     electric field correction =       0.00309843 Ry

     convergence has been achieved in  65 iterations

     Forces acting on atoms (cartesian axes, Ry/au):

     atom    1 type  1   force =     0.00005883   -0.00020355    0.09433248
     atom    2 type  1   force =    -0.00029556   -0.00033320   -0.17714538
     atom    3 type  2   force =     0.00001700   -0.00012952   -0.02175335
     atom    4 type  2   force =    -0.00002251   -0.00175202    0.05661761
     atom    5 type  2   force =    -0.01065695   -0.00110513    0.00626305
     atom    6 type  2   force =     0.01215362   -0.00036059    0.00531031
     atom    7 type  1   force =    -0.00068685    0.00165938   -0.01075916
     atom    8 type  1   force =     0.00018553    0.00660345    0.00669282
     atom    9 type  2   force =     0.00025008   -0.00039917   -0.00053196
     atom   10 type  2   force =    -0.00109656    0.00065573   -0.01010908
     atom   11 type  2   force =    -0.00026669   -0.00016270   -0.00021718
     atom   12 type  2   force =     0.00038141   -0.00023322    0.00002107
     atom   13 type  1   force =     0.00017949   -0.00050261    0.00119504
     atom   14 type  1   force =    -0.00007358    0.00039418    0.00041714
     atom   15 type  2   force =     0.00006167    0.00055872    0.00138100
     atom   16 type  2   force =    -0.00017978   -0.00064885    0.00023257
     atom   17 type  2   force =     0.00011789   -0.00003137   -0.00006252
     atom   18 type  2   force =    -0.00115090    0.00001527    0.00054838
     atom   19 type  1   force =     0.00108424   -0.00026905   -0.00055654
     atom   20 type  1   force =    -0.00127651    0.00096607   -0.00058009
     atom   21 type  2   force =     0.00000645   -0.00004631    0.10367777
     atom   22 type  2   force =    -0.00006142    0.00137302    0.00065638
     atom   23 type  2   force =    -0.07089561   -0.00014540   -0.02715836
     atom   24 type  2   force =     0.07073855    0.00029326   -0.02722927
     atom   25 type  1   force =     0.00001109   -0.00014293    0.09410197
     atom   26 type  1   force =    -0.00021951   -0.00034748   -0.17730447
     atom   27 type  2   force =     0.00005405   -0.00032032   -0.02067261
     atom   28 type  2   force =     0.00005135   -0.00136254    0.05586813
     atom   29 type  2   force =    -0.01088930    0.00029153    0.00604426
     atom   30 type  2   force =     0.01228951    0.00055047    0.00508407
     atom   31 type  1   force =    -0.00056987    0.00495085   -0.01402260
     atom   32 type  1   force =     0.00030789   -0.00744957    0.00636689
     atom   33 type  2   force =     0.00024983    0.00013092   -0.00019377
     atom   34 type  2   force =    -0.00066591    0.00182217   -0.00594703
     atom   35 type  2   force =    -0.00002600   -0.00024192    0.00004281
     atom   36 type  2   force =     0.00025292   -0.00031874    0.00020052
     atom   37 type  1   force =     0.00022165    0.00091379    0.00046453
     atom   38 type  1   force =    -0.00007842    0.00004661    0.00067500
     atom   39 type  2   force =     0.00035355    0.00021609    0.00000092
     atom   40 type  2   force =    -0.00011955   -0.00037721    0.00056860
     atom   41 type  2   force =    -0.00065426   -0.00020577   -0.00048534
     atom   42 type  2   force =    -0.00021328    0.00015826    0.00029440
     atom   43 type  1   force =     0.00074242   -0.00158882   -0.00063693
     atom   44 type  1   force =    -0.00104107   -0.00032930   -0.00117661
     atom   45 type  2   force =     0.00000271   -0.00009933    0.10364039
     atom   46 type  2   force =    -0.07091696   -0.00009605   -0.02716278
     atom   47 type  2   force =     0.07075800    0.00033142   -0.02721508
     atom   48 type  3   force =     0.00628477   -0.00531809   -0.00255535
     atom   49 type  4   force =    -0.00086596    0.00147065    0.00050370
     atom   50 type  5   force =     0.00010383   -0.00089943    0.00031635
     atom   51 type  5   force =     0.00020157   -0.00021725   -0.00059865
     atom   52 type  5   force =    -0.00539001    0.00374173    0.00222802
     atom   53 type  2   force =     0.00087289   -0.00121001    0.00075982
     atom   54 type  5   force =    -0.00037311    0.00046078   -0.00002967
     atom   55 type  5   force =     0.00069334   -0.00075690   -0.00040225

     Total force =     0.365791     Total SCF correction =     0.000630
  @ DRIVER MODE: Message from server: STATUS
  @ DRIVER MODE: Message from server: GETFORCE
  @ DRIVER MODE: Returning v,forces,stress,ensemble

     Writing output data file ./calc.save/
  @ DRIVER MODE: Message from server: EXIT
  @ DRIVE MODE: Exiting

     General routines

     Parallel routines

   This run was terminated on:  17:18: 5  15Sep2021

   JOB DONE.