     Program PWSCF v.6.7GPU starts on 10Sep2021 at 13:22:17

     R & G space division:  proc/nbgrp/npool/nimage =      10
     Reading input from /storage/home/hcoda1/3/ntian30/research/carbon/CxH_vib/CH3_calc/ads_slab/CH3N2OH_j/out_0048/pw.inp
Warning: card &CELL ignored
Warning: card   CELL_DYNAMICS='IPI', ignored
Warning: card / ignored

     Current dimensions of program PWSCF are:
     Max number of different atomic species (ntypx) = 10
     Max number of k-points (npk) =  40000
     Max angular momentum in pseudopotentials (lmaxx) =  3
     Presently no symmetry can be used with electric field

     Message from routine cell_base_init:
     DEPRECATED: use true lattice parameter, not A to a.u. conversion factor

     IMPORTANT: XC functional enforced from input :
     Exchange-correlation= BEEF-VDW
                           (   1   4  43  14   2   0   0)
     Any further DFT definition will be discarded
     Please, verify this is what you really want

  @ DRIVER MODE: Connecting to
 qe_1139763_2779713.sched-torque.pace.gatech.educweo4m3y_scratch
  using UNIX socket
  @ DRIVER MODE: Message from server: STATUS
  @ DRIVER MODE: Message from server: INIT
  @ DRIVER MODE: Receiving replica           0          -1
  @ DRIVER MODE: Receiving encoded integer          25
  @ DRIVER MODE:  SCF:  T  FORCE:  T  STRESS:  F  VC:  F  ENSEMBLE:  F
  @ DRIVER MODE:  SCF:  T  FORCE:  T  STRESS:  F  VC:  F  ENSEMBLE:  F

     Using Slab Decomposition

     bravais-lattice index     =            0
     lattice parameter (alat)  =       1.8897  a.u.
     unit-cell volume          =    6658.9804 (a.u.)^3
     number of atoms/cell      =           55
     number of atomic types    =            5
     number of electrons       =       402.00
     number of Kohn-Sham states=          211
     kinetic-energy cutoff     =      29.3995  Ry
     charge density cutoff     =     293.9946  Ry
     scf convergence threshold =      7.3E-08
     mixing beta               =       0.0500
     number of iterations used =            8  plain     mixing
     Exchange-correlation= BEEF-VDW
                           (   1   4  43  14   2   0   0)

     celldm(1)=   1.889726  celldm(2)=   0.000000  celldm(3)=   0.000000
     celldm(4)=   0.000000  celldm(5)=   0.000000  celldm(6)=   0.000000

     crystal axes: (cart. coord. in units of alat)
               a(1) = (   6.579727   0.000000   0.000000 )
               a(2) = (  -0.000775   5.961596   0.000000 )
               a(3) = (   0.000000   0.000000  25.155947 )

     reciprocal axes: (cart. coord. in units 2 pi/alat)
               b(1) = (  0.151982  0.000020  0.000000 )
               b(2) = (  0.000000  0.167740  0.000000 )
               b(3) = (  0.000000  0.000000  0.039752 )

     PseudoPot. # 1 for Ti read from file:
     /storage/coda1/p-amedford6/0/shared/rich_project_chbe-medford/medford-share/data/pseudos_module/espresso/nninc/pbe/van/Ti.UPF
     MD5 check sum: 8e4df49b7f0d34bbd5052bf3f5ea0213
     Pseudo is Ultrasoft, Zval = 12.0
     Generated by new atomic code, or converted to UPF format
     Using radial grid of  851 points,  6 beta functions with:
                l(1) =   0
                l(2) =   0
                l(3) =   1
                l(4) =   1
                l(5) =   2
                l(6) =   2
     Q(r) pseudized with  8 coefficients,  rinner =    1.000   1.000   1.000
                                                       1.000   1.000

     PseudoPot. # 2 for O  read from file:
     /storage/coda1/p-amedford6/0/shared/rich_project_chbe-medford/medford-share/data/pseudos_module/espresso/nninc/pbe/van/O.UPF
     MD5 check sum: 78c19812648e8988a0fe644b0f25305e
     Pseudo is Ultrasoft, Zval =  6.0
     Generated by new atomic code, or converted to UPF format
     Using radial grid of  737 points,  4 beta functions with:
                l(1) =   0
                l(2) =   0
                l(3) =   1
                l(4) =   1
     Q(r) pseudized with  8 coefficients,  rinner =    0.800   0.800   0.800

     PseudoPot. # 3 for N  read from file:
     /storage/coda1/p-amedford6/0/shared/rich_project_chbe-medford/medford-share/data/pseudos_module/espresso/nninc/pbe/van/N.UPF
     MD5 check sum: 90d10febe142ad51ac9d5be1deb811c4
     Pseudo is Ultrasoft, Zval =  5.0
     Generated by new atomic code, or converted to UPF format
     Using radial grid of  729 points,  4 beta functions with:
                l(1) =   0
                l(2) =   0
                l(3) =   1
                l(4) =   1
     Q(r) pseudized with  8 coefficients,  rinner =    0.800   0.800   0.800

     PseudoPot. # 4 for C  read from file:
     /storage/coda1/p-amedford6/0/shared/rich_project_chbe-medford/medford-share/data/pseudos_module/espresso/nninc/pbe/van/C.UPF
     MD5 check sum: 1a69bf6b8db32088f5b2163dbdb77a27
     Pseudo is Ultrasoft, Zval =  4.0
     Generated by new atomic code, or converted to UPF format
     Using radial grid of  721 points,  4 beta functions with:
                l(1) =   0
                l(2) =   0
                l(3) =   1
                l(4) =   1
     Q(r) pseudized with  8 coefficients,  rinner =    0.800   0.800   0.800

     PseudoPot. # 5 for H  read from file:
     /storage/coda1/p-amedford6/0/shared/rich_project_chbe-medford/medford-share/data/pseudos_module/espresso/nninc/pbe/van/H.UPF
     MD5 check sum: b5ee9d7bfd3a09ee7748110bda690ff7
     Pseudo is Ultrasoft, Zval =  1.0
     Generated by new atomic code, or converted to UPF format
     Using radial grid of  615 points,  1 beta functions with:
                l(1) =   0
     Q(r) pseudized with  8 coefficients,  rinner =    0.800

     atomic species   valence    mass     pseudopotential
        Ti1           12.00    47.86700     Ti( 1.00)
        O1             6.00    15.99900     O ( 1.00)
        N1             5.00    14.00700     N ( 1.00)
        C1             4.00    12.01100     C ( 1.00)
        H1             1.00     1.00800     H ( 1.00)

     No symmetry found

   Cartesian axes

     site n.     atom                  positions (alat units)
         1           Ti1 tau(   1) = (   0.0004258   2.9801865   6.0000000  )
         2           Ti1 tau(   2) = (   3.2906075   1.4906267   6.0002472  )
         3           O1  tau(   3) = (   0.0006271   0.0005054   7.9858123  )
         4           O1  tau(   4) = (   3.2906025   0.0005020   7.3038282  )
         5           O1  tau(   5) = (   4.5942328   1.4918067   9.2879030  )
         6           O1  tau(   6) = (   1.9868534   1.4903216   9.2879459  )
         7           Ti1 tau(   7) = (   3.2907910   2.8959150   9.1758416  )
         8           Ti1 tau(   8) = (   0.0015273   1.4827037   9.2680791  )
         9           O1  tau(   9) = (   3.2817971   0.0424577  11.2706337  )
        10           O1  tau(  10) = (   0.0116148   5.9584955  10.6183126  )
        11           O1  tau(  11) = (   1.2813654   1.4951502  12.6332405  )
        12           O1  tau(  12) = (   5.2815101   1.4921423  12.6269808  )
        13           Ti1 tau(  13) = (   6.5662594   2.8603684  12.6843660  )
        14           Ti1 tau(  14) = (   3.2717346   1.4252475  12.4210995  )
        15           O1  tau(  15) = (   6.5710910   0.0045200  14.6317625  )
        16           O1  tau(  16) = (   3.2759495   0.0084639  13.8932321  )
        17           O1  tau(  17) = (   4.5517014   1.4983445  16.0008815  )
        18           O1  tau(  18) = (   2.0271237   1.5070609  16.0478782  )
        19           Ti1 tau(  19) = (   3.2345769   3.0092735  16.2435900  )
        20           Ti1 tau(  20) = (   6.4941389   1.4975806  15.8145731  )
        21           O1  tau(  21) = (   3.2904802   0.0005063   4.7018136  )
        22           O1  tau(  22) = (   6.5579512   0.0396517  17.1742205  )
        23           O1  tau(  23) = (   1.3043587   1.4918075   6.0039043  )
        24           O1  tau(  24) = (   5.2767064   1.4903225   6.0039473  )
        25           Ti1 tau(  25) = (   0.0000382   5.9609847   6.0000000  )
        26           Ti1 tau(  26) = (   3.2902200   4.4714249   6.0002472  )
        27           O1  tau(  27) = (   0.0002396   2.9813036   7.9858123  )
        28           O1  tau(  28) = (   3.2902150   2.9813002   7.3038282  )
        29           O1  tau(  29) = (   4.5938453   4.4726049   9.2879030  )
        30           O1  tau(  30) = (   1.9864658   4.4711199   9.2879459  )
        31           Ti1 tau(  31) = (   3.2891106   5.8743827   9.1763621  )
        32           Ti1 tau(  32) = (   0.0006254   4.4649316   9.2693709  )
        33           O1  tau(  33) = (   3.2800217   2.9666125  11.2981572  )
        34           O1  tau(  34) = (   0.0092240   2.9805883  10.6323155  )
        35           O1  tau(  35) = (   1.2755083   4.4823741  12.6262202  )
        36           O1  tau(  36) = (   5.2848398   4.4807727  12.6177486  )
        37           Ti1 tau(  37) = (   6.5672004   5.8338186  12.5551636  )
        38           Ti1 tau(  38) = (   3.2732152   4.2974050  12.6602233  )
        39           O1  tau(  39) = (   6.5693882   2.9786051  14.6782399  )
        40           O1  tau(  40) = (   3.2805734   3.0393479  13.9038923  )
        41           O1  tau(  41) = (   4.5335661   4.5240572  16.0872286  )
        42           O1  tau(  42) = (   2.0073973   4.5295938  16.0607137  )
        43           Ti1 tau(  43) = (   3.2598295   0.0330142  15.6732764  )
        44           Ti1 tau(  44) = (   6.5464637   4.6748829  16.0422594  )
        45           O1  tau(  45) = (   3.2900926   2.9813045   4.7018136  )
        46           O1  tau(  46) = (   1.3039711   4.4726057   6.0039043  )
        47           O1  tau(  47) = (   5.2763189   4.4711207   6.0039473  )
        48           N1  tau(  48) = (   0.1126456   2.6876119  18.6539570  )
        49           N1  tau(  49) = (   0.0165868   2.9082207  17.4746156  )
        50           C1  tau(  50) = (   0.2746321   3.7930379  19.6319179  )
        51           H1  tau(  51) = (   0.1055085   4.7742840  19.1878107  )
        52           H1  tau(  52) = (   6.1760284   3.5871646  20.4591619  )
        53           H1  tau(  53) = (   1.2982147   3.7051261  19.9977701  )
        54           O1  tau(  54) = (   3.2987527   2.9937385  18.0942264  )
        55           H1  tau(  55) = (   3.7476408   3.7324850  18.5420624  )

     number of k points=    10  Fermi-Dirac smearing, width (Ry)=  0.0073
                       cart. coord. in units 2pi/alat
        k(    1) = (   0.0000000   0.0000000   0.0000000), wk =   0.1250000
        k(    2) = (   0.0000000   0.0419351   0.0000000), wk =   0.2500000
        k(    3) = (   0.0000000  -0.0838702   0.0000000), wk =   0.1250000
        k(    4) = (   0.0379955   0.0000049   0.0000000), wk =   0.2500000
        k(    5) = (   0.0379955   0.0419400   0.0000000), wk =   0.2500000
        k(    6) = (   0.0379955  -0.0838652   0.0000000), wk =   0.2500000
        k(    7) = (   0.0379955  -0.0419301   0.0000000), wk =   0.2500000
        k(    8) = (  -0.0759910  -0.0000099   0.0000000), wk =   0.1250000
        k(    9) = (  -0.0759910   0.0419252   0.0000000), wk =   0.2500000
        k(   10) = (  -0.0759910  -0.0838800   0.0000000), wk =   0.1250000

     Initial potential from superposition of free atoms

     starting charge  385.99915, renormalised to  402.00000

     negative rho (up, down):  1.467E-02 0.000E+00

     %%%%%%%%%%%%%%%%%%%%%%%%%%%%%%%%%%%%%%%%%%%%%%%%%%%%%%%%%%%%%%%%%%%%%%%%
     %                                                                      %
     % You are using vdW-DF, which was implemented by the Thonhauser group. %
     % Please cite the following two papers that made this development      %
     % possible and the two reviews that describe the various versions:     %
     %                                                                      %
     %   T. Thonhauser et al., PRL 115, 136402 (2015).                      %
     %   T. Thonhauser et al., PRB 76, 125112 (2007).                       %
     %   K. Berland et al., Rep. Prog. Phys. 78, 066501 (2015).             %
     %   D.C. Langreth et al., J. Phys.: Condens. Matter 21, 084203 (2009). %
     %                                                                      %
     %                                                                      %
     % If you are calculating the stress with vdW-DF, please also cite:     %
     %                                                                      %
     %   R. Sabatini et al., J. Phys.: Condens. Matter 24, 424209 (2012).   %
     %                                                                      %
     %%%%%%%%%%%%%%%%%%%%%%%%%%%%%%%%%%%%%%%%%%%%%%%%%%%%%%%%%%%%%%%%%%%%%%%%

     Adding external electric field

     Computed dipole along edir(3) :
        Dipole              -11.9806 Ry au,        -30.4517 Debye
        Dipole field         -0.0226 Ry au,

        Potential amp.        2.0958 Ry
        Total length         46.3494 bohr

     Starting wfcs are  304 atomic wfcs
  @ DRIVER MODE: Message from server: STATUS
  @ DRIVER MODE: Message from server: POSDATA
  @ DRIVER MODE: Reading and sharing cell
  @ DRIVER MODE: Reading and sharing positions
  @ DRIVER MODE: Received positions

     Self-consistent Calculation

     iteration #  1     ecut=    29.40 Ry     beta= 0.05
     Davidson diagonalization with overlap
     c_bands:  4 eigenvalues not converged
     c_bands:  3 eigenvalues not converged
     c_bands:  5 eigenvalues not converged
     c_bands:  5 eigenvalues not converged
     c_bands:  3 eigenvalues not converged
     c_bands:  4 eigenvalues not converged
     c_bands:  2 eigenvalues not converged
     c_bands:  1 eigenvalues not converged
     ethr =  1.00E-05,  avg # of iterations = 25.4

[...]

     total energy              =   -2401.02779729 Ry
     estimated scf accuracy    <    6441.05588056 Ry

     iteration #  2     ecut=    29.40 Ry     beta= 0.05
     Davidson diagonalization with overlap
     ethr =  1.00E-02,  avg # of iterations = 22.6

[...]

     iteration # 72     ecut=    29.40 Ry     beta= 0.05
     Davidson diagonalization with overlap
     c_bands:  1 eigenvalues not converged
     ethr =  8.70E-11,  avg # of iterations =  7.4

[...]

     total energy              =   -2972.74455607 Ry
     estimated scf accuracy    <       0.00000008 Ry

     iteration # 78     ecut=    29.40 Ry     beta= 0.05
     Davidson diagonalization with overlap
     ethr =  2.02E-11,  avg # of iterations =  3.2

     negative rho (up, down):  1.548E-02 0.000E+00

     Adding external electric field

     Computed dipole along edir(3) :
        Dipole                0.6116 Ry au,          1.5546 Debye
        Dipole field          0.0012 Ry au,

        Potential amp.       -0.1070 Ry
        Total length         46.3494 bohr

     End of self-consistent calculation

          k = 0.0000 0.0000 0.0000 ( 18029 PWs)   bands (ev):

   -56.2373 -56.2035 -55.8222 -55.7886 -55.5897 -55.5302 -55.4783 -55.4026
   -55.3793 -55.3243 -55.2341 -55.1617 -55.0820 -55.0099 -54.9876 -54.9759
   -32.6877 -32.5298 -32.5029 -32.3958 -32.3118 -32.3032 -32.3014 -32.0698
   -32.0412 -32.0221 -31.9699 -31.9634 -31.9295 -31.8950 -31.8672 -31.8158
   -31.8065 -31.7901 -31.7529 -31.7334 -31.7254 -31.7049 -31.6924 -31.6903
   -31.6884 -31.6486 -31.6006 -31.5721 -31.5521 -31.5344 -31.5332 -31.4956
   -31.4860 -31.4257 -31.4157 -31.4067 -31.3659 -31.3429 -31.3376 -31.3193
   -31.3134 -31.2900 -31.2367 -31.2253 -31.2242 -31.2096 -31.1407 -31.0288
   -18.8578 -16.5314 -16.3221 -16.1956 -15.9836 -15.8169 -15.7242 -15.7163
   -15.6691 -15.5481 -15.5200 -15.4259 -15.3346 -15.2612 -15.2599 -15.2358
   -15.1393 -15.0827 -15.0555 -15.0159 -14.9960 -14.9884 -14.9761 -14.8779
   -14.8614 -14.8559 -14.7135 -14.6904 -14.6060 -14.3579 -14.2609 -13.5075
   -13.3953 -11.5276  -6.9371  -4.4141  -4.1636  -4.0408  -4.0149  -3.8296
    -3.7469  -3.5294  -3.4299  -3.3525  -3.2314  -3.1454  -2.9558  -2.9446
    -2.8909  -2.8212  -2.7464  -2.6872  -2.6353  -2.6247  -2.5508  -2.5126
    -2.4720  -2.4648  -2.4021  -2.3859  -2.2998  -2.2881  -2.2144  -2.1804
    -2.1500  -2.1195  -2.1005  -2.0399  -2.0321  -2.0019  -1.9693  -1.9180
    -1.8556  -1.8094  -1.7229  -1.6713  -1.6540  -1.5623  -1.5427  -1.5314
    -1.5152  -1.3198  -1.2460  -1.2243  -1.2133  -1.0657  -1.0227  -0.9976
    -0.9180  -0.8939  -0.8471  -0.8061  -0.7582  -0.7019  -0.6714  -0.6647
    -0.6401  -0.5890  -0.4007  -0.3688  -0.3194  -0.2901  -0.2527  -0.1963
    -0.1659  -0.1336  -0.0524  -0.0470  -0.0379  -0.0004   0.0497   0.1305
     0.1910   0.2105   0.3031   0.3100   0.3521   0.3863   0.4432   0.4707
     0.5539   0.5979   0.6127   0.6673   0.6879   0.8761   0.9133   0.9497
     0.9875   1.0147   1.0603   1.1757   1.2435   1.5454   1.5627   1.6022
     2.7541   2.9892   3.1180   3.2740   3.4214   3.5162   3.8276   3.8550
     3.8901   3.9512   3.9767

[...]

          k = 0.0380-0.0419 0.0000 ( 17876 PWs)   bands (ev):

[...]

          k =-0.0760-0.0000 0.0000 ( 17886 PWs)   bands (ev):

[...]

          k =-0.0760-0.0839 0.0000 ( 17948 PWs)   bands (ev):

   -56.2208 -56.2198 -55.8065 -55.8041 -55.5844 -55.5354 -55.4754 -55.4053
   -55.3733 -55.3301 -55.2322 -55.1600 -55.0837 -54.9932 -54.9925 -54.9891
   -32.5159 -32.5147 -32.5040 -32.5033 -32.3482 -32.3471 -32.1260 -32.1222
   -32.0009 -31.9987 -31.9954 -31.9937 -31.8899 -31.8513 -31.8137 -31.8078
   -31.8026 -31.7630 -31.7513 -31.7452 -31.7184 -31.7045 -31.6967 -31.6656
   -31.6592 -31.6234 -31.6192 -31.5996 -31.5927 -31.5629 -31.5566 -31.5429
   -31.4864 -31.4320 -31.4298 -31.4193 -31.3635 -31.3424 -31.3325 -31.3320
   -31.2942 -31.2937 -31.2432 -31.2259 -31.2218 -31.2208 -31.1835 -31.1827
   -18.8540 -16.3076 -15.9413 -15.9290 -15.8057 -15.7991 -15.6268 -15.6104
   -15.5885 -15.5322 -15.5105 -15.4633 -15.3230 -15.3136 -15.2533 -15.2204
   -15.1951 -15.1793 -15.1498 -15.1494 -15.1299 -15.0561 -15.0285 -15.0020
   -14.9532 -14.9490 -14.7833 -14.7176 -14.7037 -14.4899 -14.4576 -13.4984
   -13.4982 -11.5256  -6.9509  -4.3618  -4.0372  -3.9979  -3.9283  -3.1096
    -3.0549  -2.9446  -2.9179  -2.8437  -2.8212  -2.7139  -2.6901  -2.6493
    -2.6357  -2.6320  -2.5766  -2.5542  -2.5321  -2.4877  -2.4760  -2.4631
    -2.4383  -2.3899  -2.3795  -2.3611  -2.3456  -2.3292  -2.2351  -2.2306
    -2.2122  -2.1683  -2.1648  -2.1517  -2.0738  -2.0048  -1.9615  -1.9556
    -1.9234  -1.8666  -1.7887  -1.6797  -1.6581  -1.6049  -1.5769  -1.5008
    -1.4714  -1.4262  -1.3311  -1.3245  -1.2973  -1.2799  -1.2188  -1.2046
    -1.0616  -1.0289  -1.0230  -1.0158  -1.0137  -0.9159  -0.8546  -0.7944
    -0.7434  -0.6599  -0.6470  -0.6257  -0.6072  -0.5975  -0.5781  -0.5540
    -0.4926  -0.4508  -0.4007  -0.3839  -0.2794  -0.1984  -0.1656  -0.0994
    -0.0214   0.0669   0.1453   0.1585   0.1968   0.2505   0.3393   0.3813
     0.4237   0.4924   0.5342   0.6085   0.6693   0.7540   0.7784   0.8671
     0.9781   0.9952   1.0452   1.1323   1.4051   1.4118   1.4183   1.4192
     2.7598   3.5369   3.5408   3.5706   3.5788   3.7787   3.7907   3.9165
     3.9710   3.9961   4.0324

     the Fermi energy is     2.9258 ev

!    total energy              =   -2972.74456820 Ry
     estimated scf accuracy    <       0.00000004 Ry
     smearing contrib. (-TS)   =      -0.01283492 Ry
     internal energy E=F+TS    =   -2972.73173328 Ry

     The total energy is F=E-TS. E is the sum of the following terms:
     one-electron contribution =  -23700.16406515 Ry
     hartree contribution      =   11943.39351542 Ry
     xc contribution           =    -493.12019821 Ry
     ewald contribution        =    9277.15830871 Ry
     electric field correction =       0.00070595 Ry

     convergence has been achieved in  78 iterations

     Forces acting on atoms (cartesian axes, Ry/au):

     atom    1 type  1   force =     0.00008924   -0.00038393    0.10702644
     atom    2 type  1   force =    -0.00004298   -0.00169468   -0.16538501
     atom    3 type  2   force =     0.00003545   -0.00025912   -0.03868787
     atom    4 type  2   force =     0.00004518    0.00076258    0.03117207
     atom    5 type  2   force =    -0.00356375    0.00294866   -0.00840315
     atom    6 type  2   force =     0.00470048    0.00361698   -0.01017222
     atom    7 type  1   force =    -0.00073097    0.00048120    0.02124210
     atom    8 type  1   force =     0.00100714    0.01539438    0.06096658
     atom    9 type  2   force =     0.00011302   -0.00014791    0.00008316
     atom   10 type  2   force =    -0.00289355    0.00226626   -0.04715371
     atom   11 type  2   force =    -0.00004744   -0.00020096   -0.00002950
     atom   12 type  2   force =     0.00001112   -0.00002465    0.00019401
     atom   13 type  1   force =     0.00028506   -0.00013575    0.00013928
     atom   14 type  1   force =     0.00040008   -0.00017653    0.00026442
     atom   15 type  2   force =     0.00016028    0.00015141   -0.00031125
     atom   16 type  2   force =     0.00014238   -0.00015071   -0.00003194
     atom   17 type  2   force =     0.00016908    0.00018707    0.00025122
     atom   18 type  2   force =     0.00008184    0.00024567    0.00005330
     atom   19 type  1   force =     0.00028522    0.00024380    0.00036260
     atom   20 type  1   force =    -0.00032099    0.00017326    0.00005039
     atom   21 type  2   force =     0.00010271    0.00000128    0.10029090
     atom   22 type  2   force =     0.00003812    0.00008214   -0.00015354
     atom   23 type  2   force =    -0.07669955   -0.00004612   -0.03007188
     atom   24 type  2   force =     0.07668549    0.00038620   -0.03009560
     atom   25 type  1   force =     0.00005806   -0.00043195    0.10697306
     atom   26 type  1   force =    -0.00010764    0.00062549   -0.16568716
     atom   27 type  2   force =     0.00012203   -0.00027227   -0.03750005
     atom   28 type  2   force =     0.00004474   -0.00043763    0.03534981
     atom   29 type  2   force =    -0.00570051   -0.00043507   -0.00598900
     atom   30 type  2   force =     0.00686447    0.00006325   -0.00767690
     atom   31 type  1   force =    -0.00056814   -0.00239565    0.03462316
     atom   32 type  1   force =     0.00111307   -0.01877711    0.06148881
     atom   33 type  2   force =     0.00022431   -0.00012301    0.00004922
     atom   34 type  2   force =    -0.00253716    0.00012808   -0.05386475
     atom   35 type  2   force =     0.00021541   -0.00024807   -0.00012037
     atom   36 type  2   force =     0.00018495   -0.00002253    0.00027433
     atom   37 type  1   force =     0.00035341   -0.00019410   -0.00010353
     atom   38 type  1   force =     0.00047146   -0.00019394    0.00028908
     atom   39 type  2   force =     0.00016351   -0.00045685    0.00023807
     atom   40 type  2   force =    -0.00019459   -0.00006027   -0.00004978
     atom   41 type  2   force =     0.00016085   -0.00033753   -0.00003520
     atom   42 type  2   force =     0.00019885   -0.00045025    0.00009008
     atom   43 type  1   force =    -0.00020974   -0.00003963   -0.00017478
     atom   44 type  1   force =    -0.00013695   -0.00031991    0.00025789
     atom   45 type  2   force =     0.00009590    0.00010976    0.10049653
     atom   46 type  2   force =    -0.07667851   -0.00005996   -0.03008299
     atom   47 type  2   force =     0.07667013    0.00036124   -0.03011173
     atom   48 type  3   force =     0.00022405   -0.00038046    0.00047681
     atom   49 type  3   force =     0.00015924    0.00014753   -0.00105979
     atom   50 type  4   force =    -0.00072588    0.00149440   -0.00034474
     atom   51 type  5   force =     0.00032215   -0.00096546    0.00071887
     atom   52 type  5   force =     0.00017409    0.00009105   -0.00057348
     atom   53 type  5   force =    -0.00040395   -0.00010102    0.00065651
     atom   54 type  2   force =     0.00430457    0.00756651    0.00500497
     atom   55 type  5   force =    -0.00491483   -0.00760516   -0.00521375

     Total force =     0.381640     Total SCF correction =     0.000554
  @ DRIVER MODE: Message from server: STATUS
  @ DRIVER MODE: Message from server: GETFORCE
  @ DRIVER MODE: Returning v,forces,stress,ensemble

     Writing output data file ./calc.save/
  @ DRIVER MODE: Message from server: EXIT
  @ DRIVE MODE: Exiting

     General routines

     Parallel routines

   This run was terminated on:  13:42:33  10Sep2021

   JOB DONE.