     Program PWSCF v.6.7GPU starts on 28Sep2021 at 15:57:32

     R & G space division:  proc/nbgrp/npool/nimage =       8
     Reading input from /storage/home/hcoda1/3/ntian30/research/carbon/CxH_vib/H2O_calc/ads_slab/CHNHNH2HO_b/out_0013/pw.inp
Warning: card &CELL ignored
Warning: card   CELL_DYNAMICS='IPI', ignored
Warning: card / ignored

     Current dimensions of program PWSCF are:
     Max number of different atomic species (ntypx) = 10
     Max number of k-points (npk) =  40000
     Max angular momentum in pseudopotentials (lmaxx) =  3
     Presently no symmetry can be used with electric field

     Message from routine cell_base_init:
     DEPRECATED: use true lattice parameter, not A to a.u. conversion factor

     IMPORTANT: XC functional enforced from input :
     Exchange-correlation= BEEF-VDW
                           (   1   4  43  14   2   0   0)
     Any further DFT definition will be discarded
     Please, verify this is what you really want

  @ DRIVER MODE: Connecting to
 qe_1139763_3009830.sched-torque.pace.gatech.eduh1x2sfho_scratch
  using UNIX socket
  @ DRIVER MODE: Message from server: STATUS
  @ DRIVER MODE: Message from server: INIT
  @ DRIVER MODE: Receiving replica           0          -1
  @ DRIVER MODE: Receiving encoded integer          25
  @ DRIVER MODE:  SCF:  T  FORCE:  T  STRESS:  F  VC:  F  ENSEMBLE:  F
  @ DRIVER MODE:  SCF:  T  FORCE:  T  STRESS:  F  VC:  F  ENSEMBLE:  F

     Using Slab Decomposition

     bravais-lattice index     =            0
     lattice parameter (alat)  =       1.8897  a.u.
     unit-cell volume          =    6658.9804 (a.u.)^3
     number of atoms/cell      =           56
     number of atomic types    =            5
     number of electrons       =       403.00
     number of Kohn-Sham states=          211
     kinetic-energy cutoff     =      29.3995  Ry
     charge density cutoff     =     293.9946  Ry
     scf convergence threshold =      7.3E-08
     mixing beta               =       0.0500
     number of iterations used =            8  plain     mixing
     Exchange-correlation= BEEF-VDW
                           (   1   4  43  14   2   0   0)

     celldm(1)=   1.889726  celldm(2)=   0.000000  celldm(3)=   0.000000
     celldm(4)=   0.000000  celldm(5)=   0.000000  celldm(6)=   0.000000

     crystal axes: (cart. coord. in units of alat)
               a(1) = (   6.579727   0.000000   0.000000 )
               a(2) = (  -0.000775   5.961596   0.000000 )
               a(3) = (   0.000000   0.000000  25.155947 )

     reciprocal axes: (cart. coord. in units 2 pi/alat)
               b(1) = (  0.151982  0.000020  0.000000 )
               b(2) = (  0.000000  0.167740  0.000000 )
               b(3) = (  0.000000  0.000000  0.039752 )

     PseudoPot. # 1 for Ti read from file:
     /storage/coda1/p-amedford6/0/shared/rich_project_chbe-medford/medford-share/data/pseudos_module/espresso/nninc/pbe/van/Ti.UPF
     MD5 check sum: 8e4df49b7f0d34bbd5052bf3f5ea0213
     Pseudo is Ultrasoft, Zval = 12.0
     Generated by new atomic code, or converted to UPF format
     Using radial grid of  851 points,  6 beta functions with:
                l(1) =   0
                l(2) =   0
                l(3) =   1
                l(4) =   1
                l(5) =   2
                l(6) =   2
     Q(r) pseudized with  8 coefficients,  rinner =    1.000   1.000   1.000
                                                       1.000   1.000

     PseudoPot. # 2 for O  read from file:
     /storage/coda1/p-amedford6/0/shared/rich_project_chbe-medford/medford-share/data/pseudos_module/espresso/nninc/pbe/van/O.UPF
     MD5 check sum: 78c19812648e8988a0fe644b0f25305e
     Pseudo is Ultrasoft, Zval =  6.0
     Generated by new atomic code, or converted to UPF format
     Using radial grid of  737 points,  4 beta functions with:
                l(1) =   0
                l(2) =   0
                l(3) =   1
                l(4) =   1
     Q(r) pseudized with  8 coefficients,  rinner =    0.800   0.800   0.800

     PseudoPot. # 3 for N  read from file:
     /storage/coda1/p-amedford6/0/shared/rich_project_chbe-medford/medford-share/data/pseudos_module/espresso/nninc/pbe/van/N.UPF
     MD5 check sum: 90d10febe142ad51ac9d5be1deb811c4
     Pseudo is Ultrasoft, Zval =  5.0
     Generated by new atomic code, or converted to UPF format
     Using radial grid of  729 points,  4 beta functions with:
                l(1) =   0
                l(2) =   0
                l(3) =   1
                l(4) =   1
     Q(r) pseudized with  8 coefficients,  rinner =    0.800   0.800   0.800

     PseudoPot. # 4 for C  read from file:
     /storage/coda1/p-amedford6/0/shared/rich_project_chbe-medford/medford-share/data/pseudos_module/espresso/nninc/pbe/van/C.UPF
     MD5 check sum: 1a69bf6b8db32088f5b2163dbdb77a27
     Pseudo is Ultrasoft, Zval =  4.0
     Generated by new atomic code, or converted to UPF format
     Using radial grid of  721 points,  4 beta functions with:
                l(1) =   0
                l(2) =   0
                l(3) =   1
                l(4) =   1
     Q(r) pseudized with  8 coefficients,  rinner =    0.800   0.800   0.800

     PseudoPot. # 5 for H  read from file:
     /storage/coda1/p-amedford6/0/shared/rich_project_chbe-medford/medford-share/data/pseudos_module/espresso/nninc/pbe/van/H.UPF
     MD5 check sum: b5ee9d7bfd3a09ee7748110bda690ff7
     Pseudo is Ultrasoft, Zval =  1.0
     Generated by new atomic code, or converted to UPF format
     Using radial grid of  615 points,  1 beta functions with:
                l(1) =   0
     Q(r) pseudized with  8 coefficients,  rinner =    0.800

     atomic species   valence    mass     pseudopotential
        Ti1           12.00    47.86700     Ti( 1.00)
        O1             6.00    15.99900     O ( 1.00)
        N1             5.00    14.00700     N ( 1.00)
        C1             4.00    12.01100     C ( 1.00)
        H1             1.00     1.00800     H ( 1.00)

     No symmetry found

   Cartesian axes

     site n.     atom                  positions (alat units)
         1           Ti1 tau(   1) = (   0.0004258   2.9801865   6.0000000  )
         2           Ti1 tau(   2) = (   3.2906075   1.4906267   6.0002472  )
         3           O1  tau(   3) = (   0.0006271   0.0005054   7.9858123  )
         4           O1  tau(   4) = (   3.2906025   0.0005020   7.3038282  )
         5           O1  tau(   5) = (   4.5942328   1.4918067   9.2879030  )
         6           O1  tau(   6) = (   1.9868534   1.4903216   9.2879459  )
         7           Ti1 tau(   7) = (   3.2907910   2.8959150   9.1758416  )
         8           Ti1 tau(   8) = (   0.0015273   1.4827037   9.2680791  )
         9           O1  tau(   9) = (   3.2982983   0.0405180  11.3424948  )
        10           O1  tau(  10) = (   0.0116148   5.9584955  10.6183126  )
        11           O1  tau(  11) = (   1.2753745   1.5072422  12.7016807  )
        12           O1  tau(  12) = (   5.3195175   1.5181342  12.6954276  )
        13           Ti1 tau(  13) = (   0.0019584   2.9687762  12.4995492  )
        14           Ti1 tau(  14) = (   3.3051642   1.5697923  12.4614731  )
        15           O1  tau(  15) = (   6.5474216   5.8614089  14.6874354  )
        16           O1  tau(  16) = (   3.3077571   5.9224049  13.9445013  )
        17           O1  tau(  17) = (   4.5645563   1.5748115  16.1270233  )
        18           O1  tau(  18) = (   2.0342606   1.5395256  16.0843959  )
        19           Ti1 tau(  19) = (   3.2752269   2.9899004  15.7194909  )
        20           Ti1 tau(  20) = (   6.5310352   1.3332667  15.7916221  )
        21           O1  tau(  21) = (   3.2904802   0.0005063   4.7018136  )
        22           O1  tau(  22) = (   0.0193913   0.2006272  17.2172921  )
        23           O1  tau(  23) = (   1.3043587   1.4918075   6.0039043  )
        24           O1  tau(  24) = (   5.2767064   1.4903225   6.0039473  )
        25           Ti1 tau(  25) = (   0.0000382   5.9609847   6.0000000  )
        26           Ti1 tau(  26) = (   3.2902200   4.4714249   6.0002472  )
        27           O1  tau(  27) = (   0.0002396   2.9813036   7.9858123  )
        28           O1  tau(  28) = (   3.2902150   2.9813002   7.3038282  )
        29           O1  tau(  29) = (   4.5938453   4.4726049   9.2879030  )
        30           O1  tau(  30) = (   1.9864658   4.4711199   9.2879459  )
        31           Ti1 tau(  31) = (   3.2891106   5.8743827   9.1763621  )
        32           Ti1 tau(  32) = (   0.0006254   4.4649316   9.2693709  )
        33           O1  tau(  33) = (   3.2939295   2.9453814  11.3217152  )
        34           O1  tau(  34) = (   0.0092240   2.9805883  10.6323155  )
        35           O1  tau(  35) = (   1.2781447   4.4822909  12.6561401  )
        36           O1  tau(  36) = (   5.3212068   4.4743896  12.6463055  )
        37           Ti1 tau(  37) = (   0.0302233   5.9315785  12.5023592  )
        38           Ti1 tau(  38) = (   3.3112215   4.6713144  12.7097751  )
        39           O1  tau(  39) = (   0.0192075   3.0624537  14.9697097  )
        40           O1  tau(  40) = (   3.2993887   3.0147307  13.9488589  )
        41           O1  tau(  41) = (   4.5718800   4.4489939  16.2708329  )
        42           O1  tau(  42) = (   2.0246426   4.4466800  16.2581844  )
        43           Ti1 tau(  43) = (   3.2612680   0.0306108  16.4716933  )
        44           Ti1 tau(  44) = (   6.5506247   4.5497786  16.0606151  )
        45           O1  tau(  45) = (   3.2900926   2.9813045   4.7018136  )
        46           O1  tau(  46) = (   1.3039711   4.4726057   6.0039043  )
        47           O1  tau(  47) = (   5.2763189   4.4711207   6.0039473  )
        48           N1  tau(  48) = (   0.9981237   2.4704741  18.7333368  )
        49           N1  tau(  49) = (   6.5532285   3.4232418  18.2716252  )
        50           C1  tau(  50) = (   2.1590532   2.7243113  19.1879583  )
        51           H1  tau(  51) = (   2.3212509   3.8010200  19.3435938  )
        52           H1  tau(  52) = (   0.7222050   1.5235952  18.4365492  )
        53           H1  tau(  53) = (   0.1086806   4.2950834  18.7847415  )
        54           H1  tau(  54) = (   5.6367167   3.0457734  18.5222562  )
        55           O1  tau(  55) = (   3.2473456   0.1866190  18.2687603  )
        56           H1  tau(  56) = (   3.0571027   1.0491837  18.7494863  )

     number of k points=    10  Fermi-Dirac smearing, width (Ry)=  0.0073
                       cart. coord. in units 2pi/alat
        k(    1) = (   0.0000000   0.0000000   0.0000000), wk =   0.1250000
        k(    2) = (   0.0000000   0.0419351   0.0000000), wk =   0.2500000
        k(    3) = (   0.0000000  -0.0838702   0.0000000), wk =   0.1250000
        k(    4) = (   0.0379955   0.0000049   0.0000000), wk =   0.2500000
        k(    5) = (   0.0379955   0.0419400   0.0000000), wk =   0.2500000
        k(    6) = (   0.0379955  -0.0838652   0.0000000), wk =   0.2500000
        k(    7) = (   0.0379955  -0.0419301   0.0000000), wk =   0.2500000
        k(    8) = (  -0.0759910  -0.0000099   0.0000000), wk =   0.1250000
        k(    9) = (  -0.0759910   0.0419252   0.0000000), wk =   0.2500000
        k(   10) = (  -0.0759910  -0.0838800   0.0000000), wk =   0.1250000

     Initial potential from superposition of free atoms

     starting charge  386.99914, renormalised to  403.00000

     negative rho (up, down):  1.628E-02 0.000E+00

     %%%%%%%%%%%%%%%%%%%%%%%%%%%%%%%%%%%%%%%%%%%%%%%%%%%%%%%%%%%%%%%%%%%%%%%%
     %                                                                      %
     % You are using vdW-DF, which was implemented by the Thonhauser group. %
     % Please cite the following two papers that made this development      %
     % possible and the two reviews that describe the various versions:     %
     %                                                                      %
     %   T. Thonhauser et al., PRL 115, 136402 (2015).                      %
     %   T. Thonhauser et al., PRB 76, 125112 (2007).                       %
     %   K. Berland et al., Rep. Prog. Phys. 78, 066501 (2015).             %
     %   D.C. Langreth et al., J. Phys.: Condens. Matter 21, 084203 (2009). %
     %                                                                      %
     %                                                                      %
     % If you are calculating the stress with vdW-DF, please also cite:     %
     %                                                                      %
     %   R. Sabatini et al., J. Phys.: Condens. Matter 24, 424209 (2012).   %
     %                                                                      %
     %%%%%%%%%%%%%%%%%%%%%%%%%%%%%%%%%%%%%%%%%%%%%%%%%%%%%%%%%%%%%%%%%%%%%%%%

     Adding external electric field

     Computed dipole along edir(3) :
        Dipole              -13.0968 Ry au,        -33.2887 Debye
        Dipole field         -0.0247 Ry au,

        Potential amp.        2.2911 Ry
        Total length         46.3494 bohr

     Starting wfcs are  305 atomic wfcs
  @ DRIVER MODE: Message from server: STATUS
  @ DRIVER MODE: Message from server: POSDATA
  @ DRIVER MODE: Reading and sharing cell
  @ DRIVER MODE: Reading and sharing positions
  @ DRIVER MODE: Received positions

     Self-consistent Calculation

     iteration #  1     ecut=    29.40 Ry     beta= 0.05
     Davidson diagonalization with overlap
     c_bands:  5 eigenvalues not converged
     c_bands:  2 eigenvalues not converged
     c_bands:  1 eigenvalues not converged
     c_bands:  1 eigenvalues not converged
     c_bands:  5 eigenvalues not converged
     c_bands:  4 eigenvalues not converged
     c_bands:  1 eigenvalues not converged
     ethr =  1.00E-05,  avg # of iterations = 27.3

[...]

     total energy              =   -2288.82435541 Ry
     estimated scf accuracy    <    7753.94366509 Ry

     iteration #  2     ecut=    29.40 Ry     beta= 0.05
     Davidson diagonalization with overlap
     ethr =  1.00E-02,  avg # of iterations = 24.6

[...]

     iteration # 61     ecut=    29.40 Ry     beta= 0.05
     Davidson diagonalization with overlap
     c_bands:  1 eigenvalues not converged
     ethr =  6.44E-09,  avg # of iterations = 14.5

[...]

     total energy              =   -2973.89786253 Ry
     estimated scf accuracy    <       0.00000021 Ry

     iteration # 73     ecut=    29.40 Ry     beta= 0.05
     Davidson diagonalization with overlap
     ethr =  5.25E-11,  avg # of iterations =  9.8

     negative rho (up, down):  1.611E-02 0.000E+00

     Adding external electric field

     Computed dipole along edir(3) :
        Dipole                0.8531 Ry au,          2.1683 Debye
        Dipole field          0.0016 Ry au,

        Potential amp.       -0.1492 Ry
        Total length         46.3494 bohr

     End of self-consistent calculation

          k = 0.0000 0.0000 0.0000 ( 18029 PWs)   bands (ev):

   -55.6411 -55.6379 -55.6039 -55.5681 -55.4881 -55.4659 -55.4457 -55.4422
   -55.4319 -55.3894 -55.3471 -55.2891 -55.2107 -55.0652 -54.6011 -54.5671
   -32.1222 -32.0957 -31.9760 -31.9706 -31.9693 -31.9285 -31.9040 -31.8838
   -31.8772 -31.8622 -31.8426 -31.8315 -31.7906 -31.7608 -31.7471 -31.7443
   -31.7398 -31.7261 -31.7054 -31.7010 -31.6957 -31.6695 -31.6642 -31.6511
   -31.6401 -31.6387 -31.6168 -31.6081 -31.5929 -31.5890 -31.5835 -31.5720
   -31.5609 -31.5442 -31.5009 -31.4930 -31.4898 -31.4745 -31.4107 -31.3248
   -31.2909 -31.2828 -31.0063 -30.9218 -30.8993 -30.8241 -30.7378 -30.6258
   -18.7362 -16.3062 -16.2528 -16.1109 -15.8877 -15.8006 -15.7694 -15.6083
   -15.4819 -15.4401 -15.3166 -15.1701 -15.1399 -15.1322 -15.1264 -15.1174
   -15.0999 -15.0721 -15.0589 -15.0541 -15.0406 -14.9763 -14.9575 -14.9285
   -14.8495 -14.7965 -14.7688 -14.6986 -14.6556 -14.5559 -14.5493 -14.2709
   -13.0989 -12.9827  -9.5957  -6.9232  -5.8566  -4.3254  -4.0931  -3.8531
    -3.6258  -3.5366  -3.5135  -3.4052  -3.3165  -3.0844  -3.0621  -2.9929
    -2.8404  -2.7473  -2.6623  -2.6354  -2.5942  -2.5406  -2.5267  -2.4840
    -2.4179  -2.3867  -2.3449  -2.3330  -2.2836  -2.2758  -2.2301  -2.1518
    -2.1451  -2.0395  -1.9714  -1.9670  -1.9522  -1.9436  -1.8940  -1.8786
    -1.8711  -1.8007  -1.7454  -1.7109  -1.6454  -1.6189  -1.5478  -1.3041
    -1.2245  -1.2117  -1.1500  -1.0690  -1.0387  -1.0246  -1.0133  -0.9884
    -0.9607  -0.8726  -0.8451  -0.7060  -0.6993  -0.6689  -0.6409  -0.6079
    -0.4944  -0.4307  -0.4070  -0.3619  -0.3409  -0.3040  -0.2380  -0.2190
    -0.1395  -0.0957  -0.0164  -0.0144   0.0115   0.0820   0.1416   0.1760
     0.1914   0.2924   0.3073   0.3361   0.3428   0.3655   0.3917   0.4848
     0.5027   0.5448   0.5673   0.7087   0.7193   0.7714   0.9148   0.9453
     1.0475   1.1455   1.3834   1.4036   1.4261   1.4533   1.6223   1.9911
     2.0359   3.4416   3.6009   3.6140   3.7105   3.7234   3.8005   3.9361
     4.0304   4.1022   4.1980

[...]

          k = 0.0380-0.0419 0.0000 ( 17876 PWs)   bands (ev):

[...]

          k =-0.0760-0.0000 0.0000 ( 17886 PWs)   bands (ev):

[...]

          k =-0.0760-0.0839 0.0000 ( 17948 PWs)   bands (ev):

   -55.6402 -55.6209 -55.6208 -55.5669 -55.4799 -55.4514 -55.4494 -55.4469
   -55.4464 -55.3810 -55.3554 -55.2902 -55.2088 -55.0670 -54.5841 -54.5840
   -32.0207 -31.9376 -31.9375 -31.9303 -31.9140 -31.9139 -31.9046 -31.8428
   -31.8173 -31.8090 -31.7985 -31.7829 -31.7775 -31.7614 -31.7593 -31.7410
   -31.7408 -31.7312 -31.7298 -31.7185 -31.7179 -31.7037 -31.6927 -31.6862
   -31.6503 -31.6465 -31.6453 -31.6396 -31.6245 -31.6220 -31.6144 -31.6019
   -31.5854 -31.5796 -31.5685 -31.5655 -31.4945 -31.4659 -31.4142 -31.4060
   -31.3295 -31.2862 -30.9121 -30.9120 -30.8194 -30.8190 -30.7812 -30.7809
   -18.7303 -16.2589 -15.9397 -15.6343 -15.6332 -15.6133 -15.4547 -15.4207
   -15.3889 -15.3592 -15.3093 -15.3032 -15.2779 -15.2430 -15.2297 -15.1763
   -15.1521 -15.1351 -15.1166 -15.0976 -15.0780 -15.0495 -15.0388 -15.0373
   -14.9575 -14.9486 -14.9341 -14.9263 -14.8524 -14.6367 -14.5225 -14.4289
   -13.0847 -13.0846  -9.5824  -6.9180  -5.8199  -4.5060  -3.9470  -3.7891
    -3.0673  -2.8685  -2.8389  -2.7122  -2.6787  -2.6554  -2.5908  -2.5499
    -2.5486  -2.4719  -2.4589  -2.4140  -2.4097  -2.3651  -2.3628  -2.3349
    -2.3259  -2.3124  -2.3031  -2.2961  -2.2472  -2.2214  -2.2181  -2.2056
    -2.1822  -2.1689  -2.1445  -2.1281  -2.0683  -1.9927  -1.8803  -1.8579
    -1.7983  -1.7638  -1.7494  -1.7301  -1.7081  -1.6811  -1.6622  -1.5664
    -1.4819  -1.4207  -1.3193  -1.2338  -1.2120  -1.1592  -1.1509  -1.1089
    -1.0860  -1.0654  -1.0290  -0.9610  -0.8508  -0.8393  -0.7709  -0.6850
    -0.6483  -0.5778  -0.5755  -0.5691  -0.5534  -0.5295  -0.5107  -0.4675
    -0.4561  -0.3646  -0.3406  -0.3334  -0.3149  -0.2874  -0.1508  -0.1129
    -0.0632   0.1373   0.1439   0.1722   0.2799   0.3696   0.4353   0.4458
     0.5029   0.5512   0.5856   0.6251   0.6808   0.7046   0.7706   0.8802
     0.8864   0.9054   0.9471   1.0084   1.2760   1.7913   1.7980   1.8563
     1.8565   3.6562   3.8508   3.9654   3.9709   3.9861   4.0275   4.0365
     4.0503   4.1112   4.1206

     the Fermi energy is     3.4823 ev

!    total energy              =   -2973.89787675 Ry
     estimated scf accuracy    <       0.00000005 Ry
     smearing contrib. (-TS)   =      -0.01933085 Ry
     internal energy E=F+TS    =   -2973.87854590 Ry

     The total energy is F=E-TS. E is the sum of the following terms:
     one-electron contribution =  -23221.86441108 Ry
     hartree contribution      =   11705.34999971 Ry
     xc contribution           =    -493.96662422 Ry
     ewald contribution        =    9036.60111631 Ry
     electric field correction =       0.00137338 Ry

     convergence has been achieved in  73 iterations

     Forces acting on atoms (cartesian axes, Ry/au):

     atom    1 type  1   force =     0.00006980   -0.00019818    0.09418233
     atom    2 type  1   force =    -0.00015383    0.00003229   -0.17482218
     atom    3 type  2   force =     0.00002927   -0.00049995   -0.02069782
     atom    4 type  2   force =     0.00004299   -0.00070809    0.05227395
     atom    5 type  2   force =    -0.00298353   -0.00196622    0.00012701
     atom    6 type  2   force =     0.00461957   -0.00150282   -0.00032926
     atom    7 type  1   force =    -0.00019247    0.00281636    0.01408516
     atom    8 type  1   force =    -0.00012272   -0.00121742   -0.00059836
     atom    9 type  2   force =     0.00005302   -0.00010746   -0.00009118
     atom   10 type  2   force =    -0.00139801    0.00346917   -0.00731271
     atom   11 type  2   force =    -0.00017923    0.00025489    0.00021295
     atom   12 type  2   force =     0.00036899    0.00039543    0.00061926
     atom   13 type  1   force =    -0.00042746    0.00057223   -0.00029931
     atom   14 type  1   force =     0.00000965   -0.00008002    0.00065822
     atom   15 type  2   force =     0.00038547    0.00092861    0.00063009
     atom   16 type  2   force =    -0.00009504   -0.00077591    0.00093282
     atom   17 type  2   force =     0.00054357   -0.00025892   -0.00010077
     atom   18 type  2   force =     0.00021183   -0.00003104   -0.00013381
     atom   19 type  1   force =     0.00006111    0.00007860   -0.00060505
     atom   20 type  1   force =    -0.00031448   -0.00026571   -0.00051458
     atom   21 type  2   force =     0.00006926   -0.00000318    0.10299853
     atom   22 type  2   force =     0.00040975    0.00047946   -0.00003249
     atom   23 type  2   force =    -0.07235138   -0.00017543   -0.02724834
     atom   24 type  2   force =     0.07229434    0.00026605   -0.02729818
     atom   25 type  1   force =     0.00007270   -0.00030532    0.09362896
     atom   26 type  1   force =    -0.00005949   -0.00116768   -0.17492998
     atom   27 type  2   force =     0.00017327   -0.00002344   -0.01957456
     atom   28 type  2   force =     0.00003206   -0.00104283    0.04855441
     atom   29 type  2   force =    -0.00593280    0.00105781    0.00312341
     atom   30 type  2   force =     0.00741472    0.00157169    0.00262457
     atom   31 type  1   force =     0.00005178    0.00141651    0.00269309
     atom   32 type  1   force =     0.00006279    0.00068139   -0.00038788
     atom   33 type  2   force =    -0.00016860   -0.00010775   -0.00050847
     atom   34 type  2   force =    -0.00061521   -0.00196683   -0.01093116
     atom   35 type  2   force =     0.00024548   -0.00040457   -0.00013872
     atom   36 type  2   force =    -0.00004623   -0.00026171   -0.00020412
     atom   37 type  1   force =    -0.00026108   -0.00039463   -0.00052879
     atom   38 type  1   force =     0.00025635    0.00023134    0.00030351
     atom   39 type  2   force =    -0.00036106   -0.00120547   -0.00030690
     atom   40 type  2   force =    -0.00013122    0.00035762    0.00083553
     atom   41 type  2   force =    -0.00088414    0.00012735    0.00028021
     atom   42 type  2   force =     0.00035585   -0.00052267   -0.00002282
     atom   43 type  1   force =    -0.00028085    0.00055390   -0.00009843
     atom   44 type  1   force =     0.00006397   -0.00126433    0.00010739
     atom   45 type  2   force =     0.00006654    0.00005684    0.10284686
     atom   46 type  2   force =    -0.07230779   -0.00006294   -0.02719980
     atom   47 type  2   force =     0.07221778    0.00038287   -0.02723218
     atom   48 type  3   force =    -0.01633943   -0.00374712   -0.00550903
     atom   49 type  3   force =    -0.00235837    0.00122513   -0.00057829
     atom   50 type  4   force =     0.02009071    0.00513533    0.00738778
     atom   51 type  5   force =    -0.00160388   -0.00308582    0.00013126
     atom   52 type  5   force =    -0.00078696    0.00127621    0.00044201
     atom   53 type  5   force =     0.00012920   -0.00037186   -0.00065476
     atom   54 type  5   force =     0.00028521    0.00079370    0.00025153
     atom   55 type  2   force =     0.00037641    0.00060510   -0.00016746
     atom   56 type  5   force =    -0.00070817   -0.00104051   -0.00087346

     Total force =     0.362157     Total SCF correction =     0.000470
  @ DRIVER MODE: Message from server: STATUS
  @ DRIVER MODE: Message from server: GETFORCE
  @ DRIVER MODE: Returning v,forces,stress,ensemble

     Writing output data file ./calc.save/
  @ DRIVER MODE: Message from server: EXIT
  @ DRIVE MODE: Exiting

     General routines

     Parallel routines

   This run was terminated on:  16:23: 9  28Sep2021

   JOB DONE.