     Program PWSCF v.6.7GPU starts on 18Oct2021 at 14:11:40

     R & G space division:  proc/nbgrp/npool/nimage =       8
     Reading input from /storage/home/hcoda1/3/ntian30/research/carbon/CxH_vib/Thiel_calc/ads_slab/NNH2_perslab/out_0005/pw.inp
Warning: card &CELL ignored
Warning: card   CELL_DYNAMICS='IPI', ignored
Warning: card / ignored

     Current dimensions of program PWSCF are:
     Max number of different atomic species (ntypx) = 10
     Max number of k-points (npk) =  40000
     Max angular momentum in pseudopotentials (lmaxx) =  3
     Presently no symmetry can be used with electric field

     Message from routine cell_base_init:
     DEPRECATED: use true lattice parameter, not A to a.u. conversion factor

     IMPORTANT: XC functional enforced from input :
     Exchange-correlation= BEEF-VDW
                           (   1   4  43  14   2   0   0)
     Any further DFT definition will be discarded
     Please, verify this is what you really want

  @ DRIVER MODE: Connecting to
 qe_1139763_3255132.sched-torque.pace.gatech.eduuyrzjw8a_scratch
  using UNIX socket
  @ DRIVER MODE: Message from server: STATUS
  @ DRIVER MODE: Message from server: INIT
  @ DRIVER MODE: Receiving replica           0          -1
  @ DRIVER MODE: Receiving encoded integer          25
  @ DRIVER MODE:  SCF:  T  FORCE:  T  STRESS:  F  VC:  F  ENSEMBLE:  F
  @ DRIVER MODE:  SCF:  T  FORCE:  T  STRESS:  F  VC:  F  ENSEMBLE:  F

     Using Slab Decomposition

     bravais-lattice index     =            0
     lattice parameter (alat)  =       1.8897  a.u.
     unit-cell volume          =    9988.4706 (a.u.)^3
     number of atoms/cell      =           57
     number of atomic types    =            4
     number of electrons       =       438.00
     number of Kohn-Sham states=          229
     kinetic-energy cutoff     =      29.3995  Ry
     charge density cutoff     =     293.9946  Ry
     scf convergence threshold =      7.3E-08
     mixing beta               =       0.0500
     number of iterations used =            8  plain     mixing
     Exchange-correlation= BEEF-VDW
                           (   1   4  43  14   2   0   0)

     celldm(1)=   1.889726  celldm(2)=   0.000000  celldm(3)=   0.000000
     celldm(4)=   0.000000  celldm(5)=   0.000000  celldm(6)=   0.000000

     crystal axes: (cart. coord. in units of alat)
               a(1) = (   6.579727   0.000000   0.000000 )
               a(2) = (  -0.001163   8.942395   0.000000 )
               a(3) = (   0.000000   0.000000  25.155947 )

     reciprocal axes: (cart. coord. in units 2 pi/alat)
               b(1) = (  0.151982  0.000020  0.000000 )
               b(2) = (  0.000000  0.111827  0.000000 )
               b(3) = (  0.000000  0.000000  0.039752 )

     PseudoPot. # 1 for O  read from file:
     /storage/coda1/p-amedford6/0/shared/rich_project_chbe-medford/medford-share/data/pseudos_module/espresso/nninc/pbe/van/O.UPF
     MD5 check sum: 78c19812648e8988a0fe644b0f25305e
     Pseudo is Ultrasoft, Zval =  6.0
     Generated by new atomic code, or converted to UPF format
     Using radial grid of  737 points,  4 beta functions with:
                l(1) =   0
                l(2) =   0
                l(3) =   1
                l(4) =   1
     Q(r) pseudized with  8 coefficients,  rinner =    0.800   0.800   0.800

     PseudoPot. # 2 for Ti read from file:
     /storage/coda1/p-amedford6/0/shared/rich_project_chbe-medford/medford-share/data/pseudos_module/espresso/nninc/pbe/van/Ti.UPF
     MD5 check sum: 8e4df49b7f0d34bbd5052bf3f5ea0213
     Pseudo is Ultrasoft, Zval = 12.0
     Generated by new atomic code, or converted to UPF format
     Using radial grid of  851 points,  6 beta functions with:
                l(1) =   0
                l(2) =   0
                l(3) =   1
                l(4) =   1
                l(5) =   2
                l(6) =   2
     Q(r) pseudized with  8 coefficients,  rinner =    1.000   1.000   1.000
                                                       1.000   1.000

     PseudoPot. # 3 for H  read from file:
     /storage/coda1/p-amedford6/0/shared/rich_project_chbe-medford/medford-share/data/pseudos_module/espresso/nninc/pbe/van/H.UPF
     MD5 check sum: b5ee9d7bfd3a09ee7748110bda690ff7
     Pseudo is Ultrasoft, Zval =  1.0
     Generated by new atomic code, or converted to UPF format
     Using radial grid of  615 points,  1 beta functions with:
                l(1) =   0
     Q(r) pseudized with  8 coefficients,  rinner =    0.800

     PseudoPot. # 4 for N  read from file:
     /storage/coda1/p-amedford6/0/shared/rich_project_chbe-medford/medford-share/data/pseudos_module/espresso/nninc/pbe/van/N.UPF
     MD5 check sum: 90d10febe142ad51ac9d5be1deb811c4
     Pseudo is Ultrasoft, Zval =  5.0
     Generated by new atomic code, or converted to UPF format
     Using radial grid of  729 points,  4 beta functions with:
                l(1) =   0
                l(2) =   0
                l(3) =   1
                l(4) =   1
     Q(r) pseudized with  8 coefficients,  rinner =    0.800   0.800   0.800

     atomic species   valence    mass     pseudopotential
        O1             6.00    15.99900     O ( 1.00)
        Ti1           12.00    47.86700     Ti( 1.00)
        H1             1.00     1.00800     H ( 1.00)
        N1             5.00    14.00700     N ( 1.00)

     No symmetry found

   Cartesian axes

     site n.     atom                  positions (alat units)
         1           O1  tau(   1) = (   0.0007354   0.0005023  10.5931620  )
         2           O1  tau(   2) = (   3.2894307   8.9151027  13.8626301  )
         3           O1  tau(   3) = (   6.5785074   8.9029937  17.1811234  )
         4           O1  tau(   4) = (   0.0006271   0.0005054   7.9858123  )
         5           O1  tau(   5) = (   3.2894531   8.9103059  11.1803102  )
         6           O1  tau(   6) = (   0.0001665   0.0898506  14.4854618  )
         7           O1  tau(   7) = (   1.9868534   1.4903216   9.2879459  )
         8           O1  tau(   8) = (   5.2077972   1.5880252  12.5310617  )
         9           O1  tau(   9) = (   2.0270748   1.5591520  16.0154840  )
        10           Ti1 tau(  10) = (   0.0007404   1.4906270   9.2895810  )
        11           Ti1 tau(  11) = (   3.2905041   1.3137855  12.4866761  )
        12           Ti1 tau(  12) = (   0.0002678   1.1980239  15.9503415  )
        13           O1  tau(  13) = (   4.5942328   1.4918067   9.2879030  )
        14           O1  tau(  14) = (   1.3724876   1.5877008  12.5310667  )
        15           O1  tau(  15) = (   4.5530873   1.5595562  16.0152608  )
        16           Ti1 tau(  16) = (   3.2902859   2.9801868   9.2893338  )
        17           Ti1 tau(  17) = (   0.0008780   2.7802750  12.4897906  )
        18           Ti1 tau(  18) = (   3.2898779   2.8637395  15.6733051  )
        19           O1  tau(  19) = (   0.0003479   2.9813005  10.5931620  )
        20           O1  tau(  20) = (   3.2899356   2.9525523  13.8505550  )
        21           O1  tau(  21) = (   0.0002396   2.9813036   7.9858123  )
        22           O1  tau(  22) = (   3.2901204   2.9601344  11.1763257  )
        23           O1  tau(  23) = (   0.0004730   3.0483324  14.4991547  )
        24           O1  tau(  24) = (   1.9864658   4.4711199   9.2879459  )
        25           O1  tau(  25) = (   5.2121867   4.5795871  12.5488104  )
        26           O1  tau(  26) = (   2.0380122   4.5167588  15.9960207  )
        27           Ti1 tau(  27) = (   0.0003529   4.4714252   9.2895810  )
        28           Ti1 tau(  28) = (   3.2900145   4.2996056  12.4866231  )
        29           Ti1 tau(  29) = (   0.0009039   4.3359069  15.7637737  )
        30           O1  tau(  30) = (   4.5938453   4.4726049   9.2879030  )
        31           O1  tau(  31) = (   1.3674610   4.5798255  12.5489393  )
        32           O1  tau(  32) = (   4.5418257   4.5152924  15.9960624  )
        33           Ti1 tau(  33) = (   3.2898983   5.9609850   9.2893338  )
        34           Ti1 tau(  34) = (   0.0004239   5.7833099  12.5042391  )
        35           Ti1 tau(  35) = (   3.2910320   5.8371074  15.6885635  )
        36           O1  tau(  36) = (  -0.0000397   5.9620987  10.5931620  )
        37           O1  tau(  37) = (   3.2901811   5.9367453  13.8700337  )
        38           O1  tau(  38) = (  -0.0004039   5.8805593  17.2333871  )
        39           O1  tau(  39) = (  -0.0001480   5.9621018   7.9858123  )
        40           O1  tau(  40) = (   3.2898277   5.9371809  11.1794419  )
        41           O1  tau(  41) = (  -0.0006310   6.0052776  14.6075531  )
        42           O1  tau(  42) = (   1.9860782   7.4519181   9.2879459  )
        43           O1  tau(  43) = (   5.2131951   7.5341658  12.5551123  )
        44           O1  tau(  44) = (   2.0327247   7.5116181  16.0212389  )
        45           Ti1 tau(  45) = (  -0.0000347   7.4522234   9.2895810  )
        46           Ti1 tau(  46) = (   3.2898580   7.2746474  12.4940400  )
        47           Ti1 tau(  47) = (  -0.0002525   7.1929251  16.1233257  )
        48           O1  tau(  48) = (   4.5934577   7.4534031   9.2879030  )
        49           O1  tau(  49) = (   1.3658113   7.5340457  12.5553947  )
        50           O1  tau(  50) = (   4.5451309   7.5107891  16.0219122  )
        51           Ti1 tau(  51) = (   3.2895107   8.9417832   9.2893338  )
        52           Ti1 tau(  52) = (   0.0004043   8.7442612  12.5370553  )
        53           Ti1 tau(  53) = (   3.2888508   8.8110328  15.6839088  )
        54           H1  tau(  54) = (   6.5771461   3.9800110  18.9328080  )
        55           N1  tau(  55) = (   6.5778577   3.0643241  18.4967573  )
        56           N1  tau(  56) = (   0.0000211   2.9855599  17.2125610  )
        57           H1  tau(  57) = (   6.5772452   2.2208360  19.0633684  )

     number of k points=    10  Fermi-Dirac smearing, width (Ry)=  0.0073
                       cart. coord. in units 2pi/alat
        k(    1) = (   0.0000000   0.0000000   0.0000000), wk =   0.1250000
        k(    2) = (   0.0000000   0.0279567   0.0000000), wk =   0.2500000
        k(    3) = (   0.0000000  -0.0559134   0.0000000), wk =   0.1250000
        k(    4) = (   0.0379955   0.0000049   0.0000000), wk =   0.2500000
        k(    5) = (   0.0379955   0.0279617   0.0000000), wk =   0.2500000
        k(    6) = (   0.0379955  -0.0559085   0.0000000), wk =   0.2500000
        k(    7) = (   0.0379955  -0.0279518   0.0000000), wk =   0.2500000
        k(    8) = (  -0.0759910  -0.0000099   0.0000000), wk =   0.1250000
        k(    9) = (  -0.0759910   0.0279468   0.0000000), wk =   0.2500000
        k(   10) = (  -0.0759910  -0.0559233   0.0000000), wk =   0.1250000

     Initial potential from superposition of free atoms

     starting charge  419.99912, renormalised to  438.00000

     negative rho (up, down):  3.821E-02 0.000E+00

     %%%%%%%%%%%%%%%%%%%%%%%%%%%%%%%%%%%%%%%%%%%%%%%%%%%%%%%%%%%%%%%%%%%%%%%%
     %                                                                      %
     % You are using vdW-DF, which was implemented by the Thonhauser group. %
     % Please cite the following two papers that made this development      %
     % possible and the two reviews that describe the various versions:     %
     %                                                                      %
     %   T. Thonhauser et al., PRL 115, 136402 (2015).                      %
     %   T. Thonhauser et al., PRB 76, 125112 (2007).                       %
     %   K. Berland et al., Rep. Prog. Phys. 78, 066501 (2015).             %
     %   D.C. Langreth et al., J. Phys.: Condens. Matter 21, 084203 (2009). %
     %                                                                      %
     %                                                                      %
     % If you are calculating the stress with vdW-DF, please also cite:     %
     %                                                                      %
     %   R. Sabatini et al., J. Phys.: Condens. Matter 24, 424209 (2012).   %
     %                                                                      %
     %%%%%%%%%%%%%%%%%%%%%%%%%%%%%%%%%%%%%%%%%%%%%%%%%%%%%%%%%%%%%%%%%%%%%%%%

     Adding external electric field

     Computed dipole along edir(3) :
        Dipole               -4.0069 Ry au,        -10.1845 Debye
        Dipole field         -0.0050 Ry au,

        Potential amp.        0.4673 Ry
        Total length         46.3494 bohr

     Starting wfcs are  330 atomic wfcs
  @ DRIVER MODE: Message from server: STATUS
  @ DRIVER MODE: Message from server: POSDATA
  @ DRIVER MODE: Reading and sharing cell
  @ DRIVER MODE: Reading and sharing positions
  @ DRIVER MODE: Received positions

     Self-consistent Calculation

     iteration #  1     ecut=    29.40 Ry     beta= 0.05
     Davidson diagonalization with overlap
     c_bands:  2 eigenvalues not converged
     c_bands:  4 eigenvalues not converged
     c_bands:  1 eigenvalues not converged
     c_bands:  4 eigenvalues not converged
     c_bands:  1 eigenvalues not converged
     c_bands:  1 eigenvalues not converged
     ethr =  1.00E-05,  avg # of iterations = 25.3

[...]

     total energy              =   -3291.57934297 Ry
     estimated scf accuracy    <      28.47211357 Ry

     iteration #  2     ecut=    29.40 Ry     beta= 0.05
     Davidson diagonalization with overlap
     ethr =  6.50E-03,  avg # of iterations =  4.7

[...]

     iteration # 31     ecut=    29.40 Ry     beta= 0.05
     Davidson diagonalization with overlap
     c_bands:  1 eigenvalues not converged
     ethr =  2.41E-06,  avg # of iterations = 15.2

[...]

     total energy              =   -3290.76828261 Ry
     estimated scf accuracy    <       0.00000009 Ry

     iteration # 61     ecut=    29.40 Ry     beta= 0.05
     Davidson diagonalization with overlap
     ethr =  2.10E-11,  avg # of iterations =  2.0

     negative rho (up, down):  3.582E-02 0.000E+00

     Adding external electric field

     Computed dipole along edir(3) :
        Dipole                1.4080 Ry au,          3.5787 Debye
        Dipole field          0.0018 Ry au,

        Potential amp.       -0.1642 Ry
        Total length         46.3494 bohr

     End of self-consistent calculation

          k = 0.0000 0.0000 0.0000 ( 26871 PWs)   bands (ev):

   -58.1007 -58.0763 -58.0734 -57.9817 -57.9581 -57.9524 -57.8995 -57.8655
   -57.8335 -57.6328 -57.5524 -57.5089 -57.0201 -56.9794 -56.9559 -56.8035
   -56.7759 -56.7659 -34.4597 -34.4578 -34.4553 -34.4441 -34.4410 -34.3922
   -34.3891 -34.3185 -34.2984 -34.2752 -34.2691 -34.2442 -34.2400 -34.2168
   -34.2127 -34.2070 -34.2002 -34.1983 -34.1818 -34.1611 -34.1560 -34.1465
   -34.1453 -34.1361 -34.0929 -34.0827 -34.0467 -34.0274 -33.9959 -33.9154
   -33.8482 -33.8061 -33.7985 -33.7905 -33.7328 -33.6609 -33.5329 -33.4370
   -33.2925 -33.2708 -33.2515 -33.2398 -33.2265 -33.2175 -33.1429 -33.1370
   -33.1208 -33.1125 -33.1089 -33.0923 -33.0147 -32.9539 -32.9402 -32.8137
   -20.4872 -18.8336 -18.3414 -18.2141 -18.2084 -18.1899 -18.1484 -18.1410
   -18.0727 -17.8265 -17.6995 -17.6780 -17.6749 -17.6456 -17.5739 -17.5717
   -17.5444 -17.5117 -17.4988 -17.4744 -17.3971 -17.3930 -17.3215 -17.2901
   -17.2362 -17.1654 -17.1171 -17.0895 -17.0197 -16.8990 -16.7215 -16.5747
   -16.4287 -15.2747 -15.2296 -15.2240 -12.9655  -9.2246  -6.9490  -6.1820
    -5.8707  -5.7477  -5.7243  -5.4590  -5.4468  -5.3719  -5.3619  -5.3160
    -5.2332  -5.2293  -5.2178  -5.2149  -5.1769  -5.0469  -5.0341  -4.9011
    -4.8454  -4.8284  -4.8140  -4.7898  -4.7314  -4.7164  -4.6591  -4.6484
    -4.6282  -4.6168  -4.6078  -4.5111  -4.4724  -4.3787  -4.3521  -4.3281
    -4.3105  -4.2606  -4.1935  -4.1475  -4.1363  -4.0710  -4.0460  -3.9762
    -3.9510  -3.9468  -3.9259  -3.8918  -3.8388  -3.6570  -3.6334  -3.5486
    -3.4205  -3.3516  -3.2675  -3.2578  -3.1795  -3.1680  -3.1454  -3.1340
    -3.1248  -3.1140  -3.0503  -2.9687  -2.9405  -2.8955  -2.8754  -2.8644
    -2.8354  -2.6979  -2.6975  -2.6876  -2.6773  -2.6279  -2.6227  -2.5853
    -2.5818  -2.5782  -2.4780  -2.3900  -2.3611  -2.3471  -2.3113  -2.2620
    -2.1917  -2.1810  -2.1552  -2.0680  -1.9881  -1.9592  -1.7870  -1.7379
    -1.6896  -1.6477  -1.6453  -1.6224  -1.5709  -1.4779  -1.4674  -1.4113
    -1.3604  -1.2017  -0.9964  -0.7231  -0.5023  -0.4918  -0.4650  -0.2945
    -0.2827  -0.1884   0.9406   0.9611   1.2031   1.4183   1.4226   1.5150
     1.6908   1.7059   1.7175   1.7339   1.7684

[...]

          k = 0.0380-0.0280 0.0000 ( 26873 PWs)   bands (ev):

[...]

          k =-0.0760-0.0000 0.0000 ( 26902 PWs)   bands (ev):

[...]

          k =-0.0760-0.0559 0.0000 ( 26868 PWs)   bands (ev):

   -58.0936 -58.0903 -58.0663 -57.9760 -57.9695 -57.9466 -57.8982 -57.8678
   -57.8323 -57.6326 -57.5529 -57.5085 -57.0192 -56.9815 -56.9546 -56.8005
   -56.7829 -56.7618 -34.5398 -34.5210 -34.4487 -34.4461 -34.4036 -34.3887
   -34.2970 -34.2792 -34.2589 -34.2558 -34.2444 -34.2424 -34.2301 -34.2279
   -34.2243 -34.2223 -34.2194 -34.2146 -34.1766 -34.1736 -34.1699 -34.1406
   -34.1342 -34.1135 -34.1075 -34.0989 -34.0762 -34.0375 -33.9274 -33.9110
   -33.8656 -33.8470 -33.8067 -33.7972 -33.7335 -33.6611 -33.5757 -33.3558
   -33.2977 -33.2733 -33.2537 -33.2497 -33.2202 -33.2171 -33.1925 -33.1648
   -33.1442 -33.1281 -33.1080 -33.0014 -32.9831 -32.9262 -32.9180 -32.9018
   -20.4865 -18.5517 -18.5425 -18.2354 -18.1116 -18.0969 -17.9492 -17.8916
   -17.8628 -17.8576 -17.8091 -17.7982 -17.7638 -17.7455 -17.6584 -17.6536
   -17.5978 -17.5889 -17.5841 -17.5516 -17.5365 -17.5212 -17.3222 -17.2663
   -17.1810 -17.1490 -17.1274 -17.0121 -16.9952 -16.9603 -16.7338 -16.5744
   -16.3965 -15.2826 -15.2743 -15.1618 -12.9638  -9.2252  -6.9069  -5.8548
    -5.8461  -5.7403  -5.7027  -5.4489  -5.2141  -5.2015  -5.1945  -5.1738
    -5.1628  -5.1121  -5.0916  -5.0867  -5.0460  -5.0346  -5.0027  -4.9722
    -4.8941  -4.8616  -4.8548  -4.8485  -4.8383  -4.7840  -4.7098  -4.6915
    -4.6630  -4.6373  -4.5847  -4.5171  -4.4680  -4.4366  -4.4128  -4.3253
    -4.2757  -4.2639  -4.0943  -4.0734  -4.0702  -3.9886  -3.9557  -3.8877
    -3.8502  -3.7598  -3.5707  -3.5693  -3.5621  -3.5573  -3.4824  -3.4693
    -3.4545  -3.4346  -3.3759  -3.3487  -3.3438  -3.3233  -3.2672  -3.2287
    -3.1487  -3.0913  -3.0886  -3.0810  -3.0580  -3.0490  -3.0273  -3.0032
    -2.9776  -2.9448  -2.9056  -2.8668  -2.8519  -2.7871  -2.7169  -2.6833
    -2.6633  -2.6465  -2.6259  -2.5349  -2.5034  -2.4015  -2.3771  -2.2676
    -2.1353  -2.0162  -1.9812  -1.9654  -1.9641  -1.8842  -1.8180  -1.8084
    -1.7702  -1.7154  -1.6419  -1.6406  -1.5777  -1.5045  -1.3358  -1.3272
    -1.3127  -1.2697  -1.1558  -1.1371  -0.7316  -0.4182  -0.4070  -0.3686
    -0.3154  -0.3112   0.8583   1.1312   1.2173   1.2328   1.3255   1.3373
     1.3886   1.4985   1.5577   1.5695   1.7535

     the Fermi energy is     0.9499 ev

!    total energy              =   -3290.76831500 Ry
     estimated scf accuracy    <       0.00000007 Ry
     smearing contrib. (-TS)   =      -0.02527263 Ry
     internal energy E=F+TS    =   -3290.74304237 Ry

     The total energy is F=E-TS. E is the sum of the following terms:
     one-electron contribution =  -34652.24606462 Ry
     hartree contribution      =   17389.11386334 Ry
     xc contribution           =    -540.57197715 Ry
     ewald contribution        =   14512.95864212 Ry
     electric field correction =       0.00249394 Ry

     convergence has been achieved in  61 iterations

     Forces acting on atoms (cartesian axes, Ry/au):

     atom    1 type  1   force =     0.00005494    0.00574035    0.05228834
     atom    2 type  1   force =    -0.00006560   -0.00107718   -0.00803692
     atom    3 type  1   force =     0.00001372   -0.00580706   -0.00138421
     atom    4 type  1   force =     0.00004906    0.00074812    0.10111470
     atom    5 type  1   force =    -0.00005966   -0.00053531    0.00808208
     atom    6 type  1   force =     0.00005326   -0.00073006    0.00113438
     atom    7 type  1   force =     0.07734074   -0.00001591   -0.03167543
     atom    8 type  1   force =     0.00602198   -0.02644624    0.00063090
     atom    9 type  1   force =     0.00721679   -0.01975209    0.00204265
     atom   10 type  2   force =    -0.00006969   -0.01108383   -0.16208624
     atom   11 type  2   force =     0.00030800    0.01947130   -0.00148150
     atom   12 type  2   force =    -0.00007055    0.02615664   -0.00094302
     atom   13 type  1   force =    -0.07744347   -0.00045749   -0.03164382
     atom   14 type  1   force =    -0.00577612   -0.02673020    0.00064651
     atom   15 type  1   force =    -0.00731558   -0.01972258    0.00203463
     atom   16 type  2   force =     0.00012138   -0.00266986    0.06040639
     atom   17 type  2   force =    -0.00051166    0.03270949    0.00356589
     atom   18 type  2   force =     0.00015786    0.01777914   -0.00033881
     atom   19 type  1   force =     0.00005543    0.00935060    0.05078720
     atom   20 type  1   force =    -0.00006492   -0.00146027   -0.00571420
     atom   21 type  1   force =     0.00004541    0.00264304    0.10240863
     atom   22 type  1   force =    -0.00005567   -0.00071884    0.00789609
     atom   23 type  1   force =     0.00004921   -0.00211387    0.00097335
     atom   24 type  1   force =     0.07606623   -0.00029596   -0.03166172
     atom   25 type  1   force =     0.00668792   -0.02613606    0.00079210
     atom   26 type  1   force =     0.00579610   -0.01948004    0.00050404
     atom   27 type  2   force =    -0.00005535   -0.00162971   -0.16992600
     atom   28 type  2   force =     0.00031860    0.02056434   -0.00170843
     atom   29 type  2   force =    -0.00012107    0.02375079    0.00174563
     atom   30 type  1   force =    -0.07617238   -0.00074666   -0.03162818
     atom   31 type  1   force =    -0.00641502   -0.02644370    0.00081114
     atom   32 type  1   force =    -0.00577544   -0.01932568    0.00049790
     atom   33 type  2   force =     0.00011468   -0.00117476    0.06159592
     atom   34 type  2   force =    -0.00054902    0.03174660    0.00375867
     atom   35 type  2   force =     0.00005710    0.02583851    0.00302862
     atom   36 type  1   force =     0.00004445    0.00404913    0.05967242
     atom   37 type  1   force =    -0.00006260   -0.00141301   -0.00682501
     atom   38 type  1   force =     0.00000228   -0.00323866   -0.00205954
     atom   39 type  1   force =     0.00005427   -0.00126343    0.10263561
     atom   40 type  1   force =    -0.00005868   -0.00076933    0.00709979
     atom   41 type  1   force =     0.00004354   -0.00319238    0.00249660
     atom   42 type  1   force =     0.07734820   -0.00092177   -0.03227169
     atom   43 type  1   force =     0.00825792   -0.02792982    0.00023141
     atom   44 type  1   force =     0.00769423   -0.02191165    0.00210858
     atom   45 type  2   force =    -0.00008191    0.00750125   -0.16111470
     atom   46 type  2   force =     0.00033520    0.02098684   -0.00161967
     atom   47 type  2   force =    -0.00008613    0.02101236   -0.00093489
     atom   48 type  1   force =    -0.07745183   -0.00136880   -0.03224823
     atom   49 type  1   force =    -0.00797757   -0.02823953    0.00024561
     atom   50 type  1   force =    -0.00770202   -0.02184582    0.00209870
     atom   51 type  2   force =     0.00011697   -0.00314939    0.06197713
     atom   52 type  2   force =    -0.00054413    0.03310949    0.00413395
     atom   53 type  2   force =     0.00007000    0.02977768    0.00536050
     atom   54 type  3   force =    -0.00001253    0.00552873    0.00549104
     atom   55 type  4   force =     0.00001098   -0.00360446   -0.00574308
     atom   56 type  4   force =     0.00000828   -0.00611771   -0.00043418
     atom   57 type  3   force =    -0.00001612    0.00105471    0.00118235

     Total force =     0.436555     Total SCF correction =     0.000666
  @ DRIVER MODE: Message from server: STATUS
  @ DRIVER MODE: Message from server: GETFORCE
  @ DRIVER MODE: Returning v,forces,stress,ensemble

     Writing output data file ./calc.save/
  @ DRIVER MODE: Message from server: EXIT
  @ DRIVE MODE: Exiting

     General routines

     Parallel routines

   This run was terminated on:  14:46:47  18Oct2021

   JOB DONE.