     Program PWSCF v.6.7GPU starts on 23Sep2021 at 18:37:29

     R & G space division:  proc/nbgrp/npool/nimage =       8
     Reading input from /storage/home/hcoda1/3/ntian30/research/carbon/CxH_vib/H2O_calc/ads_slab/CH2N2HO_b/out_0020/pw.inp
Warning: card &CELL ignored
Warning: card   CELL_DYNAMICS='IPI', ignored
Warning: card / ignored

     Current dimensions of program PWSCF are:
     Max number of different atomic species (ntypx) = 10
     Max number of k-points (npk) =  40000
     Max angular momentum in pseudopotentials (lmaxx) =  3
     Presently no symmetry can be used with electric field

     Message from routine cell_base_init:
     DEPRECATED: use true lattice parameter, not A to a.u. conversion factor

     IMPORTANT: XC functional enforced from input :
     Exchange-correlation= BEEF-VDW
                           (   1   4  43  14   2   0   0)
     Any further DFT definition will be discarded
     Please, verify this is what you really want

  @ DRIVER MODE: Connecting to
 qe_1139763_2947312.sched-torque.pace.gatech.eduexcubg51_scratch
  using UNIX socket
  @ DRIVER MODE: Message from server: STATUS
  @ DRIVER MODE: Message from server: INIT
  @ DRIVER MODE: Receiving replica           0          -1
  @ DRIVER MODE: Receiving encoded integer          25
  @ DRIVER MODE:  SCF:  T  FORCE:  T  STRESS:  F  VC:  F  ENSEMBLE:  F
  @ DRIVER MODE:  SCF:  T  FORCE:  T  STRESS:  F  VC:  F  ENSEMBLE:  F

     Using Slab Decomposition

     bravais-lattice index     =            0
     lattice parameter (alat)  =       1.8897  a.u.
     unit-cell volume          =    6658.9804 (a.u.)^3
     number of atoms/cell      =           54
     number of atomic types    =            5
     number of electrons       =       401.00
     number of Kohn-Sham states=          210
     kinetic-energy cutoff     =      29.3995  Ry
     charge density cutoff     =     293.9946  Ry
     scf convergence threshold =      7.3E-08
     mixing beta               =       0.0500
     number of iterations used =            8  plain     mixing
     Exchange-correlation= BEEF-VDW
                           (   1   4  43  14   2   0   0)

     celldm(1)=   1.889726  celldm(2)=   0.000000  celldm(3)=   0.000000
     celldm(4)=   0.000000  celldm(5)=   0.000000  celldm(6)=   0.000000

     crystal axes: (cart. coord. in units of alat)
               a(1) = (   6.579727   0.000000   0.000000 )
               a(2) = (  -0.000775   5.961596   0.000000 )
               a(3) = (   0.000000   0.000000  25.155947 )

     reciprocal axes: (cart. coord. in units 2 pi/alat)
               b(1) = (  0.151982  0.000020  0.000000 )
               b(2) = (  0.000000  0.167740  0.000000 )
               b(3) = (  0.000000  0.000000  0.039752 )

     PseudoPot. # 1 for Ti read from file:
     /storage/coda1/p-amedford6/0/shared/rich_project_chbe-medford/medford-share/data/pseudos_module/espresso/nninc/pbe/van/Ti.UPF
     MD5 check sum: 8e4df49b7f0d34bbd5052bf3f5ea0213
     Pseudo is Ultrasoft, Zval = 12.0
     Generated by new atomic code, or converted to UPF format
     Using radial grid of  851 points,  6 beta functions with:
                l(1) =   0
                l(2) =   0
                l(3) =   1
                l(4) =   1
                l(5) =   2
                l(6) =   2
     Q(r) pseudized with  8 coefficients,  rinner =    1.000   1.000   1.000
                                                       1.000   1.000

     PseudoPot. # 2 for O  read from file:
     /storage/coda1/p-amedford6/0/shared/rich_project_chbe-medford/medford-share/data/pseudos_module/espresso/nninc/pbe/van/O.UPF
     MD5 check sum: 78c19812648e8988a0fe644b0f25305e
     Pseudo is Ultrasoft, Zval =  6.0
     Generated by new atomic code, or converted to UPF format
     Using radial grid of  737 points,  4 beta functions with:
                l(1) =   0
                l(2) =   0
                l(3) =   1
                l(4) =   1
     Q(r) pseudized with  8 coefficients,  rinner =    0.800   0.800   0.800

     PseudoPot. # 3 for N  read from file:
     /storage/coda1/p-amedford6/0/shared/rich_project_chbe-medford/medford-share/data/pseudos_module/espresso/nninc/pbe/van/N.UPF
     MD5 check sum: 90d10febe142ad51ac9d5be1deb811c4
     Pseudo is Ultrasoft, Zval =  5.0
     Generated by new atomic code, or converted to UPF format
     Using radial grid of  729 points,  4 beta functions with:
                l(1) =   0
                l(2) =   0
                l(3) =   1
                l(4) =   1
     Q(r) pseudized with  8 coefficients,  rinner =    0.800   0.800   0.800

     PseudoPot. # 4 for C  read from file:
     /storage/coda1/p-amedford6/0/shared/rich_project_chbe-medford/medford-share/data/pseudos_module/espresso/nninc/pbe/van/C.UPF
     MD5 check sum: 1a69bf6b8db32088f5b2163dbdb77a27
     Pseudo is Ultrasoft, Zval =  4.0
     Generated by new atomic code, or converted to UPF format
     Using radial grid of  721 points,  4 beta functions with:
                l(1) =   0
                l(2) =   0
                l(3) =   1
                l(4) =   1
     Q(r) pseudized with  8 coefficients,  rinner =    0.800   0.800   0.800

     PseudoPot. # 5 for H  read from file:
     /storage/coda1/p-amedford6/0/shared/rich_project_chbe-medford/medford-share/data/pseudos_module/espresso/nninc/pbe/van/H.UPF
     MD5 check sum: b5ee9d7bfd3a09ee7748110bda690ff7
     Pseudo is Ultrasoft, Zval =  1.0
     Generated by new atomic code, or converted to UPF format
     Using radial grid of  615 points,  1 beta functions with:
                l(1) =   0
     Q(r) pseudized with  8 coefficients,  rinner =    0.800

     atomic species   valence    mass     pseudopotential
        Ti1           12.00    47.86700     Ti( 1.00)
        O1             6.00    15.99900     O ( 1.00)
        N1             5.00    14.00700     N ( 1.00)
        C1             4.00    12.01100     C ( 1.00)
        H1             1.00     1.00800     H ( 1.00)

     No symmetry found

   Cartesian axes

     site n.     atom                  positions (alat units)
         1           Ti1 tau(   1) = (   0.0004258   2.9801865   6.0000000  )
         2           Ti1 tau(   2) = (   3.2906075   1.4906267   6.0002472  )
         3           O1  tau(   3) = (   0.0006271   0.0005054   7.9858123  )
         4           O1  tau(   4) = (   3.2906025   0.0005020   7.3038282  )
         5           O1  tau(   5) = (   4.5942328   1.4918067   9.2879030  )
         6           O1  tau(   6) = (   1.9868534   1.4903216   9.2879459  )
         7           Ti1 tau(   7) = (   3.2907910   2.8959150   9.1758416  )
         8           Ti1 tau(   8) = (   0.0015273   1.4827037   9.2680791  )
         9           O1  tau(   9) = (   3.2935892   5.9488104  11.3374186  )
        10           O1  tau(  10) = (   0.0116148   5.9584955  10.6183126  )
        11           O1  tau(  11) = (   1.2908913   1.5070562  12.6495475  )
        12           O1  tau(  12) = (   5.3136790   1.4931969  12.6373367  )
        13           Ti1 tau(  13) = (   0.0127878   2.8868139  12.6015941  )
        14           Ti1 tau(  14) = (   3.2987545   1.3040885  12.7026746  )
        15           O1  tau(  15) = (   0.0175227   0.0240941  14.6538407  )
        16           O1  tau(  16) = (   3.3064676   0.0741613  13.9771881  )
        17           O1  tau(  17) = (   4.5827780   1.5498142  16.1449436  )
        18           O1  tau(  18) = (   2.0366442   1.5898792  16.0867183  )
        19           Ti1 tau(  19) = (   3.3102262   3.0030951  15.6784192  )
        20           Ti1 tau(  20) = (   0.0574396   1.3488835  16.0050117  )
        21           O1  tau(  21) = (   3.2904802   0.0005063   4.7018136  )
        22           O1  tau(  22) = (   0.0721820   0.0083530  17.1768217  )
        23           O1  tau(  23) = (   1.3043587   1.4918075   6.0039043  )
        24           O1  tau(  24) = (   5.2767064   1.4903225   6.0039473  )
        25           Ti1 tau(  25) = (   0.0000382   5.9609847   6.0000000  )
        26           Ti1 tau(  26) = (   3.2902200   4.4714249   6.0002472  )
        27           O1  tau(  27) = (   0.0002396   2.9813036   7.9858123  )
        28           O1  tau(  28) = (   3.2902150   2.9813002   7.3038282  )
        29           O1  tau(  29) = (   4.5938453   4.4726049   9.2879030  )
        30           O1  tau(  30) = (   1.9864658   4.4711199   9.2879459  )
        31           Ti1 tau(  31) = (   3.2891106   5.8743827   9.1763621  )
        32           Ti1 tau(  32) = (   0.0006254   4.4649316   9.2693709  )
        33           O1  tau(  33) = (   3.2934580   3.0155445  11.2926531  )
        34           O1  tau(  34) = (   0.0092240   2.9805883  10.6323155  )
        35           O1  tau(  35) = (   1.2931599   4.4792858  12.6478595  )
        36           O1  tau(  36) = (   5.3056662   4.4876152  12.6363886  )
        37           Ti1 tau(  37) = (   6.5746511   5.8741161  12.5153022  )
        38           Ti1 tau(  38) = (   3.2863760   4.3878630  12.4273393  )
        39           O1  tau(  39) = (   6.5684735   3.0099032  14.7382625  )
        40           O1  tau(  40) = (   3.3273571   2.9915841  13.8999870  )
        41           O1  tau(  41) = (   4.5754576   4.4629145  16.1269992  )
        42           O1  tau(  42) = (   2.0375947   4.4358961  16.0236521  )
        43           Ti1 tau(  43) = (   3.3857405   0.0156461  16.2930207  )
        44           Ti1 tau(  44) = (   0.0840152   4.5257857  15.8004899  )
        45           O1  tau(  45) = (   3.2900926   2.9813045   4.7018136  )
        46           O1  tau(  46) = (   1.3039711   4.4726057   6.0039043  )
        47           O1  tau(  47) = (   5.2763189   4.4711207   6.0039473  )
        48           N1  tau(  48) = (   6.4876325   3.2951735  18.6921505  )
        49           N1  tau(  49) = (   0.0139976   3.0420413  17.5569154  )
        50           C1  tau(  50) = (   6.3059459   3.6199554  19.9036174  )
        51           H1  tau(  51) = (   5.3063100   3.8231348  20.2372398  )
        52           H1  tau(  52) = (   0.5840524   3.7151184  20.5547593  )
        53           O1  tau(  53) = (   3.1058724   5.9363815  18.1230642  )
        54           H1  tau(  54) = (   2.1709728   0.0855973  18.3648350  )

     number of k points=    10  Fermi-Dirac smearing, width (Ry)=  0.0073
                       cart. coord. in units 2pi/alat
        k(    1) = (   0.0000000   0.0000000   0.0000000), wk =   0.1250000
        k(    2) = (   0.0000000   0.0419351   0.0000000), wk =   0.2500000
        k(    3) = (   0.0000000  -0.0838702   0.0000000), wk =   0.1250000
        k(    4) = (   0.0379955   0.0000049   0.0000000), wk =   0.2500000
        k(    5) = (   0.0379955   0.0419400   0.0000000), wk =   0.2500000
        k(    6) = (   0.0379955  -0.0838652   0.0000000), wk =   0.2500000
        k(    7) = (   0.0379955  -0.0419301   0.0000000), wk =   0.2500000
        k(    8) = (  -0.0759910  -0.0000099   0.0000000), wk =   0.1250000
        k(    9) = (  -0.0759910   0.0419252   0.0000000), wk =   0.2500000
        k(   10) = (  -0.0759910  -0.0838800   0.0000000), wk =   0.1250000

     Initial potential from superposition of free atoms

     starting charge  384.99916, renormalised to  401.00000

     negative rho (up, down):  1.407E-02 0.000E+00

     %%%%%%%%%%%%%%%%%%%%%%%%%%%%%%%%%%%%%%%%%%%%%%%%%%%%%%%%%%%%%%%%%%%%%%%%
     %                                                                      %
     % You are using vdW-DF, which was implemented by the Thonhauser group. %
     % Please cite the following two papers that made this development      %
     % possible and the two reviews that describe the various versions:     %
     %                                                                      %
     %   T. Thonhauser et al., PRL 115, 136402 (2015).                      %
     %   T. Thonhauser et al., PRB 76, 125112 (2007).                       %
     %   K. Berland et al., Rep. Prog. Phys. 78, 066501 (2015).             %
     %   D.C. Langreth et al., J. Phys.: Condens. Matter 21, 084203 (2009). %
     %                                                                      %
     %                                                                      %
     % If you are calculating the stress with vdW-DF, please also cite:     %
     %                                                                      %
     %   R. Sabatini et al., J. Phys.: Condens. Matter 24, 424209 (2012).   %
     %                                                                      %
     %%%%%%%%%%%%%%%%%%%%%%%%%%%%%%%%%%%%%%%%%%%%%%%%%%%%%%%%%%%%%%%%%%%%%%%%

     Adding external electric field

     Computed dipole along edir(3) :
        Dipole              -11.8206 Ry au,        -30.0448 Debye
        Dipole field         -0.0223 Ry au,

        Potential amp.        2.0678 Ry
        Total length         46.3494 bohr

     Starting wfcs are  303 atomic wfcs
  @ DRIVER MODE: Message from server: STATUS
  @ DRIVER MODE: Message from server: POSDATA
  @ DRIVER MODE: Reading and sharing cell
  @ DRIVER MODE: Reading and sharing positions
  @ DRIVER MODE: Received positions

     Self-consistent Calculation

     iteration #  1     ecut=    29.40 Ry     beta= 0.05
     Davidson diagonalization with overlap
     c_bands:  3 eigenvalues not converged
     c_bands:  4 eigenvalues not converged
     c_bands:  1 eigenvalues not converged
     c_bands:  4 eigenvalues not converged
     c_bands:  4 eigenvalues not converged
     c_bands:  1 eigenvalues not converged
     c_bands:  2 eigenvalues not converged
     ethr =  1.00E-05,  avg # of iterations = 22.9

[...]

     total energy              =   -2411.64276843 Ry
     estimated scf accuracy    <    6295.64774010 Ry

     iteration #  2     ecut=    29.40 Ry     beta= 0.05
     Davidson diagonalization with overlap
     ethr =  1.00E-02,  avg # of iterations = 22.7

[...]

     iteration # 49     ecut=    29.40 Ry     beta= 0.05
     Davidson diagonalization with overlap
     c_bands:  1 eigenvalues not converged
     c_bands:  1 eigenvalues not converged
     c_bands:  1 eigenvalues not converged
     c_bands:  1 eigenvalues not converged
     ethr =  2.55E-06,  avg # of iterations = 16.4

[...]

     total energy              =   -2971.49150057 Ry
     estimated scf accuracy    <       0.00000010 Ry

     iteration # 75     ecut=    29.40 Ry     beta= 0.05
     Davidson diagonalization with overlap
     ethr =  2.48E-11,  avg # of iterations =  6.5

     negative rho (up, down):  1.461E-02 0.000E+00

     Adding external electric field

     Computed dipole along edir(3) :
        Dipole                1.0651 Ry au,          2.7073 Debye
        Dipole field          0.0020 Ry au,

        Potential amp.       -0.1863 Ry
        Total length         46.3494 bohr

     End of self-consistent calculation

          k = 0.0000 0.0000 0.0000 ( 18029 PWs)   bands (ev):

   -55.6914 -55.6574 -55.4761 -55.4742 -55.4422 -55.3336 -55.3156 -55.2817
   -55.2804 -55.2251 -55.1796 -55.0948 -55.0864 -54.9797 -54.5992 -54.5652
   -32.1653 -31.9867 -31.9847 -31.9286 -31.8440 -31.8168 -31.8109 -31.7921
   -31.7879 -31.7556 -31.7498 -31.7477 -31.7129 -31.6953 -31.6824 -31.6500
   -31.6471 -31.6107 -31.5837 -31.5781 -31.5749 -31.5513 -31.5419 -31.5383
   -31.4940 -31.4862 -31.4811 -31.4699 -31.4576 -31.4435 -31.4401 -31.4244
   -31.4237 -31.3682 -31.3637 -31.3606 -31.2940 -31.2816 -31.2580 -31.2292
   -31.2041 -31.1905 -31.0022 -30.9235 -30.9006 -30.8201 -30.7342 -30.6223
   -20.7449 -16.2532 -16.1713 -15.9663 -15.7888 -15.6376 -15.5850 -15.4450
   -15.3736 -15.2743 -15.1934 -15.0941 -15.0739 -15.0334 -14.9976 -14.9958
   -14.9676 -14.9353 -14.9350 -14.9123 -14.8948 -14.8471 -14.7873 -14.7701
   -14.7254 -14.6979 -14.6487 -14.6450 -14.6178 -14.5152 -14.2472 -14.2327
   -13.0971 -12.9820  -7.4347  -6.1035  -5.6843  -5.0473  -3.7624  -3.5794
    -3.5049  -3.3559  -3.2769  -3.2012  -3.0843  -2.9854  -2.9078  -2.7475
    -2.6621  -2.6354  -2.5841  -2.5278  -2.4624  -2.4361  -2.3951  -2.3722
    -2.2936  -2.2526  -2.2298  -2.2083  -2.1542  -2.1250  -2.0897  -2.0044
    -1.9754  -1.9409  -1.8666  -1.8577  -1.8329  -1.8243  -1.7823  -1.7637
    -1.7506  -1.7316  -1.5957  -1.5874  -1.5095  -1.4706  -1.3239  -1.2003
    -1.1353  -1.0658  -1.0510  -0.9690  -0.9330  -0.8531  -0.8341  -0.8044
    -0.7666  -0.6997  -0.6352  -0.6128  -0.5677  -0.5312  -0.3955  -0.3733
    -0.3262  -0.3215  -0.2987  -0.2339  -0.1647  -0.0836  -0.0709  -0.0053
     0.0151   0.0972   0.1793   0.1864   0.2363   0.2596   0.3140   0.3370
     0.3554   0.3888   0.4186   0.4876   0.5508   0.5982   0.6036   0.6367
     0.7040   0.7715   0.8117   0.8448   0.9946   1.0236   1.0376   1.1286
     1.1394   1.2474   1.4056   1.4271   1.6310   1.6326   1.9871   2.0295
     3.4552   3.5851   3.6190   3.6929   3.7783   3.9064   3.9149   4.0424
     4.1614   4.1670

[...]

          k = 0.0380-0.0419 0.0000 ( 17876 PWs)   bands (ev):

[...]

          k =-0.0760-0.0000 0.0000 ( 17886 PWs)   bands (ev):

[...]

          k =-0.0760-0.0839 0.0000 ( 17948 PWs)   bands (ev):

   -55.6748 -55.6738 -55.4734 -55.4603 -55.4577 -55.3273 -55.3020 -55.2939
   -55.2879 -55.2257 -55.1760 -55.0983 -55.0838 -54.9822 -54.5827 -54.5815
   -31.9811 -31.9806 -31.9709 -31.9701 -31.7954 -31.7941 -31.7818 -31.7761
   -31.7419 -31.7214 -31.6950 -31.6875 -31.6846 -31.6688 -31.6534 -31.6488
   -31.6308 -31.6171 -31.6163 -31.6109 -31.5933 -31.5517 -31.5467 -31.5242
   -31.5231 -31.5177 -31.5133 -31.5126 -31.5045 -31.4862 -31.4645 -31.4560
   -31.4288 -31.3884 -31.3747 -31.3528 -31.3401 -31.3254 -31.2974 -31.2857
   -31.2355 -31.1941 -30.9138 -30.9130 -30.8162 -30.8148 -30.7777 -30.7768
   -20.7438 -16.2272 -15.6170 -15.5493 -15.5286 -15.5198 -15.4050 -15.3724
   -15.2404 -15.2393 -15.2165 -15.1575 -15.1471 -15.1161 -15.1079 -15.0830
   -15.0501 -15.0253 -15.0023 -14.9722 -14.9616 -14.9180 -14.8912 -14.8876
   -14.8740 -14.8250 -14.7384 -14.6545 -14.6455 -14.5750 -14.4931 -14.3664
   -13.0846 -13.0839  -7.4354  -6.1070  -5.6871  -5.0249  -3.7355  -3.1189
    -2.8961  -2.7484  -2.7219  -2.5938  -2.5749  -2.4808  -2.4728  -2.4295
    -2.4160  -2.3764  -2.3491  -2.3319  -2.2894  -2.2720  -2.2568  -2.2526
    -2.2343  -2.2037  -2.1953  -2.1911  -2.1821  -2.1521  -2.1247  -2.1105
    -2.0942  -2.0476  -2.0207  -1.9216  -1.8167  -1.7916  -1.7184  -1.7131
    -1.7110  -1.6987  -1.6762  -1.6524  -1.5677  -1.4777  -1.4400  -1.3837
    -1.2093  -1.1952  -1.1726  -1.1508  -1.0939  -1.0458  -1.0172  -0.9655
    -0.9534  -0.9295  -0.8562  -0.7935  -0.7208  -0.7003  -0.6317  -0.5828
    -0.5655  -0.4751  -0.4617  -0.4289  -0.3882  -0.3740  -0.3449  -0.2912
    -0.2761  -0.2571  -0.2284  -0.1900  -0.1547   0.0144   0.1482   0.2116
     0.2293   0.2661   0.3201   0.3861   0.4098   0.5933   0.6061   0.6105
     0.6493   0.7086   0.7342   0.7512   0.8429   0.9573   0.9845   1.0208
     1.0482   1.0677   1.1482   1.2076   1.7979   1.8061   1.8491   1.8498
     3.4567   3.9919   4.0111   4.0124   4.0135   4.1083   4.1327   4.1417
     4.2060   4.2644

     the Fermi energy is     3.4493 ev

!    total energy              =   -2971.49151419 Ry
     estimated scf accuracy    <       0.00000006 Ry
     smearing contrib. (-TS)   =      -0.01886714 Ry
     internal energy E=F+TS    =   -2971.47264704 Ry

     The total energy is F=E-TS. E is the sum of the following terms:
     one-electron contribution =  -23618.30476164 Ry
     hartree contribution      =   11903.00253412 Ry
     xc contribution           =    -492.37408607 Ry
     ewald contribution        =    9236.20152561 Ry
     electric field correction =       0.00214094 Ry

     convergence has been achieved in  75 iterations

     Forces acting on atoms (cartesian axes, Ry/au):

     atom    1 type  1   force =     0.00001651   -0.00039971    0.09767778
     atom    2 type  1   force =    -0.00004035    0.00022764   -0.17213082
     atom    3 type  2   force =     0.00005022   -0.00005008   -0.02535889
     atom    4 type  2   force =     0.00001543   -0.00144727    0.04761231
     atom    5 type  2   force =    -0.00616048   -0.00239942   -0.00086527
     atom    6 type  2   force =     0.00778190   -0.00181707   -0.00152905
     atom    7 type  1   force =    -0.00008760   -0.00484801    0.01886481
     atom    8 type  1   force =     0.00022190    0.01221280    0.02699324
     atom    9 type  2   force =    -0.00010473   -0.00015802   -0.00011980
     atom   10 type  2   force =    -0.00111950    0.00132000   -0.02503914
     atom   11 type  2   force =     0.00015010   -0.00003109    0.00005997
     atom   12 type  2   force =     0.00005265   -0.00003564   -0.00001450
     atom   13 type  1   force =     0.00034528   -0.00021891   -0.00017408
     atom   14 type  1   force =     0.00005245   -0.00012586   -0.00019018
     atom   15 type  2   force =    -0.00029904   -0.00019619   -0.00026952
     atom   16 type  2   force =    -0.00003307   -0.00011328   -0.00047579
     atom   17 type  2   force =    -0.00010831   -0.00004093   -0.00003526
     atom   18 type  2   force =     0.00001136   -0.00016180   -0.00005254
     atom   19 type  1   force =    -0.00017233   -0.00000742   -0.00040612
     atom   20 type  1   force =    -0.00017964   -0.00021418    0.00011907
     atom   21 type  2   force =     0.00005583    0.00008568    0.10226391
     atom   22 type  2   force =     0.00008646    0.00004876   -0.00020036
     atom   23 type  2   force =    -0.07354445   -0.00015783   -0.02809415
     atom   24 type  2   force =     0.07346149    0.00028442   -0.02816819
     atom   25 type  1   force =     0.00013832   -0.00033481    0.09748420
     atom   26 type  1   force =    -0.00003897   -0.00131306   -0.17226879
     atom   27 type  2   force =     0.00009357   -0.00030473   -0.02399702
     atom   28 type  2   force =     0.00004181    0.00031083    0.04323757
     atom   29 type  2   force =    -0.00505098    0.00403552   -0.00279241
     atom   30 type  2   force =     0.00655969    0.00442462   -0.00334805
     atom   31 type  1   force =     0.00001053    0.00580079    0.00690103
     atom   32 type  1   force =     0.00029035   -0.01518660    0.02657613
     atom   33 type  2   force =     0.00038216   -0.00004719    0.00009560
     atom   34 type  2   force =    -0.00138577    0.00099786   -0.02677442
     atom   35 type  2   force =     0.00037214    0.00005026    0.00003302
     atom   36 type  2   force =    -0.00028314   -0.00006373   -0.00008731
     atom   37 type  1   force =     0.00010082   -0.00051880   -0.00011249
     atom   38 type  1   force =     0.00024433    0.00013118    0.00008971
     atom   39 type  2   force =    -0.00012861   -0.00016103   -0.00006365
     atom   40 type  2   force =     0.00005620    0.00001676   -0.00012475
     atom   41 type  2   force =    -0.00012660    0.00006182   -0.00017641
     atom   42 type  2   force =    -0.00029768   -0.00011615    0.00002097
     atom   43 type  1   force =    -0.00010901    0.00020349   -0.00063059
     atom   44 type  1   force =    -0.00023502    0.00041941    0.00010769
     atom   45 type  2   force =     0.00004826   -0.00008106    0.10205127
     atom   46 type  2   force =    -0.07358281   -0.00007876   -0.02812973
     atom   47 type  2   force =     0.07348663    0.00035906   -0.02817700
     atom   48 type  3   force =    -0.00081531    0.00019711   -0.00016933
     atom   49 type  3   force =    -0.00007333   -0.00028711   -0.00000515
     atom   50 type  4   force =     0.01112752   -0.00222733   -0.00297463
     atom   51 type  5   force =    -0.01179896    0.00208449    0.00349750
     atom   52 type  5   force =     0.00028078   -0.00017773   -0.00026202
     atom   53 type  2   force =     0.00038772    0.00070935   -0.00026400
     atom   54 type  5   force =    -0.00014671   -0.00066105   -0.00020436

     Total force =     0.365415     Total SCF correction =     0.000733
  @ DRIVER MODE: Message from server: STATUS
  @ DRIVER MODE: Message from server: GETFORCE
  @ DRIVER MODE: Returning v,forces,stress,ensemble

     Writing output data file ./calc.save/
  @ DRIVER MODE: Message from server: EXIT
  @ DRIVE MODE: Exiting

     General routines

     Parallel routines

   This run was terminated on:  19: 0:35  23Sep2021

   JOB DONE.