     Program PWSCF v.6.7GPU starts on 23Aug2021 at 19:58:42

     R & G space division:  proc/nbgrp/npool/nimage =       6
     Reading input from /storage/home/hcoda1/3/ntian30/research/carbon/CH2_vib/ads_slab/CH2NNHHH_a/out_0014/pw.inp
Warning: card &CELL ignored
Warning: card   CELL_DYNAMICS='IPI', ignored
Warning: card / ignored

     Current dimensions of program PWSCF are:
     Max number of different atomic species (ntypx) = 10
     Max number of k-points (npk) =  40000
     Max angular momentum in pseudopotentials (lmaxx) =  3
     Presently no symmetry can be used with electric field

     Message from routine cell_base_init:
     DEPRECATED: use true lattice parameter, not A to a.u. conversion factor

     IMPORTANT: XC functional enforced from input :
     Exchange-correlation= BEEF-VDW
                           (   1   4  43  14   2   0   0)
     Any further DFT definition will be discarded
     Please, verify this is what you really want

  @ DRIVER MODE: Connecting to
 qe_1139763_2632806.sched-torque.pace.gatech.edu8ic25ti4_scratch
  using UNIX socket
  @ DRIVER MODE: Message from server: STATUS
  @ DRIVER MODE: Message from server: INIT
  @ DRIVER MODE: Receiving replica           0          -1
  @ DRIVER MODE: Receiving encoded integer          25
  @ DRIVER MODE:  SCF:  T  FORCE:  T  STRESS:  F  VC:  F  ENSEMBLE:  F
  @ DRIVER MODE:  SCF:  T  FORCE:  T  STRESS:  F  VC:  F  ENSEMBLE:  F

     Using Slab Decomposition

     bravais-lattice index     =            0
     lattice parameter (alat)  =       1.8897  a.u.
     unit-cell volume          =    6658.9804 (a.u.)^3
     number of atoms/cell      =           55
     number of atomic types    =            5
     number of electrons       =       397.00
     number of Kohn-Sham states=          208
     kinetic-energy cutoff     =      29.3995  Ry
     charge density cutoff     =     293.9946  Ry
     scf convergence threshold =      7.3E-08
     mixing beta               =       0.0500
     number of iterations used =            8  plain     mixing
     Exchange-correlation= BEEF-VDW
                           (   1   4  43  14   2   0   0)

     celldm(1)=   1.889726  celldm(2)=   0.000000  celldm(3)=   0.000000
     celldm(4)=   0.000000  celldm(5)=   0.000000  celldm(6)=   0.000000

     crystal axes: (cart. coord. in units of alat)
               a(1) = (   6.579727   0.000000   0.000000 )
               a(2) = (  -0.000775   5.961596   0.000000 )
               a(3) = (   0.000000   0.000000  25.155947 )

     reciprocal axes: (cart. coord. in units 2 pi/alat)
               b(1) = (  0.151982  0.000020  0.000000 )
               b(2) = (  0.000000  0.167740  0.000000 )
               b(3) = (  0.000000  0.000000  0.039752 )

     PseudoPot. # 1 for Ti read from file:
     /storage/coda1/p-amedford6/0/shared/rich_project_chbe-medford/medford-share/data/pseudos_module/espresso/nninc/pbe/van/Ti.UPF
     MD5 check sum: 8e4df49b7f0d34bbd5052bf3f5ea0213
     Pseudo is Ultrasoft, Zval = 12.0
     Generated by new atomic code, or converted to UPF format
     Using radial grid of  851 points,  6 beta functions with:
                l(1) =   0
                l(2) =   0
                l(3) =   1
                l(4) =   1
                l(5) =   2
                l(6) =   2
     Q(r) pseudized with  8 coefficients,  rinner =    1.000   1.000   1.000
                                                       1.000   1.000

     PseudoPot. # 2 for O  read from file:
     /storage/coda1/p-amedford6/0/shared/rich_project_chbe-medford/medford-share/data/pseudos_module/espresso/nninc/pbe/van/O.UPF
     MD5 check sum: 78c19812648e8988a0fe644b0f25305e
     Pseudo is Ultrasoft, Zval =  6.0
     Generated by new atomic code, or converted to UPF format
     Using radial grid of  737 points,  4 beta functions with:
                l(1) =   0
                l(2) =   0
                l(3) =   1
                l(4) =   1
     Q(r) pseudized with  8 coefficients,  rinner =    0.800   0.800   0.800

     PseudoPot. # 3 for N  read from file:
     /storage/coda1/p-amedford6/0/shared/rich_project_chbe-medford/medford-share/data/pseudos_module/espresso/nninc/pbe/van/N.UPF
     MD5 check sum: 90d10febe142ad51ac9d5be1deb811c4
     Pseudo is Ultrasoft, Zval =  5.0
     Generated by new atomic code, or converted to UPF format
     Using radial grid of  729 points,  4 beta functions with:
                l(1) =   0
                l(2) =   0
                l(3) =   1
                l(4) =   1
     Q(r) pseudized with  8 coefficients,  rinner =    0.800   0.800   0.800

     PseudoPot. # 4 for C  read from file:
     /storage/coda1/p-amedford6/0/shared/rich_project_chbe-medford/medford-share/data/pseudos_module/espresso/nninc/pbe/van/C.UPF
     MD5 check sum: 1a69bf6b8db32088f5b2163dbdb77a27
     Pseudo is Ultrasoft, Zval =  4.0
     Generated by new atomic code, or converted to UPF format
     Using radial grid of  721 points,  4 beta functions with:
                l(1) =   0
                l(2) =   0
                l(3) =   1
                l(4) =   1
     Q(r) pseudized with  8 coefficients,  rinner =    0.800   0.800   0.800

     PseudoPot. # 5 for H  read from file:
     /storage/coda1/p-amedford6/0/shared/rich_project_chbe-medford/medford-share/data/pseudos_module/espresso/nninc/pbe/van/H.UPF
     MD5 check sum: b5ee9d7bfd3a09ee7748110bda690ff7
     Pseudo is Ultrasoft, Zval =  1.0
     Generated by new atomic code, or converted to UPF format
     Using radial grid of  615 points,  1 beta functions with:
                l(1) =   0
     Q(r) pseudized with  8 coefficients,  rinner =    0.800

     atomic species   valence    mass     pseudopotential
        Ti1           12.00    47.86700     Ti( 1.00)
        O1             6.00    15.99900     O ( 1.00)
        N1             5.00    14.00700     N ( 1.00)
        C1             4.00    12.01100     C ( 1.00)
        H1             1.00     1.00800     H ( 1.00)

     No symmetry found

   Cartesian axes

     site n.     atom                  positions (alat units)
         1           Ti1 tau(   1) = (   0.0004258   2.9801865   6.0000000  )
         2           Ti1 tau(   2) = (   3.2906075   1.4906267   6.0002472  )
         3           O1  tau(   3) = (   0.0006271   0.0005054   7.9858123  )
         4           O1  tau(   4) = (   3.2906025   0.0005020   7.3038282  )
         5           O1  tau(   5) = (   4.5942328   1.4918067   9.2879030  )
         6           O1  tau(   6) = (   1.9868534   1.4903216   9.2879459  )
         7           Ti1 tau(   7) = (   3.2907910   2.8959150   9.1758416  )
         8           Ti1 tau(   8) = (   0.0015273   1.4827037   9.2680791  )
         9           O1  tau(   9) = (   3.2797308   5.9473376  11.3602069  )
        10           O1  tau(  10) = (   0.0116148   5.9584955  10.6183126  )
        11           O1  tau(  11) = (   1.2902197   1.4970218  12.6485984  )
        12           O1  tau(  12) = (   5.2825647   1.4998509  12.6204812  )
        13           Ti1 tau(  13) = (   6.5707130   2.9731531  12.5352273  )
        14           Ti1 tau(  14) = (   3.2824754   1.4851695  12.4964603  )
        15           O1  tau(  15) = (   6.5335774   0.0914421  14.6722524  )
        16           O1  tau(  16) = (   3.3157438   0.0180770  13.9903400  )
        17           O1  tau(  17) = (   4.5084513   1.5196572  16.2619966  )
        18           O1  tau(  18) = (   2.0062152   1.4815140  16.1839734  )
        19           Ti1 tau(  19) = (   3.2259906   2.9465836  15.7211513  )
        20           Ti1 tau(  20) = (   6.5090593   1.4075841  16.1508600  )
        21           O1  tau(  21) = (   3.2904802   0.0005063   4.7018136  )
        22           O1  tau(  22) = (   6.5630310   5.8123487  17.2302531  )
        23           O1  tau(  23) = (   1.3043587   1.4918075   6.0039043  )
        24           O1  tau(  24) = (   5.2767064   1.4903225   6.0039473  )
        25           Ti1 tau(  25) = (   0.0000382   5.9609847   6.0000000  )
        26           Ti1 tau(  26) = (   3.2902200   4.4714249   6.0002472  )
        27           O1  tau(  27) = (   0.0002396   2.9813036   7.9858123  )
        28           O1  tau(  28) = (   3.2902150   2.9813002   7.3038282  )
        29           O1  tau(  29) = (   4.5938453   4.4726049   9.2879030  )
        30           O1  tau(  30) = (   1.9864658   4.4711199   9.2879459  )
        31           Ti1 tau(  31) = (   3.2891106   5.8743827   9.1763621  )
        32           Ti1 tau(  32) = (   0.0006254   4.4649316   9.2693709  )
        33           O1  tau(  33) = (   3.2783824   2.9878764  11.3535400  )
        34           O1  tau(  34) = (   0.0092240   2.9805883  10.6323155  )
        35           O1  tau(  35) = (   1.2857266   4.4729298  12.7006550  )
        36           O1  tau(  36) = (   5.2845514   4.4687958  12.6640455  )
        37           Ti1 tau(  37) = (   6.5734551   0.0101047  12.5124135  )
        38           Ti1 tau(  38) = (   3.2852174   4.4611384  12.5175569  )
        39           O1  tau(  39) = (   6.5279837   2.9480221  14.9030702  )
        40           O1  tau(  40) = (   3.2956390   2.9588503  13.9390168  )
        41           O1  tau(  41) = (   4.4992944   4.4159585  16.2207858  )
        42           O1  tau(  42) = (   2.0104883   4.4624356  16.0673450  )
        43           Ti1 tau(  43) = (   3.2790961   0.0058003  15.7788240  )
        44           Ti1 tau(  44) = (   0.0606790   4.6093333  15.7554573  )
        45           O1  tau(  45) = (   3.2900926   2.9813045   4.7018136  )
        46           O1  tau(  46) = (   1.3039711   4.4726057   6.0039043  )
        47           O1  tau(  47) = (   5.2763189   4.4711207   6.0039473  )
        48           N1  tau(  48) = (   0.0403274   2.7191540  18.0026804  )
        49           C1  tau(  49) = (   0.9398849   2.4944932  18.9664025  )
        50           H1  tau(  50) = (   0.9173005   3.0183022  19.9142263  )
        51           H1  tau(  51) = (   1.7098349   1.7704235  18.7615287  )
        52           N1  tau(  52) = (   5.5765855   3.6054979  18.4816711  )
        53           H1  tau(  53) = (   5.9881759   4.5320851  18.7147717  )
        54           H1  tau(  54) = (   4.9344470   3.8465857  17.6610935  )
        55           H1  tau(  55) = (   5.0674124   3.1947177  19.2767304  )

     number of k points=    10  Fermi-Dirac smearing, width (Ry)=  0.0073
                       cart. coord. in units 2pi/alat
        k(    1) = (   0.0000000   0.0000000   0.0000000), wk =   0.1250000
        k(    2) = (   0.0000000   0.0419351   0.0000000), wk =   0.2500000
        k(    3) = (   0.0000000  -0.0838702   0.0000000), wk =   0.1250000
        k(    4) = (   0.0379955   0.0000049   0.0000000), wk =   0.2500000
        k(    5) = (   0.0379955   0.0419400   0.0000000), wk =   0.2500000
        k(    6) = (   0.0379955  -0.0838652   0.0000000), wk =   0.2500000
        k(    7) = (   0.0379955  -0.0419301   0.0000000), wk =   0.2500000
        k(    8) = (  -0.0759910  -0.0000099   0.0000000), wk =   0.1250000
        k(    9) = (  -0.0759910   0.0419252   0.0000000), wk =   0.2500000
        k(   10) = (  -0.0759910  -0.0838800   0.0000000), wk =   0.1250000

     Initial potential from superposition of free atoms

     starting charge  380.99914, renormalised to  397.00000

     negative rho (up, down):  1.589E-02 0.000E+00

     %%%%%%%%%%%%%%%%%%%%%%%%%%%%%%%%%%%%%%%%%%%%%%%%%%%%%%%%%%%%%%%%%%%%%%%%
     %                                                                      %
     % You are using vdW-DF, which was implemented by the Thonhauser group. %
     % Please cite the following two papers that made this development      %
     % possible and the two reviews that describe the various versions:     %
     %                                                                      %
     %   T. Thonhauser et al., PRL 115, 136402 (2015).                      %
     %   T. Thonhauser et al., PRB 76, 125112 (2007).                       %
     %   K. Berland et al., Rep. Prog. Phys. 78, 066501 (2015).             %
     %   D.C. Langreth et al., J. Phys.: Condens. Matter 21, 084203 (2009). %
     %                                                                      %
     %                                                                      %
     % If you are calculating the stress with vdW-DF, please also cite:     %
     %                                                                      %
     %   R. Sabatini et al., J. Phys.: Condens. Matter 24, 424209 (2012).   %
     %                                                                      %
     %%%%%%%%%%%%%%%%%%%%%%%%%%%%%%%%%%%%%%%%%%%%%%%%%%%%%%%%%%%%%%%%%%%%%%%%

     Adding external electric field

     Computed dipole along edir(3) :
        Dipole              -10.3122 Ry au,        -26.2111 Debye
        Dipole field         -0.0195 Ry au,

        Potential amp.        1.8040 Ry
        Total length         46.3494 bohr

     Starting wfcs are  301 atomic wfcs
  @ DRIVER MODE: Message from server: STATUS
  @ DRIVER MODE: Message from server: POSDATA
  @ DRIVER MODE: Reading and sharing cell
  @ DRIVER MODE: Reading and sharing positions
  @ DRIVER MODE: Received positions

     Self-consistent Calculation

     iteration #  1     ecut=    29.40 Ry     beta= 0.05
     Davidson diagonalization with overlap
     c_bands:  3 eigenvalues not converged
     c_bands:  2 eigenvalues not converged
     c_bands:  3 eigenvalues not converged
     c_bands:  2 eigenvalues not converged
     c_bands:  3 eigenvalues not converged
     c_bands:  2 eigenvalues not converged
     c_bands:  3 eigenvalues not converged
     c_bands:  2 eigenvalues not converged
     c_bands:  2 eigenvalues not converged
     c_bands:  3 eigenvalues not converged
     ethr =  1.00E-05,  avg # of iterations = 20.0

[...]

     total energy              =   -2480.06689671 Ry
     estimated scf accuracy    <    5159.14217909 Ry

     iteration #  2     ecut=    29.40 Ry     beta= 0.05
     Davidson diagonalization with overlap
     ethr =  1.00E-02,  avg # of iterations = 22.3

[...]

     iteration # 70     ecut=    29.40 Ry     beta= 0.05
     Davidson diagonalization with overlap
     ethr =  1.20E-10,  avg # of iterations = 10.2

[...]

     total energy              =   -2941.49089189 Ry
     estimated scf accuracy    <       0.00000009 Ry

     iteration # 74     ecut=    29.40 Ry     beta= 0.05
     Davidson diagonalization with overlap
     c_bands:  1 eigenvalues not converged
     ethr =  2.37E-11,  avg # of iterations = 11.4

     negative rho (up, down):  1.344E-02 0.000E+00

     Adding external electric field

     Computed dipole along edir(3) :
        Dipole                1.3611 Ry au,          3.4595 Debye
        Dipole field          0.0026 Ry au,

        Potential amp.       -0.2381 Ry
        Total length         46.3494 bohr

     End of self-consistent calculation

          k = 0.0000 0.0000 0.0000 ( 18029 PWs)   bands (ev):

   -55.2847 -55.2457 -55.2456 -55.2115 -55.1602 -55.1583 -55.1217 -55.0948
   -55.0778 -55.0765 -55.0601 -55.0433 -54.9574 -54.7912 -54.2638 -54.2298
   -31.8569 -31.7362 -31.6467 -31.6115 -31.5846 -31.5822 -31.5796 -31.5352
   -31.5326 -31.4926 -31.4907 -31.4903 -31.4579 -31.4551 -31.4411 -31.4196
   -31.4043 -31.3993 -31.3950 -31.3939 -31.3577 -31.3526 -31.3390 -31.3254
   -31.3024 -31.2974 -31.2911 -31.2871 -31.2747 -31.2716 -31.2617 -31.2517
   -31.2449 -31.2400 -31.2099 -31.2055 -31.1986 -31.1863 -31.1486 -31.1062
   -31.0621 -30.9328 -30.6726 -30.5798 -30.5577 -30.4891 -30.4023 -30.2914
   -19.2248 -16.1263 -15.8641 -15.7361 -15.5447 -15.4784 -15.3830 -15.2452
   -15.1938 -15.1324 -15.0834 -15.0429 -15.0299 -14.9643 -14.9072 -14.8187
   -14.8170 -14.7996 -14.7901 -14.7781 -14.7748 -14.7126 -14.7098 -14.6827
   -14.6681 -14.6578 -14.5172 -14.4332 -14.3716 -14.2760 -14.0258 -12.7663
   -12.6491  -9.1467  -7.7996  -7.0619  -6.0070  -3.8114  -3.4640  -3.2912
    -3.2444  -3.2042  -3.1792  -3.0109  -2.9291  -2.6618  -2.5941  -2.5541
    -2.5066  -2.4954  -2.4698  -2.2978  -2.2670  -2.2276  -2.1909  -2.1670
    -2.1272  -2.0994  -2.0835  -2.0542  -2.0411  -2.0391  -1.8565  -1.7866
    -1.7638  -1.7018  -1.6860  -1.6695  -1.6118  -1.5829  -1.5697  -1.5673
    -1.5445  -1.5274  -1.5045  -1.4619  -1.3757  -1.2834  -1.2390  -1.2169
    -1.1040  -1.0393  -0.9159  -0.8734  -0.8595  -0.8322  -0.7605  -0.6937
    -0.6661  -0.6305  -0.4903  -0.4856  -0.4012  -0.3911  -0.3184  -0.3016
    -0.2618  -0.2159  -0.1044  -0.0711  -0.0496   0.0024   0.0656   0.0875
     0.1692   0.2236   0.2802   0.2941   0.3738   0.4137   0.4514   0.4730
     0.5603   0.6018   0.6612   0.6676   0.7048   0.7081   0.7334   0.8199
     0.8330   0.8526   0.8935   1.0629   1.2638   1.3154   1.3360   1.6688
     1.6880   1.7589   1.9442   2.3336   2.3812   3.8165   3.8820   3.9526
     3.9670   3.9773   4.0488   4.0939   4.2839   4.3130   4.3160   4.3373

[...]

          k = 0.0380-0.0419 0.0000 ( 17876 PWs)   bands (ev):

[...]

          k =-0.0760-0.0000 0.0000 ( 17886 PWs)   bands (ev):

[...]

          k =-0.0760-0.0839 0.0000 ( 17948 PWs)   bands (ev):

   -55.2726 -55.2576 -55.2285 -55.2285 -55.1565 -55.1464 -55.1336 -55.0814
   -55.0785 -55.0756 -55.0603 -55.0600 -54.9559 -54.7927 -54.2467 -54.2467
   -31.6664 -31.6534 -31.5794 -31.5514 -31.5513 -31.5480 -31.5207 -31.5205
   -31.4933 -31.4849 -31.4803 -31.4765 -31.4220 -31.4131 -31.4131 -31.4095
   -31.4077 -31.4034 -31.3968 -31.3817 -31.3696 -31.3589 -31.3546 -31.3478
   -31.3477 -31.3458 -31.3445 -31.3287 -31.3119 -31.3089 -31.2926 -31.2899
   -31.2853 -31.2835 -31.2833 -31.2525 -31.2406 -31.2396 -31.1659 -31.0931
   -31.0630 -31.0104 -30.5704 -30.5703 -30.4852 -30.4850 -30.4457 -30.4457
   -19.2211 -15.5915 -15.5150 -15.4592 -15.3690 -15.2911 -15.2713 -15.2613
   -15.2280 -15.1612 -15.1378 -15.0726 -15.0376 -14.9921 -14.9892 -14.9741
   -14.8895 -14.8703 -14.8552 -14.8510 -14.7899 -14.7885 -14.7616 -14.7391
   -14.7325 -14.7288 -14.6289 -14.6280 -14.4636 -14.4313 -14.1971 -12.7506
   -12.7506  -9.1337  -7.8095  -7.0460  -6.0176  -3.8344  -2.8528  -2.7661
    -2.6766  -2.5202  -2.4829  -2.4729  -2.4185  -2.3271  -2.3008  -2.2878
    -2.2675  -2.2602  -2.1874  -2.1821  -2.1381  -2.1165  -2.1056  -2.0997
    -2.0661  -2.0528  -2.0388  -2.0023  -1.9939  -1.9780  -1.9432  -1.9237
    -1.8992  -1.8714  -1.8573  -1.8280  -1.7049  -1.6761  -1.6315  -1.5693
    -1.5443  -1.4775  -1.4723  -1.3683  -1.3579  -1.3468  -1.3058  -1.2919
    -1.2712  -1.1090  -1.0646  -1.0292  -1.0176  -1.0116  -0.8557  -0.8393
    -0.7711  -0.7553  -0.7405  -0.6643  -0.6228  -0.6059  -0.5266  -0.4869
    -0.4571  -0.4360  -0.2939  -0.2810  -0.2556  -0.2412  -0.2345  -0.1421
    -0.1217  -0.0857  -0.0515  -0.0135   0.0029   0.0621   0.2157   0.2419
     0.2788   0.4231   0.4383   0.5237   0.5711   0.6982   0.7629   0.7651
     0.8463   0.9164   1.0183   1.0307   1.0506   1.1359   1.1821   1.1871
     1.1883   2.1170   2.1178   2.2012   2.2015   3.6934   3.9559   4.0783
     4.0847   4.1270   4.2498   4.3332   4.3569   4.3949   4.3970   4.4707

     the Fermi energy is     3.8715 ev

!    total energy              =   -2941.49091259 Ry
     estimated scf accuracy    <       0.00000004 Ry
     smearing contrib. (-TS)   =      -0.04232726 Ry
     internal energy E=F+TS    =   -2941.44858533 Ry

     The total energy is F=E-TS. E is the sum of the following terms:
     one-electron contribution =  -23921.95626026 Ry
     hartree contribution      =   12054.14815883 Ry
     xc contribution           =    -486.85965375 Ry
     ewald contribution        =    9413.21567381 Ry
     electric field correction =       0.00349604 Ry

     convergence has been achieved in  74 iterations

     Forces acting on atoms (cartesian axes, Ry/au):

     atom    1 type  1   force =     0.00017217   -0.00016625    0.09405552
     atom    2 type  1   force =    -0.00004683   -0.00043017   -0.17754033
     atom    3 type  2   force =     0.00006547   -0.00005830   -0.02099953
     atom    4 type  2   force =     0.00001684   -0.00180730    0.05732691
     atom    5 type  2   force =    -0.01087688   -0.00090401    0.00782349
     atom    6 type  2   force =     0.01208545   -0.00033759    0.00622052
     atom    7 type  1   force =    -0.00065330    0.00289803   -0.01528922
     atom    8 type  1   force =     0.00059738    0.00233848    0.00237114
     atom    9 type  2   force =    -0.00010364    0.00012970    0.00092524
     atom   10 type  2   force =    -0.00165423   -0.00050902   -0.00380409
     atom   11 type  2   force =    -0.00005154   -0.00024061    0.00018934
     atom   12 type  2   force =    -0.00018776   -0.00040084    0.00025768
     atom   13 type  1   force =     0.00042141    0.00108790    0.00061657
     atom   14 type  1   force =     0.00020604   -0.00062038    0.00035959
     atom   15 type  2   force =    -0.00018312    0.00039441    0.00049929
     atom   16 type  2   force =    -0.00016559   -0.00024705   -0.00121467
     atom   17 type  2   force =     0.00012125   -0.00026865    0.00015869
     atom   18 type  2   force =    -0.00078724   -0.00034431    0.00002553
     atom   19 type  1   force =    -0.00055836    0.00108535   -0.00040787
     atom   20 type  1   force =    -0.00035955    0.00120918   -0.00109543
     atom   21 type  2   force =     0.00010899   -0.00003708    0.10379165
     atom   22 type  2   force =     0.00007688    0.00020760    0.00048644
     atom   23 type  2   force =    -0.07063827   -0.00019170   -0.02707095
     atom   24 type  2   force =     0.07058385    0.00028210   -0.02710807
     atom   25 type  1   force =     0.00015046   -0.00024136    0.09338490
     atom   26 type  1   force =    -0.00000751   -0.00037517   -0.17776644
     atom   27 type  2   force =     0.00010936   -0.00038738   -0.02000152
     atom   28 type  2   force =     0.00003383   -0.00146384    0.05680835
     atom   29 type  2   force =    -0.01077186   -0.00066047    0.00674008
     atom   30 type  2   force =     0.01188712   -0.00016809    0.00509580
     atom   31 type  1   force =    -0.00063064    0.00410298   -0.01560744
     atom   32 type  1   force =     0.00067743   -0.00278797    0.00214546
     atom   33 type  2   force =     0.00015693   -0.00021592   -0.00058026
     atom   34 type  2   force =    -0.00109240    0.00273571   -0.00203365
     atom   35 type  2   force =     0.00008961    0.00020142    0.00007629
     atom   36 type  2   force =    -0.00032866    0.00034183   -0.00009202
     atom   37 type  1   force =     0.00046834   -0.00008195    0.00031041
     atom   38 type  1   force =     0.00008951    0.00089869    0.00014951
     atom   39 type  2   force =    -0.00003851   -0.00096283    0.00040400
     atom   40 type  2   force =    -0.00023589   -0.00043401    0.00060715
     atom   41 type  2   force =    -0.00030534   -0.00005596   -0.00021112
     atom   42 type  2   force =     0.00014864    0.00001026    0.00024018
     atom   43 type  1   force =    -0.00000722   -0.00146709    0.00095410
     atom   44 type  1   force =    -0.00007339   -0.00085889   -0.00132550
     atom   45 type  2   force =     0.00009678   -0.00008258    0.10377080
     atom   46 type  2   force =    -0.07065763   -0.00008269   -0.02707689
     atom   47 type  2   force =     0.07060819    0.00030076   -0.02711326
     atom   48 type  3   force =    -0.00061939   -0.00012646    0.00084744
     atom   49 type  4   force =     0.00184348   -0.00174350    0.00104973
     atom   50 type  5   force =    -0.00066905    0.00104587   -0.00113643
     atom   51 type  5   force =    -0.00032847    0.00033869   -0.00075127
     atom   52 type  3   force =    -0.00023449    0.00065858    0.00043364
     atom   53 type  5   force =     0.00031588   -0.00154516   -0.00065940
     atom   54 type  5   force =     0.00047733   -0.00022153    0.00106757
     atom   55 type  5   force =     0.00065816    0.00025859   -0.00030767

     Total force =     0.365742     Total SCF correction =     0.000661
  @ DRIVER MODE: Message from server: STATUS
  @ DRIVER MODE: Message from server: GETFORCE
  @ DRIVER MODE: Returning v,forces,stress,ensemble

     Writing output data file ./calc.save/
  @ DRIVER MODE: Message from server: EXIT
  @ DRIVE MODE: Exiting

     General routines

     Parallel routines

   This run was terminated on:  20:27:55  23Aug2021

   JOB DONE.