     Program PWSCF v.6.7GPU starts on  2Aug2021 at 23:54:50

     R & G space division:  proc/nbgrp/npool/nimage =      16
     Reading input from /storage/home/hcoda1/3/ntian30/research/carbon/02Aug_vib_paired/ads_slab/CH3NH3_a/out_0038/pw.inp
Warning: card &CELL ignored
Warning: card   CELL_DYNAMICS='IPI', ignored
Warning: card / ignored

     Current dimensions of program PWSCF are:
     Max number of different atomic species (ntypx) = 10
     Max number of k-points (npk) =  40000
     Max angular momentum in pseudopotentials (lmaxx) =  3
     Presently no symmetry can be used with electric field

     Message from routine cell_base_init:
     DEPRECATED: use true lattice parameter, not A to a.u. conversion factor

     IMPORTANT: XC functional enforced from input :
     Exchange-correlation= BEEF-VDW
                           (   1   4  43  14   2   0   0)
     Any further DFT definition will be discarded
     Please, verify this is what you really want

  @ DRIVER MODE: Connecting to
 qe_1139763_2482539.sched-torque.pace.gatech.eduz9rtqwcl_scratch
  using UNIX socket
  @ DRIVER MODE: Message from server: STATUS
  @ DRIVER MODE: Message from server: INIT
  @ DRIVER MODE: Receiving replica           0          -1
  @ DRIVER MODE: Receiving encoded integer          25
  @ DRIVER MODE:  SCF:  T  FORCE:  T  STRESS:  F  VC:  F  ENSEMBLE:  F
  @ DRIVER MODE:  SCF:  T  FORCE:  T  STRESS:  F  VC:  F  ENSEMBLE:  F

     Using Slab Decomposition

     bravais-lattice index     =            0
     lattice parameter (alat)  =       1.8897  a.u.
     unit-cell volume          =    6658.9804 (a.u.)^3
     number of atoms/cell      =           55
     number of atomic types    =            5
     number of electrons       =       393.00
     number of Kohn-Sham states=          206
     kinetic-energy cutoff     =      29.3995  Ry
     charge density cutoff     =     293.9946  Ry
     scf convergence threshold =      7.3E-08
     mixing beta               =       0.0500
     number of iterations used =            8  plain     mixing
     Exchange-correlation= BEEF-VDW
                           (   1   4  43  14   2   0   0)

     celldm(1)=   1.889726  celldm(2)=   0.000000  celldm(3)=   0.000000
     celldm(4)=   0.000000  celldm(5)=   0.000000  celldm(6)=   0.000000

     crystal axes: (cart. coord. in units of alat)
               a(1) = (   6.579727   0.000000   0.000000 )
               a(2) = (  -0.000775   5.961596   0.000000 )
               a(3) = (   0.000000   0.000000  25.155947 )

     reciprocal axes: (cart. coord. in units 2 pi/alat)
               b(1) = (  0.151982  0.000020  0.000000 )
               b(2) = (  0.000000  0.167740  0.000000 )
               b(3) = (  0.000000  0.000000  0.039752 )

     PseudoPot. # 1 for Ti read from file:
     /storage/coda1/p-amedford6/0/shared/rich_project_chbe-medford/medford-share/data/pseudos_module/espresso/nninc/pbe/van/Ti.UPF
     MD5 check sum: 8e4df49b7f0d34bbd5052bf3f5ea0213
     Pseudo is Ultrasoft, Zval = 12.0
     Generated by new atomic code, or converted to UPF format
     Using radial grid of  851 points,  6 beta functions with:
                l(1) =   0
                l(2) =   0
                l(3) =   1
                l(4) =   1
                l(5) =   2
                l(6) =   2
     Q(r) pseudized with  8 coefficients,  rinner =    1.000   1.000   1.000
                                                       1.000   1.000

     PseudoPot. # 2 for O  read from file:
     /storage/coda1/p-amedford6/0/shared/rich_project_chbe-medford/medford-share/data/pseudos_module/espresso/nninc/pbe/van/O.UPF
     MD5 check sum: 78c19812648e8988a0fe644b0f25305e
     Pseudo is Ultrasoft, Zval =  6.0
     Generated by new atomic code, or converted to UPF format
     Using radial grid of  737 points,  4 beta functions with:
                l(1) =   0
                l(2) =   0
                l(3) =   1
                l(4) =   1
     Q(r) pseudized with  8 coefficients,  rinner =    0.800   0.800   0.800

     PseudoPot. # 3 for C  read from file:
     /storage/coda1/p-amedford6/0/shared/rich_project_chbe-medford/medford-share/data/pseudos_module/espresso/nninc/pbe/van/C.UPF
     MD5 check sum: 1a69bf6b8db32088f5b2163dbdb77a27
     Pseudo is Ultrasoft, Zval =  4.0
     Generated by new atomic code, or converted to UPF format
     Using radial grid of  721 points,  4 beta functions with:
                l(1) =   0
                l(2) =   0
                l(3) =   1
                l(4) =   1
     Q(r) pseudized with  8 coefficients,  rinner =    0.800   0.800   0.800

     PseudoPot. # 4 for H  read from file:
     /storage/coda1/p-amedford6/0/shared/rich_project_chbe-medford/medford-share/data/pseudos_module/espresso/nninc/pbe/van/H.UPF
     MD5 check sum: b5ee9d7bfd3a09ee7748110bda690ff7
     Pseudo is Ultrasoft, Zval =  1.0
     Generated by new atomic code, or converted to UPF format
     Using radial grid of  615 points,  1 beta functions with:
                l(1) =   0
     Q(r) pseudized with  8 coefficients,  rinner =    0.800

     PseudoPot. # 5 for N  read from file:
     /storage/coda1/p-amedford6/0/shared/rich_project_chbe-medford/medford-share/data/pseudos_module/espresso/nninc/pbe/van/N.UPF
     MD5 check sum: 90d10febe142ad51ac9d5be1deb811c4
     Pseudo is Ultrasoft, Zval =  5.0
     Generated by new atomic code, or converted to UPF format
     Using radial grid of  729 points,  4 beta functions with:
                l(1) =   0
                l(2) =   0
                l(3) =   1
                l(4) =   1
     Q(r) pseudized with  8 coefficients,  rinner =    0.800   0.800   0.800

     atomic species   valence    mass     pseudopotential
        Ti1           12.00    47.86700     Ti( 1.00)
        O1             6.00    15.99900     O ( 1.00)
        C1             4.00    12.01100     C ( 1.00)
        H1             1.00     1.00800     H ( 1.00)
        N1             5.00    14.00700     N ( 1.00)

     No symmetry found

   Cartesian axes

     site n.     atom                  positions (alat units)
         1           Ti1 tau(   1) = (   0.0004258   2.9801865   6.0000000  )
         2           Ti1 tau(   2) = (   3.2906075   1.4906267   6.0002472  )
         3           O1  tau(   3) = (   0.0006271   0.0005054   7.9858123  )
         4           O1  tau(   4) = (   3.2906025   0.0005020   7.3038282  )
         5           O1  tau(   5) = (   4.5942328   1.4918067   9.2879030  )
         6           O1  tau(   6) = (   1.9868534   1.4903216   9.2879459  )
         7           Ti1 tau(   7) = (   3.2907910   2.8959150   9.1758416  )
         8           Ti1 tau(   8) = (   0.0015273   1.4827037   9.2680791  )
         9           O1  tau(   9) = (   3.2981156   0.0012339  11.3300471  )
        10           O1  tau(  10) = (   0.0116148   5.9584955  10.6183126  )
        11           O1  tau(  11) = (   1.3033605   1.5036236  12.6199488  )
        12           O1  tau(  12) = (   5.2811161   1.5074500  12.6162500  )
        13           Ti1 tau(  13) = (   0.0407500   2.9455431  12.6352795  )
        14           Ti1 tau(  14) = (   3.3444429   1.4910927  12.4779025  )
        15           O1  tau(  15) = (   0.0052662   0.0451097  14.6026341  )
        16           O1  tau(  16) = (   3.2946143   0.0124870  13.9210852  )
        17           O1  tau(  17) = (   4.5465206   1.5046604  16.0624161  )
        18           O1  tau(  18) = (   2.0546879   1.5048301  16.0609706  )
        19           Ti1 tau(  19) = (   3.2991624   2.9918142  15.6995589  )
        20           Ti1 tau(  20) = (   6.5707204   1.4025535  15.8059435  )
        21           O1  tau(  21) = (   3.2904802   0.0005063   4.7018136  )
        22           O1  tau(  22) = (   0.0164654   0.0145536  17.1360041  )
        23           O1  tau(  23) = (   1.3043587   1.4918075   6.0039043  )
        24           O1  tau(  24) = (   5.2767064   1.4903225   6.0039473  )
        25           Ti1 tau(  25) = (   0.0000382   5.9609847   6.0000000  )
        26           Ti1 tau(  26) = (   3.2902200   4.4714249   6.0002472  )
        27           O1  tau(  27) = (   0.0002396   2.9813036   7.9858123  )
        28           O1  tau(  28) = (   3.2902150   2.9813002   7.3038282  )
        29           O1  tau(  29) = (   4.5938453   4.4726049   9.2879030  )
        30           O1  tau(  30) = (   1.9864658   4.4711199   9.2879459  )
        31           Ti1 tau(  31) = (   3.2891106   5.8743827   9.1763621  )
        32           Ti1 tau(  32) = (   0.0006254   4.4649316   9.2693709  )
        33           O1  tau(  33) = (   3.2977166   2.9913250  11.3287690  )
        34           O1  tau(  34) = (   0.0092240   2.9805883  10.6323155  )
        35           O1  tau(  35) = (   1.3008534   4.4801743  12.6308489  )
        36           O1  tau(  36) = (   5.2850400   4.4860598  12.6280017  )
        37           Ti1 tau(  37) = (   0.0409916   5.9178611  12.5441859  )
        38           Ti1 tau(  38) = (   3.3442415   4.4710906  12.4862270  )
        39           O1  tau(  39) = (   0.0109228   2.9791018  14.7123696  )
        40           O1  tau(  40) = (   3.2998940   2.9912248  13.9043662  )
        41           O1  tau(  41) = (   4.5474046   4.4713503  16.0779382  )
        42           O1  tau(  42) = (   2.0618872   4.4767818  16.0643778  )
        43           Ti1 tau(  43) = (   3.2722838   0.0128901  15.7174356  )
        44           Ti1 tau(  44) = (   6.5592075   4.4947239  16.1563676  )
        45           O1  tau(  45) = (   3.2900926   2.9813045   4.7018136  )
        46           O1  tau(  46) = (   1.3039711   4.4726057   6.0039043  )
        47           O1  tau(  47) = (   5.2763189   4.4711207   6.0039473  )
        48           C1  tau(  48) = (   0.0359503   3.0870652  17.8341721  )
        49           H1  tau(  49) = (   5.8142062   3.6010452  18.3763092  )
        50           H1  tau(  50) = (   6.4784518   2.0305676  18.0614951  )
        51           H1  tau(  51) = (   0.9863100   3.3782628  18.2908018  )
        52           N1  tau(  52) = (   4.7642638   1.7931862  21.6370373  )
        53           H1  tau(  53) = (   4.5527921   2.7808570  21.5386679  )
        54           H1  tau(  54) = (   4.1142548   1.2952780  21.0483319  )
        55           H1  tau(  55) = (   4.5435699   1.5432347  22.5953497  )

     number of k points=    10  Fermi-Dirac smearing, width (Ry)=  0.0073
                       cart. coord. in units 2pi/alat
        k(    1) = (   0.0000000   0.0000000   0.0000000), wk =   0.1250000
        k(    2) = (   0.0000000   0.0419351   0.0000000), wk =   0.2500000
        k(    3) = (   0.0000000  -0.0838702   0.0000000), wk =   0.1250000
        k(    4) = (   0.0379955   0.0000049   0.0000000), wk =   0.2500000
        k(    5) = (   0.0379955   0.0419400   0.0000000), wk =   0.2500000
        k(    6) = (   0.0379955  -0.0838652   0.0000000), wk =   0.2500000
        k(    7) = (   0.0379955  -0.0419301   0.0000000), wk =   0.2500000
        k(    8) = (  -0.0759910  -0.0000099   0.0000000), wk =   0.1250000
        k(    9) = (  -0.0759910   0.0419252   0.0000000), wk =   0.2500000
        k(   10) = (  -0.0759910  -0.0838800   0.0000000), wk =   0.1250000

     Initial potential from superposition of free atoms

     starting charge  376.99914, renormalised to  393.00000

     negative rho (up, down):  1.001E-02 0.000E+00

     %%%%%%%%%%%%%%%%%%%%%%%%%%%%%%%%%%%%%%%%%%%%%%%%%%%%%%%%%%%%%%%%%%%%%%%%
     %                                                                      %
     % You are using vdW-DF, which was implemented by the Thonhauser group. %
     % Please cite the following two papers that made this development      %
     % possible and the two reviews that describe the various versions:     %
     %                                                                      %
     %   T. Thonhauser et al., PRL 115, 136402 (2015).                      %
     %   T. Thonhauser et al., PRB 76, 125112 (2007).                       %
     %   K. Berland et al., Rep. Prog. Phys. 78, 066501 (2015).             %
     %   D.C. Langreth et al., J. Phys.: Condens. Matter 21, 084203 (2009). %
     %                                                                      %
     %                                                                      %
     % If you are calculating the stress with vdW-DF, please also cite:     %
     %                                                                      %
     %   R. Sabatini et al., J. Phys.: Condens. Matter 24, 424209 (2012).   %
     %                                                                      %
     %%%%%%%%%%%%%%%%%%%%%%%%%%%%%%%%%%%%%%%%%%%%%%%%%%%%%%%%%%%%%%%%%%%%%%%%

     Adding external electric field

     Computed dipole along edir(3) :
        Dipole               -9.0616 Ry au,        -23.0322 Debye
        Dipole field         -0.0171 Ry au,

        Potential amp.        1.5852 Ry
        Total length         46.3494 bohr

     Starting wfcs are  298 atomic wfcs
  @ DRIVER MODE: Message from server: STATUS
  @ DRIVER MODE: Message from server: POSDATA
  @ DRIVER MODE: Reading and sharing cell
  @ DRIVER MODE: Reading and sharing positions
  @ DRIVER MODE: Received positions

     Self-consistent Calculation

     iteration #  1     ecut=    29.40 Ry     beta= 0.05
     Davidson diagonalization with overlap
     c_bands:  1 eigenvalues not converged
     c_bands:  1 eigenvalues not converged
     c_bands:  1 eigenvalues not converged
     ethr =  1.00E-05,  avg # of iterations = 17.8

[...]

     total energy              =   -2692.41706390 Ry
     estimated scf accuracy    <    2566.23242742 Ry

     iteration #  2     ecut=    29.40 Ry     beta= 0.05
     Davidson diagonalization with overlap
     ethr =  1.00E-02,  avg # of iterations = 21.6

[...]

     iteration # 69     ecut=    29.40 Ry     beta= 0.05
     Davidson diagonalization with overlap
     c_bands:  2 eigenvalues not converged
     ethr =  1.00E-10,  avg # of iterations = 15.9

[...]

     total energy              =   -2922.78951002 Ry
     estimated scf accuracy    <       0.00000009 Ry

     iteration # 75     ecut=    29.40 Ry     beta= 0.05
     Davidson diagonalization with overlap
     ethr =  2.33E-11,  avg # of iterations =  6.6

     negative rho (up, down):  1.132E-02 0.000E+00

     Adding external electric field

     Computed dipole along edir(3) :
        Dipole                0.5495 Ry au,          1.3968 Debye
        Dipole field          0.0010 Ry au,

        Potential amp.       -0.0961 Ry
        Total length         46.3494 bohr

     End of self-consistent calculation

          k = 0.0000 0.0000 0.0000 ( 18029 PWs)   bands (ev):

   -56.0350 -56.0311 -56.0009 -55.9947 -55.9026 -55.8678 -55.8672 -55.8429
   -55.8242 -55.8089 -55.8036 -55.7698 -55.5697 -55.4030 -55.0103 -54.9762
   -32.5895 -32.5168 -32.3621 -32.3559 -32.3422 -32.3411 -32.3279 -32.2943
   -32.2775 -32.2405 -32.2345 -32.2339 -32.2106 -32.1873 -32.1743 -32.1680
   -32.1387 -32.1363 -32.1220 -32.0922 -32.0820 -32.0709 -32.0396 -32.0344
   -32.0303 -32.0286 -32.0142 -32.0128 -32.0059 -31.9809 -31.9803 -31.9780
   -31.9731 -31.9722 -31.9567 -31.9478 -31.9159 -31.8485 -31.7839 -31.6905
   -31.6314 -31.5204 -31.4173 -31.3292 -31.3067 -31.2340 -31.1475 -31.0365
   -16.7693 -16.5060 -16.2740 -16.1834 -16.1335 -16.0471 -15.8696 -15.7530
   -15.7046 -15.6037 -15.5711 -15.5512 -15.5346 -15.5044 -15.4961 -15.4709
   -15.4598 -15.4534 -15.4188 -15.3908 -15.3657 -15.3511 -15.2312 -15.1789
   -15.1628 -15.1317 -15.0836 -15.0674 -14.6129 -13.6718 -13.5130 -13.3966
    -9.0491  -4.1440  -3.9638  -3.9384  -3.8901  -3.8484  -3.7471  -3.7057
    -3.6458  -3.5854  -3.2678  -3.2106  -3.2024  -3.1616  -3.1470  -2.9896
    -2.9251  -2.8513  -2.8349  -2.8293  -2.8038  -2.7986  -2.7938  -2.7512
    -2.7088  -2.6535  -2.6297  -2.5601  -2.5180  -2.4448  -2.3718  -2.3445
    -2.3022  -2.2993  -2.2630  -2.2509  -2.2428  -2.2327  -2.1970  -2.1816
    -2.0023  -1.9516  -1.8832  -1.8176  -1.8030  -1.6391  -1.5325  -1.4846
    -1.4660  -1.4589  -1.4407  -1.4238  -1.3281  -1.2102  -1.1771  -1.1276
    -1.0798  -1.0313  -1.0013  -0.9009  -0.8845  -0.7933  -0.7800  -0.7615
    -0.6503  -0.6262  -0.4922  -0.4707  -0.4648  -0.4047  -0.3891  -0.3161
    -0.2920  -0.2354  -0.1704  -0.1582  -0.0900  -0.0640  -0.0607  -0.0041
     0.0005   0.0457   0.0604   0.1700   0.2258   0.2752   0.3292   0.4356
     0.5155   0.6299   0.6766   0.7360   0.9378   1.0114   1.1208   1.1819
     1.2045   1.4755   1.5827   1.6282   3.1037   3.1887   3.2105   3.2364
     3.3438   3.3685   3.5542   3.5711   3.6053   3.6253

[...]

          k = 0.0380-0.0419 0.0000 ( 17876 PWs)   bands (ev):

[...]

          k =-0.0760-0.0000 0.0000 ( 17886 PWs)   bands (ev):

[...]

          k =-0.0760-0.0839 0.0000 ( 17948 PWs)   bands (ev):

   -56.0185 -56.0173 -56.0157 -56.0098 -55.8877 -55.8825 -55.8588 -55.8328
   -55.8265 -55.8247 -55.7880 -55.7856 -55.5683 -55.4043 -54.9933 -54.9931
   -32.3954 -32.3889 -32.3325 -32.3317 -32.3138 -32.3129 -32.2942 -32.2896
   -32.2232 -32.2221 -32.2193 -32.2083 -32.1683 -32.1671 -32.1478 -32.1434
   -32.1393 -32.1381 -32.1368 -32.1285 -32.1273 -32.1244 -32.0891 -32.0784
   -32.0737 -32.0516 -32.0473 -32.0335 -32.0246 -32.0237 -32.0197 -32.0178
   -32.0025 -32.0011 -31.9974 -31.9911 -31.9264 -31.8315 -31.7861 -31.6933
   -31.6757 -31.5646 -31.3195 -31.3194 -31.2302 -31.2300 -31.1908 -31.1908
   -16.2113 -16.1883 -15.9818 -15.9476 -15.9441 -15.9371 -15.8063 -15.7260
   -15.7254 -15.6996 -15.6386 -15.6273 -15.6054 -15.5667 -15.5424 -15.5400
   -15.5213 -15.5163 -15.4900 -15.4800 -15.4671 -15.4599 -15.3673 -15.3477
   -15.3438 -15.2943 -15.1490 -15.0026 -14.8936 -13.6711 -13.4985 -13.4983
    -9.0634  -3.7508  -3.7151  -3.5075  -3.4761  -3.2337  -3.1954  -3.1823
    -3.1132  -2.9569  -2.9172  -2.8992  -2.8916  -2.8472  -2.8395  -2.8344
    -2.8228  -2.7945  -2.7774  -2.7403  -2.7342  -2.7188  -2.7117  -2.7002
    -2.6831  -2.6532  -2.6446  -2.6139  -2.6091  -2.5885  -2.5723  -2.5444
    -2.5396  -2.4119  -2.2529  -2.2291  -2.1683  -2.1609  -2.1145  -2.1017
    -2.0951  -2.0678  -2.0386  -2.0115  -1.8523  -1.7413  -1.7267  -1.7099
    -1.6413  -1.6136  -1.5284  -1.4382  -1.3972  -1.3791  -1.3110  -1.3073
    -1.2572  -1.2326  -1.2118  -1.1444  -1.0878  -1.0507  -0.9937  -0.9876
    -0.9795  -0.9093  -0.8670  -0.7920  -0.7833  -0.7462  -0.7113  -0.6560
    -0.6218  -0.6106  -0.5205  -0.4880  -0.3757  -0.3269  -0.0686  -0.0204
     0.0327   0.0608   0.1261   0.1840   0.1882   0.2855   0.2892   0.3258
     0.4051   0.4264   0.4974   0.5167   0.5666   0.7284   1.2781   1.3755
     1.3762   1.4477   1.4481   1.4656   3.4016   3.4133   3.4204   3.4651
     3.6103   3.6149   3.6336   3.6352   3.7772   3.7963

     the Fermi energy is     3.1003 ev

!    total energy              =   -2922.78952658 Ry
     estimated scf accuracy    <       0.00000005 Ry
     smearing contrib. (-TS)   =      -0.02169469 Ry
     internal energy E=F+TS    =   -2922.76783189 Ry

     The total energy is F=E-TS. E is the sum of the following terms:
     one-electron contribution =  -23651.39300273 Ry
     hartree contribution      =   11909.90046560 Ry
     xc contribution           =    -482.26894487 Ry
     ewald contribution        =    9300.99308020 Ry
     electric field correction =       0.00056991 Ry

     convergence has been achieved in  75 iterations

     Forces acting on atoms (cartesian axes, Ry/au):

     atom    1 type  1   force =     0.00004994   -0.00022389    0.09686018
     atom    2 type  1   force =    -0.00017516   -0.00055669   -0.17514345
     atom    3 type  2   force =     0.00002192   -0.00004240   -0.02503176
     atom    4 type  2   force =     0.00002771   -0.00139796    0.05263949
     atom    5 type  2   force =    -0.01203803   -0.00051258    0.00331266
     atom    6 type  2   force =     0.01376535    0.00008426    0.00271095
     atom    7 type  1   force =    -0.00057911    0.00056710   -0.01157263
     atom    8 type  1   force =     0.00020593    0.01201634    0.02900213
     atom    9 type  2   force =    -0.00029696    0.00057127    0.00058603
     atom   10 type  2   force =    -0.00153288    0.00253034   -0.01946360
     atom   11 type  2   force =    -0.00018486   -0.00037612   -0.00014045
     atom   12 type  2   force =    -0.00089950    0.00003428   -0.00029467
     atom   13 type  1   force =     0.00054127   -0.00096980    0.00108272
     atom   14 type  1   force =     0.00145965    0.00057846   -0.00068563
     atom   15 type  2   force =    -0.00013955   -0.00105707    0.00040008
     atom   16 type  2   force =    -0.00020929   -0.00020148   -0.00147075
     atom   17 type  2   force =    -0.00065032    0.00075239   -0.00000920
     atom   18 type  2   force =     0.00048515    0.00093057    0.00001730
     atom   19 type  1   force =    -0.00020026   -0.00112850    0.00058004
     atom   20 type  1   force =    -0.00011249    0.00047110   -0.00009463
     atom   21 type  2   force =     0.00004694   -0.00003926    0.10320610
     atom   22 type  2   force =     0.00026992   -0.00029521    0.00094572
     atom   23 type  2   force =    -0.07156924   -0.00014471   -0.02767726
     atom   24 type  2   force =     0.07146235    0.00026748   -0.02770695
     atom   25 type  1   force =     0.00005668   -0.00028531    0.09646003
     atom   26 type  1   force =    -0.00019590   -0.00029073   -0.17536761
     atom   27 type  2   force =     0.00008605   -0.00017646   -0.02381672
     atom   28 type  2   force =     0.00004452   -0.00114019    0.05272050
     atom   29 type  2   force =    -0.01208396    0.00085054    0.00277715
     atom   30 type  2   force =     0.01372711    0.00123878    0.00219393
     atom   31 type  1   force =    -0.00046820    0.00304273   -0.01242930
     atom   32 type  1   force =     0.00018820   -0.01423608    0.02941315
     atom   33 type  2   force =    -0.00022955   -0.00062809    0.00044371
     atom   34 type  2   force =    -0.00098270    0.00175780   -0.02266741
     atom   35 type  2   force =    -0.00067508   -0.00060216   -0.00012024
     atom   36 type  2   force =     0.00003174   -0.00014767   -0.00033442
     atom   37 type  1   force =     0.00064722    0.00027474    0.00055401
     atom   38 type  1   force =     0.00150785    0.00018817   -0.00068348
     atom   39 type  2   force =     0.00006501    0.00013756   -0.00124786
     atom   40 type  2   force =    -0.00034750   -0.00010296    0.00175779
     atom   41 type  2   force =    -0.00076227   -0.00106531   -0.00011633
     atom   42 type  2   force =     0.00027755   -0.00146645    0.00026513
     atom   43 type  1   force =     0.00022661    0.00066516    0.00104120
     atom   44 type  1   force =     0.00045156   -0.00025722    0.00070171
     atom   45 type  2   force =     0.00005473   -0.00009366    0.10316647
     atom   46 type  2   force =    -0.07155467   -0.00011240   -0.02768105
     atom   47 type  2   force =     0.07146119    0.00031808   -0.02771367
     atom   48 type  3   force =     0.00030170    0.00086584   -0.00066432
     atom   49 type  4   force =    -0.00079978    0.00000696   -0.00049524
     atom   50 type  4   force =    -0.00031133   -0.00055151    0.00098209
     atom   51 type  4   force =    -0.00080770   -0.00014315   -0.00023367
     atom   52 type  5   force =     0.00684993    0.00547882    0.00628590
     atom   53 type  4   force =     0.00062941   -0.00040756   -0.00061647
     atom   54 type  4   force =    -0.00683402   -0.00490521   -0.00613233
     atom   55 type  4   force =    -0.00030287   -0.00007097   -0.00049511

     Total force =     0.368652     Total SCF correction =     0.000768
  @ DRIVER MODE: Message from server: STATUS
  @ DRIVER MODE: Message from server: GETFORCE
  @ DRIVER MODE: Returning v,forces,stress,ensemble

     Writing output data file ./calc.save/
  @ DRIVER MODE: Message from server: EXIT
  @ DRIVE MODE: Exiting

     General routines

     Parallel routines

   This run was terminated on:   0:11: 4   3Aug2021

   JOB DONE.