     Program PWSCF v.6.7GPU starts on 25Sep2021 at 15:18:22

     R & G space division:  proc/nbgrp/npool/nimage =       8
     Reading input from /storage/home/hcoda1/3/ntian30/research/carbon/CxH_vib/H2O_calc/ads_slab/CH3OHN2HO_a/out_0002/pw.inp
Warning: card &CELL ignored
Warning: card   CELL_DYNAMICS='IPI', ignored
Warning: card / ignored

     Current dimensions of program PWSCF are:
     Max number of different atomic species (ntypx) = 10
     Max number of k-points (npk) =  40000
     Max angular momentum in pseudopotentials (lmaxx) =  3
     Presently no symmetry can be used with electric field

     Message from routine cell_base_init:
     DEPRECATED: use true lattice parameter, not A to a.u. conversion factor

     IMPORTANT: XC functional enforced from input :
     Exchange-correlation= BEEF-VDW
                           (   1   4  43  14   2   0   0)
     Any further DFT definition will be discarded
     Please, verify this is what you really want

  @ DRIVER MODE: Connecting to
 qe_1139763_2971668.sched-torque.pace.gatech.eduo4dkcgon_scratch
  using UNIX socket
  @ DRIVER MODE: Message from server: STATUS
  @ DRIVER MODE: Message from server: INIT
  @ DRIVER MODE: Receiving replica           0          -1
  @ DRIVER MODE: Receiving encoded integer          25
  @ DRIVER MODE:  SCF:  T  FORCE:  T  STRESS:  F  VC:  F  ENSEMBLE:  F
  @ DRIVER MODE:  SCF:  T  FORCE:  T  STRESS:  F  VC:  F  ENSEMBLE:  F

     Using Slab Decomposition

     bravais-lattice index     =            0
     lattice parameter (alat)  =       1.8897  a.u.
     unit-cell volume          =    6658.9804 (a.u.)^3
     number of atoms/cell      =           57
     number of atomic types    =            5
     number of electrons       =       409.00
     number of Kohn-Sham states=          214
     kinetic-energy cutoff     =      29.3995  Ry
     charge density cutoff     =     293.9946  Ry
     scf convergence threshold =      7.3E-08
     mixing beta               =       0.0500
     number of iterations used =            8  plain     mixing
     Exchange-correlation= BEEF-VDW
                           (   1   4  43  14   2   0   0)

     celldm(1)=   1.889726  celldm(2)=   0.000000  celldm(3)=   0.000000
     celldm(4)=   0.000000  celldm(5)=   0.000000  celldm(6)=   0.000000

     crystal axes: (cart. coord. in units of alat)
               a(1) = (   6.579727   0.000000   0.000000 )
               a(2) = (  -0.000775   5.961596   0.000000 )
               a(3) = (   0.000000   0.000000  25.155947 )

     reciprocal axes: (cart. coord. in units 2 pi/alat)
               b(1) = (  0.151982  0.000020  0.000000 )
               b(2) = (  0.000000  0.167740  0.000000 )
               b(3) = (  0.000000  0.000000  0.039752 )

     PseudoPot. # 1 for Ti read from file:
     /storage/coda1/p-amedford6/0/shared/rich_project_chbe-medford/medford-share/data/pseudos_module/espresso/nninc/pbe/van/Ti.UPF
     MD5 check sum: 8e4df49b7f0d34bbd5052bf3f5ea0213
     Pseudo is Ultrasoft, Zval = 12.0
     Generated by new atomic code, or converted to UPF format
     Using radial grid of  851 points,  6 beta functions with:
                l(1) =   0
                l(2) =   0
                l(3) =   1
                l(4) =   1
                l(5) =   2
                l(6) =   2
     Q(r) pseudized with  8 coefficients,  rinner =    1.000   1.000   1.000
                                                       1.000   1.000

     PseudoPot. # 2 for O  read from file:
     /storage/coda1/p-amedford6/0/shared/rich_project_chbe-medford/medford-share/data/pseudos_module/espresso/nninc/pbe/van/O.UPF
     MD5 check sum: 78c19812648e8988a0fe644b0f25305e
     Pseudo is Ultrasoft, Zval =  6.0
     Generated by new atomic code, or converted to UPF format
     Using radial grid of  737 points,  4 beta functions with:
                l(1) =   0
                l(2) =   0
                l(3) =   1
                l(4) =   1
     Q(r) pseudized with  8 coefficients,  rinner =    0.800   0.800   0.800

     PseudoPot. # 3 for C  read from file:
     /storage/coda1/p-amedford6/0/shared/rich_project_chbe-medford/medford-share/data/pseudos_module/espresso/nninc/pbe/van/C.UPF
     MD5 check sum: 1a69bf6b8db32088f5b2163dbdb77a27
     Pseudo is Ultrasoft, Zval =  4.0
     Generated by new atomic code, or converted to UPF format
     Using radial grid of  721 points,  4 beta functions with:
                l(1) =   0
                l(2) =   0
                l(3) =   1
                l(4) =   1
     Q(r) pseudized with  8 coefficients,  rinner =    0.800   0.800   0.800

     PseudoPot. # 4 for H  read from file:
     /storage/coda1/p-amedford6/0/shared/rich_project_chbe-medford/medford-share/data/pseudos_module/espresso/nninc/pbe/van/H.UPF
     MD5 check sum: b5ee9d7bfd3a09ee7748110bda690ff7
     Pseudo is Ultrasoft, Zval =  1.0
     Generated by new atomic code, or converted to UPF format
     Using radial grid of  615 points,  1 beta functions with:
                l(1) =   0
     Q(r) pseudized with  8 coefficients,  rinner =    0.800

     PseudoPot. # 5 for N  read from file:
     /storage/coda1/p-amedford6/0/shared/rich_project_chbe-medford/medford-share/data/pseudos_module/espresso/nninc/pbe/van/N.UPF
     MD5 check sum: 90d10febe142ad51ac9d5be1deb811c4
     Pseudo is Ultrasoft, Zval =  5.0
     Generated by new atomic code, or converted to UPF format
     Using radial grid of  729 points,  4 beta functions with:
                l(1) =   0
                l(2) =   0
                l(3) =   1
                l(4) =   1
     Q(r) pseudized with  8 coefficients,  rinner =    0.800   0.800   0.800

     atomic species   valence    mass     pseudopotential
        Ti1           12.00    47.86700     Ti( 1.00)
        O1             6.00    15.99900     O ( 1.00)
        C1             4.00    12.01100     C ( 1.00)
        H1             1.00     1.00800     H ( 1.00)
        N1             5.00    14.00700     N ( 1.00)

     No symmetry found

   Cartesian axes

     site n.     atom                  positions (alat units)
         1           Ti1 tau(   1) = (   0.0004258   2.9801865   6.0000000  )
         2           Ti1 tau(   2) = (   3.2906075   1.4906267   6.0002472  )
         3           O1  tau(   3) = (   0.0006271   0.0005054   7.9858123  )
         4           O1  tau(   4) = (   3.2906025   0.0005020   7.3038282  )
         5           O1  tau(   5) = (   4.5942328   1.4918067   9.2879030  )
         6           O1  tau(   6) = (   1.9868534   1.4903216   9.2879459  )
         7           Ti1 tau(   7) = (   3.3371032   3.0268772   9.1887580  )
         8           Ti1 tau(   8) = (   0.0611061   1.5258697   9.2809523  )
         9           O1  tau(   9) = (   3.3143856   0.0188946  11.3581724  )
        10           O1  tau(  10) = (   0.0164151   0.0031400  10.5895864  )
        11           O1  tau(  11) = (   1.3088961   1.4994640  12.6347600  )
        12           O1  tau(  12) = (   5.3347766   1.4946156  12.6347356  )
        13           Ti1 tau(  13) = (   0.0202478   3.0292801  12.5720800  )
        14           Ti1 tau(  14) = (   3.3188568   1.5851219  12.4260843  )
        15           O1  tau(  15) = (   0.0445434   5.9450813  14.6510506  )
        16           O1  tau(  16) = (   3.3207065   5.8849141  14.0104376  )
        17           O1  tau(  17) = (   4.6249962   1.5116716  16.1313945  )
        18           O1  tau(  18) = (   2.0639035   1.5439872  16.0680944  )
        19           Ti1 tau(  19) = (   3.3360141   2.9454253  15.6763505  )
        20           Ti1 tau(  20) = (   0.0686920   1.3314864  15.9334539  )
        21           O1  tau(  21) = (   3.2904802   0.0005063   4.7018136  )
        22           O1  tau(  22) = (   0.0979609   0.0039778  17.1657837  )
        23           O1  tau(  23) = (   1.3043587   1.4918075   6.0039043  )
        24           O1  tau(  24) = (   5.2767064   1.4903225   6.0039473  )
        25           Ti1 tau(  25) = (   0.0000382   5.9609847   6.0000000  )
        26           Ti1 tau(  26) = (   3.2902200   4.4714249   6.0002472  )
        27           O1  tau(  27) = (   0.0002396   2.9813036   7.9858123  )
        28           O1  tau(  28) = (   3.2902150   2.9813002   7.3038282  )
        29           O1  tau(  29) = (   4.5938453   4.4726049   9.2879030  )
        30           O1  tau(  30) = (   1.9864658   4.4711199   9.2879459  )
        31           Ti1 tau(  31) = (   3.3368545   0.0404040   9.1664313  )
        32           Ti1 tau(  32) = (   0.0604674   4.4799263   9.2696248  )
        33           O1  tau(  33) = (   3.3137611   2.9662427  11.3084074  )
        34           O1  tau(  34) = (   0.0134136   2.9850836  10.6046154  )
        35           O1  tau(  35) = (   1.3054726   4.4719986  12.6384794  )
        36           O1  tau(  36) = (   5.3362180   4.4781181  12.6390536  )
        37           Ti1 tau(  37) = (   0.0365240   0.0487139  12.4702884  )
        38           Ti1 tau(  38) = (   3.3180881   4.6653017  12.7087268  )
        39           O1  tau(  39) = (   0.0228105   2.9918545  14.7761892  )
        40           O1  tau(  40) = (   3.3431522   2.9700269  13.9040455  )
        41           O1  tau(  41) = (   4.6265974   4.4152401  16.1544535  )
        42           O1  tau(  42) = (   2.0571238   4.3592187  16.1146037  )
        43           Ti1 tau(  43) = (   3.3848590   5.9294639  16.2700006  )
        44           Ti1 tau(  44) = (   0.0517009   4.5268197  15.8466567  )
        45           O1  tau(  45) = (   3.2900926   2.9813045   4.7018136  )
        46           O1  tau(  46) = (   1.3039711   4.4726057   6.0039043  )
        47           O1  tau(  47) = (   5.2763189   4.4711207   6.0039473  )
        48           C1  tau(  48) = (   5.9550987   3.0517216  18.8599509  )
        49           O1  tau(  49) = (   0.1802289   3.0084098  17.6484507  )
        50           H1  tau(  50) = (   4.9625852   2.6832861  18.5889656  )
        51           H1  tau(  51) = (   1.1163247   3.1442434  17.8758057  )
        52           H1  tau(  52) = (   6.3899442   2.3914015  19.6026461  )
        53           H1  tau(  53) = (   5.8846647   4.0795385  19.2151274  )
        54           N1  tau(  54) = (   5.7598779   3.1323611  22.9045362  )
        55           N1  tau(  55) = (   4.9845974   3.1850264  22.1203839  )
        56           O1  tau(  56) = (   3.1467188   0.0118795  18.1166202  )
        57           H1  tau(  57) = (   2.2164505   0.0865285  18.3868412  )

     number of k points=    10  Fermi-Dirac smearing, width (Ry)=  0.0073
                       cart. coord. in units 2pi/alat
        k(    1) = (   0.0000000   0.0000000   0.0000000), wk =   0.1250000
        k(    2) = (   0.0000000   0.0419351   0.0000000), wk =   0.2500000
        k(    3) = (   0.0000000  -0.0838702   0.0000000), wk =   0.1250000
        k(    4) = (   0.0379955   0.0000049   0.0000000), wk =   0.2500000
        k(    5) = (   0.0379955   0.0419400   0.0000000), wk =   0.2500000
        k(    6) = (   0.0379955  -0.0838652   0.0000000), wk =   0.2500000
        k(    7) = (   0.0379955  -0.0419301   0.0000000), wk =   0.2500000
        k(    8) = (  -0.0759910  -0.0000099   0.0000000), wk =   0.1250000
        k(    9) = (  -0.0759910   0.0419252   0.0000000), wk =   0.2500000
        k(   10) = (  -0.0759910  -0.0838800   0.0000000), wk =   0.1250000

     Initial potential from superposition of free atoms

     starting charge  392.99914, renormalised to  409.00000

     negative rho (up, down):  9.140E-03 0.000E+00

     %%%%%%%%%%%%%%%%%%%%%%%%%%%%%%%%%%%%%%%%%%%%%%%%%%%%%%%%%%%%%%%%%%%%%%%%
     %                                                                      %
     % You are using vdW-DF, which was implemented by the Thonhauser group. %
     % Please cite the following two papers that made this development      %
     % possible and the two reviews that describe the various versions:     %
     %                                                                      %
     %   T. Thonhauser et al., PRL 115, 136402 (2015).                      %
     %   T. Thonhauser et al., PRB 76, 125112 (2007).                       %
     %   K. Berland et al., Rep. Prog. Phys. 78, 066501 (2015).             %
     %   D.C. Langreth et al., J. Phys.: Condens. Matter 21, 084203 (2009). %
     %                                                                      %
     %                                                                      %
     % If you are calculating the stress with vdW-DF, please also cite:     %
     %                                                                      %
     %   R. Sabatini et al., J. Phys.: Condens. Matter 24, 424209 (2012).   %
     %                                                                      %
     %%%%%%%%%%%%%%%%%%%%%%%%%%%%%%%%%%%%%%%%%%%%%%%%%%%%%%%%%%%%%%%%%%%%%%%%

     Adding external electric field

     Computed dipole along edir(3) :
        Dipole              -18.8687 Ry au,        -47.9594 Debye
        Dipole field         -0.0356 Ry au,

        Potential amp.        3.3008 Ry
        Total length         46.3494 bohr

     Starting wfcs are  309 atomic wfcs
  @ DRIVER MODE: Message from server: STATUS
  @ DRIVER MODE: Message from server: POSDATA
  @ DRIVER MODE: Reading and sharing cell
  @ DRIVER MODE: Reading and sharing positions
  @ DRIVER MODE: Received positions

     Self-consistent Calculation

     iteration #  1     ecut=    29.40 Ry     beta= 0.05
     Davidson diagonalization with overlap
     c_bands:  5 eigenvalues not converged
     c_bands:  5 eigenvalues not converged
     c_bands:  1 eigenvalues not converged
     c_bands:  4 eigenvalues not converged
     c_bands:  1 eigenvalues not converged
     c_bands:  3 eigenvalues not converged
     ethr =  1.00E-05,  avg # of iterations = 27.3

[...]

     total energy              =   -2113.18974627 Ry
     estimated scf accuracy    <   10331.08089711 Ry

     iteration #  2     ecut=    29.40 Ry     beta= 0.05
     Davidson diagonalization with overlap
     ethr =  1.00E-02,  avg # of iterations = 29.8

[...]

     iteration # 80     ecut=    29.40 Ry     beta= 0.05
     Davidson diagonalization with overlap
     ethr =  2.72E-11,  avg # of iterations =  5.0

[...]

     total energy              =   -3006.45814477 Ry
     estimated scf accuracy    <       0.00000009 Ry

     iteration # 81     ecut=    29.40 Ry     beta= 0.05
     Davidson diagonalization with overlap
     c_bands:  1 eigenvalues not converged
     ethr =  2.08E-11,  avg # of iterations = 12.3

     negative rho (up, down):  1.063E-02 0.000E+00

     Adding external electric field

     Computed dipole along edir(3) :
        Dipole                1.0453 Ry au,          2.6570 Debye
        Dipole field          0.0020 Ry au,

        Potential amp.       -0.1829 Ry
        Total length         46.3494 bohr

     End of self-consistent calculation

          k = 0.0000 0.0000 0.0000 ( 18029 PWs)   bands (ev):

   -55.3314 -55.2563 -55.2211 -55.1472 -55.1255 -55.0904 -55.0541 -55.0497
   -55.0477 -55.0286 -55.0186 -54.9886 -54.9019 -54.8262 -54.2159 -54.1819
   -31.7343 -31.7263 -31.6377 -31.6267 -31.5850 -31.5719 -31.5466 -31.5455
   -31.5106 -31.4991 -31.4877 -31.4236 -31.4100 -31.4099 -31.3834 -31.3651
   -31.3564 -31.3393 -31.3388 -31.3272 -31.3200 -31.3151 -31.2693 -31.2669
   -31.2651 -31.2584 -31.2553 -31.2426 -31.2365 -31.2174 -31.2108 -31.2002
   -31.1985 -31.1785 -31.1741 -31.1661 -31.1652 -31.1308 -31.0907 -31.0715
   -31.0402 -31.0301 -30.6221 -30.5358 -30.5132 -30.4391 -30.3528 -30.2412
   -21.4996 -19.7584 -16.1367 -15.9084 -15.7291 -15.5272 -15.4704 -15.4039
   -15.2168 -15.1432 -14.9874 -14.8626 -14.8469 -14.7908 -14.7896 -14.7797
   -14.7507 -14.7257 -14.6804 -14.6690 -14.6637 -14.6601 -14.5986 -14.5561
   -14.5531 -14.5263 -14.5056 -14.3786 -14.3316 -14.2770 -14.1067 -14.0855
   -12.7156 -12.5995 -10.5580  -6.6813  -6.4338  -4.6705  -4.6244  -4.5927
    -4.4266  -3.6528  -3.3630  -3.2568  -3.1572  -3.1385  -3.0714  -3.0215
    -2.8080  -2.6826  -2.6387  -2.5262  -2.3990  -2.3607  -2.2949  -2.2777
    -2.1889  -2.1697  -2.1386  -2.1083  -2.0532  -2.0257  -2.0182  -2.0058
    -1.9299  -1.9231  -1.7931  -1.7882  -1.7326  -1.6400  -1.6220  -1.5991
    -1.5917  -1.5579  -1.5552  -1.5130  -1.4890  -1.4650  -1.4360  -1.3612
    -1.3423  -1.2792  -1.2420  -1.0096  -0.8553  -0.8306  -0.7502  -0.7340
    -0.7029  -0.6743  -0.6540  -0.6429  -0.6058  -0.5904  -0.4868  -0.3833
    -0.3744  -0.3151  -0.2773  -0.2725  -0.1370  -0.0920  -0.0177   0.0045
     0.0372   0.0582   0.1422   0.1913   0.2131   0.2800   0.3112   0.4164
     0.4539   0.4730   0.5147   0.5695   0.6302   0.6636   0.7034   0.7068
     0.7395   0.7888   0.8183   0.8527   0.8752   0.9221   1.0250   1.0624
     1.0729   1.2141   1.2246   1.3067   1.4315   1.4835   1.7564   1.8089
     1.8557   2.0013   2.3778   2.4247   3.8676   3.9704   3.9913   4.0125
     4.0802   4.1620   4.3275   4.3508   4.4152   4.5160

[...]

          k = 0.0380-0.0419 0.0000 ( 17876 PWs)   bands (ev):

[...]

          k =-0.0760-0.0000 0.0000 ( 17886 PWs)   bands (ev):

[...]

          k =-0.0760-0.0839 0.0000 ( 17948 PWs)   bands (ev):

   -55.3306 -55.2432 -55.2341 -55.1413 -55.1212 -55.0961 -55.0537 -55.0486
   -55.0403 -55.0320 -55.0197 -54.9979 -54.8982 -54.8298 -54.1991 -54.1986
   -31.6459 -31.5811 -31.5713 -31.5542 -31.5453 -31.5444 -31.5393 -31.5235
   -31.4615 -31.4563 -31.4178 -31.3970 -31.3847 -31.3797 -31.3632 -31.3609
   -31.3574 -31.3559 -31.3486 -31.3431 -31.3381 -31.3357 -31.3205 -31.3185
   -31.2997 -31.2889 -31.2596 -31.2530 -31.2502 -31.2459 -31.2380 -31.2367
   -31.2302 -31.2253 -31.2216 -31.2171 -31.2146 -31.1764 -31.1577 -31.0947
   -31.0775 -31.0340 -30.5261 -30.5258 -30.4359 -30.4344 -30.3961 -30.3952
   -21.4995 -19.7547 -16.1129 -15.5388 -15.3816 -15.2109 -15.1971 -15.1177
   -15.0262 -15.0083 -14.9774 -14.9640 -14.9474 -14.9229 -14.9146 -14.8796
   -14.8167 -14.7748 -14.7517 -14.7435 -14.6965 -14.6912 -14.6877 -14.6249
   -14.6176 -14.5994 -14.5748 -14.5149 -14.5065 -14.4055 -14.3909 -14.2179
   -12.7018 -12.7009 -10.5600  -6.6815  -6.4357  -4.6640  -4.6312  -4.5829
    -4.4179  -3.6184  -3.3535  -2.6870  -2.6006  -2.4983  -2.4345  -2.3562
    -2.3001  -2.2517  -2.2310  -2.1869  -2.1656  -2.0963  -2.0616  -2.0531
    -2.0334  -2.0313  -2.0006  -1.9855  -1.9726  -1.9514  -1.9230  -1.9058
    -1.8952  -1.8743  -1.8544  -1.8284  -1.8165  -1.8066  -1.7916  -1.7756
    -1.6646  -1.6481  -1.6154  -1.4524  -1.4411  -1.3721  -1.3406  -1.3141
    -1.3104  -1.2803  -1.2649  -1.2226  -1.1188  -1.0900  -1.0400  -0.9989
    -0.9070  -0.8901  -0.8391  -0.7881  -0.7424  -0.7136  -0.6834  -0.6680
    -0.6136  -0.4760  -0.4553  -0.4099  -0.2909  -0.2178  -0.2021  -0.1896
    -0.1676  -0.1446  -0.0981  -0.0899  -0.0281  -0.0155   0.0554   0.0593
     0.0884   0.1101   0.2125   0.3347   0.4133   0.4569   0.5017   0.5513
     0.5854   0.6675   0.7441   0.8299   0.9062   0.9355   0.9492   1.0670
     1.0994   1.1520   1.1982   1.2182   1.2764   1.3122   1.3524   1.3855
     2.1700   2.1837   2.2400   2.2457   4.0481   4.2985   4.3583   4.3754
     4.3852   4.4175   4.4385   4.4901   4.5064   4.5303

     the Fermi energy is     3.8778 ev

!    total energy              =   -3006.45815168 Ry
     estimated scf accuracy    <       0.00000006 Ry
     smearing contrib. (-TS)   =      -0.02082693 Ry
     internal energy E=F+TS    =   -3006.43732475 Ry

     The total energy is F=E-TS. E is the sum of the following terms:
     one-electron contribution =  -22317.83673352 Ry
     hartree contribution      =   11258.41485897 Ry
     xc contribution           =    -501.14649219 Ry
     ewald contribution        =    8554.12897983 Ry
     electric field correction =       0.00206215 Ry

     convergence has been achieved in  81 iterations

     Forces acting on atoms (cartesian axes, Ry/au):

     atom    1 type  1   force =    -0.00037573   -0.00017060    0.09497431
     atom    2 type  1   force =    -0.00035321    0.00513298   -0.17481266
     atom    3 type  2   force =     0.00070815    0.00013014   -0.02673909
     atom    4 type  2   force =     0.00128958    0.00083396    0.05206676
     atom    5 type  2   force =    -0.01095759   -0.00256305    0.00077252
     atom    6 type  2   force =     0.01192683   -0.00381299    0.00178279
     atom    7 type  1   force =    -0.00021728    0.00038954    0.00067745
     atom    8 type  1   force =     0.00013740    0.00023086    0.00017074
     atom    9 type  2   force =     0.00024966    0.00076248   -0.00067511
     atom   10 type  2   force =    -0.00039055    0.00016246    0.00014059
     atom   11 type  2   force =     0.00043903   -0.00015711    0.00011187
     atom   12 type  2   force =    -0.00084701   -0.00015630    0.00036308
     atom   13 type  1   force =     0.00043387    0.00033996   -0.00024945
     atom   14 type  1   force =    -0.00033871   -0.00071161    0.00095854
     atom   15 type  2   force =    -0.00014250   -0.00056134   -0.00094446
     atom   16 type  2   force =    -0.00028147   -0.00000612   -0.00025343
     atom   17 type  2   force =    -0.00093799    0.00029640   -0.00009456
     atom   18 type  2   force =     0.00041921    0.00070441   -0.00009017
     atom   19 type  1   force =     0.00031711   -0.00082399    0.00026550
     atom   20 type  1   force =    -0.00031438   -0.00013746    0.00020978
     atom   21 type  2   force =    -0.00000392    0.00007454    0.10305141
     atom   22 type  2   force =    -0.00001090   -0.00014959    0.00096045
     atom   23 type  2   force =    -0.07196629    0.00014562   -0.02802704
     atom   24 type  2   force =     0.07180063    0.00064222   -0.02813220
     atom   25 type  1   force =    -0.00036228    0.00025836    0.10242538
     atom   26 type  1   force =    -0.00010668   -0.00475395   -0.17505874
     atom   27 type  2   force =     0.00084808    0.00117177   -0.02486494
     atom   28 type  2   force =     0.00119523    0.00025374    0.05169267
     atom   29 type  2   force =    -0.01191675    0.00381711    0.00171383
     atom   30 type  2   force =     0.01375272    0.00146616    0.00244607
     atom   31 type  1   force =    -0.00028819   -0.00015993    0.00081301
     atom   32 type  1   force =     0.00028031    0.00028813    0.00060049
     atom   33 type  2   force =     0.00000539    0.00019997    0.00007675
     atom   34 type  2   force =    -0.00027405   -0.00032293   -0.00056729
     atom   35 type  2   force =    -0.00024136    0.00005549   -0.00047344
     atom   36 type  2   force =    -0.00037045    0.00010228   -0.00009200
     atom   37 type  1   force =    -0.00005393   -0.00034316    0.00002676
     atom   38 type  1   force =    -0.00056833    0.00028819    0.00003939
     atom   39 type  2   force =    -0.00024229   -0.00026166    0.00087615
     atom   40 type  2   force =    -0.00020182    0.00010671    0.00028355
     atom   41 type  2   force =    -0.00135547   -0.00024990   -0.00011180
     atom   42 type  2   force =     0.00101380   -0.00014441   -0.00052007
     atom   43 type  1   force =    -0.00016797    0.00056796    0.00034382
     atom   44 type  1   force =    -0.00014238    0.00041538   -0.00011257
     atom   45 type  2   force =     0.00000240    0.00013959    0.10264419
     atom   46 type  2   force =    -0.07185888   -0.00063451   -0.02797237
     atom   47 type  2   force =     0.07171655   -0.00014197   -0.02804808
     atom   48 type  3   force =    -0.02049373   -0.00027164   -0.00337490
     atom   49 type  2   force =     0.00293007   -0.00074860   -0.00044697
     atom   50 type  4   force =     0.00968998    0.00270643    0.00271992
     atom   51 type  4   force =     0.00101975    0.00035418   -0.00200715
     atom   52 type  4   force =     0.00353002   -0.00256986    0.00232775
     atom   53 type  4   force =     0.00188535   -0.00076634   -0.00104279
     atom   54 type  5   force =     0.00016069   -0.00008228    0.00036875
     atom   55 type  5   force =    -0.00050447    0.00005496   -0.00036303
     atom   56 type  2   force =     0.00082558   -0.00058576    0.00032517
     atom   57 type  4   force =    -0.00029082   -0.00080496   -0.00115514

     Total force =     0.365626     Total SCF correction =     0.000795
  @ DRIVER MODE: Message from server: STATUS
  @ DRIVER MODE: Message from server: GETFORCE
  @ DRIVER MODE: Returning v,forces,stress,ensemble

     Writing output data file ./calc.save/
  @ DRIVER MODE: Message from server: EXIT
  @ DRIVE MODE: Exiting

     General routines

     Parallel routines

   This run was terminated on:  15:57:50  25Sep2021

   JOB DONE.