     Program PWSCF v.6.7GPU starts on 23Sep2021 at  1:33:53

     R & G space division:  proc/nbgrp/npool/nimage =       8
     Reading input from /storage/home/hcoda1/3/ntian30/research/carbon/CxH_vib/H2O_calc/ads_slab/CH2OHHO_a/out_0010/pw.inp
Warning: card &CELL ignored
Warning: card   CELL_DYNAMICS='IPI', ignored
Warning: card / ignored

     Current dimensions of program PWSCF are:
     Max number of different atomic species (ntypx) = 10
     Max number of k-points (npk) =  40000
     Max angular momentum in pseudopotentials (lmaxx) =  3
     Presently no symmetry can be used with electric field

     Message from routine cell_base_init:
     DEPRECATED: use true lattice parameter, not A to a.u. conversion factor

     IMPORTANT: XC functional enforced from input :
     Exchange-correlation= BEEF-VDW
                           (   1   4  43  14   2   0   0)
     Any further DFT definition will be discarded
     Please, verify this is what you really want

  @ DRIVER MODE: Connecting to
 qe_1139763_2941013.sched-torque.pace.gatech.edu6n6y3w_t_scratch
  using UNIX socket
  @ DRIVER MODE: Message from server: STATUS
  @ DRIVER MODE: Message from server: INIT
  @ DRIVER MODE: Receiving replica           0          -1
  @ DRIVER MODE: Receiving encoded integer          25
  @ DRIVER MODE:  SCF:  T  FORCE:  T  STRESS:  F  VC:  F  ENSEMBLE:  F
  @ DRIVER MODE:  SCF:  T  FORCE:  T  STRESS:  F  VC:  F  ENSEMBLE:  F

     Using Slab Decomposition

     bravais-lattice index     =            0
     lattice parameter (alat)  =       1.8897  a.u.
     unit-cell volume          =    6658.9804 (a.u.)^3
     number of atoms/cell      =           54
     number of atomic types    =            4
     number of electrons       =       398.00
     number of Kohn-Sham states=          209
     kinetic-energy cutoff     =      29.3995  Ry
     charge density cutoff     =     293.9946  Ry
     scf convergence threshold =      7.3E-08
     mixing beta               =       0.0500
     number of iterations used =            8  plain     mixing
     Exchange-correlation= BEEF-VDW
                           (   1   4  43  14   2   0   0)

     celldm(1)=   1.889726  celldm(2)=   0.000000  celldm(3)=   0.000000
     celldm(4)=   0.000000  celldm(5)=   0.000000  celldm(6)=   0.000000

     crystal axes: (cart. coord. in units of alat)
               a(1) = (   6.579727   0.000000   0.000000 )
               a(2) = (  -0.000775   5.961596   0.000000 )
               a(3) = (   0.000000   0.000000  25.155947 )

     reciprocal axes: (cart. coord. in units 2 pi/alat)
               b(1) = (  0.151982  0.000020  0.000000 )
               b(2) = (  0.000000  0.167740  0.000000 )
               b(3) = (  0.000000  0.000000  0.039752 )

     PseudoPot. # 1 for Ti read from file:
     /storage/coda1/p-amedford6/0/shared/rich_project_chbe-medford/medford-share/data/pseudos_module/espresso/nninc/pbe/van/Ti.UPF
     MD5 check sum: 8e4df49b7f0d34bbd5052bf3f5ea0213
     Pseudo is Ultrasoft, Zval = 12.0
     Generated by new atomic code, or converted to UPF format
     Using radial grid of  851 points,  6 beta functions with:
                l(1) =   0
                l(2) =   0
                l(3) =   1
                l(4) =   1
                l(5) =   2
                l(6) =   2
     Q(r) pseudized with  8 coefficients,  rinner =    1.000   1.000   1.000
                                                       1.000   1.000

     PseudoPot. # 2 for O  read from file:
     /storage/coda1/p-amedford6/0/shared/rich_project_chbe-medford/medford-share/data/pseudos_module/espresso/nninc/pbe/van/O.UPF
     MD5 check sum: 78c19812648e8988a0fe644b0f25305e
     Pseudo is Ultrasoft, Zval =  6.0
     Generated by new atomic code, or converted to UPF format
     Using radial grid of  737 points,  4 beta functions with:
                l(1) =   0
                l(2) =   0
                l(3) =   1
                l(4) =   1
     Q(r) pseudized with  8 coefficients,  rinner =    0.800   0.800   0.800

     PseudoPot. # 3 for C  read from file:
     /storage/coda1/p-amedford6/0/shared/rich_project_chbe-medford/medford-share/data/pseudos_module/espresso/nninc/pbe/van/C.UPF
     MD5 check sum: 1a69bf6b8db32088f5b2163dbdb77a27
     Pseudo is Ultrasoft, Zval =  4.0
     Generated by new atomic code, or converted to UPF format
     Using radial grid of  721 points,  4 beta functions with:
                l(1) =   0
                l(2) =   0
                l(3) =   1
                l(4) =   1
     Q(r) pseudized with  8 coefficients,  rinner =    0.800   0.800   0.800

     PseudoPot. # 4 for H  read from file:
     /storage/coda1/p-amedford6/0/shared/rich_project_chbe-medford/medford-share/data/pseudos_module/espresso/nninc/pbe/van/H.UPF
     MD5 check sum: b5ee9d7bfd3a09ee7748110bda690ff7
     Pseudo is Ultrasoft, Zval =  1.0
     Generated by new atomic code, or converted to UPF format
     Using radial grid of  615 points,  1 beta functions with:
                l(1) =   0
     Q(r) pseudized with  8 coefficients,  rinner =    0.800

     atomic species   valence    mass     pseudopotential
        Ti1           12.00    47.86700     Ti( 1.00)
        O1             6.00    15.99900     O ( 1.00)
        C1             4.00    12.01100     C ( 1.00)
        H1             1.00     1.00800     H ( 1.00)

     No symmetry found

   Cartesian axes

     site n.     atom                  positions (alat units)
         1           Ti1 tau(   1) = (   0.0004258   2.9801865   6.0000000  )
         2           Ti1 tau(   2) = (   3.2906075   1.4906267   6.0002472  )
         3           O1  tau(   3) = (   0.0006271   0.0005054   7.9858123  )
         4           O1  tau(   4) = (   3.2906025   0.0005020   7.3038282  )
         5           O1  tau(   5) = (   4.5942328   1.4918067   9.2879030  )
         6           O1  tau(   6) = (   1.9868534   1.4903216   9.2879459  )
         7           Ti1 tau(   7) = (   3.2053781   3.0281819   9.2289109  )
         8           Ti1 tau(   8) = (   6.4789090   1.5422439   9.3246958  )
         9           O1  tau(   9) = (   3.3131828   0.0076525  11.3143355  )
        10           O1  tau(  10) = (   0.0036331   0.0073455  10.5537702  )
        11           O1  tau(  11) = (   1.2849538   1.5262321  12.5678262  )
        12           O1  tau(  12) = (   5.3289628   1.4687457  12.6164477  )
        13           Ti1 tau(  13) = (   0.0494698   3.0469090  12.7547230  )
        14           Ti1 tau(  14) = (   3.2845375   1.6334081  12.5308488  )
        15           O1  tau(  15) = (   0.1943872   0.0117586  14.6058021  )
        16           O1  tau(  16) = (   3.1943342   5.9422946  13.9142442  )
        17           O1  tau(  17) = (   4.6623408   1.4089460  15.7678261  )
        18           O1  tau(  18) = (   2.0428328   1.6351894  16.0888801  )
        19           Ti1 tau(  19) = (   3.4388860   2.9458104  15.8736401  )
        20           Ti1 tau(  20) = (   0.1295272   1.3814375  15.8666627  )
        21           O1  tau(  21) = (   3.2904802   0.0005063   4.7018136  )
        22           O1  tau(  22) = (   0.0846747   0.0144810  17.1090220  )
        23           O1  tau(  23) = (   1.3043587   1.4918075   6.0039043  )
        24           O1  tau(  24) = (   5.2767064   1.4903225   6.0039473  )
        25           Ti1 tau(  25) = (   0.0000382   5.9609847   6.0000000  )
        26           Ti1 tau(  26) = (   3.2902200   4.4714249   6.0002472  )
        27           O1  tau(  27) = (   0.0002396   2.9813036   7.9858123  )
        28           O1  tau(  28) = (   3.2902150   2.9813002   7.3038282  )
        29           O1  tau(  29) = (   4.5938453   4.4726049   9.2879030  )
        30           O1  tau(  30) = (   1.9864658   4.4711199   9.2879459  )
        31           Ti1 tau(  31) = (   3.2224821   0.0470802   9.2230333  )
        32           Ti1 tau(  32) = (   6.4759698   4.4664252   9.3127940  )
        33           O1  tau(  33) = (   3.3094535   2.9663607  11.2852029  )
        34           O1  tau(  34) = (   6.5591786   2.9896559  10.5312464  )
        35           O1  tau(  35) = (   1.2916819   4.4480478  12.5709280  )
        36           O1  tau(  36) = (   5.3369627   4.5124161  12.6303246  )
        37           Ti1 tau(  37) = (   6.5569224   0.0640291  12.4639877  )
        38           Ti1 tau(  38) = (   3.2972653   4.6387695  12.6472152  )
        39           O1  tau(  39) = (   0.0654804   2.9943531  14.6628162  )
        40           O1  tau(  40) = (   3.3673531   2.9793459  13.8791815  )
        41           O1  tau(  41) = (   4.6654837   4.5585741  15.7845026  )
        42           O1  tau(  42) = (   2.0434307   4.3527116  16.0649513  )
        43           Ti1 tau(  43) = (   3.4443475   5.9291804  16.0141943  )
        44           Ti1 tau(  44) = (   0.1552736   4.5966999  15.8683145  )
        45           O1  tau(  45) = (   3.2900926   2.9813045   4.7018136  )
        46           O1  tau(  46) = (   1.3039711   4.4726057   6.0039043  )
        47           O1  tau(  47) = (   5.2763189   4.4711207   6.0039473  )
        48           C1  tau(  48) = (   4.6056898   2.9812133  17.8228851  )
        49           O1  tau(  49) = (   6.0966523   3.0007575  17.4046881  )
        50           H1  tau(  50) = (   0.0599730   2.9907033  18.2108262  )
        51           H1  tau(  51) = (   4.4920754   2.0732530  18.4117920  )
        52           H1  tau(  52) = (   4.4771298   3.8877196  18.4106030  )
        53           O1  tau(  53) = (   3.3127961   5.9530928  17.8757943  )
        54           H1  tau(  54) = (   2.4287022   0.1083392  18.2542858  )

     number of k points=    10  Fermi-Dirac smearing, width (Ry)=  0.0073
                       cart. coord. in units 2pi/alat
        k(    1) = (   0.0000000   0.0000000   0.0000000), wk =   0.1250000
        k(    2) = (   0.0000000   0.0419351   0.0000000), wk =   0.2500000
        k(    3) = (   0.0000000  -0.0838702   0.0000000), wk =   0.1250000
        k(    4) = (   0.0379955   0.0000049   0.0000000), wk =   0.2500000
        k(    5) = (   0.0379955   0.0419400   0.0000000), wk =   0.2500000
        k(    6) = (   0.0379955  -0.0838652   0.0000000), wk =   0.2500000
        k(    7) = (   0.0379955  -0.0419301   0.0000000), wk =   0.2500000
        k(    8) = (  -0.0759910  -0.0000099   0.0000000), wk =   0.1250000
        k(    9) = (  -0.0759910   0.0419252   0.0000000), wk =   0.2500000
        k(   10) = (  -0.0759910  -0.0838800   0.0000000), wk =   0.1250000

     Initial potential from superposition of free atoms

     starting charge  381.99917, renormalised to  398.00000

     negative rho (up, down):  1.910E-02 0.000E+00

     %%%%%%%%%%%%%%%%%%%%%%%%%%%%%%%%%%%%%%%%%%%%%%%%%%%%%%%%%%%%%%%%%%%%%%%%
     %                                                                      %
     % You are using vdW-DF, which was implemented by the Thonhauser group. %
     % Please cite the following two papers that made this development      %
     % possible and the two reviews that describe the various versions:     %
     %                                                                      %
     %   T. Thonhauser et al., PRL 115, 136402 (2015).                      %
     %   T. Thonhauser et al., PRB 76, 125112 (2007).                       %
     %   K. Berland et al., Rep. Prog. Phys. 78, 066501 (2015).             %
     %   D.C. Langreth et al., J. Phys.: Condens. Matter 21, 084203 (2009). %
     %                                                                      %
     %                                                                      %
     % If you are calculating the stress with vdW-DF, please also cite:     %
     %                                                                      %
     %   R. Sabatini et al., J. Phys.: Condens. Matter 24, 424209 (2012).   %
     %                                                                      %
     %%%%%%%%%%%%%%%%%%%%%%%%%%%%%%%%%%%%%%%%%%%%%%%%%%%%%%%%%%%%%%%%%%%%%%%%

     Adding external electric field

     Computed dipole along edir(3) :
        Dipole               -7.9392 Ry au,        -20.1794 Debye
        Dipole field         -0.0150 Ry au,

        Potential amp.        1.3888 Ry
        Total length         46.3494 bohr

     Starting wfcs are  300 atomic wfcs
  @ DRIVER MODE: Message from server: STATUS
  @ DRIVER MODE: Message from server: POSDATA
  @ DRIVER MODE: Reading and sharing cell
  @ DRIVER MODE: Reading and sharing positions
  @ DRIVER MODE: Received positions

     Self-consistent Calculation

     iteration #  1     ecut=    29.40 Ry     beta= 0.05
     Davidson diagonalization with overlap
     c_bands:  1 eigenvalues not converged
     c_bands:  2 eigenvalues not converged
     c_bands:  2 eigenvalues not converged
     c_bands:  1 eigenvalues not converged
     c_bands:  1 eigenvalues not converged
     c_bands:  1 eigenvalues not converged
     ethr =  1.00E-05,  avg # of iterations = 18.8

[...]

     total energy              =   -2649.59075173 Ry
     estimated scf accuracy    <    3499.60072820 Ry

[...]

     iteration #  3     ecut=    29.40 Ry     beta= 0.05
     Davidson diagonalization with overlap
     ethr =  1.00E-02,  avg # of iterations = 14.2

[...]

     iteration # 37     ecut=    29.40 Ry     beta= 0.05
     Davidson diagonalization with overlap
     c_bands:  1 eigenvalues not converged
     ethr =  7.97E-07,  avg # of iterations = 10.1

[...]

     total energy              =   -2964.91878423 Ry
     estimated scf accuracy    <       0.00000008 Ry

     iteration # 65     ecut=    29.40 Ry     beta= 0.05
     Davidson diagonalization with overlap
     ethr =  1.90E-11,  avg # of iterations =  5.0

     negative rho (up, down):  1.875E-02 0.000E+00

     Adding external electric field

     Computed dipole along edir(3) :
        Dipole                0.6449 Ry au,          1.6391 Debye
        Dipole field          0.0012 Ry au,

        Potential amp.       -0.1128 Ry
        Total length         46.3494 bohr

     End of self-consistent calculation

          k = 0.0000 0.0000 0.0000 ( 18029 PWs)   bands (ev):

   -56.4309 -56.3661 -55.7974 -55.7954 -55.7494 -55.7451 -55.7414 -55.7011
   -55.6943 -55.6467 -55.4581 -55.4436 -55.3798 -55.3619 -54.9565 -54.9226
   -32.8333 -32.7066 -32.6298 -32.6019 -32.5000 -32.4580 -32.4108 -32.3220
   -32.2149 -32.1831 -32.1045 -32.0615 -32.0410 -32.0043 -32.0030 -31.9951
   -31.9758 -31.9612 -31.9562 -31.9444 -31.9396 -31.9359 -31.9237 -31.9062
   -31.8935 -31.8914 -31.8733 -31.8633 -31.8517 -31.8336 -31.8239 -31.7989
   -31.7593 -31.7039 -31.6614 -31.6473 -31.6225 -31.5930 -31.5901 -31.5600
   -31.5491 -31.4201 -31.3492 -31.3036 -31.2790 -31.1651 -31.0789 -30.9700
   -19.3226 -16.5888 -16.4375 -16.3073 -16.1708 -15.9565 -15.9276 -15.8246
   -15.7235 -15.6819 -15.6013 -15.5723 -15.4344 -15.3846 -15.3564 -15.3350
   -15.3154 -15.2961 -15.2817 -15.2439 -15.2284 -15.1942 -15.1411 -15.0754
   -15.0541 -15.0017 -14.9704 -14.9536 -14.8696 -14.8051 -14.7243 -13.4638
   -13.3579  -9.1605  -6.1923  -4.0868  -3.9779  -3.9325  -3.8807  -3.7846
    -3.7194  -3.6853  -3.6204  -3.3066  -3.1747  -3.0811  -3.0258  -3.0026
    -2.9277  -2.9263  -2.9132  -2.7943  -2.7354  -2.7093  -2.6479  -2.6309
    -2.5878  -2.5535  -2.5485  -2.5336  -2.4916  -2.4519  -2.4123  -2.3917
    -2.3469  -2.2638  -2.2455  -2.1683  -2.1338  -2.1122  -2.0247  -1.9598
    -1.9501  -1.9127  -1.8894  -1.7823  -1.6060  -1.5191  -1.4615  -1.4074
    -1.3860  -1.3179  -1.3097  -1.2502  -1.1937  -1.1684  -1.1650  -1.0488
    -0.9964  -0.9636  -0.9176  -0.8833  -0.8186  -0.7717  -0.7557  -0.7254
    -0.7120  -0.6034  -0.5167  -0.4976  -0.4685  -0.4357  -0.3144  -0.2684
    -0.2356  -0.2082  -0.1915  -0.1504  -0.1059  -0.0382   0.0068   0.0626
     0.1013   0.1723   0.1827   0.2210   0.2562   0.2920   0.3557   0.3710
     0.4745   0.5038   0.5599   0.5967   0.7414   0.7701   0.9295   0.9915
     1.0540   1.1486   1.2747   1.3368   1.5844   1.6238   1.7825   2.8842
     3.0470   3.3147   3.3594   3.4946   3.5651   3.6227   3.7645   3.7918
     3.8455

[...]

          k = 0.0380-0.0419 0.0000 ( 17876 PWs)   bands (ev):

[...]

          k =-0.0760-0.0000 0.0000 ( 17886 PWs)   bands (ev):

[...]

          k =-0.0760-0.0839 0.0000 ( 17948 PWs)   bands (ev):

   -56.4262 -56.3707 -55.7896 -55.7890 -55.7569 -55.7476 -55.7377 -55.7083
   -55.6871 -55.6539 -55.4550 -55.4388 -55.3845 -55.3649 -54.9397 -54.9393
   -32.7036 -32.6723 -32.6318 -32.6265 -32.5735 -32.5257 -32.3331 -32.1611
   -32.1069 -32.0734 -32.0531 -32.0351 -32.0343 -32.0218 -32.0147 -32.0127
   -31.9974 -31.9814 -31.9759 -31.9565 -31.9549 -31.9526 -31.9495 -31.9369
   -31.9239 -31.9036 -31.8926 -31.8838 -31.8673 -31.8383 -31.7863 -31.7673
   -31.7569 -31.7224 -31.7153 -31.6818 -31.6621 -31.6489 -31.6342 -31.6023
   -31.5962 -31.4210 -31.2923 -31.2920 -31.1630 -31.1625 -31.1222 -31.1219
   -19.3151 -16.2405 -16.1286 -15.9403 -15.9046 -15.8284 -15.8267 -15.7773
   -15.7375 -15.6406 -15.5855 -15.5671 -15.4949 -15.4706 -15.4534 -15.4277
   -15.3773 -15.3522 -15.3286 -15.3176 -15.2734 -15.2495 -15.2458 -15.1987
   -15.1452 -15.1196 -15.1015 -15.0500 -14.9941 -14.9352 -14.8822 -13.4653
   -13.4595  -9.1686  -6.1741  -4.0884  -3.6718  -3.6274  -3.3381  -3.1554
    -2.9763  -2.9643  -2.9507  -2.9427  -2.8741  -2.8673  -2.8185  -2.7783
    -2.7227  -2.7025  -2.6752  -2.6700  -2.6637  -2.6224  -2.6118  -2.5854
    -2.5589  -2.5536  -2.5105  -2.5035  -2.4835  -2.4362  -2.4225  -2.3897
    -2.3602  -2.3332  -2.2810  -2.2242  -2.2050  -2.1917  -2.0643  -1.9957
    -1.9909  -1.9154  -1.9012  -1.8723  -1.8331  -1.7572  -1.6951  -1.6561
    -1.5243  -1.5044  -1.4467  -1.4127  -1.3364  -1.3251  -1.2413  -1.2121
    -1.1680  -1.1383  -1.1071  -1.0849  -1.0649  -1.0614  -0.9373  -0.9061
    -0.8502  -0.8399  -0.8062  -0.7734  -0.7496  -0.6936  -0.6250  -0.6163
    -0.5678  -0.5206  -0.4532  -0.4143  -0.3339  -0.2764  -0.2370  -0.1699
    -0.0637   0.0574   0.0961   0.2008   0.2979   0.3055   0.3714   0.4207
     0.4477   0.4927   0.5779   0.5888   0.6558   0.6673   0.7008   0.7581
     0.8072   0.8778   1.4245   1.4404   1.4620   1.4648   1.7204   3.4277
     3.4544   3.4745   3.5172   3.6635   3.7568   3.7834   3.8496   3.8997
     3.9146

     the Fermi energy is     2.4066 ev

!    total energy              =   -2964.91880892 Ry
     estimated scf accuracy    <       0.00000004 Ry
     smearing contrib. (-TS)   =      -0.00043743 Ry
     internal energy E=F+TS    =   -2964.91837149 Ry

     The total energy is F=E-TS. E is the sum of the following terms:
     one-electron contribution =  -24900.68771662 Ry
     hartree contribution      =   12540.71867040 Ry
     xc contribution           =    -490.06832862 Ry
     ewald contribution        =    9885.11821859 Ry
     electric field correction =       0.00078476 Ry

     convergence has been achieved in  65 iterations

     Forces acting on atoms (cartesian axes, Ry/au):

     atom    1 type  1   force =     0.00009917   -0.00023018    0.12245533
     atom    2 type  1   force =     0.00010448    0.00183011   -0.15178326
     atom    3 type  2   force =    -0.00068108   -0.00092311   -0.05776095
     atom    4 type  2   force =    -0.00119537    0.00052097    0.04763591
     atom    5 type  2   force =    -0.01071734   -0.00519392   -0.00144657
     atom    6 type  2   force =     0.01359421    0.00025318   -0.00015484
     atom    7 type  1   force =    -0.00027177    0.00014478    0.00007681
     atom    8 type  1   force =     0.00040119   -0.00013276   -0.00039270
     atom    9 type  2   force =     0.00000954   -0.00023950    0.00041615
     atom   10 type  2   force =    -0.00012248   -0.00005547    0.00012553
     atom   11 type  2   force =    -0.00046185   -0.00026763    0.00026262
     atom   12 type  2   force =     0.00017503    0.00008174   -0.00001522
     atom   13 type  1   force =     0.00041135   -0.00011286   -0.00001625
     atom   14 type  1   force =    -0.00010679   -0.00029297    0.00000063
     atom   15 type  2   force =    -0.00029182    0.00025038   -0.00022957
     atom   16 type  2   force =     0.00018556    0.00008576   -0.00010830
     atom   17 type  2   force =     0.00002276   -0.00002980    0.00014864
     atom   18 type  2   force =    -0.00006421   -0.00020666    0.00012814
     atom   19 type  1   force =    -0.00036558    0.00014543   -0.00009822
     atom   20 type  1   force =    -0.00021486   -0.00002632   -0.00072669
     atom   21 type  2   force =     0.00026813    0.00012868    0.09730596
     atom   22 type  2   force =    -0.00031547    0.00050053   -0.00026238
     atom   23 type  2   force =    -0.08312296    0.00238591   -0.03356827
     atom   24 type  2   force =     0.08317053    0.00267486   -0.03363445
     atom   25 type  1   force =     0.00042099    0.00038032    0.13902438
     atom   26 type  1   force =     0.00005281   -0.00119383   -0.15160632
     atom   27 type  2   force =    -0.00069763    0.00143439   -0.05290047
     atom   28 type  2   force =    -0.00118003    0.00017440    0.04594890
     atom   29 type  2   force =    -0.01132701    0.00058641   -0.00074398
     atom   30 type  2   force =     0.01406113    0.00412651    0.00076057
     atom   31 type  1   force =    -0.00049926   -0.00017463    0.00015236
     atom   32 type  1   force =     0.00035000   -0.00004693   -0.00016383
     atom   33 type  2   force =    -0.00024806    0.00012074    0.00008903
     atom   34 type  2   force =     0.00013562    0.00008479    0.00011920
     atom   35 type  2   force =    -0.00019959    0.00054778    0.00034812
     atom   36 type  2   force =     0.00022563   -0.00000296   -0.00017090
     atom   37 type  1   force =    -0.00062716    0.00029700    0.00025261
     atom   38 type  1   force =    -0.00033374   -0.00039471   -0.00017246
     atom   39 type  2   force =     0.00006422   -0.00009539    0.00029698
     atom   40 type  2   force =    -0.00028812   -0.00010502    0.00029916
     atom   41 type  2   force =    -0.00031669   -0.00032141   -0.00018372
     atom   42 type  2   force =    -0.00029530   -0.00018945    0.00025025
     atom   43 type  1   force =    -0.00011327   -0.00016766   -0.00028275
     atom   44 type  1   force =    -0.00009007   -0.00018190    0.00031985
     atom   45 type  2   force =     0.00023244    0.00013283    0.09738241
     atom   46 type  2   force =    -0.08304372   -0.00265192   -0.03358568
     atom   47 type  2   force =     0.08307707   -0.00230559   -0.03368983
     atom   48 type  3   force =    -0.00008561    0.00198889   -0.00000290
     atom   49 type  2   force =     0.00005777   -0.00331017   -0.00002384
     atom   50 type  4   force =     0.00026206    0.00052133   -0.00033790
     atom   51 type  4   force =     0.00107711   -0.00034648    0.00001627
     atom   52 type  4   force =    -0.00113536   -0.00021312    0.00007596
     atom   53 type  2   force =    -0.00070083    0.00065423    0.00078355
     atom   54 type  4   force =     0.00065422   -0.00063958   -0.00061307

     Total force =     0.377751     Total SCF correction =     0.000645
  @ DRIVER MODE: Message from server: STATUS
  @ DRIVER MODE: Message from server: GETFORCE
  @ DRIVER MODE: Returning v,forces,stress,ensemble

     Writing output data file ./calc.save/
  @ DRIVER MODE: Message from server: EXIT
  @ DRIVE MODE: Exiting

     General routines

     Parallel routines

   This run was terminated on:   1:55:28  23Sep2021

   JOB DONE.