     Program PWSCF v.6.7GPU starts on 11Sep2021 at  0:58: 4

     R & G space division:  proc/nbgrp/npool/nimage =      10
     Reading input from /storage/home/hcoda1/3/ntian30/research/carbon/CxH_vib/CH2_calc/ads_slab/CH2NHNH_b/out_0020/pw.inp
Warning: card &CELL ignored
Warning: card   CELL_DYNAMICS='IPI', ignored
Warning: card / ignored

     Current dimensions of program PWSCF are:
     Max number of different atomic species (ntypx) = 10
     Max number of k-points (npk) =  40000
     Max angular momentum in pseudopotentials (lmaxx) =  3
     Presently no symmetry can be used with electric field

     Message from routine cell_base_init:
     DEPRECATED: use true lattice parameter, not A to a.u. conversion factor

     IMPORTANT: XC functional enforced from input :
     Exchange-correlation= BEEF-VDW
                           (   1   4  43  14   2   0   0)
     Any further DFT definition will be discarded
     Please, verify this is what you really want

  @ DRIVER MODE: Connecting to
 qe_1139763_2792040.sched-torque.pace.gatech.edubc1d3iuu_scratch
  using UNIX socket
  @ DRIVER MODE: Message from server: STATUS
  @ DRIVER MODE: Message from server: INIT
  @ DRIVER MODE: Receiving replica           0          -1
  @ DRIVER MODE: Receiving encoded integer          25
  @ DRIVER MODE:  SCF:  T  FORCE:  T  STRESS:  F  VC:  F  ENSEMBLE:  F
  @ DRIVER MODE:  SCF:  T  FORCE:  T  STRESS:  F  VC:  F  ENSEMBLE:  F

     Using Slab Decomposition

     bravais-lattice index     =            0
     lattice parameter (alat)  =       1.8897  a.u.
     unit-cell volume          =    6658.9804 (a.u.)^3
     number of atoms/cell      =           54
     number of atomic types    =            5
     number of electrons       =       396.00
     number of Kohn-Sham states=          208
     kinetic-energy cutoff     =      29.3995  Ry
     charge density cutoff     =     293.9946  Ry
     scf convergence threshold =      7.3E-08
     mixing beta               =       0.0500
     number of iterations used =            8  plain     mixing
     Exchange-correlation= BEEF-VDW
                           (   1   4  43  14   2   0   0)

     celldm(1)=   1.889726  celldm(2)=   0.000000  celldm(3)=   0.000000
     celldm(4)=   0.000000  celldm(5)=   0.000000  celldm(6)=   0.000000

     crystal axes: (cart. coord. in units of alat)
               a(1) = (   6.579727   0.000000   0.000000 )
               a(2) = (  -0.000775   5.961596   0.000000 )
               a(3) = (   0.000000   0.000000  25.155947 )

     reciprocal axes: (cart. coord. in units 2 pi/alat)
               b(1) = (  0.151982  0.000020  0.000000 )
               b(2) = (  0.000000  0.167740  0.000000 )
               b(3) = (  0.000000  0.000000  0.039752 )

     PseudoPot. # 1 for Ti read from file:
     /storage/coda1/p-amedford6/0/shared/rich_project_chbe-medford/medford-share/data/pseudos_module/espresso/nninc/pbe/van/Ti.UPF
     MD5 check sum: 8e4df49b7f0d34bbd5052bf3f5ea0213
     Pseudo is Ultrasoft, Zval = 12.0
     Generated by new atomic code, or converted to UPF format
     Using radial grid of  851 points,  6 beta functions with:
                l(1) =   0
                l(2) =   0
                l(3) =   1
                l(4) =   1
                l(5) =   2
                l(6) =   2
     Q(r) pseudized with  8 coefficients,  rinner =    1.000   1.000   1.000
                                                       1.000   1.000

     PseudoPot. # 2 for O  read from file:
     /storage/coda1/p-amedford6/0/shared/rich_project_chbe-medford/medford-share/data/pseudos_module/espresso/nninc/pbe/van/O.UPF
     MD5 check sum: 78c19812648e8988a0fe644b0f25305e
     Pseudo is Ultrasoft, Zval =  6.0
     Generated by new atomic code, or converted to UPF format
     Using radial grid of  737 points,  4 beta functions with:
                l(1) =   0
                l(2) =   0
                l(3) =   1
                l(4) =   1
     Q(r) pseudized with  8 coefficients,  rinner =    0.800   0.800   0.800

     PseudoPot. # 3 for N  read from file:
     /storage/coda1/p-amedford6/0/shared/rich_project_chbe-medford/medford-share/data/pseudos_module/espresso/nninc/pbe/van/N.UPF
     MD5 check sum: 90d10febe142ad51ac9d5be1deb811c4
     Pseudo is Ultrasoft, Zval =  5.0
     Generated by new atomic code, or converted to UPF format
     Using radial grid of  729 points,  4 beta functions with:
                l(1) =   0
                l(2) =   0
                l(3) =   1
                l(4) =   1
     Q(r) pseudized with  8 coefficients,  rinner =    0.800   0.800   0.800

     PseudoPot. # 4 for C  read from file:
     /storage/coda1/p-amedford6/0/shared/rich_project_chbe-medford/medford-share/data/pseudos_module/espresso/nninc/pbe/van/C.UPF
     MD5 check sum: 1a69bf6b8db32088f5b2163dbdb77a27
     Pseudo is Ultrasoft, Zval =  4.0
     Generated by new atomic code, or converted to UPF format
     Using radial grid of  721 points,  4 beta functions with:
                l(1) =   0
                l(2) =   0
                l(3) =   1
                l(4) =   1
     Q(r) pseudized with  8 coefficients,  rinner =    0.800   0.800   0.800

     PseudoPot. # 5 for H  read from file:
     /storage/coda1/p-amedford6/0/shared/rich_project_chbe-medford/medford-share/data/pseudos_module/espresso/nninc/pbe/van/H.UPF
     MD5 check sum: b5ee9d7bfd3a09ee7748110bda690ff7
     Pseudo is Ultrasoft, Zval =  1.0
     Generated by new atomic code, or converted to UPF format
     Using radial grid of  615 points,  1 beta functions with:
                l(1) =   0
     Q(r) pseudized with  8 coefficients,  rinner =    0.800

     atomic species   valence    mass     pseudopotential
        Ti1           12.00    47.86700     Ti( 1.00)
        O1             6.00    15.99900     O ( 1.00)
        N1             5.00    14.00700     N ( 1.00)
        C1             4.00    12.01100     C ( 1.00)
        H1             1.00     1.00800     H ( 1.00)

     No symmetry found

   Cartesian axes

     site n.     atom                  positions (alat units)
         1           Ti1 tau(   1) = (   0.0004258   2.9801865   6.0000000  )
         2           Ti1 tau(   2) = (   3.2906075   1.4906267   6.0002472  )
         3           O1  tau(   3) = (   0.0006271   0.0005054   7.9858123  )
         4           O1  tau(   4) = (   3.2906025   0.0005020   7.3038282  )
         5           O1  tau(   5) = (   4.5942328   1.4918067   9.2879030  )
         6           O1  tau(   6) = (   1.9868534   1.4903216   9.2879459  )
         7           Ti1 tau(   7) = (   3.2907910   2.8959150   9.1758416  )
         8           Ti1 tau(   8) = (   0.0015273   1.4827037   9.2680791  )
         9           O1  tau(   9) = (   3.3006942   5.9534781  11.3553798  )
        10           O1  tau(  10) = (   0.0116148   5.9584955  10.6183126  )
        11           O1  tau(  11) = (   1.3049435   1.4862809  12.6371303  )
        12           O1  tau(  12) = (   5.2939446   1.4839232  12.6419886  )
        13           Ti1 tau(  13) = (   0.0297220   2.9630369  12.5573518  )
        14           Ti1 tau(  14) = (   3.3261824   1.4838644  12.4981318  )
        15           O1  tau(  15) = (   0.0289408   0.0313188  14.6920809  )
        16           O1  tau(  16) = (   3.2926898   0.0103323  13.9875539  )
        17           O1  tau(  17) = (   4.5688264   1.5151599  16.1499861  )
        18           O1  tau(  18) = (   2.0666082   1.5432664  16.2461230  )
        19           Ti1 tau(  19) = (   3.3290317   3.0025141  15.7092439  )
        20           Ti1 tau(  20) = (   6.5420716   1.4859973  15.9011789  )
        21           O1  tau(  21) = (   3.2904802   0.0005063   4.7018136  )
        22           O1  tau(  22) = (   0.0300787   5.9197746  17.2397460  )
        23           O1  tau(  23) = (   1.3043587   1.4918075   6.0039043  )
        24           O1  tau(  24) = (   5.2767064   1.4903225   6.0039473  )
        25           Ti1 tau(  25) = (   0.0000382   5.9609847   6.0000000  )
        26           Ti1 tau(  26) = (   3.2902200   4.4714249   6.0002472  )
        27           O1  tau(  27) = (   0.0002396   2.9813036   7.9858123  )
        28           O1  tau(  28) = (   3.2902150   2.9813002   7.3038282  )
        29           O1  tau(  29) = (   4.5938453   4.4726049   9.2879030  )
        30           O1  tau(  30) = (   1.9864658   4.4711199   9.2879459  )
        31           Ti1 tau(  31) = (   3.2891106   5.8743827   9.1763621  )
        32           Ti1 tau(  32) = (   0.0006254   4.4649316   9.2693709  )
        33           O1  tau(  33) = (   3.3021489   2.9801797  11.3479352  )
        34           O1  tau(  34) = (   0.0092240   2.9805883  10.6323155  )
        35           O1  tau(  35) = (   1.3026635   4.4666190  12.6547599  )
        36           O1  tau(  36) = (   5.2965037   4.4700493  12.6603964  )
        37           Ti1 tau(  37) = (   0.0280624   5.9437424  12.5124334  )
        38           Ti1 tau(  38) = (   3.3252324   4.4624078  12.5019987  )
        39           O1  tau(  39) = (   0.0181394   2.9416354  14.7876853  )
        40           O1  tau(  40) = (   3.2997337   2.9731399  13.9284607  )
        41           O1  tau(  41) = (   4.5639665   4.4616582  16.1522005  )
        42           O1  tau(  42) = (   2.0594857   4.4554260  16.1407723  )
        43           Ti1 tau(  43) = (   3.2991394   0.0041700  15.7772358  )
        44           Ti1 tau(  44) = (   0.0501841   4.6507117  16.0116611  )
        45           O1  tau(  45) = (   3.2900926   2.9813045   4.7018136  )
        46           O1  tau(  46) = (   1.3039711   4.4726057   6.0039043  )
        47           O1  tau(  47) = (   5.2763189   4.4711207   6.0039473  )
        48           N1  tau(  48) = (   1.0195810   2.7978639  18.4834737  )
        49           N1  tau(  49) = (   6.5530482   2.9315443  17.6565599  )
        50           C1  tau(  50) = (   1.1739936   3.1992704  19.7158448  )
        51           H1  tau(  51) = (   2.1128141   2.9667422  20.2081369  )
        52           H1  tau(  52) = (   0.3908697   3.7596525  20.2009034  )
        53           H1  tau(  53) = (   1.7673082   2.2798185  17.9998463  )
        54           H1  tau(  54) = (   5.7337981   3.2184162  18.1887256  )

     number of k points=    10  Fermi-Dirac smearing, width (Ry)=  0.0073
                       cart. coord. in units 2pi/alat
        k(    1) = (   0.0000000   0.0000000   0.0000000), wk =   0.1250000
        k(    2) = (   0.0000000   0.0419351   0.0000000), wk =   0.2500000
        k(    3) = (   0.0000000  -0.0838702   0.0000000), wk =   0.1250000
        k(    4) = (   0.0379955   0.0000049   0.0000000), wk =   0.2500000
        k(    5) = (   0.0379955   0.0419400   0.0000000), wk =   0.2500000
        k(    6) = (   0.0379955  -0.0838652   0.0000000), wk =   0.2500000
        k(    7) = (   0.0379955  -0.0419301   0.0000000), wk =   0.2500000
        k(    8) = (  -0.0759910  -0.0000099   0.0000000), wk =   0.1250000
        k(    9) = (  -0.0759910   0.0419252   0.0000000), wk =   0.2500000
        k(   10) = (  -0.0759910  -0.0838800   0.0000000), wk =   0.1250000

     Initial potential from superposition of free atoms

     starting charge  379.99915, renormalised to  396.00000

     negative rho (up, down):  1.483E-02 0.000E+00

     %%%%%%%%%%%%%%%%%%%%%%%%%%%%%%%%%%%%%%%%%%%%%%%%%%%%%%%%%%%%%%%%%%%%%%%%
     %                                                                      %
     % You are using vdW-DF, which was implemented by the Thonhauser group. %
     % Please cite the following two papers that made this development      %
     % possible and the two reviews that describe the various versions:     %
     %                                                                      %
     %   T. Thonhauser et al., PRL 115, 136402 (2015).                      %
     %   T. Thonhauser et al., PRB 76, 125112 (2007).                       %
     %   K. Berland et al., Rep. Prog. Phys. 78, 066501 (2015).             %
     %   D.C. Langreth et al., J. Phys.: Condens. Matter 21, 084203 (2009). %
     %                                                                      %
     %                                                                      %
     % If you are calculating the stress with vdW-DF, please also cite:     %
     %                                                                      %
     %   R. Sabatini et al., J. Phys.: Condens. Matter 24, 424209 (2012).   %
     %                                                                      %
     %%%%%%%%%%%%%%%%%%%%%%%%%%%%%%%%%%%%%%%%%%%%%%%%%%%%%%%%%%%%%%%%%%%%%%%%

     Adding external electric field

     Computed dipole along edir(3) :
        Dipole               -9.8032 Ry au,        -24.9172 Debye
        Dipole field         -0.0185 Ry au,

        Potential amp.        1.7149 Ry
        Total length         46.3494 bohr

     Starting wfcs are  300 atomic wfcs
  @ DRIVER MODE: Message from server: STATUS
  @ DRIVER MODE: Message from server: POSDATA
  @ DRIVER MODE: Reading and sharing cell
  @ DRIVER MODE: Reading and sharing positions
  @ DRIVER MODE: Received positions

     Self-consistent Calculation

     iteration #  1     ecut=    29.40 Ry     beta= 0.05
     Davidson diagonalization with overlap
     c_bands:  1 eigenvalues not converged
     c_bands:  2 eigenvalues not converged
     c_bands:  1 eigenvalues not converged
     c_bands:  1 eigenvalues not converged
     c_bands:  2 eigenvalues not converged
     c_bands:  1 eigenvalues not converged
     c_bands:  1 eigenvalues not converged
     c_bands:  1 eigenvalues not converged
     c_bands:  3 eigenvalues not converged
     ethr =  1.00E-05,  avg # of iterations = 19.6

[...]

     total energy              =   -2537.17306807 Ry
     estimated scf accuracy    <    4496.61372719 Ry

     iteration #  2     ecut=    29.40 Ry     beta= 0.05
     Davidson diagonalization with overlap
     ethr =  1.00E-02,  avg # of iterations = 24.7

[...]

     iteration # 65     ecut=    29.40 Ry     beta= 0.05
     Davidson diagonalization with overlap
     c_bands:  1 eigenvalues not converged
     c_bands:  1 eigenvalues not converged
     c_bands:  1 eigenvalues not converged
     c_bands:  1 eigenvalues not converged
     ethr =  2.33E-11,  avg # of iterations = 18.2

[...]

     total energy              =   -2940.35783397 Ry
     estimated scf accuracy    <       0.00000012 Ry

     iteration # 73     ecut=    29.40 Ry     beta= 0.05
     Davidson diagonalization with overlap
     ethr =  2.18E-11,  avg # of iterations = 10.5

     negative rho (up, down):  1.441E-02 0.000E+00

     Adding external electric field

     Computed dipole along edir(3) :
        Dipole                1.4651 Ry au,          3.7238 Debye
        Dipole field          0.0028 Ry au,

        Potential amp.       -0.2563 Ry
        Total length         46.3494 bohr

     End of self-consistent calculation

          k = 0.0000 0.0000 0.0000 ( 18029 PWs)   bands (ev):

   -55.2600 -55.2257 -55.2236 -55.1916 -55.1557 -55.1325 -55.0910 -55.0671
   -55.0637 -55.0530 -55.0510 -55.0287 -55.0181 -54.9127 -54.2376 -54.2035
   -31.8336 -31.7153 -31.6202 -31.5921 -31.5877 -31.5720 -31.5536 -31.5527
   -31.5184 -31.5157 -31.4718 -31.4702 -31.4684 -31.4364 -31.4163 -31.3965
   -31.3914 -31.3783 -31.3710 -31.3657 -31.3369 -31.3154 -31.3141 -31.3094
   -31.2944 -31.2863 -31.2826 -31.2661 -31.2621 -31.2584 -31.2472 -31.2370
   -31.2338 -31.2221 -31.2136 -31.1937 -31.1844 -31.1824 -31.1783 -31.1588
   -31.1370 -31.0962 -30.6462 -30.5541 -30.5319 -30.4627 -30.3760 -30.2650
   -19.5512 -16.0899 -15.8119 -15.6855 -15.5072 -15.4465 -15.3535 -15.2047
   -15.1544 -15.0391 -15.0050 -14.9981 -14.9702 -14.9310 -14.8606 -14.7887
   -14.7884 -14.7866 -14.7435 -14.7432 -14.6978 -14.6815 -14.6791 -14.6435
   -14.6295 -14.5835 -14.4732 -14.4003 -14.3438 -14.0280 -13.8818 -12.7404
   -12.6233 -10.2443  -7.0218  -6.6631  -4.2708  -4.0769  -3.4373  -3.2615
    -3.2444  -3.1742  -3.1547  -2.9824  -2.9065  -2.7422  -2.6099  -2.5223
    -2.4804  -2.4597  -2.4553  -2.2779  -2.2264  -2.1763  -2.1544  -2.1408
    -2.1097  -2.0727  -2.0569  -2.0225  -2.0143  -1.9996  -1.8241  -1.7440
    -1.7049  -1.6804  -1.6420  -1.5806  -1.5710  -1.5447  -1.5361  -1.5324
    -1.5072  -1.4774  -1.4608  -1.4200  -1.2864  -1.2434  -1.2083  -1.1210
    -1.0347  -0.8859  -0.8092  -0.8054  -0.7716  -0.7254  -0.6874  -0.6426
    -0.6355  -0.6007  -0.4580  -0.4138  -0.3491  -0.3232  -0.2828  -0.2354
    -0.2208  -0.0823  -0.0386  -0.0332  -0.0084   0.1157   0.1567   0.2129
     0.2418   0.3042   0.3506   0.4153   0.4288   0.4530   0.4980   0.5207
     0.6316   0.6829   0.6971   0.7060   0.7344   0.7992   0.8538   0.8767
     0.8996   0.9153   1.0843   1.1237   1.2024   1.3544   1.3677   1.6968
     1.7357   1.7848   1.9711   2.3591   2.4064   3.8447   3.9144   3.9740
     3.9928   3.9976   4.0794   4.1986   4.3175   4.3380   4.3431   4.3464

[...]

          k = 0.0380-0.0419 0.0000 ( 17876 PWs)   bands (ev):

[...]

          k =-0.0760-0.0000 0.0000 ( 17886 PWs)   bands (ev):

[...]

          k =-0.0760-0.0839 0.0000 ( 17948 PWs)   bands (ev):

   -55.2442 -55.2391 -55.2087 -55.2084 -55.1527 -55.1235 -55.1000 -55.0650
   -55.0559 -55.0474 -55.0439 -55.0353 -55.0346 -54.9146 -54.2205 -54.2204
   -31.6391 -31.6341 -31.5676 -31.5306 -31.5303 -31.5277 -31.5016 -31.5012
   -31.5009 -31.4678 -31.4659 -31.4580 -31.4552 -31.4142 -31.3859 -31.3822
   -31.3786 -31.3785 -31.3724 -31.3625 -31.3594 -31.3442 -31.3297 -31.3281
   -31.3276 -31.3250 -31.3238 -31.2958 -31.2943 -31.2816 -31.2809 -31.2773
   -31.2616 -31.2581 -31.2576 -31.2550 -31.2544 -31.2245 -31.2150 -31.2144
   -31.1722 -31.1419 -30.5446 -30.5445 -30.4588 -30.4587 -30.4194 -30.4193
   -19.5492 -15.5628 -15.4738 -15.4127 -15.2810 -15.2574 -15.2238 -15.2181
   -15.1501 -15.1164 -15.0560 -15.0227 -14.9836 -14.9631 -14.9608 -14.9396
   -14.8334 -14.8297 -14.8252 -14.8145 -14.7598 -14.7543 -14.7259 -14.7050
   -14.7016 -14.6479 -14.5993 -14.5969 -14.5111 -14.2673 -13.8935 -12.7250
   -12.7248 -10.2475  -7.0143  -6.6594  -4.2518  -4.0710  -2.8372  -2.7357
    -2.6506  -2.5743  -2.4900  -2.4469  -2.4243  -2.2923  -2.2494  -2.2387
    -2.2236  -2.2078  -2.1608  -2.1344  -2.1164  -2.1025  -2.0857  -2.0807
    -2.0632  -2.0431  -2.0296  -1.9691  -1.9590  -1.9426  -1.9166  -1.8961
    -1.8729  -1.8522  -1.8273  -1.8159  -1.7056  -1.6294  -1.5910  -1.5169
    -1.4637  -1.4425  -1.4351  -1.3447  -1.3098  -1.3001  -1.2849  -1.2149
    -1.0985  -1.0452  -0.9859  -0.9838  -0.9579  -0.8193  -0.8040  -0.7513
    -0.7311  -0.7121  -0.6730  -0.6341  -0.6032  -0.5191  -0.4735  -0.4432
    -0.4088  -0.2897  -0.2556  -0.2300  -0.2166  -0.2111  -0.0944  -0.0847
    -0.0585  -0.0296   0.0123   0.0356   0.0961   0.1052   0.2437   0.3176
     0.3929   0.4753   0.5737   0.6290   0.7044   0.7711   0.7752   0.8729
     0.9326   1.0079   1.0182   1.0538   1.0594   1.1783   1.2209   1.2262
     1.2636   2.1436   2.1446   2.2263   2.2265   4.0185   4.0301   4.1054
     4.1365   4.1689   4.2332   4.3583   4.3789   4.4193   4.4210   4.5045

     the Fermi energy is     3.8941 ev

!    total energy              =   -2940.35785142 Ry
     estimated scf accuracy    <       0.00000007 Ry
     smearing contrib. (-TS)   =      -0.03839221 Ry
     internal energy E=F+TS    =   -2940.31945921 Ry

     The total energy is F=E-TS. E is the sum of the following terms:
     one-electron contribution =  -23947.33530112 Ry
     hartree contribution      =   12066.28042922 Ry
     xc contribution           =    -486.09872023 Ry
     ewald contribution        =    9426.83008242 Ry
     electric field correction =       0.00405050 Ry

     convergence has been achieved in  73 iterations

     Forces acting on atoms (cartesian axes, Ry/au):

     atom    1 type  1   force =     0.00000947   -0.00025688    0.09433133
     atom    2 type  1   force =    -0.00015660   -0.00034874   -0.17720023
     atom    3 type  2   force =     0.00003732   -0.00014405   -0.02177712
     atom    4 type  2   force =    -0.00000526   -0.00173075    0.05671880
     atom    5 type  2   force =    -0.01090612   -0.00112744    0.00623642
     atom    6 type  2   force =     0.01267187   -0.00046431    0.00597261
     atom    7 type  1   force =    -0.00028905    0.00190054   -0.01478042
     atom    8 type  1   force =    -0.00006925    0.00582891    0.00722248
     atom    9 type  2   force =    -0.00014829   -0.00025983   -0.00000683
     atom   10 type  2   force =    -0.00136040    0.00012677   -0.00578884
     atom   11 type  2   force =    -0.00011813    0.00006791   -0.00004915
     atom   12 type  2   force =     0.00014664    0.00003808    0.00020330
     atom   13 type  1   force =     0.00010888    0.00010520    0.00020329
     atom   14 type  1   force =    -0.00005137    0.00001940    0.00022694
     atom   15 type  2   force =    -0.00026982    0.00021136   -0.00006415
     atom   16 type  2   force =     0.00001365    0.00023692   -0.00013808
     atom   17 type  2   force =     0.00027961    0.00021061    0.00005114
     atom   18 type  2   force =     0.00020475   -0.00020249    0.00022579
     atom   19 type  1   force =    -0.00042380   -0.00009793   -0.00016533
     atom   20 type  1   force =    -0.00046516   -0.00003993    0.00007332
     atom   21 type  2   force =    -0.00000906   -0.00003929    0.10364694
     atom   22 type  2   force =     0.00023884    0.00027992    0.00008144
     atom   23 type  2   force =    -0.07080933   -0.00012517   -0.02713639
     atom   24 type  2   force =     0.07065661    0.00030759   -0.02721892
     atom   25 type  1   force =     0.00001688   -0.00020140    0.09405175
     atom   26 type  1   force =    -0.00024689   -0.00046520   -0.17716720
     atom   27 type  2   force =     0.00009213   -0.00029097   -0.02083743
     atom   28 type  2   force =     0.00002689   -0.00141242    0.05609247
     atom   29 type  2   force =    -0.01102170   -0.00017633    0.00585350
     atom   30 type  2   force =     0.01268172    0.00014023    0.00561032
     atom   31 type  1   force =    -0.00017210    0.00465822   -0.01583541
     atom   32 type  1   force =    -0.00003590   -0.00691052    0.00709982
     atom   33 type  2   force =     0.00010493    0.00048010   -0.00009007
     atom   34 type  2   force =    -0.00097325    0.00064392   -0.00547261
     atom   35 type  2   force =     0.00059281    0.00025098   -0.00010077
     atom   36 type  2   force =    -0.00069032    0.00026452   -0.00018944
     atom   37 type  1   force =     0.00012146   -0.00021937    0.00005509
     atom   38 type  1   force =     0.00001977   -0.00020273   -0.00008880
     atom   39 type  2   force =     0.00077442   -0.00025824   -0.00005126
     atom   40 type  2   force =     0.00016910    0.00056986    0.00007235
     atom   41 type  2   force =    -0.00021491   -0.00044617    0.00031256
     atom   42 type  2   force =     0.00033620    0.00011148   -0.00014681
     atom   43 type  1   force =    -0.00001863    0.00009903   -0.00004484
     atom   44 type  1   force =    -0.00012159    0.00047542    0.00020966
     atom   45 type  2   force =    -0.00000426   -0.00006023    0.10363071
     atom   46 type  2   force =    -0.07082211   -0.00008492   -0.02711445
     atom   47 type  2   force =     0.07065226    0.00035212   -0.02717724
     atom   48 type  3   force =     0.00082290   -0.00028914    0.00174824
     atom   49 type  3   force =    -0.00079912    0.00012156   -0.00056632
     atom   50 type  4   force =     0.00930797   -0.00295665    0.00434292
     atom   51 type  5   force =    -0.01068376    0.00249808   -0.00485834
     atom   52 type  5   force =     0.00048513   -0.00069204   -0.00009616
     atom   53 type  5   force =     0.00055063   -0.00055301    0.00059821
     atom   54 type  5   force =    -0.00023666    0.00005739   -0.00070879

     Total force =     0.366027     Total SCF correction =     0.000945
  @ DRIVER MODE: Message from server: STATUS
  @ DRIVER MODE: Message from server: GETFORCE
  @ DRIVER MODE: Returning v,forces,stress,ensemble

     Writing output data file ./calc.save/
  @ DRIVER MODE: Message from server: EXIT
  @ DRIVE MODE: Exiting

     General routines

     Parallel routines

   This run was terminated on:   1:17:11  11Sep2021

   JOB DONE.