     Program PWSCF v.6.7GPU starts on  8Sep2021 at 22:28:30

     R & G space division:  proc/nbgrp/npool/nimage =      10
     Reading input from /storage/home/hcoda1/3/ntian30/research/carbon/CxH_vib/CH_calc/ads_slab/CHN2_c/out_0002/pw.inp
Warning: card &CELL ignored
Warning: card   CELL_DYNAMICS='IPI', ignored
Warning: card / ignored

     Current dimensions of program PWSCF are:
     Max number of different atomic species (ntypx) = 10
     Max number of k-points (npk) =  40000
     Max angular momentum in pseudopotentials (lmaxx) =  3
     Presently no symmetry can be used with electric field

     Message from routine cell_base_init:
     DEPRECATED: use true lattice parameter, not A to a.u. conversion factor

     IMPORTANT: XC functional enforced from input :
     Exchange-correlation= BEEF-VDW
                           (   1   4  43  14   2   0   0)
     Any further DFT definition will be discarded
     Please, verify this is what you really want

  @ DRIVER MODE: Connecting to
 qe_1139763_2767377.sched-torque.pace.gatech.edugmm_qhvq_scratch
  using UNIX socket
  @ DRIVER MODE: Message from server: STATUS
  @ DRIVER MODE: Message from server: INIT
  @ DRIVER MODE: Receiving replica           0          -1
  @ DRIVER MODE: Receiving encoded integer          25
  @ DRIVER MODE:  SCF:  T  FORCE:  T  STRESS:  F  VC:  F  ENSEMBLE:  F
  @ DRIVER MODE:  SCF:  T  FORCE:  T  STRESS:  F  VC:  F  ENSEMBLE:  F

     Using Slab Decomposition

     bravais-lattice index     =            0
     lattice parameter (alat)  =       1.8897  a.u.
     unit-cell volume          =    6658.9804 (a.u.)^3
     number of atoms/cell      =           51
     number of atomic types    =            5
     number of electrons       =       393.00
     number of Kohn-Sham states=          206
     kinetic-energy cutoff     =      29.3995  Ry
     charge density cutoff     =     293.9946  Ry
     scf convergence threshold =      7.3E-08
     mixing beta               =       0.0500
     number of iterations used =            8  plain     mixing
     Exchange-correlation= BEEF-VDW
                           (   1   4  43  14   2   0   0)

     celldm(1)=   1.889726  celldm(2)=   0.000000  celldm(3)=   0.000000
     celldm(4)=   0.000000  celldm(5)=   0.000000  celldm(6)=   0.000000

     crystal axes: (cart. coord. in units of alat)
               a(1) = (   6.579727   0.000000   0.000000 )
               a(2) = (  -0.000775   5.961596   0.000000 )
               a(3) = (   0.000000   0.000000  25.155947 )

     reciprocal axes: (cart. coord. in units 2 pi/alat)
               b(1) = (  0.151982  0.000020  0.000000 )
               b(2) = (  0.000000  0.167740  0.000000 )
               b(3) = (  0.000000  0.000000  0.039752 )

     PseudoPot. # 1 for Ti read from file:
     /storage/coda1/p-amedford6/0/shared/rich_project_chbe-medford/medford-share/data/pseudos_module/espresso/nninc/pbe/van/Ti.UPF
     MD5 check sum: 8e4df49b7f0d34bbd5052bf3f5ea0213
     Pseudo is Ultrasoft, Zval = 12.0
     Generated by new atomic code, or converted to UPF format
     Using radial grid of  851 points,  6 beta functions with:
                l(1) =   0
                l(2) =   0
                l(3) =   1
                l(4) =   1
                l(5) =   2
                l(6) =   2
     Q(r) pseudized with  8 coefficients,  rinner =    1.000   1.000   1.000
                                                       1.000   1.000

     PseudoPot. # 2 for O  read from file:
     /storage/coda1/p-amedford6/0/shared/rich_project_chbe-medford/medford-share/data/pseudos_module/espresso/nninc/pbe/van/O.UPF
     MD5 check sum: 78c19812648e8988a0fe644b0f25305e
     Pseudo is Ultrasoft, Zval =  6.0
     Generated by new atomic code, or converted to UPF format
     Using radial grid of  737 points,  4 beta functions with:
                l(1) =   0
                l(2) =   0
                l(3) =   1
                l(4) =   1
     Q(r) pseudized with  8 coefficients,  rinner =    0.800   0.800   0.800

     PseudoPot. # 3 for C  read from file:
     /storage/coda1/p-amedford6/0/shared/rich_project_chbe-medford/medford-share/data/pseudos_module/espresso/nninc/pbe/van/C.UPF
     MD5 check sum: 1a69bf6b8db32088f5b2163dbdb77a27
     Pseudo is Ultrasoft, Zval =  4.0
     Generated by new atomic code, or converted to UPF format
     Using radial grid of  721 points,  4 beta functions with:
                l(1) =   0
                l(2) =   0
                l(3) =   1
                l(4) =   1
     Q(r) pseudized with  8 coefficients,  rinner =    0.800   0.800   0.800

     PseudoPot. # 4 for H  read from file:
     /storage/coda1/p-amedford6/0/shared/rich_project_chbe-medford/medford-share/data/pseudos_module/espresso/nninc/pbe/van/H.UPF
     MD5 check sum: b5ee9d7bfd3a09ee7748110bda690ff7
     Pseudo is Ultrasoft, Zval =  1.0
     Generated by new atomic code, or converted to UPF format
     Using radial grid of  615 points,  1 beta functions with:
                l(1) =   0
     Q(r) pseudized with  8 coefficients,  rinner =    0.800

     PseudoPot. # 5 for N  read from file:
     /storage/coda1/p-amedford6/0/shared/rich_project_chbe-medford/medford-share/data/pseudos_module/espresso/nninc/pbe/van/N.UPF
     MD5 check sum: 90d10febe142ad51ac9d5be1deb811c4
     Pseudo is Ultrasoft, Zval =  5.0
     Generated by new atomic code, or converted to UPF format
     Using radial grid of  729 points,  4 beta functions with:
                l(1) =   0
                l(2) =   0
                l(3) =   1
                l(4) =   1
     Q(r) pseudized with  8 coefficients,  rinner =    0.800   0.800   0.800

     atomic species   valence    mass     pseudopotential
        Ti1           12.00    47.86700     Ti( 1.00)
        O1             6.00    15.99900     O ( 1.00)
        C1             4.00    12.01100     C ( 1.00)
        H1             1.00     1.00800     H ( 1.00)
        N1             5.00    14.00700     N ( 1.00)

     No symmetry found

   Cartesian axes

     site n.     atom                  positions (alat units)
         1           Ti1 tau(   1) = (   0.0004258   2.9801865   6.0000000  )
         2           Ti1 tau(   2) = (   3.2906075   1.4906267   6.0002472  )
         3           O1  tau(   3) = (   0.0006271   0.0005054   7.9858123  )
         4           O1  tau(   4) = (   3.2906025   0.0005020   7.3038282  )
         5           O1  tau(   5) = (   4.5942328   1.4918067   9.2879030  )
         6           O1  tau(   6) = (   1.9868534   1.4903216   9.2879459  )
         7           Ti1 tau(   7) = (   3.2907910   2.8959150   9.1758416  )
         8           Ti1 tau(   8) = (   0.0015273   1.4827037   9.2680791  )
         9           O1  tau(   9) = (   3.2947523   5.9577806  11.3289702  )
        10           O1  tau(  10) = (   0.0116148   5.9584955  10.6183126  )
        11           O1  tau(  11) = (   1.2923655   1.4808044  12.6140338  )
        12           O1  tau(  12) = (   5.2760440   1.4916827  12.6110895  )
        13           Ti1 tau(  13) = (   0.0641422   2.9468446  12.6204329  )
        14           Ti1 tau(  14) = (   3.3828727   1.4858934  12.4752560  )
        15           O1  tau(  15) = (   0.0059231   0.0169234  14.6319368  )
        16           O1  tau(  16) = (   3.2943198   0.0056150  13.9184638  )
        17           O1  tau(  17) = (   4.5468153   1.5236546  16.0329375  )
        18           O1  tau(  18) = (   2.0515374   1.5217879  16.0554076  )
        19           Ti1 tau(  19) = (   3.2830080   3.0033146  15.6914404  )
        20           Ti1 tau(  20) = (   0.0154850   1.5188701  15.8391361  )
        21           O1  tau(  21) = (   3.2904802   0.0005063   4.7018136  )
        22           O1  tau(  22) = (   6.5736218   0.0255948  17.1842280  )
        23           O1  tau(  23) = (   1.3043587   1.4918075   6.0039043  )
        24           O1  tau(  24) = (   5.2767064   1.4903225   6.0039473  )
        25           Ti1 tau(  25) = (   0.0000382   5.9609847   6.0000000  )
        26           Ti1 tau(  26) = (   3.2902200   4.4714249   6.0002472  )
        27           O1  tau(  27) = (   0.0002396   2.9813036   7.9858123  )
        28           O1  tau(  28) = (   3.2902150   2.9813002   7.3038282  )
        29           O1  tau(  29) = (   4.5938453   4.4726049   9.2879030  )
        30           O1  tau(  30) = (   1.9864658   4.4711199   9.2879459  )
        31           Ti1 tau(  31) = (   3.2891106   5.8743827   9.1763621  )
        32           Ti1 tau(  32) = (   0.0006254   4.4649316   9.2693709  )
        33           O1  tau(  33) = (   3.2953046   2.9833475  11.3259646  )
        34           O1  tau(  34) = (   0.0092240   2.9805883  10.6323155  )
        35           O1  tau(  35) = (   1.2912205   4.4696366  12.6263023  )
        36           O1  tau(  36) = (   5.2799819   4.4751186  12.6219323  )
        37           Ti1 tau(  37) = (   0.0684868   5.9252938  12.5505524  )
        38           Ti1 tau(  38) = (   3.3848087   4.4651122  12.4793038  )
        39           O1  tau(  39) = (   0.0176302   2.9443755  14.6544446  )
        40           O1  tau(  40) = (   3.2854840   2.9900965  13.8959901  )
        41           O1  tau(  41) = (   4.5427396   4.4796010  16.0582459  )
        42           O1  tau(  42) = (   2.0519076   4.4830995  16.0738147  )
        43           Ti1 tau(  43) = (   3.3192208   0.0178015  15.7165103  )
        44           Ti1 tau(  44) = (   0.0190484   4.6579992  16.0750729  )
        45           O1  tau(  45) = (   3.2900926   2.9813045   4.7018136  )
        46           O1  tau(  46) = (   1.3039711   4.4726057   6.0039043  )
        47           O1  tau(  47) = (   5.2763189   4.4711207   6.0039473  )
        48           C1  tau(  48) = (   0.0385071   2.9528277  17.6086602  )
        49           H1  tau(  49) = (   0.9556717   2.9086103  18.1759260  )
        50           N1  tau(  50) = (   5.5646879   2.9115633  18.3869838  )
        51           N1  tau(  51) = (   4.5815072   2.8727048  18.9619008  )

     number of k points=    10  Fermi-Dirac smearing, width (Ry)=  0.0073
                       cart. coord. in units 2pi/alat
        k(    1) = (   0.0000000   0.0000000   0.0000000), wk =   0.1250000
        k(    2) = (   0.0000000   0.0419351   0.0000000), wk =   0.2500000
        k(    3) = (   0.0000000  -0.0838702   0.0000000), wk =   0.1250000
        k(    4) = (   0.0379955   0.0000049   0.0000000), wk =   0.2500000
        k(    5) = (   0.0379955   0.0419400   0.0000000), wk =   0.2500000
        k(    6) = (   0.0379955  -0.0838652   0.0000000), wk =   0.2500000
        k(    7) = (   0.0379955  -0.0419301   0.0000000), wk =   0.2500000
        k(    8) = (  -0.0759910  -0.0000099   0.0000000), wk =   0.1250000
        k(    9) = (  -0.0759910   0.0419252   0.0000000), wk =   0.2500000
        k(   10) = (  -0.0759910  -0.0838800   0.0000000), wk =   0.1250000

     Initial potential from superposition of free atoms

     starting charge  376.99918, renormalised to  393.00000

     negative rho (up, down):  1.908E-02 0.000E+00

     %%%%%%%%%%%%%%%%%%%%%%%%%%%%%%%%%%%%%%%%%%%%%%%%%%%%%%%%%%%%%%%%%%%%%%%%
     %                                                                      %
     % You are using vdW-DF, which was implemented by the Thonhauser group. %
     % Please cite the following two papers that made this development      %
     % possible and the two reviews that describe the various versions:     %
     %                                                                      %
     %   T. Thonhauser et al., PRL 115, 136402 (2015).                      %
     %   T. Thonhauser et al., PRB 76, 125112 (2007).                       %
     %   K. Berland et al., Rep. Prog. Phys. 78, 066501 (2015).             %
     %   D.C. Langreth et al., J. Phys.: Condens. Matter 21, 084203 (2009). %
     %                                                                      %
     %                                                                      %
     % If you are calculating the stress with vdW-DF, please also cite:     %
     %                                                                      %
     %   R. Sabatini et al., J. Phys.: Condens. Matter 24, 424209 (2012).   %
     %                                                                      %
     %%%%%%%%%%%%%%%%%%%%%%%%%%%%%%%%%%%%%%%%%%%%%%%%%%%%%%%%%%%%%%%%%%%%%%%%

     Adding external electric field

     Computed dipole along edir(3) :
        Dipole               -7.1729 Ry au,        -18.2316 Debye
        Dipole field         -0.0135 Ry au,

        Potential amp.        1.2548 Ry
        Total length         46.3494 bohr

     Starting wfcs are  297 atomic wfcs
  @ DRIVER MODE: Message from server: STATUS
  @ DRIVER MODE: Message from server: POSDATA
  @ DRIVER MODE: Reading and sharing cell
  @ DRIVER MODE: Reading and sharing positions
  @ DRIVER MODE: Received positions

     Self-consistent Calculation

     iteration #  1     ecut=    29.40 Ry     beta= 0.05
     Davidson diagonalization with overlap
     c_bands:  1 eigenvalues not converged
     c_bands:  1 eigenvalues not converged
     c_bands:  1 eigenvalues not converged
     c_bands:  1 eigenvalues not converged
     c_bands:  2 eigenvalues not converged
     c_bands:  1 eigenvalues not converged
     c_bands:  2 eigenvalues not converged
     ethr =  1.00E-05,  avg # of iterations = 19.1

[...]

     total energy              =   -2708.68675625 Ry
     estimated scf accuracy    <    2526.19413269 Ry

[...]

     iteration #  3     ecut=    29.40 Ry     beta= 0.05
     Davidson diagonalization with overlap
     ethr =  1.00E-02,  avg # of iterations = 16.1

[...]

     iteration # 67     ecut=    29.40 Ry     beta= 0.05
     Davidson diagonalization with overlap
     c_bands:  2 eigenvalues not converged
     ethr =  1.49E-09,  avg # of iterations = 11.5

[...]

     total energy              =   -2936.64825504 Ry
     estimated scf accuracy    <       0.00000012 Ry

     iteration # 74     ecut=    29.40 Ry     beta= 0.05
     Davidson diagonalization with overlap
     ethr =  3.12E-11,  avg # of iterations =  8.6

     negative rho (up, down):  1.867E-02 0.000E+00

     Adding external electric field

     Computed dipole along edir(3) :
        Dipole                0.3073 Ry au,          0.7811 Debye
        Dipole field          0.0006 Ry au,

        Potential amp.       -0.0538 Ry
        Total length         46.3494 bohr

     End of self-consistent calculation

          k = 0.0000 0.0000 0.0000 ( 18029 PWs)   bands (ev):

   -56.1859 -56.1768 -56.1519 -56.1403 -56.0888 -56.0295 -56.0190 -55.9945
   -55.9925 -55.9604 -55.9572 -55.9236 -55.7049 -55.4332 -55.1620 -55.1280
   -32.7321 -32.6683 -32.5313 -32.5301 -32.4969 -32.4934 -32.4788 -32.4482
   -32.4284 -32.4171 -32.4000 -32.3804 -32.3577 -32.3381 -32.3301 -32.3164
   -32.3145 -32.2902 -32.2752 -32.2431 -32.2402 -32.2378 -32.2023 -32.1879
   -32.1870 -32.1839 -32.1827 -32.1725 -32.1596 -32.1438 -32.1400 -32.1335
   -32.1272 -32.1253 -32.1106 -32.1009 -32.0698 -31.9641 -31.8906 -31.7032
   -31.6945 -31.6468 -31.5690 -31.4809 -31.4585 -31.3858 -31.2993 -31.1882
   -20.6580 -16.9372 -16.6625 -16.4430 -16.3404 -16.3144 -16.2010 -16.0272
   -15.9078 -15.8640 -15.7610 -15.7447 -15.7215 -15.6891 -15.6814 -15.6732
   -15.6398 -15.6280 -15.6117 -15.5985 -15.5441 -15.5228 -15.5039 -15.4089
   -15.3646 -15.3226 -15.3131 -15.2461 -15.2402 -14.7344 -13.6645 -13.5719
   -13.5481  -5.8985  -4.8050  -4.5714  -4.3088  -4.1455  -4.0917  -4.0447
    -3.9959  -3.8046  -3.7427  -3.4275  -3.4164  -3.3737  -3.3575  -3.3441
    -3.3099  -3.1000  -3.0531  -3.0189  -2.9957  -2.9711  -2.9641  -2.9567
    -2.9481  -2.9053  -2.8539  -2.7741  -2.7331  -2.6402  -2.6002  -2.5775
    -2.4974  -2.4831  -2.4597  -2.4284  -2.4233  -2.4189  -2.3853  -2.3697
    -2.2375  -2.1793  -2.0495  -1.9901  -1.9626  -1.7915  -1.7578  -1.6548
    -1.6449  -1.6128  -1.5896  -1.5764  -1.4881  -1.3663  -1.3444  -1.3263
    -1.2821  -1.2059  -1.1676  -1.0747  -1.0410  -0.9676  -0.9495  -0.9469
    -0.9366  -0.8907  -0.7396  -0.6726  -0.6422  -0.5927  -0.5748  -0.5330
    -0.4842  -0.4613  -0.3487  -0.3163  -0.3126  -0.2586  -0.2491  -0.2110
    -0.2064  -0.1921  -0.1766  -0.1560   0.0057   0.0912   0.1546   0.1691
     0.2998   0.3550   0.4169   0.4732   0.5727   0.7868   0.8600   0.9485
     1.0524   1.4311   1.4766   1.6396   2.9496   3.0350   3.0823   3.0991
     3.1928   3.2001   3.4037   3.4255   3.4328   3.4999

[...]

          k = 0.0380-0.0419 0.0000 ( 17876 PWs)   bands (ev):

[...]

          k =-0.0760-0.0000 0.0000 ( 17886 PWs)   bands (ev):

[...]

          k =-0.0760-0.0839 0.0000 ( 17948 PWs)   bands (ev):

   -56.1693 -56.1684 -56.1617 -56.1552 -56.0842 -56.0235 -56.0178 -56.0043
   -55.9783 -55.9760 -55.9412 -55.9398 -55.7039 -55.4341 -55.1450 -55.1449
   -32.5369 -32.5335 -32.4839 -32.4832 -32.4646 -32.4637 -32.4623 -32.4389
   -32.3854 -32.3820 -32.3793 -32.3773 -32.3467 -32.3129 -32.3095 -32.3044
   -32.2965 -32.2900 -32.2888 -32.2878 -32.2840 -32.2807 -32.2783 -32.2372
   -32.2249 -32.2227 -32.2085 -32.1968 -32.1773 -32.1765 -32.1728 -32.1717
   -32.1561 -32.1554 -32.1506 -32.1483 -32.0602 -31.9665 -31.8858 -31.7635
   -31.7000 -31.6675 -31.4713 -31.4712 -31.3819 -31.3817 -31.3426 -31.3426
   -20.6576 -16.3759 -16.3475 -16.1363 -16.1073 -16.1008 -16.0914 -15.9819
   -15.8959 -15.8813 -15.8793 -15.8149 -15.7913 -15.7745 -15.7305 -15.7165
   -15.7120 -15.7053 -15.6987 -15.6466 -15.6417 -15.6223 -15.6151 -15.5391
   -15.5010 -15.4974 -15.4816 -15.3586 -15.2242 -14.9104 -13.6500 -13.6499
   -13.5796  -5.8959  -4.7449  -4.5617  -3.6693  -3.6345  -3.4779  -3.3793
    -3.3536  -3.3407  -3.2759  -3.1106  -3.0901  -3.0681  -3.0569  -3.0182
    -3.0164  -3.0021  -2.9925  -2.9747  -2.9365  -2.9059  -2.8821  -2.8543
    -2.8521  -2.8419  -2.8137  -2.7995  -2.7736  -2.7583  -2.7383  -2.7238
    -2.7038  -2.6913  -2.5771  -2.4194  -2.3879  -2.3228  -2.3140  -2.2890
    -2.2562  -2.2492  -2.2343  -2.1850  -2.0564  -1.9253  -1.8878  -1.8700
    -1.8196  -1.7943  -1.7612  -1.6473  -1.6098  -1.5708  -1.5383  -1.4761
    -1.4439  -1.4053  -1.3567  -1.3302  -1.2635  -1.2415  -1.1822  -1.1471
    -1.1424  -1.1117  -1.0290  -0.9542  -0.9531  -0.9320  -0.9074  -0.8788
    -0.8244  -0.7988  -0.6941  -0.6689  -0.5698  -0.4980  -0.4641  -0.2185
    -0.1582  -0.1258  -0.1075  -0.0535   0.0212   0.0998   0.1248   0.1354
     0.1909   0.2617   0.2669   0.3560   0.3637   0.3988   0.5234   1.2239
     1.2247   1.2963   1.2965   1.6097   3.2339   3.2389   3.2870   3.3094
     3.4514   3.4593   3.4823   3.4833   3.5934   3.6225

     the Fermi energy is     2.9481 ev

!    total energy              =   -2936.64827527 Ry
     estimated scf accuracy    <       0.00000005 Ry
     smearing contrib. (-TS)   =      -0.02176536 Ry
     internal energy E=F+TS    =   -2936.62650991 Ry

     The total energy is F=E-TS. E is the sum of the following terms:
     one-electron contribution =  -24545.14668032 Ry
     hartree contribution      =   12355.66517240 Ry
     xc contribution           =    -483.52706700 Ry
     ewald contribution        =    9736.38188677 Ry
     electric field correction =       0.00017824 Ry

     convergence has been achieved in  74 iterations

     Forces acting on atoms (cartesian axes, Ry/au):

     atom    1 type  1   force =     0.00022205   -0.00016532    0.09654635
     atom    2 type  1   force =    -0.00008284   -0.00054750   -0.17535811
     atom    3 type  2   force =    -0.00002163   -0.00007245   -0.02487724
     atom    4 type  2   force =     0.00006703   -0.00140781    0.05271145
     atom    5 type  2   force =    -0.01181457   -0.00063929    0.00342788
     atom    6 type  2   force =     0.01354241    0.00002857    0.00245153
     atom    7 type  1   force =    -0.00104997    0.00054968   -0.01188035
     atom    8 type  1   force =     0.00048596    0.00952148    0.02773786
     atom    9 type  2   force =     0.00003738    0.00091914   -0.00045726
     atom   10 type  2   force =    -0.00161240    0.00102548   -0.01736454
     atom   11 type  2   force =     0.00045913    0.00014993    0.00023263
     atom   12 type  2   force =    -0.00050084   -0.00017542    0.00010335
     atom   13 type  1   force =     0.00091439    0.00136659   -0.00027521
     atom   14 type  1   force =    -0.00070148    0.00000465   -0.00005777
     atom   15 type  2   force =     0.00025756   -0.00027540   -0.00000476
     atom   16 type  2   force =     0.00028230    0.00026485    0.00107388
     atom   17 type  2   force =     0.00028445   -0.00018527    0.00046211
     atom   18 type  2   force =     0.00009554   -0.00028417    0.00037546
     atom   19 type  1   force =    -0.00031869   -0.00087407    0.00058315
     atom   20 type  1   force =     0.00019223    0.00005540    0.00106949
     atom   21 type  2   force =     0.00008221   -0.00004981    0.10317327
     atom   22 type  2   force =    -0.00000237   -0.00036865   -0.00059176
     atom   23 type  2   force =    -0.07153932   -0.00011885   -0.02772797
     atom   24 type  2   force =     0.07149049    0.00028827   -0.02773942
     atom   25 type  1   force =     0.00000362   -0.00018704    0.09611307
     atom   26 type  1   force =    -0.00017742   -0.00028441   -0.17549458
     atom   27 type  2   force =     0.00005661   -0.00023416   -0.02384127
     atom   28 type  2   force =     0.00011006   -0.00116067    0.05259785
     atom   29 type  2   force =    -0.01194163    0.00044631    0.00309935
     atom   30 type  2   force =     0.01358423    0.00085393    0.00214960
     atom   31 type  1   force =    -0.00089419    0.00309456   -0.01274240
     atom   32 type  1   force =     0.00046447   -0.01168080    0.02821228
     atom   33 type  2   force =     0.00030532   -0.00090465   -0.00023191
     atom   34 type  2   force =    -0.00077841    0.00070631   -0.02381772
     atom   35 type  2   force =    -0.00065423   -0.00004390    0.00004380
     atom   36 type  2   force =     0.00035530   -0.00021331    0.00000088
     atom   37 type  1   force =     0.00091428   -0.00124754   -0.00031160
     atom   38 type  1   force =    -0.00092234    0.00019704    0.00029553
     atom   39 type  2   force =    -0.00021348    0.00048848    0.00001624
     atom   40 type  2   force =     0.00011997   -0.00031073    0.00031573
     atom   41 type  2   force =     0.00024924    0.00034119    0.00045658
     atom   42 type  2   force =     0.00021181    0.00054750    0.00023296
     atom   43 type  1   force =    -0.00044462    0.00107134   -0.00013536
     atom   44 type  1   force =     0.00006483   -0.00042849    0.00069745
     atom   45 type  2   force =     0.00006982   -0.00008046    0.10316143
     atom   46 type  2   force =    -0.07155226   -0.00010364   -0.02773964
     atom   47 type  2   force =     0.07152674    0.00033410   -0.02776376
     atom   48 type  3   force =    -0.02233111    0.00079776    0.00113679
     atom   49 type  4   force =     0.00931634   -0.00085047    0.00699505
     atom   50 type  5   force =     0.01046035   -0.00053456   -0.00446072
     atom   51 type  5   force =     0.00132770    0.00037629   -0.00259962

     Total force =     0.368962     Total SCF correction =     0.000449
  @ DRIVER MODE: Message from server: STATUS
  @ DRIVER MODE: Message from server: GETFORCE
  @ DRIVER MODE: Returning v,forces,stress,ensemble

     Writing output data file ./calc.save/
  @ DRIVER MODE: Message from server: EXIT
  @ DRIVE MODE: Exiting

     General routines

     Parallel routines

   This run was terminated on:  22:48:56   8Sep2021

   JOB DONE.