     Program PWSCF v.6.7GPU starts on 16Jul2021 at  3: 2:43

     R & G space division:  proc/nbgrp/npool/nimage =      16
     Reading input from /storage/home/hcoda1/3/ntian30/research/carbon/15Jul_vib/ads_slab/CH3N2_b/out_0018/pw.inp
Warning: card &CELL ignored
Warning: card   CELL_DYNAMICS='IPI', ignored
Warning: card / ignored

     Current dimensions of program PWSCF are:
     Max number of different atomic species (ntypx) = 10
     Max number of k-points (npk) =  40000
     Max angular momentum in pseudopotentials (lmaxx) =  3
     Presently no symmetry can be used with electric field

     Message from routine cell_base_init:
     DEPRECATED: use true lattice parameter, not A to a.u. conversion factor

     IMPORTANT: XC functional enforced from input :
     Exchange-correlation= BEEF-VDW
                           (   1   4  43  14   2   0   0)
     Any further DFT definition will be discarded
     Please, verify this is what you really want

  @ DRIVER MODE: Connecting to
 qe_1139763_2351645.sched-torque.pace.gatech.edup7i1z38m_scratch
  using UNIX socket
  @ DRIVER MODE: Message from server: STATUS
  @ DRIVER MODE: Message from server: INIT
  @ DRIVER MODE: Receiving replica           0          -1
  @ DRIVER MODE: Receiving encoded integer          25
  @ DRIVER MODE:  SCF:  T  FORCE:  T  STRESS:  F  VC:  F  ENSEMBLE:  F
  @ DRIVER MODE:  SCF:  T  FORCE:  T  STRESS:  F  VC:  F  ENSEMBLE:  F

     Using Slab Decomposition

     bravais-lattice index     =            0
     lattice parameter (alat)  =       1.8897  a.u.
     unit-cell volume          =    6658.9804 (a.u.)^3
     number of atoms/cell      =           53
     number of atomic types    =            5
     number of electrons       =       395.00
     number of Kohn-Sham states=          207
     kinetic-energy cutoff     =      29.3995  Ry
     charge density cutoff     =     293.9946  Ry
     scf convergence threshold =      7.3E-08
     mixing beta               =       0.0500
     number of iterations used =            8  plain     mixing
     Exchange-correlation= BEEF-VDW
                           (   1   4  43  14   2   0   0)

     celldm(1)=   1.889726  celldm(2)=   0.000000  celldm(3)=   0.000000
     celldm(4)=   0.000000  celldm(5)=   0.000000  celldm(6)=   0.000000

     crystal axes: (cart. coord. in units of alat)
               a(1) = (   6.579727   0.000000   0.000000 )
               a(2) = (  -0.000775   5.961596   0.000000 )
               a(3) = (   0.000000   0.000000  25.155947 )

     reciprocal axes: (cart. coord. in units 2 pi/alat)
               b(1) = (  0.151982  0.000020  0.000000 )
               b(2) = (  0.000000  0.167740  0.000000 )
               b(3) = (  0.000000  0.000000  0.039752 )

     PseudoPot. # 1 for Ti read from file:
     /storage/coda1/p-amedford6/0/shared/rich_project_chbe-medford/medford-share/data/pseudos_module/espresso/nninc/pbe/van/Ti.UPF
     MD5 check sum: 8e4df49b7f0d34bbd5052bf3f5ea0213
     Pseudo is Ultrasoft, Zval = 12.0
     Generated by new atomic code, or converted to UPF format
     Using radial grid of  851 points,  6 beta functions with:
                l(1) =   0
                l(2) =   0
                l(3) =   1
                l(4) =   1
                l(5) =   2
                l(6) =   2
     Q(r) pseudized with  8 coefficients,  rinner =    1.000   1.000   1.000
                                                       1.000   1.000

     PseudoPot. # 2 for O  read from file:
     /storage/coda1/p-amedford6/0/shared/rich_project_chbe-medford/medford-share/data/pseudos_module/espresso/nninc/pbe/van/O.UPF
     MD5 check sum: 78c19812648e8988a0fe644b0f25305e
     Pseudo is Ultrasoft, Zval =  6.0
     Generated by new atomic code, or converted to UPF format
     Using radial grid of  737 points,  4 beta functions with:
                l(1) =   0
                l(2) =   0
                l(3) =   1
                l(4) =   1
     Q(r) pseudized with  8 coefficients,  rinner =    0.800   0.800   0.800

     PseudoPot. # 3 for N  read from file:
     /storage/coda1/p-amedford6/0/shared/rich_project_chbe-medford/medford-share/data/pseudos_module/espresso/nninc/pbe/van/N.UPF
     MD5 check sum: 90d10febe142ad51ac9d5be1deb811c4
     Pseudo is Ultrasoft, Zval =  5.0
     Generated by new atomic code, or converted to UPF format
     Using radial grid of  729 points,  4 beta functions with:
                l(1) =   0
                l(2) =   0
                l(3) =   1
                l(4) =   1
     Q(r) pseudized with  8 coefficients,  rinner =    0.800   0.800   0.800

     PseudoPot. # 4 for C  read from file:
     /storage/coda1/p-amedford6/0/shared/rich_project_chbe-medford/medford-share/data/pseudos_module/espresso/nninc/pbe/van/C.UPF
     MD5 check sum: 1a69bf6b8db32088f5b2163dbdb77a27
     Pseudo is Ultrasoft, Zval =  4.0
     Generated by new atomic code, or converted to UPF format
     Using radial grid of  721 points,  4 beta functions with:
                l(1) =   0
                l(2) =   0
                l(3) =   1
                l(4) =   1
     Q(r) pseudized with  8 coefficients,  rinner =    0.800   0.800   0.800

     PseudoPot. # 5 for H  read from file:
     /storage/coda1/p-amedford6/0/shared/rich_project_chbe-medford/medford-share/data/pseudos_module/espresso/nninc/pbe/van/H.UPF
     MD5 check sum: b5ee9d7bfd3a09ee7748110bda690ff7
     Pseudo is Ultrasoft, Zval =  1.0
     Generated by new atomic code, or converted to UPF format
     Using radial grid of  615 points,  1 beta functions with:
                l(1) =   0
     Q(r) pseudized with  8 coefficients,  rinner =    0.800

     atomic species   valence    mass     pseudopotential
        Ti1           12.00    47.86700     Ti( 1.00)
        O1             6.00    15.99900     O ( 1.00)
        N1             5.00    14.00700     N ( 1.00)
        C1             4.00    12.01100     C ( 1.00)
        H1             1.00     1.00800     H ( 1.00)

     Starting magnetic structure
     atomic species   magnetization
        Ti1          0.000
        O1           0.000
        N1           0.000
        C1           0.025
        H1           0.000

     No symmetry found

   Cartesian axes

     site n.     atom                  positions (alat units)
         1           Ti1 tau(   1) = (   0.0004258   2.9801865   6.0000000  )
         2           Ti1 tau(   2) = (   3.2906075   1.4906267   6.0002472  )
         3           O1  tau(   3) = (   0.0006271   0.0005054   7.9858123  )
         4           O1  tau(   4) = (   3.2906025   0.0005020   7.3038282  )
         5           O1  tau(   5) = (   4.5942328   1.4918067   9.2879030  )
         6           O1  tau(   6) = (   1.9868534   1.4903216   9.2879459  )
         7           Ti1 tau(   7) = (   3.2907910   2.8959150   9.1758416  )
         8           Ti1 tau(   8) = (   0.0015273   1.4827037   9.2680791  )
         9           O1  tau(   9) = (   3.3037365   0.0094216  11.3222111  )
        10           O1  tau(  10) = (   0.0116148   5.9584955  10.6183126  )
        11           O1  tau(  11) = (   1.3152514   1.5075076  12.6320051  )
        12           O1  tau(  12) = (   5.3186361   1.4995162  12.6508707  )
        13           Ti1 tau(  13) = (   6.5540705   2.9956815  12.5884341  )
        14           Ti1 tau(  14) = (   3.2234832   1.4927074  12.4921739  )
        15           O1  tau(  15) = (   0.0610261   5.9052480  14.6017706  )
        16           O1  tau(  16) = (   3.2936532   0.0132264  13.8830087  )
        17           O1  tau(  17) = (   4.5722397   1.5061520  16.0138922  )
        18           O1  tau(  18) = (   2.0767725   1.5295127  16.0808449  )
        19           Ti1 tau(  19) = (   3.3650854   3.0251465  15.6907462  )
        20           Ti1 tau(  20) = (   0.0387768   1.3037779  15.7216176  )
        21           O1  tau(  21) = (   3.2904802   0.0005063   4.7018136  )
        22           O1  tau(  22) = (   0.0189486   0.1070799  17.1824039  )
        23           O1  tau(  23) = (   1.3043587   1.4918075   6.0039043  )
        24           O1  tau(  24) = (   5.2767064   1.4903225   6.0039473  )
        25           Ti1 tau(  25) = (   0.0000382   5.9609847   6.0000000  )
        26           Ti1 tau(  26) = (   3.2902200   4.4714249   6.0002472  )
        27           O1  tau(  27) = (   0.0002396   2.9813036   7.9858123  )
        28           O1  tau(  28) = (   3.2902150   2.9813002   7.3038282  )
        29           O1  tau(  29) = (   4.5938453   4.4726049   9.2879030  )
        30           O1  tau(  30) = (   1.9864658   4.4711199   9.2879459  )
        31           Ti1 tau(  31) = (   3.2891106   5.8743827   9.1763621  )
        32           Ti1 tau(  32) = (   0.0006254   4.4649316   9.2693709  )
        33           O1  tau(  33) = (   3.3043114   2.9829305  11.3227053  )
        34           O1  tau(  34) = (   0.0092240   2.9805883  10.6323155  )
        35           O1  tau(  35) = (   1.3131995   4.4620516  12.6081187  )
        36           O1  tau(  36) = (   5.3117129   4.4692194  12.6284301  )
        37           Ti1 tau(  37) = (   6.5303063   5.9583428  12.5400172  )
        38           Ti1 tau(  38) = (   3.2255477   4.4746212  12.4748647  )
        39           O1  tau(  39) = (   0.0377805   3.0059521  14.8845374  )
        40           O1  tau(  40) = (   3.3120027   2.9986483  13.8863452  )
        41           O1  tau(  41) = (   4.5434534   4.5277214  16.0148975  )
        42           O1  tau(  42) = (   2.1165747   4.4940517  16.0783766  )
        43           Ti1 tau(  43) = (   3.3042555   0.0241951  15.7004812  )
        44           Ti1 tau(  44) = (   0.0495666   4.4505358  16.3362958  )
        45           O1  tau(  45) = (   3.2900926   2.9813045   4.7018136  )
        46           O1  tau(  46) = (   1.3039711   4.4726057   6.0039043  )
        47           O1  tau(  47) = (   5.2763189   4.4711207   6.0039473  )
        48           N1  tau(  48) = (   0.5348212   3.4288502  18.0689430  )
        49           C1  tau(  49) = (   1.3556880   3.0079929  19.2215664  )
        50           H1  tau(  50) = (   1.4862090   3.8900195  19.8596782  )
        51           H1  tau(  51) = (   0.8469181   2.2141957  19.7647163  )
        52           H1  tau(  52) = (   2.3296892   2.6851793  18.8624704  )
        53           N1  tau(  53) = (   5.9145885   3.2636146  17.9655992  )

     number of k points=    10  Fermi-Dirac smearing, width (Ry)=  0.0073
                       cart. coord. in units 2pi/alat
        k(    1) = (   0.0000000   0.0000000   0.0000000), wk =   0.0625000
        k(    2) = (   0.0000000   0.0419351   0.0000000), wk =   0.1250000
        k(    3) = (   0.0000000  -0.0838702   0.0000000), wk =   0.0625000
        k(    4) = (   0.0379955   0.0000049   0.0000000), wk =   0.1250000
        k(    5) = (   0.0379955   0.0419400   0.0000000), wk =   0.1250000
        k(    6) = (   0.0379955  -0.0838652   0.0000000), wk =   0.1250000
        k(    7) = (   0.0379955  -0.0419301   0.0000000), wk =   0.1250000
        k(    8) = (  -0.0759910  -0.0000099   0.0000000), wk =   0.0625000
        k(    9) = (  -0.0759910   0.0419252   0.0000000), wk =   0.1250000
        k(   10) = (  -0.0759910  -0.0838800   0.0000000), wk =   0.0625000

     Initial potential from superposition of free atoms

     starting charge  378.99916, renormalised to  395.00000

     negative rho (up, down):  8.043E-03 8.050E-03

     %%%%%%%%%%%%%%%%%%%%%%%%%%%%%%%%%%%%%%%%%%%%%%%%%%%%%%%%%%%%%%%%%%%%%%%%
     %                                                                      %
     % You are using vdW-DF, which was implemented by the Thonhauser group. %
     % Please cite the following two papers that made this development      %
     % possible and the two reviews that describe the various versions:     %
     %                                                                      %
     %   T. Thonhauser et al., PRL 115, 136402 (2015).                      %
     %   T. Thonhauser et al., PRB 76, 125112 (2007).                       %
     %   K. Berland et al., Rep. Prog. Phys. 78, 066501 (2015).             %
     %   D.C. Langreth et al., J. Phys.: Condens. Matter 21, 084203 (2009). %
     %                                                                      %
     %                                                                      %
     % If you are calculating the stress with vdW-DF, please also cite:     %
     %                                                                      %
     %   R. Sabatini et al., J. Phys.: Condens. Matter 24, 424209 (2012).   %
     %                                                                      %
     %%%%%%%%%%%%%%%%%%%%%%%%%%%%%%%%%%%%%%%%%%%%%%%%%%%%%%%%%%%%%%%%%%%%%%%%

     Adding external electric field

     Computed dipole along edir(3) :
        Dipole               -8.5794 Ry au,        -21.8067 Debye
        Dipole field         -0.0162 Ry au,

        Potential amp.        1.5008 Ry
        Total length         46.3494 bohr

[...]

     Starting wfcs are  299 atomic wfcs
  @ DRIVER MODE: Message from server: STATUS
  @ DRIVER MODE: Message from server: POSDATA
  @ DRIVER MODE: Reading and sharing cell
  @ DRIVER MODE: Reading and sharing positions
  @ DRIVER MODE: Received positions

     Self-consistent Calculation

     iteration #  1     ecut=    29.40 Ry     beta= 0.05
     Davidson diagonalization with overlap
     c_bands:  1 eigenvalues not converged
     c_bands:  1 eigenvalues not converged
     c_bands:  1 eigenvalues not converged
     c_bands:  3 eigenvalues not converged
     c_bands:  1 eigenvalues not converged
     c_bands:  3 eigenvalues not converged
     c_bands:  1 eigenvalues not converged
     c_bands:  2 eigenvalues not converged
     c_bands:  1 eigenvalues not converged
     c_bands:  1 eigenvalues not converged
     c_bands:  1 eigenvalues not converged
     c_bands:  3 eigenvalues not converged
     c_bands:  1 eigenvalues not converged
     c_bands:  3 eigenvalues not converged
     c_bands:  1 eigenvalues not converged
     c_bands:  2 eigenvalues not converged
     ethr =  1.00E-05,  avg # of iterations = 19.2

[...]

     total energy              =   -2599.53383342 Ry
     estimated scf accuracy    <    3761.92984014 Ry

     total magnetization       =     0.00 Bohr mag/cell
     absolute magnetization    =     0.02 Bohr mag/cell

     iteration #  2     ecut=    29.40 Ry     beta= 0.05
     Davidson diagonalization with overlap
     ethr =  1.00E-02,  avg # of iterations = 22.6

[...]

     iteration # 63     ecut=    29.40 Ry     beta= 0.05
     Davidson diagonalization with overlap
     c_bands:  1 eigenvalues not converged
     ethr =  1.95E-09,  avg # of iterations = 10.3

[...]

     total energy              =   -2939.12588661 Ry
     estimated scf accuracy    <       0.00000016 Ry

[...]

     iteration # 74     ecut=    29.40 Ry     beta= 0.05
     Davidson diagonalization with overlap
     ethr =  3.58E-11,  avg # of iterations = 11.7

     negative rho (up, down):  8.113E-03 8.114E-03

[...]

     Adding external electric field

     Computed dipole along edir(3) :
        Dipole                0.9126 Ry au,          2.3196 Debye
        Dipole field          0.0017 Ry au,

        Potential amp.       -0.1596 Ry
        Total length         46.3494 bohr

     Magnetic moment per site  (integrated on atomic sphere of radius R)
     atom   1 (R=0.727)  charge=  7.9485  magn= -0.0024
     atom   2 (R=0.727)  charge=  7.9316  magn=  0.0002
     atom   3 (R=0.727)  charge=  4.9369  magn=  0.0000
     atom   4 (R=0.727)  charge=  4.9738  magn= -0.0001
     atom   5 (R=0.727)  charge=  4.9424  magn= -0.0001
     atom   6 (R=0.727)  charge=  4.9431  magn= -0.0001
     atom   7 (R=0.727)  charge=  7.9299  magn=  0.0001
     atom   8 (R=0.727)  charge=  7.9249  magn=  0.0004
     atom   9 (R=0.727)  charge=  4.9562  magn=  0.0000
     atom  10 (R=0.727)  charge=  4.9398  magn= -0.0001
     atom  11 (R=0.727)  charge=  4.9438  magn=  0.0000
     atom  12 (R=0.727)  charge=  4.9402  magn=  0.0000
     atom  13 (R=0.727)  charge=  7.9199  magn= -0.0000
     atom  14 (R=0.727)  charge=  7.9286  magn= -0.0000
     atom  15 (R=0.727)  charge=  4.9368  magn= -0.0000
     atom  16 (R=0.727)  charge=  4.9586  magn= -0.0000
     atom  17 (R=0.727)  charge=  4.9268  magn= -0.0000
     atom  18 (R=0.727)  charge=  4.9195  magn= -0.0000
     atom  19 (R=0.727)  charge=  7.9516  magn=  0.0000
     atom  20 (R=0.727)  charge=  7.9765  magn=  0.0000
     atom  21 (R=0.727)  charge=  4.8266  magn= -0.0004
     atom  22 (R=0.727)  charge=  4.9096  magn= -0.0000
     atom  23 (R=0.727)  charge=  4.9339  magn=  0.0003
     atom  24 (R=0.727)  charge=  4.9340  magn=  0.0003
     atom  25 (R=0.727)  charge=  7.9485  magn= -0.0025
     atom  26 (R=0.727)  charge=  7.9316  magn=  0.0002
     atom  27 (R=0.727)  charge=  4.9363  magn=  0.0000
     atom  28 (R=0.727)  charge=  4.9740  magn= -0.0001
     atom  29 (R=0.727)  charge=  4.9433  magn= -0.0001
     atom  30 (R=0.727)  charge=  4.9439  magn= -0.0001
     atom  31 (R=0.727)  charge=  7.9304  magn=  0.0001
     atom  32 (R=0.727)  charge=  7.9251  magn=  0.0004
     atom  33 (R=0.727)  charge=  4.9554  magn=  0.0000
     atom  34 (R=0.727)  charge=  4.9242  magn= -0.0001
     atom  35 (R=0.727)  charge=  4.9447  magn=  0.0000
     atom  36 (R=0.727)  charge=  4.9438  magn=  0.0000
     atom  37 (R=0.727)  charge=  7.9230  magn= -0.0000
     atom  38 (R=0.727)  charge=  7.9295  magn= -0.0000
     atom  39 (R=0.727)  charge=  4.9078  magn= -0.0000
     atom  40 (R=0.727)  charge=  4.9611  magn=  0.0000
     atom  41 (R=0.727)  charge=  4.9355  magn= -0.0000
     atom  42 (R=0.727)  charge=  4.9347  magn= -0.0000
     atom  43 (R=0.727)  charge=  7.9537  magn=  0.0000
     atom  44 (R=0.727)  charge=  7.9726  magn=  0.0001
     atom  45 (R=0.727)  charge=  4.8266  magn= -0.0005
     atom  46 (R=0.727)  charge=  4.9340  magn=  0.0003
     atom  47 (R=0.727)  charge=  4.9340  magn=  0.0003
     atom  48 (R=0.501)  charge=  1.9976  magn=  0.0000
     atom  49 (R=0.448)  charge=  0.8468  magn=  0.0000
     atom  50 (R=0.448)  charge=  0.4952  magn= -0.0000
     atom  51 (R=0.448)  charge=  0.5029  magn= -0.0000
     atom  52 (R=0.448)  charge=  0.5040  magn= -0.0000
     atom  53 (R=0.501)  charge=  1.9556  magn= -0.0001

     End of self-consistent calculation

 ------ SPIN UP ------------

          k = 0.0000 0.0000 0.0000 ( 18029 PWs)   bands (ev):

   -55.7723 -55.7687 -55.7383 -55.7327 -55.6823 -55.6339 -55.5960 -55.5620
   -55.5545 -55.5208 -55.5186 -55.4455 -54.9553 -54.8066 -54.7553 -54.7213
   -32.3174 -32.2575 -32.1735 -32.0948 -32.0642 -32.0550 -32.0463 -32.0177
   -32.0045 -31.9691 -31.9389 -31.9239 -31.9205 -31.9036 -31.8817 -31.8793
   -31.8776 -31.8771 -31.8639 -31.8339 -31.8287 -31.8204 -31.7992 -31.7914
   -31.7877 -31.7811 -31.7802 -31.7543 -31.7399 -31.7352 -31.7255 -31.7095
   -31.7062 -31.6682 -31.6351 -31.5628 -31.4916 -31.3371 -31.1664 -31.1621
   -31.1044 -31.0740 -31.0654 -31.0516 -30.9790 -30.9125 -30.8925 -30.7813
   -19.4375 -16.5161 -16.2513 -15.9660 -15.9141 -15.8398 -15.7466 -15.6234
   -15.5278 -15.4093 -15.3704 -15.3145 -15.3069 -15.2626 -15.2354 -15.2314
   -15.2053 -15.1972 -15.1329 -15.1253 -15.0749 -15.0632 -15.0152 -14.9802
   -14.9687 -14.9137 -14.8447 -14.8035 -14.6844 -14.1589 -13.2555 -13.1390
   -12.2971  -7.2598  -4.9344  -4.7662  -3.8984  -3.7559  -3.7032  -3.6838
    -3.6394  -3.4390  -3.3516  -3.2828  -3.0430  -2.9515  -2.9270  -2.9164
    -2.8672  -2.7095  -2.6609  -2.6032  -2.5875  -2.5610  -2.5391  -2.5310
    -2.4954  -2.4855  -2.4552  -2.4229  -2.3251  -2.2118  -2.1826  -2.1048
    -2.0892  -2.0736  -2.0433  -2.0335  -2.0238  -2.0140  -1.9954  -1.9581
    -1.8934  -1.8507  -1.7855  -1.7012  -1.5597  -1.5378  -1.4597  -1.3840
    -1.3042  -1.2616  -1.2397  -1.2113  -1.1715  -1.0918  -1.0659  -0.9197
    -0.8227  -0.7897  -0.7725  -0.7301  -0.6941  -0.5919  -0.5702  -0.5411
    -0.5322  -0.5044  -0.4305  -0.3741  -0.2424  -0.2114  -0.2075  -0.1698
    -0.0991  -0.0453   0.0082   0.0574   0.0652   0.1009   0.1611   0.1862
     0.1909   0.2338   0.2761   0.3511   0.3772   0.4513   0.4553   0.5195
     0.5632   0.6449   0.7525   0.8748   1.0180   1.1551   1.2000   1.2691
     1.3640   1.4607   1.8394   1.8850   2.1443   3.3389   3.4492   3.4699
     3.4816   3.5885   3.7984   3.8196   3.8687   3.8891   3.8972

[...]

          k =-0.0760-0.0000 0.0000 ( 17886 PWs)   bands (ev):

[...]

 ------ SPIN DOWN ----------

[...]

          k = 0.0380-0.0419 0.0000 ( 17876 PWs)   bands (ev):

[...]

          k =-0.0760-0.0839 0.0000 ( 17948 PWs)   bands (ev):

   -55.7601 -55.7600 -55.7514 -55.7498 -55.6750 -55.6412 -55.5777 -55.5773
   -55.5377 -55.5373 -55.5141 -55.4498 -54.9539 -54.8076 -54.7375 -54.7374
   -32.1211 -32.1175 -32.0747 -32.0747 -32.0548 -32.0547 -32.0184 -32.0036
   -31.9974 -31.9887 -31.9198 -31.9146 -31.9034 -31.8970 -31.8812 -31.8802
   -31.8794 -31.8785 -31.8774 -31.8711 -31.8528 -31.8500 -31.8487 -31.8125
   -31.7831 -31.7813 -31.7795 -31.7670 -31.7668 -31.7565 -31.7556 -31.7547
   -31.7534 -31.7352 -31.7107 -31.6597 -31.4386 -31.3192 -31.1682 -31.1580
   -31.0825 -31.0637 -31.0636 -30.9740 -30.9738 -30.9351 -30.9350 -30.9151
   -19.4354 -15.9166 -15.9104 -15.7490 -15.7145 -15.6488 -15.6400 -15.5722
   -15.5051 -15.4602 -15.4551 -15.3401 -15.3380 -15.3235 -15.3018 -15.2477
   -15.2315 -15.2301 -15.2265 -15.2188 -15.2071 -15.1796 -15.1491 -15.0984
   -15.0934 -15.0725 -15.0624 -14.9408 -14.5308 -14.4692 -13.2425 -13.2424
   -12.2997  -7.2467  -4.9363  -4.7633  -3.6282  -3.2058  -3.1894  -3.0016
    -2.9182  -2.9070  -2.8916  -2.7396  -2.7276  -2.7102  -2.6526  -2.6455
    -2.6358  -2.5993  -2.5832  -2.5592  -2.5186  -2.5135  -2.4654  -2.4623
    -2.4476  -2.4246  -2.4072  -2.4013  -2.3884  -2.3729  -2.3361  -2.2794
    -2.2415  -2.2144  -2.1861  -2.0897  -2.0289  -1.9930  -1.9261  -1.9175
    -1.8664  -1.8416  -1.8272  -1.7605  -1.6903  -1.6608  -1.5767  -1.4851
    -1.4668  -1.4514  -1.3327  -1.3188  -1.2439  -1.2203  -1.1364  -1.1193
    -1.0797  -0.9691  -0.9457  -0.9144  -0.8796  -0.8358  -0.7722  -0.7352
    -0.7332  -0.6846  -0.6405  -0.5844  -0.5232  -0.5113  -0.4958  -0.4870
    -0.4235  -0.3898  -0.3679  -0.2856  -0.2704  -0.1887  -0.0449  -0.0120
     0.1454   0.1945   0.3035   0.3308   0.4218   0.4435   0.5376   0.5409
     0.5738   0.7027   0.7214   0.7391   0.7551   0.7751   0.7990   0.9380
     1.6322   1.6323   1.7036   1.7037   2.0817   3.6720   3.7090   3.7590
     3.7807   3.8836   3.8890   3.8918   3.8993   4.0220   4.0239

     the Fermi energy is     3.3524 ev

!    total energy              =   -2939.12589839 Ry
     estimated scf accuracy    <       0.00000007 Ry
     smearing contrib. (-TS)   =      -0.02052516 Ry
     internal energy E=F+TS    =   -2939.10537323 Ry

     The total energy is F=E-TS. E is the sum of the following terms:
     one-electron contribution =  -24212.94852794 Ry
     hartree contribution      =   12195.22272602 Ry
     xc contribution           =    -485.19581260 Ry
     ewald contribution        =    9563.81466954 Ry
     electric field correction =       0.00157175 Ry

     total magnetization       =    -0.01 Bohr mag/cell
     absolute magnetization    =     0.02 Bohr mag/cell

     convergence has been achieved in  74 iterations

     Forces acting on atoms (cartesian axes, Ry/au):

     atom    1 type  1   force =     0.00008876   -0.00020848    0.09581188
     atom    2 type  1   force =     0.00007412   -0.00062929   -0.17549666
     atom    3 type  2   force =     0.00017773   -0.00019484   -0.02305299
     atom    4 type  2   force =     0.00004052   -0.00128582    0.05262375
     atom    5 type  2   force =    -0.00977252   -0.00031588    0.00253603
     atom    6 type  2   force =     0.01165271    0.00022624    0.00291886
     atom    7 type  1   force =     0.00088268   -0.00000514   -0.00989612
     atom    8 type  1   force =     0.00000612    0.00531032    0.01816214
     atom    9 type  2   force =    -0.00001516   -0.00028953   -0.00009909
     atom   10 type  2   force =    -0.00253933    0.00216122   -0.01348034
     atom   11 type  2   force =    -0.00097194    0.00010681    0.00018453
     atom   12 type  2   force =     0.00039599   -0.00025862    0.00049877
     atom   13 type  1   force =     0.00009608   -0.00008000    0.00054024
     atom   14 type  1   force =    -0.00004402   -0.00013846   -0.00016595
     atom   15 type  2   force =    -0.00059474    0.00022701    0.00044029
     atom   16 type  2   force =    -0.00043582    0.00007931    0.00019858
     atom   17 type  2   force =    -0.00015104   -0.00008730   -0.00032627
     atom   18 type  2   force =     0.00029162    0.00022764    0.00007140
     atom   19 type  1   force =    -0.00059353   -0.00056523    0.00071876
     atom   20 type  1   force =    -0.00025577    0.00039836   -0.00073807
     atom   21 type  2   force =     0.00006780   -0.00005902    0.10321062
     atom   22 type  2   force =     0.00007908   -0.00007908   -0.00044184
     atom   23 type  2   force =    -0.07155436   -0.00018798   -0.02754016
     atom   24 type  2   force =     0.07153325    0.00031502   -0.02760055
     atom   25 type  1   force =     0.00011812   -0.00027922    0.09519942
     atom   26 type  1   force =     0.00008518   -0.00048861   -0.17564900
     atom   27 type  2   force =     0.00015979   -0.00011867   -0.02180854
     atom   28 type  2   force =     0.00008114   -0.00106011    0.05249915
     atom   29 type  2   force =    -0.01015192    0.00023323    0.00291307
     atom   30 type  2   force =     0.01196837    0.00051861    0.00329242
     atom   31 type  1   force =     0.00088548    0.00414021   -0.01176940
     atom   32 type  1   force =     0.00013847   -0.00634305    0.01830065
     atom   33 type  2   force =     0.00016263    0.00041729   -0.00009303
     atom   34 type  2   force =    -0.00308561   -0.00010402   -0.00866341
     atom   35 type  2   force =    -0.00020925    0.00007187    0.00002006
     atom   36 type  2   force =    -0.00002883    0.00028452   -0.00005636
     atom   37 type  1   force =     0.00043302   -0.00094852    0.00018951
     atom   38 type  1   force =    -0.00032409    0.00009862    0.00034282
     atom   39 type  2   force =     0.00011287   -0.00026036    0.00054318
     atom   40 type  2   force =    -0.00008227    0.00026805    0.00016344
     atom   41 type  2   force =     0.00005619   -0.00014745   -0.00017759
     atom   42 type  2   force =    -0.00046337    0.00013716   -0.00042267
     atom   43 type  1   force =     0.00025223    0.00051539    0.00014399
     atom   44 type  1   force =    -0.00017628   -0.00086495   -0.00096500
     atom   45 type  2   force =     0.00007516   -0.00005946    0.10316837
     atom   46 type  2   force =    -0.07156854   -0.00009634   -0.02753379
     atom   47 type  2   force =     0.07155059    0.00025352   -0.02759510
     atom   48 type  3   force =     0.00098465    0.00002953    0.00140515
     atom   49 type  4   force =     0.00086017    0.00459966    0.00411556
     atom   50 type  5   force =    -0.00047979   -0.00464484   -0.00536620
     atom   51 type  5   force =    -0.00088657   -0.00072913   -0.00051799
     atom   52 type  5   force =     0.00025479   -0.00049764   -0.00043653
     atom   53 type  3   force =     0.00081943    0.00040744   -0.00032002

     Total force =     0.364868     Total SCF correction =     0.000282
  @ DRIVER MODE: Message from server: STATUS
  @ DRIVER MODE: Message from server: GETFORCE
  @ DRIVER MODE: Returning v,forces,stress,ensemble

     Writing output data file ./calc.save/
  @ DRIVER MODE: Message from server: EXIT
  @ DRIVE MODE: Exiting

     General routines

     Parallel routines

   This run was terminated on:   3:38:19  16Jul2021

   JOB DONE.