     Program PWSCF v.6.7GPU starts on 24Sep2021 at  7: 0:28

     R & G space division:  proc/nbgrp/npool/nimage =       8
     Reading input from /storage/home/hcoda1/3/ntian30/research/carbon/CxH_vib/H2O_calc/ads_slab/CH2NNHHHO_a/out_0046/pw.inp
Warning: card &CELL ignored
Warning: card   CELL_DYNAMICS='IPI', ignored
Warning: card / ignored

     Current dimensions of program PWSCF are:
     Max number of different atomic species (ntypx) = 10
     Max number of k-points (npk) =  40000
     Max angular momentum in pseudopotentials (lmaxx) =  3
     Presently no symmetry can be used with electric field

     Message from routine cell_base_init:
     DEPRECATED: use true lattice parameter, not A to a.u. conversion factor

     IMPORTANT: XC functional enforced from input :
     Exchange-correlation= BEEF-VDW
                           (   1   4  43  14   2   0   0)
     Any further DFT definition will be discarded
     Please, verify this is what you really want

  @ DRIVER MODE: Connecting to
 qe_1139763_2947314.sched-torque.pace.gatech.eduvp4cp5pk_scratch
  using UNIX socket
  @ DRIVER MODE: Message from server: STATUS
  @ DRIVER MODE: Message from server: INIT
  @ DRIVER MODE: Receiving replica           0          -1
  @ DRIVER MODE: Receiving encoded integer          25
  @ DRIVER MODE:  SCF:  T  FORCE:  T  STRESS:  F  VC:  F  ENSEMBLE:  F
  @ DRIVER MODE:  SCF:  T  FORCE:  T  STRESS:  F  VC:  F  ENSEMBLE:  F

     Using Slab Decomposition

     bravais-lattice index     =            0
     lattice parameter (alat)  =       1.8897  a.u.
     unit-cell volume          =    6658.9804 (a.u.)^3
     number of atoms/cell      =           56
     number of atomic types    =            5
     number of electrons       =       403.00
     number of Kohn-Sham states=          211
     kinetic-energy cutoff     =      29.3995  Ry
     charge density cutoff     =     293.9946  Ry
     scf convergence threshold =      7.3E-08
     mixing beta               =       0.0500
     number of iterations used =            8  plain     mixing
     Exchange-correlation= BEEF-VDW
                           (   1   4  43  14   2   0   0)

     celldm(1)=   1.889726  celldm(2)=   0.000000  celldm(3)=   0.000000
     celldm(4)=   0.000000  celldm(5)=   0.000000  celldm(6)=   0.000000

     crystal axes: (cart. coord. in units of alat)
               a(1) = (   6.579727   0.000000   0.000000 )
               a(2) = (  -0.000775   5.961596   0.000000 )
               a(3) = (   0.000000   0.000000  25.155947 )

     reciprocal axes: (cart. coord. in units 2 pi/alat)
               b(1) = (  0.151982  0.000020  0.000000 )
               b(2) = (  0.000000  0.167740  0.000000 )
               b(3) = (  0.000000  0.000000  0.039752 )

     PseudoPot. # 1 for Ti read from file:
     /storage/coda1/p-amedford6/0/shared/rich_project_chbe-medford/medford-share/data/pseudos_module/espresso/nninc/pbe/van/Ti.UPF
     MD5 check sum: 8e4df49b7f0d34bbd5052bf3f5ea0213
     Pseudo is Ultrasoft, Zval = 12.0
     Generated by new atomic code, or converted to UPF format
     Using radial grid of  851 points,  6 beta functions with:
                l(1) =   0
                l(2) =   0
                l(3) =   1
                l(4) =   1
                l(5) =   2
                l(6) =   2
     Q(r) pseudized with  8 coefficients,  rinner =    1.000   1.000   1.000
                                                       1.000   1.000

     PseudoPot. # 2 for O  read from file:
     /storage/coda1/p-amedford6/0/shared/rich_project_chbe-medford/medford-share/data/pseudos_module/espresso/nninc/pbe/van/O.UPF
     MD5 check sum: 78c19812648e8988a0fe644b0f25305e
     Pseudo is Ultrasoft, Zval =  6.0
     Generated by new atomic code, or converted to UPF format
     Using radial grid of  737 points,  4 beta functions with:
                l(1) =   0
                l(2) =   0
                l(3) =   1
                l(4) =   1
     Q(r) pseudized with  8 coefficients,  rinner =    0.800   0.800   0.800

     PseudoPot. # 3 for N  read from file:
     /storage/coda1/p-amedford6/0/shared/rich_project_chbe-medford/medford-share/data/pseudos_module/espresso/nninc/pbe/van/N.UPF
     MD5 check sum: 90d10febe142ad51ac9d5be1deb811c4
     Pseudo is Ultrasoft, Zval =  5.0
     Generated by new atomic code, or converted to UPF format
     Using radial grid of  729 points,  4 beta functions with:
                l(1) =   0
                l(2) =   0
                l(3) =   1
                l(4) =   1
     Q(r) pseudized with  8 coefficients,  rinner =    0.800   0.800   0.800

     PseudoPot. # 4 for C  read from file:
     /storage/coda1/p-amedford6/0/shared/rich_project_chbe-medford/medford-share/data/pseudos_module/espresso/nninc/pbe/van/C.UPF
     MD5 check sum: 1a69bf6b8db32088f5b2163dbdb77a27
     Pseudo is Ultrasoft, Zval =  4.0
     Generated by new atomic code, or converted to UPF format
     Using radial grid of  721 points,  4 beta functions with:
                l(1) =   0
                l(2) =   0
                l(3) =   1
                l(4) =   1
     Q(r) pseudized with  8 coefficients,  rinner =    0.800   0.800   0.800

     PseudoPot. # 5 for H  read from file:
     /storage/coda1/p-amedford6/0/shared/rich_project_chbe-medford/medford-share/data/pseudos_module/espresso/nninc/pbe/van/H.UPF
     MD5 check sum: b5ee9d7bfd3a09ee7748110bda690ff7
     Pseudo is Ultrasoft, Zval =  1.0
     Generated by new atomic code, or converted to UPF format
     Using radial grid of  615 points,  1 beta functions with:
                l(1) =   0
     Q(r) pseudized with  8 coefficients,  rinner =    0.800

     atomic species   valence    mass     pseudopotential
        Ti1           12.00    47.86700     Ti( 1.00)
        O1             6.00    15.99900     O ( 1.00)
        N1             5.00    14.00700     N ( 1.00)
        C1             4.00    12.01100     C ( 1.00)
        H1             1.00     1.00800     H ( 1.00)

     No symmetry found

   Cartesian axes

     site n.     atom                  positions (alat units)
         1           Ti1 tau(   1) = (   0.0004258   2.9801865   6.0000000  )
         2           Ti1 tau(   2) = (   3.2906075   1.4906267   6.0002472  )
         3           O1  tau(   3) = (   0.0006271   0.0005054   7.9858123  )
         4           O1  tau(   4) = (   3.2906025   0.0005020   7.3038282  )
         5           O1  tau(   5) = (   4.5942328   1.4918067   9.2879030  )
         6           O1  tau(   6) = (   1.9868534   1.4903216   9.2879459  )
         7           Ti1 tau(   7) = (   3.2907910   2.8959150   9.1758416  )
         8           Ti1 tau(   8) = (   0.0015273   1.4827037   9.2680791  )
         9           O1  tau(   9) = (   3.2834828   5.9254549  11.3560997  )
        10           O1  tau(  10) = (   0.0116148   5.9584955  10.6183126  )
        11           O1  tau(  11) = (   1.2632982   1.4794151  12.6467768  )
        12           O1  tau(  12) = (   5.2979234   1.4912170  12.6376735  )
        13           Ti1 tau(  13) = (   6.5593102   2.9584919  12.5255918  )
        14           Ti1 tau(  14) = (   3.2941082   1.2876829  12.7086691  )
        15           O1  tau(  15) = (   6.5459232   0.0848410  14.6672212  )
        16           O1  tau(  16) = (   3.2899079   0.0686032  13.9983899  )
        17           O1  tau(  17) = (   4.5347701   1.5447734  16.1667714  )
        18           O1  tau(  18) = (   1.9898569   1.5359154  16.1924900  )
        19           Ti1 tau(  19) = (   3.2532585   2.9792413  15.6887139  )
        20           Ti1 tau(  20) = (   6.5162390   1.4193964  16.0443711  )
        21           O1  tau(  21) = (   3.2904802   0.0005063   4.7018136  )
        22           O1  tau(  22) = (   6.5314393   5.8470953  17.1670503  )
        23           O1  tau(  23) = (   1.3043587   1.4918075   6.0039043  )
        24           O1  tau(  24) = (   5.2767064   1.4903225   6.0039473  )
        25           Ti1 tau(  25) = (   0.0000382   5.9609847   6.0000000  )
        26           Ti1 tau(  26) = (   3.2902200   4.4714249   6.0002472  )
        27           O1  tau(  27) = (   0.0002396   2.9813036   7.9858123  )
        28           O1  tau(  28) = (   3.2902150   2.9813002   7.3038282  )
        29           O1  tau(  29) = (   4.5938453   4.4726049   9.2879030  )
        30           O1  tau(  30) = (   1.9864658   4.4711199   9.2879459  )
        31           Ti1 tau(  31) = (   3.2891106   5.8743827   9.1763621  )
        32           Ti1 tau(  32) = (   0.0006254   4.4649316   9.2693709  )
        33           O1  tau(  33) = (   3.2801501   3.0037454  11.3162440  )
        34           O1  tau(  34) = (   0.0092240   2.9805883  10.6323155  )
        35           O1  tau(  35) = (   1.2628463   4.4620516  12.6871769  )
        36           O1  tau(  36) = (   5.2965349   4.4479299  12.6783795  )
        37           Ti1 tau(  37) = (   0.0245004   5.9521619  12.5031165  )
        38           Ti1 tau(  38) = (   3.2934334   4.3725749  12.4478892  )
        39           O1  tau(  39) = (   0.0012172   2.9324930  14.9038371  )
        40           O1  tau(  40) = (   3.2612729   2.9642313  13.9201381  )
        41           O1  tau(  41) = (   4.5459169   4.3864222  16.0774642  )
        42           O1  tau(  42) = (   2.0085495   4.4473877  16.1057765  )
        43           Ti1 tau(  43) = (   3.2275989   5.9528725  16.3079466  )
        44           Ti1 tau(  44) = (   6.5418721   4.6299905  15.7990834  )
        45           O1  tau(  45) = (   3.2900926   2.9813045   4.7018136  )
        46           O1  tau(  46) = (   1.3039711   4.4726057   6.0039043  )
        47           O1  tau(  47) = (   5.2763189   4.4711207   6.0039473  )
        48           N1  tau(  48) = (   6.5153795   2.7269917  18.1720481  )
        49           C1  tau(  49) = (   0.9714328   2.6352729  18.9176740  )
        50           H1  tau(  50) = (   0.9613011   2.9697384  19.9541300  )
        51           H1  tau(  51) = (   1.8619620   2.1844435  18.5121220  )
        52           N1  tau(  52) = (   5.3313596   3.1722530  18.7397816  )
        53           H1  tau(  53) = (   5.4931776   3.7097374  19.5894643  )
        54           H1  tau(  54) = (   4.8256156   3.7472006  18.0707398  )
        55           O1  tau(  55) = (   3.3867674   5.9092794  18.1610867  )
        56           H1  tau(  56) = (   4.0349165   0.5560778  18.5374839  )

     number of k points=    10  Fermi-Dirac smearing, width (Ry)=  0.0073
                       cart. coord. in units 2pi/alat
        k(    1) = (   0.0000000   0.0000000   0.0000000), wk =   0.1250000
        k(    2) = (   0.0000000   0.0419351   0.0000000), wk =   0.2500000
        k(    3) = (   0.0000000  -0.0838702   0.0000000), wk =   0.1250000
        k(    4) = (   0.0379955   0.0000049   0.0000000), wk =   0.2500000
        k(    5) = (   0.0379955   0.0419400   0.0000000), wk =   0.2500000
        k(    6) = (   0.0379955  -0.0838652   0.0000000), wk =   0.2500000
        k(    7) = (   0.0379955  -0.0419301   0.0000000), wk =   0.2500000
        k(    8) = (  -0.0759910  -0.0000099   0.0000000), wk =   0.1250000
        k(    9) = (  -0.0759910   0.0419252   0.0000000), wk =   0.2500000
        k(   10) = (  -0.0759910  -0.0838800   0.0000000), wk =   0.1250000

     Initial potential from superposition of free atoms

     starting charge  386.99914, renormalised to  403.00000

     negative rho (up, down):  1.547E-02 0.000E+00

     %%%%%%%%%%%%%%%%%%%%%%%%%%%%%%%%%%%%%%%%%%%%%%%%%%%%%%%%%%%%%%%%%%%%%%%%
     %                                                                      %
     % You are using vdW-DF, which was implemented by the Thonhauser group. %
     % Please cite the following two papers that made this development      %
     % possible and the two reviews that describe the various versions:     %
     %                                                                      %
     %   T. Thonhauser et al., PRL 115, 136402 (2015).                      %
     %   T. Thonhauser et al., PRB 76, 125112 (2007).                       %
     %   K. Berland et al., Rep. Prog. Phys. 78, 066501 (2015).             %
     %   D.C. Langreth et al., J. Phys.: Condens. Matter 21, 084203 (2009). %
     %                                                                      %
     %                                                                      %
     % If you are calculating the stress with vdW-DF, please also cite:     %
     %                                                                      %
     %   R. Sabatini et al., J. Phys.: Condens. Matter 24, 424209 (2012).   %
     %                                                                      %
     %%%%%%%%%%%%%%%%%%%%%%%%%%%%%%%%%%%%%%%%%%%%%%%%%%%%%%%%%%%%%%%%%%%%%%%%

     Adding external electric field

     Computed dipole along edir(3) :
        Dipole              -13.0228 Ry au,        -33.1008 Debye
        Dipole field         -0.0246 Ry au,

        Potential amp.        2.2781 Ry
        Total length         46.3494 bohr

     Starting wfcs are  305 atomic wfcs
  @ DRIVER MODE: Message from server: STATUS
  @ DRIVER MODE: Message from server: POSDATA
  @ DRIVER MODE: Reading and sharing cell
  @ DRIVER MODE: Reading and sharing positions
  @ DRIVER MODE: Received positions

     Self-consistent Calculation

     iteration #  1     ecut=    29.40 Ry     beta= 0.05
     Davidson diagonalization with overlap
     c_bands:  4 eigenvalues not converged
     c_bands:  5 eigenvalues not converged
     c_bands:  3 eigenvalues not converged
     c_bands:  1 eigenvalues not converged
     c_bands:  1 eigenvalues not converged
     c_bands:  5 eigenvalues not converged
     c_bands:  2 eigenvalues not converged
     c_bands:  3 eigenvalues not converged
     ethr =  1.00E-05,  avg # of iterations = 28.8

[...]

     total energy              =   -2311.60674414 Ry
     estimated scf accuracy    <    7503.90662137 Ry

     iteration #  2     ecut=    29.40 Ry     beta= 0.05
     Davidson diagonalization with overlap
     ethr =  1.00E-02,  avg # of iterations = 24.5

[...]

     iteration # 58     ecut=    29.40 Ry     beta= 0.05
     Davidson diagonalization with overlap
     c_bands:  1 eigenvalues not converged
     ethr =  1.32E-10,  avg # of iterations =  9.2

[...]

     total energy              =   -2974.00146356 Ry
     estimated scf accuracy    <       0.00000012 Ry

     iteration # 65     ecut=    29.40 Ry     beta= 0.05
     Davidson diagonalization with overlap
     ethr =  2.86E-11,  avg # of iterations =  7.7

     negative rho (up, down):  1.591E-02 0.000E+00

     Adding external electric field

     Computed dipole along edir(3) :
        Dipole                1.0899 Ry au,          2.7701 Debye
        Dipole field          0.0021 Ry au,

        Potential amp.       -0.1907 Ry
        Total length         46.3494 bohr

     End of self-consistent calculation

          k = 0.0000 0.0000 0.0000 ( 18029 PWs)   bands (ev):

   -55.5969 -55.5304 -55.4963 -55.3794 -55.3734 -55.3570 -55.3431 -55.3303
   -55.3232 -55.2952 -55.2477 -55.1477 -55.1327 -55.0557 -54.4986 -54.4646
   -32.0147 -31.9329 -31.8976 -31.8647 -31.8599 -31.8266 -31.8213 -31.8081
   -31.7801 -31.7761 -31.7572 -31.6828 -31.6566 -31.6486 -31.6367 -31.6332
   -31.6214 -31.6115 -31.5878 -31.5875 -31.5812 -31.5536 -31.5430 -31.5376
   -31.5201 -31.5156 -31.5109 -31.4974 -31.4874 -31.4847 -31.4765 -31.4674
   -31.4673 -31.4439 -31.4216 -31.4029 -31.3452 -31.3365 -31.3039 -31.2939
   -31.2742 -31.2619 -30.9042 -30.8187 -30.7962 -30.7218 -30.6355 -30.5236
   -18.3829 -16.4749 -16.1678 -16.0008 -15.7878 -15.7074 -15.6690 -15.4757
   -15.3834 -15.3220 -15.0927 -15.0694 -15.0645 -15.0393 -15.0292 -15.0135
   -14.9966 -14.9571 -14.9483 -14.9398 -14.9162 -14.9016 -14.8695 -14.8176
   -14.7743 -14.7588 -14.6638 -14.5953 -14.5487 -14.3145 -14.2157 -13.5007
   -12.9967 -12.8805  -8.5608  -6.2673  -5.8504  -4.0562  -3.8603  -3.5290
    -3.4335  -3.4122  -3.3514  -3.2883  -3.0469  -2.9772  -2.8855  -2.8357
    -2.7615  -2.6464  -2.5982  -2.5270  -2.4557  -2.4464  -2.3991  -2.3700
    -2.3083  -2.2951  -2.2592  -2.2526  -2.1818  -2.1621  -2.0614  -2.0492
    -2.0344  -1.8998  -1.8862  -1.8439  -1.8361  -1.8360  -1.7972  -1.7785
    -1.7628  -1.7460  -1.6417  -1.6023  -1.5818  -1.5102  -1.4777  -1.1631
    -1.1293  -1.0862  -1.0672  -1.0166  -0.9640  -0.9406  -0.9182  -0.8531
    -0.8166  -0.7659  -0.7337  -0.7004  -0.6187  -0.5827  -0.5408  -0.4583
    -0.3834  -0.3089  -0.3036  -0.2589  -0.2310  -0.2051  -0.1064  -0.0812
    -0.0681   0.0307   0.0525   0.1272   0.1677   0.2110   0.2501   0.2977
     0.3618   0.3789   0.4050   0.4409   0.4486   0.5043   0.5243   0.5828
     0.6359   0.6508   0.7489   0.8071   0.8221   0.8403   0.9480   1.0252
     1.1458   1.1538   1.2543   1.4802   1.5283   1.5721   1.7216   2.0944
     2.1395   3.5562   3.7050   3.7216   3.7649   3.8126   3.8968   4.0430
     4.1049   4.2433   4.2505

[...]

          k = 0.0380-0.0419 0.0000 ( 17876 PWs)   bands (ev):

[...]

          k =-0.0760-0.0000 0.0000 ( 17886 PWs)   bands (ev):

[...]

          k =-0.0760-0.0839 0.0000 ( 17948 PWs)   bands (ev):

   -55.5961 -55.5135 -55.5130 -55.3721 -55.3660 -55.3562 -55.3401 -55.3397
   -55.3310 -55.2882 -55.2547 -55.1446 -55.1339 -55.0586 -54.4819 -54.4811
   -31.8787 -31.8302 -31.8298 -31.8283 -31.8175 -31.8070 -31.8065 -31.8008
   -31.7322 -31.6851 -31.6763 -31.6660 -31.6610 -31.6335 -31.6333 -31.6316
   -31.6292 -31.6152 -31.6127 -31.5977 -31.5855 -31.5761 -31.5662 -31.5558
   -31.5471 -31.5431 -31.5341 -31.5336 -31.5181 -31.5128 -31.5102 -31.5063
   -31.5059 -31.4778 -31.4738 -31.4156 -31.3967 -31.3735 -31.3477 -31.3402
   -31.3104 -31.2659 -30.8092 -30.8087 -30.7176 -30.7165 -30.6790 -30.6784
   -18.3799 -16.4612 -15.7483 -15.6227 -15.4975 -15.4932 -15.3725 -15.2951
   -15.2776 -15.2493 -15.2370 -15.2017 -15.1850 -15.1487 -15.1173 -15.0868
   -15.0467 -15.0258 -15.0124 -14.9732 -14.9625 -14.9454 -14.9358 -14.9128
   -14.8714 -14.8359 -14.8250 -14.6812 -14.6268 -14.5798 -14.4411 -13.5096
   -12.9825 -12.9822  -8.5373  -6.2336  -5.8697  -4.0128  -3.9301  -2.9877
    -2.9201  -2.8177  -2.7137  -2.6185  -2.5646  -2.5292  -2.4914  -2.4471
    -2.4247  -2.3747  -2.3340  -2.3135  -2.3051  -2.2727  -2.2635  -2.2478
    -2.2285  -2.2133  -2.1984  -2.1881  -2.1598  -2.1427  -2.1418  -2.1081
    -2.0968  -2.0692  -2.0611  -2.0086  -1.9112  -1.8825  -1.7904  -1.6890
    -1.6812  -1.6682  -1.6442  -1.6065  -1.5953  -1.5699  -1.5332  -1.4727
    -1.4643  -1.3009  -1.2488  -1.2176  -1.1435  -1.0880  -1.0571  -1.0296
    -0.9865  -0.9614  -0.8880  -0.8585  -0.7621  -0.7079  -0.6817  -0.6223
    -0.5453  -0.4812  -0.4722  -0.4664  -0.4393  -0.4162  -0.3907  -0.3609
    -0.3361  -0.2654  -0.2278  -0.2090  -0.1978  -0.1447  -0.0974   0.0061
     0.1313   0.2399   0.2566   0.2853   0.3255   0.4748   0.5211   0.5825
     0.6292   0.6605   0.6910   0.7844   0.7955   0.8795   0.9040   0.9408
     0.9863   1.0113   1.0436   1.0733   1.0822   1.8917   1.8990   1.9598
     1.9601   3.7753   4.0524   4.0773   4.0853   4.1032   4.1234   4.1389
     4.1584   4.2334   4.2412

     the Fermi energy is     3.5917 ev

!    total energy              =   -2974.00153353 Ry
     estimated scf accuracy    <       0.00000004 Ry
     smearing contrib. (-TS)   =      -0.01962472 Ry
     internal energy E=F+TS    =   -2973.98190881 Ry

     The total energy is F=E-TS. E is the sum of the following terms:
     one-electron contribution =  -23472.10193053 Ry
     hartree contribution      =   11831.46993902 Ry
     xc contribution           =    -494.07073109 Ry
     ewald contribution        =    9160.71857228 Ry
     electric field correction =       0.00224152 Ry

     convergence has been achieved in  65 iterations

     Forces acting on atoms (cartesian axes, Ry/au):

     atom    1 type  1   force =     0.00012355   -0.00018773    0.09458549
     atom    2 type  1   force =    -0.00003941    0.00034961   -0.17509046
     atom    3 type  2   force =    -0.00002497   -0.00002980   -0.02134531
     atom    4 type  2   force =     0.00001612   -0.00189495    0.05323528
     atom    5 type  2   force =    -0.00695218   -0.00239745    0.00356401
     atom    6 type  2   force =     0.00806240   -0.00193037    0.00204164
     atom    7 type  1   force =    -0.00070213   -0.00276756    0.01002555
     atom    8 type  1   force =     0.00060721    0.00276631    0.00500602
     atom    9 type  2   force =     0.00003313   -0.00045863    0.00024679
     atom   10 type  2   force =    -0.00253859   -0.00141031   -0.01078906
     atom   11 type  2   force =     0.00129517   -0.00017760    0.00055126
     atom   12 type  2   force =    -0.00082600   -0.00022581    0.00065867
     atom   13 type  1   force =    -0.00093348   -0.00095778    0.00046599
     atom   14 type  1   force =     0.00032255    0.00038159    0.00005412
     atom   15 type  2   force =     0.00011585    0.00022306   -0.00038791
     atom   16 type  2   force =    -0.00045421    0.00020378    0.00023324
     atom   17 type  2   force =     0.00003553    0.00045943   -0.00017516
     atom   18 type  2   force =     0.00080596   -0.00007288   -0.00063034
     atom   19 type  1   force =     0.00113037    0.00032112    0.00008015
     atom   20 type  1   force =    -0.00078005    0.00006406    0.00000585
     atom   21 type  2   force =     0.00006525    0.00009686    0.10308594
     atom   22 type  2   force =     0.00057662    0.00067452    0.00050198
     atom   23 type  2   force =    -0.07212438   -0.00013751   -0.02735183
     atom   24 type  2   force =     0.07201090    0.00029550   -0.02735264
     atom   25 type  1   force =     0.00001809   -0.00014961    0.09407589
     atom   26 type  1   force =    -0.00015892   -0.00108421   -0.17520238
     atom   27 type  2   force =     0.00012333   -0.00024597   -0.02013268
     atom   28 type  2   force =    -0.00000256   -0.00026957    0.04930972
     atom   29 type  2   force =    -0.00564681    0.00192187    0.00158212
     atom   30 type  2   force =     0.00667348    0.00249400   -0.00001667
     atom   31 type  1   force =    -0.00072342    0.00678520   -0.00110290
     atom   32 type  1   force =     0.00050006   -0.00385641    0.00431386
     atom   33 type  2   force =     0.00016112   -0.00010531   -0.00079843
     atom   34 type  2   force =    -0.00187447    0.00169940   -0.01047479
     atom   35 type  2   force =     0.00117928    0.00029376   -0.00017524
     atom   36 type  2   force =    -0.00057243    0.00043164   -0.00026010
     atom   37 type  1   force =    -0.00065897    0.00046125   -0.00025946
     atom   38 type  1   force =     0.00055346    0.00010124    0.00011684
     atom   39 type  2   force =     0.00031947   -0.00033118    0.00043665
     atom   40 type  2   force =     0.00021058    0.00014000   -0.00038664
     atom   41 type  2   force =    -0.00010953    0.00011881   -0.00069083
     atom   42 type  2   force =     0.00038958   -0.00030458    0.00055571
     atom   43 type  1   force =     0.00016375   -0.00012785    0.00065416
     atom   44 type  1   force =    -0.00039061   -0.00008666    0.00008185
     atom   45 type  2   force =     0.00007416   -0.00006701    0.10286875
     atom   46 type  2   force =    -0.07216401   -0.00002757   -0.02735159
     atom   47 type  2   force =     0.07208176    0.00040676   -0.02738855
     atom   48 type  3   force =     0.00040998    0.00004360   -0.00021256
     atom   49 type  4   force =     0.00026375   -0.00039976   -0.00019841
     atom   50 type  5   force =    -0.00012940   -0.00035668   -0.00010456
     atom   51 type  5   force =    -0.00025589    0.00009502    0.00005719
     atom   52 type  3   force =    -0.00052090   -0.00034931    0.00025630
     atom   53 type  5   force =     0.00008591   -0.00009041    0.00021001
     atom   54 type  5   force =    -0.00004497    0.00019991   -0.00063371
     atom   55 type  2   force =    -0.00830031   -0.00786010   -0.00475864
     atom   56 type  5   force =     0.00852020    0.00733227    0.00440982

     Total force =     0.362333     Total SCF correction =     0.000544
  @ DRIVER MODE: Message from server: STATUS
  @ DRIVER MODE: Message from server: GETFORCE
  @ DRIVER MODE: Returning v,forces,stress,ensemble

     Writing output data file ./calc.save/
  @ DRIVER MODE: Message from server: EXIT
  @ DRIVE MODE: Exiting

     General routines

     Parallel routines

   This run was terminated on:   7:25: 3  24Sep2021

   JOB DONE.