     Program PWSCF v.6.7GPU starts on 26Sep2021 at  5:55:40

     R & G space division:  proc/nbgrp/npool/nimage =       8
     Reading input from /storage/home/hcoda1/3/ntian30/research/carbon/CxH_vib/H2O_calc/ads_slab/CH2OHN2HO_a/out_0027/pw.inp
Warning: card &CELL ignored
Warning: card   CELL_DYNAMICS='IPI', ignored
Warning: card / ignored

     Current dimensions of program PWSCF are:
     Max number of different atomic species (ntypx) = 10
     Max number of k-points (npk) =  40000
     Max angular momentum in pseudopotentials (lmaxx) =  3
     Presently no symmetry can be used with electric field

     Message from routine cell_base_init:
     DEPRECATED: use true lattice parameter, not A to a.u. conversion factor

     IMPORTANT: XC functional enforced from input :
     Exchange-correlation= BEEF-VDW
                           (   1   4  43  14   2   0   0)
     Any further DFT definition will be discarded
     Please, verify this is what you really want

  @ DRIVER MODE: Connecting to
 qe_1139763_2971670.sched-torque.pace.gatech.edup9_s9t3g_scratch
  using UNIX socket
  @ DRIVER MODE: Message from server: STATUS
  @ DRIVER MODE: Message from server: INIT
  @ DRIVER MODE: Receiving replica           0          -1
  @ DRIVER MODE: Receiving encoded integer          25
  @ DRIVER MODE:  SCF:  T  FORCE:  T  STRESS:  F  VC:  F  ENSEMBLE:  F
  @ DRIVER MODE:  SCF:  T  FORCE:  T  STRESS:  F  VC:  F  ENSEMBLE:  F

     Using Slab Decomposition

     bravais-lattice index     =            0
     lattice parameter (alat)  =       1.8897  a.u.
     unit-cell volume          =    6658.9804 (a.u.)^3
     number of atoms/cell      =           56
     number of atomic types    =            5
     number of electrons       =       408.00
     number of Kohn-Sham states=          214
     kinetic-energy cutoff     =      29.3995  Ry
     charge density cutoff     =     293.9946  Ry
     scf convergence threshold =      7.3E-08
     mixing beta               =       0.0500
     number of iterations used =            8  plain     mixing
     Exchange-correlation= BEEF-VDW
                           (   1   4  43  14   2   0   0)

     celldm(1)=   1.889726  celldm(2)=   0.000000  celldm(3)=   0.000000
     celldm(4)=   0.000000  celldm(5)=   0.000000  celldm(6)=   0.000000

     crystal axes: (cart. coord. in units of alat)
               a(1) = (   6.579727   0.000000   0.000000 )
               a(2) = (  -0.000775   5.961596   0.000000 )
               a(3) = (   0.000000   0.000000  25.155947 )

     reciprocal axes: (cart. coord. in units 2 pi/alat)
               b(1) = (  0.151982  0.000020  0.000000 )
               b(2) = (  0.000000  0.167740  0.000000 )
               b(3) = (  0.000000  0.000000  0.039752 )

     PseudoPot. # 1 for C  read from file:
     /storage/coda1/p-amedford6/0/shared/rich_project_chbe-medford/medford-share/data/pseudos_module/espresso/nninc/pbe/van/C.UPF
     MD5 check sum: 1a69bf6b8db32088f5b2163dbdb77a27
     Pseudo is Ultrasoft, Zval =  4.0
     Generated by new atomic code, or converted to UPF format
     Using radial grid of  721 points,  4 beta functions with:
                l(1) =   0
                l(2) =   0
                l(3) =   1
                l(4) =   1
     Q(r) pseudized with  8 coefficients,  rinner =    0.800   0.800   0.800

     PseudoPot. # 2 for H  read from file:
     /storage/coda1/p-amedford6/0/shared/rich_project_chbe-medford/medford-share/data/pseudos_module/espresso/nninc/pbe/van/H.UPF
     MD5 check sum: b5ee9d7bfd3a09ee7748110bda690ff7
     Pseudo is Ultrasoft, Zval =  1.0
     Generated by new atomic code, or converted to UPF format
     Using radial grid of  615 points,  1 beta functions with:
                l(1) =   0
     Q(r) pseudized with  8 coefficients,  rinner =    0.800

     PseudoPot. # 3 for O  read from file:
     /storage/coda1/p-amedford6/0/shared/rich_project_chbe-medford/medford-share/data/pseudos_module/espresso/nninc/pbe/van/O.UPF
     MD5 check sum: 78c19812648e8988a0fe644b0f25305e
     Pseudo is Ultrasoft, Zval =  6.0
     Generated by new atomic code, or converted to UPF format
     Using radial grid of  737 points,  4 beta functions with:
                l(1) =   0
                l(2) =   0
                l(3) =   1
                l(4) =   1
     Q(r) pseudized with  8 coefficients,  rinner =    0.800   0.800   0.800

     PseudoPot. # 4 for Ti read from file:
     /storage/coda1/p-amedford6/0/shared/rich_project_chbe-medford/medford-share/data/pseudos_module/espresso/nninc/pbe/van/Ti.UPF
     MD5 check sum: 8e4df49b7f0d34bbd5052bf3f5ea0213
     Pseudo is Ultrasoft, Zval = 12.0
     Generated by new atomic code, or converted to UPF format
     Using radial grid of  851 points,  6 beta functions with:
                l(1) =   0
                l(2) =   0
                l(3) =   1
                l(4) =   1
                l(5) =   2
                l(6) =   2
     Q(r) pseudized with  8 coefficients,  rinner =    1.000   1.000   1.000
                                                       1.000   1.000

     PseudoPot. # 5 for N  read from file:
     /storage/coda1/p-amedford6/0/shared/rich_project_chbe-medford/medford-share/data/pseudos_module/espresso/nninc/pbe/van/N.UPF
     MD5 check sum: 90d10febe142ad51ac9d5be1deb811c4
     Pseudo is Ultrasoft, Zval =  5.0
     Generated by new atomic code, or converted to UPF format
     Using radial grid of  729 points,  4 beta functions with:
                l(1) =   0
                l(2) =   0
                l(3) =   1
                l(4) =   1
     Q(r) pseudized with  8 coefficients,  rinner =    0.800   0.800   0.800

     atomic species   valence    mass     pseudopotential
        C1             4.00    12.01100     C ( 1.00)
        H1             1.00     1.00800     H ( 1.00)
        O1             6.00    15.99900     O ( 1.00)
        Ti1           12.00    47.86700     Ti( 1.00)
        N1             5.00    14.00700     N ( 1.00)

     No symmetry found

   Cartesian axes

     site n.     atom                  positions (alat units)
         1           C1  tau(   1) = (   4.4694424   3.1333252  19.5683752  )
         2           H1  tau(   2) = (   3.5225350   3.1610456  19.0510688  )
         3           H1  tau(   3) = (   5.8501665   2.9975095  17.9951248  )
         4           H1  tau(   4) = (   4.8161173   2.2403860  20.0673745  )
         5           O1  tau(   5) = (   0.0006271   0.0005054   7.9858123  )
         6           O1  tau(   6) = (   3.2906025   0.0005020   7.3038282  )
         7           O1  tau(   7) = (   4.5942328   1.4918067   9.2879030  )
         8           O1  tau(   8) = (   1.9868534   1.4903216   9.2879459  )
         9           O1  tau(   9) = (   3.2658522   0.0207364  11.3165592  )
        10           O1  tau(  10) = (   0.0022773   0.0111808  10.5833539  )
        11           O1  tau(  11) = (   1.2584498   1.5025451  12.6333345  )
        12           O1  tau(  12) = (   5.2827793   1.4879884  12.6049259  )
        13           O1  tau(  13) = (   6.5229081   0.0016576  14.6697044  )
        14           O1  tau(  14) = (   3.2671471   5.9223268  13.9212949  )
        15           O1  tau(  15) = (   4.5038562   1.5078053  16.0770842  )
        16           O1  tau(  16) = (   1.9713840   1.5400684  15.9915579  )
        17           O1  tau(  17) = (   3.2904802   0.0005063   4.7018136  )
        18           O1  tau(  18) = (   0.0083768   5.9574009  17.1899481  )
        19           O1  tau(  19) = (   1.3043587   1.4918075   6.0039043  )
        20           O1  tau(  20) = (   5.2767064   1.4903225   6.0039473  )
        21           O1  tau(  21) = (   0.0002396   2.9813036   7.9858123  )
        22           O1  tau(  22) = (   3.2902150   2.9813002   7.3038282  )
        23           O1  tau(  23) = (   4.5938453   4.4726049   9.2879030  )
        24           O1  tau(  24) = (   1.9864658   4.4711199   9.2879459  )
        25           O1  tau(  25) = (   3.2699439   2.9592623  11.2883102  )
        26           O1  tau(  26) = (   0.0014687   2.9942081  10.5424492  )
        27           O1  tau(  27) = (   1.2624719   4.4656417  12.6394791  )
        28           O1  tau(  28) = (   5.2897987   4.4902883  12.6063686  )
        29           O1  tau(  29) = (   6.5205774   2.9949485  14.6561412  )
        30           O1  tau(  30) = (   3.3050662   2.9767913  13.8748461  )
        31           O1  tau(  31) = (   4.4950179   4.4323158  16.0974573  )
        32           O1  tau(  32) = (   1.9671975   4.4064719  15.9829847  )
        33           O1  tau(  33) = (   3.2900926   2.9813045   4.7018136  )
        34           O1  tau(  34) = (   1.3039711   4.4726057   6.0039043  )
        35           O1  tau(  35) = (   5.2763189   4.4711207   6.0039473  )
        36           O1  tau(  36) = (   6.5424668   2.9800173  17.2949776  )
        37           Ti1 tau(  37) = (   0.0004258   2.9801865   6.0000000  )
        38           Ti1 tau(  38) = (   3.2906075   1.4906267   6.0002472  )
        39           Ti1 tau(  39) = (   3.3167600   3.1006338   9.2159236  )
        40           Ti1 tau(  40) = (   0.0391818   1.5627686   9.3440282  )
        41           Ti1 tau(  41) = (   6.5783755   3.0458713  12.7937554  )
        42           Ti1 tau(  42) = (   3.2318486   1.5634082  12.4209175  )
        43           Ti1 tau(  43) = (   3.2670811   2.9501284  15.6494465  )
        44           Ti1 tau(  44) = (   0.0280251   1.4030395  16.0254105  )
        45           Ti1 tau(  45) = (   0.0000382   5.9609847   6.0000000  )
        46           Ti1 tau(  46) = (   3.2902200   4.4714249   6.0002472  )
        47           Ti1 tau(  47) = (   3.3194908   0.1157174   9.1781592  )
        48           Ti1 tau(  48) = (   0.0398790   4.5135925   9.3581580  )
        49           Ti1 tau(  49) = (   6.5007586   0.0629955  12.6074658  )
        50           Ti1 tau(  50) = (   3.2510718   4.6571100  12.6672192  )
        51           Ti1 tau(  51) = (   3.3282601   5.9350673  16.2366838  )
        52           Ti1 tau(  52) = (   0.0495319   4.5208688  15.9870001  )
        53           N1  tau(  53) = (   5.2748021   5.2735043  20.4272172  )
        54           N1  tau(  54) = (   4.8779203   4.2732533  20.0576380  )
        55           O1  tau(  55) = (   3.0402417   5.9484128  18.0530970  )
        56           H1  tau(  56) = (   2.1234608   0.1014992  18.3542784  )

     number of k points=    10  Fermi-Dirac smearing, width (Ry)=  0.0073
                       cart. coord. in units 2pi/alat
        k(    1) = (   0.0000000   0.0000000   0.0000000), wk =   0.1250000
        k(    2) = (   0.0000000   0.0419351   0.0000000), wk =   0.2500000
        k(    3) = (   0.0000000  -0.0838702   0.0000000), wk =   0.1250000
        k(    4) = (   0.0379955   0.0000049   0.0000000), wk =   0.2500000
        k(    5) = (   0.0379955   0.0419400   0.0000000), wk =   0.2500000
        k(    6) = (   0.0379955  -0.0838652   0.0000000), wk =   0.2500000
        k(    7) = (   0.0379955  -0.0419301   0.0000000), wk =   0.2500000
        k(    8) = (  -0.0759910  -0.0000099   0.0000000), wk =   0.1250000
        k(    9) = (  -0.0759910   0.0419252   0.0000000), wk =   0.2500000
        k(   10) = (  -0.0759910  -0.0838800   0.0000000), wk =   0.1250000

     Initial potential from superposition of free atoms

     starting charge  391.99915, renormalised to  408.00000

     negative rho (up, down):  1.415E-02 0.000E+00

     %%%%%%%%%%%%%%%%%%%%%%%%%%%%%%%%%%%%%%%%%%%%%%%%%%%%%%%%%%%%%%%%%%%%%%%%
     %                                                                      %
     % You are using vdW-DF, which was implemented by the Thonhauser group. %
     % Please cite the following two papers that made this development      %
     % possible and the two reviews that describe the various versions:     %
     %                                                                      %
     %   T. Thonhauser et al., PRL 115, 136402 (2015).                      %
     %   T. Thonhauser et al., PRB 76, 125112 (2007).                       %
     %   K. Berland et al., Rep. Prog. Phys. 78, 066501 (2015).             %
     %   D.C. Langreth et al., J. Phys.: Condens. Matter 21, 084203 (2009). %
     %                                                                      %
     %                                                                      %
     % If you are calculating the stress with vdW-DF, please also cite:     %
     %                                                                      %
     %   R. Sabatini et al., J. Phys.: Condens. Matter 24, 424209 (2012).   %
     %                                                                      %
     %%%%%%%%%%%%%%%%%%%%%%%%%%%%%%%%%%%%%%%%%%%%%%%%%%%%%%%%%%%%%%%%%%%%%%%%

     Adding external electric field

     Computed dipole along edir(3) :
        Dipole              -15.5929 Ry au,        -39.6331 Debye
        Dipole field         -0.0294 Ry au,

        Potential amp.        2.7277 Ry
        Total length         46.3494 bohr

     Starting wfcs are  308 atomic wfcs
  @ DRIVER MODE: Message from server: STATUS
  @ DRIVER MODE: Message from server: POSDATA
  @ DRIVER MODE: Reading and sharing cell
  @ DRIVER MODE: Reading and sharing positions
  @ DRIVER MODE: Received positions

     Self-consistent Calculation

     iteration #  1     ecut=    29.40 Ry     beta= 0.05
     Davidson diagonalization with overlap
     c_bands:  3 eigenvalues not converged
     c_bands:  1 eigenvalues not converged
     c_bands:  1 eigenvalues not converged
     c_bands:  1 eigenvalues not converged
     c_bands:  3 eigenvalues not converged
     c_bands:  2 eigenvalues not converged
     ethr =  1.00E-05,  avg # of iterations = 30.6

[...]

     total energy              =   -2234.32230107 Ry
     estimated scf accuracy    <    8817.02229873 Ry

[...]

     iteration #  4     ecut=    29.40 Ry     beta= 0.05
     Davidson diagonalization with overlap
     ethr =  1.00E-02,  avg # of iterations = 11.8

[...]

     iteration # 54     ecut=    29.40 Ry     beta= 0.05
     Davidson diagonalization with overlap
     c_bands:  1 eigenvalues not converged
     c_bands:  1 eigenvalues not converged
     c_bands:  1 eigenvalues not converged
     ethr =  4.41E-07,  avg # of iterations = 12.3

[...]

     total energy              =   -3005.15887212 Ry
     estimated scf accuracy    <       0.00000008 Ry

     iteration # 78     ecut=    29.40 Ry     beta= 0.05
     Davidson diagonalization with overlap
     ethr =  1.88E-11,  avg # of iterations =  3.6

     negative rho (up, down):  1.448E-02 0.000E+00

     Adding external electric field

     Computed dipole along edir(3) :
        Dipole                0.4975 Ry au,          1.2646 Debye
        Dipole field          0.0009 Ry au,

        Potential amp.       -0.0870 Ry
        Total length         46.3494 bohr

     End of self-consistent calculation

          k = 0.0000 0.0000 0.0000 ( 18029 PWs)   bands (ev):

   -56.1947 -56.1483 -55.6501 -55.6422 -55.6314 -55.5806 -55.5579 -55.5285
   -55.5145 -55.4952 -55.4444 -55.4019 -55.3976 -55.2741 -54.8191 -54.7851
   -32.6089 -32.4580 -32.4092 -32.3750 -32.2806 -32.2353 -32.1376 -32.0857
   -32.0764 -32.0201 -31.9534 -31.9414 -31.9404 -31.8831 -31.8826 -31.8760
   -31.8613 -31.8423 -31.8330 -31.8101 -31.7990 -31.7818 -31.7491 -31.7324
   -31.7291 -31.7183 -31.7072 -31.7033 -31.6993 -31.6933 -31.6871 -31.6776
   -31.6707 -31.6502 -31.6470 -31.6056 -31.5968 -31.5898 -31.5638 -31.5279
   -31.4876 -31.4760 -31.2139 -31.1583 -31.1340 -31.0309 -30.9460 -30.8349
   -20.6112 -16.8679 -16.4153 -16.3573 -16.2150 -15.9846 -15.8471 -15.7623
   -15.5319 -15.5157 -15.4019 -15.3940 -15.3461 -15.2387 -15.2231 -15.1821
   -15.1698 -15.1663 -15.1522 -15.1202 -15.1150 -15.1086 -15.0412 -15.0112
   -14.9854 -14.9416 -14.8854 -14.8422 -14.7771 -14.7642 -14.7272 -14.5225
   -13.7564 -13.3196 -13.2106  -6.3534  -5.3710  -4.8565  -4.2783  -4.0076
    -3.8830  -3.6673  -3.5718  -3.5633  -3.3996  -3.3712  -3.2745  -3.0549
    -2.9215  -2.8400  -2.8088  -2.7490  -2.7248  -2.6519  -2.6227  -2.6112
    -2.5732  -2.5230  -2.4691  -2.4567  -2.4423  -2.4011  -2.3864  -2.3531
    -2.3387  -2.3348  -2.2885  -2.1467  -2.1335  -2.0776  -2.0680  -2.0201
    -2.0127  -1.9865  -1.9760  -1.9297  -1.8942  -1.7541  -1.7362  -1.7225
    -1.6548  -1.4358  -1.4021  -1.3051  -1.2460  -1.2086  -1.1147  -1.1133
    -1.0821  -1.0513  -1.0005  -0.9200  -0.8878  -0.8314  -0.7850  -0.7782
    -0.7306  -0.6633  -0.6072  -0.5492  -0.5188  -0.4748  -0.4007  -0.3460
    -0.2827  -0.2640  -0.2149  -0.1734  -0.0833  -0.0506  -0.0229   0.0311
     0.0595   0.1194   0.1310   0.1650   0.1838   0.2599   0.2927   0.3084
     0.3588   0.3844   0.3990   0.4612   0.5250   0.5762   0.6132   0.7171
     0.7604   0.7859   0.8541   0.9315   1.1000   1.1995   1.2284   1.4239
     1.4562   1.7533   1.8013   1.8518   3.1035   3.2683   3.5561   3.6465
     3.6824   3.7137   3.8109   3.8406   3.9977   4.0396

[...]

          k = 0.0380-0.0419 0.0000 ( 17876 PWs)   bands (ev):

[...]

          k =-0.0760-0.0000 0.0000 ( 17886 PWs)   bands (ev):

[...]

          k =-0.0760-0.0839 0.0000 ( 17948 PWs)   bands (ev):

   -56.1875 -56.1554 -55.6483 -55.6401 -55.6274 -55.5737 -55.5621 -55.5351
   -55.5159 -55.4970 -55.4360 -55.4103 -55.3953 -55.2763 -54.8022 -54.8018
   -32.4533 -32.4395 -32.4135 -32.4119 -32.3400 -32.3127 -32.0240 -31.9502
   -31.9498 -31.9226 -31.9193 -31.8853 -31.8825 -31.8711 -31.8610 -31.8517
   -31.8445 -31.8303 -31.8179 -31.8122 -31.8019 -31.7975 -31.7892 -31.7865
   -31.7818 -31.7741 -31.7621 -31.7522 -31.7230 -31.7177 -31.7163 -31.7069
   -31.6997 -31.6752 -31.6584 -31.6482 -31.6434 -31.6243 -31.5945 -31.5883
   -31.5276 -31.4795 -31.1471 -31.1469 -31.0294 -31.0277 -30.9882 -30.9873
   -20.6105 -16.7955 -16.3894 -15.7986 -15.6657 -15.6613 -15.6603 -15.6250
   -15.5781 -15.5315 -15.5092 -15.4412 -15.3844 -15.3560 -15.3364 -15.3115
   -15.2649 -15.2364 -15.2220 -15.1492 -15.1055 -15.0913 -15.0851 -15.0741
   -15.0422 -15.0276 -15.0081 -14.9942 -14.9704 -14.9376 -14.8401 -14.6632
   -13.7636 -13.3147 -13.3137  -6.2855  -5.4141  -4.8065  -4.2519  -3.9810
    -3.4937  -3.0262  -2.9162  -2.8464  -2.8412  -2.7506  -2.7087  -2.6799
    -2.6582  -2.6354  -2.6151  -2.5702  -2.5410  -2.5047  -2.4955  -2.4941
    -2.4757  -2.4676  -2.4473  -2.4224  -2.4086  -2.3924  -2.3835  -2.3590
    -2.3476  -2.3361  -2.3222  -2.2920  -2.2467  -2.2252  -2.0523  -2.0180
    -2.0102  -2.0020  -1.9397  -1.9341  -1.8793  -1.8046  -1.7902  -1.7692
    -1.7514  -1.6371  -1.5033  -1.4621  -1.3894  -1.3706  -1.3047  -1.2495
    -1.1521  -1.1422  -1.1206  -1.1081  -1.0635  -1.0607  -0.9757  -0.9213
    -0.8798  -0.8754  -0.8537  -0.8095  -0.6921  -0.6843  -0.6456  -0.6223
    -0.6067  -0.5062  -0.4733  -0.4529  -0.4372  -0.4267  -0.3234  -0.2740
    -0.2296  -0.1819  -0.1095  -0.0598   0.0619   0.0939   0.1883   0.2100
     0.2559   0.3884   0.4213   0.4627   0.4957   0.5525   0.5970   0.6042
     0.7360   0.7889   0.8033   0.8696   0.8915   0.9288   0.9505   1.5920
     1.5981   1.6053   1.6078   1.7898   3.6458   3.6722   3.6785   3.7130
     3.9001   3.9265   4.0022   4.0275   4.0424   4.0565

     the Fermi energy is     2.5617 ev

!    total energy              =   -3005.15888939 Ry
     estimated scf accuracy    <       0.00000003 Ry
     smearing contrib. (-TS)   =      -0.00023714 Ry
     internal energy E=F+TS    =   -3005.15865226 Ry

     The total energy is F=E-TS. E is the sum of the following terms:
     one-electron contribution =  -22952.11218518 Ry
     hartree contribution      =   11571.98646407 Ry
     xc contribution           =    -500.30416454 Ry
     ewald contribution        =    8875.27076626 Ry
     electric field correction =       0.00046714 Ry

     convergence has been achieved in  78 iterations

     Forces acting on atoms (cartesian axes, Ry/au):

     atom    1 type  1   force =     0.00068525   -0.00043749   -0.00001292
     atom    2 type  2   force =    -0.00021264    0.00020245   -0.00006233
     atom    3 type  2   force =    -0.00026462   -0.00001337    0.00005845
     atom    4 type  2   force =    -0.00041596   -0.00012514    0.00013760
     atom    5 type  3   force =     0.00027477   -0.00317001   -0.05389406
     atom    6 type  3   force =     0.00044432    0.00119279    0.04056047
     atom    7 type  3   force =    -0.00980485   -0.00222387    0.00042951
     atom    8 type  3   force =     0.00888012   -0.00512711   -0.00067043
     atom    9 type  3   force =     0.00009645    0.00002214   -0.00000474
     atom   10 type  3   force =    -0.00008911    0.00001785   -0.00019774
     atom   11 type  3   force =     0.00010088    0.00035699   -0.00010843
     atom   12 type  3   force =     0.00000718    0.00051894   -0.00000942
     atom   13 type  3   force =     0.00003317   -0.00054100   -0.00018892
     atom   14 type  3   force =     0.00004360   -0.00016636    0.00027790
     atom   15 type  3   force =    -0.00027798    0.00038625    0.00010636
     atom   16 type  3   force =     0.00044405    0.00030840   -0.00002515
     atom   17 type  3   force =    -0.00007087    0.00015545    0.09947847
     atom   18 type  3   force =     0.00014019   -0.00079914   -0.00193704
     atom   19 type  3   force =    -0.08023903    0.00058523   -0.03416136
     atom   20 type  3   force =     0.08000818    0.00109999   -0.03418697
     atom   21 type  3   force =     0.00051431    0.00001079   -0.05295639
     atom   22 type  3   force =     0.00038145    0.00048491    0.04231475
     atom   23 type  3   force =    -0.01093528    0.00574988    0.00234374
     atom   24 type  3   force =     0.01006067    0.00212024    0.00120242
     atom   25 type  3   force =     0.00007083   -0.00000574    0.00007202
     atom   26 type  3   force =     0.00000747    0.00007193    0.00015495
     atom   27 type  3   force =    -0.00003407   -0.00031557   -0.00001168
     atom   28 type  3   force =     0.00010303   -0.00045244    0.00005912
     atom   29 type  3   force =     0.00006795    0.00025320    0.00075485
     atom   30 type  3   force =    -0.00001866   -0.00002893   -0.00009327
     atom   31 type  3   force =     0.00000969   -0.00057060   -0.00002043
     atom   32 type  3   force =    -0.00009049   -0.00072820    0.00015357
     atom   33 type  3   force =    -0.00008065    0.00024699    0.09904450
     atom   34 type  3   force =    -0.08023939   -0.00145710   -0.03416114
     atom   35 type  3   force =     0.08001723   -0.00093404   -0.03421158
     atom   36 type  3   force =     0.00001700   -0.00013325    0.00092622
     atom   37 type  4   force =     0.00020310    0.00016093    0.13340211
     atom   38 type  4   force =     0.00001335    0.00798655   -0.15911119
     atom   39 type  4   force =    -0.00006574   -0.00006719   -0.00001532
     atom   40 type  4   force =    -0.00007401    0.00006059    0.00002816
     atom   41 type  4   force =    -0.00026080    0.00007866   -0.00179343
     atom   42 type  4   force =    -0.00003211    0.00012144   -0.00006603
     atom   43 type  4   force =     0.00016127   -0.00047734    0.00007711
     atom   44 type  4   force =     0.00005906   -0.00745109    0.00035214
     atom   45 type  4   force =    -0.00023987   -0.00008637    0.14215534
     atom   46 type  4   force =    -0.00018716   -0.00648547   -0.15857614
     atom   47 type  4   force =     0.00010948   -0.00010356    0.00001402
     atom   48 type  4   force =    -0.00015844    0.00023549    0.00013253
     atom   49 type  4   force =    -0.00011867   -0.00003891    0.00157670
     atom   50 type  4   force =    -0.00005764   -0.00002728    0.00002066
     atom   51 type  4   force =     0.00026621    0.00046342    0.00033231
     atom   52 type  4   force =     0.00033745    0.00901109    0.00038050
     atom   53 type  5   force =     0.00013566   -0.00020592   -0.00045903
     atom   54 type  5   force =     0.00010274    0.00041540    0.00064223
     atom   55 type  3   force =    -0.00004381    0.00028014   -0.00049611
     atom   56 type  2   force =     0.00021574   -0.00042561    0.00024253

     Total force =     0.385255     Total SCF correction =     0.000388
  @ DRIVER MODE: Message from server: STATUS
  @ DRIVER MODE: Message from server: GETFORCE
  @ DRIVER MODE: Returning v,forces,stress,ensemble

     Writing output data file ./calc.save/
  @ DRIVER MODE: Message from server: EXIT
  @ DRIVE MODE: Exiting

     General routines

     Parallel routines

   This run was terminated on:   6:28:51  26Sep2021

   JOB DONE.