     Program PWSCF v.6.7GPU starts on 23Aug2021 at 20:47:26

     R & G space division:  proc/nbgrp/npool/nimage =       6
     Reading input from /storage/home/hcoda1/3/ntian30/research/carbon/CH_vib/ads_slab/CHNNHH_a/out_0015/pw.inp
Warning: card &CELL ignored
Warning: card   CELL_DYNAMICS='IPI', ignored
Warning: card / ignored

     Current dimensions of program PWSCF are:
     Max number of different atomic species (ntypx) = 10
     Max number of k-points (npk) =  40000
     Max angular momentum in pseudopotentials (lmaxx) =  3
     Presently no symmetry can be used with electric field

     Message from routine cell_base_init:
     DEPRECATED: use true lattice parameter, not A to a.u. conversion factor

     IMPORTANT: XC functional enforced from input :
     Exchange-correlation= BEEF-VDW
                           (   1   4  43  14   2   0   0)
     Any further DFT definition will be discarded
     Please, verify this is what you really want

  @ DRIVER MODE: Connecting to
 qe_1139763_2632796.sched-torque.pace.gatech.eduy3gzr7do_scratch
  using UNIX socket
  @ DRIVER MODE: Message from server: STATUS
  @ DRIVER MODE: Message from server: INIT
  @ DRIVER MODE: Receiving replica           0          -1
  @ DRIVER MODE: Receiving encoded integer          25
  @ DRIVER MODE:  SCF:  T  FORCE:  T  STRESS:  F  VC:  F  ENSEMBLE:  F
  @ DRIVER MODE:  SCF:  T  FORCE:  T  STRESS:  F  VC:  F  ENSEMBLE:  F

     Using Slab Decomposition

     bravais-lattice index     =            0
     lattice parameter (alat)  =       1.8897  a.u.
     unit-cell volume          =    6658.9804 (a.u.)^3
     number of atoms/cell      =           53
     number of atomic types    =            5
     number of electrons       =       395.00
     number of Kohn-Sham states=          207
     kinetic-energy cutoff     =      29.3995  Ry
     charge density cutoff     =     293.9946  Ry
     scf convergence threshold =      7.3E-08
     mixing beta               =       0.0500
     number of iterations used =            8  plain     mixing
     Exchange-correlation= BEEF-VDW
                           (   1   4  43  14   2   0   0)

     celldm(1)=   1.889726  celldm(2)=   0.000000  celldm(3)=   0.000000
     celldm(4)=   0.000000  celldm(5)=   0.000000  celldm(6)=   0.000000

     crystal axes: (cart. coord. in units of alat)
               a(1) = (   6.579727   0.000000   0.000000 )
               a(2) = (  -0.000775   5.961596   0.000000 )
               a(3) = (   0.000000   0.000000  25.155947 )

     reciprocal axes: (cart. coord. in units 2 pi/alat)
               b(1) = (  0.151982  0.000020  0.000000 )
               b(2) = (  0.000000  0.167740  0.000000 )
               b(3) = (  0.000000  0.000000  0.039752 )

     PseudoPot. # 1 for Ti read from file:
     /storage/coda1/p-amedford6/0/shared/rich_project_chbe-medford/medford-share/data/pseudos_module/espresso/nninc/pbe/van/Ti.UPF
     MD5 check sum: 8e4df49b7f0d34bbd5052bf3f5ea0213
     Pseudo is Ultrasoft, Zval = 12.0
     Generated by new atomic code, or converted to UPF format
     Using radial grid of  851 points,  6 beta functions with:
                l(1) =   0
                l(2) =   0
                l(3) =   1
                l(4) =   1
                l(5) =   2
                l(6) =   2
     Q(r) pseudized with  8 coefficients,  rinner =    1.000   1.000   1.000
                                                       1.000   1.000

     PseudoPot. # 2 for O  read from file:
     /storage/coda1/p-amedford6/0/shared/rich_project_chbe-medford/medford-share/data/pseudos_module/espresso/nninc/pbe/van/O.UPF
     MD5 check sum: 78c19812648e8988a0fe644b0f25305e
     Pseudo is Ultrasoft, Zval =  6.0
     Generated by new atomic code, or converted to UPF format
     Using radial grid of  737 points,  4 beta functions with:
                l(1) =   0
                l(2) =   0
                l(3) =   1
                l(4) =   1
     Q(r) pseudized with  8 coefficients,  rinner =    0.800   0.800   0.800

     PseudoPot. # 3 for N  read from file:
     /storage/coda1/p-amedford6/0/shared/rich_project_chbe-medford/medford-share/data/pseudos_module/espresso/nninc/pbe/van/N.UPF
     MD5 check sum: 90d10febe142ad51ac9d5be1deb811c4
     Pseudo is Ultrasoft, Zval =  5.0
     Generated by new atomic code, or converted to UPF format
     Using radial grid of  729 points,  4 beta functions with:
                l(1) =   0
                l(2) =   0
                l(3) =   1
                l(4) =   1
     Q(r) pseudized with  8 coefficients,  rinner =    0.800   0.800   0.800

     PseudoPot. # 4 for C  read from file:
     /storage/coda1/p-amedford6/0/shared/rich_project_chbe-medford/medford-share/data/pseudos_module/espresso/nninc/pbe/van/C.UPF
     MD5 check sum: 1a69bf6b8db32088f5b2163dbdb77a27
     Pseudo is Ultrasoft, Zval =  4.0
     Generated by new atomic code, or converted to UPF format
     Using radial grid of  721 points,  4 beta functions with:
                l(1) =   0
                l(2) =   0
                l(3) =   1
                l(4) =   1
     Q(r) pseudized with  8 coefficients,  rinner =    0.800   0.800   0.800

     PseudoPot. # 5 for H  read from file:
     /storage/coda1/p-amedford6/0/shared/rich_project_chbe-medford/medford-share/data/pseudos_module/espresso/nninc/pbe/van/H.UPF
     MD5 check sum: b5ee9d7bfd3a09ee7748110bda690ff7
     Pseudo is Ultrasoft, Zval =  1.0
     Generated by new atomic code, or converted to UPF format
     Using radial grid of  615 points,  1 beta functions with:
                l(1) =   0
     Q(r) pseudized with  8 coefficients,  rinner =    0.800

     atomic species   valence    mass     pseudopotential
        Ti1           12.00    47.86700     Ti( 1.00)
        O1             6.00    15.99900     O ( 1.00)
        N1             5.00    14.00700     N ( 1.00)
        C1             4.00    12.01100     C ( 1.00)
        H1             1.00     1.00800     H ( 1.00)

     No symmetry found

   Cartesian axes

     site n.     atom                  positions (alat units)
         1           Ti1 tau(   1) = (   0.0004258   2.9801865   6.0000000  )
         2           Ti1 tau(   2) = (   3.2906075   1.4906267   6.0002472  )
         3           O1  tau(   3) = (   0.0006271   0.0005054   7.9858123  )
         4           O1  tau(   4) = (   3.2906025   0.0005020   7.3038282  )
         5           O1  tau(   5) = (   4.5942328   1.4918067   9.2879030  )
         6           O1  tau(   6) = (   1.9868534   1.4903216   9.2879459  )
         7           Ti1 tau(   7) = (   3.2907910   2.8959150   9.1758416  )
         8           Ti1 tau(   8) = (   0.0015273   1.4827037   9.2680791  )
         9           O1  tau(   9) = (   3.2912281   5.9459940  11.3193265  )
        10           O1  tau(  10) = (   0.0116148   5.9584955  10.6183126  )
        11           O1  tau(  11) = (   1.3103257   1.4650607  12.6442557  )
        12           O1  tau(  12) = (   5.3047449   1.4806448  12.6312737  )
        13           Ti1 tau(  13) = (   6.5337005   3.0128982  12.6900614  )
        14           Ti1 tau(  14) = (   3.2207025   1.4698770  12.4715817  )
        15           O1  tau(  15) = (   6.5518216   5.9146589  14.6704082  )
        16           O1  tau(  16) = (   3.3240203   5.9583723  13.8895330  )
        17           O1  tau(  17) = (   4.5456974   1.5225049  16.1264218  )
        18           O1  tau(  18) = (   2.0489736   1.4727210  15.9535721  )
        19           Ti1 tau(  19) = (   3.2591190   2.9927146  15.6788090  )
        20           Ti1 tau(  20) = (   0.0289511   1.3544711  15.7732889  )
        21           O1  tau(  21) = (   3.2904802   0.0005063   4.7018136  )
        22           O1  tau(  22) = (   0.0559926   0.0451390  17.2112278  )
        23           O1  tau(  23) = (   1.3043587   1.4918075   6.0039043  )
        24           O1  tau(  24) = (   5.2767064   1.4903225   6.0039473  )
        25           Ti1 tau(  25) = (   0.0000382   5.9609847   6.0000000  )
        26           Ti1 tau(  26) = (   3.2902200   4.4714249   6.0002472  )
        27           O1  tau(  27) = (   0.0002396   2.9813036   7.9858123  )
        28           O1  tau(  28) = (   3.2902150   2.9813002   7.3038282  )
        29           O1  tau(  29) = (   4.5938453   4.4726049   9.2879030  )
        30           O1  tau(  30) = (   1.9864658   4.4711199   9.2879459  )
        31           Ti1 tau(  31) = (   3.2891106   5.8743827   9.1763621  )
        32           Ti1 tau(  32) = (   0.0006254   4.4649316   9.2693709  )
        33           O1  tau(  33) = (   3.2889932   2.9698301  11.3211337  )
        34           O1  tau(  34) = (   0.0092240   2.9805883  10.6323155  )
        35           O1  tau(  35) = (   1.3069247   4.4567274  12.6410950  )
        36           O1  tau(  36) = (   5.3013738   4.4587240  12.6283471  )
        37           Ti1 tau(  37) = (   6.5339814   0.0202798  12.5235249  )
        38           Ti1 tau(  38) = (   3.2191325   4.4512509  12.4750946  )
        39           O1  tau(  39) = (   6.5688456   2.9522374  14.7547250  )
        40           O1  tau(  40) = (   3.3031296   2.9710333  13.8824388  )
        41           O1  tau(  41) = (   4.5425837   4.4734130  15.9989242  )
        42           O1  tau(  42) = (   2.0771424   4.4889556  16.0364895  )
        43           Ti1 tau(  43) = (   3.3121389   0.0026565  15.6888161  )
        44           Ti1 tau(  44) = (   6.5128106   4.4989306  16.3061806  )
        45           O1  tau(  45) = (   3.2900926   2.9813045   4.7018136  )
        46           O1  tau(  46) = (   1.3039711   4.4726057   6.0039043  )
        47           O1  tau(  47) = (   5.2763189   4.4711207   6.0039473  )
        48           N1  tau(  48) = (   0.4628824   2.9849886  17.7976856  )
        49           C1  tau(  49) = (   1.4182946   2.9518240  18.6700831  )
        50           H1  tau(  50) = (   2.3503500   2.6358988  18.1556329  )
        51           N1  tau(  51) = (   5.7893717   3.5482605  18.2279111  )
        52           H1  tau(  52) = (   5.8942619   4.0012392  19.1365464  )
        53           H1  tau(  53) = (   5.0734348   2.8266848  18.2415795  )

     number of k points=    10  Fermi-Dirac smearing, width (Ry)=  0.0073
                       cart. coord. in units 2pi/alat
        k(    1) = (   0.0000000   0.0000000   0.0000000), wk =   0.1250000
        k(    2) = (   0.0000000   0.0419351   0.0000000), wk =   0.2500000
        k(    3) = (   0.0000000  -0.0838702   0.0000000), wk =   0.1250000
        k(    4) = (   0.0379955   0.0000049   0.0000000), wk =   0.2500000
        k(    5) = (   0.0379955   0.0419400   0.0000000), wk =   0.2500000
        k(    6) = (   0.0379955  -0.0838652   0.0000000), wk =   0.2500000
        k(    7) = (   0.0379955  -0.0419301   0.0000000), wk =   0.2500000
        k(    8) = (  -0.0759910  -0.0000099   0.0000000), wk =   0.1250000
        k(    9) = (  -0.0759910   0.0419252   0.0000000), wk =   0.2500000
        k(   10) = (  -0.0759910  -0.0838800   0.0000000), wk =   0.1250000

     Initial potential from superposition of free atoms

     starting charge  378.99916, renormalised to  395.00000

     negative rho (up, down):  1.775E-02 0.000E+00

     %%%%%%%%%%%%%%%%%%%%%%%%%%%%%%%%%%%%%%%%%%%%%%%%%%%%%%%%%%%%%%%%%%%%%%%%
     %                                                                      %
     % You are using vdW-DF, which was implemented by the Thonhauser group. %
     % Please cite the following two papers that made this development      %
     % possible and the two reviews that describe the various versions:     %
     %                                                                      %
     %   T. Thonhauser et al., PRL 115, 136402 (2015).                      %
     %   T. Thonhauser et al., PRB 76, 125112 (2007).                       %
     %   K. Berland et al., Rep. Prog. Phys. 78, 066501 (2015).             %
     %   D.C. Langreth et al., J. Phys.: Condens. Matter 21, 084203 (2009). %
     %                                                                      %
     %                                                                      %
     % If you are calculating the stress with vdW-DF, please also cite:     %
     %                                                                      %
     %   R. Sabatini et al., J. Phys.: Condens. Matter 24, 424209 (2012).   %
     %                                                                      %
     %%%%%%%%%%%%%%%%%%%%%%%%%%%%%%%%%%%%%%%%%%%%%%%%%%%%%%%%%%%%%%%%%%%%%%%%

     Adding external electric field

     Computed dipole along edir(3) :
        Dipole               -8.0620 Ry au,        -20.4914 Debye
        Dipole field         -0.0152 Ry au,

        Potential amp.        1.4103 Ry
        Total length         46.3494 bohr

     Starting wfcs are  299 atomic wfcs
  @ DRIVER MODE: Message from server: STATUS
  @ DRIVER MODE: Message from server: POSDATA
  @ DRIVER MODE: Reading and sharing cell
  @ DRIVER MODE: Reading and sharing positions
  @ DRIVER MODE: Received positions

     Self-consistent Calculation

     iteration #  1     ecut=    29.40 Ry     beta= 0.05
     Davidson diagonalization with overlap
     c_bands:  1 eigenvalues not converged
     c_bands:  1 eigenvalues not converged
     c_bands:  2 eigenvalues not converged
     c_bands:  3 eigenvalues not converged
     c_bands:  3 eigenvalues not converged
     c_bands:  2 eigenvalues not converged
     c_bands:  1 eigenvalues not converged
     ethr =  1.00E-05,  avg # of iterations = 19.3

[...]

     total energy              =   -2614.87394867 Ry
     estimated scf accuracy    <    3583.89044616 Ry

[...]

     iteration #  3     ecut=    29.40 Ry     beta= 0.05
     Davidson diagonalization with overlap
     ethr =  1.00E-02,  avg # of iterations = 14.8

[...]

     iteration # 63     ecut=    29.40 Ry     beta= 0.05
     Davidson diagonalization with overlap
     c_bands:  1 eigenvalues not converged
     ethr =  1.10E-10,  avg # of iterations = 14.9

[...]

     total energy              =   -2939.00605428 Ry
     estimated scf accuracy    <       0.00000011 Ry

     iteration # 66     ecut=    29.40 Ry     beta= 0.05
     Davidson diagonalization with overlap
     ethr =  2.79E-11,  avg # of iterations =  4.6

     negative rho (up, down):  1.647E-02 0.000E+00

     Adding external electric field

     Computed dipole along edir(3) :
        Dipole                0.3052 Ry au,          0.7756 Debye
        Dipole field          0.0006 Ry au,

        Potential amp.       -0.0534 Ry
        Total length         46.3494 bohr

     End of self-consistent calculation

          k = 0.0000 0.0000 0.0000 ( 18029 PWs)   bands (ev):

   -56.1066 -56.1041 -56.0725 -56.0677 -55.9943 -55.9600 -55.9541 -55.9189
   -55.9036 -55.8694 -55.8679 -55.8336 -55.6484 -55.5851 -55.0762 -55.0422
   -32.6632 -32.5877 -32.4859 -32.4257 -32.4115 -32.4075 -32.3990 -32.3590
   -32.3465 -32.3317 -32.3059 -32.2845 -32.2780 -32.2589 -32.2516 -32.2449
   -32.2097 -32.1962 -32.1936 -32.1890 -32.1848 -32.1640 -32.1580 -32.1414
   -32.1165 -32.1021 -32.1010 -32.1000 -32.0950 -32.0915 -32.0701 -32.0434
   -32.0430 -32.0284 -32.0210 -32.0016 -31.9799 -31.9526 -31.8756 -31.8473
   -31.8006 -31.7376 -31.4829 -31.3956 -31.3731 -31.2999 -31.2134 -31.1022
   -17.9768 -16.8723 -16.5825 -16.3673 -16.2616 -16.2462 -16.1399 -15.9545
   -15.8212 -15.7931 -15.6863 -15.6798 -15.6387 -15.6262 -15.5972 -15.5737
   -15.5652 -15.5388 -15.5362 -15.5200 -15.4756 -15.4523 -15.4331 -15.3369
   -15.2971 -15.2366 -15.2145 -15.1533 -15.0313 -14.7964 -13.5785 -13.4622
   -13.3109  -8.0446  -6.3608  -4.3504  -4.2463  -4.0698  -4.0090  -3.9665
    -3.9597  -3.7188  -3.6860  -3.3271  -3.2946  -3.2747  -3.2644  -3.2531
    -3.1367  -3.0183  -2.9626  -2.9206  -2.9104  -2.8997  -2.8925  -2.8797
    -2.8537  -2.8315  -2.7278  -2.6835  -2.6525  -2.5425  -2.5243  -2.4336
    -2.4164  -2.4053  -2.3707  -2.3504  -2.3415  -2.3155  -2.3043  -2.2776
    -2.1928  -2.1439  -2.0287  -1.9643  -1.8857  -1.8506  -1.7028  -1.6591
    -1.5713  -1.5651  -1.5462  -1.5240  -1.4909  -1.4049  -1.3305  -1.2412
    -1.1991  -1.1615  -1.1257  -1.0824  -1.0009  -0.9819  -0.9646  -0.8683
    -0.8643  -0.8551  -0.8120  -0.6105  -0.5859  -0.5518  -0.5392  -0.4619
    -0.4035  -0.3866  -0.3658  -0.3179  -0.2577  -0.1945  -0.1487  -0.1337
    -0.1222  -0.1189  -0.0845  -0.0585   0.0843   0.0948   0.1890   0.2009
     0.2242   0.3509   0.5251   0.5629   0.5845   0.7050   0.8769   0.9461
     1.0481   1.1391   1.5164   1.5617   2.4086   3.0313   3.1177   3.1515
     3.1709   3.2764   3.3094   3.4789   3.4944   3.5295   3.5488

[...]

          k = 0.0380-0.0419 0.0000 ( 17876 PWs)   bands (ev):

[...]

          k =-0.0760-0.0000 0.0000 ( 17886 PWs)   bands (ev):

[...]

          k =-0.0760-0.0839 0.0000 ( 17948 PWs)   bands (ev):

   -56.0906 -56.0884 -56.0878 -56.0838 -55.9851 -55.9632 -55.9504 -55.9283
   -55.8884 -55.8841 -55.8542 -55.8475 -55.6452 -55.5881 -55.0592 -55.0591
   -32.4666 -32.4622 -32.4037 -32.4024 -32.3854 -32.3838 -32.3653 -32.3529
   -32.3339 -32.3146 -32.2912 -32.2746 -32.2488 -32.2391 -32.2384 -32.2197
   -32.2196 -32.2104 -32.2079 -32.2020 -32.2008 -32.1927 -32.1870 -32.1729
   -32.1681 -32.1499 -32.1335 -32.1308 -32.0879 -32.0859 -32.0842 -32.0802
   -32.0719 -32.0691 -32.0657 -32.0639 -32.0600 -31.9706 -31.8874 -31.8405
   -31.8039 -31.7937 -31.3859 -31.3858 -31.2958 -31.2956 -31.2567 -31.2566
   -17.9669 -16.3081 -16.2922 -16.0757 -16.0311 -16.0269 -16.0061 -15.9177
   -15.8275 -15.8084 -15.7942 -15.7766 -15.7616 -15.6815 -15.6559 -15.6336
   -15.6297 -15.6170 -15.5621 -15.5564 -15.5532 -15.5482 -15.5282 -15.4950
   -15.4126 -15.4076 -15.3967 -15.1586 -15.0931 -15.0214 -13.5643 -13.5638
   -13.3237  -8.0027  -6.2992  -4.3646  -3.6010  -3.5822  -3.3558  -3.3089
    -3.2831  -3.2740  -3.1589  -3.0566  -3.0265  -3.0140  -2.9754  -2.9572
    -2.9448  -2.9323  -2.9195  -2.9003  -2.8746  -2.8409  -2.8355  -2.7895
    -2.7727  -2.7517  -2.7343  -2.7127  -2.7117  -2.6711  -2.6653  -2.6265
    -2.5884  -2.5430  -2.4333  -2.3798  -2.3411  -2.2910  -2.2351  -2.2241
    -2.2152  -2.1615  -2.1563  -2.1223  -2.0373  -1.9617  -1.8263  -1.8045
    -1.7715  -1.7306  -1.6974  -1.6003  -1.5564  -1.5070  -1.4552  -1.3991
    -1.3874  -1.3447  -1.3078  -1.2414  -1.2246  -1.1848  -1.1636  -1.1014
    -1.0598  -1.0556  -0.9921  -0.9247  -0.8669  -0.8638  -0.8433  -0.8277
    -0.7705  -0.7226  -0.6560  -0.6068  -0.5651  -0.4681  -0.4112  -0.2950
    -0.1865  -0.0675   0.0034   0.0074   0.0630   0.1404   0.1858   0.2205
     0.2312   0.2493   0.3410   0.4127   0.4318   0.4456   0.5139   0.6983
     1.3109   1.3120   1.3809   1.3818   2.4056   3.3197   3.3580   3.3722
     3.4035   3.5484   3.5510   3.5630   3.5667   3.6852   3.7310

     the Fermi energy is     3.0286 ev

!    total energy              =   -2939.00607703 Ry
     estimated scf accuracy    <       0.00000006 Ry
     smearing contrib. (-TS)   =      -0.02201015 Ry
     internal energy E=F+TS    =   -2938.98406689 Ry

     The total energy is F=E-TS. E is the sum of the following terms:
     one-electron contribution =  -24452.70956661 Ry
     hartree contribution      =   12311.42301985 Ry
     xc contribution           =    -485.12761587 Ry
     ewald contribution        =    9687.42992000 Ry
     electric field correction =       0.00017574 Ry

     convergence has been achieved in  66 iterations

     Forces acting on atoms (cartesian axes, Ry/au):

     atom    1 type  1   force =     0.00018450   -0.00028552    0.09689846
     atom    2 type  1   force =     0.00006677   -0.00078880   -0.17496446
     atom    3 type  2   force =     0.00014608   -0.00008692   -0.02554067
     atom    4 type  2   force =    -0.00003157   -0.00142512    0.05152238
     atom    5 type  2   force =    -0.01204129   -0.00173332    0.00279265
     atom    6 type  2   force =     0.01346715   -0.00133791    0.00223252
     atom    7 type  1   force =     0.00040167    0.00016066   -0.01208436
     atom    8 type  1   force =     0.00018806    0.02418690    0.02897292
     atom    9 type  2   force =    -0.00004181    0.00052039   -0.00005818
     atom   10 type  2   force =    -0.00266411    0.00014597   -0.01163710
     atom   11 type  2   force =    -0.00002573    0.00026788    0.00004633
     atom   12 type  2   force =    -0.00024365   -0.00001616    0.00014245
     atom   13 type  1   force =    -0.00013252    0.00115251   -0.00013905
     atom   14 type  1   force =    -0.00000202    0.00049578    0.00005296
     atom   15 type  2   force =     0.00008275   -0.00020203   -0.00004745
     atom   16 type  2   force =    -0.00021388    0.00022907   -0.00031386
     atom   17 type  2   force =     0.00032971    0.00017268   -0.00037720
     atom   18 type  2   force =    -0.00026770    0.00005780   -0.00020454
     atom   19 type  1   force =    -0.00018962   -0.00017960   -0.00048165
     atom   20 type  1   force =     0.00017479    0.00008843   -0.00011280
     atom   21 type  2   force =     0.00006722   -0.00007169    0.10296376
     atom   22 type  2   force =     0.00001633   -0.00026070   -0.00043686
     atom   23 type  2   force =    -0.07170431   -0.00016955   -0.02790954
     atom   24 type  2   force =     0.07160794    0.00028731   -0.02794821
     atom   25 type  1   force =     0.00003697   -0.00025640    0.09678882
     atom   26 type  1   force =    -0.00000832   -0.00018107   -0.17512895
     atom   27 type  2   force =     0.00015775   -0.00026909   -0.02420760
     atom   28 type  2   force =     0.00001443   -0.00117964    0.05207310
     atom   29 type  2   force =    -0.01219997    0.00078305    0.00247118
     atom   30 type  2   force =     0.01350844    0.00126919    0.00188274
     atom   31 type  1   force =     0.00044989    0.00286956   -0.01397032
     atom   32 type  1   force =     0.00038509   -0.02518393    0.03046660
     atom   33 type  2   force =     0.00004368   -0.00008376   -0.00016155
     atom   34 type  2   force =    -0.00184043   -0.00050302   -0.02071490
     atom   35 type  2   force =     0.00000086    0.00021769   -0.00005254
     atom   36 type  2   force =     0.00017525    0.00032781    0.00016404
     atom   37 type  1   force =    -0.00021375   -0.00085800   -0.00002723
     atom   38 type  1   force =     0.00008314    0.00013191   -0.00020295
     atom   39 type  2   force =     0.00008694    0.00034833   -0.00022236
     atom   40 type  2   force =    -0.00006314    0.00008452    0.00043669
     atom   41 type  2   force =     0.00049217    0.00004483   -0.00014729
     atom   42 type  2   force =    -0.00025907   -0.00004747   -0.00026140
     atom   43 type  1   force =    -0.00036392    0.00032415    0.00009421
     atom   44 type  1   force =     0.00011556    0.00013142    0.00012228
     atom   45 type  2   force =     0.00005477   -0.00006635    0.10298298
     atom   46 type  2   force =    -0.07173319   -0.00011777   -0.02790620
     atom   47 type  2   force =     0.07162185    0.00025523   -0.02793139
     atom   48 type  3   force =    -0.00000755   -0.00033610   -0.00022116
     atom   49 type  4   force =     0.00202558   -0.00133983   -0.00107716
     atom   50 type  5   force =    -0.00207734    0.00206840    0.00098808
     atom   51 type  3   force =     0.00025562    0.00054371    0.00015238
     atom   52 type  5   force =     0.00000524   -0.00009039   -0.00002085
     atom   53 type  5   force =     0.00007869   -0.00009507    0.00026226

     Total force =     0.368974     Total SCF correction =     0.000607
  @ DRIVER MODE: Message from server: STATUS
  @ DRIVER MODE: Message from server: GETFORCE
  @ DRIVER MODE: Returning v,forces,stress,ensemble

     Writing output data file ./calc.save/
  @ DRIVER MODE: Message from server: EXIT
  @ DRIVE MODE: Exiting

     General routines

     Parallel routines

   This run was terminated on:  21:19:50  23Aug2021

   JOB DONE.