     Program PWSCF v.6.7GPU starts on 26Sep2021 at  5:52:52

     R & G space division:  proc/nbgrp/npool/nimage =       8
     Reading input from /storage/home/hcoda1/3/ntian30/research/carbon/CxH_vib/H2O_calc/ads_slab/CH3N2OHHO_l/out_0031/pw.inp
Warning: card &CELL ignored
Warning: card   CELL_DYNAMICS='IPI', ignored
Warning: card / ignored

     Current dimensions of program PWSCF are:
     Max number of different atomic species (ntypx) = 10
     Max number of k-points (npk) =  40000
     Max angular momentum in pseudopotentials (lmaxx) =  3
     Presently no symmetry can be used with electric field

     Message from routine cell_base_init:
     DEPRECATED: use true lattice parameter, not A to a.u. conversion factor

     IMPORTANT: XC functional enforced from input :
     Exchange-correlation= BEEF-VDW
                           (   1   4  43  14   2   0   0)
     Any further DFT definition will be discarded
     Please, verify this is what you really want

  @ DRIVER MODE: Connecting to
 qe_1139763_2971669.sched-torque.pace.gatech.eduzg646oel_scratch
  using UNIX socket
  @ DRIVER MODE: Message from server: STATUS
  @ DRIVER MODE: Message from server: INIT
  @ DRIVER MODE: Receiving replica           0          -1
  @ DRIVER MODE: Receiving encoded integer          25
  @ DRIVER MODE:  SCF:  T  FORCE:  T  STRESS:  F  VC:  F  ENSEMBLE:  F
  @ DRIVER MODE:  SCF:  T  FORCE:  T  STRESS:  F  VC:  F  ENSEMBLE:  F

     Using Slab Decomposition

     bravais-lattice index     =            0
     lattice parameter (alat)  =       1.8897  a.u.
     unit-cell volume          =    6658.9804 (a.u.)^3
     number of atoms/cell      =           57
     number of atomic types    =            5
     number of electrons       =       409.00
     number of Kohn-Sham states=          214
     kinetic-energy cutoff     =      29.3995  Ry
     charge density cutoff     =     293.9946  Ry
     scf convergence threshold =      7.3E-08
     mixing beta               =       0.0500
     number of iterations used =            8  plain     mixing
     Exchange-correlation= BEEF-VDW
                           (   1   4  43  14   2   0   0)

     celldm(1)=   1.889726  celldm(2)=   0.000000  celldm(3)=   0.000000
     celldm(4)=   0.000000  celldm(5)=   0.000000  celldm(6)=   0.000000

     crystal axes: (cart. coord. in units of alat)
               a(1) = (   6.579727   0.000000   0.000000 )
               a(2) = (  -0.000775   5.961596   0.000000 )
               a(3) = (   0.000000   0.000000  25.155947 )

     reciprocal axes: (cart. coord. in units 2 pi/alat)
               b(1) = (  0.151982  0.000020  0.000000 )
               b(2) = (  0.000000  0.167740  0.000000 )
               b(3) = (  0.000000  0.000000  0.039752 )

     PseudoPot. # 1 for Ti read from file:
     /storage/coda1/p-amedford6/0/shared/rich_project_chbe-medford/medford-share/data/pseudos_module/espresso/nninc/pbe/van/Ti.UPF
     MD5 check sum: 8e4df49b7f0d34bbd5052bf3f5ea0213
     Pseudo is Ultrasoft, Zval = 12.0
     Generated by new atomic code, or converted to UPF format
     Using radial grid of  851 points,  6 beta functions with:
                l(1) =   0
                l(2) =   0
                l(3) =   1
                l(4) =   1
                l(5) =   2
                l(6) =   2
     Q(r) pseudized with  8 coefficients,  rinner =    1.000   1.000   1.000
                                                       1.000   1.000

     PseudoPot. # 2 for O  read from file:
     /storage/coda1/p-amedford6/0/shared/rich_project_chbe-medford/medford-share/data/pseudos_module/espresso/nninc/pbe/van/O.UPF
     MD5 check sum: 78c19812648e8988a0fe644b0f25305e
     Pseudo is Ultrasoft, Zval =  6.0
     Generated by new atomic code, or converted to UPF format
     Using radial grid of  737 points,  4 beta functions with:
                l(1) =   0
                l(2) =   0
                l(3) =   1
                l(4) =   1
     Q(r) pseudized with  8 coefficients,  rinner =    0.800   0.800   0.800

     PseudoPot. # 3 for N  read from file:
     /storage/coda1/p-amedford6/0/shared/rich_project_chbe-medford/medford-share/data/pseudos_module/espresso/nninc/pbe/van/N.UPF
     MD5 check sum: 90d10febe142ad51ac9d5be1deb811c4
     Pseudo is Ultrasoft, Zval =  5.0
     Generated by new atomic code, or converted to UPF format
     Using radial grid of  729 points,  4 beta functions with:
                l(1) =   0
                l(2) =   0
                l(3) =   1
                l(4) =   1
     Q(r) pseudized with  8 coefficients,  rinner =    0.800   0.800   0.800

     PseudoPot. # 4 for C  read from file:
     /storage/coda1/p-amedford6/0/shared/rich_project_chbe-medford/medford-share/data/pseudos_module/espresso/nninc/pbe/van/C.UPF
     MD5 check sum: 1a69bf6b8db32088f5b2163dbdb77a27
     Pseudo is Ultrasoft, Zval =  4.0
     Generated by new atomic code, or converted to UPF format
     Using radial grid of  721 points,  4 beta functions with:
                l(1) =   0
                l(2) =   0
                l(3) =   1
                l(4) =   1
     Q(r) pseudized with  8 coefficients,  rinner =    0.800   0.800   0.800

     PseudoPot. # 5 for H  read from file:
     /storage/coda1/p-amedford6/0/shared/rich_project_chbe-medford/medford-share/data/pseudos_module/espresso/nninc/pbe/van/H.UPF
     MD5 check sum: b5ee9d7bfd3a09ee7748110bda690ff7
     Pseudo is Ultrasoft, Zval =  1.0
     Generated by new atomic code, or converted to UPF format
     Using radial grid of  615 points,  1 beta functions with:
                l(1) =   0
     Q(r) pseudized with  8 coefficients,  rinner =    0.800

     atomic species   valence    mass     pseudopotential
        Ti1           12.00    47.86700     Ti( 1.00)
        O1             6.00    15.99900     O ( 1.00)
        N1             5.00    14.00700     N ( 1.00)
        C1             4.00    12.01100     C ( 1.00)
        H1             1.00     1.00800     H ( 1.00)

     No symmetry found

   Cartesian axes

     site n.     atom                  positions (alat units)
         1           Ti1 tau(   1) = (   0.0004258   2.9801865   6.0000000  )
         2           Ti1 tau(   2) = (   3.2906075   1.4906267   6.0002472  )
         3           O1  tau(   3) = (   0.0006271   0.0005054   7.9858123  )
         4           O1  tau(   4) = (   3.2906025   0.0005020   7.3038282  )
         5           O1  tau(   5) = (   4.5942328   1.4918067   9.2879030  )
         6           O1  tau(   6) = (   1.9868534   1.4903216   9.2879459  )
         7           Ti1 tau(   7) = (   3.2907910   2.8959150   9.1758416  )
         8           Ti1 tau(   8) = (   0.0015273   1.4827037   9.2680791  )
         9           O1  tau(   9) = (   3.2779673   5.9607700  11.3423085  )
        10           O1  tau(  10) = (   0.0116148   5.9584955  10.6183126  )
        11           O1  tau(  11) = (   1.2787083   1.4818767  12.6451794  )
        12           O1  tau(  12) = (   5.2707140   1.4872516  12.6060838  )
        13           Ti1 tau(  13) = (   0.0520196   2.9452147  12.6012095  )
        14           Ti1 tau(  14) = (   3.3669591   1.4706787  12.5087448  )
        15           O1  tau(  15) = (   6.5166736   5.9505275  14.6414754  )
        16           O1  tau(  16) = (   3.3002175   0.0041348  13.9548274  )
        17           O1  tau(  17) = (   4.5235890   1.5203341  16.0633414  )
        18           O1  tau(  18) = (   1.9992342   1.5602939  15.9747780  )
        19           Ti1 tau(  19) = (   3.2541499   3.0080313  15.6961896  )
        20           Ti1 tau(  20) = (   6.5591015   1.5323982  15.7823192  )
        21           O1  tau(  21) = (   3.2904802   0.0005063   4.7018136  )
        22           O1  tau(  22) = (   0.0960927   0.0099221  17.2178370  )
        23           O1  tau(  23) = (   1.3043587   1.4918075   6.0039043  )
        24           O1  tau(  24) = (   5.2767064   1.4903225   6.0039473  )
        25           Ti1 tau(  25) = (   0.0000382   5.9609847   6.0000000  )
        26           Ti1 tau(  26) = (   3.2902200   4.4714249   6.0002472  )
        27           O1  tau(  27) = (   0.0002396   2.9813036   7.9858123  )
        28           O1  tau(  28) = (   3.2902150   2.9813002   7.3038282  )
        29           O1  tau(  29) = (   4.5938453   4.4726049   9.2879030  )
        30           O1  tau(  30) = (   1.9864658   4.4711199   9.2879459  )
        31           Ti1 tau(  31) = (   3.2891106   5.8743827   9.1763621  )
        32           Ti1 tau(  32) = (   0.0006254   4.4649316   9.2693709  )
        33           O1  tau(  33) = (   3.2807211   2.9768430  11.3440791  )
        34           O1  tau(  34) = (   0.0092240   2.9805883  10.6323155  )
        35           O1  tau(  35) = (   1.2789702   4.4681595  12.6395138  )
        36           O1  tau(  36) = (   5.2737968   4.4775610  12.6008310  )
        37           Ti1 tau(  37) = (   0.0460201   5.9176504  12.5434570  )
        38           Ti1 tau(  38) = (   3.3658678   4.4646095  12.4976877  )
        39           O1  tau(  39) = (   6.5297297   2.9761478  14.6509524  )
        40           O1  tau(  40) = (   3.3085871   2.9961499  13.9017917  )
        41           O1  tau(  41) = (   4.5138497   4.4896837  16.1272785  )
        42           O1  tau(  42) = (   1.9961282   4.4344792  16.0060688  )
        43           Ti1 tau(  43) = (   3.3116018   0.0224549  15.7990204  )
        44           Ti1 tau(  44) = (   6.5775847   4.6577750  16.0638065  )
        45           O1  tau(  45) = (   3.2900926   2.9813045   4.7018136  )
        46           O1  tau(  46) = (   1.3039711   4.4726057   6.0039043  )
        47           O1  tau(  47) = (   5.2763189   4.4711207   6.0039473  )
        48           N1  tau(  48) = (   6.5065777   2.6139801  18.6303060  )
        49           N1  tau(  49) = (   6.5364102   2.8728423  17.4370429  )
        50           C1  tau(  50) = (   6.4341180   3.7235584  19.6105657  )
        51           H1  tau(  51) = (   6.3066687   4.7022679  19.1488110  )
        52           H1  tau(  52) = (   5.6164842   3.4805663  20.2913871  )
        53           H1  tau(  53) = (   0.7723074   3.6964598  20.1845303  )
        54           O1  tau(  54) = (   3.0314481   5.0835218  18.9911038  )
        55           H1  tau(  55) = (   1.7414717   0.2044793  18.0242669  )
        56           O1  tau(  56) = (   2.7372941   0.2572207  18.0778760  )
        57           H1  tau(  57) = (   3.9343361   5.3466317  19.2487757  )

     number of k points=    10  Fermi-Dirac smearing, width (Ry)=  0.0073
                       cart. coord. in units 2pi/alat
        k(    1) = (   0.0000000   0.0000000   0.0000000), wk =   0.1250000
        k(    2) = (   0.0000000   0.0419351   0.0000000), wk =   0.2500000
        k(    3) = (   0.0000000  -0.0838702   0.0000000), wk =   0.1250000
        k(    4) = (   0.0379955   0.0000049   0.0000000), wk =   0.2500000
        k(    5) = (   0.0379955   0.0419400   0.0000000), wk =   0.2500000
        k(    6) = (   0.0379955  -0.0838652   0.0000000), wk =   0.2500000
        k(    7) = (   0.0379955  -0.0419301   0.0000000), wk =   0.2500000
        k(    8) = (  -0.0759910  -0.0000099   0.0000000), wk =   0.1250000
        k(    9) = (  -0.0759910   0.0419252   0.0000000), wk =   0.2500000
        k(   10) = (  -0.0759910  -0.0838800   0.0000000), wk =   0.1250000

     Initial potential from superposition of free atoms

     starting charge  392.99914, renormalised to  409.00000

     negative rho (up, down):  1.422E-02 0.000E+00

     %%%%%%%%%%%%%%%%%%%%%%%%%%%%%%%%%%%%%%%%%%%%%%%%%%%%%%%%%%%%%%%%%%%%%%%%
     %                                                                      %
     % You are using vdW-DF, which was implemented by the Thonhauser group. %
     % Please cite the following two papers that made this development      %
     % possible and the two reviews that describe the various versions:     %
     %                                                                      %
     %   T. Thonhauser et al., PRL 115, 136402 (2015).                      %
     %   T. Thonhauser et al., PRB 76, 125112 (2007).                       %
     %   K. Berland et al., Rep. Prog. Phys. 78, 066501 (2015).             %
     %   D.C. Langreth et al., J. Phys.: Condens. Matter 21, 084203 (2009). %
     %                                                                      %
     %                                                                      %
     % If you are calculating the stress with vdW-DF, please also cite:     %
     %                                                                      %
     %   R. Sabatini et al., J. Phys.: Condens. Matter 24, 424209 (2012).   %
     %                                                                      %
     %%%%%%%%%%%%%%%%%%%%%%%%%%%%%%%%%%%%%%%%%%%%%%%%%%%%%%%%%%%%%%%%%%%%%%%%

     Adding external electric field

     Computed dipole along edir(3) :
        Dipole              -16.7505 Ry au,        -42.5754 Debye
        Dipole field         -0.0316 Ry au,

        Potential amp.        2.9302 Ry
        Total length         46.3494 bohr

     Starting wfcs are  309 atomic wfcs
  @ DRIVER MODE: Message from server: STATUS
  @ DRIVER MODE: Message from server: POSDATA
  @ DRIVER MODE: Reading and sharing cell
  @ DRIVER MODE: Reading and sharing positions
  @ DRIVER MODE: Received positions

     Self-consistent Calculation

     iteration #  1     ecut=    29.40 Ry     beta= 0.05
     Davidson diagonalization with overlap
     c_bands:  5 eigenvalues not converged
     c_bands:  5 eigenvalues not converged
     c_bands:  3 eigenvalues not converged
     c_bands:  1 eigenvalues not converged
     c_bands:  4 eigenvalues not converged
     c_bands:  2 eigenvalues not converged
     c_bands:  5 eigenvalues not converged
     ethr =  1.00E-05,  avg # of iterations = 26.6

[...]

     total energy              =   -2110.44549103 Ry
     estimated scf accuracy    <   10326.54733906 Ry

     iteration #  2     ecut=    29.40 Ry     beta= 0.05
     Davidson diagonalization with overlap
     ethr =  1.00E-02,  avg # of iterations = 32.2

[...]

     iteration # 45     ecut=    29.40 Ry     beta= 0.05
     Davidson diagonalization with overlap
     c_bands:  1 eigenvalues not converged
     ethr =  6.32E-07,  avg # of iterations = 10.6

[...]

     total energy              =   -3006.13717199 Ry
     estimated scf accuracy    <       0.00000016 Ry

     iteration # 70     ecut=    29.40 Ry     beta= 0.05
     Davidson diagonalization with overlap
     ethr =  3.85E-11,  avg # of iterations =  9.3

     negative rho (up, down):  1.471E-02 0.000E+00

     Adding external electric field

     Computed dipole along edir(3) :
        Dipole                0.8107 Ry au,          2.0606 Debye
        Dipole field          0.0015 Ry au,

        Potential amp.       -0.1418 Ry
        Total length         46.3494 bohr

     End of self-consistent calculation

          k = 0.0000 0.0000 0.0000 ( 18029 PWs)   bands (ev):

   -55.6051 -55.5710 -55.5625 -55.5334 -55.5263 -55.4405 -55.4193 -55.4036
   -55.3854 -55.3831 -55.3658 -55.3494 -54.9877 -54.9174 -54.5858 -54.5518
   -32.1032 -32.0884 -31.9482 -31.9404 -31.9178 -31.8977 -31.8730 -31.8597
   -31.8489 -31.7941 -31.7788 -31.7633 -31.7573 -31.7403 -31.7288 -31.7186
   -31.7102 -31.7011 -31.6894 -31.6626 -31.6622 -31.6418 -31.6101 -31.6089
   -31.5993 -31.5948 -31.5924 -31.5818 -31.5637 -31.5595 -31.5537 -31.5489
   -31.5378 -31.5363 -31.5271 -31.5147 -31.4952 -31.2657 -31.2091 -31.1778
   -31.1243 -31.1018 -30.9930 -30.9044 -30.8820 -30.8097 -30.7232 -30.6122
   -20.7364 -18.2970 -16.3050 -16.0790 -15.8949 -15.7656 -15.7104 -15.5532
   -15.4954 -15.4097 -15.3393 -15.2024 -15.1501 -15.1417 -15.1353 -15.1167
   -15.1105 -15.0505 -15.0394 -15.0379 -15.0271 -14.9991 -14.9601 -14.9468
   -14.9420 -14.8591 -14.7658 -14.7432 -14.7226 -14.7193 -14.6617 -14.2755
   -13.0880 -12.9716 -11.2922  -6.8226  -5.7514  -5.3626  -4.1832  -3.8073
    -3.7831  -3.6723  -3.5499  -3.5114  -3.4314  -3.3843  -3.2306  -3.0792
    -3.0256  -2.8516  -2.7827  -2.7555  -2.7118  -2.6282  -2.5210  -2.4677
    -2.4128  -2.4086  -2.3946  -2.3785  -2.3613  -2.3448  -2.2371  -2.2185
    -2.1661  -2.1459  -2.1201  -1.9844  -1.9567  -1.9285  -1.9187  -1.8905
    -1.8780  -1.8649  -1.8374  -1.8188  -1.7799  -1.7550  -1.6236  -1.5809
    -1.5407  -1.4490  -1.3900  -1.3320  -1.2331  -1.2008  -1.1328  -1.0618
    -1.0562  -1.0363  -1.0031  -0.9949  -0.8684  -0.7640  -0.7539  -0.6804
    -0.6192  -0.5689  -0.5279  -0.4625  -0.3793  -0.3617  -0.3541  -0.3333
    -0.2815  -0.2572  -0.0979  -0.0590  -0.0108   0.0145   0.0717   0.1047
     0.1475   0.1879   0.2277   0.2777   0.3116   0.3449   0.3631   0.3775
     0.3929   0.4242   0.4450   0.6109   0.6462   0.6693   0.7305   0.7598
     0.8465   0.9032   0.9671   1.0503   1.1588   1.3638   1.4365   1.5282
     1.6285   2.0079   2.0537   2.8307   3.5243   3.6163   3.6573   3.6880
     3.7692   3.7813   3.9821   4.0043   4.0340   4.1091

[...]

          k = 0.0380-0.0419 0.0000 ( 17876 PWs)   bands (ev):

[...]

          k =-0.0760-0.0000 0.0000 ( 17886 PWs)   bands (ev):

[...]

          k =-0.0760-0.0839 0.0000 ( 17948 PWs)   bands (ev):

   -55.5885 -55.5875 -55.5473 -55.5413 -55.5316 -55.4287 -55.4155 -55.4025
   -55.4016 -55.3676 -55.3674 -55.3650 -54.9838 -54.9212 -54.5689 -54.5686
   -31.9174 -31.9040 -31.9032 -31.9001 -31.8835 -31.8826 -31.8257 -31.8171
   -31.8050 -31.7853 -31.7768 -31.7530 -31.7479 -31.7226 -31.7167 -31.7160
   -31.7080 -31.7072 -31.7070 -31.7054 -31.7030 -31.7009 -31.6742 -31.6458
   -31.6321 -31.6283 -31.6195 -31.6034 -31.6023 -31.5972 -31.5920 -31.5830
   -31.5799 -31.5726 -31.5717 -31.5699 -31.4167 -31.2674 -31.2477 -31.1859
   -31.1632 -31.1256 -30.8948 -30.8946 -30.8059 -30.8057 -30.7665 -30.7665
   -20.7358 -18.2929 -15.7424 -15.6954 -15.6306 -15.5640 -15.5289 -15.4586
   -15.4151 -15.3732 -15.3212 -15.2833 -15.2743 -15.2145 -15.1942 -15.1616
   -15.1522 -15.1228 -15.1131 -15.1110 -15.0574 -15.0514 -15.0456 -15.0386
   -15.0322 -14.9733 -14.9335 -14.9257 -14.9207 -14.8221 -14.6997 -14.4440
   -13.0735 -13.0732 -11.2905  -6.8452  -5.7487  -5.3391  -4.1115  -3.8118
    -3.7660  -3.1135  -3.0209  -2.8274  -2.7970  -2.7143  -2.7101  -2.6673
    -2.5453  -2.5122  -2.4662  -2.4480  -2.4272  -2.4184  -2.4127  -2.3934
    -2.3867  -2.3679  -2.3388  -2.3186  -2.2859  -2.2735  -2.2606  -2.2522
    -2.2382  -2.2153  -2.2131  -2.1649  -2.1444  -2.1255  -2.0623  -2.0287
    -1.8429  -1.7937  -1.7488  -1.7419  -1.7211  -1.6897  -1.6750  -1.6581
    -1.6111  -1.5903  -1.5150  -1.4693  -1.3300  -1.3097  -1.2934  -1.2729
    -1.2060  -1.1484  -1.0984  -1.0125  -1.0072  -0.9582  -0.8654  -0.8061
    -0.7981  -0.7671  -0.7111  -0.7016  -0.6612  -0.5681  -0.5625  -0.5446
    -0.5383  -0.4626  -0.4181  -0.3561  -0.3479  -0.3281  -0.2972  -0.2692
    -0.2358  -0.1969  -0.1010  -0.0677   0.0261   0.1316   0.2087   0.3436
     0.4623   0.4751   0.5600   0.5840   0.6854   0.6967   0.7089   0.7504
     0.7863   0.8109   0.9303   0.9443   0.9674   0.9954   1.0819   1.8000
     1.8008   1.8734   1.8736   2.8202   3.7662   3.8802   3.9120   3.9226
     4.0074   4.0443   4.0629   4.0649   4.1301   4.2031

     the Fermi energy is     3.5272 ev

!    total energy              =   -3006.13719116 Ry
     estimated scf accuracy    <       0.00000005 Ry
     smearing contrib. (-TS)   =      -0.02165551 Ry
     internal energy E=F+TS    =   -3006.11553565 Ry

     The total energy is F=E-TS. E is the sum of the following terms:
     one-electron contribution =  -23514.00211531 Ry
     hartree contribution      =   11854.97909714 Ry
     xc contribution           =    -501.17393388 Ry
     ewald contribution        =    9154.08017607 Ry
     electric field correction =       0.00124032 Ry

     convergence has been achieved in  70 iterations

     Forces acting on atoms (cartesian axes, Ry/au):

     atom    1 type  1   force =     0.00021033   -0.00032216    0.09614662
     atom    2 type  1   force =    -0.00012879   -0.00052072   -0.17557866
     atom    3 type  2   force =    -0.00003062   -0.00016208   -0.02420074
     atom    4 type  2   force =     0.00000575   -0.00155636    0.05343672
     atom    5 type  2   force =    -0.01165437   -0.00075905    0.00385886
     atom    6 type  2   force =     0.01284256   -0.00002369    0.00197233
     atom    7 type  1   force =    -0.00132146    0.00026036   -0.00659375
     atom    8 type  1   force =     0.00074406    0.00792987    0.02424027
     atom    9 type  2   force =     0.00000638    0.00002833    0.00002400
     atom   10 type  2   force =    -0.00082767    0.00166347   -0.01688774
     atom   11 type  2   force =    -0.00002701    0.00003599   -0.00000131
     atom   12 type  2   force =    -0.00000677    0.00001984   -0.00000693
     atom   13 type  1   force =     0.00001339   -0.00001062    0.00003183
     atom   14 type  1   force =     0.00001055    0.00003964    0.00001314
     atom   15 type  2   force =    -0.00000847    0.00001422    0.00000730
     atom   16 type  2   force =    -0.00000973   -0.00003484   -0.00005111
     atom   17 type  2   force =    -0.00001389   -0.00000536    0.00003220
     atom   18 type  2   force =    -0.00002265   -0.00000084   -0.00002348
     atom   19 type  1   force =     0.00004231   -0.00007270    0.00003447
     atom   20 type  1   force =     0.00003620   -0.00001892   -0.00003762
     atom   21 type  2   force =     0.00005848   -0.00004920    0.10320436
     atom   22 type  2   force =    -0.00001847   -0.00003546   -0.00010115
     atom   23 type  2   force =    -0.07149604   -0.00011962   -0.02770112
     atom   24 type  2   force =     0.07139920    0.00028689   -0.02770913
     atom   25 type  1   force =    -0.00003194   -0.00028851    0.09578180
     atom   26 type  1   force =    -0.00023065   -0.00033438   -0.17583840
     atom   27 type  2   force =     0.00004858   -0.00017397   -0.02324708
     atom   28 type  2   force =     0.00007097   -0.00125512    0.05304175
     atom   29 type  2   force =    -0.01200228    0.00042260    0.00403407
     atom   30 type  2   force =     0.01308861    0.00076863    0.00212154
     atom   31 type  1   force =    -0.00118500    0.00400542   -0.00989502
     atom   32 type  1   force =     0.00067732   -0.01003881    0.02471799
     atom   33 type  2   force =     0.00001384   -0.00000910    0.00000747
     atom   34 type  2   force =    -0.00025193    0.00012859   -0.02259166
     atom   35 type  2   force =    -0.00001597   -0.00000490   -0.00001752
     atom   36 type  2   force =    -0.00001248    0.00001407   -0.00002661
     atom   37 type  1   force =    -0.00000187   -0.00004275    0.00002985
     atom   38 type  1   force =     0.00002450    0.00007330    0.00004643
     atom   39 type  2   force =    -0.00005486   -0.00001512   -0.00003209
     atom   40 type  2   force =    -0.00000793   -0.00003916   -0.00001070
     atom   41 type  2   force =    -0.00000085   -0.00000338   -0.00002941
     atom   42 type  2   force =    -0.00000696   -0.00001323   -0.00001422
     atom   43 type  1   force =     0.00003810   -0.00002245   -0.00002247
     atom   44 type  1   force =     0.00003057    0.00000374    0.00002343
     atom   45 type  2   force =     0.00004534   -0.00008797    0.10317871
     atom   46 type  2   force =    -0.07151479   -0.00007903   -0.02771984
     atom   47 type  2   force =     0.07142657    0.00035567   -0.02771353
     atom   48 type  3   force =     0.00027507   -0.00001905    0.00013604
     atom   49 type  3   force =    -0.00004992   -0.00000155   -0.00001168
     atom   50 type  4   force =    -0.00891879    0.00041773   -0.00461190
     atom   51 type  5   force =    -0.00005914   -0.00008156    0.00006092
     atom   52 type  5   force =    -0.00075058    0.00003795   -0.00045388
     atom   53 type  5   force =     0.00953644   -0.00029760    0.00490264
     atom   54 type  2   force =     0.00100332   -0.00001832   -0.00131484
     atom   55 type  5   force =    -0.00010275   -0.00000229   -0.00003997
     atom   56 type  2   force =    -0.00115041   -0.00004720    0.00134531
     atom   57 type  5   force =     0.00026657    0.00006076    0.00005357

     Total force =     0.367372     Total SCF correction =     0.000698
  @ DRIVER MODE: Message from server: STATUS
  @ DRIVER MODE: Message from server: GETFORCE
  @ DRIVER MODE: Returning v,forces,stress,ensemble

     Writing output data file ./calc.save/
  @ DRIVER MODE: Message from server: EXIT
  @ DRIVE MODE: Exiting

     General routines

     Parallel routines

   This run was terminated on:   6:21:52  26Sep2021

   JOB DONE.