     Program PWSCF v.6.7GPU starts on 23Sep2021 at 19:46: 5

     R & G space division:  proc/nbgrp/npool/nimage =       8
     Reading input from /storage/home/hcoda1/3/ntian30/research/carbon/CxH_vib/H2O_calc/ads_slab/CH2ON2HO_b/out_0020/pw.inp
Warning: card &CELL ignored
Warning: card   CELL_DYNAMICS='IPI', ignored
Warning: card / ignored

     Current dimensions of program PWSCF are:
     Max number of different atomic species (ntypx) = 10
     Max number of k-points (npk) =  40000
     Max angular momentum in pseudopotentials (lmaxx) =  3
     Presently no symmetry can be used with electric field

     Message from routine cell_base_init:
     DEPRECATED: use true lattice parameter, not A to a.u. conversion factor

     IMPORTANT: XC functional enforced from input :
     Exchange-correlation= BEEF-VDW
                           (   1   4  43  14   2   0   0)
     Any further DFT definition will be discarded
     Please, verify this is what you really want

  @ DRIVER MODE: Connecting to
 qe_1139763_2947315.sched-torque.pace.gatech.edu76u_krs7_scratch
  using UNIX socket
  @ DRIVER MODE: Message from server: STATUS
  @ DRIVER MODE: Message from server: INIT
  @ DRIVER MODE: Receiving replica           0          -1
  @ DRIVER MODE: Receiving encoded integer          25
  @ DRIVER MODE:  SCF:  T  FORCE:  T  STRESS:  F  VC:  F  ENSEMBLE:  F
  @ DRIVER MODE:  SCF:  T  FORCE:  T  STRESS:  F  VC:  F  ENSEMBLE:  F

     Using Slab Decomposition

     bravais-lattice index     =            0
     lattice parameter (alat)  =       1.8897  a.u.
     unit-cell volume          =    6658.9804 (a.u.)^3
     number of atoms/cell      =           55
     number of atomic types    =            5
     number of electrons       =       407.00
     number of Kohn-Sham states=          213
     kinetic-energy cutoff     =      29.3995  Ry
     charge density cutoff     =     293.9946  Ry
     scf convergence threshold =      7.3E-08
     mixing beta               =       0.0500
     number of iterations used =            8  plain     mixing
     Exchange-correlation= BEEF-VDW
                           (   1   4  43  14   2   0   0)

     celldm(1)=   1.889726  celldm(2)=   0.000000  celldm(3)=   0.000000
     celldm(4)=   0.000000  celldm(5)=   0.000000  celldm(6)=   0.000000

     crystal axes: (cart. coord. in units of alat)
               a(1) = (   6.579727   0.000000   0.000000 )
               a(2) = (  -0.000775   5.961596   0.000000 )
               a(3) = (   0.000000   0.000000  25.155947 )

     reciprocal axes: (cart. coord. in units 2 pi/alat)
               b(1) = (  0.151982  0.000020  0.000000 )
               b(2) = (  0.000000  0.167740  0.000000 )
               b(3) = (  0.000000  0.000000  0.039752 )

     PseudoPot. # 1 for C  read from file:
     /storage/coda1/p-amedford6/0/shared/rich_project_chbe-medford/medford-share/data/pseudos_module/espresso/nninc/pbe/van/C.UPF
     MD5 check sum: 1a69bf6b8db32088f5b2163dbdb77a27
     Pseudo is Ultrasoft, Zval =  4.0
     Generated by new atomic code, or converted to UPF format
     Using radial grid of  721 points,  4 beta functions with:
                l(1) =   0
                l(2) =   0
                l(3) =   1
                l(4) =   1
     Q(r) pseudized with  8 coefficients,  rinner =    0.800   0.800   0.800

     PseudoPot. # 2 for H  read from file:
     /storage/coda1/p-amedford6/0/shared/rich_project_chbe-medford/medford-share/data/pseudos_module/espresso/nninc/pbe/van/H.UPF
     MD5 check sum: b5ee9d7bfd3a09ee7748110bda690ff7
     Pseudo is Ultrasoft, Zval =  1.0
     Generated by new atomic code, or converted to UPF format
     Using radial grid of  615 points,  1 beta functions with:
                l(1) =   0
     Q(r) pseudized with  8 coefficients,  rinner =    0.800

     PseudoPot. # 3 for O  read from file:
     /storage/coda1/p-amedford6/0/shared/rich_project_chbe-medford/medford-share/data/pseudos_module/espresso/nninc/pbe/van/O.UPF
     MD5 check sum: 78c19812648e8988a0fe644b0f25305e
     Pseudo is Ultrasoft, Zval =  6.0
     Generated by new atomic code, or converted to UPF format
     Using radial grid of  737 points,  4 beta functions with:
                l(1) =   0
                l(2) =   0
                l(3) =   1
                l(4) =   1
     Q(r) pseudized with  8 coefficients,  rinner =    0.800   0.800   0.800

     PseudoPot. # 4 for Ti read from file:
     /storage/coda1/p-amedford6/0/shared/rich_project_chbe-medford/medford-share/data/pseudos_module/espresso/nninc/pbe/van/Ti.UPF
     MD5 check sum: 8e4df49b7f0d34bbd5052bf3f5ea0213
     Pseudo is Ultrasoft, Zval = 12.0
     Generated by new atomic code, or converted to UPF format
     Using radial grid of  851 points,  6 beta functions with:
                l(1) =   0
                l(2) =   0
                l(3) =   1
                l(4) =   1
                l(5) =   2
                l(6) =   2
     Q(r) pseudized with  8 coefficients,  rinner =    1.000   1.000   1.000
                                                       1.000   1.000

     PseudoPot. # 5 for N  read from file:
     /storage/coda1/p-amedford6/0/shared/rich_project_chbe-medford/medford-share/data/pseudos_module/espresso/nninc/pbe/van/N.UPF
     MD5 check sum: 90d10febe142ad51ac9d5be1deb811c4
     Pseudo is Ultrasoft, Zval =  5.0
     Generated by new atomic code, or converted to UPF format
     Using radial grid of  729 points,  4 beta functions with:
                l(1) =   0
                l(2) =   0
                l(3) =   1
                l(4) =   1
     Q(r) pseudized with  8 coefficients,  rinner =    0.800   0.800   0.800

     atomic species   valence    mass     pseudopotential
        C1             4.00    12.01100     C ( 1.00)
        H1             1.00     1.00800     H ( 1.00)
        O1             6.00    15.99900     O ( 1.00)
        Ti1           12.00    47.86700     Ti( 1.00)
        N1             5.00    14.00700     N ( 1.00)

     No symmetry found

   Cartesian axes

     site n.     atom                  positions (alat units)
         1           C1  tau(   1) = (   6.3959394   2.9948767  18.7016815  )
         2           H1  tau(   2) = (   6.3118651   3.9496324  19.2181435  )
         3           H1  tau(   3) = (   6.2946090   2.0524817  19.2375006  )
         4           O1  tau(   4) = (   3.2904802   0.0005063   4.7018136  )
         5           O1  tau(   5) = (   3.2900926   2.9813045   4.7018136  )
         6           O1  tau(   6) = (   1.3043587   1.4918075   6.0039043  )
         7           O1  tau(   7) = (   1.3039711   4.4726057   6.0039043  )
         8           O1  tau(   8) = (   5.2767064   1.4903225   6.0039473  )
         9           O1  tau(   9) = (   5.2763189   4.4711207   6.0039473  )
        10           O1  tau(  10) = (   3.2906025   0.0005020   7.3038282  )
        11           O1  tau(  11) = (   3.2902150   2.9813002   7.3038282  )
        12           O1  tau(  12) = (   0.0006271   0.0005054   7.9858123  )
        13           O1  tau(  13) = (   0.0002396   2.9813036   7.9858123  )
        14           O1  tau(  14) = (   4.5942328   1.4918067   9.2879030  )
        15           O1  tau(  15) = (   4.5938453   4.4726049   9.2879030  )
        16           O1  tau(  16) = (   1.9868534   1.4903216   9.2879459  )
        17           O1  tau(  17) = (   1.9864658   4.4711199   9.2879459  )
        18           O1  tau(  18) = (   0.0129981   2.9922367  10.5657274  )
        19           O1  tau(  19) = (   0.0144279   0.0091559  10.5889743  )
        20           O1  tau(  20) = (   3.3117767   2.9674386  11.3102582  )
        21           O1  tau(  21) = (   3.3129298   0.0243810  11.3450129  )
        22           O1  tau(  22) = (   5.3345884   1.4970258  12.6342112  )
        23           O1  tau(  23) = (   5.3394917   4.4808886  12.6396439  )
        24           O1  tau(  24) = (   1.3039726   1.5040805  12.6380785  )
        25           O1  tau(  25) = (   1.3005587   4.4728597  12.6427203  )
        26           O1  tau(  26) = (   3.3397831   2.9746101  13.9049785  )
        27           O1  tau(  27) = (   3.3223070   5.9049495  13.9699414  )
        28           O1  tau(  28) = (   0.0408547   5.9558716  14.6791314  )
        29           O1  tau(  29) = (   0.0240783   2.9814708  14.7219997  )
        30           O1  tau(  30) = (   4.6055448   4.4181431  16.1204950  )
        31           O1  tau(  31) = (   4.6084482   1.5084077  16.0967128  )
        32           O1  tau(  32) = (   2.0524258   4.3896087  16.0537013  )
        33           O1  tau(  33) = (   2.0565100   1.5382275  16.0573534  )
        34           O1  tau(  34) = (   0.0881354   5.9599038  17.1931241  )
        35           O1  tau(  35) = (   0.0264254   2.9794292  17.4619454  )
        36           Ti1 tau(  36) = (   0.0004258   2.9801865   6.0000000  )
        37           Ti1 tau(  37) = (   0.0000382   5.9609847   6.0000000  )
        38           Ti1 tau(  38) = (   3.2906075   1.4906267   6.0002472  )
        39           Ti1 tau(  39) = (   3.2902200   4.4714249   6.0002472  )
        40           Ti1 tau(  40) = (   3.3176177   0.0844252   9.1703869  )
        41           Ti1 tau(  41) = (   3.3271239   3.0668301   9.1994626  )
        42           Ti1 tau(  42) = (   0.0459265   4.5214211   9.2633915  )
        43           Ti1 tau(  43) = (   0.0410032   1.6055327   9.3499854  )
        44           Ti1 tau(  44) = (   3.3214603   4.6642404  12.6916750  )
        45           Ti1 tau(  45) = (   3.3199143   1.5801738  12.4350604  )
        46           Ti1 tau(  46) = (   0.0219714   0.0386744  12.4748393  )
        47           Ti1 tau(  47) = (   0.0368166   3.0234317  12.7766128  )
        48           Ti1 tau(  48) = (   3.3281430   2.9430002  15.6816790  )
        49           Ti1 tau(  49) = (   3.4175200   5.9218210  16.2589141  )
        50           Ti1 tau(  50) = (   0.0864224   1.3736379  15.9343534  )
        51           Ti1 tau(  51) = (   0.1156494   4.5744356  15.9464672  )
        52           N1  tau(  52) = (   3.6299987   3.2157240  20.3374172  )
        53           N1  tau(  53) = (   2.7220030   2.6454082  20.0695964  )
        54           O1  tau(  54) = (   3.1925635   5.9265077  18.0938652  )
        55           H1  tau(  55) = (   2.2801939   0.0950383  18.3989923  )

     number of k points=    10  Fermi-Dirac smearing, width (Ry)=  0.0073
                       cart. coord. in units 2pi/alat
        k(    1) = (   0.0000000   0.0000000   0.0000000), wk =   0.1250000
        k(    2) = (   0.0000000   0.0419351   0.0000000), wk =   0.2500000
        k(    3) = (   0.0000000  -0.0838702   0.0000000), wk =   0.1250000
        k(    4) = (   0.0379955   0.0000049   0.0000000), wk =   0.2500000
        k(    5) = (   0.0379955   0.0419400   0.0000000), wk =   0.2500000
        k(    6) = (   0.0379955  -0.0838652   0.0000000), wk =   0.2500000
        k(    7) = (   0.0379955  -0.0419301   0.0000000), wk =   0.2500000
        k(    8) = (  -0.0759910  -0.0000099   0.0000000), wk =   0.1250000
        k(    9) = (  -0.0759910   0.0419252   0.0000000), wk =   0.2500000
        k(   10) = (  -0.0759910  -0.0838800   0.0000000), wk =   0.1250000

     Initial potential from superposition of free atoms

     starting charge  390.99916, renormalised to  407.00000

     negative rho (up, down):  1.488E-02 0.000E+00

     %%%%%%%%%%%%%%%%%%%%%%%%%%%%%%%%%%%%%%%%%%%%%%%%%%%%%%%%%%%%%%%%%%%%%%%%
     %                                                                      %
     % You are using vdW-DF, which was implemented by the Thonhauser group. %
     % Please cite the following two papers that made this development      %
     % possible and the two reviews that describe the various versions:     %
     %                                                                      %
     %   T. Thonhauser et al., PRL 115, 136402 (2015).                      %
     %   T. Thonhauser et al., PRB 76, 125112 (2007).                       %
     %   K. Berland et al., Rep. Prog. Phys. 78, 066501 (2015).             %
     %   D.C. Langreth et al., J. Phys.: Condens. Matter 21, 084203 (2009). %
     %                                                                      %
     %                                                                      %
     % If you are calculating the stress with vdW-DF, please also cite:     %
     %                                                                      %
     %   R. Sabatini et al., J. Phys.: Condens. Matter 24, 424209 (2012).   %
     %                                                                      %
     %%%%%%%%%%%%%%%%%%%%%%%%%%%%%%%%%%%%%%%%%%%%%%%%%%%%%%%%%%%%%%%%%%%%%%%%

     Adding external electric field

     Computed dipole along edir(3) :
        Dipole              -15.3787 Ry au,        -39.0886 Debye
        Dipole field         -0.0290 Ry au,

        Potential amp.        2.6903 Ry
        Total length         46.3494 bohr

     Starting wfcs are  307 atomic wfcs
  @ DRIVER MODE: Message from server: STATUS
  @ DRIVER MODE: Message from server: POSDATA
  @ DRIVER MODE: Reading and sharing cell
  @ DRIVER MODE: Reading and sharing positions
  @ DRIVER MODE: Received positions

     Self-consistent Calculation

     iteration #  1     ecut=    29.40 Ry     beta= 0.05
     Davidson diagonalization with overlap
     c_bands:  1 eigenvalues not converged
     c_bands:  1 eigenvalues not converged
     c_bands:  1 eigenvalues not converged
     c_bands:  1 eigenvalues not converged
     c_bands:  3 eigenvalues not converged
     ethr =  1.00E-05,  avg # of iterations = 34.7

[...]

     total energy              =   -2231.71120749 Ry
     estimated scf accuracy    <    8831.90384929 Ry

     iteration #  2     ecut=    29.40 Ry     beta= 0.05
     Davidson diagonalization with overlap
     ethr =  1.00E-02,  avg # of iterations = 29.2

[...]

     iteration # 53     ecut=    29.40 Ry     beta= 0.05
     Davidson diagonalization with overlap
     c_bands:  1 eigenvalues not converged
     ethr =  3.40E-09,  avg # of iterations = 13.9

[...]

     total energy              =   -3003.97504944 Ry
     estimated scf accuracy    <       0.00000010 Ry

     iteration # 62     ecut=    29.40 Ry     beta= 0.05
     Davidson diagonalization with overlap
     ethr =  2.37E-11,  avg # of iterations =  5.0

     negative rho (up, down):  1.524E-02 0.000E+00

     Adding external electric field

     Computed dipole along edir(3) :
        Dipole                0.9026 Ry au,          2.2943 Debye
        Dipole field          0.0017 Ry au,

        Potential amp.       -0.1579 Ry
        Total length         46.3494 bohr

     End of self-consistent calculation

          k = 0.0000 0.0000 0.0000 ( 18029 PWs)   bands (ev):

   -55.6597 -55.6171 -55.5421 -55.4571 -55.4226 -55.4104 -55.3990 -55.3597
   -55.3089 -55.2725 -55.2672 -55.2343 -55.1917 -55.0997 -54.5083 -54.4742
   -32.1114 -32.0090 -31.9541 -31.9267 -31.9136 -31.8716 -31.8653 -31.8220
   -31.8178 -31.7606 -31.7548 -31.7447 -31.7344 -31.7268 -31.7228 -31.7003
   -31.6790 -31.6761 -31.6334 -31.6227 -31.6101 -31.5989 -31.5974 -31.5940
   -31.5591 -31.5531 -31.5142 -31.5103 -31.5074 -31.4969 -31.4959 -31.4905
   -31.4634 -31.4610 -31.4338 -31.4313 -31.4287 -31.3841 -31.3838 -31.3469
   -31.3081 -31.3048 -30.9110 -30.8344 -30.8111 -30.7278 -30.6419 -30.5306
   -21.1353 -20.0503 -16.3337 -16.1565 -15.9897 -15.8022 -15.7025 -15.6402
   -15.4329 -15.3736 -15.2974 -15.1417 -15.1143 -15.0796 -15.0491 -15.0320
   -15.0205 -14.9945 -14.9850 -14.9447 -14.9206 -14.9171 -14.8719 -14.8081
   -14.7632 -14.7546 -14.7089 -14.6504 -14.6047 -14.5920 -14.5344 -14.3458
   -13.0093 -12.8954  -9.2717  -6.4064  -5.5863  -5.5532  -4.2964  -4.2787
    -3.9028  -3.5541  -3.5136  -3.4689  -3.3858  -3.3666  -3.2349  -3.0699
    -3.0572  -2.8883  -2.7587  -2.6848  -2.6524  -2.6173  -2.5028  -2.4541
    -2.4278  -2.3935  -2.3607  -2.3339  -2.2974  -2.2787  -2.2406  -2.1979
    -2.1689  -2.0797  -2.0747  -2.0266  -1.9492  -1.9156  -1.9054  -1.8978
    -1.8795  -1.8347  -1.7949  -1.7499  -1.7222  -1.6722  -1.5648  -1.5469
    -1.5407  -1.4720  -1.2281  -1.0916  -1.0636  -0.9903  -0.9555  -0.9369
    -0.8990  -0.8932  -0.8789  -0.8455  -0.8150  -0.6960  -0.6339  -0.5727
    -0.5668  -0.5457  -0.5009  -0.4009  -0.3379  -0.3049  -0.2613  -0.2476
    -0.1785  -0.1578  -0.0797  -0.0448   0.0149   0.1265   0.1697   0.2000
     0.2201   0.2323   0.2837   0.3380   0.3875   0.4238   0.4353   0.4642
     0.5340   0.5579   0.5708   0.5969   0.6853   0.7500   0.7680   0.8297
     0.9132   0.9348   1.0353   1.1655   1.2379   1.4874   1.5136   1.5954
     1.7278   2.0758   2.1214   3.5548   3.6315   3.6624   3.7466   3.8116
     3.8368   3.9202   4.0044   4.0928   4.1240

[...]

          k = 0.0380-0.0419 0.0000 ( 17876 PWs)   bands (ev):

[...]

          k =-0.0760-0.0000 0.0000 ( 17886 PWs)   bands (ev):

[...]

          k =-0.0760-0.0839 0.0000 ( 17948 PWs)   bands (ev):

   -55.6513 -55.6254 -55.5412 -55.4451 -55.4343 -55.4035 -55.3966 -55.3665
   -55.3097 -55.2702 -55.2608 -55.2451 -55.1886 -55.1027 -54.4918 -54.4906
   -31.9486 -31.9374 -31.9203 -31.9154 -31.9083 -31.8103 -31.7969 -31.7776
   -31.7620 -31.7591 -31.7578 -31.7471 -31.7395 -31.6991 -31.6961 -31.6737
   -31.6583 -31.6514 -31.6393 -31.6292 -31.6269 -31.6216 -31.6095 -31.5942
   -31.5877 -31.5863 -31.5715 -31.5607 -31.5547 -31.5435 -31.5063 -31.4986
   -31.4925 -31.4751 -31.4701 -31.4658 -31.4520 -31.4490 -31.4186 -31.3870
   -31.3503 -31.3082 -30.8246 -30.8233 -30.7253 -30.7235 -30.6852 -30.6838
   -21.1350 -20.0446 -16.3040 -15.6716 -15.6132 -15.4662 -15.4449 -15.3873
   -15.3577 -15.2808 -15.2375 -15.2287 -15.2076 -15.1776 -15.1534 -15.1410
   -15.0980 -15.0765 -15.0265 -15.0202 -14.9694 -14.9657 -14.9558 -14.9324
   -14.8845 -14.8300 -14.8235 -14.8208 -14.7580 -14.7500 -14.6523 -14.4804
   -12.9990 -12.9967  -9.2801  -6.4037  -5.5751  -5.5081  -4.3042  -4.2790
    -3.8612  -3.6236  -3.0483  -2.9002  -2.8282  -2.6861  -2.5989  -2.5379
    -2.5265  -2.5064  -2.4692  -2.3968  -2.3856  -2.3328  -2.3262  -2.3174
    -2.3089  -2.2994  -2.2448  -2.2274  -2.2084  -2.2009  -2.1800  -2.1500
    -2.1366  -2.1234  -2.1156  -2.1031  -2.0905  -2.0470  -1.9789  -1.9147
    -1.8835  -1.8601  -1.7216  -1.7081  -1.6416  -1.6267  -1.6166  -1.5907
    -1.5825  -1.5044  -1.4531  -1.3117  -1.2893  -1.2618  -1.1894  -1.1512
    -1.0669  -1.0636  -1.0351  -0.9765  -0.9570  -0.9265  -0.9115  -0.8145
    -0.7370  -0.6943  -0.6551  -0.5416  -0.5238  -0.5093  -0.4489  -0.4226
    -0.4140  -0.4005  -0.3548  -0.2823  -0.2362  -0.2149  -0.1780  -0.1662
    -0.1036  -0.0550   0.0152   0.0838   0.1673   0.1885   0.2930   0.3681
     0.4123   0.5266   0.5854   0.6119   0.6448   0.7175   0.7665   0.7799
     0.8788   0.9388   0.9529   1.0263   1.0543   1.0951   1.1299   1.8846
     1.8976   1.9306   1.9428   3.5068   4.0422   4.0522   4.0658   4.0882
     4.1114   4.1351   4.2124   4.2508   4.2671

     the Fermi energy is     3.4962 ev

!    total energy              =   -3003.97509309 Ry
     estimated scf accuracy    <       0.00000007 Ry
     smearing contrib. (-TS)   =      -0.01900997 Ry
     internal energy E=F+TS    =   -3003.95608313 Ry

     The total energy is F=E-TS. E is the sum of the following terms:
     one-electron contribution =  -23046.91667933 Ry
     hartree contribution      =   11620.55637070 Ry
     xc contribution           =    -499.46611639 Ry
     ewald contribution        =    8921.86880431 Ry
     electric field correction =       0.00153758 Ry

     convergence has been achieved in  62 iterations

     Forces acting on atoms (cartesian axes, Ry/au):

     atom    1 type  1   force =    -0.00038622    0.00002389    0.00056858
     atom    2 type  2   force =    -0.00042971   -0.00006651   -0.00022198
     atom    3 type  2   force =    -0.00062075    0.00005911   -0.00029729
     atom    4 type  3   force =    -0.00006159    0.00011859    0.10177099
     atom    5 type  3   force =    -0.00006369    0.00014626    0.10144424
     atom    6 type  3   force =    -0.07459086    0.00083157   -0.03021261
     atom    7 type  3   force =    -0.07405748   -0.00149385   -0.03020143
     atom    8 type  3   force =     0.07427421    0.00138954   -0.03026464
     atom    9 type  3   force =     0.07391646   -0.00109310   -0.03030949
     atom   10 type  3   force =     0.00082039    0.00107223    0.04835740
     atom   11 type  3   force =     0.00088039    0.00075662    0.05011677
     atom   12 type  3   force =     0.00040835   -0.00629460   -0.03721071
     atom   13 type  3   force =     0.00063950    0.00422333   -0.03094732
     atom   14 type  3   force =    -0.01077104   -0.00220031    0.00091352
     atom   15 type  3   force =    -0.01064927    0.00459588    0.00172296
     atom   16 type  3   force =     0.01298627   -0.00502517    0.00200968
     atom   17 type  3   force =     0.01234532    0.00211611    0.00233203
     atom   18 type  3   force =    -0.00036956    0.00005312    0.00006595
     atom   19 type  3   force =    -0.00019384    0.00027795    0.00001935
     atom   20 type  3   force =     0.00002655   -0.00077378    0.00011706
     atom   21 type  3   force =    -0.00022607   -0.00040284    0.00004068
     atom   22 type  3   force =     0.00022790   -0.00047496   -0.00003833
     atom   23 type  3   force =     0.00004896    0.00036980    0.00055748
     atom   24 type  3   force =    -0.00042918   -0.00033754   -0.00036523
     atom   25 type  3   force =    -0.00007405    0.00043159    0.00020323
     atom   26 type  3   force =    -0.00051959   -0.00022470   -0.00009528
     atom   27 type  3   force =    -0.00026702    0.00011308    0.00018132
     atom   28 type  3   force =     0.00110578    0.00010013    0.00013354
     atom   29 type  3   force =     0.00015184   -0.00015220    0.00020625
     atom   30 type  3   force =    -0.00169396    0.00008539   -0.00052194
     atom   31 type  3   force =    -0.00081660    0.00007760   -0.00030403
     atom   32 type  3   force =     0.00014485    0.00044219    0.00013733
     atom   33 type  3   force =    -0.00056693    0.00004481    0.00011685
     atom   34 type  3   force =    -0.00015437   -0.00025405   -0.00042612
     atom   35 type  3   force =     0.00008563   -0.00007206    0.00041796
     atom   36 type  4   force =    -0.00032882   -0.00159809    0.10371075
     atom   37 type  4   force =    -0.00011308    0.00149096    0.11783072
     atom   38 type  4   force =    -0.00038462    0.00605933   -0.16915525
     atom   39 type  4   force =    -0.00010782   -0.00503935   -0.16940450
     atom   40 type  4   force =     0.00029879    0.00006628   -0.00056448
     atom   41 type  4   force =     0.00003015   -0.00020227   -0.00020787
     atom   42 type  4   force =    -0.00017377    0.00083507   -0.00003706
     atom   43 type  4   force =    -0.00019788   -0.00053044   -0.00000757
     atom   44 type  4   force =     0.00006646   -0.00022486    0.00024957
     atom   45 type  4   force =     0.00000800   -0.00021358   -0.00119725
     atom   46 type  4   force =    -0.00044705    0.00031429    0.00064742
     atom   47 type  4   force =    -0.00091102    0.00064407    0.00004769
     atom   48 type  4   force =     0.00293990   -0.00073950   -0.00011185
     atom   49 type  4   force =     0.00324323    0.00010633   -0.00052748
     atom   50 type  4   force =    -0.00027696   -0.00007208   -0.00038647
     atom   51 type  4   force =    -0.00394356   -0.00009707   -0.00056279
     atom   52 type  5   force =    -0.00121127   -0.00093423   -0.00059130
     atom   53 type  5   force =     0.00072495    0.00087950    0.00022918
     atom   54 type  3   force =    -0.00130172    0.00071096    0.00008558
     atom   55 type  2   force =     0.00096548    0.00008159   -0.00006378

     Total force =     0.369179     Total SCF correction =     0.000423
  @ DRIVER MODE: Message from server: STATUS
  @ DRIVER MODE: Message from server: GETFORCE
  @ DRIVER MODE: Returning v,forces,stress,ensemble

     Writing output data file ./calc.save/
  @ DRIVER MODE: Message from server: EXIT
  @ DRIVE MODE: Exiting

     General routines

     Parallel routines

   This run was terminated on:  20:10: 2  23Sep2021

   JOB DONE.