     Program PWSCF v.6.7GPU starts on 26Sep2021 at 20: 0:16

     R & G space division:  proc/nbgrp/npool/nimage =       8
     Reading input from /storage/home/hcoda1/3/ntian30/research/carbon/CxH_vib/H2O_calc/ads_slab/CH3OHN2HO_a/out_0049/pw.inp
Warning: card &CELL ignored
Warning: card   CELL_DYNAMICS='IPI', ignored
Warning: card / ignored

     Current dimensions of program PWSCF are:
     Max number of different atomic species (ntypx) = 10
     Max number of k-points (npk) =  40000
     Max angular momentum in pseudopotentials (lmaxx) =  3
     Presently no symmetry can be used with electric field

     Message from routine cell_base_init:
     DEPRECATED: use true lattice parameter, not A to a.u. conversion factor

     IMPORTANT: XC functional enforced from input :
     Exchange-correlation= BEEF-VDW
                           (   1   4  43  14   2   0   0)
     Any further DFT definition will be discarded
     Please, verify this is what you really want

  @ DRIVER MODE: Connecting to
 qe_1139763_2971668.sched-torque.pace.gatech.educz4b_j3q_scratch
  using UNIX socket
  @ DRIVER MODE: Message from server: STATUS
  @ DRIVER MODE: Message from server: INIT
  @ DRIVER MODE: Receiving replica           0          -1
  @ DRIVER MODE: Receiving encoded integer          25
  @ DRIVER MODE:  SCF:  T  FORCE:  T  STRESS:  F  VC:  F  ENSEMBLE:  F
  @ DRIVER MODE:  SCF:  T  FORCE:  T  STRESS:  F  VC:  F  ENSEMBLE:  F

     Using Slab Decomposition

     bravais-lattice index     =            0
     lattice parameter (alat)  =       1.8897  a.u.
     unit-cell volume          =    6658.9804 (a.u.)^3
     number of atoms/cell      =           57
     number of atomic types    =            5
     number of electrons       =       409.00
     number of Kohn-Sham states=          214
     kinetic-energy cutoff     =      29.3995  Ry
     charge density cutoff     =     293.9946  Ry
     scf convergence threshold =      7.3E-08
     mixing beta               =       0.0500
     number of iterations used =            8  plain     mixing
     Exchange-correlation= BEEF-VDW
                           (   1   4  43  14   2   0   0)

     celldm(1)=   1.889726  celldm(2)=   0.000000  celldm(3)=   0.000000
     celldm(4)=   0.000000  celldm(5)=   0.000000  celldm(6)=   0.000000

     crystal axes: (cart. coord. in units of alat)
               a(1) = (   6.579727   0.000000   0.000000 )
               a(2) = (  -0.000775   5.961596   0.000000 )
               a(3) = (   0.000000   0.000000  25.155947 )

     reciprocal axes: (cart. coord. in units 2 pi/alat)
               b(1) = (  0.151982  0.000020  0.000000 )
               b(2) = (  0.000000  0.167740  0.000000 )
               b(3) = (  0.000000  0.000000  0.039752 )

     PseudoPot. # 1 for Ti read from file:
     /storage/coda1/p-amedford6/0/shared/rich_project_chbe-medford/medford-share/data/pseudos_module/espresso/nninc/pbe/van/Ti.UPF
     MD5 check sum: 8e4df49b7f0d34bbd5052bf3f5ea0213
     Pseudo is Ultrasoft, Zval = 12.0
     Generated by new atomic code, or converted to UPF format
     Using radial grid of  851 points,  6 beta functions with:
                l(1) =   0
                l(2) =   0
                l(3) =   1
                l(4) =   1
                l(5) =   2
                l(6) =   2
     Q(r) pseudized with  8 coefficients,  rinner =    1.000   1.000   1.000
                                                       1.000   1.000

     PseudoPot. # 2 for O  read from file:
     /storage/coda1/p-amedford6/0/shared/rich_project_chbe-medford/medford-share/data/pseudos_module/espresso/nninc/pbe/van/O.UPF
     MD5 check sum: 78c19812648e8988a0fe644b0f25305e
     Pseudo is Ultrasoft, Zval =  6.0
     Generated by new atomic code, or converted to UPF format
     Using radial grid of  737 points,  4 beta functions with:
                l(1) =   0
                l(2) =   0
                l(3) =   1
                l(4) =   1
     Q(r) pseudized with  8 coefficients,  rinner =    0.800   0.800   0.800

     PseudoPot. # 3 for C  read from file:
     /storage/coda1/p-amedford6/0/shared/rich_project_chbe-medford/medford-share/data/pseudos_module/espresso/nninc/pbe/van/C.UPF
     MD5 check sum: 1a69bf6b8db32088f5b2163dbdb77a27
     Pseudo is Ultrasoft, Zval =  4.0
     Generated by new atomic code, or converted to UPF format
     Using radial grid of  721 points,  4 beta functions with:
                l(1) =   0
                l(2) =   0
                l(3) =   1
                l(4) =   1
     Q(r) pseudized with  8 coefficients,  rinner =    0.800   0.800   0.800

     PseudoPot. # 4 for H  read from file:
     /storage/coda1/p-amedford6/0/shared/rich_project_chbe-medford/medford-share/data/pseudos_module/espresso/nninc/pbe/van/H.UPF
     MD5 check sum: b5ee9d7bfd3a09ee7748110bda690ff7
     Pseudo is Ultrasoft, Zval =  1.0
     Generated by new atomic code, or converted to UPF format
     Using radial grid of  615 points,  1 beta functions with:
                l(1) =   0
     Q(r) pseudized with  8 coefficients,  rinner =    0.800

     PseudoPot. # 5 for N  read from file:
     /storage/coda1/p-amedford6/0/shared/rich_project_chbe-medford/medford-share/data/pseudos_module/espresso/nninc/pbe/van/N.UPF
     MD5 check sum: 90d10febe142ad51ac9d5be1deb811c4
     Pseudo is Ultrasoft, Zval =  5.0
     Generated by new atomic code, or converted to UPF format
     Using radial grid of  729 points,  4 beta functions with:
                l(1) =   0
                l(2) =   0
                l(3) =   1
                l(4) =   1
     Q(r) pseudized with  8 coefficients,  rinner =    0.800   0.800   0.800

     atomic species   valence    mass     pseudopotential
        Ti1           12.00    47.86700     Ti( 1.00)
        O1             6.00    15.99900     O ( 1.00)
        C1             4.00    12.01100     C ( 1.00)
        H1             1.00     1.00800     H ( 1.00)
        N1             5.00    14.00700     N ( 1.00)

     No symmetry found

   Cartesian axes

     site n.     atom                  positions (alat units)
         1           Ti1 tau(   1) = (   0.0004258   2.9801865   6.0000000  )
         2           Ti1 tau(   2) = (   3.2906075   1.4906267   6.0002472  )
         3           O1  tau(   3) = (   0.0006271   0.0005054   7.9858123  )
         4           O1  tau(   4) = (   3.2906025   0.0005020   7.3038282  )
         5           O1  tau(   5) = (   4.5942328   1.4918067   9.2879030  )
         6           O1  tau(   6) = (   1.9868534   1.4903216   9.2879459  )
         7           Ti1 tau(   7) = (   3.3371032   3.0268772   9.1887580  )
         8           Ti1 tau(   8) = (   0.0611061   1.5258697   9.2809523  )
         9           O1  tau(   9) = (   3.3143856   0.0188946  11.3581724  )
        10           O1  tau(  10) = (   0.0164151   0.0031400  10.5895864  )
        11           O1  tau(  11) = (   1.3088961   1.4994640  12.6347600  )
        12           O1  tau(  12) = (   5.3347766   1.4946156  12.6347356  )
        13           Ti1 tau(  13) = (   0.0202478   3.0292801  12.5720800  )
        14           Ti1 tau(  14) = (   3.3188568   1.5851219  12.4260843  )
        15           O1  tau(  15) = (   0.0445434   5.9450813  14.6510506  )
        16           O1  tau(  16) = (   3.3207065   5.8849141  14.0104376  )
        17           O1  tau(  17) = (   4.6249962   1.5116716  16.1313945  )
        18           O1  tau(  18) = (   2.0639035   1.5439872  16.0680944  )
        19           Ti1 tau(  19) = (   3.3360141   2.9454253  15.6763505  )
        20           Ti1 tau(  20) = (   0.0686920   1.3314864  15.9334539  )
        21           O1  tau(  21) = (   3.2904802   0.0005063   4.7018136  )
        22           O1  tau(  22) = (   0.0979609   0.0039778  17.1657837  )
        23           O1  tau(  23) = (   1.3043587   1.4918075   6.0039043  )
        24           O1  tau(  24) = (   5.2767064   1.4903225   6.0039473  )
        25           Ti1 tau(  25) = (   0.0000382   5.9609847   6.0000000  )
        26           Ti1 tau(  26) = (   3.2902200   4.4714249   6.0002472  )
        27           O1  tau(  27) = (   0.0002396   2.9813036   7.9858123  )
        28           O1  tau(  28) = (   3.2902150   2.9813002   7.3038282  )
        29           O1  tau(  29) = (   4.5938453   4.4726049   9.2879030  )
        30           O1  tau(  30) = (   1.9864658   4.4711199   9.2879459  )
        31           Ti1 tau(  31) = (   3.3368545   0.0404040   9.1664313  )
        32           Ti1 tau(  32) = (   0.0604674   4.4799263   9.2696248  )
        33           O1  tau(  33) = (   3.3137611   2.9662427  11.3084074  )
        34           O1  tau(  34) = (   0.0134136   2.9850836  10.6046154  )
        35           O1  tau(  35) = (   1.3054726   4.4719986  12.6384794  )
        36           O1  tau(  36) = (   5.3362180   4.4781181  12.6390536  )
        37           Ti1 tau(  37) = (   0.0365240   0.0487139  12.4702884  )
        38           Ti1 tau(  38) = (   3.3180881   4.6653017  12.7087268  )
        39           O1  tau(  39) = (   0.0228105   2.9918545  14.7761892  )
        40           O1  tau(  40) = (   3.3431522   2.9700269  13.9040455  )
        41           O1  tau(  41) = (   4.6265974   4.4152401  16.1544535  )
        42           O1  tau(  42) = (   2.0571238   4.3592187  16.1146037  )
        43           Ti1 tau(  43) = (   3.3848590   5.9294639  16.2700006  )
        44           Ti1 tau(  44) = (   0.0517009   4.5268197  15.8466567  )
        45           O1  tau(  45) = (   3.2900926   2.9813045   4.7018136  )
        46           O1  tau(  46) = (   1.3039711   4.4726057   6.0039043  )
        47           O1  tau(  47) = (   5.2763189   4.4711207   6.0039473  )
        48           C1  tau(  48) = (   5.9450987   3.0517216  18.8599509  )
        49           O1  tau(  49) = (   0.1802289   3.0084098  17.6484507  )
        50           H1  tau(  50) = (   4.9625852   2.6832861  18.5889656  )
        51           H1  tau(  51) = (   1.1163247   3.1442434  17.8758057  )
        52           H1  tau(  52) = (   6.3899442   2.3914015  19.6026461  )
        53           H1  tau(  53) = (   5.8846647   4.0795385  19.2151274  )
        54           N1  tau(  54) = (   5.7598779   3.1323611  22.9045362  )
        55           N1  tau(  55) = (   4.9845974   3.1850264  22.1203839  )
        56           O1  tau(  56) = (   3.1367188   0.0118795  18.1166202  )
        57           H1  tau(  57) = (   2.2164505   0.0865285  18.3868412  )

     number of k points=    10  Fermi-Dirac smearing, width (Ry)=  0.0073
                       cart. coord. in units 2pi/alat
        k(    1) = (   0.0000000   0.0000000   0.0000000), wk =   0.1250000
        k(    2) = (   0.0000000   0.0419351   0.0000000), wk =   0.2500000
        k(    3) = (   0.0000000  -0.0838702   0.0000000), wk =   0.1250000
        k(    4) = (   0.0379955   0.0000049   0.0000000), wk =   0.2500000
        k(    5) = (   0.0379955   0.0419400   0.0000000), wk =   0.2500000
        k(    6) = (   0.0379955  -0.0838652   0.0000000), wk =   0.2500000
        k(    7) = (   0.0379955  -0.0419301   0.0000000), wk =   0.2500000
        k(    8) = (  -0.0759910  -0.0000099   0.0000000), wk =   0.1250000
        k(    9) = (  -0.0759910   0.0419252   0.0000000), wk =   0.2500000
        k(   10) = (  -0.0759910  -0.0838800   0.0000000), wk =   0.1250000

     Initial potential from superposition of free atoms

     starting charge  392.99914, renormalised to  409.00000

     negative rho (up, down):  9.139E-03 0.000E+00

     %%%%%%%%%%%%%%%%%%%%%%%%%%%%%%%%%%%%%%%%%%%%%%%%%%%%%%%%%%%%%%%%%%%%%%%%
     %                                                                      %
     % You are using vdW-DF, which was implemented by the Thonhauser group. %
     % Please cite the following two papers that made this development      %
     % possible and the two reviews that describe the various versions:     %
     %                                                                      %
     %   T. Thonhauser et al., PRL 115, 136402 (2015).                      %
     %   T. Thonhauser et al., PRB 76, 125112 (2007).                       %
     %   K. Berland et al., Rep. Prog. Phys. 78, 066501 (2015).             %
     %   D.C. Langreth et al., J. Phys.: Condens. Matter 21, 084203 (2009). %
     %                                                                      %
     %                                                                      %
     % If you are calculating the stress with vdW-DF, please also cite:     %
     %                                                                      %
     %   R. Sabatini et al., J. Phys.: Condens. Matter 24, 424209 (2012).   %
     %                                                                      %
     %%%%%%%%%%%%%%%%%%%%%%%%%%%%%%%%%%%%%%%%%%%%%%%%%%%%%%%%%%%%%%%%%%%%%%%%

     Adding external electric field

     Computed dipole along edir(3) :
        Dipole              -18.8687 Ry au,        -47.9594 Debye
        Dipole field         -0.0356 Ry au,

        Potential amp.        3.3008 Ry
        Total length         46.3494 bohr

     Starting wfcs are  309 atomic wfcs
  @ DRIVER MODE: Message from server: STATUS
  @ DRIVER MODE: Message from server: POSDATA
  @ DRIVER MODE: Reading and sharing cell
  @ DRIVER MODE: Reading and sharing positions
  @ DRIVER MODE: Received positions

     Self-consistent Calculation

     iteration #  1     ecut=    29.40 Ry     beta= 0.05
     Davidson diagonalization with overlap
     c_bands:  5 eigenvalues not converged
     c_bands:  5 eigenvalues not converged
     c_bands:  1 eigenvalues not converged
     c_bands:  4 eigenvalues not converged
     c_bands:  1 eigenvalues not converged
     c_bands:  3 eigenvalues not converged
     ethr =  1.00E-05,  avg # of iterations = 27.3

[...]

     total energy              =   -2113.16279964 Ry
     estimated scf accuracy    <   10331.07211552 Ry

     iteration #  2     ecut=    29.40 Ry     beta= 0.05
     Davidson diagonalization with overlap
     ethr =  1.00E-02,  avg # of iterations = 29.6

[...]

     iteration # 67     ecut=    29.40 Ry     beta= 0.05
     Davidson diagonalization with overlap
     c_bands:  1 eigenvalues not converged
     c_bands:  1 eigenvalues not converged
     ethr =  2.20E-06,  avg # of iterations = 12.7

[...]

     total energy              =   -3006.45815387 Ry
     estimated scf accuracy    <       0.00000009 Ry

     iteration #100     ecut=    29.40 Ry     beta= 0.05
     Davidson diagonalization with overlap
     ethr =  2.26E-11,  avg # of iterations =  7.3

     negative rho (up, down):  1.064E-02 0.000E+00

     Adding external electric field

     Computed dipole along edir(3) :
        Dipole                1.0491 Ry au,          2.6665 Debye
        Dipole field          0.0020 Ry au,

        Potential amp.       -0.1835 Ry
        Total length         46.3494 bohr

     End of self-consistent calculation

          k = 0.0000 0.0000 0.0000 ( 18029 PWs)   bands (ev):

   -55.3323 -55.2547 -55.2194 -55.1449 -55.1225 -55.0884 -55.0526 -55.0471
   -55.0456 -55.0269 -55.0171 -54.9869 -54.9005 -54.8248 -54.2144 -54.1804
   -31.7327 -31.7231 -31.6381 -31.6245 -31.5854 -31.5703 -31.5461 -31.5439
   -31.5088 -31.4975 -31.4861 -31.4206 -31.4085 -31.4083 -31.3812 -31.3629
   -31.3548 -31.3376 -31.3358 -31.3246 -31.3179 -31.3134 -31.2672 -31.2649
   -31.2633 -31.2567 -31.2537 -31.2410 -31.2343 -31.2153 -31.2091 -31.1985
   -31.1969 -31.1768 -31.1726 -31.1645 -31.1621 -31.1291 -31.0892 -31.0702
   -31.0390 -31.0286 -30.6205 -30.5343 -30.5117 -30.4375 -30.3512 -30.2396
   -21.5049 -19.7110 -16.1834 -15.9084 -15.7286 -15.5261 -15.4688 -15.4025
   -15.2149 -15.1415 -14.9857 -14.8597 -14.8465 -14.7892 -14.7865 -14.7781
   -14.7488 -14.7242 -14.6789 -14.6675 -14.6622 -14.6586 -14.5968 -14.5544
   -14.5513 -14.5247 -14.5043 -14.3770 -14.3298 -14.2754 -14.1061 -14.0819
   -12.7140 -12.5978 -10.5720  -6.6847  -6.4087  -4.6667  -4.6287  -4.5905
    -4.4081  -3.6771  -3.3689  -3.2559  -3.1556  -3.1369  -3.0718  -3.0213
    -2.8066  -2.6993  -2.6370  -2.5245  -2.3974  -2.3609  -2.3082  -2.2789
    -2.1871  -2.1689  -2.1371  -2.1072  -2.0516  -2.0242  -2.0168  -2.0034
    -1.9280  -1.9214  -1.7922  -1.7867  -1.7294  -1.6383  -1.6204  -1.5975
    -1.5903  -1.5562  -1.5536  -1.5114  -1.4875  -1.4636  -1.4349  -1.3599
    -1.3413  -1.2778  -1.2403  -1.0076  -0.8534  -0.8289  -0.7481  -0.7323
    -0.7011  -0.6718  -0.6524  -0.6402  -0.6045  -0.5892  -0.4840  -0.3813
    -0.3719  -0.3127  -0.2746  -0.2704  -0.1354  -0.0886  -0.0164   0.0066
     0.0393   0.0604   0.1444   0.1928   0.2138   0.2811   0.3137   0.4181
     0.4548   0.4747   0.5157   0.5715   0.6317   0.6669   0.7050   0.7085
     0.7411   0.7903   0.8210   0.8545   0.8775   0.9238   1.0266   1.0644
     1.0747   1.2166   1.2275   1.3093   1.4331   1.4853   1.7580   1.8106
     1.8573   2.0029   2.3794   2.4263   3.8693   3.9718   3.9929   4.0142
     4.0820   4.1638   4.3292   4.3528   4.4179   4.5476

[...]

          k = 0.0380-0.0419 0.0000 ( 17876 PWs)   bands (ev):

[...]

          k =-0.0760-0.0000 0.0000 ( 17886 PWs)   bands (ev):

[...]

          k =-0.0760-0.0839 0.0000 ( 17948 PWs)   bands (ev):

   -55.3315 -55.2416 -55.2324 -55.1389 -55.1181 -55.0942 -55.0508 -55.0468
   -55.0387 -55.0304 -55.0179 -54.9961 -54.8968 -54.8285 -54.1976 -54.1971
   -31.6427 -31.5817 -31.5719 -31.5526 -31.5437 -31.5437 -31.5378 -31.5218
   -31.4592 -31.4549 -31.4158 -31.3939 -31.3830 -31.3777 -31.3615 -31.3588
   -31.3557 -31.3531 -31.3469 -31.3408 -31.3358 -31.3340 -31.3187 -31.3170
   -31.2973 -31.2871 -31.2569 -31.2505 -31.2485 -31.2443 -31.2364 -31.2346
   -31.2284 -31.2236 -31.2199 -31.2154 -31.2129 -31.1752 -31.1563 -31.0933
   -31.0762 -31.0325 -30.5246 -30.5243 -30.4343 -30.4328 -30.3945 -30.3936
   -21.5048 -19.7073 -16.1636 -15.5362 -15.3801 -15.2092 -15.1954 -15.1162
   -15.0245 -15.0066 -14.9768 -14.9632 -14.9456 -14.9214 -14.9128 -14.8765
   -14.8151 -14.7731 -14.7500 -14.7417 -14.6947 -14.6895 -14.6860 -14.6233
   -14.6160 -14.5978 -14.5732 -14.5133 -14.5038 -14.4039 -14.3867 -14.2176
   -12.7001 -12.6992 -10.5740  -6.6850  -6.4106  -4.6621  -4.6355  -4.5782
    -4.4005  -3.6435  -3.3593  -2.6847  -2.6005  -2.5364  -2.4329  -2.3547
    -2.3007  -2.2511  -2.2302  -2.1852  -2.1641  -2.0947  -2.0599  -2.0510
    -2.0319  -2.0297  -1.9990  -1.9836  -1.9707  -1.9497  -1.9214  -1.9041
    -1.8936  -1.8726  -1.8528  -1.8269  -1.8148  -1.8050  -1.7900  -1.7742
    -1.6628  -1.6459  -1.6136  -1.4509  -1.4396  -1.3705  -1.3389  -1.3124
    -1.3086  -1.2783  -1.2631  -1.2209  -1.1151  -1.0875  -1.0379  -0.9967
    -0.9034  -0.8885  -0.8373  -0.7861  -0.7408  -0.7119  -0.6814  -0.6665
    -0.6127  -0.4745  -0.4535  -0.4081  -0.2890  -0.2160  -0.2005  -0.1879
    -0.1659  -0.1430  -0.0961  -0.0883  -0.0264  -0.0130   0.0578   0.0620
     0.0901   0.1115   0.2140   0.3365   0.4148   0.4588   0.5037   0.5530
     0.5877   0.6721   0.7456   0.8319   0.9083   0.9373   0.9510   1.0686
     1.1018   1.1544   1.2003   1.2198   1.2781   1.3136   1.3541   1.3872
     2.1716   2.1853   2.2416   2.2473   4.0499   4.2999   4.3600   4.3771
     4.3867   4.4191   4.4403   4.4922   4.5089   4.5321

     the Fermi energy is     3.8794 ev

!    total energy              =   -3006.45815580 Ry
     estimated scf accuracy    <       0.00000005 Ry
     smearing contrib. (-TS)   =      -0.02082358 Ry
     internal energy E=F+TS    =   -3006.43733221 Ry

     The total energy is F=E-TS. E is the sum of the following terms:
     one-electron contribution =  -22317.84889400 Ry
     hartree contribution      =   11258.43413462 Ry
     xc contribution           =    -501.15413005 Ry
     ewald contribution        =    8554.12948024 Ry
     electric field correction =       0.00207698 Ry

     convergence has been achieved in 100 iterations

     Forces acting on atoms (cartesian axes, Ry/au):

     atom    1 type  1   force =    -0.00037829   -0.00016931    0.09496360
     atom    2 type  1   force =    -0.00035156    0.00513094   -0.17483617
     atom    3 type  2   force =     0.00070700    0.00013142   -0.02673917
     atom    4 type  2   force =     0.00129087    0.00083441    0.05207623
     atom    5 type  2   force =    -0.01096909   -0.00255893    0.00078007
     atom    6 type  2   force =     0.01194533   -0.00380847    0.00179193
     atom    7 type  1   force =    -0.00021777    0.00039449    0.00067974
     atom    8 type  1   force =     0.00012852    0.00022671    0.00017619
     atom    9 type  2   force =     0.00025125    0.00073534   -0.00063296
     atom   10 type  2   force =    -0.00039175    0.00015958    0.00013977
     atom   11 type  2   force =     0.00045294   -0.00015231    0.00009909
     atom   12 type  2   force =    -0.00086755   -0.00015297    0.00035709
     atom   13 type  1   force =     0.00043906    0.00034910   -0.00018734
     atom   14 type  1   force =    -0.00034459   -0.00065291    0.00093153
     atom   15 type  2   force =    -0.00015242   -0.00054852   -0.00103336
     atom   16 type  2   force =    -0.00029568    0.00002894    0.00005475
     atom   17 type  2   force =    -0.00110862    0.00014116    0.00023867
     atom   18 type  2   force =     0.00048259    0.00085826   -0.00035584
     atom   19 type  1   force =    -0.00001210   -0.00081584    0.00021505
     atom   20 type  1   force =    -0.00004523    0.00000040    0.00053498
     atom   21 type  2   force =    -0.00000325    0.00007450    0.10302239
     atom   22 type  2   force =    -0.00024224   -0.00011349    0.00075598
     atom   23 type  2   force =    -0.07196482    0.00013909   -0.02802642
     atom   24 type  2   force =     0.07179846    0.00063510   -0.02813218
     atom   25 type  1   force =    -0.00036475    0.00025989    0.10242592
     atom   26 type  1   force =    -0.00010991   -0.00474989   -0.17506782
     atom   27 type  2   force =     0.00084791    0.00116827   -0.02485630
     atom   28 type  2   force =     0.00119623    0.00025350    0.05170605
     atom   29 type  2   force =    -0.01193078    0.00381389    0.00172457
     atom   30 type  2   force =     0.01377502    0.00146386    0.00245818
     atom   31 type  1   force =    -0.00028970   -0.00016365    0.00080752
     atom   32 type  1   force =     0.00027434    0.00028680    0.00060294
     atom   33 type  2   force =     0.00000511    0.00020740    0.00011127
     atom   34 type  2   force =    -0.00027380   -0.00032613   -0.00056792
     atom   35 type  2   force =    -0.00020751    0.00004820   -0.00047777
     atom   36 type  2   force =    -0.00040815    0.00009502   -0.00009311
     atom   37 type  1   force =    -0.00003776   -0.00033740    0.00006485
     atom   38 type  1   force =    -0.00058064    0.00019849   -0.00006003
     atom   39 type  2   force =    -0.00029552   -0.00024409    0.00073544
     atom   40 type  2   force =    -0.00018372    0.00012484    0.00025009
     atom   41 type  2   force =    -0.00151736   -0.00011744    0.00018065
     atom   42 type  2   force =     0.00106738   -0.00032165   -0.00080463
     atom   43 type  1   force =    -0.00085995    0.00058346    0.00110267
     atom   44 type  1   force =     0.00010870    0.00020534    0.00019885
     atom   45 type  2   force =     0.00000199    0.00013926    0.10261285
     atom   46 type  2   force =    -0.07185755   -0.00062853   -0.02797395
     atom   47 type  2   force =     0.07171522   -0.00013735   -0.02804826
     atom   48 type  3   force =    -0.00031286   -0.00015554    0.00000782
     atom   49 type  2   force =    -0.00122078   -0.00077800    0.00018505
     atom   50 type  4   force =    -0.00007736   -0.00044117   -0.00020207
     atom   51 type  4   force =     0.00037445    0.00040228   -0.00065668
     atom   52 type  4   force =    -0.00020103    0.00009752   -0.00046511
     atom   53 type  4   force =    -0.00000939   -0.00040539   -0.00105719
     atom   54 type  5   force =     0.00015188   -0.00008002    0.00037245
     atom   55 type  5   force =    -0.00050286    0.00006510   -0.00032275
     atom   56 type  2   force =     0.01972600   -0.00203657   -0.00568892
     atom   57 type  4   force =    -0.01815387    0.00064302    0.00392171

     Total force =     0.365886     Total SCF correction =     0.000561
  @ DRIVER MODE: Message from server: STATUS
  @ DRIVER MODE: Message from server: GETFORCE
  @ DRIVER MODE: Returning v,forces,stress,ensemble

     Writing output data file ./calc.save/
  @ DRIVER MODE: Message from server: EXIT
  @ DRIVE MODE: Exiting

     General routines

     Parallel routines

   This run was terminated on:  20:37:44  26Sep2021

   JOB DONE.