     Program PWSCF v.6.7GPU starts on  9Sep2021 at 15:50:42

     R & G space division:  proc/nbgrp/npool/nimage =      10
     Reading input from /storage/home/hcoda1/3/ntian30/research/carbon/CxH_vib/CH3_calc/ads_slab/CH3NH2NH_c/out_0053/pw.inp
Warning: card &CELL ignored
Warning: card   CELL_DYNAMICS='IPI', ignored
Warning: card / ignored

     Current dimensions of program PWSCF are:
     Max number of different atomic species (ntypx) = 10
     Max number of k-points (npk) =  40000
     Max angular momentum in pseudopotentials (lmaxx) =  3
     Presently no symmetry can be used with electric field

     Message from routine cell_base_init:
     DEPRECATED: use true lattice parameter, not A to a.u. conversion factor

     IMPORTANT: XC functional enforced from input :
     Exchange-correlation= BEEF-VDW
                           (   1   4  43  14   2   0   0)
     Any further DFT definition will be discarded
     Please, verify this is what you really want

  @ DRIVER MODE: Connecting to
 qe_1139763_2767400.sched-torque.pace.gatech.edugr0csbrp_scratch
  using UNIX socket
  @ DRIVER MODE: Message from server: STATUS
  @ DRIVER MODE: Message from server: INIT
  @ DRIVER MODE: Receiving replica           0          -1
  @ DRIVER MODE: Receiving encoded integer          25
  @ DRIVER MODE:  SCF:  T  FORCE:  T  STRESS:  F  VC:  F  ENSEMBLE:  F
  @ DRIVER MODE:  SCF:  T  FORCE:  T  STRESS:  F  VC:  F  ENSEMBLE:  F

     Using Slab Decomposition

     bravais-lattice index     =            0
     lattice parameter (alat)  =       1.8897  a.u.
     unit-cell volume          =    6658.9804 (a.u.)^3
     number of atoms/cell      =           56
     number of atomic types    =            5
     number of electrons       =       398.00
     number of Kohn-Sham states=          209
     kinetic-energy cutoff     =      29.3995  Ry
     charge density cutoff     =     293.9946  Ry
     scf convergence threshold =      7.3E-08
     mixing beta               =       0.0500
     number of iterations used =            8  plain     mixing
     Exchange-correlation= BEEF-VDW
                           (   1   4  43  14   2   0   0)

     celldm(1)=   1.889726  celldm(2)=   0.000000  celldm(3)=   0.000000
     celldm(4)=   0.000000  celldm(5)=   0.000000  celldm(6)=   0.000000

     crystal axes: (cart. coord. in units of alat)
               a(1) = (   6.579727   0.000000   0.000000 )
               a(2) = (  -0.000775   5.961596   0.000000 )
               a(3) = (   0.000000   0.000000  25.155947 )

     reciprocal axes: (cart. coord. in units 2 pi/alat)
               b(1) = (  0.151982  0.000020  0.000000 )
               b(2) = (  0.000000  0.167740  0.000000 )
               b(3) = (  0.000000  0.000000  0.039752 )

     PseudoPot. # 1 for Ti read from file:
     /storage/coda1/p-amedford6/0/shared/rich_project_chbe-medford/medford-share/data/pseudos_module/espresso/nninc/pbe/van/Ti.UPF
     MD5 check sum: 8e4df49b7f0d34bbd5052bf3f5ea0213
     Pseudo is Ultrasoft, Zval = 12.0
     Generated by new atomic code, or converted to UPF format
     Using radial grid of  851 points,  6 beta functions with:
                l(1) =   0
                l(2) =   0
                l(3) =   1
                l(4) =   1
                l(5) =   2
                l(6) =   2
     Q(r) pseudized with  8 coefficients,  rinner =    1.000   1.000   1.000
                                                       1.000   1.000

     PseudoPot. # 2 for O  read from file:
     /storage/coda1/p-amedford6/0/shared/rich_project_chbe-medford/medford-share/data/pseudos_module/espresso/nninc/pbe/van/O.UPF
     MD5 check sum: 78c19812648e8988a0fe644b0f25305e
     Pseudo is Ultrasoft, Zval =  6.0
     Generated by new atomic code, or converted to UPF format
     Using radial grid of  737 points,  4 beta functions with:
                l(1) =   0
                l(2) =   0
                l(3) =   1
                l(4) =   1
     Q(r) pseudized with  8 coefficients,  rinner =    0.800   0.800   0.800

     PseudoPot. # 3 for N  read from file:
     /storage/coda1/p-amedford6/0/shared/rich_project_chbe-medford/medford-share/data/pseudos_module/espresso/nninc/pbe/van/N.UPF
     MD5 check sum: 90d10febe142ad51ac9d5be1deb811c4
     Pseudo is Ultrasoft, Zval =  5.0
     Generated by new atomic code, or converted to UPF format
     Using radial grid of  729 points,  4 beta functions with:
                l(1) =   0
                l(2) =   0
                l(3) =   1
                l(4) =   1
     Q(r) pseudized with  8 coefficients,  rinner =    0.800   0.800   0.800

     PseudoPot. # 4 for C  read from file:
     /storage/coda1/p-amedford6/0/shared/rich_project_chbe-medford/medford-share/data/pseudos_module/espresso/nninc/pbe/van/C.UPF
     MD5 check sum: 1a69bf6b8db32088f5b2163dbdb77a27
     Pseudo is Ultrasoft, Zval =  4.0
     Generated by new atomic code, or converted to UPF format
     Using radial grid of  721 points,  4 beta functions with:
                l(1) =   0
                l(2) =   0
                l(3) =   1
                l(4) =   1
     Q(r) pseudized with  8 coefficients,  rinner =    0.800   0.800   0.800

     PseudoPot. # 5 for H  read from file:
     /storage/coda1/p-amedford6/0/shared/rich_project_chbe-medford/medford-share/data/pseudos_module/espresso/nninc/pbe/van/H.UPF
     MD5 check sum: b5ee9d7bfd3a09ee7748110bda690ff7
     Pseudo is Ultrasoft, Zval =  1.0
     Generated by new atomic code, or converted to UPF format
     Using radial grid of  615 points,  1 beta functions with:
                l(1) =   0
     Q(r) pseudized with  8 coefficients,  rinner =    0.800

     atomic species   valence    mass     pseudopotential
        Ti1           12.00    47.86700     Ti( 1.00)
        O1             6.00    15.99900     O ( 1.00)
        N1             5.00    14.00700     N ( 1.00)
        C1             4.00    12.01100     C ( 1.00)
        H1             1.00     1.00800     H ( 1.00)

     No symmetry found

   Cartesian axes

     site n.     atom                  positions (alat units)
         1           Ti1 tau(   1) = (   0.0004258   2.9801865   6.0000000  )
         2           Ti1 tau(   2) = (   3.2906075   1.4906267   6.0002472  )
         3           O1  tau(   3) = (   0.0006271   0.0005054   7.9858123  )
         4           O1  tau(   4) = (   3.2906025   0.0005020   7.3038282  )
         5           O1  tau(   5) = (   4.5942328   1.4918067   9.2879030  )
         6           O1  tau(   6) = (   1.9868534   1.4903216   9.2879459  )
         7           Ti1 tau(   7) = (   3.2907910   2.8959150   9.1758416  )
         8           Ti1 tau(   8) = (   0.0015273   1.4827037   9.2680791  )
         9           O1  tau(   9) = (   3.3032705   0.0110091  11.3485381  )
        10           O1  tau(  10) = (   0.0116148   5.9584955  10.6183126  )
        11           O1  tau(  11) = (   1.3020657   1.4959176  12.6398190  )
        12           O1  tau(  12) = (   5.2896457   1.4919019  12.6612249  )
        13           Ti1 tau(  13) = (   0.0353884   3.0012823  12.5523301  )
        14           Ti1 tau(  14) = (   3.3275346   1.5008247  12.4978572  )
        15           O1  tau(  15) = (   0.0424128   0.0047235  14.7277795  )
        16           O1  tau(  16) = (   3.2762846   0.0047332  13.9819514  )
        17           O1  tau(  17) = (   4.5591522   1.5298593  16.0930730  )
        18           O1  tau(  18) = (   2.0612242   1.5646392  16.2256692  )
        19           Ti1 tau(  19) = (   3.3170857   3.0293758  15.7013767  )
        20           Ti1 tau(  20) = (   6.5267591   1.5471840  15.7818195  )
        21           O1  tau(  21) = (   3.2904802   0.0005063   4.7018136  )
        22           O1  tau(  22) = (   0.0258072   0.0396315  17.3287798  )
        23           O1  tau(  23) = (   1.3043587   1.4918075   6.0039043  )
        24           O1  tau(  24) = (   5.2767064   1.4903225   6.0039473  )
        25           Ti1 tau(  25) = (   0.0000382   5.9609847   6.0000000  )
        26           Ti1 tau(  26) = (   3.2902200   4.4714249   6.0002472  )
        27           O1  tau(  27) = (   0.0002396   2.9813036   7.9858123  )
        28           O1  tau(  28) = (   3.2902150   2.9813002   7.3038282  )
        29           O1  tau(  29) = (   4.5938453   4.4726049   9.2879030  )
        30           O1  tau(  30) = (   1.9864658   4.4711199   9.2879459  )
        31           Ti1 tau(  31) = (   3.2891106   5.8743827   9.1763621  )
        32           Ti1 tau(  32) = (   0.0006254   4.4649316   9.2693709  )
        33           O1  tau(  33) = (   3.3047253   2.9863606  11.3412877  )
        34           O1  tau(  34) = (   0.0092240   2.9805883  10.6323155  )
        35           O1  tau(  35) = (   1.3023160   4.4818153  12.6295520  )
        36           O1  tau(  36) = (   5.2910779   4.4839738  12.6480862  )
        37           Ti1 tau(  37) = (   0.0306270   0.0097343  12.5156175  )
        38           Ti1 tau(  38) = (   3.3295341   4.4791655  12.4867326  )
        39           O1  tau(  39) = (   0.0319336   2.9935560  14.7343221  )
        40           O1  tau(  40) = (   3.2835893   3.0037955  13.9224844  )
        41           O1  tau(  41) = (   4.5669158   4.4809188  16.1713821  )
        42           O1  tau(  42) = (   2.0542530   4.4668402  16.2247519  )
        43           Ti1 tau(  43) = (   3.3000170   0.0150779  15.7669526  )
        44           Ti1 tau(  44) = (   0.0416703   4.6955124  16.1636639  )
        45           O1  tau(  45) = (   3.2900926   2.9813045   4.7018136  )
        46           O1  tau(  46) = (   1.3039711   4.4726057   6.0039043  )
        47           O1  tau(  47) = (   5.2763189   4.4711207   6.0039473  )
        48           N1  tau(  48) = (   0.9019483   2.4226080  18.4567899  )
        49           N1  tau(  49) = (   6.4923839   2.9153054  17.5348467  )
        50           C1  tau(  50) = (   1.2734633   3.3482217  19.5544901  )
        51           H1  tau(  51) = (   0.3921683   3.5464126  20.1615046  )
        52           H1  tau(  52) = (   2.0553077   2.8833093  20.1573268  )
        53           H1  tau(  53) = (   1.6239766   4.2728770  19.1044814  )
        54           H1  tau(  54) = (   0.5870980   1.4942747  18.7832689  )
        55           H1  tau(  55) = (   5.5983569   2.8486818  18.0159164  )
        56           H1  tau(  56) = (   1.7025450   2.1792920  17.8134971  )

     number of k points=    10  Fermi-Dirac smearing, width (Ry)=  0.0073
                       cart. coord. in units 2pi/alat
        k(    1) = (   0.0000000   0.0000000   0.0000000), wk =   0.1250000
        k(    2) = (   0.0000000   0.0419351   0.0000000), wk =   0.2500000
        k(    3) = (   0.0000000  -0.0838702   0.0000000), wk =   0.1250000
        k(    4) = (   0.0379955   0.0000049   0.0000000), wk =   0.2500000
        k(    5) = (   0.0379955   0.0419400   0.0000000), wk =   0.2500000
        k(    6) = (   0.0379955  -0.0838652   0.0000000), wk =   0.2500000
        k(    7) = (   0.0379955  -0.0419301   0.0000000), wk =   0.2500000
        k(    8) = (  -0.0759910  -0.0000099   0.0000000), wk =   0.1250000
        k(    9) = (  -0.0759910   0.0419252   0.0000000), wk =   0.2500000
        k(   10) = (  -0.0759910  -0.0838800   0.0000000), wk =   0.1250000

     Initial potential from superposition of free atoms

     starting charge  381.99914, renormalised to  398.00000

     negative rho (up, down):  1.484E-02 0.000E+00

     %%%%%%%%%%%%%%%%%%%%%%%%%%%%%%%%%%%%%%%%%%%%%%%%%%%%%%%%%%%%%%%%%%%%%%%%
     %                                                                      %
     % You are using vdW-DF, which was implemented by the Thonhauser group. %
     % Please cite the following two papers that made this development      %
     % possible and the two reviews that describe the various versions:     %
     %                                                                      %
     %   T. Thonhauser et al., PRL 115, 136402 (2015).                      %
     %   T. Thonhauser et al., PRB 76, 125112 (2007).                       %
     %   K. Berland et al., Rep. Prog. Phys. 78, 066501 (2015).             %
     %   D.C. Langreth et al., J. Phys.: Condens. Matter 21, 084203 (2009). %
     %                                                                      %
     %                                                                      %
     % If you are calculating the stress with vdW-DF, please also cite:     %
     %                                                                      %
     %   R. Sabatini et al., J. Phys.: Condens. Matter 24, 424209 (2012).   %
     %                                                                      %
     %%%%%%%%%%%%%%%%%%%%%%%%%%%%%%%%%%%%%%%%%%%%%%%%%%%%%%%%%%%%%%%%%%%%%%%%

     Adding external electric field

     Computed dipole along edir(3) :
        Dipole              -10.9098 Ry au,        -27.7300 Debye
        Dipole field         -0.0206 Ry au,

        Potential amp.        1.9085 Ry
        Total length         46.3494 bohr

     Starting wfcs are  302 atomic wfcs
  @ DRIVER MODE: Message from server: STATUS
  @ DRIVER MODE: Message from server: POSDATA
  @ DRIVER MODE: Reading and sharing cell
  @ DRIVER MODE: Reading and sharing positions
  @ DRIVER MODE: Received positions

     Self-consistent Calculation

     iteration #  1     ecut=    29.40 Ry     beta= 0.05
     Davidson diagonalization with overlap
     c_bands:  5 eigenvalues not converged
     c_bands:  3 eigenvalues not converged
     c_bands:  1 eigenvalues not converged
     c_bands:  2 eigenvalues not converged
     c_bands:  3 eigenvalues not converged
     c_bands:  4 eigenvalues not converged
     c_bands:  4 eigenvalues not converged
     ethr =  1.00E-05,  avg # of iterations = 24.3

[...]

     total energy              =   -2445.36943675 Ry
     estimated scf accuracy    <    5568.54384730 Ry

     iteration #  2     ecut=    29.40 Ry     beta= 0.05
     Davidson diagonalization with overlap
     ethr =  1.00E-02,  avg # of iterations = 22.4

[...]

     iteration # 60     ecut=    29.40 Ry     beta= 0.05
     Davidson diagonalization with overlap
     c_bands:  1 eigenvalues not converged
     c_bands:  1 eigenvalues not converged
     ethr =  2.09E-11,  avg # of iterations = 13.7

[...]

     total energy              =   -2942.84146974 Ry
     estimated scf accuracy    <       0.00000011 Ry

     iteration # 62     ecut=    29.40 Ry     beta= 0.05
     Davidson diagonalization with overlap
     ethr =  2.09E-11,  avg # of iterations =  8.9

     negative rho (up, down):  1.052E-02 0.000E+00

     Adding external electric field

     Computed dipole along edir(3) :
        Dipole                1.5820 Ry au,          4.0210 Debye
        Dipole field          0.0030 Ry au,

        Potential amp.       -0.2767 Ry
        Total length         46.3494 bohr

     End of self-consistent calculation

          k = 0.0000 0.0000 0.0000 ( 18029 PWs)   bands (ev):

   -55.0894 -55.0540 -55.0502 -55.0199 -54.9666 -54.9641 -54.9266 -54.8899
   -54.8816 -54.8675 -54.8541 -54.8493 -54.8025 -54.7575 -54.0641 -54.0300
   -31.6633 -31.5434 -31.4535 -31.4239 -31.3847 -31.3803 -31.3785 -31.3488
   -31.3457 -31.3442 -31.3013 -31.2991 -31.2986 -31.2639 -31.2457 -31.2262
   -31.2065 -31.2027 -31.1934 -31.1917 -31.1650 -31.1476 -31.1461 -31.1201
   -31.1108 -31.0967 -31.0940 -31.0918 -31.0883 -31.0752 -31.0703 -31.0632
   -31.0505 -31.0398 -31.0217 -31.0132 -31.0056 -30.9997 -30.9955 -30.9895
   -30.9849 -30.9503 -30.4725 -30.3808 -30.3586 -30.2891 -30.2024 -30.0913
   -19.1394 -15.9328 -15.6590 -15.5362 -15.3246 -15.2750 -15.2023 -15.0068
   -14.9425 -14.8895 -14.8790 -14.8645 -14.8475 -14.7763 -14.6971 -14.6165
   -14.6139 -14.6075 -14.5981 -14.5785 -14.5713 -14.5087 -14.5015 -14.4695
   -14.4575 -14.4174 -14.3104 -14.2285 -14.1716 -14.0205 -13.3149 -12.5668
   -12.4498 -11.0886  -7.8632  -6.5335  -5.8532  -4.1070  -3.9349  -3.2775
    -3.0918  -3.0677  -3.0078  -2.9825  -2.8078  -2.7586  -2.5523  -2.4466
    -2.3593  -2.3205  -2.3080  -2.2914  -2.1413  -2.0735  -2.0397  -1.9918
    -1.9688  -1.9455  -1.9039  -1.8963  -1.8658  -1.8477  -1.8399  -1.6618
    -1.5861  -1.5373  -1.5078  -1.4693  -1.4198  -1.3911  -1.3731  -1.3684
    -1.3632  -1.3442  -1.3147  -1.2517  -1.2223  -1.1664  -1.0990  -1.0724
    -0.9825  -0.9021  -0.7130  -0.6683  -0.6497  -0.6134  -0.5533  -0.5048
    -0.4704  -0.4354  -0.4212  -0.3543  -0.2859  -0.2540  -0.1914  -0.1266
    -0.1164  -0.0528  -0.0455   0.1150   0.1275   0.1489   0.2385   0.3244
     0.3738   0.3818   0.4405   0.5147   0.5369   0.5460   0.5824   0.6035
     0.6801   0.7890   0.8138   0.8557   0.8672   0.9009   0.9239   0.9780
     1.0020   1.0652   1.0713   1.1754   1.2264   1.2572   1.5073   1.5405
     1.8710   1.9044   1.9583   2.1450   2.5322   2.5793   4.0188   4.0814
     4.0970   4.1444   4.1677   4.1871   4.2588   4.4795   4.5048   4.5110
     4.5184

[...]

          k = 0.0380-0.0419 0.0000 ( 17876 PWs)   bands (ev):

[...]

          k =-0.0760-0.0000 0.0000 ( 17886 PWs)   bands (ev):

[...]

          k =-0.0760-0.0839 0.0000 ( 17948 PWs)   bands (ev):

   -55.0773 -55.0621 -55.0370 -55.0367 -54.9636 -54.9530 -54.9376 -54.8728
   -54.8704 -54.8693 -54.8674 -54.8651 -54.7965 -54.7634 -54.0471 -54.0469
   -31.4710 -31.4613 -31.3988 -31.3587 -31.3584 -31.3574 -31.3298 -31.3294
   -31.2984 -31.2944 -31.2895 -31.2836 -31.2580 -31.2237 -31.2165 -31.2104
   -31.2084 -31.2046 -31.2038 -31.1950 -31.1630 -31.1619 -31.1582 -31.1562
   -31.1559 -31.1531 -31.1487 -31.1322 -31.1068 -31.1031 -31.0970 -31.0878
   -31.0859 -31.0839 -31.0829 -31.0671 -31.0485 -31.0472 -31.0364 -31.0309
   -31.0056 -30.9892 -30.3713 -30.3712 -30.2852 -30.2850 -30.2458 -30.2458
   -19.1355 -15.4162 -15.3257 -15.1769 -15.1603 -15.1085 -15.0606 -15.0439
   -15.0286 -14.9715 -14.9331 -14.8854 -14.8365 -14.7930 -14.7908 -14.7524
   -14.6802 -14.6587 -14.6566 -14.6421 -14.5911 -14.5804 -14.5529 -14.5341
   -14.5290 -14.4858 -14.4263 -14.4227 -14.3837 -14.2042 -13.3250 -12.5515
   -12.5512 -11.0911  -7.8737  -6.5173  -5.8420  -4.0778  -3.9281  -2.6847
    -2.5853  -2.5215  -2.4186  -2.3318  -2.2915  -2.2567  -2.1222  -2.1039
    -2.0842  -2.0581  -2.0453  -2.0117  -2.0042  -1.9552  -1.9263  -1.9158
    -1.9094  -1.8965  -1.8742  -1.8263  -1.8041  -1.7943  -1.7850  -1.7462
    -1.7325  -1.7003  -1.6945  -1.6554  -1.6340  -1.5499  -1.4596  -1.4202
    -1.3723  -1.3046  -1.2702  -1.2635  -1.1710  -1.1626  -1.1390  -1.1057
    -1.0604  -0.9405  -0.8831  -0.8196  -0.8156  -0.8024  -0.6964  -0.6585
    -0.6277  -0.5930  -0.5549  -0.5253  -0.4871  -0.4397  -0.3631  -0.3320
    -0.2926  -0.2564  -0.1841  -0.0962  -0.0772  -0.0456  -0.0414   0.0445
     0.0695   0.1082   0.1172   0.1364   0.1930   0.2063   0.2930   0.3832
     0.4476   0.5353   0.6493   0.6534   0.7303   0.8234   0.9113   0.9489
     1.0004   1.0662   1.0685   1.1022   1.2233   1.2306   1.3521   1.3910
     1.3997   1.4220   2.3173   2.3184   2.3994   2.3996   4.1475   4.2450
     4.2844   4.3255   4.3774   4.5230   4.5462   4.5918   4.5922   4.6627
     4.6758

     the Fermi energy is     4.0653 ev

!    total energy              =   -2942.84150895 Ry
     estimated scf accuracy    <       0.00000003 Ry
     smearing contrib. (-TS)   =      -0.03724818 Ry
     internal energy E=F+TS    =   -2942.80426078 Ry

     The total energy is F=E-TS. E is the sum of the following terms:
     one-electron contribution =  -23857.01794862 Ry
     hartree contribution      =   12023.85689205 Ry
     xc contribution           =    -487.75374580 Ry
     ewald contribution        =    9378.10581872 Ry
     electric field correction =       0.00472288 Ry

     convergence has been achieved in  62 iterations

     Forces acting on atoms (cartesian axes, Ry/au):

     atom    1 type  1   force =     0.00001997   -0.00023765    0.09433465
     atom    2 type  1   force =    -0.00016016   -0.00054378   -0.17707908
     atom    3 type  2   force =     0.00001824   -0.00024520   -0.02146584
     atom    4 type  2   force =    -0.00001308   -0.00167667    0.05642519
     atom    5 type  2   force =    -0.01050261   -0.00074934    0.00562246
     atom    6 type  2   force =     0.01226924   -0.00009363    0.00551665
     atom    7 type  1   force =    -0.00024247    0.00107877   -0.01570775
     atom    8 type  1   force =    -0.00006916    0.00525458    0.00656412
     atom    9 type  2   force =    -0.00030632    0.00055715    0.00022309
     atom   10 type  2   force =    -0.00199905    0.00266100   -0.00434747
     atom   11 type  2   force =     0.00040067   -0.00022520    0.00028629
     atom   12 type  2   force =    -0.00007745   -0.00029351   -0.00019312
     atom   13 type  1   force =    -0.00073968    0.00044238   -0.00006188
     atom   14 type  1   force =     0.00039118   -0.00016895   -0.00000148
     atom   15 type  2   force =    -0.00015417   -0.00056879   -0.00039705
     atom   16 type  2   force =     0.00003196    0.00040432   -0.00025599
     atom   17 type  2   force =     0.00072738    0.00016235    0.00040665
     atom   18 type  2   force =    -0.00053999    0.00045309    0.00047925
     atom   19 type  1   force =     0.00069442    0.00117504    0.00014209
     atom   20 type  1   force =    -0.00087005    0.00018498    0.00048977
     atom   21 type  2   force =    -0.00002000   -0.00011606    0.10364515
     atom   22 type  2   force =     0.00016860    0.00031150    0.00031947
     atom   23 type  2   force =    -0.07091298   -0.00021743   -0.02719276
     atom   24 type  2   force =     0.07071367    0.00023423   -0.02724149
     atom   25 type  1   force =     0.00001457   -0.00027572    0.09401365
     atom   26 type  1   force =    -0.00024754   -0.00055360   -0.17735440
     atom   27 type  2   force =     0.00005949   -0.00007898   -0.02059644
     atom   28 type  2   force =     0.00002592   -0.00136454    0.05571624
     atom   29 type  2   force =    -0.01080446   -0.00000115    0.00591757
     atom   30 type  2   force =     0.01249359    0.00028495    0.00576763
     atom   31 type  1   force =    -0.00017480    0.00518479   -0.01629258
     atom   32 type  1   force =    -0.00009026   -0.00625437    0.00669839
     atom   33 type  2   force =    -0.00009917   -0.00047497    0.00025052
     atom   34 type  2   force =    -0.00163602    0.00066953   -0.00774491
     atom   35 type  2   force =    -0.00033237    0.00005993    0.00042297
     atom   36 type  2   force =     0.00057983    0.00005893   -0.00006314
     atom   37 type  1   force =    -0.00083833   -0.00079535   -0.00010139
     atom   38 type  1   force =     0.00048743    0.00001847    0.00040924
     atom   39 type  2   force =    -0.00026100   -0.00021578    0.00059088
     atom   40 type  2   force =    -0.00006464   -0.00021195   -0.00015826
     atom   41 type  2   force =     0.00005603   -0.00044934    0.00023758
     atom   42 type  2   force =    -0.00022122   -0.00033384    0.00052177
     atom   43 type  1   force =     0.00031318   -0.00107567   -0.00024874
     atom   44 type  1   force =     0.00023949    0.00037086    0.00044287
     atom   45 type  2   force =    -0.00002407   -0.00011581    0.10365441
     atom   46 type  2   force =    -0.07092153   -0.00013682   -0.02716480
     atom   47 type  2   force =     0.07072424    0.00028531   -0.02723718
     atom   48 type  3   force =     0.00406708    0.00011653   -0.00416099
     atom   49 type  3   force =    -0.00049062   -0.00076107    0.00119417
     atom   50 type  4   force =     0.00104228   -0.00034070   -0.00073668
     atom   51 type  5   force =     0.00014255   -0.00054517    0.00067083
     atom   52 type  5   force =    -0.00042339    0.00041870    0.00007107
     atom   53 type  5   force =     0.00042480   -0.00041894    0.00029621
     atom   54 type  5   force =     0.00063031   -0.00016622   -0.00030020
     atom   55 type  5   force =    -0.00032291   -0.00042822    0.00001201
     atom   56 type  5   force =    -0.00317663   -0.00025299    0.00476080

     Total force =     0.365753     Total SCF correction =     0.000490
  @ DRIVER MODE: Message from server: STATUS
  @ DRIVER MODE: Message from server: GETFORCE
  @ DRIVER MODE: Returning v,forces,stress,ensemble

     Writing output data file ./calc.save/
  @ DRIVER MODE: Message from server: EXIT
  @ DRIVE MODE: Exiting

     General routines

     Parallel routines

   This run was terminated on:  16: 8:26   9Sep2021

   JOB DONE.