     Program PWSCF v.6.7GPU starts on 12Oct2021 at 16:38: 3

     R & G space division:  proc/nbgrp/npool/nimage =       8
     Reading input from /storage/home/hcoda1/3/ntian30/research/carbon/ACS_vib/ads_slab/HNNH2/out_0023/pw.inp
Warning: card &CELL ignored
Warning: card   CELL_DYNAMICS='IPI', ignored
Warning: card / ignored

     Current dimensions of program PWSCF are:
     Max number of different atomic species (ntypx) = 10
     Max number of k-points (npk) =  40000
     Max angular momentum in pseudopotentials (lmaxx) =  3
     Presently no symmetry can be used with electric field

     Message from routine cell_base_init:
     DEPRECATED: use true lattice parameter, not A to a.u. conversion factor

     IMPORTANT: XC functional enforced from input :
     Exchange-correlation= BEEF-VDW
                           (   1   4  43  14   2   0   0)
     Any further DFT definition will be discarded
     Please, verify this is what you really want

  @ DRIVER MODE: Connecting to
 qe_1139763_3181312.sched-torque.pace.gatech.eduucayt8zg_scratch
  using UNIX socket
  @ DRIVER MODE: Message from server: STATUS
  @ DRIVER MODE: Message from server: INIT
  @ DRIVER MODE: Receiving replica           0          -1
  @ DRIVER MODE: Receiving encoded integer          25
  @ DRIVER MODE:  SCF:  T  FORCE:  T  STRESS:  F  VC:  F  ENSEMBLE:  F
  @ DRIVER MODE:  SCF:  T  FORCE:  T  STRESS:  F  VC:  F  ENSEMBLE:  F

     Using Slab Decomposition

     bravais-lattice index     =            0
     lattice parameter (alat)  =       1.8897  a.u.
     unit-cell volume          =    6658.9804 (a.u.)^3
     number of atoms/cell      =           52
     number of atomic types    =            4
     number of electrons       =       391.00
     number of Kohn-Sham states=          205
     kinetic-energy cutoff     =      29.3995  Ry
     charge density cutoff     =     293.9946  Ry
     scf convergence threshold =      7.3E-08
     mixing beta               =       0.0500
     number of iterations used =            8  plain     mixing
     Exchange-correlation= BEEF-VDW
                           (   1   4  43  14   2   0   0)

     celldm(1)=   1.889726  celldm(2)=   0.000000  celldm(3)=   0.000000
     celldm(4)=   0.000000  celldm(5)=   0.000000  celldm(6)=   0.000000

     crystal axes: (cart. coord. in units of alat)
               a(1) = (   6.579727   0.000000   0.000000 )
               a(2) = (  -0.000775   5.961596   0.000000 )
               a(3) = (   0.000000   0.000000  25.155947 )

     reciprocal axes: (cart. coord. in units 2 pi/alat)
               b(1) = (  0.151982  0.000020  0.000000 )
               b(2) = (  0.000000  0.167740  0.000000 )
               b(3) = (  0.000000  0.000000  0.039752 )

     PseudoPot. # 1 for Ti read from file:
     /storage/coda1/p-amedford6/0/shared/rich_project_chbe-medford/medford-share/data/pseudos_module/espresso/nninc/pbe/van/Ti.UPF
     MD5 check sum: 8e4df49b7f0d34bbd5052bf3f5ea0213
     Pseudo is Ultrasoft, Zval = 12.0
     Generated by new atomic code, or converted to UPF format
     Using radial grid of  851 points,  6 beta functions with:
                l(1) =   0
                l(2) =   0
                l(3) =   1
                l(4) =   1
                l(5) =   2
                l(6) =   2
     Q(r) pseudized with  8 coefficients,  rinner =    1.000   1.000   1.000
                                                       1.000   1.000

     PseudoPot. # 2 for O  read from file:
     /storage/coda1/p-amedford6/0/shared/rich_project_chbe-medford/medford-share/data/pseudos_module/espresso/nninc/pbe/van/O.UPF
     MD5 check sum: 78c19812648e8988a0fe644b0f25305e
     Pseudo is Ultrasoft, Zval =  6.0
     Generated by new atomic code, or converted to UPF format
     Using radial grid of  737 points,  4 beta functions with:
                l(1) =   0
                l(2) =   0
                l(3) =   1
                l(4) =   1
     Q(r) pseudized with  8 coefficients,  rinner =    0.800   0.800   0.800

     PseudoPot. # 3 for H  read from file:
     /storage/coda1/p-amedford6/0/shared/rich_project_chbe-medford/medford-share/data/pseudos_module/espresso/nninc/pbe/van/H.UPF
     MD5 check sum: b5ee9d7bfd3a09ee7748110bda690ff7
     Pseudo is Ultrasoft, Zval =  1.0
     Generated by new atomic code, or converted to UPF format
     Using radial grid of  615 points,  1 beta functions with:
                l(1) =   0
     Q(r) pseudized with  8 coefficients,  rinner =    0.800

     PseudoPot. # 4 for N  read from file:
     /storage/coda1/p-amedford6/0/shared/rich_project_chbe-medford/medford-share/data/pseudos_module/espresso/nninc/pbe/van/N.UPF
     MD5 check sum: 90d10febe142ad51ac9d5be1deb811c4
     Pseudo is Ultrasoft, Zval =  5.0
     Generated by new atomic code, or converted to UPF format
     Using radial grid of  729 points,  4 beta functions with:
                l(1) =   0
                l(2) =   0
                l(3) =   1
                l(4) =   1
     Q(r) pseudized with  8 coefficients,  rinner =    0.800   0.800   0.800

     atomic species   valence    mass     pseudopotential
        Ti1           12.00    47.86700     Ti( 1.00)
        O1             6.00    15.99900     O ( 1.00)
        H1             1.00     1.00800     H ( 1.00)
        N1             5.00    14.00700     N ( 1.00)

     No symmetry found

   Cartesian axes

     site n.     atom                  positions (alat units)
         1           Ti1 tau(   1) = (   0.0004258   2.9801865   6.0000000  )
         2           Ti1 tau(   2) = (   3.2906075   1.4906267   6.0002472  )
         3           O1  tau(   3) = (   0.0006271   0.0005054   7.9858123  )
         4           O1  tau(   4) = (   3.2906025   0.0005020   7.3038282  )
         5           O1  tau(   5) = (   4.5942328   1.4918067   9.2879030  )
         6           O1  tau(   6) = (   1.9868534   1.4903216   9.2879459  )
         7           Ti1 tau(   7) = (   3.2908112   2.9011704   9.1816539  )
         8           Ti1 tau(   8) = (   0.0015097   1.3932332   9.2931702  )
         9           O1  tau(   9) = (   3.2819087   5.9526348  11.3504271  )
        10           O1  tau(  10) = (   6.5772260   5.9545827  10.6088576  )
        11           O1  tau(  11) = (   1.2874804   1.4832564  12.6509691  )
        12           O1  tau(  12) = (   5.2781146   1.4858874  12.6440994  )
        13           Ti1 tau(  13) = (   6.5585775   2.9503744  12.8030734  )
        14           Ti1 tau(  14) = (   3.2696126   1.4733128  12.4944632  )
        15           O1  tau(  15) = (   6.5513721   5.9458199  14.6768215  )
        16           O1  tau(  16) = (   3.2879482   5.9481552  13.9547078  )
        17           O1  tau(  17) = (   4.5181657   1.4884665  16.1124167  )
        18           O1  tau(  18) = (   2.0188244   1.4835402  16.0984261  )
        19           Ti1 tau(  19) = (   3.2766105   2.9578040  15.7125626  )
        20           Ti1 tau(  20) = (   0.0270592   1.3580474  16.0627221  )
        21           O1  tau(  21) = (   3.2904802   0.0005063   4.7018136  )
        22           O1  tau(  22) = (   0.0072818   5.9434210  17.2237418  )
        23           O1  tau(  23) = (   1.3043587   1.4918075   6.0039043  )
        24           O1  tau(  24) = (   5.2767064   1.4903225   6.0039473  )
        25           Ti1 tau(  25) = (   0.0000382   5.9609847   6.0000000  )
        26           Ti1 tau(  26) = (   3.2902200   4.4714249   6.0002472  )
        27           O1  tau(  27) = (   0.0002396   2.9813036   7.9858123  )
        28           O1  tau(  28) = (   3.2902150   2.9813002   7.3038282  )
        29           O1  tau(  29) = (   4.5938453   4.4726049   9.2879030  )
        30           O1  tau(  30) = (   1.9864658   4.4711199   9.2879459  )
        31           Ti1 tau(  31) = (   3.2900885   5.8829342   9.1674613  )
        32           Ti1 tau(  32) = (   0.0009626   4.3321112   9.3579051  )
        33           O1  tau(  33) = (   3.2805539   2.9674959  11.3464436  )
        34           O1  tau(  34) = (   6.5791951   2.9642230  10.5753725  )
        35           O1  tau(  35) = (   1.2880645   4.4660911  12.6414962  )
        36           O1  tau(  36) = (   5.2770833   4.4616490  12.6331305  )
        37           Ti1 tau(  37) = (   6.5652171   5.9330851  12.5680926  )
        38           Ti1 tau(  38) = (   3.2703904   4.4534766  12.4879229  )
        39           O1  tau(  39) = (   6.5642693   2.9891374  14.6930774  )
        40           O1  tau(  40) = (   3.2814391   2.9717942  13.9260038  )
        41           O1  tau(  41) = (   4.5200678   4.4336085  16.1105754  )
        42           O1  tau(  42) = (   2.0169658   4.4359636  16.1171003  )
        43           Ti1 tau(  43) = (   3.3139371   5.9425984  15.7429620  )
        44           Ti1 tau(  44) = (   0.0173840   4.5100783  16.0001754  )
        45           O1  tau(  45) = (   3.2900926   2.9813045   4.7018136  )
        46           O1  tau(  46) = (   1.3039711   4.4726057   6.0039043  )
        47           O1  tau(  47) = (   5.2763189   4.4711207   6.0039473  )
        48           H1  tau(  48) = (   5.5810648   2.9993886  17.8866560  )
        49           N1  tau(  49) = (   6.5184219   2.9788514  17.4915934  )
        50           N1  tau(  50) = (   0.8269126   2.9775512  18.6276789  )
        51           H1  tau(  51) = (   1.2125983   2.0437984  18.7462651  )
        52           H1  tau(  52) = (   1.5963704   3.6133177  18.4401992  )

     number of k points=    10  Fermi-Dirac smearing, width (Ry)=  0.0073
                       cart. coord. in units 2pi/alat
        k(    1) = (   0.0000000   0.0000000   0.0000000), wk =   0.1250000
        k(    2) = (   0.0000000   0.0419351   0.0000000), wk =   0.2500000
        k(    3) = (   0.0000000  -0.0838702   0.0000000), wk =   0.1250000
        k(    4) = (   0.0379955   0.0000049   0.0000000), wk =   0.2500000
        k(    5) = (   0.0379955   0.0419400   0.0000000), wk =   0.2500000
        k(    6) = (   0.0379955  -0.0838652   0.0000000), wk =   0.2500000
        k(    7) = (   0.0379955  -0.0419301   0.0000000), wk =   0.2500000
        k(    8) = (  -0.0759910  -0.0000099   0.0000000), wk =   0.1250000
        k(    9) = (  -0.0759910   0.0419252   0.0000000), wk =   0.2500000
        k(   10) = (  -0.0759910  -0.0838800   0.0000000), wk =   0.1250000

     Initial potential from superposition of free atoms

     starting charge  374.99920, renormalised to  391.00000

     negative rho (up, down):  1.967E-02 0.000E+00

     %%%%%%%%%%%%%%%%%%%%%%%%%%%%%%%%%%%%%%%%%%%%%%%%%%%%%%%%%%%%%%%%%%%%%%%%
     %                                                                      %
     % You are using vdW-DF, which was implemented by the Thonhauser group. %
     % Please cite the following two papers that made this development      %
     % possible and the two reviews that describe the various versions:     %
     %                                                                      %
     %   T. Thonhauser et al., PRL 115, 136402 (2015).                      %
     %   T. Thonhauser et al., PRB 76, 125112 (2007).                       %
     %   K. Berland et al., Rep. Prog. Phys. 78, 066501 (2015).             %
     %   D.C. Langreth et al., J. Phys.: Condens. Matter 21, 084203 (2009). %
     %                                                                      %
     %                                                                      %
     % If you are calculating the stress with vdW-DF, please also cite:     %
     %                                                                      %
     %   R. Sabatini et al., J. Phys.: Condens. Matter 24, 424209 (2012).   %
     %                                                                      %
     %%%%%%%%%%%%%%%%%%%%%%%%%%%%%%%%%%%%%%%%%%%%%%%%%%%%%%%%%%%%%%%%%%%%%%%%

     Adding external electric field

     Computed dipole along edir(3) :
        Dipole               -5.4642 Ry au,        -13.8887 Debye
        Dipole field         -0.0103 Ry au,

        Potential amp.        0.9559 Ry
        Total length         46.3494 bohr

     Starting wfcs are  295 atomic wfcs
  @ DRIVER MODE: Message from server: STATUS
  @ DRIVER MODE: Message from server: POSDATA
  @ DRIVER MODE: Reading and sharing cell
  @ DRIVER MODE: Reading and sharing positions
  @ DRIVER MODE: Received positions

     Self-consistent Calculation

     iteration #  1     ecut=    29.40 Ry     beta= 0.05
     Davidson diagonalization with overlap
     c_bands:  2 eigenvalues not converged
     c_bands:  1 eigenvalues not converged
     c_bands:  3 eigenvalues not converged
     c_bands:  3 eigenvalues not converged
     c_bands:  4 eigenvalues not converged
     c_bands:  2 eigenvalues not converged
     c_bands:  1 eigenvalues not converged
     c_bands:  1 eigenvalues not converged
     c_bands:  2 eigenvalues not converged
     ethr =  1.00E-05,  avg # of iterations = 19.9

[...]

     total energy              =   -2794.88971381 Ry
     estimated scf accuracy    <    1458.04581310 Ry

     iteration #  2     ecut=    29.40 Ry     beta= 0.05
     Davidson diagonalization with overlap
     ethr =  1.00E-02,  avg # of iterations = 16.6

[...]

     iteration # 67     ecut=    29.40 Ry     beta= 0.05
     Davidson diagonalization with overlap
     c_bands:  2 eigenvalues not converged
     ethr =  1.14E-10,  avg # of iterations = 14.4

[...]

     total energy              =   -2927.71127545 Ry
     estimated scf accuracy    <       0.00000009 Ry

     iteration # 70     ecut=    29.40 Ry     beta= 0.05
     Davidson diagonalization with overlap
     ethr =  2.34E-11,  avg # of iterations = 12.8

     negative rho (up, down):  1.937E-02 0.000E+00

     Adding external electric field

     Computed dipole along edir(3) :
        Dipole                0.4552 Ry au,          1.1569 Debye
        Dipole field          0.0009 Ry au,

        Potential amp.       -0.0796 Ry
        Total length         46.3494 bohr

     End of self-consistent calculation

          k = 0.0000 0.0000 0.0000 ( 18029 PWs)   bands (ev):

   -56.1424 -56.1271 -56.1066 -56.0909 -56.0445 -56.0106 -55.9708 -55.9463
   -55.8960 -55.8833 -55.8692 -55.8332 -55.7632 -55.7578 -55.0791 -55.0450
   -32.6986 -32.6022 -32.4840 -32.4720 -32.4616 -32.4295 -32.4037 -32.3859
   -32.3757 -32.3550 -32.3499 -32.3461 -32.3327 -32.3085 -32.3046 -32.2839
   -32.2779 -32.2567 -32.2253 -32.2136 -32.2104 -32.1926 -32.1611 -32.1553
   -32.1537 -32.1338 -32.1318 -32.1082 -32.1012 -32.0968 -32.0965 -32.0754
   -32.0747 -32.0414 -32.0193 -32.0177 -31.9817 -31.9783 -31.9695 -31.9568
   -31.9426 -31.8997 -31.4863 -31.3977 -31.3749 -31.3025 -31.2161 -31.1055
   -16.9057 -16.6720 -16.5273 -16.3742 -16.2668 -16.2435 -16.1866 -15.9082
   -15.8412 -15.7794 -15.7618 -15.7400 -15.7289 -15.6654 -15.6645 -15.6303
   -15.5862 -15.5517 -15.5407 -15.5113 -15.5041 -15.4552 -15.4302 -15.4001
   -15.3655 -15.2816 -15.2271 -15.1560 -15.1197 -15.0803 -13.5827 -13.4667
   -11.2752  -5.2609  -4.6033  -4.2512  -4.1354  -4.0509  -3.9996  -3.9327
    -3.7852  -3.7266  -3.5907  -3.3413  -3.3039  -3.2895  -3.2600  -3.2224
    -3.0345  -2.9850  -2.9489  -2.9270  -2.9211  -2.9141  -2.8764  -2.8441
    -2.8364  -2.8338  -2.7171  -2.6463  -2.5588  -2.5507  -2.4786  -2.4406
    -2.4162  -2.4130  -2.3722  -2.3491  -2.3282  -2.3103  -2.2843  -2.1822
    -2.1569  -2.0743  -1.9853  -1.9002  -1.7780  -1.7151  -1.7033  -1.5759
    -1.5164  -1.5138  -1.4801  -1.4590  -1.4190  -1.3412  -1.3040  -1.2560
    -1.1773  -1.1330  -1.0633  -1.0342  -1.0189  -0.9787  -0.9037  -0.8556
    -0.8486  -0.8375  -0.6320  -0.6046  -0.5951  -0.5806  -0.4624  -0.3813
    -0.3640  -0.3339  -0.3171  -0.3047  -0.2512  -0.1603  -0.1314  -0.1194
    -0.1002  -0.0143   0.0556   0.0630   0.0963   0.1848   0.2080   0.3245
     0.3892   0.5651   0.6007   0.7254   0.8617   0.9407   0.9745   1.1349
     1.5210   1.5508   1.5717   3.0544   3.0721   3.1094   3.1302   3.2667
     3.3765   3.3804   3.4786   3.4995   3.5518

[...]

          k = 0.0380-0.0419 0.0000 ( 17876 PWs)   bands (ev):

[...]

          k =-0.0760-0.0000 0.0000 ( 17886 PWs)   bands (ev):

[...]

          k =-0.0760-0.0839 0.0000 ( 17948 PWs)   bands (ev):

   -56.1302 -56.1186 -56.1097 -56.1080 -56.0402 -56.0061 -55.9749 -55.9507
   -55.8939 -55.8804 -55.8581 -55.8446 -55.7653 -55.7601 -55.0623 -55.0617
   -32.5024 -32.4989 -32.4354 -32.4256 -32.4184 -32.4127 -32.4026 -32.4010
   -32.3397 -32.3390 -32.3356 -32.3061 -32.3040 -32.2875 -32.2731 -32.2593
   -32.2514 -32.2499 -32.2369 -32.2349 -32.2222 -32.2108 -32.1963 -32.1860
   -32.1782 -32.1694 -32.1666 -32.1613 -32.1440 -32.1096 -32.0889 -32.0871
   -32.0860 -32.0679 -32.0672 -32.0614 -32.0503 -32.0237 -32.0202 -31.9930
   -31.9507 -31.9492 -31.3880 -31.3873 -31.2995 -31.2988 -31.2596 -31.2589
   -16.5483 -16.3615 -16.3152 -16.0834 -16.0681 -16.0253 -15.9478 -15.8955
   -15.8900 -15.8653 -15.8578 -15.7979 -15.7874 -15.7753 -15.7472 -15.6503
   -15.6486 -15.6369 -15.6180 -15.5565 -15.5409 -15.5065 -15.4760 -15.4667
   -15.4400 -15.4121 -15.3819 -15.3599 -15.2987 -15.2815 -13.5689 -13.5680
   -11.2833  -5.2592  -4.5618  -3.7013  -3.6493  -3.6005  -3.2964  -3.2785
    -3.2497  -3.1350  -3.0671  -3.0411  -3.0082  -2.9795  -2.9437  -2.9323
    -2.9173  -2.9130  -2.9047  -2.9020  -2.8705  -2.8406  -2.8248  -2.7784
    -2.7506  -2.7421  -2.7256  -2.7094  -2.7047  -2.6550  -2.6513  -2.6463
    -2.6376  -2.5208  -2.3879  -2.3708  -2.3328  -2.2137  -2.1901  -2.1842
    -2.1544  -2.1436  -2.1377  -2.0812  -1.9763  -1.8715  -1.8225  -1.8016
    -1.7778  -1.7157  -1.5993  -1.5481  -1.5378  -1.5066  -1.4449  -1.4249
    -1.3739  -1.3680  -1.2628  -1.2360  -1.2125  -1.1381  -1.0767  -1.0590
    -1.0367  -0.9775  -0.9302  -0.9096  -0.9016  -0.8556  -0.7548  -0.7461
    -0.6976  -0.6871  -0.6347  -0.6292  -0.5762  -0.4474  -0.2066  -0.1686
    -0.0963  -0.0736   0.0181   0.0501   0.0774   0.1722   0.2006   0.3021
     0.3425   0.4374   0.4442   0.4599   0.5025   0.6743   1.3055   1.3082
     1.3818   1.3882   1.5539   3.2107   3.2480   3.2728   3.3366   3.5170
     3.5407   3.5417   3.5561   3.5883   3.6623

     the Fermi energy is     3.0127 ev

!    total energy              =   -2927.71129004 Ry
     estimated scf accuracy    <       0.00000003 Ry
     smearing contrib. (-TS)   =      -0.02327321 Ry
     internal energy E=F+TS    =   -2927.68801683 Ry

     The total energy is F=E-TS. E is the sum of the following terms:
     one-electron contribution =  -24560.26401281 Ry
     hartree contribution      =   12363.29598296 Ry
     xc contribution           =    -481.65432977 Ry
     ewald contribution        =    9750.93395181 Ry
     electric field correction =       0.00039099 Ry

     convergence has been achieved in  70 iterations

     Forces acting on atoms (cartesian axes, Ry/au):

     atom    1 type  1   force =     0.00026225    0.00112118    0.11027419
     atom    2 type  1   force =     0.00005934    0.00172543   -0.17427992
     atom    3 type  2   force =     0.00010750    0.00666073   -0.03418442
     atom    4 type  2   force =     0.00001474   -0.00085709    0.05081423
     atom    5 type  2   force =    -0.01744731   -0.00134537    0.00575436
     atom    6 type  2   force =     0.01689848   -0.00101554    0.00538179
     atom    7 type  1   force =     0.00006854    0.00260142   -0.01786827
     atom    8 type  1   force =    -0.00002036    0.00012489    0.00031917
     atom    9 type  2   force =    -0.00001273    0.00009493   -0.00041353
     atom   10 type  2   force =     0.00000153   -0.00050866   -0.00008096
     atom   11 type  2   force =     0.00010384   -0.00025175   -0.00006745
     atom   12 type  2   force =    -0.00010306   -0.00036232   -0.00022835
     atom   13 type  1   force =    -0.00038464   -0.00035249    0.00004259
     atom   14 type  1   force =    -0.00075413    0.00007540   -0.00013308
     atom   15 type  2   force =    -0.00011506   -0.00024247    0.00063767
     atom   16 type  2   force =     0.00011127   -0.00014487   -0.00029563
     atom   17 type  2   force =     0.00011226   -0.00025747    0.00051034
     atom   18 type  2   force =     0.00093359   -0.00046732    0.00056361
     atom   19 type  1   force =     0.00001512    0.00043367    0.00004369
     atom   20 type  1   force =    -0.00027543   -0.00076022    0.00103989
     atom   21 type  2   force =     0.00009785    0.00006424    0.10314104
     atom   22 type  2   force =     0.00011143    0.00053120   -0.00150323
     atom   23 type  2   force =    -0.07111753    0.00062428   -0.03026702
     atom   24 type  2   force =     0.07108238    0.00104120   -0.03027531
     atom   25 type  1   force =     0.00005337   -0.00109485    0.11741702
     atom   26 type  1   force =     0.00004576   -0.00256229   -0.17412206
     atom   27 type  2   force =     0.00006962   -0.00281669   -0.02989480
     atom   28 type  2   force =     0.00002506   -0.00148680    0.05397686
     atom   29 type  2   force =    -0.01860496    0.00056782    0.00665468
     atom   30 type  2   force =     0.01808486    0.00123976    0.00629694
     atom   31 type  1   force =     0.00039877   -0.00272429   -0.01225186
     atom   32 type  1   force =     0.00000368    0.00038518    0.00070036
     atom   33 type  2   force =     0.00002269   -0.00009190   -0.00046599
     atom   34 type  2   force =     0.00006848    0.00031595    0.00039327
     atom   35 type  2   force =     0.00001322    0.00006077   -0.00029788
     atom   36 type  2   force =     0.00005876    0.00001446   -0.00033325
     atom   37 type  1   force =    -0.00050491   -0.00043427    0.00098693
     atom   38 type  1   force =    -0.00070393    0.00003914   -0.00015158
     atom   39 type  2   force =    -0.00013255   -0.00063272   -0.00041239
     atom   40 type  2   force =     0.00001198   -0.00010098   -0.00060415
     atom   41 type  2   force =    -0.00031661    0.00018706    0.00042263
     atom   42 type  2   force =     0.00082043    0.00036697    0.00003589
     atom   43 type  1   force =     0.00034648   -0.00025031   -0.00000563
     atom   44 type  1   force =     0.00044377    0.00052874    0.00068673
     atom   45 type  2   force =     0.00008082    0.00013806    0.10306722
     atom   46 type  2   force =    -0.07140755   -0.00054730   -0.03020288
     atom   47 type  2   force =     0.07137457   -0.00010608   -0.03025356
     atom   48 type  3   force =     0.00053039    0.00029458   -0.00024109
     atom   49 type  4   force =    -0.00071563    0.00091340   -0.00041897
     atom   50 type  4   force =    -0.00051489   -0.00058082   -0.00155827
     atom   51 type  3   force =     0.00122088   -0.00095663    0.00127028
     atom   52 type  3   force =    -0.00052244    0.00080103    0.00038015

     Total force =     0.376050     Total SCF correction =     0.000357
  @ DRIVER MODE: Message from server: STATUS
  @ DRIVER MODE: Message from server: GETFORCE
  @ DRIVER MODE: Returning v,forces,stress,ensemble

     Writing output data file ./calc.save/
  @ DRIVER MODE: Message from server: EXIT
  @ DRIVE MODE: Exiting

     General routines

     Parallel routines

   This run was terminated on:  16:59:42  12Oct2021

   JOB DONE.