     Program PWSCF v.6.7GPU starts on 17Jul2021 at 22:32:38

     R & G space division:  proc/nbgrp/npool/nimage =      16
     Reading input from /storage/home/hcoda1/3/ntian30/research/carbon/15Jul_vib/ads_slab/CH3NH2_a/out_0032/pw.inp
Warning: card &CELL ignored
Warning: card   CELL_DYNAMICS='IPI', ignored
Warning: card / ignored

     Current dimensions of program PWSCF are:
     Max number of different atomic species (ntypx) = 10
     Max number of k-points (npk) =  40000
     Max angular momentum in pseudopotentials (lmaxx) =  3
     Presently no symmetry can be used with electric field

     Message from routine cell_base_init:
     DEPRECATED: use true lattice parameter, not A to a.u. conversion factor

     IMPORTANT: XC functional enforced from input :
     Exchange-correlation= BEEF-VDW
                           (   1   4  43  14   2   0   0)
     Any further DFT definition will be discarded
     Please, verify this is what you really want

  @ DRIVER MODE: Connecting to
 qe_1139763_2351647.sched-torque.pace.gatech.edut5ztyxiw_scratch
  using UNIX socket
  @ DRIVER MODE: Message from server: STATUS
  @ DRIVER MODE: Message from server: INIT
  @ DRIVER MODE: Receiving replica           0          -1
  @ DRIVER MODE: Receiving encoded integer          25
  @ DRIVER MODE:  SCF:  T  FORCE:  T  STRESS:  F  VC:  F  ENSEMBLE:  F
  @ DRIVER MODE:  SCF:  T  FORCE:  T  STRESS:  F  VC:  F  ENSEMBLE:  F

     Using Slab Decomposition

     bravais-lattice index     =            0
     lattice parameter (alat)  =       1.8897  a.u.
     unit-cell volume          =    6658.9804 (a.u.)^3
     number of atoms/cell      =           54
     number of atomic types    =            5
     number of electrons       =       392.00
     number of Kohn-Sham states=          206
     kinetic-energy cutoff     =      29.3995  Ry
     charge density cutoff     =     293.9946  Ry
     scf convergence threshold =      7.3E-08
     mixing beta               =       0.0500
     number of iterations used =            8  plain     mixing
     Exchange-correlation= BEEF-VDW
                           (   1   4  43  14   2   0   0)

     celldm(1)=   1.889726  celldm(2)=   0.000000  celldm(3)=   0.000000
     celldm(4)=   0.000000  celldm(5)=   0.000000  celldm(6)=   0.000000

     crystal axes: (cart. coord. in units of alat)
               a(1) = (   6.579727   0.000000   0.000000 )
               a(2) = (  -0.000775   5.961596   0.000000 )
               a(3) = (   0.000000   0.000000  25.155947 )

     reciprocal axes: (cart. coord. in units 2 pi/alat)
               b(1) = (  0.151982  0.000020  0.000000 )
               b(2) = (  0.000000  0.167740  0.000000 )
               b(3) = (  0.000000  0.000000  0.039752 )

     PseudoPot. # 1 for Ti read from file:
     /storage/coda1/p-amedford6/0/shared/rich_project_chbe-medford/medford-share/data/pseudos_module/espresso/nninc/pbe/van/Ti.UPF
     MD5 check sum: 8e4df49b7f0d34bbd5052bf3f5ea0213
     Pseudo is Ultrasoft, Zval = 12.0
     Generated by new atomic code, or converted to UPF format
     Using radial grid of  851 points,  6 beta functions with:
                l(1) =   0
                l(2) =   0
                l(3) =   1
                l(4) =   1
                l(5) =   2
                l(6) =   2
     Q(r) pseudized with  8 coefficients,  rinner =    1.000   1.000   1.000
                                                       1.000   1.000

     PseudoPot. # 2 for O  read from file:
     /storage/coda1/p-amedford6/0/shared/rich_project_chbe-medford/medford-share/data/pseudos_module/espresso/nninc/pbe/van/O.UPF
     MD5 check sum: 78c19812648e8988a0fe644b0f25305e
     Pseudo is Ultrasoft, Zval =  6.0
     Generated by new atomic code, or converted to UPF format
     Using radial grid of  737 points,  4 beta functions with:
                l(1) =   0
                l(2) =   0
                l(3) =   1
                l(4) =   1
     Q(r) pseudized with  8 coefficients,  rinner =    0.800   0.800   0.800

     PseudoPot. # 3 for H  read from file:
     /storage/coda1/p-amedford6/0/shared/rich_project_chbe-medford/medford-share/data/pseudos_module/espresso/nninc/pbe/van/H.UPF
     MD5 check sum: b5ee9d7bfd3a09ee7748110bda690ff7
     Pseudo is Ultrasoft, Zval =  1.0
     Generated by new atomic code, or converted to UPF format
     Using radial grid of  615 points,  1 beta functions with:
                l(1) =   0
     Q(r) pseudized with  8 coefficients,  rinner =    0.800

     PseudoPot. # 4 for N  read from file:
     /storage/coda1/p-amedford6/0/shared/rich_project_chbe-medford/medford-share/data/pseudos_module/espresso/nninc/pbe/van/N.UPF
     MD5 check sum: 90d10febe142ad51ac9d5be1deb811c4
     Pseudo is Ultrasoft, Zval =  5.0
     Generated by new atomic code, or converted to UPF format
     Using radial grid of  729 points,  4 beta functions with:
                l(1) =   0
                l(2) =   0
                l(3) =   1
                l(4) =   1
     Q(r) pseudized with  8 coefficients,  rinner =    0.800   0.800   0.800

     PseudoPot. # 5 for C  read from file:
     /storage/coda1/p-amedford6/0/shared/rich_project_chbe-medford/medford-share/data/pseudos_module/espresso/nninc/pbe/van/C.UPF
     MD5 check sum: 1a69bf6b8db32088f5b2163dbdb77a27
     Pseudo is Ultrasoft, Zval =  4.0
     Generated by new atomic code, or converted to UPF format
     Using radial grid of  721 points,  4 beta functions with:
                l(1) =   0
                l(2) =   0
                l(3) =   1
                l(4) =   1
     Q(r) pseudized with  8 coefficients,  rinner =    0.800   0.800   0.800

     atomic species   valence    mass     pseudopotential
        Ti1           12.00    47.86700     Ti( 1.00)
        O1             6.00    15.99900     O ( 1.00)
        H1             1.00     1.00800     H ( 1.00)
        N1             5.00    14.00700     N ( 1.00)
        C1             4.00    12.01100     C ( 1.00)

     Starting magnetic structure
     atomic species   magnetization
        Ti1          0.000
        O1           0.000
        H1           0.000
        N1           0.000
        C1           0.025

     No symmetry found

   Cartesian axes

     site n.     atom                  positions (alat units)
         1           Ti1 tau(   1) = (   0.0004258   2.9801865   6.0000000  )
         2           Ti1 tau(   2) = (   3.2906075   1.4906267   6.0002472  )
         3           O1  tau(   3) = (   0.0006271   0.0005054   7.9858123  )
         4           O1  tau(   4) = (   3.2906025   0.0005020   7.3038282  )
         5           O1  tau(   5) = (   4.5942328   1.4918067   9.2879030  )
         6           O1  tau(   6) = (   1.9868534   1.4903216   9.2879459  )
         7           Ti1 tau(   7) = (   3.2907910   2.8959150   9.1758416  )
         8           Ti1 tau(   8) = (   0.0015273   1.4827037   9.2680791  )
         9           O1  tau(   9) = (   3.2764298   0.0032354  11.3770789  )
        10           O1  tau(  10) = (   0.0116148   5.9584955  10.6183126  )
        11           O1  tau(  11) = (   1.2747638   1.4931710  12.6971893  )
        12           O1  tau(  12) = (   5.2817712   1.4903522  12.6806618  )
        13           Ti1 tau(  13) = (   6.5676529   2.9732189  12.5062122  )
        14           Ti1 tau(  14) = (   3.2766800   1.4809802  12.5336434  )
        15           O1  tau(  15) = (   6.5470194   5.8867849  14.7036171  )
        16           O1  tau(  16) = (   3.2776651   5.9556151  14.0032320  )
        17           O1  tau(  17) = (   4.5091997   1.5331545  16.1660716  )
        18           O1  tau(  18) = (   1.9944719   1.5276542  16.1393230  )
        19           Ti1 tau(  19) = (   3.2573122   3.0077756  15.7593658  )
        20           Ti1 tau(  20) = (   6.5589466   1.3143649  15.8680718  )
        21           O1  tau(  21) = (   3.2904802   0.0005063   4.7018136  )
        22           O1  tau(  22) = (   6.5386106   0.1512346  17.2501133  )
        23           O1  tau(  23) = (   1.3043587   1.4918075   6.0039043  )
        24           O1  tau(  24) = (   5.2767064   1.4903225   6.0039473  )
        25           Ti1 tau(  25) = (   0.0000382   5.9609847   6.0000000  )
        26           Ti1 tau(  26) = (   3.2902200   4.4714249   6.0002472  )
        27           O1  tau(  27) = (   0.0002396   2.9813036   7.9858123  )
        28           O1  tau(  28) = (   3.2902150   2.9813002   7.3038282  )
        29           O1  tau(  29) = (   4.5938453   4.4726049   9.2879030  )
        30           O1  tau(  30) = (   1.9864658   4.4711199   9.2879459  )
        31           Ti1 tau(  31) = (   3.2891106   5.8743827   9.1763621  )
        32           Ti1 tau(  32) = (   0.0006254   4.4649316   9.2693709  )
        33           O1  tau(  33) = (   3.2800745   2.9703478  11.3709363  )
        34           O1  tau(  34) = (   0.0092240   2.9805883  10.6323155  )
        35           O1  tau(  35) = (   1.2777299   4.4606407  12.6608526  )
        36           O1  tau(  36) = (   5.2778393   4.4632610  12.6460003  )
        37           Ti1 tau(  37) = (   6.5690533   5.9429793  12.5031582  )
        38           Ti1 tau(  38) = (   3.2786254   4.4589551  12.5214668  )
        39           O1  tau(  39) = (   6.5354733   3.0384833  14.9766919  )
        40           O1  tau(  40) = (   3.2791638   3.0036098  13.9700814  )
        41           O1  tau(  41) = (   4.4983502   4.4848413  16.2456934  )
        42           O1  tau(  42) = (   1.9866127   4.4820094  16.2221982  )
        43           Ti1 tau(  43) = (   3.2666378   0.0261420  15.7997788  )
        44           Ti1 tau(  44) = (   6.5668271   4.5279224  16.0664899  )
        45           O1  tau(  45) = (   3.2900926   2.9813045   4.7018136  )
        46           O1  tau(  46) = (   1.3039711   4.4726057   6.0039043  )
        47           O1  tau(  47) = (   5.2763189   4.4711207   6.0039473  )
        48           H1  tau(  48) = (   5.7254277   4.1132278  18.4743583  )
        49           H1  tau(  49) = (   5.8544422   2.5125186  18.2095680  )
        50           N1  tau(  50) = (   6.3703568   3.3906518  18.1617682  )
        51           C1  tau(  51) = (   0.9530889   3.3347298  19.0741625  )
        52           H1  tau(  52) = (   1.4659278   4.2935310  19.0402106  )
        53           H1  tau(  53) = (   0.6669204   3.1189037  20.1036144  )
        54           H1  tau(  54) = (   1.6325849   2.5561260  18.7331930  )

     number of k points=    10  Fermi-Dirac smearing, width (Ry)=  0.0073
                       cart. coord. in units 2pi/alat
        k(    1) = (   0.0000000   0.0000000   0.0000000), wk =   0.0625000
        k(    2) = (   0.0000000   0.0419351   0.0000000), wk =   0.1250000
        k(    3) = (   0.0000000  -0.0838702   0.0000000), wk =   0.0625000
        k(    4) = (   0.0379955   0.0000049   0.0000000), wk =   0.1250000
        k(    5) = (   0.0379955   0.0419400   0.0000000), wk =   0.1250000
        k(    6) = (   0.0379955  -0.0838652   0.0000000), wk =   0.1250000
        k(    7) = (   0.0379955  -0.0419301   0.0000000), wk =   0.1250000
[...]
        k(    9) = (  -0.0759910   0.0419252   0.0000000), wk =   0.1250000
        k(   10) = (  -0.0759910  -0.0838800   0.0000000), wk =   0.0625000

     Initial potential from superposition of free atoms

     starting charge  375.99915, renormalised to  392.00000

     negative rho (up, down):  8.114E-03 8.120E-03

     %%%%%%%%%%%%%%%%%%%%%%%%%%%%%%%%%%%%%%%%%%%%%%%%%%%%%%%%%%%%%%%%%%%%%%%%
     %                                                                      %
     % You are using vdW-DF, which was implemented by the Thonhauser group. %
     % Please cite the following two papers that made this development      %
     % possible and the two reviews that describe the various versions:     %
     %                                                                      %
     %   T. Thonhauser et al., PRL 115, 136402 (2015).                      %
     %   T. Thonhauser et al., PRB 76, 125112 (2007).                       %
     %   K. Berland et al., Rep. Prog. Phys. 78, 066501 (2015).             %
     %   D.C. Langreth et al., J. Phys.: Condens. Matter 21, 084203 (2009). %
     %                                                                      %
     %                                                                      %
     % If you are calculating the stress with vdW-DF, please also cite:     %
     %                                                                      %
     %   R. Sabatini et al., J. Phys.: Condens. Matter 24, 424209 (2012).   %
     %                                                                      %
     %%%%%%%%%%%%%%%%%%%%%%%%%%%%%%%%%%%%%%%%%%%%%%%%%%%%%%%%%%%%%%%%%%%%%%%%

     Adding external electric field

     Computed dipole along edir(3) :
        Dipole               -7.5680 Ry au,        -19.2360 Debye
        Dipole field         -0.0143 Ry au,

        Potential amp.        1.3239 Ry
        Total length         46.3494 bohr

[...]

     Starting wfcs are  297 atomic wfcs
  @ DRIVER MODE: Message from server: STATUS
  @ DRIVER MODE: Message from server: POSDATA
  @ DRIVER MODE: Reading and sharing cell
  @ DRIVER MODE: Reading and sharing positions
  @ DRIVER MODE: Received positions

     Self-consistent Calculation

     iteration #  1     ecut=    29.40 Ry     beta= 0.05
     Davidson diagonalization with overlap
     c_bands:  1 eigenvalues not converged
     c_bands:  2 eigenvalues not converged
     c_bands:  1 eigenvalues not converged
     c_bands:  1 eigenvalues not converged
     c_bands:  1 eigenvalues not converged
     c_bands:  1 eigenvalues not converged
     c_bands:  1 eigenvalues not converged
     c_bands:  2 eigenvalues not converged
     c_bands:  1 eigenvalues not converged
     c_bands:  1 eigenvalues not converged
     c_bands:  1 eigenvalues not converged
     c_bands:  1 eigenvalues not converged
     ethr =  1.00E-05,  avg # of iterations = 19.6

[...]

     total energy              =   -2678.28055686 Ry
     estimated scf accuracy    <    2693.28597953 Ry

     total magnetization       =     0.00 Bohr mag/cell
     absolute magnetization    =     0.01 Bohr mag/cell

[...]

     iteration #  3     ecut=    29.40 Ry     beta= 0.05
     Davidson diagonalization with overlap
     ethr =  1.00E-02,  avg # of iterations = 15.0

[...]

     iteration # 73     ecut=    29.40 Ry     beta= 0.05
     Davidson diagonalization with overlap
     c_bands:  1 eigenvalues not converged
     ethr =  3.84E-11,  avg # of iterations = 12.7

[...]

     total energy              =   -2921.63346562 Ry
     estimated scf accuracy    <       0.00000009 Ry

[...]

     iteration # 74     ecut=    29.40 Ry     beta= 0.05
     Davidson diagonalization with overlap
     ethr =  2.31E-11,  avg # of iterations =  6.2

     negative rho (up, down):  8.559E-03 8.560E-03

[...]

     Adding external electric field

     Computed dipole along edir(3) :
        Dipole                1.3070 Ry au,          3.3220 Debye
        Dipole field          0.0025 Ry au,

        Potential amp.       -0.2286 Ry
        Total length         46.3494 bohr

     Magnetic moment per site  (integrated on atomic sphere of radius R)
     atom   1 (R=0.738)  charge=  8.0465  magn=  0.0087
     atom   2 (R=0.738)  charge=  8.0283  magn=  0.0005
     atom   3 (R=0.738)  charge=  5.0153  magn= -0.0008
     atom   4 (R=0.738)  charge=  5.0522  magn= -0.0001
     atom   5 (R=0.738)  charge=  5.0214  magn= -0.0001
     atom   6 (R=0.738)  charge=  5.0219  magn= -0.0001
     atom   7 (R=0.738)  charge=  8.0284  magn=  0.0005
     atom   8 (R=0.738)  charge=  8.0296  magn=  0.0045
     atom   9 (R=0.738)  charge=  5.0288  magn=  0.0002
     atom  10 (R=0.738)  charge=  5.0292  magn= -0.0002
     atom  11 (R=0.738)  charge=  5.0169  magn=  0.0001
     atom  12 (R=0.738)  charge=  5.0160  magn=  0.0001
     atom  13 (R=0.738)  charge=  8.0366  magn=  0.0004
     atom  14 (R=0.738)  charge=  8.0338  magn= -0.0017
     atom  15 (R=0.738)  charge=  5.0278  magn= -0.0001
     atom  16 (R=0.738)  charge=  5.0249  magn=  0.0005
     atom  17 (R=0.738)  charge=  5.0031  magn=  0.0004
     atom  18 (R=0.738)  charge=  5.0056  magn=  0.0004
     atom  19 (R=0.738)  charge=  8.0663  magn= -0.0069
     atom  20 (R=0.738)  charge=  8.0805  magn= -0.0012
     atom  21 (R=0.738)  charge=  4.9002  magn= -0.0006
     atom  22 (R=0.738)  charge=  4.9790  magn=  0.0002
     atom  23 (R=0.738)  charge=  5.0126  magn= -0.0010
     atom  24 (R=0.738)  charge=  5.0127  magn= -0.0010
     atom  25 (R=0.738)  charge=  8.0466  magn=  0.0088
     atom  26 (R=0.738)  charge=  8.0283  magn=  0.0005
     atom  27 (R=0.738)  charge=  5.0151  magn= -0.0008
     atom  28 (R=0.738)  charge=  5.0526  magn= -0.0001
     atom  29 (R=0.738)  charge=  5.0223  magn= -0.0001
     atom  30 (R=0.738)  charge=  5.0226  magn= -0.0001
     atom  31 (R=0.738)  charge=  8.0286  magn=  0.0005
     atom  32 (R=0.738)  charge=  8.0297  magn=  0.0046
     atom  33 (R=0.738)  charge=  5.0280  magn=  0.0002
     atom  34 (R=0.738)  charge=  5.0267  magn= -0.0002
     atom  35 (R=0.738)  charge=  5.0201  magn=  0.0001
     atom  36 (R=0.738)  charge=  5.0197  magn=  0.0001
     atom  37 (R=0.738)  charge=  8.0323  magn=  0.0003
     atom  38 (R=0.738)  charge=  8.0346  magn= -0.0018
     atom  39 (R=0.738)  charge=  5.0089  magn=  0.0002
     atom  40 (R=0.738)  charge=  5.0372  magn=  0.0005
     atom  41 (R=0.738)  charge=  5.0005  magn=  0.0005
     atom  42 (R=0.738)  charge=  5.0042  magn=  0.0005
     atom  43 (R=0.738)  charge=  8.0647  magn= -0.0072
     atom  44 (R=0.738)  charge=  8.0445  magn= -0.0026
     atom  45 (R=0.738)  charge=  4.9002  magn= -0.0004
     atom  46 (R=0.738)  charge=  5.0126  magn= -0.0010
     atom  47 (R=0.738)  charge=  5.0127  magn= -0.0010
     atom  48 (R=0.420)  charge=  0.4510  magn=  0.0000
     atom  49 (R=0.420)  charge=  0.4507  magn=  0.0000
     atom  50 (R=0.420)  charge=  1.3396  magn= -0.0000
     atom  51 (R=0.449)  charge=  0.8464  magn=  0.0000
     atom  52 (R=0.420)  charge=  0.4445  magn= -0.0000
     atom  53 (R=0.420)  charge=  0.4483  magn= -0.0000
     atom  54 (R=0.420)  charge=  0.4445  magn= -0.0000

     End of self-consistent calculation

 ------ SPIN UP ------------

          k = 0.0000 0.0000 0.0000 ( 18029 PWs)   bands (ev):

   -55.4272 -55.3899 -55.3863 -55.3521 -55.3503 -55.3073 -55.3018 -55.2730
   -55.2492 -55.2252 -55.2147 -55.2138 -55.1802 -55.0990 -54.4096 -54.3756
   -31.9955 -31.8800 -31.8742 -31.7945 -31.7389 -31.7383 -31.7263 -31.7205
   -31.6761 -31.6633 -31.6371 -31.6329 -31.6317 -31.6118 -31.5952 -31.5865
   -31.5826 -31.5733 -31.5643 -31.5468 -31.5398 -31.5290 -31.4957 -31.4926
   -31.4836 -31.4798 -31.4715 -31.4516 -31.4449 -31.4374 -31.4317 -31.4128
   -31.4090 -31.3998 -31.3976 -31.3967 -31.3628 -31.3442 -31.3420 -31.3253
   -31.3046 -31.2884 -30.8186 -30.7246 -30.7025 -30.6351 -30.5484 -30.4373
   -16.2813 -16.1566 -15.9723 -15.8221 -15.7365 -15.6267 -15.5084 -15.4900
   -15.3579 -15.2795 -15.1547 -15.1287 -15.1000 -15.0836 -15.0729 -15.0596
   -14.9734 -14.9675 -14.9522 -14.9224 -14.9214 -14.8759 -14.8670 -14.8260
   -14.8021 -14.7932 -14.6775 -14.5880 -14.5142 -14.2726 -12.9109 -12.7934
   -10.2291  -6.2813  -4.8432  -3.9347  -3.6000  -3.4486  -3.3553  -3.3236
    -3.3200  -3.1845  -3.0317  -2.8847  -2.8361  -2.8331  -2.7127  -2.6391
    -2.6285  -2.6086  -2.4561  -2.4251  -2.3764  -2.3297  -2.2883  -2.2374
    -2.2190  -2.2090  -2.1937  -2.1694  -2.1593  -2.0508  -1.9948  -1.9096
    -1.8535  -1.8294  -1.7799  -1.7636  -1.7373  -1.7180  -1.7087  -1.6618
    -1.6359  -1.6223  -1.5688  -1.4561  -1.3505  -1.3012  -1.1815  -1.0660
    -1.0278  -1.0135  -0.9622  -0.9242  -0.9128  -0.8436  -0.8053  -0.7750
    -0.7160  -0.6597  -0.5910  -0.5420  -0.4754  -0.4597  -0.4159  -0.3530
    -0.2461  -0.2101  -0.1945  -0.1669  -0.0709  -0.0387   0.0109   0.0923
     0.0976   0.1105   0.2134   0.2286   0.3003   0.3493   0.3667   0.4533
     0.4872   0.5025   0.5062   0.5326   0.5575   0.6119   0.6450   0.6732
     0.7480   0.8718   1.0939   1.1642   1.1840   1.5096   1.5193   1.6143
     1.7975   2.1907   2.2386   3.6648   3.7376   3.8063   3.8180   3.8453
     3.9037   4.1459   4.1666   4.1719   4.1796   4.2026

[...]

          k =-0.0760-0.0000 0.0000 ( 17886 PWs)   bands (ev):

[...]

 ------ SPIN DOWN ----------

[...]

          k = 0.0380-0.0419 0.0000 ( 17876 PWs)   bands (ev):

[...]

          k =-0.0760-0.0839 0.0000 ( 17948 PWs)   bands (ev):

   -55.4167 -55.4067 -55.3537 -55.3533 -55.3532 -55.3106 -55.2905 -55.2889
   -55.2410 -55.2327 -55.2289 -55.1900 -55.1894 -55.1023 -54.3916 -54.3913
   -31.8056 -31.8008 -31.7983 -31.7136 -31.6900 -31.6828 -31.6825 -31.6438
   -31.6436 -31.6374 -31.6306 -31.6291 -31.6229 -31.5963 -31.5873 -31.5688
   -31.5654 -31.5612 -31.5599 -31.5583 -31.5538 -31.5511 -31.5109 -31.5070
   -31.5055 -31.5002 -31.4968 -31.4833 -31.4797 -31.4717 -31.4714 -31.4656
   -31.4619 -31.4456 -31.4417 -31.4292 -31.4240 -31.4212 -31.3712 -31.3707
   -31.3668 -31.3124 -30.7141 -30.7139 -30.6305 -30.6303 -30.5907 -30.5906
   -16.1291 -15.7639 -15.6761 -15.6285 -15.4652 -15.4325 -15.4112 -15.3940
   -15.2638 -15.2371 -15.2125 -15.1955 -15.1731 -15.1365 -15.1311 -15.1253
   -15.0497 -15.0334 -15.0288 -15.0105 -14.9480 -14.9384 -14.9354 -14.9282
   -14.8778 -14.8741 -14.8083 -14.7817 -14.7785 -14.5618 -12.8963 -12.8959
   -10.2327  -6.2536  -4.8391  -3.8972  -2.9474  -2.9183  -2.8826  -2.8788
    -2.6801  -2.6306  -2.5968  -2.5698  -2.4806  -2.4456  -2.4229  -2.4183
    -2.3471  -2.3306  -2.3120  -2.2705  -2.2637  -2.2492  -2.2267  -2.1909
    -2.1640  -2.1550  -2.1480  -2.1257  -2.0813  -2.0677  -2.0508  -2.0269
    -2.0229  -2.0121  -1.9840  -1.9366  -1.8103  -1.8010  -1.7266  -1.6360
    -1.6311  -1.5551  -1.5391  -1.4919  -1.4750  -1.4607  -1.4194  -1.2354
    -1.1981  -1.1755  -1.1655  -1.0995  -1.0383  -1.0216  -0.9487  -0.9324
    -0.9161  -0.8075  -0.7608  -0.7494  -0.6578  -0.6471  -0.5688  -0.5109
    -0.4548  -0.4345  -0.3952  -0.3840  -0.3810  -0.3356  -0.3281  -0.2425
    -0.1979  -0.1627  -0.1491  -0.1152   0.0857   0.0912   0.1139   0.2573
     0.2890   0.4138   0.4455   0.4987   0.5748   0.6082   0.6832   0.7180
     0.8505   0.8776   0.8784   0.9505   0.9599   1.0240   1.0336   1.9698
     1.9706   2.0579   2.0581   3.8186   3.9044   3.9315   3.9713   4.0852
     4.1611   4.1876   4.2088   4.2576   4.2609   4.3231

     the Fermi energy is     3.7333 ev

!    total energy              =   -2921.63347809 Ry
     estimated scf accuracy    <       0.00000006 Ry
     smearing contrib. (-TS)   =      -0.03704200 Ry
     internal energy E=F+TS    =   -2921.59643610 Ry

     The total energy is F=E-TS. E is the sum of the following terms:
     one-electron contribution =  -23999.90597448 Ry
     hartree contribution      =   12089.09994672 Ry
     xc contribution           =    -481.73800406 Ry
     ewald contribution        =    9470.94437210 Ry
     electric field correction =       0.00322363 Ry

     total magnetization       =     0.01 Bohr mag/cell
     absolute magnetization    =     0.09 Bohr mag/cell

     convergence has been achieved in  74 iterations

     Forces acting on atoms (cartesian axes, Ry/au):

     atom    1 type  1   force =     0.00019594   -0.00022436    0.09323005
     atom    2 type  1   force =    -0.00003871   -0.00042140   -0.17832748
     atom    3 type  2   force =     0.00007994   -0.00039725   -0.02015674
     atom    4 type  2   force =     0.00001516   -0.00194965    0.05891802
     atom    5 type  2   force =    -0.01034086   -0.00094436    0.00824401
     atom    6 type  2   force =     0.01152792   -0.00017894    0.00657901
     atom    7 type  1   force =    -0.00063239    0.00208244   -0.01451899
     atom    8 type  1   force =     0.00067976   -0.00093344   -0.00515323
     atom    9 type  2   force =     0.00014089    0.00031699    0.00008446
     atom   10 type  2   force =    -0.00249363    0.00189310    0.00099880
     atom   11 type  2   force =    -0.00015991    0.00003948    0.00028504
     atom   12 type  2   force =     0.00001727    0.00030179    0.00017474
     atom   13 type  1   force =    -0.00002204    0.00007140    0.00005238
     atom   14 type  1   force =     0.00005884   -0.00002934    0.00012578
     atom   15 type  2   force =     0.00007331   -0.00021386   -0.00001406
     atom   16 type  2   force =     0.00034667    0.00000341   -0.00004332
     atom   17 type  2   force =     0.00009824   -0.00036027    0.00005828
     atom   18 type  2   force =     0.00006924   -0.00001179   -0.00004659
     atom   19 type  1   force =     0.00041820   -0.00002063    0.00053148
     atom   20 type  1   force =     0.00033673    0.00040830    0.00030667
     atom   21 type  2   force =     0.00014232   -0.00009324    0.10395829
     atom   22 type  2   force =     0.00011961    0.00059901    0.00051940
     atom   23 type  2   force =    -0.07031478   -0.00019691   -0.02690552
     atom   24 type  2   force =     0.07032514    0.00026478   -0.02693469
     atom   25 type  1   force =     0.00013947   -0.00018319    0.09282074
     atom   26 type  1   force =    -0.00005670   -0.00052997   -0.17834612
     atom   27 type  2   force =     0.00011615   -0.00026389   -0.01922251
     atom   28 type  2   force =     0.00008626   -0.00171036    0.05823159
     atom   29 type  2   force =    -0.01084355   -0.00099309    0.00881898
     atom   30 type  2   force =     0.01194741   -0.00068644    0.00713552
     atom   31 type  1   force =    -0.00065489    0.00611548   -0.01533432
     atom   32 type  1   force =     0.00081691    0.00035225   -0.00555002
     atom   33 type  2   force =    -0.00037703   -0.00032787    0.00017229
     atom   34 type  2   force =    -0.00223906   -0.00204297   -0.00002963
     atom   35 type  2   force =    -0.00073758    0.00026213    0.00034004
     atom   36 type  2   force =     0.00076646   -0.00010278   -0.00018153
     atom   37 type  1   force =     0.00004079    0.00021892    0.00001826
     atom   38 type  1   force =    -0.00029175    0.00022938    0.00049694
     atom   39 type  2   force =    -0.00038230   -0.00007188   -0.00001011
     atom   40 type  2   force =    -0.00006258   -0.00009043    0.00033235
     atom   41 type  2   force =    -0.00023463    0.00004569   -0.00010993
     atom   42 type  2   force =     0.00043235   -0.00016358   -0.00018877
     atom   43 type  1   force =    -0.00030628   -0.00000357    0.00009471
     atom   44 type  1   force =     0.00050909   -0.00000616   -0.00001241
     atom   45 type  2   force =     0.00012522   -0.00010530    0.10393306
     atom   46 type  2   force =    -0.07030375   -0.00011532   -0.02687088
     atom   47 type  2   force =     0.07030197    0.00030001   -0.02690887
     atom   48 type  3   force =     0.00004257   -0.00028368    0.00010014
     atom   49 type  3   force =     0.00053923    0.00072411   -0.00095348
     atom   50 type  4   force =    -0.00064586   -0.00074935    0.00117709
     atom   51 type  5   force =     0.00376461    0.00094379   -0.00346415
     atom   52 type  3   force =     0.00010878   -0.00040645   -0.00055079
     atom   53 type  3   force =    -0.00293991   -0.00055914    0.00259149
     atom   54 type  3   force =    -0.00030422    0.00019840   -0.00049542

     Total force =     0.366339     Total SCF correction =     0.000338
  @ DRIVER MODE: Message from server: STATUS
  @ DRIVER MODE: Message from server: GETFORCE
  @ DRIVER MODE: Returning v,forces,stress,ensemble

     Writing output data file ./calc.save/
  @ DRIVER MODE: Message from server: EXIT
  @ DRIVE MODE: Exiting

     General routines

     Parallel routines

   This run was terminated on:  23: 5:16  17Jul2021

   JOB DONE.