     Program PWSCF v.6.7GPU starts on 16Sep2021 at  2:26:36

     R & G space division:  proc/nbgrp/npool/nimage =      10
     Reading input from /storage/home/hcoda1/3/ntian30/research/carbon/CxH_vib/H2O_calc/ads_slab/CHNNHHH2O_a/out_0034/pw.inp
Warning: card &CELL ignored
Warning: card   CELL_DYNAMICS='IPI', ignored
Warning: card / ignored

     Current dimensions of program PWSCF are:
     Max number of different atomic species (ntypx) = 10
     Max number of k-points (npk) =  40000
     Max angular momentum in pseudopotentials (lmaxx) =  3
     Presently no symmetry can be used with electric field

     Message from routine cell_base_init:
     DEPRECATED: use true lattice parameter, not A to a.u. conversion factor

     IMPORTANT: XC functional enforced from input :
     Exchange-correlation= BEEF-VDW
                           (   1   4  43  14   2   0   0)
     Any further DFT definition will be discarded
     Please, verify this is what you really want

  @ DRIVER MODE: Connecting to
 qe_1139763_2852630.sched-torque.pace.gatech.edustpcy5bv_scratch
  using UNIX socket
  @ DRIVER MODE: Message from server: STATUS
  @ DRIVER MODE: Message from server: INIT
  @ DRIVER MODE: Receiving replica           0          -1
  @ DRIVER MODE: Receiving encoded integer          25
  @ DRIVER MODE:  SCF:  T  FORCE:  T  STRESS:  F  VC:  F  ENSEMBLE:  F
  @ DRIVER MODE:  SCF:  T  FORCE:  T  STRESS:  F  VC:  F  ENSEMBLE:  F

     Using Slab Decomposition

     bravais-lattice index     =            0
     lattice parameter (alat)  =       1.8897  a.u.
     unit-cell volume          =    6658.9804 (a.u.)^3
     number of atoms/cell      =           56
     number of atomic types    =            5
     number of electrons       =       403.00
     number of Kohn-Sham states=          211
     kinetic-energy cutoff     =      29.3995  Ry
     charge density cutoff     =     293.9946  Ry
     scf convergence threshold =      7.3E-08
     mixing beta               =       0.0500
     number of iterations used =            8  plain     mixing
     Exchange-correlation= BEEF-VDW
                           (   1   4  43  14   2   0   0)

     celldm(1)=   1.889726  celldm(2)=   0.000000  celldm(3)=   0.000000
     celldm(4)=   0.000000  celldm(5)=   0.000000  celldm(6)=   0.000000

     crystal axes: (cart. coord. in units of alat)
               a(1) = (   6.579727   0.000000   0.000000 )
               a(2) = (  -0.000775   5.961596   0.000000 )
               a(3) = (   0.000000   0.000000  25.155947 )

     reciprocal axes: (cart. coord. in units 2 pi/alat)
               b(1) = (  0.151982  0.000020  0.000000 )
               b(2) = (  0.000000  0.167740  0.000000 )
               b(3) = (  0.000000  0.000000  0.039752 )

     PseudoPot. # 1 for Ti read from file:
     /storage/coda1/p-amedford6/0/shared/rich_project_chbe-medford/medford-share/data/pseudos_module/espresso/nninc/pbe/van/Ti.UPF
     MD5 check sum: 8e4df49b7f0d34bbd5052bf3f5ea0213
     Pseudo is Ultrasoft, Zval = 12.0
     Generated by new atomic code, or converted to UPF format
     Using radial grid of  851 points,  6 beta functions with:
                l(1) =   0
                l(2) =   0
                l(3) =   1
                l(4) =   1
                l(5) =   2
                l(6) =   2
     Q(r) pseudized with  8 coefficients,  rinner =    1.000   1.000   1.000
                                                       1.000   1.000

     PseudoPot. # 2 for O  read from file:
     /storage/coda1/p-amedford6/0/shared/rich_project_chbe-medford/medford-share/data/pseudos_module/espresso/nninc/pbe/van/O.UPF
     MD5 check sum: 78c19812648e8988a0fe644b0f25305e
     Pseudo is Ultrasoft, Zval =  6.0
     Generated by new atomic code, or converted to UPF format
     Using radial grid of  737 points,  4 beta functions with:
                l(1) =   0
                l(2) =   0
                l(3) =   1
                l(4) =   1
     Q(r) pseudized with  8 coefficients,  rinner =    0.800   0.800   0.800

     PseudoPot. # 3 for N  read from file:
     /storage/coda1/p-amedford6/0/shared/rich_project_chbe-medford/medford-share/data/pseudos_module/espresso/nninc/pbe/van/N.UPF
     MD5 check sum: 90d10febe142ad51ac9d5be1deb811c4
     Pseudo is Ultrasoft, Zval =  5.0
     Generated by new atomic code, or converted to UPF format
     Using radial grid of  729 points,  4 beta functions with:
                l(1) =   0
                l(2) =   0
                l(3) =   1
                l(4) =   1
     Q(r) pseudized with  8 coefficients,  rinner =    0.800   0.800   0.800

     PseudoPot. # 4 for C  read from file:
     /storage/coda1/p-amedford6/0/shared/rich_project_chbe-medford/medford-share/data/pseudos_module/espresso/nninc/pbe/van/C.UPF
     MD5 check sum: 1a69bf6b8db32088f5b2163dbdb77a27
     Pseudo is Ultrasoft, Zval =  4.0
     Generated by new atomic code, or converted to UPF format
     Using radial grid of  721 points,  4 beta functions with:
                l(1) =   0
                l(2) =   0
                l(3) =   1
                l(4) =   1
     Q(r) pseudized with  8 coefficients,  rinner =    0.800   0.800   0.800

     PseudoPot. # 5 for H  read from file:
     /storage/coda1/p-amedford6/0/shared/rich_project_chbe-medford/medford-share/data/pseudos_module/espresso/nninc/pbe/van/H.UPF
     MD5 check sum: b5ee9d7bfd3a09ee7748110bda690ff7
     Pseudo is Ultrasoft, Zval =  1.0
     Generated by new atomic code, or converted to UPF format
     Using radial grid of  615 points,  1 beta functions with:
                l(1) =   0
     Q(r) pseudized with  8 coefficients,  rinner =    0.800

     atomic species   valence    mass     pseudopotential
        Ti1           12.00    47.86700     Ti( 1.00)
        O1             6.00    15.99900     O ( 1.00)
        N1             5.00    14.00700     N ( 1.00)
        C1             4.00    12.01100     C ( 1.00)
        H1             1.00     1.00800     H ( 1.00)

     No symmetry found

   Cartesian axes

     site n.     atom                  positions (alat units)
         1           Ti1 tau(   1) = (   0.0004258   2.9801865   6.0000000  )
         2           Ti1 tau(   2) = (   3.2906075   1.4906267   6.0002472  )
         3           O1  tau(   3) = (   0.0006271   0.0005054   7.9858123  )
         4           O1  tau(   4) = (   3.2906025   0.0005020   7.3038282  )
         5           O1  tau(   5) = (   4.5942328   1.4918067   9.2879030  )
         6           O1  tau(   6) = (   1.9868534   1.4903216   9.2879459  )
         7           Ti1 tau(   7) = (   3.2907910   2.8959150   9.1758416  )
         8           Ti1 tau(   8) = (   0.0015273   1.4827037   9.2680791  )
         9           O1  tau(   9) = (   3.3295752   5.9394884  11.3365386  )
        10           O1  tau(  10) = (   0.0116148   5.9584955  10.6183126  )
        11           O1  tau(  11) = (   1.3416459   1.4853116  12.6004455  )
        12           O1  tau(  12) = (   5.3426426   1.4786053  12.6369034  )
        13           Ti1 tau(  13) = (   0.0116414   2.9353973  12.6160321  )
        14           Ti1 tau(  14) = (   3.2634613   1.4579052  12.5012998  )
        15           O1  tau(  15) = (   0.1064876   0.0498873  14.6156690  )
        16           O1  tau(  16) = (   3.3207907   0.0021492  13.9347054  )
        17           O1  tau(  17) = (   4.6463059   1.4619937  15.9920056  )
        18           O1  tau(  18) = (   2.1466462   1.4989335  16.1123926  )
        19           Ti1 tau(  19) = (   3.4306617   2.9592634  15.6863987  )
        20           Ti1 tau(  20) = (   0.1411245   1.4409179  16.1562347  )
        21           O1  tau(  21) = (   3.2904802   0.0005063   4.7018136  )
        22           O1  tau(  22) = (   0.1093408   5.8617090  17.1288626  )
        23           O1  tau(  23) = (   1.3043587   1.4918075   6.0039043  )
        24           O1  tau(  24) = (   5.2767064   1.4903225   6.0039473  )
        25           Ti1 tau(  25) = (   0.0000382   5.9609847   6.0000000  )
        26           Ti1 tau(  26) = (   3.2902200   4.4714249   6.0002472  )
        27           O1  tau(  27) = (   0.0002396   2.9813036   7.9858123  )
        28           O1  tau(  28) = (   3.2902150   2.9813002   7.3038282  )
        29           O1  tau(  29) = (   4.5938453   4.4726049   9.2879030  )
        30           O1  tau(  30) = (   1.9864658   4.4711199   9.2879459  )
        31           Ti1 tau(  31) = (   3.2891106   5.8743827   9.1763621  )
        32           Ti1 tau(  32) = (   0.0006254   4.4649316   9.2693709  )
        33           O1  tau(  33) = (   3.3252478   2.9725824  11.3426849  )
        34           O1  tau(  34) = (   0.0092240   2.9805883  10.6323155  )
        35           O1  tau(  35) = (   1.3395427   4.4601989  12.6346899  )
        36           O1  tau(  36) = (   5.3460148   4.4586474  12.6692756  )
        37           Ti1 tau(  37) = (   6.5637397   5.9322234  12.5160321  )
        38           Ti1 tau(  38) = (   3.2635149   4.4558096  12.5102435  )
        39           O1  tau(  39) = (   0.1109093   2.9345503  14.7784033  )
        40           O1  tau(  40) = (   3.3425673   2.9461413  13.8942005  )
        41           O1  tau(  41) = (   4.6672108   4.4449251  15.9191901  )
        42           O1  tau(  42) = (   2.1284166   4.4082335  15.9970045  )
        43           Ti1 tau(  43) = (   3.3925976   5.9399099  15.7906296  )
        44           Ti1 tau(  44) = (   0.1175887   4.6074924  15.7225956  )
        45           O1  tau(  45) = (   3.2900926   2.9813045   4.7018136  )
        46           O1  tau(  46) = (   1.3039711   4.4726057   6.0039043  )
        47           O1  tau(  47) = (   5.2763189   4.4711207   6.0039473  )
        48           N1  tau(  48) = (   6.3322197   2.6896666  17.8857888  )
        49           C1  tau(  49) = (   0.7408832   3.1023054  18.6049742  )
        50           H1  tau(  50) = (   1.6825283   2.9574642  18.0630083  )
        51           N1  tau(  51) = (   5.0062801   2.8267163  18.4728511  )
        52           H1  tau(  52) = (   5.1803530   3.0494745  19.4549233  )
        53           H1  tau(  53) = (   4.5789568   1.9125856  18.4370215  )
        54           O1  tau(  54) = (   3.4803961   5.7297960  18.1507158  )
        55           H1  tau(  55) = (   4.0125945   4.9267423  18.3304466  )
        56           H1  tau(  56) = (   2.5980622   5.5532332  18.5227279  )

     number of k points=    10  Fermi-Dirac smearing, width (Ry)=  0.0073
                       cart. coord. in units 2pi/alat
        k(    1) = (   0.0000000   0.0000000   0.0000000), wk =   0.1250000
        k(    2) = (   0.0000000   0.0419351   0.0000000), wk =   0.2500000
        k(    3) = (   0.0000000  -0.0838702   0.0000000), wk =   0.1250000
        k(    4) = (   0.0379955   0.0000049   0.0000000), wk =   0.2500000
        k(    5) = (   0.0379955   0.0419400   0.0000000), wk =   0.2500000
        k(    6) = (   0.0379955  -0.0838652   0.0000000), wk =   0.2500000
        k(    7) = (   0.0379955  -0.0419301   0.0000000), wk =   0.2500000
        k(    8) = (  -0.0759910  -0.0000099   0.0000000), wk =   0.1250000
        k(    9) = (  -0.0759910   0.0419252   0.0000000), wk =   0.2500000
        k(   10) = (  -0.0759910  -0.0838800   0.0000000), wk =   0.1250000

     Initial potential from superposition of free atoms

     starting charge  386.99914, renormalised to  403.00000

     negative rho (up, down):  1.683E-02 0.000E+00

     %%%%%%%%%%%%%%%%%%%%%%%%%%%%%%%%%%%%%%%%%%%%%%%%%%%%%%%%%%%%%%%%%%%%%%%%
     %                                                                      %
     % You are using vdW-DF, which was implemented by the Thonhauser group. %
     % Please cite the following two papers that made this development      %
     % possible and the two reviews that describe the various versions:     %
     %                                                                      %
     %   T. Thonhauser et al., PRL 115, 136402 (2015).                      %
     %   T. Thonhauser et al., PRB 76, 125112 (2007).                       %
     %   K. Berland et al., Rep. Prog. Phys. 78, 066501 (2015).             %
     %   D.C. Langreth et al., J. Phys.: Condens. Matter 21, 084203 (2009). %
     %                                                                      %
     %                                                                      %
     % If you are calculating the stress with vdW-DF, please also cite:     %
     %                                                                      %
     %   R. Sabatini et al., J. Phys.: Condens. Matter 24, 424209 (2012).   %
     %                                                                      %
     %%%%%%%%%%%%%%%%%%%%%%%%%%%%%%%%%%%%%%%%%%%%%%%%%%%%%%%%%%%%%%%%%%%%%%%%

     Adding external electric field

     Computed dipole along edir(3) :
        Dipole              -12.6658 Ry au,        -32.1932 Debye
        Dipole field         -0.0239 Ry au,

        Potential amp.        2.2157 Ry
        Total length         46.3494 bohr

     Starting wfcs are  305 atomic wfcs
  @ DRIVER MODE: Message from server: STATUS
  @ DRIVER MODE: Message from server: POSDATA
  @ DRIVER MODE: Reading and sharing cell
  @ DRIVER MODE: Reading and sharing positions
  @ DRIVER MODE: Received positions

     Self-consistent Calculation

     iteration #  1     ecut=    29.40 Ry     beta= 0.05
     Davidson diagonalization with overlap
     c_bands:  3 eigenvalues not converged
     c_bands:  2 eigenvalues not converged
     c_bands:  5 eigenvalues not converged
     c_bands:  1 eigenvalues not converged
     c_bands:  4 eigenvalues not converged
     c_bands:  1 eigenvalues not converged
     c_bands:  2 eigenvalues not converged
     ethr =  1.00E-05,  avg # of iterations = 26.8

[...]

     total energy              =   -2339.72205190 Ry
     estimated scf accuracy    <    7188.23555772 Ry

     iteration #  2     ecut=    29.40 Ry     beta= 0.05
     Davidson diagonalization with overlap
     ethr =  1.00E-02,  avg # of iterations = 22.4

[...]

     iteration # 70     ecut=    29.40 Ry     beta= 0.05
     Davidson diagonalization with overlap
     c_bands:  1 eigenvalues not converged
     ethr =  6.22E-11,  avg # of iterations = 11.2

[...]

     total energy              =   -2973.87554066 Ry
     estimated scf accuracy    <       0.00000008 Ry

     iteration # 72     ecut=    29.40 Ry     beta= 0.05
     Davidson diagonalization with overlap
     ethr =  2.08E-11,  avg # of iterations = 11.3

     negative rho (up, down):  1.574E-02 0.000E+00

     Adding external electric field

     Computed dipole along edir(3) :
        Dipole                0.4423 Ry au,          1.1243 Debye
        Dipole field          0.0008 Ry au,

        Potential amp.       -0.0774 Ry
        Total length         46.3494 bohr

     End of self-consistent calculation

          k = 0.0000 0.0000 0.0000 ( 18029 PWs)   bands (ev):

   -55.9068 -55.8727 -55.8710 -55.8335 -55.7920 -55.7906 -55.7348 -55.7240
   -55.6974 -55.6900 -55.6896 -55.6562 -55.4669 -55.3787 -54.8896 -54.8556
   -32.4119 -32.3908 -32.2783 -32.2340 -32.2239 -32.1988 -32.1805 -32.1612
   -32.1513 -32.1092 -32.0611 -32.0591 -32.0453 -32.0351 -32.0251 -32.0238
   -32.0127 -32.0087 -32.0049 -31.9942 -31.9870 -31.9728 -31.9640 -31.9308
   -31.9216 -31.9182 -31.9163 -31.9111 -31.8879 -31.8873 -31.8798 -31.8669
   -31.8570 -31.8439 -31.8364 -31.8297 -31.8025 -31.7587 -31.6967 -31.6349
   -31.5925 -31.5207 -31.2968 -31.2082 -31.1858 -31.1136 -31.0271 -30.9159
   -18.8441 -17.1918 -16.6214 -16.3849 -16.1483 -16.0692 -16.0441 -15.8146
   -15.7194 -15.6637 -15.5671 -15.5055 -15.4767 -15.4465 -15.4236 -15.4024
   -15.3617 -15.3495 -15.3295 -15.3287 -15.3020 -15.2929 -15.2557 -15.2499
   -15.2024 -15.0794 -15.0454 -15.0401 -15.0103 -14.9724 -14.5299 -13.3912
   -13.2747 -12.8557  -7.1314  -6.5614  -5.5250  -4.0017  -3.8676  -3.8606
    -3.8156  -3.7506  -3.6019  -3.5734  -3.3751  -3.2442  -3.1761  -3.0947
    -3.0780  -3.0397  -3.0139  -2.9099  -2.8243  -2.7899  -2.7207  -2.7053
    -2.6802  -2.6724  -2.6430  -2.6191  -2.5339  -2.5154  -2.4754  -2.4414
    -2.3261  -2.3074  -2.2507  -2.2221  -2.2157  -2.1968  -2.1726  -2.1629
    -2.1485  -2.1366  -2.0785  -2.0524  -1.9670  -1.9034  -1.8393  -1.7022
    -1.5615  -1.5206  -1.5102  -1.4087  -1.3822  -1.3473  -1.3281  -1.3037
    -1.2874  -1.1652  -1.0867  -1.0231  -1.0164  -0.9457  -0.8529  -0.7929
    -0.7354  -0.6781  -0.6718  -0.6511  -0.6466  -0.6117  -0.5387  -0.4024
    -0.3647  -0.3244  -0.2907  -0.2032  -0.1940  -0.1490  -0.1175  -0.0969
    -0.0641   0.0145   0.0262   0.0573   0.0785   0.0997   0.1226   0.1808
     0.3095   0.3312   0.3498   0.4070   0.4435   0.6030   0.7436   0.7868
     0.8890   1.0622   1.1334   1.1570   1.2241   1.3249   1.7044   1.7503
     2.7627   3.2091   3.3128   3.3467   3.3539   3.4549   3.4797   3.6707
     3.7150   3.7515   3.7831

[...]

          k = 0.0380-0.0419 0.0000 ( 17876 PWs)   bands (ev):

[...]

          k =-0.0760-0.0000 0.0000 ( 17886 PWs)   bands (ev):

[...]

          k =-0.0760-0.0839 0.0000 ( 17948 PWs)   bands (ev):

   -55.8901 -55.8892 -55.8578 -55.8464 -55.7887 -55.7848 -55.7407 -55.7087
   -55.7047 -55.7005 -55.6734 -55.6729 -55.4642 -55.3813 -54.8727 -54.8725
   -32.2284 -32.2064 -32.2063 -32.2058 -32.1845 -32.1839 -32.1269 -32.1191
   -32.0985 -32.0914 -32.0885 -32.0365 -32.0353 -32.0275 -32.0235 -32.0227
   -32.0172 -32.0134 -32.0112 -32.0096 -32.0084 -32.0063 -31.9942 -31.9910
   -31.9740 -31.9524 -31.9510 -31.9113 -31.9093 -31.9022 -31.9015 -31.8990
   -31.8928 -31.8893 -31.8887 -31.8827 -31.8799 -31.7750 -31.6949 -31.6413
   -31.5963 -31.5872 -31.1986 -31.1985 -31.1096 -31.1094 -31.0704 -31.0704
   -18.8417 -17.1833 -16.0483 -15.9630 -15.9248 -15.8355 -15.7897 -15.7561
   -15.6965 -15.6236 -15.5850 -15.5800 -15.5541 -15.4960 -15.4813 -15.4530
   -15.4355 -15.4239 -15.4195 -15.3672 -15.3609 -15.3519 -15.3473 -15.3341
   -15.3316 -15.3061 -15.2312 -15.2283 -15.1059 -14.8953 -14.8708 -13.3766
   -13.3764 -12.8717  -7.0903  -6.5522  -5.4651  -3.6755  -3.3935  -3.3282
    -3.2249  -3.1143  -3.0136  -3.0061  -2.9699  -2.9259  -2.8553  -2.8302
    -2.7746  -2.7547  -2.7402  -2.7235  -2.7192  -2.7083  -2.6753  -2.6522
    -2.5961  -2.5912  -2.5841  -2.5756  -2.5635  -2.5558  -2.5340  -2.5276
    -2.5013  -2.4750  -2.4366  -2.4047  -2.3224  -2.2469  -2.1699  -2.1257
    -2.0925  -2.0580  -2.0514  -2.0082  -1.9877  -1.9759  -1.9589  -1.8945
    -1.7946  -1.6758  -1.6187  -1.5952  -1.5466  -1.5108  -1.4874  -1.3799
    -1.3304  -1.3160  -1.2146  -1.1929  -1.1674  -1.1150  -1.0496  -1.0350
    -0.9922  -0.9483  -0.9060  -0.8656  -0.8602  -0.8101  -0.7652  -0.7381
    -0.6563  -0.6465  -0.6023  -0.5921  -0.5799  -0.5418  -0.4942  -0.4143
    -0.3179  -0.2729  -0.2216  -0.0683   0.0052   0.1410   0.1937   0.2589
     0.2755   0.3750   0.4034   0.4056   0.4869   0.5311   0.5875   0.6194
     0.6242   0.6366   0.8017   1.1053   1.4969   1.4979   1.5700   1.5704
     2.7198   3.5420   3.5995   3.6130   3.6391   3.7254   3.7491   3.7592
     3.7610   3.8800   3.9067

     the Fermi energy is     3.2217 ev

!    total energy              =   -2973.87555946 Ry
     estimated scf accuracy    <       0.00000004 Ry
     smearing contrib. (-TS)   =      -0.02178706 Ry
     internal energy E=F+TS    =   -2973.85377240 Ry

     The total energy is F=E-TS. E is the sum of the following terms:
     one-electron contribution =  -24185.20726131 Ry
     hartree contribution      =   12184.14557241 Ry
     xc contribution           =    -494.00690953 Ry
     ewald contribution        =    9521.21445677 Ry
     electric field correction =       0.00036924 Ry

     convergence has been achieved in  72 iterations

     Forces acting on atoms (cartesian axes, Ry/au):

     atom    1 type  1   force =     0.00016478   -0.00030824    0.09557693
     atom    2 type  1   force =     0.00004575   -0.00045283   -0.17581403
     atom    3 type  2   force =     0.00023193    0.00002045   -0.02350885
     atom    4 type  2   force =     0.00008447   -0.00152730    0.05314935
     atom    5 type  2   force =    -0.01025409   -0.00137462    0.00261759
     atom    6 type  2   force =     0.01292461   -0.00102147    0.00440138
     atom    7 type  1   force =     0.00139786    0.00128554   -0.00566216
     atom    8 type  1   force =    -0.00059683    0.01375180    0.01966132
     atom    9 type  2   force =     0.00023982   -0.00056320    0.00102871
     atom   10 type  2   force =    -0.00153639   -0.00072542   -0.01580128
     atom   11 type  2   force =    -0.00104412    0.00025742   -0.00021530
     atom   12 type  2   force =     0.00039427   -0.00000272    0.00014278
     atom   13 type  1   force =     0.00056048    0.00083668    0.00029612
     atom   14 type  1   force =    -0.00021846   -0.00007552    0.00044069
     atom   15 type  2   force =    -0.00035780   -0.00000287   -0.00038958
     atom   16 type  2   force =     0.00000354   -0.00086077   -0.00041469
     atom   17 type  2   force =    -0.00062249   -0.00013546   -0.00019515
     atom   18 type  2   force =     0.00017519   -0.00026558   -0.00045205
     atom   19 type  1   force =     0.00066994   -0.00058091   -0.00111313
     atom   20 type  1   force =    -0.00070180   -0.00082455   -0.00040256
     atom   21 type  2   force =     0.00007247    0.00001658    0.10319166
     atom   22 type  2   force =    -0.00005910    0.00119178    0.00041541
     atom   23 type  2   force =    -0.07147508   -0.00008403   -0.02756970
     atom   24 type  2   force =     0.07144312    0.00037629   -0.02762183
     atom   25 type  1   force =     0.00009416   -0.00026721    0.09538998
     atom   26 type  1   force =     0.00004038   -0.00022330   -0.17588478
     atom   27 type  2   force =     0.00024772   -0.00036733   -0.02226101
     atom   28 type  2   force =     0.00008208   -0.00122102    0.05320106
     atom   29 type  2   force =    -0.01029645    0.00029494    0.00173092
     atom   30 type  2   force =     0.01288721    0.00085575    0.00359041
     atom   31 type  1   force =     0.00161615    0.00305891   -0.01051145
     atom   32 type  1   force =    -0.00067428   -0.01565483    0.01963967
     atom   33 type  2   force =     0.00053397    0.00064966    0.00018142
     atom   34 type  2   force =    -0.00085263    0.00099643   -0.01348527
     atom   35 type  2   force =     0.00111214    0.00005653   -0.00044007
     atom   36 type  2   force =    -0.00120923    0.00013933   -0.00020256
     atom   37 type  1   force =    -0.00031051   -0.00045146    0.00007289
     atom   38 type  1   force =    -0.00091249    0.00037159   -0.00040189
     atom   39 type  2   force =    -0.00046144   -0.00051909    0.00017265
     atom   40 type  2   force =     0.00009517    0.00096542    0.00015149
     atom   41 type  2   force =    -0.00116917    0.00042568    0.00055235
     atom   42 type  2   force =     0.00105805   -0.00026846    0.00049008
     atom   43 type  1   force =    -0.00018963    0.00091464   -0.00029929
     atom   44 type  1   force =    -0.00045924    0.00058061   -0.00160181
     atom   45 type  2   force =     0.00007315    0.00001027    0.10319843
     atom   46 type  2   force =    -0.07147104   -0.00003514   -0.02756993
     atom   47 type  2   force =     0.07143757    0.00038793   -0.02760737
     atom   48 type  3   force =    -0.00026314    0.00011210    0.00027766
     atom   49 type  4   force =    -0.00002763   -0.00012696   -0.00052286
     atom   50 type  5   force =    -0.00114061   -0.00048198    0.00039969
     atom   51 type  3   force =     0.00670515    0.01375752   -0.00021708
     atom   52 type  5   force =    -0.00026851    0.00010991    0.00071072
     atom   53 type  5   force =    -0.00645562   -0.01460224    0.00030140
     atom   54 type  2   force =    -0.00100195   -0.00029038    0.00107772
     atom   55 type  5   force =    -0.00077184    0.00149168   -0.00074097
     atom   56 type  5   force =     0.00041041    0.00039947   -0.00115381

     Total force =     0.366705     Total SCF correction =     0.000437
  @ DRIVER MODE: Message from server: STATUS
  @ DRIVER MODE: Message from server: GETFORCE
  @ DRIVER MODE: Returning v,forces,stress,ensemble

     Writing output data file ./calc.save/
  @ DRIVER MODE: Message from server: EXIT
  @ DRIVE MODE: Exiting

     General routines

     Parallel routines

   This run was terminated on:   2:46:34  16Sep2021

   JOB DONE.