     Program PWSCF v.6.7GPU starts on 18Oct2021 at 19: 2:29

     R & G space division:  proc/nbgrp/npool/nimage =       8
     Reading input from /storage/home/hcoda1/3/ntian30/research/carbon/CxH_vib/Thiel_calc/ads_slab/H2O_perslab/out_0016/pw.inp
Warning: card &CELL ignored
Warning: card   CELL_DYNAMICS='IPI', ignored
Warning: card / ignored

     Current dimensions of program PWSCF are:
     Max number of different atomic species (ntypx) = 10
     Max number of k-points (npk) =  40000
     Max angular momentum in pseudopotentials (lmaxx) =  3
     Presently no symmetry can be used with electric field

     Message from routine cell_base_init:
     DEPRECATED: use true lattice parameter, not A to a.u. conversion factor

     IMPORTANT: XC functional enforced from input :
     Exchange-correlation= BEEF-VDW
                           (   1   4  43  14   2   0   0)
     Any further DFT definition will be discarded
     Please, verify this is what you really want

  @ DRIVER MODE: Connecting to
 qe_1139763_3255129.sched-torque.pace.gatech.eduo9mzeqyp_scratch
  using UNIX socket
  @ DRIVER MODE: Message from server: STATUS
  @ DRIVER MODE: Message from server: INIT
  @ DRIVER MODE: Receiving replica           0          -1
  @ DRIVER MODE: Receiving encoded integer          25
  @ DRIVER MODE:  SCF:  T  FORCE:  T  STRESS:  F  VC:  F  ENSEMBLE:  F
  @ DRIVER MODE:  SCF:  T  FORCE:  T  STRESS:  F  VC:  F  ENSEMBLE:  F

     Using Slab Decomposition

     bravais-lattice index     =            0
     lattice parameter (alat)  =       1.8897  a.u.
     unit-cell volume          =    9988.4706 (a.u.)^3
     number of atoms/cell      =           56
     number of atomic types    =            3
     number of electrons       =       434.00
     number of Kohn-Sham states=          227
     kinetic-energy cutoff     =      29.3995  Ry
     charge density cutoff     =     293.9946  Ry
     scf convergence threshold =      7.3E-08
     mixing beta               =       0.0500
     number of iterations used =            8  plain     mixing
     Exchange-correlation= BEEF-VDW
                           (   1   4  43  14   2   0   0)

     celldm(1)=   1.889726  celldm(2)=   0.000000  celldm(3)=   0.000000
     celldm(4)=   0.000000  celldm(5)=   0.000000  celldm(6)=   0.000000

     crystal axes: (cart. coord. in units of alat)
               a(1) = (   6.579727   0.000000   0.000000 )
               a(2) = (  -0.001163   8.942395   0.000000 )
               a(3) = (   0.000000   0.000000  25.155947 )

     reciprocal axes: (cart. coord. in units 2 pi/alat)
               b(1) = (  0.151982  0.000020  0.000000 )
               b(2) = (  0.000000  0.111827  0.000000 )
               b(3) = (  0.000000  0.000000  0.039752 )

     PseudoPot. # 1 for O  read from file:
     /storage/coda1/p-amedford6/0/shared/rich_project_chbe-medford/medford-share/data/pseudos_module/espresso/nninc/pbe/van/O.UPF
     MD5 check sum: 78c19812648e8988a0fe644b0f25305e
     Pseudo is Ultrasoft, Zval =  6.0
     Generated by new atomic code, or converted to UPF format
     Using radial grid of  737 points,  4 beta functions with:
                l(1) =   0
                l(2) =   0
                l(3) =   1
                l(4) =   1
     Q(r) pseudized with  8 coefficients,  rinner =    0.800   0.800   0.800

     PseudoPot. # 2 for Ti read from file:
     /storage/coda1/p-amedford6/0/shared/rich_project_chbe-medford/medford-share/data/pseudos_module/espresso/nninc/pbe/van/Ti.UPF
     MD5 check sum: 8e4df49b7f0d34bbd5052bf3f5ea0213
     Pseudo is Ultrasoft, Zval = 12.0
     Generated by new atomic code, or converted to UPF format
     Using radial grid of  851 points,  6 beta functions with:
                l(1) =   0
                l(2) =   0
                l(3) =   1
                l(4) =   1
                l(5) =   2
                l(6) =   2
     Q(r) pseudized with  8 coefficients,  rinner =    1.000   1.000   1.000
                                                       1.000   1.000

     PseudoPot. # 3 for H  read from file:
     /storage/coda1/p-amedford6/0/shared/rich_project_chbe-medford/medford-share/data/pseudos_module/espresso/nninc/pbe/van/H.UPF
     MD5 check sum: b5ee9d7bfd3a09ee7748110bda690ff7
     Pseudo is Ultrasoft, Zval =  1.0
     Generated by new atomic code, or converted to UPF format
     Using radial grid of  615 points,  1 beta functions with:
                l(1) =   0
     Q(r) pseudized with  8 coefficients,  rinner =    0.800

     atomic species   valence    mass     pseudopotential
        O1             6.00    15.99900     O ( 1.00)
        Ti1           12.00    47.86700     Ti( 1.00)
        H1             1.00     1.00800     H ( 1.00)

     No symmetry found

   Cartesian axes

     site n.     atom                  positions (alat units)
         1           O1  tau(   1) = (   0.0007354   0.0005023  10.5931620  )
         2           O1  tau(   2) = (   3.2893612   8.9201916  13.9062151  )
         3           O1  tau(   3) = (   0.0002691   0.0790924  17.2227650  )
         4           O1  tau(   4) = (   0.0006271   0.0005054   7.9858123  )
         5           O1  tau(   5) = (   3.2896170   8.9270158  11.1935980  )
         6           O1  tau(   6) = (   0.0007608   0.0261718  14.5986889  )
         7           O1  tau(   7) = (   1.9868534   1.4903216   9.2879459  )
         8           O1  tau(   8) = (   5.2355617   1.6099344  12.5867606  )
         9           O1  tau(   9) = (   2.0124575   1.5675184  16.0571645  )
        10           Ti1 tau(  10) = (   0.0007404   1.4906270   9.2895810  )
        11           Ti1 tau(  11) = (   3.2907640   1.3491771  12.5100009  )
        12           Ti1 tau(  12) = (   0.0006031   1.2961793  15.7979744  )
        13           O1  tau(  13) = (   4.5942328   1.4918067   9.2879030  )
        14           O1  tau(  14) = (   1.3450460   1.6097215  12.5866593  )
        15           O1  tau(  15) = (   4.5676758   1.5673980  16.0573758  )
        16           Ti1 tau(  16) = (   3.2902859   2.9801868   9.2893338  )
        17           Ti1 tau(  17) = (   0.0004777   2.8281306  12.4679355  )
        18           Ti1 tau(  18) = (   3.2902893   2.9338596  15.7282337  )
        19           O1  tau(  19) = (   0.0003479   2.9813005  10.5931620  )
        20           O1  tau(  20) = (   3.2902216   2.9696935  13.9120052  )
        21           O1  tau(  21) = (   0.0002396   2.9813036   7.9858123  )
        22           O1  tau(  22) = (   3.2903426   2.9637443  11.1940942  )
        23           O1  tau(  23) = (   0.0000089   3.0257264  14.7503890  )
        24           O1  tau(  24) = (   1.9864658   4.4711199   9.2879459  )
        25           O1  tau(  25) = (   5.2380434   4.5829059  12.5871764  )
        26           O1  tau(  26) = (   2.0235919   4.4928291  16.0795284  )
        27           Ti1 tau(  27) = (   0.0003529   4.4714252   9.2895810  )
        28           Ti1 tau(  28) = (   3.2907575   4.3192581  12.5172651  )
        29           Ti1 tau(  29) = (   0.0001526   4.6228845  15.7176810  )
        30           O1  tau(  30) = (   4.5938453   4.4726049   9.2879030  )
        31           O1  tau(  31) = (   1.3423985   4.5827316  12.5869633  )
        32           O1  tau(  32) = (   4.5556179   4.4928061  16.0795667  )
        33           Ti1 tau(  33) = (   3.2898983   5.9609850   9.2893338  )
        34           Ti1 tau(  34) = (   0.0006865   5.8113799  12.4503846  )
        35           Ti1 tau(  35) = (   3.2896120   5.9162390  15.7228808  )
        36           O1  tau(  36) = (  -0.0000397   5.9620987  10.5931620  )
        37           O1  tau(  37) = (   3.2898440   5.9521707  13.9141460  )
        38           O1  tau(  38) = (  -0.0005676   5.9070897  17.2365434  )
        39           O1  tau(  39) = (  -0.0001480   5.9621018   7.9858123  )
        40           O1  tau(  40) = (   3.2901216   5.9393065  11.1928121  )
        41           O1  tau(  41) = (  -0.0000075   6.0145546  14.6353165  )
        42           O1  tau(  42) = (   1.9860782   7.4519181   9.2879459  )
        43           O1  tau(  43) = (   5.2378119   7.5541029  12.5659338  )
        44           O1  tau(  44) = (   2.0283766   7.4974489  16.0624789  )
        45           Ti1 tau(  45) = (  -0.0000347   7.4522234   9.2895810  )
        46           Ti1 tau(  46) = (   3.2905324   7.3023941  12.5037744  )
        47           Ti1 tau(  47) = (  -0.0004371   7.4148098  16.3042026  )
        48           O1  tau(  48) = (   4.5934577   7.4534031   9.2879030  )
        49           O1  tau(  49) = (   1.3417460   7.5537513  12.5656965  )
        50           O1  tau(  50) = (   4.5502908   7.4974792  16.0621795  )
        51           Ti1 tau(  51) = (   3.2895107   8.9417832   9.2893338  )
        52           Ti1 tau(  52) = (   0.0002358   8.7760030  12.4676047  )
        53           Ti1 tau(  53) = (   3.2893608   8.8775079  15.7094031  )
        54           O1  tau(  54) = (   0.0008562   2.9808021  17.9281668  )
        55           H1  tau(  55) = (   6.5781910   2.2037314  18.5062466  )
        56           H1  tau(  56) = (   6.5786456   3.7866572  18.4802172  )

     number of k points=    10  Fermi-Dirac smearing, width (Ry)=  0.0073
                       cart. coord. in units 2pi/alat
        k(    1) = (   0.0000000   0.0000000   0.0000000), wk =   0.1250000
        k(    2) = (   0.0000000   0.0279567   0.0000000), wk =   0.2500000
        k(    3) = (   0.0000000  -0.0559134   0.0000000), wk =   0.1250000
        k(    4) = (   0.0379955   0.0000049   0.0000000), wk =   0.2500000
        k(    5) = (   0.0379955   0.0279617   0.0000000), wk =   0.2500000
        k(    6) = (   0.0379955  -0.0559085   0.0000000), wk =   0.2500000
        k(    7) = (   0.0379955  -0.0279518   0.0000000), wk =   0.2500000
        k(    8) = (  -0.0759910  -0.0000099   0.0000000), wk =   0.1250000
        k(    9) = (  -0.0759910   0.0279468   0.0000000), wk =   0.2500000
        k(   10) = (  -0.0759910  -0.0559233   0.0000000), wk =   0.1250000

     Initial potential from superposition of free atoms

     starting charge  415.99913, renormalised to  434.00000

     negative rho (up, down):  3.975E-02 0.000E+00

     %%%%%%%%%%%%%%%%%%%%%%%%%%%%%%%%%%%%%%%%%%%%%%%%%%%%%%%%%%%%%%%%%%%%%%%%
     %                                                                      %
     % You are using vdW-DF, which was implemented by the Thonhauser group. %
     % Please cite the following two papers that made this development      %
     % possible and the two reviews that describe the various versions:     %
     %                                                                      %
     %   T. Thonhauser et al., PRL 115, 136402 (2015).                      %
     %   T. Thonhauser et al., PRB 76, 125112 (2007).                       %
     %   K. Berland et al., Rep. Prog. Phys. 78, 066501 (2015).             %
     %   D.C. Langreth et al., J. Phys.: Condens. Matter 21, 084203 (2009). %
     %                                                                      %
     %                                                                      %
     % If you are calculating the stress with vdW-DF, please also cite:     %
     %                                                                      %
     %   R. Sabatini et al., J. Phys.: Condens. Matter 24, 424209 (2012).   %
     %                                                                      %
     %%%%%%%%%%%%%%%%%%%%%%%%%%%%%%%%%%%%%%%%%%%%%%%%%%%%%%%%%%%%%%%%%%%%%%%%

     Adding external electric field

     Computed dipole along edir(3) :
        Dipole               -2.8181 Ry au,         -7.1630 Debye
        Dipole field         -0.0035 Ry au,

        Potential amp.        0.3287 Ry
        Total length         46.3494 bohr

     Starting wfcs are  326 atomic wfcs
  @ DRIVER MODE: Message from server: STATUS
  @ DRIVER MODE: Message from server: POSDATA
  @ DRIVER MODE: Reading and sharing cell
  @ DRIVER MODE: Reading and sharing positions
  @ DRIVER MODE: Received positions

     Self-consistent Calculation

     iteration #  1     ecut=    29.40 Ry     beta= 0.05
     Davidson diagonalization with overlap
     c_bands:  2 eigenvalues not converged
     c_bands:  2 eigenvalues not converged
     c_bands:  1 eigenvalues not converged
     c_bands:  2 eigenvalues not converged
     c_bands:  2 eigenvalues not converged
     c_bands:  5 eigenvalues not converged
     c_bands:  2 eigenvalues not converged
     c_bands:  1 eigenvalues not converged
     c_bands:  1 eigenvalues not converged
     c_bands:  2 eigenvalues not converged
     ethr =  1.00E-05,  avg # of iterations = 20.0

[...]

     total energy              =   -3284.58262269 Ry
     estimated scf accuracy    <      14.50389337 Ry

     iteration #  2     ecut=    29.40 Ry     beta= 0.05
     Davidson diagonalization with overlap
     ethr =  3.34E-03,  avg # of iterations =  1.0

[...]

     iteration # 26     ecut=    29.40 Ry     beta= 0.05
     Davidson diagonalization with overlap
     c_bands:  1 eigenvalues not converged
     c_bands:  3 eigenvalues not converged
     c_bands:  1 eigenvalues not converged
     ethr =  3.69E-07,  avg # of iterations = 17.1

[...]

     total energy              =   -3283.10394092 Ry
     estimated scf accuracy    <       0.00000012 Ry

     iteration # 52     ecut=    29.40 Ry     beta= 0.05
     Davidson diagonalization with overlap
     ethr =  2.84E-11,  avg # of iterations =  6.0

     negative rho (up, down):  3.722E-02 0.000E+00

     Adding external electric field

     Computed dipole along edir(3) :
        Dipole                1.2763 Ry au,          3.2439 Debye
        Dipole field          0.0016 Ry au,

        Potential amp.       -0.1488 Ry
        Total length         46.3494 bohr

     End of self-consistent calculation

          k = 0.0000 0.0000 0.0000 ( 26871 PWs)   bands (ev):

   -58.0039 -57.9919 -57.9785 -57.9780 -57.9687 -57.8980 -57.8261 -57.8028
   -57.7980 -57.7897 -57.7672 -57.7431 -57.6159 -57.5759 -57.5075 -57.0246
   -57.0012 -56.9945 -34.3900 -34.3849 -34.3846 -34.3631 -34.3565 -34.3355
   -34.3174 -34.3152 -34.3142 -34.2820 -34.2546 -34.2399 -34.2136 -34.1996
   -34.1963 -34.1872 -34.1713 -34.1528 -34.1283 -34.1216 -34.1139 -34.1007
   -34.1000 -34.0965 -34.0952 -34.0708 -34.0536 -34.0364 -34.0301 -34.0184
   -34.0113 -33.9990 -33.9986 -33.9860 -33.9798 -33.9788 -33.9676 -33.9426
   -33.9390 -33.8742 -33.8170 -33.7867 -33.7761 -33.7702 -33.6480 -33.3403
   -33.3393 -33.3329 -33.3240 -33.3178 -33.2505 -33.1892 -33.1817 -33.0498
   -21.1953 -18.8509 -18.4163 -18.2711 -18.2463 -18.2181 -18.2057 -18.0926
   -18.0894 -17.8268 -17.8071 -17.7929 -17.7846 -17.7134 -17.6861 -17.6839
   -17.6722 -17.6453 -17.6383 -17.6106 -17.6016 -17.5196 -17.5124 -17.4694
   -17.4666 -17.4339 -17.4317 -17.3848 -17.2952 -17.2949 -17.1268 -16.9764
   -16.9111 -15.4905 -15.4339 -15.4297  -9.2331  -6.1823  -6.0068  -5.9194
    -5.8306  -5.7002  -5.4536  -5.4406  -5.3649  -5.3549  -5.3311  -5.2702
    -5.2550  -5.2501  -5.2158  -5.2024  -5.1208  -5.1157  -5.0363  -4.9445
    -4.9397  -4.9364  -4.9099  -4.8668  -4.8309  -4.8123  -4.7895  -4.7663
    -4.7370  -4.6981  -4.6642  -4.6308  -4.6225  -4.4937  -4.3471  -4.3211
    -4.2997  -4.2982  -4.2758  -4.2341  -4.2056  -4.1355  -4.0808  -4.0678
    -4.0450  -3.9973  -3.9424  -3.9201  -3.7819  -3.7508  -3.7213  -3.6977
    -3.5930  -3.5576  -3.5153  -3.3997  -3.3362  -3.3292  -3.2943  -3.2778
    -3.2039  -3.1860  -3.1366  -3.0858  -3.0780  -2.9770  -2.9755  -2.9245
    -2.8766  -2.7986  -2.7691  -2.7633  -2.7515  -2.6949  -2.6870  -2.6597
    -2.6308  -2.6016  -2.5431  -2.5341  -2.4625  -2.4251  -2.4172  -2.3723
    -2.3719  -2.3156  -2.2424  -2.2058  -2.1850  -2.1832  -2.0818  -2.0265
    -1.8601  -1.8559  -1.8432  -1.8312  -1.7501  -1.7042  -1.6372  -1.4644
    -1.2405  -1.0634  -0.7735  -0.7285  -0.7269  -0.4649  -0.4595  -0.3310
     0.9752   1.2241   1.2707   1.4409   1.4425   1.5393   1.5749   1.5903
     1.6741   1.7402   1.7647

[...]

          k = 0.0380-0.0280 0.0000 ( 26873 PWs)   bands (ev):

[...]

          k =-0.0760-0.0000 0.0000 ( 26902 PWs)   bands (ev):

[...]

          k =-0.0760-0.0559 0.0000 ( 26868 PWs)   bands (ev):

   -57.9956 -57.9950 -57.9906 -57.9703 -57.9698 -57.8976 -57.8191 -57.8154
   -57.7917 -57.7875 -57.7716 -57.7414 -57.6155 -57.5765 -57.5072 -57.0187
   -57.0127 -56.9889 -34.4783 -34.4422 -34.3787 -34.3673 -34.3440 -34.3328
   -34.3282 -34.3266 -34.2851 -34.2481 -34.1981 -34.1938 -34.1933 -34.1716
   -34.1655 -34.1514 -34.1449 -34.1445 -34.1377 -34.1321 -34.1316 -34.0852
   -34.0836 -34.0811 -34.0769 -34.0683 -34.0644 -34.0513 -34.0442 -34.0361
   -34.0280 -34.0182 -34.0133 -34.0128 -34.0023 -33.9947 -33.9676 -33.9651
   -33.9410 -33.8245 -33.8224 -33.7926 -33.7758 -33.7687 -33.6841 -33.4283
   -33.3401 -33.3348 -33.3121 -33.2326 -33.2253 -33.1638 -33.1501 -33.1432
   -21.1951 -18.5302 -18.5076 -18.2008 -18.1429 -18.0987 -18.0883 -18.0766
   -18.0254 -17.9229 -17.8673 -17.8649 -17.8143 -17.7852 -17.7806 -17.7281
   -17.7264 -17.7151 -17.7029 -17.6725 -17.6450 -17.6434 -17.5681 -17.4682
   -17.4300 -17.4029 -17.3849 -17.3722 -17.3325 -17.2392 -17.1605 -17.1133
   -16.7942 -15.4899 -15.4850 -15.3696  -9.2365  -5.8089  -5.7868  -5.7681
    -5.7678  -5.6953  -5.3940  -5.2856  -5.2849  -5.2734  -5.1762  -5.1655
    -5.1623  -5.1468  -5.1419  -5.1197  -5.1093  -5.0785  -5.0626  -5.0257
    -5.0110  -4.9458  -4.9261  -4.9179  -4.9043  -4.8802  -4.7468  -4.7437
    -4.6414  -4.6162  -4.5280  -4.5189  -4.5012  -4.4823  -4.4331  -4.3852
    -4.3559  -4.3417  -4.1667  -4.1531  -4.1417  -4.0773  -4.0346  -3.9785
    -3.9743  -3.8796  -3.6777  -3.6545  -3.6515  -3.6457  -3.6303  -3.6287
    -3.5925  -3.5497  -3.5009  -3.4817  -3.4466  -3.4404  -3.4385  -3.3903
    -3.3455  -3.2470  -3.1897  -3.1894  -3.1674  -3.1149  -3.1100  -3.0930
    -3.0746  -3.0544  -3.0264  -2.9435  -2.9110  -2.8876  -2.8478  -2.8336
    -2.7833  -2.7716  -2.7062  -2.5680  -2.5426  -2.5334  -2.5305  -2.4944
    -2.4023  -2.2564  -2.2411  -2.2386  -2.0901  -2.0854  -2.0154  -2.0076
    -1.9771  -1.9596  -1.7881  -1.7779  -1.6943  -1.6465  -1.5956  -1.5778
    -1.5683  -1.3497  -0.9398  -0.6612  -0.6431  -0.6193  -0.4640  -0.4612
     1.1442   1.2143   1.2235   1.3193   1.3249   1.3301   1.3843   1.4532
     1.4983   1.5420   1.7013

     the Fermi energy is     1.0789 ev

!    total energy              =   -3283.10403119 Ry
     estimated scf accuracy    <       0.00000003 Ry
     smearing contrib. (-TS)   =      -0.03225917 Ry
     internal energy E=F+TS    =   -3283.07177202 Ry

     The total energy is F=E-TS. E is the sum of the following terms:
     one-electron contribution =  -34306.51352754 Ry
     hartree contribution      =   17213.46386751 Ry
     xc contribution           =    -537.34430125 Ry
     ewald contribution        =   14347.32014002 Ry
     electric field correction =       0.00204925 Ry

     convergence has been achieved in  52 iterations

     Forces acting on atoms (cartesian axes, Ry/au):

     atom    1 type  1   force =     0.00002522    0.00630977    0.05656509
     atom    2 type  1   force =    -0.00000222    0.00183163   -0.00347863
     atom    3 type  1   force =     0.00000309   -0.00392229   -0.00160691
     atom    4 type  1   force =     0.00005579   -0.00038869    0.10675581
     atom    5 type  1   force =    -0.00001300   -0.00065184    0.00907907
     atom    6 type  1   force =    -0.00002005   -0.00087190    0.00311496
     atom    7 type  1   force =     0.06774107   -0.00026160   -0.02937255
     atom    8 type  1   force =     0.00478361   -0.02831500    0.00276171
     atom    9 type  1   force =     0.01036815   -0.02003155    0.00020235
     atom   10 type  2   force =    -0.00006512   -0.00357814   -0.18208930
     atom   11 type  2   force =    -0.00008413    0.02094451   -0.00709035
     atom   12 type  2   force =     0.00000460    0.02004429   -0.00367479
     atom   13 type  1   force =    -0.06783377   -0.00071026   -0.02935960
     atom   14 type  1   force =    -0.00477750   -0.02829660    0.00276199
     atom   15 type  1   force =    -0.01032570   -0.02003688    0.00022025
     atom   16 type  2   force =     0.00012711   -0.00159771    0.06618994
     atom   17 type  2   force =     0.00006809    0.03607145    0.00427305
     atom   18 type  2   force =    -0.00004840    0.01077930   -0.00271007
     atom   19 type  1   force =     0.00000397    0.00419682    0.06378273
     atom   20 type  1   force =     0.00000251    0.00140821   -0.00553785
     atom   21 type  1   force =     0.00005435    0.00123392    0.10737412
     atom   22 type  1   force =    -0.00000458   -0.00034133    0.00888244
     atom   23 type  1   force =    -0.00000952   -0.00540871    0.00283409
     atom   24 type  1   force =     0.06712472   -0.00042874   -0.02925598
     atom   25 type  1   force =     0.00491594   -0.02900892    0.00284378
     atom   26 type  1   force =     0.00928522    0.00321717   -0.00394630
     atom   27 type  2   force =    -0.00007907   -0.00328526   -0.18657052
     atom   28 type  2   force =    -0.00006004    0.02032711   -0.00730615
     atom   29 type  2   force =    -0.00000856   -0.00177846    0.01293047
     atom   30 type  1   force =    -0.06721354   -0.00088916   -0.02924559
     atom   31 type  1   force =    -0.00492540   -0.02898742    0.00284881
     atom   32 type  1   force =    -0.00923525    0.00321713   -0.00391620
     atom   33 type  2   force =     0.00012625   -0.00176924    0.06632359
     atom   34 type  2   force =     0.00008240    0.03631059    0.00440598
     atom   35 type  2   force =    -0.00002855   -0.00239173    0.00331082
     atom   36 type  1   force =     0.00002115    0.00318297    0.05470342
     atom   37 type  1   force =    -0.00000051    0.00043652   -0.00158891
     atom   38 type  1   force =     0.00000129   -0.00187976   -0.00061116
     atom   39 type  1   force =     0.00005283   -0.00027823    0.10747923
     atom   40 type  1   force =    -0.00000990   -0.00007604    0.00862978
     atom   41 type  1   force =    -0.00001746    0.00332279    0.00094024
     atom   42 type  1   force =     0.06735255   -0.00085484   -0.02898876
     atom   43 type  1   force =     0.00317573   -0.02861107    0.00232611
     atom   44 type  1   force =     0.01101911   -0.01053647    0.00423903
     atom   45 type  2   force =    -0.00009443    0.00336076   -0.18449689
     atom   46 type  2   force =    -0.00008050    0.02071861   -0.00746022
     atom   47 type  2   force =     0.00000536    0.00974954   -0.01321105
     atom   48 type  1   force =    -0.06744438   -0.00130268   -0.02898108
     atom   49 type  1   force =    -0.00317779   -0.02858237    0.00233225
     atom   50 type  1   force =    -0.01098614   -0.01055539    0.00425702
     atom   51 type  2   force =     0.00012585   -0.00089550    0.06687308
     atom   52 type  2   force =     0.00007333    0.03408774    0.00445601
     atom   53 type  2   force =    -0.00003080    0.02448342    0.00625329
     atom   54 type  1   force =     0.00000505    0.01336974    0.00678650
     atom   55 type  3   force =    -0.00003139    0.00038823    0.00148577
     atom   56 type  3   force =     0.00000335   -0.01246844   -0.00772392

     Total force =     0.455045     Total SCF correction =     0.000379
  @ DRIVER MODE: Message from server: STATUS
  @ DRIVER MODE: Message from server: GETFORCE
  @ DRIVER MODE: Returning v,forces,stress,ensemble

     Writing output data file ./calc.save/
  @ DRIVER MODE: Message from server: EXIT
  @ DRIVE MODE: Exiting

     General routines

     Parallel routines

   This run was terminated on:  19:28: 5  18Oct2021

   JOB DONE.