     Program PWSCF v.6.7GPU starts on 15Sep2021 at 17:53:55

     R & G space division:  proc/nbgrp/npool/nimage =      10
     Reading input from /storage/home/hcoda1/3/ntian30/research/carbon/CxH_vib/H2O_calc/ads_slab/CH2H2O_a/out_0008/pw.inp
Warning: card &CELL ignored
Warning: card   CELL_DYNAMICS='IPI', ignored
Warning: card / ignored

     Current dimensions of program PWSCF are:
     Max number of different atomic species (ntypx) = 10
     Max number of k-points (npk) =  40000
     Max angular momentum in pseudopotentials (lmaxx) =  3
     Presently no symmetry can be used with electric field

     Message from routine cell_base_init:
     DEPRECATED: use true lattice parameter, not A to a.u. conversion factor

     IMPORTANT: XC functional enforced from input :
     Exchange-correlation= BEEF-VDW
                           (   1   4  43  14   2   0   0)
     Any further DFT definition will be discarded
     Please, verify this is what you really want

  @ DRIVER MODE: Connecting to
 qe_1139763_2852604.sched-torque.pace.gatech.edu_ir2y5w2_scratch
  using UNIX socket
  @ DRIVER MODE: Message from server: STATUS
  @ DRIVER MODE: Message from server: INIT
  @ DRIVER MODE: Receiving replica           0          -1
  @ DRIVER MODE: Receiving encoded integer          25
  @ DRIVER MODE:  SCF:  T  FORCE:  T  STRESS:  F  VC:  F  ENSEMBLE:  F
  @ DRIVER MODE:  SCF:  T  FORCE:  T  STRESS:  F  VC:  F  ENSEMBLE:  F

     Using Slab Decomposition

     bravais-lattice index     =            0
     lattice parameter (alat)  =       1.8897  a.u.
     unit-cell volume          =    6658.9804 (a.u.)^3
     number of atoms/cell      =           53
     number of atomic types    =            4
     number of electrons       =       392.00
     number of Kohn-Sham states=          206
     kinetic-energy cutoff     =      29.3995  Ry
     charge density cutoff     =     293.9946  Ry
     scf convergence threshold =      7.3E-08
     mixing beta               =       0.0500
     number of iterations used =            8  plain     mixing
     Exchange-correlation= BEEF-VDW
                           (   1   4  43  14   2   0   0)

     celldm(1)=   1.889726  celldm(2)=   0.000000  celldm(3)=   0.000000
     celldm(4)=   0.000000  celldm(5)=   0.000000  celldm(6)=   0.000000

     crystal axes: (cart. coord. in units of alat)
               a(1) = (   6.579727   0.000000   0.000000 )
               a(2) = (  -0.000775   5.961596   0.000000 )
               a(3) = (   0.000000   0.000000  25.155947 )

     reciprocal axes: (cart. coord. in units 2 pi/alat)
               b(1) = (  0.151982  0.000020  0.000000 )
               b(2) = (  0.000000  0.167740  0.000000 )
               b(3) = (  0.000000  0.000000  0.039752 )

     PseudoPot. # 1 for Ti read from file:
     /storage/coda1/p-amedford6/0/shared/rich_project_chbe-medford/medford-share/data/pseudos_module/espresso/nninc/pbe/van/Ti.UPF
     MD5 check sum: 8e4df49b7f0d34bbd5052bf3f5ea0213
     Pseudo is Ultrasoft, Zval = 12.0
     Generated by new atomic code, or converted to UPF format
     Using radial grid of  851 points,  6 beta functions with:
                l(1) =   0
                l(2) =   0
                l(3) =   1
                l(4) =   1
                l(5) =   2
                l(6) =   2
     Q(r) pseudized with  8 coefficients,  rinner =    1.000   1.000   1.000
                                                       1.000   1.000

     PseudoPot. # 2 for O  read from file:
     /storage/coda1/p-amedford6/0/shared/rich_project_chbe-medford/medford-share/data/pseudos_module/espresso/nninc/pbe/van/O.UPF
     MD5 check sum: 78c19812648e8988a0fe644b0f25305e
     Pseudo is Ultrasoft, Zval =  6.0
     Generated by new atomic code, or converted to UPF format
     Using radial grid of  737 points,  4 beta functions with:
                l(1) =   0
                l(2) =   0
                l(3) =   1
                l(4) =   1
     Q(r) pseudized with  8 coefficients,  rinner =    0.800   0.800   0.800

     PseudoPot. # 3 for C  read from file:
     /storage/coda1/p-amedford6/0/shared/rich_project_chbe-medford/medford-share/data/pseudos_module/espresso/nninc/pbe/van/C.UPF
     MD5 check sum: 1a69bf6b8db32088f5b2163dbdb77a27
     Pseudo is Ultrasoft, Zval =  4.0
     Generated by new atomic code, or converted to UPF format
     Using radial grid of  721 points,  4 beta functions with:
                l(1) =   0
                l(2) =   0
                l(3) =   1
                l(4) =   1
     Q(r) pseudized with  8 coefficients,  rinner =    0.800   0.800   0.800

     PseudoPot. # 4 for H  read from file:
     /storage/coda1/p-amedford6/0/shared/rich_project_chbe-medford/medford-share/data/pseudos_module/espresso/nninc/pbe/van/H.UPF
     MD5 check sum: b5ee9d7bfd3a09ee7748110bda690ff7
     Pseudo is Ultrasoft, Zval =  1.0
     Generated by new atomic code, or converted to UPF format
     Using radial grid of  615 points,  1 beta functions with:
                l(1) =   0
     Q(r) pseudized with  8 coefficients,  rinner =    0.800

     atomic species   valence    mass     pseudopotential
        Ti1           12.00    47.86700     Ti( 1.00)
        O1             6.00    15.99900     O ( 1.00)
        C1             4.00    12.01100     C ( 1.00)
        H1             1.00     1.00800     H ( 1.00)

     No symmetry found

   Cartesian axes

     site n.     atom                  positions (alat units)
         1           Ti1 tau(   1) = (   0.0004258   2.9801865   6.0000000  )
         2           Ti1 tau(   2) = (   3.2906075   1.4906267   6.0002472  )
         3           O1  tau(   3) = (   0.0006271   0.0005054   7.9858123  )
         4           O1  tau(   4) = (   3.2906025   0.0005020   7.3038282  )
         5           O1  tau(   5) = (   4.5942328   1.4918067   9.2879030  )
         6           O1  tau(   6) = (   1.9868534   1.4903216   9.2879459  )
         7           Ti1 tau(   7) = (   3.2791254   2.8632543   9.1696858  )
         8           Ti1 tau(   8) = (   6.5716288   1.4291880   9.3745659  )
         9           O1  tau(   9) = (   3.2719631   5.9564768  11.3413791  )
        10           O1  tau(  10) = (   6.5766582   5.9454684  10.5603319  )
        11           O1  tau(  11) = (   1.2606928   1.4857163  12.6338655  )
        12           O1  tau(  12) = (   5.2561023   1.4877827  12.6114660  )
        13           Ti1 tau(  13) = (   0.0646731   2.9540699  12.8218634  )
        14           Ti1 tau(  14) = (   3.3836270   1.4660460  12.4955168  )
        15           O1  tau(  15) = (   6.5457659   5.9184216  14.5915085  )
        16           O1  tau(  16) = (   3.2744135   0.0171945  13.9516778  )
        17           O1  tau(  17) = (   4.5159629   1.5536209  16.0418326  )
        18           O1  tau(  18) = (   1.9981799   1.5541948  16.0447984  )
        19           Ti1 tau(  19) = (   3.2528476   3.0136947  15.6822407  )
        20           Ti1 tau(  20) = (   6.5571992   1.6159626  16.1493948  )
        21           O1  tau(  21) = (   3.2904802   0.0005063   4.7018136  )
        22           O1  tau(  22) = (   6.5499432   0.0285508  17.2403840  )
        23           O1  tau(  23) = (   1.3043587   1.4918075   6.0039043  )
        24           O1  tau(  24) = (   5.2767064   1.4903225   6.0039473  )
        25           Ti1 tau(  25) = (   0.0000382   5.9609847   6.0000000  )
        26           Ti1 tau(  26) = (   3.2902200   4.4714249   6.0002472  )
        27           O1  tau(  27) = (   0.0002396   2.9813036   7.9858123  )
        28           O1  tau(  28) = (   3.2902150   2.9813002   7.3038282  )
        29           O1  tau(  29) = (   4.5938453   4.4726049   9.2879030  )
        30           O1  tau(  30) = (   1.9864658   4.4711199   9.2879459  )
        31           Ti1 tau(  31) = (   3.2865685   5.8444178   9.1628351  )
        32           Ti1 tau(  32) = (   6.5743218   4.4049426   9.3738558  )
        33           O1  tau(  33) = (   3.2769956   2.9705820  11.3381082  )
        34           O1  tau(  34) = (   6.5775985   2.9640992  10.5572898  )
        35           O1  tau(  35) = (   1.2629977   4.4457513  12.6272354  )
        36           O1  tau(  36) = (   5.2537740   4.4534837  12.6036699  )
        37           Ti1 tau(  37) = (   0.0534783   5.9329931  12.7718795  )
        38           Ti1 tau(  38) = (   3.3808541   4.4548706  12.4760825  )
        39           O1  tau(  39) = (   6.5578179   2.9671967  14.6759119  )
        40           O1  tau(  40) = (   3.2646438   2.9894133  13.8927730  )
        41           O1  tau(  41) = (   4.5094683   4.4833613  16.0328582  )
        42           O1  tau(  42) = (   2.0033084   4.4836886  16.0339364  )
        43           Ti1 tau(  43) = (   3.2772676   0.0291193  15.7865657  )
        44           Ti1 tau(  44) = (   6.5620481   4.6241259  16.1080240  )
        45           O1  tau(  45) = (   3.2900926   2.9813045   4.7018136  )
        46           O1  tau(  46) = (   1.3039711   4.4726057   6.0039043  )
        47           O1  tau(  47) = (   5.2763189   4.4711207   6.0039473  )
        48           C1  tau(  48) = (   6.5362552   2.9989010  17.5868729  )
        49           H1  tau(  49) = (   0.8635040   3.1223538  18.1993289  )
        50           H1  tau(  50) = (   5.6240823   3.1149880  18.1772116  )
        51           O1  tau(  51) = (   3.2614802   0.0224742  18.1496266  )
        52           H1  tau(  52) = (   4.0528939   5.9570843  18.7024920  )
        53           H1  tau(  53) = (   2.4635753   0.0005096  18.6943540  )

     number of k points=    10  Fermi-Dirac smearing, width (Ry)=  0.0073
                       cart. coord. in units 2pi/alat
        k(    1) = (   0.0000000   0.0000000   0.0000000), wk =   0.1250000
        k(    2) = (   0.0000000   0.0419351   0.0000000), wk =   0.2500000
        k(    3) = (   0.0000000  -0.0838702   0.0000000), wk =   0.1250000
        k(    4) = (   0.0379955   0.0000049   0.0000000), wk =   0.2500000
        k(    5) = (   0.0379955   0.0419400   0.0000000), wk =   0.2500000
        k(    6) = (   0.0379955  -0.0838652   0.0000000), wk =   0.2500000
        k(    7) = (   0.0379955  -0.0419301   0.0000000), wk =   0.2500000
        k(    8) = (  -0.0759910  -0.0000099   0.0000000), wk =   0.1250000
        k(    9) = (  -0.0759910   0.0419252   0.0000000), wk =   0.2500000
        k(   10) = (  -0.0759910  -0.0838800   0.0000000), wk =   0.1250000

     Initial potential from superposition of free atoms

     starting charge  375.99917, renormalised to  392.00000

     negative rho (up, down):  1.851E-02 0.000E+00

     %%%%%%%%%%%%%%%%%%%%%%%%%%%%%%%%%%%%%%%%%%%%%%%%%%%%%%%%%%%%%%%%%%%%%%%%
     %                                                                      %
     % You are using vdW-DF, which was implemented by the Thonhauser group. %
     % Please cite the following two papers that made this development      %
     % possible and the two reviews that describe the various versions:     %
     %                                                                      %
     %   T. Thonhauser et al., PRL 115, 136402 (2015).                      %
     %   T. Thonhauser et al., PRB 76, 125112 (2007).                       %
     %   K. Berland et al., Rep. Prog. Phys. 78, 066501 (2015).             %
     %   D.C. Langreth et al., J. Phys.: Condens. Matter 21, 084203 (2009). %
     %                                                                      %
     %                                                                      %
     % If you are calculating the stress with vdW-DF, please also cite:     %
     %                                                                      %
     %   R. Sabatini et al., J. Phys.: Condens. Matter 24, 424209 (2012).   %
     %                                                                      %
     %%%%%%%%%%%%%%%%%%%%%%%%%%%%%%%%%%%%%%%%%%%%%%%%%%%%%%%%%%%%%%%%%%%%%%%%

     Adding external electric field

     Computed dipole along edir(3) :
        Dipole               -5.1805 Ry au,        -13.1674 Debye
        Dipole field         -0.0098 Ry au,

        Potential amp.        0.9062 Ry
        Total length         46.3494 bohr

     Starting wfcs are  296 atomic wfcs
  @ DRIVER MODE: Message from server: STATUS
  @ DRIVER MODE: Message from server: POSDATA
  @ DRIVER MODE: Reading and sharing cell
  @ DRIVER MODE: Reading and sharing positions
  @ DRIVER MODE: Received positions

     Self-consistent Calculation

     iteration #  1     ecut=    29.40 Ry     beta= 0.05
     Davidson diagonalization with overlap
     c_bands:  5 eigenvalues not converged
     c_bands:  3 eigenvalues not converged
     c_bands:  4 eigenvalues not converged
     c_bands:  4 eigenvalues not converged
     c_bands:  2 eigenvalues not converged
     c_bands:  3 eigenvalues not converged
     c_bands:  3 eigenvalues not converged
     c_bands:  1 eigenvalues not converged
     ethr =  1.00E-05,  avg # of iterations = 19.5

[...]

     total energy              =   -2834.09007909 Ry
     estimated scf accuracy    <    1089.46761285 Ry

     iteration #  2     ecut=    29.40 Ry     beta= 0.05
     Davidson diagonalization with overlap
     ethr =  1.00E-02,  avg # of iterations = 15.9

[...]

     iteration # 58     ecut=    29.40 Ry     beta= 0.05
     Davidson diagonalization with overlap
     c_bands:  1 eigenvalues not converged
     c_bands:  1 eigenvalues not converged
     ethr =  6.25E-07,  avg # of iterations =  7.9

[...]

     total energy              =   -2932.56449636 Ry
     estimated scf accuracy    <       0.00000038 Ry

     iteration # 85     ecut=    29.40 Ry     beta= 0.05
     Davidson diagonalization with overlap
     ethr =  3.79E-11,  avg # of iterations =  5.9

     negative rho (up, down):  1.822E-02 0.000E+00

     Adding external electric field

     Computed dipole along edir(3) :
        Dipole                0.8995 Ry au,          2.2862 Debye
        Dipole field          0.0017 Ry au,

        Potential amp.       -0.1573 Ry
        Total length         46.3494 bohr

     End of self-consistent calculation

          k = 0.0000 0.0000 0.0000 ( 18029 PWs)   bands (ev):

   -56.1850 -56.1509 -55.8905 -55.8412 -55.8033 -55.6985 -55.5896 -55.5622
   -55.5281 -55.5086 -55.4919 -55.4561 -55.1244 -54.9925 -54.9699 -54.9359
   -32.6130 -32.4362 -32.4073 -32.3817 -32.3742 -32.2903 -32.2828 -32.2397
   -32.1767 -32.1100 -32.1036 -32.0683 -32.0572 -32.0544 -32.0478 -32.0227
   -31.9981 -31.9968 -31.9659 -31.8945 -31.8708 -31.8392 -31.8218 -31.8093
   -31.8070 -31.7785 -31.7487 -31.7319 -31.7245 -31.7211 -31.6791 -31.6714
   -31.6707 -31.6642 -31.6498 -31.5956 -31.5728 -31.4205 -31.3719 -31.3697
   -31.3224 -31.2963 -31.2725 -31.1881 -31.1676 -31.1032 -31.0374 -30.9913
   -19.2282 -16.5190 -16.3496 -16.1133 -15.9788 -15.8972 -15.7370 -15.5565
   -15.5476 -15.4588 -15.4358 -15.3592 -15.3507 -15.3162 -15.3038 -15.2959
   -15.2809 -15.2572 -15.2115 -15.2001 -15.1996 -15.1512 -15.0962 -15.0029
   -14.9910 -14.9432 -14.8252 -14.8180 -14.7835 -14.6374 -13.4638 -13.3500
    -8.0449  -7.2701  -3.9965  -3.9294  -3.8113  -3.7191  -3.6943  -3.5794
    -3.3398  -3.2700  -3.0126  -2.9810  -2.9380  -2.8926  -2.8780  -2.7979
    -2.7045  -2.6901  -2.6623  -2.6369  -2.6019  -2.5942  -2.5306  -2.5222
    -2.4985  -2.4916  -2.4291  -2.4147  -2.3727  -2.2361  -2.1861  -2.1611
    -2.1486  -2.1093  -2.0736  -2.0119  -1.9890  -1.9606  -1.9031  -1.7532
    -1.7301  -1.6493  -1.6213  -1.5500  -1.4602  -1.4468  -1.2994  -1.2811
    -1.2457  -1.2346  -1.2071  -1.1549  -1.1349  -1.0282  -0.8975  -0.8182
    -0.7861  -0.7637  -0.7504  -0.7040  -0.6676  -0.6142  -0.6060  -0.5627
    -0.4867  -0.4784  -0.4031  -0.2179  -0.2041  -0.1930  -0.1758  -0.1339
    -0.1045  -0.0818  -0.0387   0.0062   0.0307   0.0895   0.0993   0.1309
     0.1485   0.2258   0.2758   0.3301   0.3361   0.4491   0.5601   0.6246
     0.6421   0.6708   0.7714   0.7832   0.9893   1.0074   1.0577   1.2695
     1.3154   1.6434   1.7151   2.1708   3.0840   3.2593   3.4625   3.5609
     3.5809   3.6761   3.6888   3.8207   3.8780   3.9257

[...]

          k = 0.0380-0.0419 0.0000 ( 17876 PWs)   bands (ev):

[...]

          k =-0.0760-0.0000 0.0000 ( 17886 PWs)   bands (ev):

[...]

          k =-0.0760-0.0839 0.0000 ( 17948 PWs)   bands (ev):

   -56.1710 -56.1648 -55.8889 -55.8286 -55.8157 -55.7000 -55.5857 -55.5461
   -55.5439 -55.5124 -55.4778 -55.4703 -55.1222 -54.9945 -54.9528 -54.9528
   -32.4330 -32.4279 -32.4249 -32.4175 -32.3294 -32.3242 -32.1960 -32.1835
   -32.1691 -32.1580 -32.1060 -32.0914 -32.0523 -32.0323 -32.0284 -32.0166
   -31.9984 -31.9021 -31.9020 -31.8763 -31.8757 -31.8395 -31.8172 -31.8074
   -31.8043 -31.7973 -31.7903 -31.7874 -31.7586 -31.7567 -31.7547 -31.7392
   -31.6932 -31.6860 -31.6829 -31.6760 -31.4827 -31.4191 -31.3758 -31.2949
   -31.2854 -31.2853 -31.2785 -31.1841 -31.1838 -31.1458 -31.1456 -31.0505
   -19.2275 -16.0085 -15.8984 -15.7458 -15.7058 -15.6623 -15.6619 -15.6315
   -15.5978 -15.5623 -15.5560 -15.4659 -15.4346 -15.4208 -15.4087 -15.3438
   -15.3380 -15.3333 -15.3298 -15.2688 -15.2621 -15.1480 -15.1402 -15.0602
   -15.0497 -15.0202 -14.9980 -14.9547 -14.9482 -14.7881 -13.4524 -13.4523
    -8.0494  -7.2632  -3.9169  -3.3090  -3.0907  -2.9695  -2.9308  -2.8047
    -2.7936  -2.7873  -2.7802  -2.7669  -2.7282  -2.6732  -2.6529  -2.6414
    -2.6159  -2.6024  -2.5752  -2.5672  -2.5402  -2.5383  -2.5327  -2.5284
    -2.5101  -2.4923  -2.4358  -2.4276  -2.4115  -2.3819  -2.3026  -2.2871
    -2.1967  -2.1098  -2.0784  -2.0770  -2.0161  -1.9811  -1.8992  -1.8907
    -1.8741  -1.8689  -1.8051  -1.6112  -1.5566  -1.5515  -1.5140  -1.4792
    -1.3184  -1.2797  -1.2183  -1.1771  -1.1460  -1.1326  -1.0579  -1.0471
    -1.0215  -0.9678  -0.9633  -0.9561  -0.9404  -0.8591  -0.8421  -0.8159
    -0.7415  -0.7004  -0.6841  -0.6579  -0.6278  -0.5747  -0.4905  -0.4673
    -0.4548  -0.4403  -0.3116  -0.2738  -0.2441  -0.2064  -0.1579   0.1068
     0.1166   0.2031   0.2996   0.3936   0.4341   0.5356   0.5536   0.5602
     0.6866   0.6996   0.7051   0.7141   0.8146   0.8214   0.8598   1.4429
     1.4452   1.4978   1.4991   2.4404   3.6074   3.6146   3.6258   3.6310
     3.6540   3.6840   3.7035   3.7350   4.0343   4.0437

     the Fermi energy is     2.7909 ev

!    total energy              =   -2932.56450629 Ry
     estimated scf accuracy    <       0.00000006 Ry
     smearing contrib. (-TS)   =      -0.00166720 Ry
     internal energy E=F+TS    =   -2932.56283909 Ry

     The total energy is F=E-TS. E is the sum of the following terms:
     one-electron contribution =  -24523.03159744 Ry
     hartree contribution      =   12349.10076899 Ry
     xc contribution           =    -482.73888526 Ry
     ewald contribution        =    9724.10534788 Ry
     electric field correction =       0.00152674 Ry

     convergence has been achieved in  85 iterations

     Forces acting on atoms (cartesian axes, Ry/au):

     atom    1 type  1   force =     0.00030455   -0.00016033    0.14552649
     atom    2 type  1   force =     0.00005193    0.00071214   -0.16924009
     atom    3 type  2   force =     0.00003563    0.00235010   -0.06021850
     atom    4 type  2   force =    -0.00017097   -0.00142009    0.03906589
     atom    5 type  2   force =    -0.02195906   -0.00032289    0.00361208
     atom    6 type  2   force =     0.01965050   -0.00081185    0.00222113
     atom    7 type  1   force =     0.00012175   -0.00001519    0.00042744
     atom    8 type  1   force =     0.00006588    0.00010579    0.00107226
     atom    9 type  2   force =    -0.00007668   -0.00028812    0.00031036
     atom   10 type  2   force =     0.00010545    0.00014786   -0.00059908
     atom   11 type  2   force =     0.00007979    0.00002106    0.00100695
     atom   12 type  2   force =     0.00071871    0.00010006    0.00105938
     atom   13 type  1   force =    -0.00073922   -0.00015471   -0.00044097
     atom   14 type  1   force =     0.00038552   -0.00104595    0.00000189
     atom   15 type  2   force =     0.00018357   -0.00015987    0.00097015
     atom   16 type  2   force =    -0.00004904   -0.00028135    0.00144616
     atom   17 type  2   force =     0.00015627   -0.00052552    0.00025091
     atom   18 type  2   force =    -0.00003961   -0.00071957    0.00017369
     atom   19 type  1   force =     0.00076132   -0.00065042   -0.00030398
     atom   20 type  1   force =    -0.00022949    0.00036986   -0.00025603
     atom   21 type  2   force =     0.00012893   -0.00007893    0.10212428
     atom   22 type  2   force =     0.00012056    0.00003125   -0.00005169
     atom   23 type  2   force =    -0.07474641    0.00031924   -0.03449156
     atom   24 type  2   force =     0.07482246    0.00076691   -0.03456036
     atom   25 type  1   force =     0.00010079   -0.00007627    0.14713454
     atom   26 type  1   force =     0.00001414   -0.00209321   -0.16942503
     atom   27 type  2   force =     0.00001522    0.00193014   -0.05937661
     atom   28 type  2   force =    -0.00028685   -0.00139837    0.03996072
     atom   29 type  2   force =    -0.02159992    0.00107583    0.00383413
     atom   30 type  2   force =     0.02034965   -0.00010870    0.00244351
     atom   31 type  1   force =     0.00013561    0.00015367    0.00131379
     atom   32 type  1   force =     0.00006363   -0.00021985    0.00117103
     atom   33 type  2   force =    -0.00010417   -0.00006528   -0.00058474
     atom   34 type  2   force =     0.00010828    0.00010357   -0.00066354
     atom   35 type  2   force =     0.00027478   -0.00038291    0.00076928
     atom   36 type  2   force =     0.00034917   -0.00045587    0.00083841
     atom   37 type  1   force =    -0.00059455   -0.00015261   -0.00055049
     atom   38 type  1   force =     0.00050237    0.00060285   -0.00033934
     atom   39 type  2   force =     0.00029450   -0.00001778   -0.00024056
     atom   40 type  2   force =    -0.00009612   -0.00013987    0.00177942
     atom   41 type  2   force =     0.00013589    0.00045214    0.00036530
     atom   42 type  2   force =    -0.00008458    0.00055377    0.00031537
     atom   43 type  1   force =     0.00036615    0.00057618   -0.00020937
     atom   44 type  1   force =    -0.00029772    0.00021287   -0.00012973
     atom   45 type  2   force =     0.00012064   -0.00010439    0.10205522
     atom   46 type  2   force =    -0.07473552   -0.00002339   -0.03446098
     atom   47 type  2   force =     0.07482605    0.00043478   -0.03456040
     atom   48 type  3   force =     0.00778679    0.00061893    0.00455148
     atom   49 type  4   force =    -0.00858794   -0.00119816   -0.00518455
     atom   50 type  4   force =     0.00104958    0.00004787    0.00023427
     atom   51 type  2   force =     0.00023835    0.00100345   -0.00094911
     atom   52 type  4   force =     0.00057474    0.00018228    0.00037287
     atom   53 type  4   force =    -0.00060132    0.00019884    0.00042832

     Total force =     0.400562     Total SCF correction =     0.000802
  @ DRIVER MODE: Message from server: STATUS
  @ DRIVER MODE: Message from server: GETFORCE
  @ DRIVER MODE: Returning v,forces,stress,ensemble

     Writing output data file ./calc.save/
  @ DRIVER MODE: Message from server: EXIT
  @ DRIVE MODE: Exiting

     General routines

     Parallel routines

   This run was terminated on:  18:15:45  15Sep2021

   JOB DONE.