     Program PWSCF v.6.7GPU starts on 24Sep2021 at 10:25: 8

     R & G space division:  proc/nbgrp/npool/nimage =       8
     Reading input from /storage/home/hcoda1/3/ntian30/research/carbon/CxH_vib/H2O_calc/ads_slab/CH3NNHHHHO_a/out_0057/pw.inp
Warning: card &CELL ignored
Warning: card   CELL_DYNAMICS='IPI', ignored
Warning: card / ignored

     Current dimensions of program PWSCF are:
     Max number of different atomic species (ntypx) = 10
     Max number of k-points (npk) =  40000
     Max angular momentum in pseudopotentials (lmaxx) =  3
     Presently no symmetry can be used with electric field

     Message from routine cell_base_init:
     DEPRECATED: use true lattice parameter, not A to a.u. conversion factor

     IMPORTANT: XC functional enforced from input :
     Exchange-correlation= BEEF-VDW
                           (   1   4  43  14   2   0   0)
     Any further DFT definition will be discarded
     Please, verify this is what you really want

  @ DRIVER MODE: Connecting to
 qe_1139763_2947308.sched-torque.pace.gatech.eduhhluebvx_scratch
  using UNIX socket
  @ DRIVER MODE: Message from server: STATUS
  @ DRIVER MODE: Message from server: INIT
  @ DRIVER MODE: Receiving replica           0          -1
  @ DRIVER MODE: Receiving encoded integer          25
  @ DRIVER MODE:  SCF:  T  FORCE:  T  STRESS:  F  VC:  F  ENSEMBLE:  F
  @ DRIVER MODE:  SCF:  T  FORCE:  T  STRESS:  F  VC:  F  ENSEMBLE:  F

     Using Slab Decomposition

     bravais-lattice index     =            0
     lattice parameter (alat)  =       1.8897  a.u.
     unit-cell volume          =    6658.9804 (a.u.)^3
     number of atoms/cell      =           58
     number of atomic types    =            5
     number of electrons       =       405.00
     number of Kohn-Sham states=          212
     kinetic-energy cutoff     =      29.3995  Ry
     charge density cutoff     =     293.9946  Ry
     scf convergence threshold =      7.3E-08
     mixing beta               =       0.0500
     number of iterations used =            8  plain     mixing
     Exchange-correlation= BEEF-VDW
                           (   1   4  43  14   2   0   0)

     celldm(1)=   1.889726  celldm(2)=   0.000000  celldm(3)=   0.000000
     celldm(4)=   0.000000  celldm(5)=   0.000000  celldm(6)=   0.000000

     crystal axes: (cart. coord. in units of alat)
               a(1) = (   6.579727   0.000000   0.000000 )
               a(2) = (  -0.000775   5.961596   0.000000 )
               a(3) = (   0.000000   0.000000  25.155947 )

     reciprocal axes: (cart. coord. in units 2 pi/alat)
               b(1) = (  0.151982  0.000020  0.000000 )
               b(2) = (  0.000000  0.167740  0.000000 )
               b(3) = (  0.000000  0.000000  0.039752 )

     PseudoPot. # 1 for Ti read from file:
     /storage/coda1/p-amedford6/0/shared/rich_project_chbe-medford/medford-share/data/pseudos_module/espresso/nninc/pbe/van/Ti.UPF
     MD5 check sum: 8e4df49b7f0d34bbd5052bf3f5ea0213
     Pseudo is Ultrasoft, Zval = 12.0
     Generated by new atomic code, or converted to UPF format
     Using radial grid of  851 points,  6 beta functions with:
                l(1) =   0
                l(2) =   0
                l(3) =   1
                l(4) =   1
                l(5) =   2
                l(6) =   2
     Q(r) pseudized with  8 coefficients,  rinner =    1.000   1.000   1.000
                                                       1.000   1.000

     PseudoPot. # 2 for O  read from file:
     /storage/coda1/p-amedford6/0/shared/rich_project_chbe-medford/medford-share/data/pseudos_module/espresso/nninc/pbe/van/O.UPF
     MD5 check sum: 78c19812648e8988a0fe644b0f25305e
     Pseudo is Ultrasoft, Zval =  6.0
     Generated by new atomic code, or converted to UPF format
     Using radial grid of  737 points,  4 beta functions with:
                l(1) =   0
                l(2) =   0
                l(3) =   1
                l(4) =   1
     Q(r) pseudized with  8 coefficients,  rinner =    0.800   0.800   0.800

     PseudoPot. # 3 for N  read from file:
     /storage/coda1/p-amedford6/0/shared/rich_project_chbe-medford/medford-share/data/pseudos_module/espresso/nninc/pbe/van/N.UPF
     MD5 check sum: 90d10febe142ad51ac9d5be1deb811c4
     Pseudo is Ultrasoft, Zval =  5.0
     Generated by new atomic code, or converted to UPF format
     Using radial grid of  729 points,  4 beta functions with:
                l(1) =   0
                l(2) =   0
                l(3) =   1
                l(4) =   1
     Q(r) pseudized with  8 coefficients,  rinner =    0.800   0.800   0.800

     PseudoPot. # 4 for C  read from file:
     /storage/coda1/p-amedford6/0/shared/rich_project_chbe-medford/medford-share/data/pseudos_module/espresso/nninc/pbe/van/C.UPF
     MD5 check sum: 1a69bf6b8db32088f5b2163dbdb77a27
     Pseudo is Ultrasoft, Zval =  4.0
     Generated by new atomic code, or converted to UPF format
     Using radial grid of  721 points,  4 beta functions with:
                l(1) =   0
                l(2) =   0
                l(3) =   1
                l(4) =   1
     Q(r) pseudized with  8 coefficients,  rinner =    0.800   0.800   0.800

     PseudoPot. # 5 for H  read from file:
     /storage/coda1/p-amedford6/0/shared/rich_project_chbe-medford/medford-share/data/pseudos_module/espresso/nninc/pbe/van/H.UPF
     MD5 check sum: b5ee9d7bfd3a09ee7748110bda690ff7
     Pseudo is Ultrasoft, Zval =  1.0
     Generated by new atomic code, or converted to UPF format
     Using radial grid of  615 points,  1 beta functions with:
                l(1) =   0
     Q(r) pseudized with  8 coefficients,  rinner =    0.800

     atomic species   valence    mass     pseudopotential
        Ti1           12.00    47.86700     Ti( 1.00)
        O1             6.00    15.99900     O ( 1.00)
        N1             5.00    14.00700     N ( 1.00)
        C1             4.00    12.01100     C ( 1.00)
        H1             1.00     1.00800     H ( 1.00)

     No symmetry found

   Cartesian axes

     site n.     atom                  positions (alat units)
         1           Ti1 tau(   1) = (   0.0004258   2.9801865   6.0000000  )
         2           Ti1 tau(   2) = (   3.2906075   1.4906267   6.0002472  )
         3           O1  tau(   3) = (   0.0006271   0.0005054   7.9858123  )
         4           O1  tau(   4) = (   3.2906025   0.0005020   7.3038282  )
         5           O1  tau(   5) = (   4.5942328   1.4918067   9.2879030  )
         6           O1  tau(   6) = (   1.9868534   1.4903216   9.2879459  )
         7           Ti1 tau(   7) = (   3.2907910   2.8959150   9.1758416  )
         8           Ti1 tau(   8) = (   0.0015273   1.4827037   9.2680791  )
         9           O1  tau(   9) = (   3.3066316   0.0080679  11.3583267  )
        10           O1  tau(  10) = (   0.0116148   5.9584955  10.6183126  )
        11           O1  tau(  11) = (   1.3000076   1.5005770  12.6434233  )
        12           O1  tau(  12) = (   5.3281586   1.4930334  12.6431679  )
        13           Ti1 tau(  13) = (   0.0126194   3.0144704  12.5166071  )
        14           Ti1 tau(  14) = (   3.3185830   1.5708444  12.4374219  )
        15           O1  tau(  15) = (   0.0449490   0.0685618  14.6579901  )
        16           O1  tau(  16) = (   3.3164028   5.8986079  13.9921319  )
        17           O1  tau(  17) = (   4.5763498   1.4919541  16.1892649  )
        18           O1  tau(  18) = (   2.0390356   1.5007807  16.1677599  )
        19           Ti1 tau(  19) = (   3.3152479   2.9236451  15.6986563  )
        20           Ti1 tau(  20) = (   0.0808212   1.4292116  16.0039943  )
        21           O1  tau(  21) = (   3.2904802   0.0005063   4.7018136  )
        22           O1  tau(  22) = (   0.0303022   5.8046116  17.1736243  )
        23           O1  tau(  23) = (   1.3043587   1.4918075   6.0039043  )
        24           O1  tau(  24) = (   5.2767064   1.4903225   6.0039473  )
        25           Ti1 tau(  25) = (   0.0000382   5.9609847   6.0000000  )
        26           Ti1 tau(  26) = (   3.2902200   4.4714249   6.0002472  )
        27           O1  tau(  27) = (   0.0002396   2.9813036   7.9858123  )
        28           O1  tau(  28) = (   3.2902150   2.9813002   7.3038282  )
        29           O1  tau(  29) = (   4.5938453   4.4726049   9.2879030  )
        30           O1  tau(  30) = (   1.9864658   4.4711199   9.2879459  )
        31           Ti1 tau(  31) = (   3.2891106   5.8743827   9.1763621  )
        32           Ti1 tau(  32) = (   0.0006254   4.4649316   9.2693709  )
        33           O1  tau(  33) = (   3.3101163   2.9547251  11.3177968  )
        34           O1  tau(  34) = (   0.0092240   2.9805883  10.6323155  )
        35           O1  tau(  35) = (   1.2917786   4.4638488  12.6831265  )
        36           O1  tau(  36) = (   5.3332004   4.4701953  12.6833355  )
        37           Ti1 tau(  37) = (   0.0360484   0.0435164  12.5022323  )
        38           Ti1 tau(  38) = (   3.3166134   4.6596848  12.7231989  )
        39           O1  tau(  39) = (   6.5734590   2.9070644  14.8960501  )
        40           O1  tau(  40) = (   3.3256711   2.9499323  13.9293234  )
        41           O1  tau(  41) = (   4.5718193   4.3849529  16.1598725  )
        42           O1  tau(  42) = (   2.0293811   4.3548050  16.0908550  )
        43           Ti1 tau(  43) = (   3.3839698   5.9011270  16.3477160  )
        44           Ti1 tau(  44) = (   0.0762916   4.6312412  15.8077656  )
        45           O1  tau(  45) = (   3.2900926   2.9813045   4.7018136  )
        46           O1  tau(  46) = (   1.3039711   4.4726057   6.0039043  )
        47           O1  tau(  47) = (   5.2763189   4.4711207   6.0039473  )
        48           N1  tau(  48) = (   1.0338470   3.0145746  18.8549854  )
        49           N1  tau(  49) = (   6.4614719   2.5758313  18.0922931  )
        50           C1  tau(  50) = (   0.6385090   3.7489381  20.0602371  )
        51           H1  tau(  51) = (   6.5128770   4.5633600  19.8465500  )
        52           H1  tau(  52) = (   0.1876125   3.0656416  20.7809517  )
        53           H1  tau(  53) = (   1.5398112   4.1767214  20.4987412  )
        54           H1  tau(  54) = (   5.7034478   3.2665398  18.1448723  )
        55           H1  tau(  55) = (   6.1095767   1.7263867  18.5341855  )
        56           H1  tau(  56) = (   1.5400177   3.6533120  18.2466354  )
        57           O1  tau(  57) = (   3.2295176   5.8780611  18.1942677  )
        58           H1  tau(  58) = (   2.6769533   0.6239085  18.5854980  )

     number of k points=    10  Fermi-Dirac smearing, width (Ry)=  0.0073
                       cart. coord. in units 2pi/alat
        k(    1) = (   0.0000000   0.0000000   0.0000000), wk =   0.1250000
        k(    2) = (   0.0000000   0.0419351   0.0000000), wk =   0.2500000
        k(    3) = (   0.0000000  -0.0838702   0.0000000), wk =   0.1250000
        k(    4) = (   0.0379955   0.0000049   0.0000000), wk =   0.2500000
        k(    5) = (   0.0379955   0.0419400   0.0000000), wk =   0.2500000
        k(    6) = (   0.0379955  -0.0838652   0.0000000), wk =   0.2500000
        k(    7) = (   0.0379955  -0.0419301   0.0000000), wk =   0.2500000
        k(    8) = (  -0.0759910  -0.0000099   0.0000000), wk =   0.1250000
        k(    9) = (  -0.0759910   0.0419252   0.0000000), wk =   0.2500000
        k(   10) = (  -0.0759910  -0.0838800   0.0000000), wk =   0.1250000

     Initial potential from superposition of free atoms

     starting charge  388.99913, renormalised to  405.00000

     negative rho (up, down):  1.325E-02 0.000E+00

     %%%%%%%%%%%%%%%%%%%%%%%%%%%%%%%%%%%%%%%%%%%%%%%%%%%%%%%%%%%%%%%%%%%%%%%%
     %                                                                      %
     % You are using vdW-DF, which was implemented by the Thonhauser group. %
     % Please cite the following two papers that made this development      %
     % possible and the two reviews that describe the various versions:     %
     %                                                                      %
     %   T. Thonhauser et al., PRL 115, 136402 (2015).                      %
     %   T. Thonhauser et al., PRB 76, 125112 (2007).                       %
     %   K. Berland et al., Rep. Prog. Phys. 78, 066501 (2015).             %
     %   D.C. Langreth et al., J. Phys.: Condens. Matter 21, 084203 (2009). %
     %                                                                      %
     %                                                                      %
     % If you are calculating the stress with vdW-DF, please also cite:     %
     %                                                                      %
     %   R. Sabatini et al., J. Phys.: Condens. Matter 24, 424209 (2012).   %
     %                                                                      %
     %%%%%%%%%%%%%%%%%%%%%%%%%%%%%%%%%%%%%%%%%%%%%%%%%%%%%%%%%%%%%%%%%%%%%%%%

     Adding external electric field

     Computed dipole along edir(3) :
        Dipole              -14.7651 Ry au,        -37.5293 Debye
        Dipole field         -0.0279 Ry au,

        Potential amp.        2.5829 Ry
        Total length         46.3494 bohr

     Starting wfcs are  307 atomic wfcs
  @ DRIVER MODE: Message from server: STATUS
  @ DRIVER MODE: Message from server: POSDATA
  @ DRIVER MODE: Reading and sharing cell
  @ DRIVER MODE: Reading and sharing positions
  @ DRIVER MODE: Received positions

     Self-consistent Calculation

     iteration #  1     ecut=    29.40 Ry     beta= 0.05
     Davidson diagonalization with overlap
     c_bands:  3 eigenvalues not converged
     c_bands:  4 eigenvalues not converged
     c_bands:  2 eigenvalues not converged
     c_bands:  3 eigenvalues not converged
     c_bands:  2 eigenvalues not converged
     c_bands:  3 eigenvalues not converged
     ethr =  1.00E-05,  avg # of iterations = 23.0

[...]

     total energy              =   -2204.25917526 Ry
     estimated scf accuracy    <    8785.89877463 Ry

     iteration #  2     ecut=    29.40 Ry     beta= 0.05
     Davidson diagonalization with overlap
     ethr =  1.00E-02,  avg # of iterations = 29.7

[...]

     iteration # 44     ecut=    29.40 Ry     beta= 0.05
     Davidson diagonalization with overlap
     c_bands:  1 eigenvalues not converged
     ethr =  1.20E-08,  avg # of iterations = 16.8

[...]

     total energy              =   -2976.49814392 Ry
     estimated scf accuracy    <       0.00000022 Ry

     iteration # 63     ecut=    29.40 Ry     beta= 0.05
     Davidson diagonalization with overlap
     ethr =  4.68E-11,  avg # of iterations =  7.0

     negative rho (up, down):  1.443E-02 0.000E+00

     Adding external electric field

     Computed dipole along edir(3) :
        Dipole                0.9933 Ry au,          2.5247 Debye
        Dipole field          0.0019 Ry au,

        Potential amp.       -0.1738 Ry
        Total length         46.3494 bohr

     End of self-consistent calculation

          k = 0.0000 0.0000 0.0000 ( 18029 PWs)   bands (ev):

   -55.5802 -55.4982 -55.4642 -55.3636 -55.3420 -55.3261 -55.3126 -55.3056
   -55.2923 -55.2626 -55.2189 -55.0967 -55.0852 -55.0086 -54.4674 -54.4334
   -31.9828 -31.9178 -31.8770 -31.8297 -31.8281 -31.8071 -31.7974 -31.7891
   -31.7491 -31.7442 -31.7264 -31.6509 -31.6271 -31.6064 -31.6047 -31.6027
   -31.5970 -31.5851 -31.5828 -31.5559 -31.5495 -31.5245 -31.5235 -31.5120
   -31.4970 -31.4855 -31.4778 -31.4602 -31.4562 -31.4535 -31.4437 -31.4378
   -31.4340 -31.4146 -31.3727 -31.3708 -31.2997 -31.2933 -31.2788 -31.2583
   -31.2214 -31.2141 -30.8731 -30.7875 -30.7650 -30.6907 -30.6044 -30.4925
   -17.5820 -16.3620 -16.1382 -15.9756 -15.7603 -15.6752 -15.6466 -15.4542
   -15.3489 -15.2960 -15.1098 -15.0640 -15.0330 -15.0219 -15.0065 -14.9838
   -14.9640 -14.9258 -14.9174 -14.9071 -14.9015 -14.8629 -14.8405 -14.7900
   -14.7677 -14.7045 -14.6325 -14.5648 -14.5173 -14.2561 -14.2381 -12.9681
   -12.9657 -12.8495  -9.4614  -6.1533  -5.2028  -4.6366  -3.9359  -3.5036
    -3.4029  -3.3870  -3.3322  -3.2684  -3.1687  -2.9953  -2.8865  -2.8326
    -2.7319  -2.6247  -2.5692  -2.5064  -2.4793  -2.4299  -2.3968  -2.3851
    -2.3784  -2.2822  -2.2736  -2.2466  -2.2111  -2.1552  -2.1395  -2.0613
    -2.0251  -2.0167  -1.8925  -1.8796  -1.8139  -1.8096  -1.8033  -1.7697
    -1.7486  -1.7337  -1.7049  -1.6206  -1.5679  -1.4972  -1.4745  -1.4449
    -1.1842  -1.0937  -1.0560  -1.0276  -0.9305  -0.9143  -0.9019  -0.8975
    -0.8834  -0.8341  -0.7870  -0.7030  -0.5930  -0.5726  -0.5647  -0.5198
    -0.4546  -0.3725  -0.2991  -0.2695  -0.2329  -0.2191  -0.1525  -0.0755
    -0.0594  -0.0469   0.0623   0.0750   0.1581   0.2167   0.2307   0.2748
     0.3158   0.3499   0.4057   0.4423   0.4728   0.4786   0.5114   0.5564
     0.6121   0.6428   0.6704   0.7513   0.8079   0.8538   0.8814   1.0532
     1.0828   1.1388   1.1790   1.2665   1.5090   1.5592   1.5986   1.7536
     2.1255   2.1707   3.5865   3.7376   3.7527   3.8230   3.8474   3.9384
     4.0758   4.1442   4.2752   4.2840

[...]

          k = 0.0380-0.0419 0.0000 ( 17876 PWs)   bands (ev):

[...]

          k =-0.0760-0.0000 0.0000 ( 17886 PWs)   bands (ev):

[...]

          k =-0.0760-0.0839 0.0000 ( 17948 PWs)   bands (ev):

   -55.5795 -55.4813 -55.4810 -55.3623 -55.3289 -55.3187 -55.3132 -55.3092
   -55.3088 -55.2546 -55.2269 -55.0936 -55.0863 -55.0116 -54.4505 -54.4501
   -31.8648 -31.8061 -31.8024 -31.7982 -31.7980 -31.7822 -31.7748 -31.7744
   -31.7058 -31.6494 -31.6414 -31.6340 -31.6293 -31.6163 -31.6013 -31.6012
   -31.5989 -31.5987 -31.5842 -31.5739 -31.5663 -31.5581 -31.5367 -31.5186
   -31.5160 -31.5118 -31.5045 -31.5015 -31.4891 -31.4820 -31.4792 -31.4735
   -31.4684 -31.4498 -31.4440 -31.3668 -31.3545 -31.3407 -31.3016 -31.2974
   -31.2635 -31.2175 -30.7779 -30.7777 -30.6862 -30.6857 -30.6477 -30.6474
   -17.5760 -16.3455 -15.7471 -15.5693 -15.4730 -15.4665 -15.3356 -15.2698
   -15.2612 -15.2258 -15.2081 -15.1943 -15.1602 -15.1431 -15.1026 -15.0502
   -15.0168 -14.9942 -14.9826 -14.9456 -14.9330 -14.9111 -14.9037 -14.8951
   -14.8367 -14.8048 -14.7957 -14.7648 -14.5694 -14.5471 -14.3706 -12.9696
   -12.9514 -12.9513  -9.4590  -6.1385  -5.2044  -4.6467  -3.9321  -3.1694
    -2.9214  -2.7781  -2.7019  -2.5678  -2.5580  -2.5002  -2.4913  -2.4478
    -2.4390  -2.3978  -2.3438  -2.3274  -2.2847  -2.2798  -2.2490  -2.2366
    -2.2258  -2.2167  -2.1917  -2.1720  -2.1631  -2.1223  -2.1178  -2.1021
    -2.0824  -2.0659  -2.0384  -2.0274  -1.9871  -1.9475  -1.8812  -1.8084
    -1.7229  -1.6401  -1.6296  -1.6188  -1.5725  -1.5660  -1.5193  -1.5076
    -1.4607  -1.4091  -1.2943  -1.1708  -1.1308  -1.1058  -1.0734  -1.0416
    -0.9868  -0.9641  -0.9291  -0.8808  -0.8485  -0.7253  -0.7146  -0.6485
    -0.5645  -0.5307  -0.4555  -0.4420  -0.4273  -0.4114  -0.3896  -0.3734
    -0.3432  -0.3271  -0.2226  -0.1995  -0.1957  -0.1729  -0.1219  -0.0196
     0.0525   0.1374   0.2413   0.2899   0.3190   0.3522   0.4529   0.5692
     0.5939   0.6576   0.6898   0.7326   0.7994   0.8206   0.8682   0.9538
     1.0071   1.0394   1.0657   1.0706   1.1252   1.1546   1.9222   1.9307
     1.9909   1.9912   3.7991   4.0764   4.1020   4.1180   4.1552   4.1594
     4.1814   4.1958   4.2611   4.2766

     the Fermi energy is     3.6234 ev

!    total energy              =   -2976.49817843 Ry
     estimated scf accuracy    <       0.00000004 Ry
     smearing contrib. (-TS)   =      -0.01952925 Ry
     internal energy E=F+TS    =   -2976.47864919 Ry

     The total energy is F=E-TS. E is the sum of the following terms:
     one-electron contribution =  -23034.42577873 Ry
     hartree contribution      =   11613.57728400 Ry
     xc contribution           =    -495.70295940 Ry
     ewald contribution        =    8940.07094302 Ry
     electric field correction =       0.00186193 Ry

     convergence has been achieved in  63 iterations

     Forces acting on atoms (cartesian axes, Ry/au):

     atom    1 type  1   force =     0.00000961   -0.00022675    0.09405188
     atom    2 type  1   force =    -0.00016339    0.00025383   -0.17515383
     atom    3 type  2   force =     0.00007478   -0.00016205   -0.02115125
     atom    4 type  2   force =     0.00000366   -0.00104183    0.05354724
     atom    5 type  2   force =    -0.00454436   -0.00322489    0.00115463
     atom    6 type  2   force =     0.00660246   -0.00242403    0.00161998
     atom    7 type  1   force =     0.00037094    0.00456956    0.01037419
     atom    8 type  1   force =    -0.00056003    0.00198942    0.00312157
     atom    9 type  2   force =     0.00010310   -0.00049502   -0.00048176
     atom   10 type  2   force =    -0.00031072   -0.00004156   -0.01129660
     atom   11 type  2   force =    -0.00024425    0.00046169    0.00004320
     atom   12 type  2   force =    -0.00025877    0.00067808    0.00008147
     atom   13 type  1   force =     0.00061536   -0.00064230    0.00023988
     atom   14 type  1   force =    -0.00035665    0.00014661    0.00018991
     atom   15 type  2   force =    -0.00017310    0.00015068    0.00052052
     atom   16 type  2   force =     0.00005092   -0.00007322    0.00027537
     atom   17 type  2   force =    -0.00054319    0.00011600    0.00045106
     atom   18 type  2   force =     0.00021408   -0.00004369    0.00053642
     atom   19 type  1   force =    -0.00014580    0.00084675   -0.00030245
     atom   20 type  1   force =    -0.00003428   -0.00015811   -0.00012921
     atom   21 type  2   force =     0.00002881   -0.00001253    0.10311110
     atom   22 type  2   force =    -0.00007499   -0.00010910   -0.00038758
     atom   23 type  2   force =    -0.07213868   -0.00020975   -0.02725704
     atom   24 type  2   force =     0.07204375    0.00023306   -0.02733590
     atom   25 type  1   force =     0.00006889   -0.00034466    0.09403967
     atom   26 type  1   force =    -0.00000373   -0.00128708   -0.17518401
     atom   27 type  2   force =     0.00015390   -0.00021439   -0.01993015
     atom   28 type  2   force =     0.00008744   -0.00111186    0.04906647
     atom   29 type  2   force =    -0.00667878    0.00152664    0.00213021
     atom   30 type  2   force =     0.00854838    0.00170526    0.00250158
     atom   31 type  1   force =     0.00050097   -0.00019903    0.00054153
     atom   32 type  1   force =    -0.00020283   -0.00145437    0.00351683
     atom   33 type  2   force =    -0.00007800   -0.00000012   -0.00002978
     atom   34 type  2   force =    -0.00088758    0.00246250   -0.01150625
     atom   35 type  2   force =     0.00002004   -0.00043437    0.00048182
     atom   36 type  2   force =    -0.00051993   -0.00041141    0.00033976
     atom   37 type  1   force =     0.00036761    0.00027301    0.00002859
     atom   38 type  1   force =    -0.00038098    0.00024415    0.00031441
     atom   39 type  2   force =    -0.00051815    0.00036826    0.00046738
     atom   40 type  2   force =    -0.00001559   -0.00008709   -0.00002764
     atom   41 type  2   force =    -0.00035439   -0.00033216    0.00006182
     atom   42 type  2   force =    -0.00035365   -0.00045515   -0.00054376
     atom   43 type  1   force =     0.00001970   -0.00098938    0.00039418
     atom   44 type  1   force =    -0.00010690    0.00014949    0.00015778
     atom   45 type  2   force =     0.00002137   -0.00001670    0.10296957
     atom   46 type  2   force =    -0.07214479   -0.00008630   -0.02725335
     atom   47 type  2   force =     0.07200001    0.00035142   -0.02729563
     atom   48 type  3   force =     0.00055687   -0.00054416   -0.00030509
     atom   49 type  3   force =    -0.00072934    0.00008103    0.00007793
     atom   50 type  4   force =     0.00034426   -0.00026666    0.00022179
     atom   51 type  5   force =    -0.00029245    0.00023048    0.00002429
     atom   52 type  5   force =    -0.00010147   -0.00079567    0.00000217
     atom   53 type  5   force =     0.00019433   -0.00053095    0.00000248
     atom   54 type  5   force =     0.00018277    0.00023013   -0.00055491
     atom   55 type  5   force =    -0.00014849    0.00031500    0.00041467
     atom   56 type  5   force =     0.00034887    0.00024682   -0.00036646
     atom   57 type  2   force =    -0.00753303    0.01095377    0.00465444
     atom   58 type  5   force =     0.00706542   -0.01015733   -0.00523516

     Total force =     0.362231     Total SCF correction =     0.000397
  @ DRIVER MODE: Message from server: STATUS
  @ DRIVER MODE: Message from server: GETFORCE
  @ DRIVER MODE: Returning v,forces,stress,ensemble

     Writing output data file ./calc.save/
  @ DRIVER MODE: Message from server: EXIT
  @ DRIVE MODE: Exiting

     General routines

     Parallel routines

   This run was terminated on:  10:50:30  24Sep2021

   JOB DONE.