     Program PWSCF v.6.7GPU starts on 23Sep2021 at 22:52:38

     R & G space division:  proc/nbgrp/npool/nimage =       8
     Reading input from /storage/home/hcoda1/3/ntian30/research/carbon/CxH_vib/H2O_calc/ads_slab/CH2NNHHHHO_a/out_0027/pw.inp
Warning: card &CELL ignored
Warning: card   CELL_DYNAMICS='IPI', ignored
Warning: card / ignored

     Current dimensions of program PWSCF are:
     Max number of different atomic species (ntypx) = 10
     Max number of k-points (npk) =  40000
     Max angular momentum in pseudopotentials (lmaxx) =  3
     Presently no symmetry can be used with electric field

     Message from routine cell_base_init:
     DEPRECATED: use true lattice parameter, not A to a.u. conversion factor

     IMPORTANT: XC functional enforced from input :
     Exchange-correlation= BEEF-VDW
                           (   1   4  43  14   2   0   0)
     Any further DFT definition will be discarded
     Please, verify this is what you really want

  @ DRIVER MODE: Connecting to
 qe_1139763_2947316.sched-torque.pace.gatech.edu53s89ynb_scratch
  using UNIX socket
  @ DRIVER MODE: Message from server: STATUS
  @ DRIVER MODE: Message from server: INIT
  @ DRIVER MODE: Receiving replica           0          -1
  @ DRIVER MODE: Receiving encoded integer          25
  @ DRIVER MODE:  SCF:  T  FORCE:  T  STRESS:  F  VC:  F  ENSEMBLE:  F
  @ DRIVER MODE:  SCF:  T  FORCE:  T  STRESS:  F  VC:  F  ENSEMBLE:  F

     Using Slab Decomposition

     bravais-lattice index     =            0
     lattice parameter (alat)  =       1.8897  a.u.
     unit-cell volume          =    6658.9804 (a.u.)^3
     number of atoms/cell      =           57
     number of atomic types    =            5
     number of electrons       =       404.00
     number of Kohn-Sham states=          212
     kinetic-energy cutoff     =      29.3995  Ry
     charge density cutoff     =     293.9946  Ry
     scf convergence threshold =      7.3E-08
     mixing beta               =       0.0500
     number of iterations used =            8  plain     mixing
     Exchange-correlation= BEEF-VDW
                           (   1   4  43  14   2   0   0)

     celldm(1)=   1.889726  celldm(2)=   0.000000  celldm(3)=   0.000000
     celldm(4)=   0.000000  celldm(5)=   0.000000  celldm(6)=   0.000000

     crystal axes: (cart. coord. in units of alat)
               a(1) = (   6.579727   0.000000   0.000000 )
               a(2) = (  -0.000775   5.961596   0.000000 )
               a(3) = (   0.000000   0.000000  25.155947 )

     reciprocal axes: (cart. coord. in units 2 pi/alat)
               b(1) = (  0.151982  0.000020  0.000000 )
               b(2) = (  0.000000  0.167740  0.000000 )
               b(3) = (  0.000000  0.000000  0.039752 )

     PseudoPot. # 1 for Ti read from file:
     /storage/coda1/p-amedford6/0/shared/rich_project_chbe-medford/medford-share/data/pseudos_module/espresso/nninc/pbe/van/Ti.UPF
     MD5 check sum: 8e4df49b7f0d34bbd5052bf3f5ea0213
     Pseudo is Ultrasoft, Zval = 12.0
     Generated by new atomic code, or converted to UPF format
     Using radial grid of  851 points,  6 beta functions with:
                l(1) =   0
                l(2) =   0
                l(3) =   1
                l(4) =   1
                l(5) =   2
                l(6) =   2
     Q(r) pseudized with  8 coefficients,  rinner =    1.000   1.000   1.000
                                                       1.000   1.000

     PseudoPot. # 2 for O  read from file:
     /storage/coda1/p-amedford6/0/shared/rich_project_chbe-medford/medford-share/data/pseudos_module/espresso/nninc/pbe/van/O.UPF
     MD5 check sum: 78c19812648e8988a0fe644b0f25305e
     Pseudo is Ultrasoft, Zval =  6.0
     Generated by new atomic code, or converted to UPF format
     Using radial grid of  737 points,  4 beta functions with:
                l(1) =   0
                l(2) =   0
                l(3) =   1
                l(4) =   1
     Q(r) pseudized with  8 coefficients,  rinner =    0.800   0.800   0.800

     PseudoPot. # 3 for N  read from file:
     /storage/coda1/p-amedford6/0/shared/rich_project_chbe-medford/medford-share/data/pseudos_module/espresso/nninc/pbe/van/N.UPF
     MD5 check sum: 90d10febe142ad51ac9d5be1deb811c4
     Pseudo is Ultrasoft, Zval =  5.0
     Generated by new atomic code, or converted to UPF format
     Using radial grid of  729 points,  4 beta functions with:
                l(1) =   0
                l(2) =   0
                l(3) =   1
                l(4) =   1
     Q(r) pseudized with  8 coefficients,  rinner =    0.800   0.800   0.800

     PseudoPot. # 4 for C  read from file:
     /storage/coda1/p-amedford6/0/shared/rich_project_chbe-medford/medford-share/data/pseudos_module/espresso/nninc/pbe/van/C.UPF
     MD5 check sum: 1a69bf6b8db32088f5b2163dbdb77a27
     Pseudo is Ultrasoft, Zval =  4.0
     Generated by new atomic code, or converted to UPF format
     Using radial grid of  721 points,  4 beta functions with:
                l(1) =   0
                l(2) =   0
                l(3) =   1
                l(4) =   1
     Q(r) pseudized with  8 coefficients,  rinner =    0.800   0.800   0.800

     PseudoPot. # 5 for H  read from file:
     /storage/coda1/p-amedford6/0/shared/rich_project_chbe-medford/medford-share/data/pseudos_module/espresso/nninc/pbe/van/H.UPF
     MD5 check sum: b5ee9d7bfd3a09ee7748110bda690ff7
     Pseudo is Ultrasoft, Zval =  1.0
     Generated by new atomic code, or converted to UPF format
     Using radial grid of  615 points,  1 beta functions with:
                l(1) =   0
     Q(r) pseudized with  8 coefficients,  rinner =    0.800

     atomic species   valence    mass     pseudopotential
        Ti1           12.00    47.86700     Ti( 1.00)
        O1             6.00    15.99900     O ( 1.00)
        N1             5.00    14.00700     N ( 1.00)
        C1             4.00    12.01100     C ( 1.00)
        H1             1.00     1.00800     H ( 1.00)

     No symmetry found

   Cartesian axes

     site n.     atom                  positions (alat units)
         1           Ti1 tau(   1) = (   0.0004258   2.9801865   6.0000000  )
         2           Ti1 tau(   2) = (   3.2906075   1.4906267   6.0002472  )
         3           O1  tau(   3) = (   0.0006271   0.0005054   7.9858123  )
         4           O1  tau(   4) = (   3.2906025   0.0005020   7.3038282  )
         5           O1  tau(   5) = (   4.5942328   1.4918067   9.2879030  )
         6           O1  tau(   6) = (   1.9868534   1.4903216   9.2879459  )
         7           Ti1 tau(   7) = (   3.2907910   2.8959150   9.1758416  )
         8           Ti1 tau(   8) = (   0.0015273   1.4827037   9.2680791  )
         9           O1  tau(   9) = (   3.3027076   5.9092304  11.3732431  )
        10           O1  tau(  10) = (   0.0116148   5.9584955  10.6183126  )
        11           O1  tau(  11) = (   1.2953868   1.4751764  12.6403503  )
        12           O1  tau(  12) = (   5.3168701   1.4807623  12.6366210  )
        13           Ti1 tau(  13) = (   0.0172323   2.9996225  12.5311828  )
        14           Ti1 tau(  14) = (   3.3257086   1.2755711  12.7138078  )
        15           O1  tau(  15) = (   6.5733368   0.1082846  14.6600873  )
        16           O1  tau(  16) = (   3.3238075   0.0838359  14.0473399  )
        17           O1  tau(  17) = (   4.5575128   1.5393005  16.2317518  )
        18           O1  tau(  18) = (   2.0302387   1.4963625  16.2670071  )
        19           Ti1 tau(  19) = (   3.2366114   2.9448900  15.6849520  )
        20           Ti1 tau(  20) = (   6.5300729   1.3987400  16.1165465  )
        21           O1  tau(  21) = (   3.2904802   0.0005063   4.7018136  )
        22           O1  tau(  22) = (   0.0022030   5.7760056  17.1861099  )
        23           O1  tau(  23) = (   1.3043587   1.4918075   6.0039043  )
        24           O1  tau(  24) = (   5.2767064   1.4903225   6.0039473  )
        25           Ti1 tau(  25) = (   0.0000382   5.9609847   6.0000000  )
        26           Ti1 tau(  26) = (   3.2902200   4.4714249   6.0002472  )
        27           O1  tau(  27) = (   0.0002396   2.9813036   7.9858123  )
        28           O1  tau(  28) = (   3.2902150   2.9813002   7.3038282  )
        29           O1  tau(  29) = (   4.5938453   4.4726049   9.2879030  )
        30           O1  tau(  30) = (   1.9864658   4.4711199   9.2879459  )
        31           Ti1 tau(  31) = (   3.2891106   5.8743827   9.1763621  )
        32           Ti1 tau(  32) = (   0.0006254   4.4649316   9.2693709  )
        33           O1  tau(  33) = (   3.3012885   2.9833904  11.3212188  )
        34           O1  tau(  34) = (   0.0092240   2.9805883  10.6323155  )
        35           O1  tau(  35) = (   1.2895456   4.4501540  12.7025460  )
        36           O1  tau(  36) = (   5.3143371   4.4382646  12.6927937  )
        37           Ti1 tau(  37) = (   0.0343555   0.0433052  12.5107970  )
        38           Ti1 tau(  38) = (   3.3217552   4.3482123  12.4486840  )
        39           O1  tau(  39) = (   0.0141661   2.9064423  14.8877341  )
        40           O1  tau(  40) = (   3.2920978   2.9424077  13.9176102  )
        41           O1  tau(  41) = (   4.5506947   4.3398720  16.1100615  )
        42           O1  tau(  42) = (   2.0210198   4.4131678  16.0160425  )
        43           Ti1 tau(  43) = (   3.3132698   5.9358869  16.2610495  )
        44           Ti1 tau(  44) = (   0.0826266   4.5979890  15.7080129  )
        45           O1  tau(  45) = (   3.2900926   2.9813045   4.7018136  )
        46           O1  tau(  46) = (   1.3039711   4.4726057   6.0039043  )
        47           O1  tau(  47) = (   5.2763189   4.4711207   6.0039473  )
        48           N1  tau(  48) = (   6.5643472   2.7424576  18.0625816  )
        49           C1  tau(  49) = (   0.8744728   2.5686873  19.0232366  )
        50           H1  tau(  50) = (   0.8543601   3.1364980  19.9465443  )
        51           H1  tau(  51) = (   1.6733950   1.8773151  18.8242213  )
        52           N1  tau(  52) = (   5.5366205   3.6679994  18.4753393  )
        53           H1  tau(  53) = (   5.9486539   4.6347284  18.5635686  )
        54           H1  tau(  54) = (   4.8775701   3.8234783  17.6645784  )
        55           H1  tau(  55) = (   5.0440791   3.3775604  19.3232938  )
        56           O1  tau(  56) = (   3.4091604   5.6710612  18.1544331  )
        57           H1  tau(  57) = (   3.1368125   0.4262250  18.7404830  )

     number of k points=    10  Fermi-Dirac smearing, width (Ry)=  0.0073
                       cart. coord. in units 2pi/alat
        k(    1) = (   0.0000000   0.0000000   0.0000000), wk =   0.1250000
        k(    2) = (   0.0000000   0.0419351   0.0000000), wk =   0.2500000
        k(    3) = (   0.0000000  -0.0838702   0.0000000), wk =   0.1250000
        k(    4) = (   0.0379955   0.0000049   0.0000000), wk =   0.2500000
        k(    5) = (   0.0379955   0.0419400   0.0000000), wk =   0.2500000
        k(    6) = (   0.0379955  -0.0838652   0.0000000), wk =   0.2500000
        k(    7) = (   0.0379955  -0.0419301   0.0000000), wk =   0.2500000
        k(    8) = (  -0.0759910  -0.0000099   0.0000000), wk =   0.1250000
        k(    9) = (  -0.0759910   0.0419252   0.0000000), wk =   0.2500000
        k(   10) = (  -0.0759910  -0.0838800   0.0000000), wk =   0.1250000

     Initial potential from superposition of free atoms

     starting charge  387.99913, renormalised to  404.00000

     negative rho (up, down):  1.546E-02 0.000E+00

     %%%%%%%%%%%%%%%%%%%%%%%%%%%%%%%%%%%%%%%%%%%%%%%%%%%%%%%%%%%%%%%%%%%%%%%%
     %                                                                      %
     % You are using vdW-DF, which was implemented by the Thonhauser group. %
     % Please cite the following two papers that made this development      %
     % possible and the two reviews that describe the various versions:     %
     %                                                                      %
     %   T. Thonhauser et al., PRL 115, 136402 (2015).                      %
     %   T. Thonhauser et al., PRB 76, 125112 (2007).                       %
     %   K. Berland et al., Rep. Prog. Phys. 78, 066501 (2015).             %
     %   D.C. Langreth et al., J. Phys.: Condens. Matter 21, 084203 (2009). %
     %                                                                      %
     %                                                                      %
     % If you are calculating the stress with vdW-DF, please also cite:     %
     %                                                                      %
     %   R. Sabatini et al., J. Phys.: Condens. Matter 24, 424209 (2012).   %
     %                                                                      %
     %%%%%%%%%%%%%%%%%%%%%%%%%%%%%%%%%%%%%%%%%%%%%%%%%%%%%%%%%%%%%%%%%%%%%%%%

     Adding external electric field

     Computed dipole along edir(3) :
        Dipole              -13.5862 Ry au,        -34.5326 Debye
        Dipole field         -0.0256 Ry au,

        Potential amp.        2.3767 Ry
        Total length         46.3494 bohr

     Starting wfcs are  306 atomic wfcs
  @ DRIVER MODE: Message from server: STATUS
  @ DRIVER MODE: Message from server: POSDATA
  @ DRIVER MODE: Reading and sharing cell
  @ DRIVER MODE: Reading and sharing positions
  @ DRIVER MODE: Received positions

     Self-consistent Calculation

     iteration #  1     ecut=    29.40 Ry     beta= 0.05
     Davidson diagonalization with overlap
     c_bands:  4 eigenvalues not converged
     c_bands:  1 eigenvalues not converged
     c_bands:  1 eigenvalues not converged
     c_bands:  1 eigenvalues not converged
     c_bands:  2 eigenvalues not converged
     c_bands:  4 eigenvalues not converged
     c_bands:  5 eigenvalues not converged
     c_bands:  2 eigenvalues not converged
     ethr =  1.00E-05,  avg # of iterations = 29.7

[...]

     total energy              =   -2247.84803503 Ry
     estimated scf accuracy    <    8242.63257249 Ry

     iteration #  2     ecut=    29.40 Ry     beta= 0.05
     Davidson diagonalization with overlap
     ethr =  1.00E-02,  avg # of iterations = 25.5

[...]

     iteration # 62     ecut=    29.40 Ry     beta= 0.05
     Davidson diagonalization with overlap
     c_bands:  1 eigenvalues not converged
     ethr =  1.22E-07,  avg # of iterations = 10.9

[...]

     total energy              =   -2975.12426065 Ry
     estimated scf accuracy    <       0.00000010 Ry

     iteration # 82     ecut=    29.40 Ry     beta= 0.05
     Davidson diagonalization with overlap
     ethr =  2.41E-11,  avg # of iterations = 11.3

     negative rho (up, down):  1.382E-02 0.000E+00

     Adding external electric field

     Computed dipole along edir(3) :
        Dipole                1.3720 Ry au,          3.4873 Debye
        Dipole field          0.0026 Ry au,

        Potential amp.       -0.2400 Ry
        Total length         46.3494 bohr

     End of self-consistent calculation

          k = 0.0000 0.0000 0.0000 ( 18029 PWs)   bands (ev):

   -55.3878 -55.2476 -55.2136 -55.1223 -55.0871 -55.0815 -55.0771 -55.0430
   -55.0367 -54.9885 -54.9611 -54.9250 -54.8725 -54.7423 -54.2279 -54.1939
   -31.7331 -31.7170 -31.6144 -31.6073 -31.5862 -31.5789 -31.5385 -31.5305
   -31.5204 -31.4936 -31.4504 -31.4465 -31.4002 -31.3725 -31.3710 -31.3608
   -31.3549 -31.3139 -31.3050 -31.3035 -31.2864 -31.2755 -31.2711 -31.2659
   -31.2640 -31.2250 -31.2213 -31.2206 -31.2172 -31.2043 -31.1953 -31.1898
   -31.1826 -31.1494 -31.1428 -31.1122 -31.1044 -31.0874 -31.0824 -31.0784
   -31.0037 -30.9101 -30.6343 -30.5470 -30.5246 -30.4517 -30.3652 -30.2536
   -19.2177 -16.3137 -15.9265 -15.7703 -15.5893 -15.4506 -15.4100 -15.1866
   -15.1308 -15.0442 -15.0219 -14.9056 -14.7895 -14.7887 -14.7680 -14.7614
   -14.7456 -14.7006 -14.6951 -14.6893 -14.6735 -14.6521 -14.6314 -14.6214
   -14.5839 -14.5426 -14.3914 -14.3601 -14.3464 -14.3085 -14.1717 -14.0040
   -12.7268 -12.6102  -9.2179  -7.6788  -6.8551  -6.1392  -4.3030  -3.6027
    -3.2748  -3.1773  -3.1544  -3.1442  -3.0113  -2.8409  -2.6457  -2.5840
    -2.5213  -2.4065  -2.3779  -2.2821  -2.2596  -2.2190  -2.1630  -2.1403
    -2.1117  -2.0582  -2.0448  -2.0370  -1.9466  -1.9266  -1.8244  -1.8038
    -1.7707  -1.7124  -1.6771  -1.6186  -1.5868  -1.5644  -1.5625  -1.5544
    -1.5309  -1.5175  -1.4956  -1.4430  -1.4109  -1.3491  -1.2831  -1.2079
    -1.1328  -0.9111  -0.8648  -0.8456  -0.7915  -0.7526  -0.6902  -0.6654
    -0.6456  -0.6333  -0.5642  -0.4538  -0.4058  -0.3641  -0.3100  -0.2857
    -0.2551  -0.1481  -0.0710  -0.0529  -0.0074   0.0319   0.0584   0.1234
     0.1579   0.1996   0.2680   0.2819   0.3590   0.3992   0.4220   0.4693
     0.5085   0.5727   0.6173   0.6665   0.6738   0.7036   0.7211   0.7524
     0.8381   0.8557   0.8971   0.9309   0.9918   1.0461   1.0708   1.2448
     1.3694   1.4044   1.4738   1.7406   1.7984   1.8141   1.9890   2.3666
     2.4122   3.8386   3.9788   3.9895   3.9976   4.0666   4.1210   4.1435
     4.3248   4.3642   4.4823   4.5218

[...]

          k = 0.0380-0.0419 0.0000 ( 17876 PWs)   bands (ev):

[...]

          k =-0.0760-0.0000 0.0000 ( 17886 PWs)   bands (ev):

[...]

          k =-0.0760-0.0839 0.0000 ( 17948 PWs)   bands (ev):

   -55.3871 -55.2307 -55.2304 -55.1077 -55.1015 -55.0820 -55.0604 -55.0593
   -55.0299 -54.9954 -54.9599 -54.9192 -54.8781 -54.7434 -54.2112 -54.2104
   -31.6565 -31.5979 -31.5891 -31.5484 -31.5482 -31.5242 -31.5237 -31.5036
   -31.4419 -31.4166 -31.3954 -31.3833 -31.3803 -31.3763 -31.3688 -31.3507
   -31.3500 -31.3460 -31.3435 -31.3326 -31.3292 -31.3106 -31.3033 -31.2824
   -31.2694 -31.2619 -31.2557 -31.2461 -31.2371 -31.2352 -31.2322 -31.2252
   -31.2168 -31.2117 -31.1851 -31.1474 -31.1220 -31.1087 -31.0950 -31.0849
   -31.0054 -30.9821 -30.5376 -30.5370 -30.4477 -30.4466 -30.4088 -30.4082
   -19.2140 -16.3004 -15.4581 -15.4100 -15.2236 -15.2203 -15.1944 -15.1322
   -15.0934 -15.0418 -15.0255 -14.9894 -14.9511 -14.9348 -14.9093 -14.8385
   -14.7948 -14.7686 -14.7571 -14.7210 -14.7050 -14.7043 -14.6728 -14.6504
   -14.6402 -14.5741 -14.5617 -14.4820 -14.4384 -14.4131 -14.2846 -14.2361
   -12.7123 -12.7118  -9.2055  -7.6901  -6.8404  -6.1481  -4.3337  -3.5912
    -2.6481  -2.6437  -2.4455  -2.4128  -2.3469  -2.2763  -2.2427  -2.2230
    -2.1750  -2.1683  -2.1285  -2.1061  -2.0699  -2.0414  -2.0341  -2.0165
    -2.0000  -1.9773  -1.9556  -1.9384  -1.9326  -1.9031  -1.8819  -1.8716
    -1.8289  -1.8215  -1.7967  -1.7787  -1.7446  -1.6797  -1.6195  -1.4982
    -1.4618  -1.4317  -1.4129  -1.3963  -1.3661  -1.3344  -1.3185  -1.3024
    -1.2752  -1.2620  -1.1529  -1.0055  -0.9926  -0.8994  -0.8650  -0.8594
    -0.7541  -0.7221  -0.6886  -0.6619  -0.6109  -0.5672  -0.4690  -0.4571
    -0.4155  -0.3475  -0.2506  -0.2409  -0.2251  -0.1964  -0.1731  -0.1666
    -0.1085  -0.0704  -0.0339   0.0178   0.0378   0.0603   0.0924   0.1864
     0.2162   0.3292   0.4531   0.4909   0.5159   0.5466   0.6804   0.7349
     0.7794   0.8534   0.9164   0.9363   1.0398   1.0580   1.0896   1.1445
     1.2153   1.2649   1.2810   1.3092   1.3220   2.1593   2.1674   2.2324
     2.2327   3.7940   4.0020   4.2530   4.3262   4.3476   4.3770   4.3994
     4.4316   4.4576   4.5008   4.5161

     the Fermi energy is     3.8743 ev

!    total energy              =   -2975.12427309 Ry
     estimated scf accuracy    <       0.00000006 Ry
     smearing contrib. (-TS)   =      -0.03099557 Ry
     internal energy E=F+TS    =   -2975.09327751 Ry

     The total energy is F=E-TS. E is the sum of the following terms:
     one-electron contribution =  -23510.29493518 Ry
     hartree contribution      =   11853.43930929 Ry
     xc contribution           =    -494.85747726 Ry
     ewald contribution        =    9176.61627332 Ry
     electric field correction =       0.00355231 Ry

     convergence has been achieved in  82 iterations

     Forces acting on atoms (cartesian axes, Ry/au):

     atom    1 type  1   force =     0.00014121   -0.00020993    0.09451062
     atom    2 type  1   force =    -0.00007511    0.00040646   -0.17567787
     atom    3 type  2   force =     0.00003283   -0.00002042   -0.02143990
     atom    4 type  2   force =     0.00000239   -0.00223341    0.05510033
     atom    5 type  2   force =    -0.00784992   -0.00313592    0.00368737
     atom    6 type  2   force =     0.00957065   -0.00256462    0.00357865
     atom    7 type  1   force =     0.00003521   -0.00298824    0.00577381
     atom    8 type  1   force =    -0.00023136    0.00257031    0.00564650
     atom    9 type  2   force =    -0.00035430   -0.00026356    0.00000474
     atom   10 type  2   force =    -0.00116203   -0.00256110   -0.00855973
     atom   11 type  2   force =    -0.00071307   -0.00070209   -0.00014980
     atom   12 type  2   force =     0.00030994   -0.00070537   -0.00006700
     atom   13 type  1   force =     0.00009977    0.00004907    0.00044400
     atom   14 type  1   force =    -0.00014798   -0.00035800    0.00017738
     atom   15 type  2   force =     0.00011574   -0.00043482    0.00002653
     atom   16 type  2   force =     0.00006357   -0.00073137   -0.00027046
     atom   17 type  2   force =     0.00017744    0.00030518   -0.00030611
     atom   18 type  2   force =    -0.00044349    0.00030624   -0.00046906
     atom   19 type  1   force =     0.00027490    0.00029485   -0.00001997
     atom   20 type  1   force =     0.00029788   -0.00035679   -0.00008457
     atom   21 type  2   force =     0.00005502    0.00002814    0.10332583
     atom   22 type  2   force =    -0.00033764    0.00022156   -0.00005372
     atom   23 type  2   force =    -0.07176928   -0.00019743   -0.02725645
     atom   24 type  2   force =     0.07160484    0.00024545   -0.02731989
     atom   25 type  1   force =     0.00006567   -0.00034753    0.09389513
     atom   26 type  1   force =    -0.00017314   -0.00122911   -0.17595479
     atom   27 type  2   force =     0.00013671   -0.00024818   -0.02016251
     atom   28 type  2   force =     0.00003595   -0.00055833    0.05061989
     atom   29 type  2   force =    -0.00680457    0.00148254    0.00204935
     atom   30 type  2   force =     0.00849970    0.00183937    0.00196364
     atom   31 type  1   force =     0.00014764    0.00701150   -0.00368562
     atom   32 type  1   force =    -0.00027511   -0.00256864    0.00510772
     atom   33 type  2   force =    -0.00000448    0.00030737   -0.00013585
     atom   34 type  2   force =    -0.00012237    0.00278432   -0.00829041
     atom   35 type  2   force =     0.00025586    0.00067738   -0.00029553
     atom   36 type  2   force =    -0.00101267    0.00054974   -0.00043911
     atom   37 type  1   force =     0.00012724   -0.00043210    0.00016331
     atom   38 type  1   force =    -0.00016428   -0.00008213   -0.00008907
     atom   39 type  2   force =    -0.00009193   -0.00001430    0.00014837
     atom   40 type  2   force =    -0.00046587    0.00013918   -0.00002216
     atom   41 type  2   force =     0.00012645    0.00035695    0.00001966
     atom   42 type  2   force =     0.00042446    0.00027962    0.00023580
     atom   43 type  1   force =     0.00026172    0.00062596    0.00020279
     atom   44 type  1   force =    -0.00007753   -0.00042087   -0.00004916
     atom   45 type  2   force =     0.00001673   -0.00010906    0.10308675
     atom   46 type  2   force =    -0.07183124   -0.00004144   -0.02731525
     atom   47 type  2   force =     0.07166780    0.00035291   -0.02735491
     atom   48 type  3   force =     0.00229720   -0.00383190   -0.00128437
     atom   49 type  4   force =     0.00107108   -0.00063099   -0.00046593
     atom   50 type  5   force =     0.00006708   -0.00039657   -0.00065668
     atom   51 type  5   force =    -0.00109375    0.00049675   -0.00031188
     atom   52 type  3   force =     0.00230958    0.01945709   -0.00408240
     atom   53 type  5   force =    -0.00425096   -0.00869554   -0.00166097
     atom   54 type  5   force =     0.00089288   -0.00174581    0.00155938
     atom   55 type  5   force =    -0.00154886   -0.00302700    0.00347711
     atom   56 type  2   force =     0.00049464    0.00133493    0.00014436
     atom   57 type  5   force =    -0.00067886   -0.00028033   -0.00101788

     Total force =     0.363498     Total SCF correction =     0.000735
  @ DRIVER MODE: Message from server: STATUS
  @ DRIVER MODE: Message from server: GETFORCE
  @ DRIVER MODE: Returning v,forces,stress,ensemble

     Writing output data file ./calc.save/
  @ DRIVER MODE: Message from server: EXIT
  @ DRIVE MODE: Exiting

     General routines

     Parallel routines

   This run was terminated on:  23:21:14  23Sep2021

   JOB DONE.