     Program PWSCF v.6.7GPU starts on  9Sep2021 at 22:59:27

     R & G space division:  proc/nbgrp/npool/nimage =      10
     Reading input from /storage/home/hcoda1/3/ntian30/research/carbon/CxH_vib/CH3_calc/ads_slab/CH3N2OH_l/out_0008/pw.inp
Warning: card &CELL ignored
Warning: card   CELL_DYNAMICS='IPI', ignored
Warning: card / ignored

     Current dimensions of program PWSCF are:
     Max number of different atomic species (ntypx) = 10
     Max number of k-points (npk) =  40000
     Max angular momentum in pseudopotentials (lmaxx) =  3
     Presently no symmetry can be used with electric field

     Message from routine cell_base_init:
     DEPRECATED: use true lattice parameter, not A to a.u. conversion factor

     IMPORTANT: XC functional enforced from input :
     Exchange-correlation= BEEF-VDW
                           (   1   4  43  14   2   0   0)
     Any further DFT definition will be discarded
     Please, verify this is what you really want

  @ DRIVER MODE: Connecting to
 qe_1139763_2779712.sched-torque.pace.gatech.edu9mi2i3ge_scratch
  using UNIX socket
  @ DRIVER MODE: Message from server: STATUS
  @ DRIVER MODE: Message from server: INIT
  @ DRIVER MODE: Receiving replica           0          -1
  @ DRIVER MODE: Receiving encoded integer          25
  @ DRIVER MODE:  SCF:  T  FORCE:  T  STRESS:  F  VC:  F  ENSEMBLE:  F
  @ DRIVER MODE:  SCF:  T  FORCE:  T  STRESS:  F  VC:  F  ENSEMBLE:  F

     Using Slab Decomposition

     bravais-lattice index     =            0
     lattice parameter (alat)  =       1.8897  a.u.
     unit-cell volume          =    6658.9804 (a.u.)^3
     number of atoms/cell      =           55
     number of atomic types    =            5
     number of electrons       =       402.00
     number of Kohn-Sham states=          211
     kinetic-energy cutoff     =      29.3995  Ry
     charge density cutoff     =     293.9946  Ry
     scf convergence threshold =      7.3E-08
     mixing beta               =       0.0500
     number of iterations used =            8  plain     mixing
     Exchange-correlation= BEEF-VDW
                           (   1   4  43  14   2   0   0)

     celldm(1)=   1.889726  celldm(2)=   0.000000  celldm(3)=   0.000000
     celldm(4)=   0.000000  celldm(5)=   0.000000  celldm(6)=   0.000000

     crystal axes: (cart. coord. in units of alat)
               a(1) = (   6.579727   0.000000   0.000000 )
               a(2) = (  -0.000775   5.961596   0.000000 )
               a(3) = (   0.000000   0.000000  25.155947 )

     reciprocal axes: (cart. coord. in units 2 pi/alat)
               b(1) = (  0.151982  0.000020  0.000000 )
               b(2) = (  0.000000  0.167740  0.000000 )
               b(3) = (  0.000000  0.000000  0.039752 )

     PseudoPot. # 1 for Ti read from file:
     /storage/coda1/p-amedford6/0/shared/rich_project_chbe-medford/medford-share/data/pseudos_module/espresso/nninc/pbe/van/Ti.UPF
     MD5 check sum: 8e4df49b7f0d34bbd5052bf3f5ea0213
     Pseudo is Ultrasoft, Zval = 12.0
     Generated by new atomic code, or converted to UPF format
     Using radial grid of  851 points,  6 beta functions with:
                l(1) =   0
                l(2) =   0
                l(3) =   1
                l(4) =   1
                l(5) =   2
                l(6) =   2
     Q(r) pseudized with  8 coefficients,  rinner =    1.000   1.000   1.000
                                                       1.000   1.000

     PseudoPot. # 2 for O  read from file:
     /storage/coda1/p-amedford6/0/shared/rich_project_chbe-medford/medford-share/data/pseudos_module/espresso/nninc/pbe/van/O.UPF
     MD5 check sum: 78c19812648e8988a0fe644b0f25305e
     Pseudo is Ultrasoft, Zval =  6.0
     Generated by new atomic code, or converted to UPF format
     Using radial grid of  737 points,  4 beta functions with:
                l(1) =   0
                l(2) =   0
                l(3) =   1
                l(4) =   1
     Q(r) pseudized with  8 coefficients,  rinner =    0.800   0.800   0.800

     PseudoPot. # 3 for N  read from file:
     /storage/coda1/p-amedford6/0/shared/rich_project_chbe-medford/medford-share/data/pseudos_module/espresso/nninc/pbe/van/N.UPF
     MD5 check sum: 90d10febe142ad51ac9d5be1deb811c4
     Pseudo is Ultrasoft, Zval =  5.0
     Generated by new atomic code, or converted to UPF format
     Using radial grid of  729 points,  4 beta functions with:
                l(1) =   0
                l(2) =   0
                l(3) =   1
                l(4) =   1
     Q(r) pseudized with  8 coefficients,  rinner =    0.800   0.800   0.800

     PseudoPot. # 4 for C  read from file:
     /storage/coda1/p-amedford6/0/shared/rich_project_chbe-medford/medford-share/data/pseudos_module/espresso/nninc/pbe/van/C.UPF
     MD5 check sum: 1a69bf6b8db32088f5b2163dbdb77a27
     Pseudo is Ultrasoft, Zval =  4.0
     Generated by new atomic code, or converted to UPF format
     Using radial grid of  721 points,  4 beta functions with:
                l(1) =   0
                l(2) =   0
                l(3) =   1
                l(4) =   1
     Q(r) pseudized with  8 coefficients,  rinner =    0.800   0.800   0.800

     PseudoPot. # 5 for H  read from file:
     /storage/coda1/p-amedford6/0/shared/rich_project_chbe-medford/medford-share/data/pseudos_module/espresso/nninc/pbe/van/H.UPF
     MD5 check sum: b5ee9d7bfd3a09ee7748110bda690ff7
     Pseudo is Ultrasoft, Zval =  1.0
     Generated by new atomic code, or converted to UPF format
     Using radial grid of  615 points,  1 beta functions with:
                l(1) =   0
     Q(r) pseudized with  8 coefficients,  rinner =    0.800

     atomic species   valence    mass     pseudopotential
        Ti1           12.00    47.86700     Ti( 1.00)
        O1             6.00    15.99900     O ( 1.00)
        N1             5.00    14.00700     N ( 1.00)
        C1             4.00    12.01100     C ( 1.00)
        H1             1.00     1.00800     H ( 1.00)

     No symmetry found

   Cartesian axes

     site n.     atom                  positions (alat units)
         1           Ti1 tau(   1) = (   0.0004258   2.9801865   6.0000000  )
         2           Ti1 tau(   2) = (   3.2906075   1.4906267   6.0002472  )
         3           O1  tau(   3) = (   0.0006271   0.0005054   7.9858123  )
         4           O1  tau(   4) = (   3.2906025   0.0005020   7.3038282  )
         5           O1  tau(   5) = (   4.5942328   1.4918067   9.2879030  )
         6           O1  tau(   6) = (   1.9868534   1.4903216   9.2879459  )
         7           Ti1 tau(   7) = (   3.2907910   2.8959150   9.1758416  )
         8           Ti1 tau(   8) = (   0.0015273   1.4827037   9.2680791  )
         9           O1  tau(   9) = (   3.3074573   5.9346435  11.2963613  )
        10           O1  tau(  10) = (   0.0116148   5.9584955  10.6183126  )
        11           O1  tau(  11) = (   1.3055178   1.4819292  12.6272398  )
        12           O1  tau(  12) = (   5.3158762   1.4804127  12.6185516  )
        13           Ti1 tau(  13) = (   0.0186029   2.8424156  12.6464711  )
        14           Ti1 tau(  14) = (   3.3167612   1.2924093  12.6669032  )
        15           O1  tau(  15) = (   0.0012442   5.9356390  14.6370070  )
        16           O1  tau(  16) = (   3.3127944   0.0275565  13.9018093  )
        17           O1  tau(  17) = (   4.5765900   1.5157235  16.0894388  )
        18           O1  tau(  18) = (   2.0422450   1.5317946  16.0210879  )
        19           Ti1 tau(  19) = (   3.3088329   2.9810726  15.6636066  )
        20           Ti1 tau(  20) = (   0.0236821   1.4688588  15.8133175  )
        21           O1  tau(  21) = (   3.2904802   0.0005063   4.7018136  )
        22           O1  tau(  22) = (   0.0676014   5.9495730  17.1734943  )
        23           O1  tau(  23) = (   1.3043587   1.4918075   6.0039043  )
        24           O1  tau(  24) = (   5.2767064   1.4903225   6.0039473  )
        25           Ti1 tau(  25) = (   0.0000382   5.9609847   6.0000000  )
        26           Ti1 tau(  26) = (   3.2902200   4.4714249   6.0002472  )
        27           O1  tau(  27) = (   0.0002396   2.9813036   7.9858123  )
        28           O1  tau(  28) = (   3.2902150   2.9813002   7.3038282  )
        29           O1  tau(  29) = (   4.5938453   4.4726049   9.2879030  )
        30           O1  tau(  30) = (   1.9864658   4.4711199   9.2879459  )
        31           Ti1 tau(  31) = (   3.2891106   5.8743827   9.1763621  )
        32           Ti1 tau(  32) = (   0.0006254   4.4649316   9.2693709  )
        33           O1  tau(  33) = (   3.3041982   3.0170362  11.2630756  )
        34           O1  tau(  34) = (   0.0092240   2.9805883  10.6323155  )
        35           O1  tau(  35) = (   1.3098214   4.4601496  12.6289764  )
        36           O1  tau(  36) = (   5.3139316   4.4642116  12.6209765  )
        37           Ti1 tau(  37) = (   0.0286784   5.8202107  12.5681754  )
        38           Ti1 tau(  38) = (   3.3194384   4.3879401  12.4232525  )
        39           O1  tau(  39) = (   6.5763552   2.9401740  14.6754030  )
        40           O1  tau(  40) = (   3.3328261   2.9762691  13.8808942  )
        41           O1  tau(  41) = (   4.5658580   4.4380642  16.1332302  )
        42           O1  tau(  42) = (   2.0359873   4.4031365  16.0422930  )
        43           Ti1 tau(  43) = (   3.3255947   5.9578944  16.3175027  )
        44           Ti1 tau(  44) = (   0.0374668   4.6230282  16.0307208  )
        45           O1  tau(  45) = (   3.2900926   2.9813045   4.7018136  )
        46           O1  tau(  46) = (   1.3039711   4.4726057   6.0039043  )
        47           O1  tau(  47) = (   5.2763189   4.4711207   6.0039473  )
        48           N1  tau(  48) = (   0.1245995   2.6662279  18.6673576  )
        49           N1  tau(  49) = (   0.0576076   2.8693738  17.4835824  )
        50           C1  tau(  50) = (   0.1295945   3.7926219  19.6405614  )
        51           H1  tau(  51) = (   6.3015398   4.7065717  19.2118634  )
        52           H1  tau(  52) = (   6.1525190   3.4626129  20.5140504  )
        53           H1  tau(  53) = (   1.1733748   3.9370966  19.9287387  )
        54           O1  tau(  54) = (   3.0981659   0.0197753  18.1302257  )
        55           H1  tau(  55) = (   2.1972620   0.2293568  18.4309947  )

     number of k points=    10  Fermi-Dirac smearing, width (Ry)=  0.0073
                       cart. coord. in units 2pi/alat
        k(    1) = (   0.0000000   0.0000000   0.0000000), wk =   0.1250000
        k(    2) = (   0.0000000   0.0419351   0.0000000), wk =   0.2500000
        k(    3) = (   0.0000000  -0.0838702   0.0000000), wk =   0.1250000
        k(    4) = (   0.0379955   0.0000049   0.0000000), wk =   0.2500000
        k(    5) = (   0.0379955   0.0419400   0.0000000), wk =   0.2500000
        k(    6) = (   0.0379955  -0.0838652   0.0000000), wk =   0.2500000
        k(    7) = (   0.0379955  -0.0419301   0.0000000), wk =   0.2500000
        k(    8) = (  -0.0759910  -0.0000099   0.0000000), wk =   0.1250000
        k(    9) = (  -0.0759910   0.0419252   0.0000000), wk =   0.2500000
        k(   10) = (  -0.0759910  -0.0838800   0.0000000), wk =   0.1250000

     Initial potential from superposition of free atoms

     starting charge  385.99915, renormalised to  402.00000

     negative rho (up, down):  1.433E-02 0.000E+00

     %%%%%%%%%%%%%%%%%%%%%%%%%%%%%%%%%%%%%%%%%%%%%%%%%%%%%%%%%%%%%%%%%%%%%%%%
     %                                                                      %
     % You are using vdW-DF, which was implemented by the Thonhauser group. %
     % Please cite the following two papers that made this development      %
     % possible and the two reviews that describe the various versions:     %
     %                                                                      %
     %   T. Thonhauser et al., PRL 115, 136402 (2015).                      %
     %   T. Thonhauser et al., PRB 76, 125112 (2007).                       %
     %   K. Berland et al., Rep. Prog. Phys. 78, 066501 (2015).             %
     %   D.C. Langreth et al., J. Phys.: Condens. Matter 21, 084203 (2009). %
     %                                                                      %
     %                                                                      %
     % If you are calculating the stress with vdW-DF, please also cite:     %
     %                                                                      %
     %   R. Sabatini et al., J. Phys.: Condens. Matter 24, 424209 (2012).   %
     %                                                                      %
     %%%%%%%%%%%%%%%%%%%%%%%%%%%%%%%%%%%%%%%%%%%%%%%%%%%%%%%%%%%%%%%%%%%%%%%%

     Adding external electric field

     Computed dipole along edir(3) :
        Dipole              -11.9923 Ry au,        -30.4815 Debye
        Dipole field         -0.0226 Ry au,

        Potential amp.        2.0979 Ry
        Total length         46.3494 bohr

     Starting wfcs are  304 atomic wfcs
  @ DRIVER MODE: Message from server: STATUS
  @ DRIVER MODE: Message from server: POSDATA
  @ DRIVER MODE: Reading and sharing cell
  @ DRIVER MODE: Reading and sharing positions
  @ DRIVER MODE: Received positions

     Self-consistent Calculation

     iteration #  1     ecut=    29.40 Ry     beta= 0.05
     Davidson diagonalization with overlap
     c_bands:  3 eigenvalues not converged
     c_bands:  5 eigenvalues not converged
     c_bands:  4 eigenvalues not converged
     c_bands:  4 eigenvalues not converged
     c_bands:  1 eigenvalues not converged
     c_bands:  4 eigenvalues not converged
     c_bands:  2 eigenvalues not converged
     c_bands:  5 eigenvalues not converged
     c_bands:  4 eigenvalues not converged
     ethr =  1.00E-05,  avg # of iterations = 23.8

[...]

     total energy              =   -2400.49349037 Ry
     estimated scf accuracy    <    6448.57297779 Ry

     iteration #  2     ecut=    29.40 Ry     beta= 0.05
     Davidson diagonalization with overlap
     ethr =  1.00E-02,  avg # of iterations = 23.1

[...]

     iteration # 38     ecut=    29.40 Ry     beta= 0.05
     Davidson diagonalization with overlap
     c_bands:  1 eigenvalues not converged
     c_bands:  1 eigenvalues not converged
     c_bands:  1 eigenvalues not converged
     c_bands:  2 eigenvalues not converged
     ethr =  1.36E-06,  avg # of iterations = 13.5

[...]

     total energy              =   -2972.75611792 Ry
     estimated scf accuracy    <       0.00000022 Ry

     iteration # 61     ecut=    29.40 Ry     beta= 0.05
     Davidson diagonalization with overlap
     ethr =  4.79E-11,  avg # of iterations =  6.6

     negative rho (up, down):  1.506E-02 0.000E+00

     Adding external electric field

     Computed dipole along edir(3) :
        Dipole                0.5656 Ry au,          1.4375 Debye
        Dipole field          0.0011 Ry au,

        Potential amp.       -0.0989 Ry
        Total length         46.3494 bohr

     End of self-consistent calculation

          k = 0.0000 0.0000 0.0000 ( 18029 PWs)   bands (ev):

   -56.2710 -56.2372 -55.8649 -55.8300 -55.6092 -55.5969 -55.5513 -55.4023
   -55.3547 -55.3463 -55.2313 -55.1821 -55.0708 -55.0436 -55.0376 -55.0037
   -32.7212 -32.5636 -32.5368 -32.4292 -32.3454 -32.3444 -32.3366 -32.0909
   -32.0842 -32.0603 -32.0095 -32.0039 -31.9746 -31.9046 -31.8954 -31.8595
   -31.8320 -31.8299 -31.8212 -31.7740 -31.7548 -31.7487 -31.7163 -31.7139
   -31.6858 -31.6730 -31.6148 -31.5620 -31.5577 -31.5439 -31.5421 -31.5119
   -31.4906 -31.4338 -31.4302 -31.4166 -31.3915 -31.3712 -31.3475 -31.3288
   -31.3038 -31.2812 -31.2807 -31.2746 -31.2591 -31.2527 -31.1682 -31.0561
   -18.9129 -16.5635 -16.3794 -16.2245 -15.9914 -15.8426 -15.7578 -15.7023
   -15.7009 -15.5799 -15.5458 -15.4511 -15.3624 -15.2930 -15.2619 -15.2595
   -15.1649 -15.1038 -15.0547 -15.0321 -15.0028 -14.9809 -14.9684 -14.8871
   -14.8792 -14.8548 -14.8103 -14.6919 -14.6274 -14.3286 -14.3103 -13.5352
   -13.4231 -11.5285  -6.9607  -4.4306  -4.1149  -4.0723  -4.0304  -3.8882
    -3.7759  -3.5683  -3.4521  -3.2657  -3.2510  -3.1499  -2.9834  -2.9750
    -2.9213  -2.8511  -2.7730  -2.7040  -2.6599  -2.6487  -2.5565  -2.4970
    -2.4960  -2.4839  -2.4440  -2.4073  -2.3197  -2.2769  -2.2645  -2.2261
    -2.1809  -2.1329  -2.1292  -2.0825  -2.0573  -1.9973  -1.9338  -1.8974
    -1.8727  -1.8086  -1.7474  -1.7077  -1.6405  -1.5923  -1.5808  -1.5743
    -1.5227  -1.3275  -1.2870  -1.2617  -1.2403  -1.0977  -1.0550  -1.0201
    -0.9555  -0.9390  -0.8488  -0.8243  -0.8085  -0.7812  -0.7100  -0.6961
    -0.6620  -0.6339  -0.4465  -0.4115  -0.3402  -0.3318  -0.2628  -0.2315
    -0.1980  -0.1570  -0.1257  -0.0721  -0.0592  -0.0069   0.0400   0.0681
     0.2095   0.2401   0.3232   0.3311   0.3339   0.3563   0.4341   0.4680
     0.5405   0.5935   0.5992   0.6505   0.7388   0.7783   0.8923   0.9615
     0.9870   1.0074   1.0438   1.0957   1.2173   1.5077   1.5340   1.5728
     2.7069   2.9546   3.0851   3.2314   3.3863   3.4895   3.7956   3.8164
     3.8524   3.8971   3.9548

[...]

          k = 0.0380-0.0419 0.0000 ( 17876 PWs)   bands (ev):

[...]

          k =-0.0760-0.0000 0.0000 ( 17886 PWs)   bands (ev):

[...]

          k =-0.0760-0.0839 0.0000 ( 17948 PWs)   bands (ev):

   -56.2541 -56.2540 -55.8523 -55.8424 -55.6036 -55.5961 -55.5567 -55.3949
   -55.3619 -55.3468 -55.2295 -55.1801 -55.0724 -55.0455 -55.0211 -55.0200
   -32.5492 -32.5490 -32.5373 -32.5372 -32.3813 -32.3810 -32.1714 -32.1624
   -32.0459 -32.0378 -32.0358 -32.0315 -31.9122 -31.8751 -31.8626 -31.8317
   -31.8259 -31.8244 -31.8194 -31.7839 -31.7708 -31.7252 -31.7139 -31.6978
   -31.6360 -31.6331 -31.6283 -31.6011 -31.5971 -31.5938 -31.5553 -31.5485
   -31.4825 -31.4361 -31.4205 -31.4176 -31.3915 -31.3609 -31.3600 -31.3437
   -31.3325 -31.2905 -31.2846 -31.2783 -31.2493 -31.2479 -31.2110 -31.2101
   -18.9100 -16.3642 -15.9743 -15.9661 -15.8350 -15.8295 -15.6569 -15.6448
   -15.6010 -15.5521 -15.5218 -15.4868 -15.3595 -15.3342 -15.2640 -15.2393
   -15.2040 -15.1796 -15.1562 -15.1521 -15.1155 -15.0731 -15.0224 -15.0184
   -14.9683 -14.9668 -14.8415 -14.7663 -14.6877 -14.5114 -14.4636 -13.5264
   -13.5259 -11.5265  -6.9752  -4.3783  -4.0912  -4.0584  -3.8575  -3.1385
    -3.0966  -2.9710  -2.9453  -2.8705  -2.8335  -2.7628  -2.7048  -2.6819
    -2.6691  -2.6584  -2.5939  -2.5650  -2.5600  -2.5175  -2.5024  -2.4955
    -2.4595  -2.4108  -2.3845  -2.3625  -2.3571  -2.3510  -2.2718  -2.2002
    -2.1980  -2.1802  -2.1481  -2.1160  -2.0352  -2.0277  -1.9854  -1.9515
    -1.9210  -1.8311  -1.7902  -1.7450  -1.6974  -1.6622  -1.5848  -1.5817
    -1.5138  -1.4661  -1.3536  -1.3306  -1.3117  -1.2690  -1.2322  -1.1948
    -1.1266  -1.1047  -1.0491  -1.0454  -1.0319  -1.0093  -0.8987  -0.8582
    -0.7652  -0.7241  -0.7015  -0.6766  -0.6340  -0.6273  -0.5569  -0.5339
    -0.4954  -0.4698  -0.4045  -0.3985  -0.3643  -0.3001  -0.1926  -0.0341
     0.0601   0.1038   0.1253   0.1435   0.1892   0.2989   0.3047   0.3785
     0.4508   0.4638   0.4817   0.5107   0.6557   0.7344   0.8405   0.8625
     0.9126   0.9605   1.0198   1.0882   1.3781   1.3855   1.3891   1.3897
     2.7197   3.5055   3.5079   3.5361   3.5474   3.7302   3.7353   3.7531
     3.8981   3.9272   3.9988

     the Fermi energy is     2.8908 ev

!    total energy              =   -2972.75616117 Ry
     estimated scf accuracy    <       0.00000004 Ry
     smearing contrib. (-TS)   =      -0.01288427 Ry
     internal energy E=F+TS    =   -2972.74327690 Ry

     The total energy is F=E-TS. E is the sum of the following terms:
     one-electron contribution =  -23636.63619894 Ry
     hartree contribution      =   11911.35333480 Ry
     xc contribution           =    -493.08320927 Ry
     ewald contribution        =    9245.62219287 Ry
     electric field correction =       0.00060364 Ry

     convergence has been achieved in  61 iterations

     Forces acting on atoms (cartesian axes, Ry/au):

     atom    1 type  1   force =    -0.00001400   -0.00036779    0.10683022
     atom    2 type  1   force =    -0.00004710    0.00019313   -0.16491993
     atom    3 type  2   force =     0.00005579    0.00001808   -0.03810151
     atom    4 type  2   force =     0.00006525   -0.00063618    0.03455029
     atom    5 type  2   force =    -0.00367662   -0.00218402   -0.00716678
     atom    6 type  2   force =     0.00570417   -0.00176928   -0.00684084
     atom    7 type  1   force =     0.00024649   -0.00515494    0.03706184
     atom    8 type  1   force =    -0.00002061    0.01090361    0.05879038
     atom    9 type  2   force =    -0.00043614    0.00029809   -0.00077927
     atom   10 type  2   force =    -0.00076273   -0.00040436   -0.04424300
     atom   11 type  2   force =     0.00030217   -0.00020000    0.00032694
     atom   12 type  2   force =    -0.00063938   -0.00055053   -0.00002296
     atom   13 type  1   force =     0.00005442    0.00033515    0.00047470
     atom   14 type  1   force =    -0.00025440   -0.00007643    0.00049420
     atom   15 type  2   force =     0.00000228   -0.00032067   -0.00110950
     atom   16 type  2   force =     0.00034139    0.00005927    0.00054300
     atom   17 type  2   force =     0.00031729    0.00053471    0.00034438
     atom   18 type  2   force =     0.00061508    0.00034489   -0.00063933
     atom   19 type  1   force =    -0.00066936   -0.00054092   -0.00046491
     atom   20 type  1   force =     0.00029003   -0.00021096    0.00058509
     atom   21 type  2   force =     0.00004404    0.00021894    0.10036169
     atom   22 type  2   force =    -0.00009974   -0.00080668    0.00006816
     atom   23 type  2   force =    -0.07693730   -0.00000801   -0.03001351
     atom   24 type  2   force =     0.07680678    0.00041756   -0.03007089
     atom   25 type  1   force =     0.00005293   -0.00042557    0.10686030
     atom   26 type  1   force =    -0.00017144   -0.00137551   -0.16528030
     atom   27 type  2   force =     0.00012628   -0.00063734   -0.03654643
     atom   28 type  2   force =     0.00003825    0.00110839    0.03013207
     atom   29 type  2   force =    -0.00206063    0.00418133   -0.01014020
     atom   30 type  2   force =     0.00412855    0.00462853   -0.00971505
     atom   31 type  1   force =     0.00022849    0.00323985    0.02261165
     atom   32 type  1   force =    -0.00015330   -0.01397090    0.05884486
     atom   33 type  2   force =    -0.00013644   -0.00116425   -0.00024702
     atom   34 type  2   force =    -0.00070670   -0.00007700   -0.05471202
     atom   35 type  2   force =    -0.00105830    0.00020542    0.00021753
     atom   36 type  2   force =     0.00051981   -0.00001017   -0.00020203
     atom   37 type  1   force =    -0.00013289   -0.00078743   -0.00003842
     atom   38 type  1   force =    -0.00057101    0.00001485    0.00002245
     atom   39 type  2   force =    -0.00039748    0.00054791   -0.00000336
     atom   40 type  2   force =    -0.00024315   -0.00046697    0.00022887
     atom   41 type  2   force =    -0.00058035   -0.00013131    0.00010785
     atom   42 type  2   force =     0.00011240    0.00026699    0.00044366
     atom   43 type  1   force =     0.00059637    0.00102108   -0.00014424
     atom   44 type  1   force =     0.00008866    0.00164583    0.00063683
     atom   45 type  2   force =     0.00003544   -0.00000092    0.10016979
     atom   46 type  2   force =    -0.07698613    0.00003295   -0.03004494
     atom   47 type  2   force =     0.07687921    0.00045897   -0.03011162
     atom   48 type  3   force =     0.00094014   -0.00114353    0.00275245
     atom   49 type  3   force =    -0.00200077    0.00103238   -0.00228224
     atom   50 type  4   force =     0.00020052    0.00148882   -0.00009622
     atom   51 type  5   force =    -0.00032356   -0.00038031    0.00035630
     atom   52 type  5   force =    -0.00038264   -0.00010370   -0.00032631
     atom   53 type  5   force =    -0.00002557    0.00023579    0.00044040
     atom   54 type  2   force =     0.00105951   -0.00040261   -0.00115358
     atom   55 type  5   force =    -0.00036397    0.00087578    0.00116048

     Total force =     0.379712     Total SCF correction =     0.000635
  @ DRIVER MODE: Message from server: STATUS
  @ DRIVER MODE: Message from server: GETFORCE
  @ DRIVER MODE: Returning v,forces,stress,ensemble

     Writing output data file ./calc.save/
  @ DRIVER MODE: Message from server: EXIT
  @ DRIVE MODE: Exiting

     General routines

     Parallel routines

   This run was terminated on:  23:16: 0   9Sep2021

   JOB DONE.