     Program PWSCF v.6.7GPU starts on 12Oct2021 at 21:56:16

     R & G space division:  proc/nbgrp/npool/nimage =       8
     Reading input from /storage/home/hcoda1/3/ntian30/research/carbon/ACS_vib/ads_slab/N2H6/out_0031/pw.inp
Warning: card &CELL ignored
Warning: card   CELL_DYNAMICS='IPI', ignored
Warning: card / ignored

     Current dimensions of program PWSCF are:
     Max number of different atomic species (ntypx) = 10
     Max number of k-points (npk) =  40000
     Max angular momentum in pseudopotentials (lmaxx) =  3
     Presently no symmetry can be used with electric field

     Message from routine cell_base_init:
     DEPRECATED: use true lattice parameter, not A to a.u. conversion factor

     IMPORTANT: XC functional enforced from input :
     Exchange-correlation= BEEF-VDW
                           (   1   4  43  14   2   0   0)
     Any further DFT definition will be discarded
     Please, verify this is what you really want

  @ DRIVER MODE: Connecting to
 qe_1139763_3181315.sched-torque.pace.gatech.eduodwcpqy7_scratch
  using UNIX socket
  @ DRIVER MODE: Message from server: STATUS
  @ DRIVER MODE: Message from server: INIT
  @ DRIVER MODE: Receiving replica           0          -1
  @ DRIVER MODE: Receiving encoded integer          25
  @ DRIVER MODE:  SCF:  T  FORCE:  T  STRESS:  F  VC:  F  ENSEMBLE:  F
  @ DRIVER MODE:  SCF:  T  FORCE:  T  STRESS:  F  VC:  F  ENSEMBLE:  F

     Using Slab Decomposition

     bravais-lattice index     =            0
     lattice parameter (alat)  =       1.8897  a.u.
     unit-cell volume          =    6658.9804 (a.u.)^3
     number of atoms/cell      =           55
     number of atomic types    =            4
     number of electrons       =       394.00
     number of Kohn-Sham states=          207
     kinetic-energy cutoff     =      29.3995  Ry
     charge density cutoff     =     293.9946  Ry
     scf convergence threshold =      7.3E-08
     mixing beta               =       0.0500
     number of iterations used =            8  plain     mixing
     Exchange-correlation= BEEF-VDW
                           (   1   4  43  14   2   0   0)

     celldm(1)=   1.889726  celldm(2)=   0.000000  celldm(3)=   0.000000
     celldm(4)=   0.000000  celldm(5)=   0.000000  celldm(6)=   0.000000

     crystal axes: (cart. coord. in units of alat)
               a(1) = (   6.579727   0.000000   0.000000 )
               a(2) = (  -0.000775   5.961596   0.000000 )
               a(3) = (   0.000000   0.000000  25.155947 )

     reciprocal axes: (cart. coord. in units 2 pi/alat)
               b(1) = (  0.151982  0.000020  0.000000 )
               b(2) = (  0.000000  0.167740  0.000000 )
               b(3) = (  0.000000  0.000000  0.039752 )

     PseudoPot. # 1 for Ti read from file:
     /storage/coda1/p-amedford6/0/shared/rich_project_chbe-medford/medford-share/data/pseudos_module/espresso/nninc/pbe/van/Ti.UPF
     MD5 check sum: 8e4df49b7f0d34bbd5052bf3f5ea0213
     Pseudo is Ultrasoft, Zval = 12.0
     Generated by new atomic code, or converted to UPF format
     Using radial grid of  851 points,  6 beta functions with:
                l(1) =   0
                l(2) =   0
                l(3) =   1
                l(4) =   1
                l(5) =   2
                l(6) =   2
     Q(r) pseudized with  8 coefficients,  rinner =    1.000   1.000   1.000
                                                       1.000   1.000

     PseudoPot. # 2 for O  read from file:
     /storage/coda1/p-amedford6/0/shared/rich_project_chbe-medford/medford-share/data/pseudos_module/espresso/nninc/pbe/van/O.UPF
     MD5 check sum: 78c19812648e8988a0fe644b0f25305e
     Pseudo is Ultrasoft, Zval =  6.0
     Generated by new atomic code, or converted to UPF format
     Using radial grid of  737 points,  4 beta functions with:
                l(1) =   0
                l(2) =   0
                l(3) =   1
                l(4) =   1
     Q(r) pseudized with  8 coefficients,  rinner =    0.800   0.800   0.800

     PseudoPot. # 3 for N  read from file:
     /storage/coda1/p-amedford6/0/shared/rich_project_chbe-medford/medford-share/data/pseudos_module/espresso/nninc/pbe/van/N.UPF
     MD5 check sum: 90d10febe142ad51ac9d5be1deb811c4
     Pseudo is Ultrasoft, Zval =  5.0
     Generated by new atomic code, or converted to UPF format
     Using radial grid of  729 points,  4 beta functions with:
                l(1) =   0
                l(2) =   0
                l(3) =   1
                l(4) =   1
     Q(r) pseudized with  8 coefficients,  rinner =    0.800   0.800   0.800

     PseudoPot. # 4 for H  read from file:
     /storage/coda1/p-amedford6/0/shared/rich_project_chbe-medford/medford-share/data/pseudos_module/espresso/nninc/pbe/van/H.UPF
     MD5 check sum: b5ee9d7bfd3a09ee7748110bda690ff7
     Pseudo is Ultrasoft, Zval =  1.0
     Generated by new atomic code, or converted to UPF format
     Using radial grid of  615 points,  1 beta functions with:
                l(1) =   0
     Q(r) pseudized with  8 coefficients,  rinner =    0.800

     atomic species   valence    mass     pseudopotential
        Ti1           12.00    47.86700     Ti( 1.00)
        O1             6.00    15.99900     O ( 1.00)
        N1             5.00    14.00700     N ( 1.00)
        H1             1.00     1.00800     H ( 1.00)

     No symmetry found

   Cartesian axes

     site n.     atom                  positions (alat units)
         1           Ti1 tau(   1) = (   0.0004258   2.9801865   6.0000000  )
         2           Ti1 tau(   2) = (   3.2906075   1.4906267   6.0002472  )
         3           O1  tau(   3) = (   0.0006271   0.0005054   7.9858123  )
         4           O1  tau(   4) = (   3.2906025   0.0005020   7.3038282  )
         5           O1  tau(   5) = (   4.5942328   1.4918067   9.2879030  )
         6           O1  tau(   6) = (   1.9868534   1.4903216   9.2879459  )
         7           Ti1 tau(   7) = (   3.2905188   2.9817269   9.1608671  )
         8           Ti1 tau(   8) = (   0.0008727   1.4903491   9.2579811  )
         9           O1  tau(   9) = (   3.2897677   5.9391746  11.3820438  )
        10           O1  tau(  10) = (  -0.0000005   5.9544960  10.6146985  )
        11           O1  tau(  11) = (   1.2884133   1.4789655  12.6516217  )
        12           O1  tau(  12) = (   5.2921206   1.4788385  12.6515509  )
        13           Ti1 tau(  13) = (   0.0005720   2.9629092  12.4975245  )
        14           Ti1 tau(  14) = (   3.2903801   1.4745319  12.5205501  )
        15           O1  tau(  15) = (   0.0004407   0.0388239  14.7059933  )
        16           O1  tau(  16) = (   3.2897445   5.9465346  14.0037610  )
        17           O1  tau(  17) = (   4.5472543   1.4569283  16.2215039  )
        18           O1  tau(  18) = (   2.0329396   1.4568822  16.2213506  )
        19           Ti1 tau(  19) = (   3.2899346   2.9358424  15.7577366  )
        20           Ti1 tau(  20) = (   0.0004932   1.4309995  16.0137732  )
        21           O1  tau(  21) = (   3.2904802   0.0005063   4.7018136  )
        22           O1  tau(  22) = (  -0.0003511   5.7889056  17.2622344  )
        23           O1  tau(  23) = (   1.3043587   1.4918075   6.0039043  )
        24           O1  tau(  24) = (   5.2767064   1.4903225   6.0039473  )
        25           Ti1 tau(  25) = (   0.0000382   5.9609847   6.0000000  )
        26           Ti1 tau(  26) = (   3.2902200   4.4714249   6.0002472  )
        27           O1  tau(  27) = (   0.0002396   2.9813036   7.9858123  )
        28           O1  tau(  28) = (   3.2902150   2.9813002   7.3038282  )
        29           O1  tau(  29) = (   4.5938453   4.4726049   9.2879030  )
        30           O1  tau(  30) = (   1.9864658   4.4711199   9.2879459  )
        31           Ti1 tau(  31) = (   3.2908958   0.0009406   9.1591437  )
        32           Ti1 tau(  32) = (   0.0004876   4.4725358   9.2579169  )
        33           O1  tau(  33) = (   3.2901541   2.9707129  11.3740276  )
        34           O1  tau(  34) = (   0.0003862   2.9798045  10.6274311  )
        35           O1  tau(  35) = (   1.2860740   4.4511954  12.6821393  )
        36           O1  tau(  36) = (   5.2936768   4.4510845  12.6820400  )
        37           Ti1 tau(  37) = (   0.0001324   5.9497034  12.4914426  )
        38           Ti1 tau(  38) = (   3.2900283   4.4525324  12.5305491  )
        39           O1  tau(  39) = (   0.0000299   2.9046373  14.9484161  )
        40           O1  tau(  40) = (   3.2901113   2.9423191  13.9685580  )
        41           O1  tau(  41) = (   4.5465916   4.4073028  16.1601725  )
        42           O1  tau(  42) = (   2.0329218   4.4072560  16.1600144  )
        43           Ti1 tau(  43) = (   3.2897320   5.9176933  15.7983882  )
        44           Ti1 tau(  44) = (   0.0000796   4.6311109  15.9036278  )
        45           O1  tau(  45) = (   3.2900926   2.9813045   4.7018136  )
        46           O1  tau(  46) = (   1.3039711   4.4726057   6.0039043  )
        47           O1  tau(  47) = (   5.2763189   4.4711207   6.0039473  )
        48           N1  tau(  48) = (   6.5791966   2.5420708  18.0661808  )
        49           H1  tau(  49) = (   6.5785613   1.6509345  18.5577087  )
        50           H1  tau(  50) = (   0.8131443   3.0604954  18.3807411  )
        51           H1  tau(  51) = (   5.7641953   3.0602838  18.3787844  )
        52           N1  tau(  52) = (  -0.0000615   4.8677125  20.5088556  )
        53           H1  tau(  53) = (   6.5674456   5.1124690  21.4935560  )
        54           H1  tau(  54) = (   0.8078797   5.3121143  20.0844266  )
        55           H1  tau(  55) = (   5.7710899   5.3082688  20.0816402  )

     number of k points=    10  Fermi-Dirac smearing, width (Ry)=  0.0073
                       cart. coord. in units 2pi/alat
        k(    1) = (   0.0000000   0.0000000   0.0000000), wk =   0.1250000
        k(    2) = (   0.0000000   0.0419351   0.0000000), wk =   0.2500000
        k(    3) = (   0.0000000  -0.0838702   0.0000000), wk =   0.1250000
        k(    4) = (   0.0379955   0.0000049   0.0000000), wk =   0.2500000
        k(    5) = (   0.0379955   0.0419400   0.0000000), wk =   0.2500000
        k(    6) = (   0.0379955  -0.0838652   0.0000000), wk =   0.2500000
        k(    7) = (   0.0379955  -0.0419301   0.0000000), wk =   0.2500000
        k(    8) = (  -0.0759910  -0.0000099   0.0000000), wk =   0.1250000
        k(    9) = (  -0.0759910   0.0419252   0.0000000), wk =   0.2500000
        k(   10) = (  -0.0759910  -0.0838800   0.0000000), wk =   0.1250000

     Initial potential from superposition of free atoms

     starting charge  377.99918, renormalised to  394.00000

     negative rho (up, down):  1.302E-02 0.000E+00

     %%%%%%%%%%%%%%%%%%%%%%%%%%%%%%%%%%%%%%%%%%%%%%%%%%%%%%%%%%%%%%%%%%%%%%%%
     %                                                                      %
     % You are using vdW-DF, which was implemented by the Thonhauser group. %
     % Please cite the following two papers that made this development      %
     % possible and the two reviews that describe the various versions:     %
     %                                                                      %
     %   T. Thonhauser et al., PRL 115, 136402 (2015).                      %
     %   T. Thonhauser et al., PRB 76, 125112 (2007).                       %
     %   K. Berland et al., Rep. Prog. Phys. 78, 066501 (2015).             %
     %   D.C. Langreth et al., J. Phys.: Condens. Matter 21, 084203 (2009). %
     %                                                                      %
     %                                                                      %
     % If you are calculating the stress with vdW-DF, please also cite:     %
     %                                                                      %
     %   R. Sabatini et al., J. Phys.: Condens. Matter 24, 424209 (2012).   %
     %                                                                      %
     %%%%%%%%%%%%%%%%%%%%%%%%%%%%%%%%%%%%%%%%%%%%%%%%%%%%%%%%%%%%%%%%%%%%%%%%

     Adding external electric field

     Computed dipole along edir(3) :
        Dipole               -9.7176 Ry au,        -24.6996 Debye
        Dipole field         -0.0183 Ry au,

        Potential amp.        1.6999 Ry
        Total length         46.3494 bohr

     Starting wfcs are  298 atomic wfcs
  @ DRIVER MODE: Message from server: STATUS
  @ DRIVER MODE: Message from server: POSDATA
  @ DRIVER MODE: Reading and sharing cell
  @ DRIVER MODE: Reading and sharing positions
  @ DRIVER MODE: Received positions

     Self-consistent Calculation

     iteration #  1     ecut=    29.40 Ry     beta= 0.05
     Davidson diagonalization with overlap
     c_bands:  1 eigenvalues not converged
     c_bands:  1 eigenvalues not converged
     c_bands:  1 eigenvalues not converged
     c_bands:  1 eigenvalues not converged
     ethr =  1.00E-05,  avg # of iterations = 18.0

[...]

     total energy              =   -2597.72031890 Ry
     estimated scf accuracy    <    3725.04193995 Ry

     iteration #  2     ecut=    29.40 Ry     beta= 0.05
     Davidson diagonalization with overlap
     ethr =  1.00E-02,  avg # of iterations = 22.0

[...]

     iteration # 72     ecut=    29.40 Ry     beta= 0.05
     Davidson diagonalization with overlap
     c_bands:  1 eigenvalues not converged
     ethr =  4.52E-11,  avg # of iterations = 16.1

[...]

     total energy              =   -2931.48031179 Ry
     estimated scf accuracy    <       0.00000008 Ry

     iteration # 73     ecut=    29.40 Ry     beta= 0.05
     Davidson diagonalization with overlap
     ethr =  1.92E-11,  avg # of iterations =  2.0

     negative rho (up, down):  1.427E-02 0.000E+00

     Adding external electric field

     Computed dipole along edir(3) :
        Dipole                1.3624 Ry au,          3.4630 Debye
        Dipole field          0.0026 Ry au,

        Potential amp.       -0.2383 Ry
        Total length         46.3494 bohr

     End of self-consistent calculation

          k = 0.0000 0.0000 0.0000 ( 18029 PWs)   bands (ev):

   -55.2819 -55.2454 -55.2337 -55.2032 -55.1995 -55.1669 -55.1532 -55.1188
   -55.1120 -55.0827 -55.0778 -55.0604 -55.0262 -54.9510 -54.3244 -54.2903
   -31.8499 -31.7365 -31.7329 -31.6394 -31.5995 -31.5886 -31.5859 -31.5721
   -31.5259 -31.5238 -31.4885 -31.4883 -31.4787 -31.4739 -31.4545 -31.4398
   -31.4348 -31.4219 -31.4177 -31.3912 -31.3853 -31.3761 -31.3659 -31.3535
   -31.3507 -31.3377 -31.3325 -31.3195 -31.2896 -31.2843 -31.2678 -31.2633
   -31.2574 -31.2543 -31.2511 -31.2438 -31.2105 -31.2056 -31.1925 -31.1745
   -31.1539 -31.1532 -30.7364 -30.6346 -30.6130 -30.5524 -30.4659 -30.3551
   -16.1133 -15.8762 -15.7461 -15.5878 -15.4977 -15.4576 -15.3580 -15.3327
   -15.2241 -15.1485 -15.0155 -14.9815 -14.9399 -14.9327 -14.9249 -14.9055
   -14.8993 -14.8286 -14.8082 -14.7989 -14.7902 -14.7682 -14.7666 -14.7474
   -14.7180 -14.6648 -14.6447 -14.5155 -14.4342 -14.3762 -14.1265 -12.8259
   -12.7067  -5.6493  -5.5098  -4.9585  -4.8003  -3.4443  -3.2904  -3.2556
    -3.2049  -3.1936  -3.0403  -2.8795  -2.7303  -2.7109  -2.5613  -2.5324
    -2.4803  -2.4583  -2.3071  -2.2816  -2.2372  -2.2111  -2.1617  -2.1515
    -2.1439  -2.1323  -2.0533  -2.0421  -2.0266  -1.8905  -1.8709  -1.7596
    -1.7193  -1.6633  -1.6498  -1.6448  -1.6110  -1.5930  -1.5524  -1.5417
    -1.5250  -1.4997  -1.4896  -1.3253  -1.2988  -1.2002  -1.1394  -1.0486
    -1.0327  -0.8882  -0.8527  -0.7639  -0.7452  -0.7278  -0.7133  -0.6806
    -0.6323  -0.5244  -0.4348  -0.4134  -0.3526  -0.3281  -0.2898  -0.2018
    -0.0982  -0.0697  -0.0369  -0.0344   0.0821   0.1066   0.1518   0.2183
     0.2382   0.2402   0.2625   0.3528   0.3668   0.4651   0.4886   0.4958
     0.5442   0.6334   0.6376   0.6519   0.6619   0.6882   0.7589   0.7655
     0.8651   0.8882   1.0046   1.2156   1.2869   1.3133   1.5917   1.6523
     1.7008   1.8635   2.2840   2.3364   3.8165   3.8830   3.9160   3.9492
     3.9855   4.0263   4.3138   4.3217   4.3342   4.3386   4.3752

[...]

          k = 0.0380-0.0419 0.0000 ( 17876 PWs)   bands (ev):

[...]

          k =-0.0760-0.0000 0.0000 ( 17886 PWs)   bands (ev):

[...]

          k =-0.0760-0.0839 0.0000 ( 17948 PWs)   bands (ev):

   -55.2664 -55.2607 -55.2167 -55.2164 -55.2017 -55.1634 -55.1369 -55.1351
   -55.0961 -55.0933 -55.0862 -55.0456 -55.0411 -54.9523 -54.3074 -54.3072
   -31.6551 -31.6510 -31.6507 -31.5705 -31.5477 -31.5476 -31.5410 -31.5092
   -31.5091 -31.4829 -31.4828 -31.4791 -31.4755 -31.4568 -31.4364 -31.4170
   -31.4123 -31.4105 -31.4104 -31.4043 -31.4031 -31.4003 -31.3612 -31.3602
   -31.3567 -31.3537 -31.3510 -31.3501 -31.3481 -31.3351 -31.3349 -31.3302
   -31.3276 -31.2935 -31.2915 -31.2756 -31.2729 -31.2676 -31.2308 -31.2297
   -31.2254 -31.1578 -30.6257 -30.6255 -30.5490 -30.5488 -30.5093 -30.5091
   -15.6330 -15.5202 -15.5122 -15.4745 -15.3215 -15.3006 -15.2630 -15.2482
   -15.1299 -15.0939 -15.0747 -15.0586 -15.0262 -15.0222 -15.0151 -14.9784
   -14.8946 -14.8748 -14.8693 -14.8571 -14.8125 -14.7931 -14.7878 -14.7811
   -14.7802 -14.7451 -14.7415 -14.6996 -14.6965 -14.6912 -14.3755 -12.8078
   -12.8076  -5.6286  -5.5126  -4.9261  -4.8075  -2.7933  -2.7369  -2.7369
    -2.5464  -2.4753  -2.4581  -2.4412  -2.3583  -2.3188  -2.2892  -2.2658
    -2.2349  -2.1929  -2.1891  -2.1681  -2.1594  -2.1435  -2.0981  -2.0797
    -2.0541  -2.0005  -1.9758  -1.9677  -1.9555  -1.9467  -1.9421  -1.9187
    -1.9165  -1.8904  -1.8792  -1.8236  -1.6720  -1.6564  -1.5782  -1.5094
    -1.5048  -1.5032  -1.4198  -1.3996  -1.3450  -1.3359  -1.3298  -1.0867
    -1.0646  -1.0645  -1.0593  -1.0270  -0.9127  -0.9034  -0.8309  -0.8014
    -0.7828  -0.6760  -0.6654  -0.6054  -0.6015  -0.4943  -0.4925  -0.4340
    -0.3057  -0.2992  -0.2860  -0.2612  -0.2594  -0.2178  -0.2136  -0.1063
    -0.0702  -0.0194  -0.0080   0.0244   0.1836   0.2295   0.2471   0.2719
     0.4052   0.4258   0.5599   0.5676   0.6224   0.7322   0.7621   0.8009
     0.8290   0.9780   0.9888   1.0104   1.1019   1.1160   1.1537   1.1602
     2.0516   2.0530   2.1545   2.1549   3.9770   4.0587   4.0842   4.1237
     4.2288   4.3268   4.3420   4.3429   4.3769   4.3798   4.4764

     the Fermi energy is     3.8800 ev

!    total energy              =   -2931.48032621 Ry
     estimated scf accuracy    <       0.00000007 Ry
     smearing contrib. (-TS)   =      -0.03685002 Ry
     internal energy E=F+TS    =   -2931.44347619 Ry

     The total energy is F=E-TS. E is the sum of the following terms:
     one-electron contribution =  -23481.08636790 Ry
     hartree contribution      =   11831.23440754 Ry
     xc contribution           =    -484.16796760 Ry
     ewald contribution        =    9202.57294876 Ry
     electric field correction =       0.00350301 Ry

     convergence has been achieved in  73 iterations

     Forces acting on atoms (cartesian axes, Ry/au):

     atom    1 type  1   force =     0.00008447   -0.00009839    0.09073011
     atom    2 type  1   force =    -0.00005255    0.00052432   -0.18274046
     atom    3 type  2   force =     0.00005390   -0.00002234   -0.02346900
     atom    4 type  2   force =     0.00001854   -0.00006006    0.05276107
     atom    5 type  2   force =    -0.01300012   -0.00096950    0.00606675
     atom    6 type  2   force =     0.01294405   -0.00047743    0.00605440
     atom    7 type  1   force =    -0.00000044    0.00067591   -0.00328100
     atom    8 type  1   force =     0.00002002   -0.00014641    0.00140828
     atom    9 type  2   force =    -0.00003138   -0.00016303   -0.00047551
     atom   10 type  2   force =     0.00001818   -0.00005617   -0.00021228
     atom   11 type  2   force =     0.00015847    0.00017353    0.00016917
     atom   12 type  2   force =    -0.00007631    0.00016892    0.00014725
     atom   13 type  1   force =    -0.00019736   -0.00019591    0.00001898
     atom   14 type  1   force =     0.00014758    0.00045737   -0.00097966
     atom   15 type  2   force =     0.00002305   -0.00058023    0.00009206
     atom   16 type  2   force =    -0.00002886    0.00000866    0.00043441
     atom   17 type  2   force =     0.00043533    0.00001745    0.00048925
     atom   18 type  2   force =    -0.00046727    0.00001236    0.00048977
     atom   19 type  1   force =     0.00006380    0.00003649    0.00032821
     atom   20 type  1   force =    -0.00003524   -0.00083557    0.00029470
     atom   21 type  2   force =     0.00005637    0.00012341    0.10488898
     atom   22 type  2   force =     0.00002434    0.00016252    0.00105408
     atom   23 type  2   force =    -0.06827290   -0.00022266   -0.02626044
     atom   24 type  2   force =     0.06818725    0.00021251   -0.02630778
     atom   25 type  1   force =     0.00009460    0.00004503    0.09036365
     atom   26 type  1   force =    -0.00005516   -0.00043813   -0.18290831
     atom   27 type  2   force =     0.00004991   -0.00093998   -0.02257411
     atom   28 type  2   force =     0.00001921   -0.00006516    0.05254253
     atom   29 type  2   force =    -0.01329573   -0.00073529    0.00528860
     atom   30 type  2   force =     0.01323490   -0.00024067    0.00527532
     atom   31 type  1   force =     0.00000885   -0.00072617   -0.00307949
     atom   32 type  1   force =     0.00001452   -0.00006907    0.00152568
     atom   33 type  2   force =    -0.00003071   -0.00015230    0.00019643
     atom   34 type  2   force =     0.00001972    0.00007523   -0.00046867
     atom   35 type  2   force =     0.00013203   -0.00013740    0.00023587
     atom   36 type  2   force =    -0.00005339   -0.00014982    0.00021116
     atom   37 type  1   force =    -0.00019295    0.00005205    0.00091849
     atom   38 type  1   force =     0.00014401   -0.00029614   -0.00096710
     atom   39 type  2   force =     0.00001460    0.00026253   -0.00015674
     atom   40 type  2   force =    -0.00003129   -0.00001445    0.00107242
     atom   41 type  2   force =     0.00057561   -0.00017842    0.00024767
     atom   42 type  2   force =    -0.00062267   -0.00017580    0.00026461
     atom   43 type  1   force =     0.00007463    0.00009990    0.00066949
     atom   44 type  1   force =    -0.00004515    0.00102574   -0.00109253
     atom   45 type  2   force =     0.00005600    0.00014240    0.10484127
     atom   46 type  2   force =    -0.06828075   -0.00009215   -0.02631114
     atom   47 type  2   force =     0.06818321    0.00034895   -0.02635246
     atom   48 type  3   force =    -0.00049978   -0.00001285   -0.00028194
     atom   49 type  4   force =     0.00002066   -0.00006366    0.00078639
     atom   50 type  4   force =     0.00094760    0.00098928    0.00004814
     atom   51 type  4   force =    -0.00049289    0.00072484   -0.00014211
     atom   52 type  3   force =    -0.00226629    0.00074950    0.00053348
     atom   53 type  4   force =     0.00215277    0.00121386   -0.00153502
     atom   54 type  4   force =     0.00012934    0.00036364    0.00083370
     atom   55 type  4   force =    -0.00007832   -0.00035126   -0.00168664

     Total force =     0.366219     Total SCF correction =     0.000638
  @ DRIVER MODE: Message from server: STATUS
  @ DRIVER MODE: Message from server: GETFORCE
  @ DRIVER MODE: Returning v,forces,stress,ensemble

     Writing output data file ./calc.save/
  @ DRIVER MODE: Message from server: EXIT
  @ DRIVE MODE: Exiting

     General routines

     Parallel routines

   This run was terminated on:  22:20:43  12Oct2021

   JOB DONE.