     Program PWSCF v.6.7GPU starts on 16Sep2021 at  2:31:11

     R & G space division:  proc/nbgrp/npool/nimage =      10
     Reading input from /storage/home/hcoda1/3/ntian30/research/carbon/CxH_vib/H2O_calc/ads_slab/CH3NNHHHH2O_a/out_0031/pw.inp
Warning: card &CELL ignored
Warning: card   CELL_DYNAMICS='IPI', ignored
Warning: card / ignored

     Current dimensions of program PWSCF are:
     Max number of different atomic species (ntypx) = 10
     Max number of k-points (npk) =  40000
     Max angular momentum in pseudopotentials (lmaxx) =  3
     Presently no symmetry can be used with electric field

     Message from routine cell_base_init:
     DEPRECATED: use true lattice parameter, not A to a.u. conversion factor

     IMPORTANT: XC functional enforced from input :
     Exchange-correlation= BEEF-VDW
                           (   1   4  43  14   2   0   0)
     Any further DFT definition will be discarded
     Please, verify this is what you really want

  @ DRIVER MODE: Connecting to
 qe_1139763_2852622.sched-torque.pace.gatech.edukpwa5vxz_scratch
  using UNIX socket
  @ DRIVER MODE: Message from server: STATUS
  @ DRIVER MODE: Message from server: INIT
  @ DRIVER MODE: Receiving replica           0          -1
  @ DRIVER MODE: Receiving encoded integer          25
  @ DRIVER MODE:  SCF:  T  FORCE:  T  STRESS:  F  VC:  F  ENSEMBLE:  F
  @ DRIVER MODE:  SCF:  T  FORCE:  T  STRESS:  F  VC:  F  ENSEMBLE:  F

     Using Slab Decomposition

     bravais-lattice index     =            0
     lattice parameter (alat)  =       1.8897  a.u.
     unit-cell volume          =    6658.9804 (a.u.)^3
     number of atoms/cell      =           59
     number of atomic types    =            5
     number of electrons       =       406.00
     number of Kohn-Sham states=          213
     kinetic-energy cutoff     =      29.3995  Ry
     charge density cutoff     =     293.9946  Ry
     scf convergence threshold =      7.3E-08
     mixing beta               =       0.0500
     number of iterations used =            8  plain     mixing
     Exchange-correlation= BEEF-VDW
                           (   1   4  43  14   2   0   0)

     celldm(1)=   1.889726  celldm(2)=   0.000000  celldm(3)=   0.000000
     celldm(4)=   0.000000  celldm(5)=   0.000000  celldm(6)=   0.000000

     crystal axes: (cart. coord. in units of alat)
               a(1) = (   6.579727   0.000000   0.000000 )
               a(2) = (  -0.000775   5.961596   0.000000 )
               a(3) = (   0.000000   0.000000  25.155947 )

     reciprocal axes: (cart. coord. in units 2 pi/alat)
               b(1) = (  0.151982  0.000020  0.000000 )
               b(2) = (  0.000000  0.167740  0.000000 )
               b(3) = (  0.000000  0.000000  0.039752 )

     PseudoPot. # 1 for Ti read from file:
     /storage/coda1/p-amedford6/0/shared/rich_project_chbe-medford/medford-share/data/pseudos_module/espresso/nninc/pbe/van/Ti.UPF
     MD5 check sum: 8e4df49b7f0d34bbd5052bf3f5ea0213
     Pseudo is Ultrasoft, Zval = 12.0
     Generated by new atomic code, or converted to UPF format
     Using radial grid of  851 points,  6 beta functions with:
                l(1) =   0
                l(2) =   0
                l(3) =   1
                l(4) =   1
                l(5) =   2
                l(6) =   2
     Q(r) pseudized with  8 coefficients,  rinner =    1.000   1.000   1.000
                                                       1.000   1.000

     PseudoPot. # 2 for O  read from file:
     /storage/coda1/p-amedford6/0/shared/rich_project_chbe-medford/medford-share/data/pseudos_module/espresso/nninc/pbe/van/O.UPF
     MD5 check sum: 78c19812648e8988a0fe644b0f25305e
     Pseudo is Ultrasoft, Zval =  6.0
     Generated by new atomic code, or converted to UPF format
     Using radial grid of  737 points,  4 beta functions with:
                l(1) =   0
                l(2) =   0
                l(3) =   1
                l(4) =   1
     Q(r) pseudized with  8 coefficients,  rinner =    0.800   0.800   0.800

     PseudoPot. # 3 for N  read from file:
     /storage/coda1/p-amedford6/0/shared/rich_project_chbe-medford/medford-share/data/pseudos_module/espresso/nninc/pbe/van/N.UPF
     MD5 check sum: 90d10febe142ad51ac9d5be1deb811c4
     Pseudo is Ultrasoft, Zval =  5.0
     Generated by new atomic code, or converted to UPF format
     Using radial grid of  729 points,  4 beta functions with:
                l(1) =   0
                l(2) =   0
                l(3) =   1
                l(4) =   1
     Q(r) pseudized with  8 coefficients,  rinner =    0.800   0.800   0.800

     PseudoPot. # 4 for C  read from file:
     /storage/coda1/p-amedford6/0/shared/rich_project_chbe-medford/medford-share/data/pseudos_module/espresso/nninc/pbe/van/C.UPF
     MD5 check sum: 1a69bf6b8db32088f5b2163dbdb77a27
     Pseudo is Ultrasoft, Zval =  4.0
     Generated by new atomic code, or converted to UPF format
     Using radial grid of  721 points,  4 beta functions with:
                l(1) =   0
                l(2) =   0
                l(3) =   1
                l(4) =   1
     Q(r) pseudized with  8 coefficients,  rinner =    0.800   0.800   0.800

     PseudoPot. # 5 for H  read from file:
     /storage/coda1/p-amedford6/0/shared/rich_project_chbe-medford/medford-share/data/pseudos_module/espresso/nninc/pbe/van/H.UPF
     MD5 check sum: b5ee9d7bfd3a09ee7748110bda690ff7
     Pseudo is Ultrasoft, Zval =  1.0
     Generated by new atomic code, or converted to UPF format
     Using radial grid of  615 points,  1 beta functions with:
                l(1) =   0
     Q(r) pseudized with  8 coefficients,  rinner =    0.800

     atomic species   valence    mass     pseudopotential
        Ti1           12.00    47.86700     Ti( 1.00)
        O1             6.00    15.99900     O ( 1.00)
        N1             5.00    14.00700     N ( 1.00)
        C1             4.00    12.01100     C ( 1.00)
        H1             1.00     1.00800     H ( 1.00)

     No symmetry found

   Cartesian axes

     site n.     atom                  positions (alat units)
         1           Ti1 tau(   1) = (   0.0004258   2.9801865   6.0000000  )
         2           Ti1 tau(   2) = (   3.2906075   1.4906267   6.0002472  )
         3           O1  tau(   3) = (   0.0006271   0.0005054   7.9858123  )
         4           O1  tau(   4) = (   3.2906025   0.0005020   7.3038282  )
         5           O1  tau(   5) = (   4.5942328   1.4918067   9.2879030  )
         6           O1  tau(   6) = (   1.9868534   1.4903216   9.2879459  )
         7           Ti1 tau(   7) = (   3.2907910   2.8959150   9.1758416  )
         8           Ti1 tau(   8) = (   0.0015273   1.4827037   9.2680791  )
         9           O1  tau(   9) = (   3.2800960   5.9426830  11.3808346  )
        10           O1  tau(  10) = (   0.0116148   5.9584955  10.6183126  )
        11           O1  tau(  11) = (   1.2797812   1.4911726  12.6624455  )
        12           O1  tau(  12) = (   5.2824698   1.4871998  12.6412817  )
        13           Ti1 tau(  13) = (   0.0041451   2.9720195  12.5119452  )
        14           Ti1 tau(  14) = (   3.3095611   1.4699318  12.5307708  )
        15           O1  tau(  15) = (   6.5436702   0.0697967  14.6864816  )
        16           O1  tau(  16) = (   3.2812162   5.9597207  14.0300411  )
        17           O1  tau(  17) = (   4.5129646   1.5046642  16.2361130  )
        18           O1  tau(  18) = (   1.9708392   1.5012857  16.1671103  )
        19           Ti1 tau(  19) = (   3.2655272   2.9480959  15.7331506  )
        20           Ti1 tau(  20) = (   6.5674642   1.4497656  15.9937491  )
        21           O1  tau(  21) = (   3.2904802   0.0005063   4.7018136  )
        22           O1  tau(  22) = (   6.5217933   5.8323795  17.2454964  )
        23           O1  tau(  23) = (   1.3043587   1.4918075   6.0039043  )
        24           O1  tau(  24) = (   5.2767064   1.4903225   6.0039473  )
        25           Ti1 tau(  25) = (   0.0000382   5.9609847   6.0000000  )
        26           Ti1 tau(  26) = (   3.2902200   4.4714249   6.0002472  )
        27           O1  tau(  27) = (   0.0002396   2.9813036   7.9858123  )
        28           O1  tau(  28) = (   3.2902150   2.9813002   7.3038282  )
        29           O1  tau(  29) = (   4.5938453   4.4726049   9.2879030  )
        30           O1  tau(  30) = (   1.9864658   4.4711199   9.2879459  )
        31           Ti1 tau(  31) = (   3.2891106   5.8743827   9.1763621  )
        32           Ti1 tau(  32) = (   0.0006254   4.4649316   9.2693709  )
        33           O1  tau(  33) = (   3.2830490   2.9749636  11.3746576  )
        34           O1  tau(  34) = (   0.0092240   2.9805883  10.6323155  )
        35           O1  tau(  35) = (   1.2760807   4.4612897  12.6946019  )
        36           O1  tau(  36) = (   5.2846406   4.4647657  12.6742532  )
        37           Ti1 tau(  37) = (   0.0173662   5.9591775  12.4970172  )
        38           Ti1 tau(  38) = (   3.3070294   4.4569304  12.5379467  )
        39           O1  tau(  39) = (   6.5190077   2.9374781  14.9220565  )
        40           O1  tau(  40) = (   3.2909943   2.9519766  13.9498127  )
        41           O1  tau(  41) = (   4.5146313   4.4149292  16.1460290  )
        42           O1  tau(  42) = (   1.9668235   4.4047650  16.1116202  )
        43           Ti1 tau(  43) = (   3.2426406   5.9218513  15.8539982  )
        44           Ti1 tau(  44) = (   6.5337747   4.6515477  15.8702276  )
        45           O1  tau(  45) = (   3.2900926   2.9813045   4.7018136  )
        46           O1  tau(  46) = (   1.3039711   4.4726057   6.0039043  )
        47           O1  tau(  47) = (   5.2763189   4.4711207   6.0039473  )
        48           N1  tau(  48) = (   1.0802268   3.0592680  18.8437747  )
        49           N1  tau(  49) = (   6.4825355   2.6367244  18.1156036  )
        50           C1  tau(  50) = (   0.7269815   3.7261681  20.0984356  )
        51           H1  tau(  51) = (   0.0344531   4.5672025  19.9493712  )
        52           H1  tau(  52) = (   0.2718923   3.0081313  20.7822053  )
        53           H1  tau(  53) = (   1.6324345   4.1087450  20.5485440  )
        54           H1  tau(  54) = (   5.7152520   3.3097272  18.2274121  )
        55           H1  tau(  55) = (   6.1788988   1.7551022  18.5268573  )
        56           H1  tau(  56) = (   1.5478348   3.7306874  18.2371031  )
        57           O1  tau(  57) = (   3.1661568   0.0027346  18.3937517  )
        58           H1  tau(  58) = (   4.0701885   0.3469208  18.4697374  )
        59           H1  tau(  59) = (   2.5798038   0.7742236  18.5044111  )

     number of k points=    10  Fermi-Dirac smearing, width (Ry)=  0.0073
                       cart. coord. in units 2pi/alat
        k(    1) = (   0.0000000   0.0000000   0.0000000), wk =   0.1250000
        k(    2) = (   0.0000000   0.0419351   0.0000000), wk =   0.2500000
        k(    3) = (   0.0000000  -0.0838702   0.0000000), wk =   0.1250000
        k(    4) = (   0.0379955   0.0000049   0.0000000), wk =   0.2500000
        k(    5) = (   0.0379955   0.0419400   0.0000000), wk =   0.2500000
        k(    6) = (   0.0379955  -0.0838652   0.0000000), wk =   0.2500000
        k(    7) = (   0.0379955  -0.0419301   0.0000000), wk =   0.2500000
        k(    8) = (  -0.0759910  -0.0000099   0.0000000), wk =   0.1250000
        k(    9) = (  -0.0759910   0.0419252   0.0000000), wk =   0.2500000
        k(   10) = (  -0.0759910  -0.0838800   0.0000000), wk =   0.1250000

     Initial potential from superposition of free atoms

     starting charge  389.99912, renormalised to  406.00000

     negative rho (up, down):  1.307E-02 0.000E+00

     %%%%%%%%%%%%%%%%%%%%%%%%%%%%%%%%%%%%%%%%%%%%%%%%%%%%%%%%%%%%%%%%%%%%%%%%
     %                                                                      %
     % You are using vdW-DF, which was implemented by the Thonhauser group. %
     % Please cite the following two papers that made this development      %
     % possible and the two reviews that describe the various versions:     %
     %                                                                      %
     %   T. Thonhauser et al., PRL 115, 136402 (2015).                      %
     %   T. Thonhauser et al., PRB 76, 125112 (2007).                       %
     %   K. Berland et al., Rep. Prog. Phys. 78, 066501 (2015).             %
     %   D.C. Langreth et al., J. Phys.: Condens. Matter 21, 084203 (2009). %
     %                                                                      %
     %                                                                      %
     % If you are calculating the stress with vdW-DF, please also cite:     %
     %                                                                      %
     %   R. Sabatini et al., J. Phys.: Condens. Matter 24, 424209 (2012).   %
     %                                                                      %
     %%%%%%%%%%%%%%%%%%%%%%%%%%%%%%%%%%%%%%%%%%%%%%%%%%%%%%%%%%%%%%%%%%%%%%%%

     Adding external electric field

     Computed dipole along edir(3) :
        Dipole              -16.1158 Ry au,        -40.9623 Debye
        Dipole field         -0.0304 Ry au,

        Potential amp.        2.8192 Ry
        Total length         46.3494 bohr

     Starting wfcs are  308 atomic wfcs
  @ DRIVER MODE: Message from server: STATUS
  @ DRIVER MODE: Message from server: POSDATA
  @ DRIVER MODE: Reading and sharing cell
  @ DRIVER MODE: Reading and sharing positions
  @ DRIVER MODE: Received positions

     Self-consistent Calculation

     iteration #  1     ecut=    29.40 Ry     beta= 0.05
     Davidson diagonalization with overlap
     c_bands:  2 eigenvalues not converged
     c_bands:  3 eigenvalues not converged
     c_bands:  2 eigenvalues not converged
     c_bands:  3 eigenvalues not converged
     c_bands:  4 eigenvalues not converged
     c_bands:  2 eigenvalues not converged
     c_bands:  1 eigenvalues not converged
     c_bands:  5 eigenvalues not converged
     c_bands:  1 eigenvalues not converged
     ethr =  1.00E-05,  avg # of iterations = 23.1

[...]

     total energy              =   -2140.62576975 Ry
     estimated scf accuracy    <    9598.83790565 Ry

     iteration #  2     ecut=    29.40 Ry     beta= 0.05
     Davidson diagonalization with overlap
     ethr =  1.00E-02,  avg # of iterations = 33.5

[...]

     iteration # 62     ecut=    29.40 Ry     beta= 0.05
     Davidson diagonalization with overlap
     ethr =  2.31E-11,  avg # of iterations =  6.0

[...]

     total energy              =   -2977.70001563 Ry
     estimated scf accuracy    <       0.00000009 Ry

     iteration # 63     ecut=    29.40 Ry     beta= 0.05
     Davidson diagonalization with overlap
     c_bands:  1 eigenvalues not converged
     ethr =  2.29E-11,  avg # of iterations = 14.7

     negative rho (up, down):  1.408E-02 0.000E+00

     Adding external electric field

     Computed dipole along edir(3) :
        Dipole                1.3387 Ry au,          3.4026 Debye
        Dipole field          0.0025 Ry au,

        Potential amp.       -0.2342 Ry
        Total length         46.3494 bohr

     End of self-consistent calculation

          k = 0.0000 0.0000 0.0000 ( 18029 PWs)   bands (ev):

   -55.1188 -55.0822 -55.0748 -55.0407 -55.0348 -55.0296 -54.9980 -54.9622
   -54.9437 -54.9089 -54.9051 -54.8880 -54.8715 -54.8376 -54.1043 -54.0703
   -31.6807 -31.5945 -31.5673 -31.4871 -31.4328 -31.4300 -31.4165 -31.4106
   -31.3637 -31.3408 -31.3305 -31.3195 -31.3127 -31.3099 -31.2916 -31.2833
   -31.2632 -31.2605 -31.2582 -31.2399 -31.2273 -31.2179 -31.2004 -31.1960
   -31.1886 -31.1768 -31.1738 -31.1446 -31.1319 -31.1289 -31.1241 -31.1037
   -31.1009 -31.0932 -31.0898 -31.0659 -31.0570 -31.0404 -31.0331 -31.0311
   -31.0162 -31.0149 -30.5137 -30.4194 -30.3974 -30.3301 -30.2434 -30.1324
   -18.8057 -17.8181 -15.9500 -15.6946 -15.5580 -15.4569 -15.3222 -15.2161
   -15.1347 -15.0206 -14.9708 -14.8554 -14.8232 -14.8187 -14.7791 -14.7478
   -14.6990 -14.6602 -14.6581 -14.6357 -14.6163 -14.6086 -14.5658 -14.5589
   -14.5193 -14.5173 -14.4974 -14.3614 -14.2797 -14.2097 -14.0275 -13.2042
   -12.6070 -12.4895  -9.7925  -6.5375  -6.4019  -5.4515  -4.9311  -3.5352
    -3.2836  -3.1388  -3.0872  -3.0507  -3.0151  -2.9605  -2.8810  -2.8144
    -2.6508  -2.5814  -2.5560  -2.4037  -2.3297  -2.3200  -2.2635  -2.1637
    -2.1389  -2.0921  -2.0499  -1.9853  -1.9479  -1.9244  -1.9026  -1.8675
    -1.8638  -1.8099  -1.7561  -1.6866  -1.5969  -1.5656  -1.5198  -1.4761
    -1.4540  -1.4514  -1.4110  -1.4046  -1.3942  -1.3496  -1.3435  -1.3133
    -1.2674  -1.1578  -1.0081  -0.9455  -0.8560  -0.7614  -0.7375  -0.7105
    -0.6904  -0.6281  -0.6057  -0.5767  -0.5008  -0.4525  -0.3733  -0.3271
    -0.3044  -0.2247  -0.1201  -0.1029  -0.0957  -0.0076   0.0846   0.0974
     0.1122   0.1218   0.2197   0.2851   0.3189   0.3606   0.4248   0.4339
     0.4918   0.5208   0.5722   0.6386   0.6716   0.7508   0.7902   0.8111
     0.8166   0.8391   0.8591   0.8705   0.9517   0.9606   0.9861   1.0748
     1.1793   1.3336   1.4797   1.4906   1.8239   1.8249   1.9184   2.1020
     2.4945   2.5428   3.9755   4.0512   4.1097   4.1209   4.1264   4.2113
     4.4604   4.4782   4.4896   4.4912   4.5261

[...]

          k = 0.0380-0.0419 0.0000 ( 17876 PWs)   bands (ev):

[...]

          k =-0.0760-0.0000 0.0000 ( 17886 PWs)   bands (ev):

[...]

          k =-0.0760-0.0839 0.0000 ( 17948 PWs)   bands (ev):

   -55.1044 -55.0964 -55.0577 -55.0576 -55.0321 -55.0285 -54.9852 -54.9750
   -54.9292 -54.9229 -54.8899 -54.8890 -54.8877 -54.8392 -54.0872 -54.0872
   -31.5099 -31.4904 -31.4805 -31.3823 -31.3823 -31.3766 -31.3700 -31.3490
   -31.3490 -31.3284 -31.3233 -31.3176 -31.3080 -31.2891 -31.2755 -31.2610
   -31.2567 -31.2555 -31.2520 -31.2456 -31.2436 -31.2398 -31.2278 -31.2267
   -31.1976 -31.1967 -31.1794 -31.1774 -31.1772 -31.1685 -31.1683 -31.1624
   -31.1540 -31.1416 -31.1361 -31.1206 -31.1189 -31.1029 -31.0691 -31.0684
   -31.0670 -31.0437 -30.4100 -30.4100 -30.3263 -30.3261 -30.2868 -30.2867
   -18.8042 -17.8147 -15.5300 -15.3915 -15.2524 -15.1487 -15.1338 -15.0802
   -15.0311 -14.9893 -14.9477 -14.9034 -14.8933 -14.8753 -14.8469 -14.8198
   -14.7955 -14.7364 -14.7200 -14.7044 -14.6822 -14.6353 -14.6275 -14.6247
   -14.6176 -14.5713 -14.5687 -14.5438 -14.4751 -14.4730 -14.2866 -13.2062
   -12.5911 -12.5910  -9.7894  -6.5889  -6.3246  -5.4487  -4.9420  -3.5085
    -2.9564  -2.8293  -2.6535  -2.6176  -2.4719  -2.3715  -2.3264  -2.2983
    -2.2445  -2.1988  -2.1387  -2.1236  -2.1053  -2.0466  -2.0212  -2.0024
    -1.9710  -1.9520  -1.9383  -1.9199  -1.9025  -1.8743  -1.8480  -1.8393
    -1.8347  -1.8063  -1.7900  -1.7505  -1.7438  -1.7360  -1.6928  -1.6807
    -1.6545  -1.5978  -1.4906  -1.4803  -1.3278  -1.3255  -1.2916  -1.2459
    -1.2259  -1.2159  -1.1552  -1.1473  -1.1351  -0.8997  -0.8720  -0.8620
    -0.8348  -0.7767  -0.7591  -0.6964  -0.6871  -0.6030  -0.5884  -0.4865
    -0.4709  -0.4151  -0.3309  -0.3228  -0.3107  -0.1995  -0.1499  -0.1123
    -0.0858  -0.0755  -0.0581  -0.0203  -0.0201   0.0697   0.1131   0.1435
     0.1587   0.1885   0.3531   0.4018   0.4107   0.5498   0.5636   0.7116
     0.7750   0.7893   0.8767   0.8973   0.9848   0.9949   1.0346   1.1741
     1.1857   1.2089   1.2559   1.2843   1.3363   1.3414   2.2747   2.2760
     2.3627   2.3629   4.1079   4.2332   4.2395   4.3002   4.4095   4.4427
     4.4889   4.5226   4.5607   4.5634   4.6304

     the Fermi energy is     4.0376 ev

!    total energy              =   -2977.70005070 Ry
     estimated scf accuracy    <       0.00000003 Ry
     smearing contrib. (-TS)   =      -0.03675129 Ry
     internal energy E=F+TS    =   -2977.66329941 Ry

     The total energy is F=E-TS. E is the sum of the following terms:
     one-electron contribution =  -23082.95794055 Ry
     hartree contribution      =   11640.63144099 Ry
     xc contribution           =    -496.62780239 Ry
     ewald contribution        =    8961.28762059 Ry
     electric field correction =       0.00338195 Ry

     convergence has been achieved in  63 iterations

     Forces acting on atoms (cartesian axes, Ry/au):

     atom    1 type  1   force =     0.00017870   -0.00019351    0.09313666
     atom    2 type  1   force =    -0.00010337   -0.00033360   -0.17819000
     atom    3 type  2   force =     0.00002123   -0.00017590   -0.02038881
     atom    4 type  2   force =    -0.00002684   -0.00200498    0.05897938
     atom    5 type  2   force =    -0.01060892   -0.00141713    0.00859628
     atom    6 type  2   force =     0.01187360   -0.00070111    0.00712806
     atom    7 type  1   force =    -0.00089407    0.00313976   -0.01229231
     atom    8 type  1   force =     0.00054906    0.00113369   -0.00450998
     atom    9 type  2   force =    -0.00007307   -0.00037163    0.00013968
     atom   10 type  2   force =    -0.00129523   -0.00050835   -0.00194513
     atom   11 type  2   force =    -0.00021901   -0.00021615   -0.00005910
     atom   12 type  2   force =     0.00061051   -0.00007259   -0.00024404
     atom   13 type  1   force =    -0.00102917   -0.00062835    0.00022995
     atom   14 type  1   force =     0.00011461   -0.00004518    0.00017320
     atom   15 type  2   force =    -0.00027394   -0.00050689   -0.00005734
     atom   16 type  2   force =    -0.00000687   -0.00007687    0.00067113
     atom   17 type  2   force =    -0.00028461    0.00025204    0.00055491
     atom   18 type  2   force =     0.00019821    0.00004666    0.00030557
     atom   19 type  1   force =     0.00023371    0.00003508    0.00057703
     atom   20 type  1   force =    -0.00017700   -0.00021938    0.00028161
     atom   21 type  2   force =     0.00007232   -0.00001590    0.10398170
     atom   22 type  2   force =     0.00006695   -0.00021655   -0.00110149
     atom   23 type  2   force =    -0.07039285   -0.00011334   -0.02688851
     atom   24 type  2   force =     0.07027180    0.00033088   -0.02692710
     atom   25 type  1   force =     0.00000588   -0.00022502    0.09277281
     atom   26 type  1   force =    -0.00020398   -0.00037314   -0.17830602
     atom   27 type  2   force =     0.00010432   -0.00029077   -0.01935779
     atom   28 type  2   force =     0.00003847   -0.00162686    0.05805436
     atom   29 type  2   force =    -0.01069488   -0.00080790    0.00799603
     atom   30 type  2   force =     0.01181409   -0.00047952    0.00652140
     atom   31 type  1   force =    -0.00073036    0.00505186   -0.01492200
     atom   32 type  1   force =     0.00040329   -0.00139774   -0.00479018
     atom   33 type  2   force =    -0.00011069    0.00021706    0.00029116
     atom   34 type  2   force =    -0.00128952    0.00140319   -0.00089861
     atom   35 type  2   force =     0.00019768    0.00013589    0.00001788
     atom   36 type  2   force =     0.00011634   -0.00001500   -0.00011824
     atom   37 type  1   force =    -0.00103812    0.00056169    0.00004610
     atom   38 type  1   force =     0.00014900   -0.00015203   -0.00004495
     atom   39 type  2   force =    -0.00002893   -0.00015915    0.00009931
     atom   40 type  2   force =    -0.00020587    0.00020862    0.00024929
     atom   41 type  2   force =    -0.00000715   -0.00016396    0.00039874
     atom   42 type  2   force =    -0.00014336   -0.00005014    0.00007440
     atom   43 type  1   force =     0.00011379    0.00031232    0.00039889
     atom   44 type  1   force =    -0.00010793    0.00022371   -0.00035546
     atom   45 type  2   force =     0.00004081   -0.00005120    0.10396678
     atom   46 type  2   force =    -0.07038356   -0.00005136   -0.02691904
     atom   47 type  2   force =     0.07029301    0.00037593   -0.02695081
     atom   48 type  3   force =     0.00033562    0.00031375   -0.00022791
     atom   49 type  3   force =    -0.00077599   -0.00028164    0.00031148
     atom   50 type  4   force =    -0.00836511   -0.00262206   -0.00396552
     atom   51 type  5   force =    -0.00046056   -0.00054489   -0.00015984
     atom   52 type  5   force =    -0.00002979   -0.00071432    0.00031120
     atom   53 type  5   force =     0.01019398    0.00330964    0.00352930
     atom   54 type  5   force =     0.00081785   -0.00024074   -0.00025154
     atom   55 type  5   force =     0.00042133    0.00084412    0.00000295
     atom   56 type  5   force =     0.00008862    0.00030452    0.00017902
     atom   57 type  2   force =    -0.00037287    0.00062554   -0.00058221
     atom   58 type  5   force =     0.00076416   -0.00043530    0.00013770
     atom   59 type  5   force =     0.00024469   -0.00032578    0.00034000

     Total force =     0.366367     Total SCF correction =     0.000437
  @ DRIVER MODE: Message from server: STATUS
  @ DRIVER MODE: Message from server: GETFORCE
  @ DRIVER MODE: Returning v,forces,stress,ensemble

     Writing output data file ./calc.save/
  @ DRIVER MODE: Message from server: EXIT
  @ DRIVE MODE: Exiting

     General routines

     Parallel routines

   This run was terminated on:   2:50: 2  16Sep2021

   JOB DONE.