     Program PWSCF v.6.7GPU starts on  9Sep2021 at  0:29:35

     R & G space division:  proc/nbgrp/npool/nimage =      10
     Reading input from /storage/home/hcoda1/3/ntian30/research/carbon/CxH_vib/CH2_calc/ads_slab/CH2_a/out_0010/pw.inp
Warning: card &CELL ignored
Warning: card   CELL_DYNAMICS='IPI', ignored
Warning: card / ignored

     Current dimensions of program PWSCF are:
     Max number of different atomic species (ntypx) = 10
     Max number of k-points (npk) =  40000
     Max angular momentum in pseudopotentials (lmaxx) =  3
     Presently no symmetry can be used with electric field

     Message from routine cell_base_init:
     DEPRECATED: use true lattice parameter, not A to a.u. conversion factor

     IMPORTANT: XC functional enforced from input :
     Exchange-correlation= BEEF-VDW
                           (   1   4  43  14   2   0   0)
     Any further DFT definition will be discarded
     Please, verify this is what you really want

  @ DRIVER MODE: Connecting to
 qe_1139763_2767395.sched-torque.pace.gatech.edui5o1izac_scratch
  using UNIX socket
  @ DRIVER MODE: Message from server: STATUS
  @ DRIVER MODE: Message from server: INIT
  @ DRIVER MODE: Receiving replica           0          -1
  @ DRIVER MODE: Receiving encoded integer          25
  @ DRIVER MODE:  SCF:  T  FORCE:  T  STRESS:  F  VC:  F  ENSEMBLE:  F
  @ DRIVER MODE:  SCF:  T  FORCE:  T  STRESS:  F  VC:  F  ENSEMBLE:  F

     Using Slab Decomposition

     bravais-lattice index     =            0
     lattice parameter (alat)  =       1.8897  a.u.
     unit-cell volume          =    6658.9804 (a.u.)^3
     number of atoms/cell      =           50
     number of atomic types    =            4
     number of electrons       =       384.00
     number of Kohn-Sham states=          202
     kinetic-energy cutoff     =      29.3995  Ry
     charge density cutoff     =     293.9946  Ry
     scf convergence threshold =      7.3E-08
     mixing beta               =       0.0500
     number of iterations used =            8  plain     mixing
     Exchange-correlation= BEEF-VDW
                           (   1   4  43  14   2   0   0)

     celldm(1)=   1.889726  celldm(2)=   0.000000  celldm(3)=   0.000000
     celldm(4)=   0.000000  celldm(5)=   0.000000  celldm(6)=   0.000000

     crystal axes: (cart. coord. in units of alat)
               a(1) = (   6.579727   0.000000   0.000000 )
               a(2) = (  -0.000775   5.961596   0.000000 )
               a(3) = (   0.000000   0.000000  25.155947 )

     reciprocal axes: (cart. coord. in units 2 pi/alat)
               b(1) = (  0.151982  0.000020  0.000000 )
               b(2) = (  0.000000  0.167740  0.000000 )
               b(3) = (  0.000000  0.000000  0.039752 )

     PseudoPot. # 1 for Ti read from file:
     /storage/coda1/p-amedford6/0/shared/rich_project_chbe-medford/medford-share/data/pseudos_module/espresso/nninc/pbe/van/Ti.UPF
     MD5 check sum: 8e4df49b7f0d34bbd5052bf3f5ea0213
     Pseudo is Ultrasoft, Zval = 12.0
     Generated by new atomic code, or converted to UPF format
     Using radial grid of  851 points,  6 beta functions with:
                l(1) =   0
                l(2) =   0
                l(3) =   1
                l(4) =   1
                l(5) =   2
                l(6) =   2
     Q(r) pseudized with  8 coefficients,  rinner =    1.000   1.000   1.000
                                                       1.000   1.000

     PseudoPot. # 2 for O  read from file:
     /storage/coda1/p-amedford6/0/shared/rich_project_chbe-medford/medford-share/data/pseudos_module/espresso/nninc/pbe/van/O.UPF
     MD5 check sum: 78c19812648e8988a0fe644b0f25305e
     Pseudo is Ultrasoft, Zval =  6.0
     Generated by new atomic code, or converted to UPF format
     Using radial grid of  737 points,  4 beta functions with:
                l(1) =   0
                l(2) =   0
                l(3) =   1
                l(4) =   1
     Q(r) pseudized with  8 coefficients,  rinner =    0.800   0.800   0.800

     PseudoPot. # 3 for C  read from file:
     /storage/coda1/p-amedford6/0/shared/rich_project_chbe-medford/medford-share/data/pseudos_module/espresso/nninc/pbe/van/C.UPF
     MD5 check sum: 1a69bf6b8db32088f5b2163dbdb77a27
     Pseudo is Ultrasoft, Zval =  4.0
     Generated by new atomic code, or converted to UPF format
     Using radial grid of  721 points,  4 beta functions with:
                l(1) =   0
                l(2) =   0
                l(3) =   1
                l(4) =   1
     Q(r) pseudized with  8 coefficients,  rinner =    0.800   0.800   0.800

     PseudoPot. # 4 for H  read from file:
     /storage/coda1/p-amedford6/0/shared/rich_project_chbe-medford/medford-share/data/pseudos_module/espresso/nninc/pbe/van/H.UPF
     MD5 check sum: b5ee9d7bfd3a09ee7748110bda690ff7
     Pseudo is Ultrasoft, Zval =  1.0
     Generated by new atomic code, or converted to UPF format
     Using radial grid of  615 points,  1 beta functions with:
                l(1) =   0
     Q(r) pseudized with  8 coefficients,  rinner =    0.800

     atomic species   valence    mass     pseudopotential
        Ti1           12.00    47.86700     Ti( 1.00)
        O1             6.00    15.99900     O ( 1.00)
        C1             4.00    12.01100     C ( 1.00)
        H1             1.00     1.00800     H ( 1.00)

     No symmetry found

   Cartesian axes

     site n.     atom                  positions (alat units)
         1           Ti1 tau(   1) = (   0.0004258   2.9801865   6.0000000  )
         2           Ti1 tau(   2) = (   3.2906075   1.4906267   6.0002472  )
         3           O1  tau(   3) = (   0.0006271   0.0005054   7.9858123  )
         4           O1  tau(   4) = (   3.2906025   0.0005020   7.3038282  )
         5           O1  tau(   5) = (   4.5942328   1.4918067   9.2879030  )
         6           O1  tau(   6) = (   1.9868534   1.4903216   9.2879459  )
         7           Ti1 tau(   7) = (   3.2756478   2.8760420   9.1630771  )
         8           Ti1 tau(   8) = (   6.5651030   1.4385007   9.3790407  )
         9           O1  tau(   9) = (   3.2651923   0.0045787  11.3553482  )
        10           O1  tau(  10) = (   6.5766178   5.9492394  10.5646413  )
        11           O1  tau(  11) = (   1.2591847   1.4977620  12.6679731  )
        12           O1  tau(  12) = (   5.2482661   1.4982983  12.6347741  )
        13           Ti1 tau(  13) = (   0.0651775   2.9654633  12.8696618  )
        14           Ti1 tau(  14) = (   3.3800656   1.4924449  12.4946823  )
        15           O1  tau(  15) = (   6.5296085   5.9207011  14.6097682  )
        16           O1  tau(  16) = (   3.2682314   0.0147111  13.9481481  )
        17           O1  tau(  17) = (   4.4912147   1.5408453  16.1034427  )
        18           O1  tau(  18) = (   2.0062121   1.5430191  16.1010343  )
        19           Ti1 tau(  19) = (   3.2584153   3.0188911  15.7272741  )
        20           Ti1 tau(  20) = (   6.5595668   1.6180917  16.2090303  )
        21           O1  tau(  21) = (   3.2904802   0.0005063   4.7018136  )
        22           O1  tau(  22) = (   6.5447935   0.0528136  17.2578995  )
        23           O1  tau(  23) = (   1.3043587   1.4918075   6.0039043  )
        24           O1  tau(  24) = (   5.2767064   1.4903225   6.0039473  )
        25           Ti1 tau(  25) = (   0.0000382   5.9609847   6.0000000  )
        26           Ti1 tau(  26) = (   3.2902200   4.4714249   6.0002472  )
        27           O1  tau(  27) = (   0.0002396   2.9813036   7.9858123  )
        28           O1  tau(  28) = (   3.2902150   2.9813002   7.3038282  )
        29           O1  tau(  29) = (   4.5938453   4.4726049   9.2879030  )
        30           O1  tau(  30) = (   1.9864658   4.4711199   9.2879459  )
        31           Ti1 tau(  31) = (   3.2806623   5.8565216   9.1617982  )
        32           Ti1 tau(  32) = (   6.5670484   4.4138833   9.3856844  )
        33           O1  tau(  33) = (   3.2704644   2.9808095  11.3502114  )
        34           O1  tau(  34) = (   6.5770050   2.9672111  10.5601139  )
        35           O1  tau(  35) = (   1.2614422   4.4490125  12.6594447  )
        36           O1  tau(  36) = (   5.2451530   4.4578719  12.6250501  )
        37           Ti1 tau(  37) = (   0.0436288   5.9429386  12.8080954  )
        38           Ti1 tau(  38) = (   3.3780510   4.4695497  12.4860242  )
        39           O1  tau(  39) = (   6.5513063   2.9765972  14.7162787  )
        40           O1  tau(  40) = (   3.2682626   2.9952000  13.9367060  )
        41           O1  tau(  41) = (   4.4851171   4.5114873  16.1027694  )
        42           O1  tau(  42) = (   2.0082088   4.5103763  16.0975713  )
        43           Ti1 tau(  43) = (   3.2690221   0.0357551  15.7449602  )
        44           Ti1 tau(  44) = (   6.5655258   4.6249605  16.1704562  )
        45           O1  tau(  45) = (   3.2900926   2.9813045   4.7018136  )
        46           O1  tau(  46) = (   1.3039711   4.4726057   6.0039043  )
        47           O1  tau(  47) = (   5.2763189   4.4711207   6.0039473  )
        48           C1  tau(  48) = (   6.5259393   3.0234738  17.6125649  )
        49           H1  tau(  49) = (   0.8472112   3.1495175  18.2203151  )
        50           H1  tau(  50) = (   5.6209537   3.1160310  18.2142257  )

     number of k points=    10  Fermi-Dirac smearing, width (Ry)=  0.0073
                       cart. coord. in units 2pi/alat
        k(    1) = (   0.0000000   0.0000000   0.0000000), wk =   0.1250000
        k(    2) = (   0.0000000   0.0419351   0.0000000), wk =   0.2500000
        k(    3) = (   0.0000000  -0.0838702   0.0000000), wk =   0.1250000
        k(    4) = (   0.0379955   0.0000049   0.0000000), wk =   0.2500000
        k(    5) = (   0.0379955   0.0419400   0.0000000), wk =   0.2500000
        k(    6) = (   0.0379955  -0.0838652   0.0000000), wk =   0.2500000
        k(    7) = (   0.0379955  -0.0419301   0.0000000), wk =   0.2500000
        k(    8) = (  -0.0759910  -0.0000099   0.0000000), wk =   0.1250000
        k(    9) = (  -0.0759910   0.0419252   0.0000000), wk =   0.2500000
        k(   10) = (  -0.0759910  -0.0838800   0.0000000), wk =   0.1250000

     Initial potential from superposition of free atoms

     starting charge  367.99919, renormalised to  384.00000

     negative rho (up, down):  2.116E-02 0.000E+00

     %%%%%%%%%%%%%%%%%%%%%%%%%%%%%%%%%%%%%%%%%%%%%%%%%%%%%%%%%%%%%%%%%%%%%%%%
     %                                                                      %
     % You are using vdW-DF, which was implemented by the Thonhauser group. %
     % Please cite the following two papers that made this development      %
     % possible and the two reviews that describe the various versions:     %
     %                                                                      %
     %   T. Thonhauser et al., PRL 115, 136402 (2015).                      %
     %   T. Thonhauser et al., PRB 76, 125112 (2007).                       %
     %   K. Berland et al., Rep. Prog. Phys. 78, 066501 (2015).             %
     %   D.C. Langreth et al., J. Phys.: Condens. Matter 21, 084203 (2009). %
     %                                                                      %
     %                                                                      %
     % If you are calculating the stress with vdW-DF, please also cite:     %
     %                                                                      %
     %   R. Sabatini et al., J. Phys.: Condens. Matter 24, 424209 (2012).   %
     %                                                                      %
     %%%%%%%%%%%%%%%%%%%%%%%%%%%%%%%%%%%%%%%%%%%%%%%%%%%%%%%%%%%%%%%%%%%%%%%%

     Adding external electric field

     Computed dipole along edir(3) :
        Dipole               -0.5194 Ry au,         -1.3201 Debye
        Dipole field         -0.0010 Ry au,

        Potential amp.        0.0909 Ry
        Total length         46.3494 bohr

     Starting wfcs are  290 atomic wfcs
  @ DRIVER MODE: Message from server: STATUS
  @ DRIVER MODE: Message from server: POSDATA
  @ DRIVER MODE: Reading and sharing cell
  @ DRIVER MODE: Reading and sharing positions
  @ DRIVER MODE: Received positions

     Self-consistent Calculation

     iteration #  1     ecut=    29.40 Ry     beta= 0.05
     Davidson diagonalization with overlap
     c_bands:  1 eigenvalues not converged
     c_bands:  2 eigenvalues not converged
     c_bands:  3 eigenvalues not converged
     c_bands:  1 eigenvalues not converged
     c_bands:  1 eigenvalues not converged
     c_bands:  2 eigenvalues not converged
     c_bands:  1 eigenvalues not converged
     c_bands:  2 eigenvalues not converged
     c_bands:  1 eigenvalues not converged
     c_bands:  2 eigenvalues not converged
     ethr =  1.00E-05,  avg # of iterations = 22.0

[...]

     total energy              =   -2899.22790497 Ry
     estimated scf accuracy    <      12.10041671 Ry

     iteration #  2     ecut=    29.40 Ry     beta= 0.05
     Davidson diagonalization with overlap
     ethr =  3.15E-03,  avg # of iterations =  1.0

[...]

     iteration # 62     ecut=    29.40 Ry     beta= 0.05
     Davidson diagonalization with overlap
     c_bands:  1 eigenvalues not converged
     ethr =  5.35E-07,  avg # of iterations =  7.7

[...]

     total energy              =   -2897.72466769 Ry
     estimated scf accuracy    <       0.00000009 Ry

     iteration # 93     ecut=    29.40 Ry     beta= 0.05
     Davidson diagonalization with overlap
     ethr =  2.29E-11,  avg # of iterations =  3.7

     negative rho (up, down):  2.038E-02 0.000E+00

     Adding external electric field

     Computed dipole along edir(3) :
        Dipole                0.2836 Ry au,          0.7208 Debye
        Dipole field          0.0005 Ry au,

        Potential amp.       -0.0496 Ry
        Total length         46.3494 bohr

     End of self-consistent calculation

          k = 0.0000 0.0000 0.0000 ( 18029 PWs)   bands (ev):

   -56.6530 -56.6189 -56.3989 -56.3622 -56.3256 -56.2731 -56.0910 -56.0856
   -56.0517 -55.9844 -55.9585 -55.9203 -55.5519 -55.4712 -55.4372 -55.4283
   -33.0825 -32.9452 -32.9019 -32.8731 -32.8435 -32.7765 -32.7519 -32.7229
   -32.7090 -32.6433 -32.6250 -32.5987 -32.5906 -32.5671 -32.5615 -32.5513
   -32.5481 -32.5303 -32.4589 -32.4538 -32.3872 -32.3489 -32.3373 -32.3256
   -32.3082 -32.3080 -32.2367 -32.2245 -32.2154 -32.1963 -32.1952 -32.1591
   -32.1500 -32.1366 -32.1126 -32.0574 -32.0194 -31.8726 -31.8602 -31.8078
   -31.7947 -31.7711 -31.7463 -31.6910 -31.6059 -31.6044 -31.4939 -31.4752
   -17.0501 -16.8383 -16.6267 -16.4779 -16.3963 -16.3440 -16.0507 -16.0334
   -16.0244 -15.9243 -15.9129 -15.8598 -15.8260 -15.8229 -15.8136 -15.8071
   -15.7718 -15.7288 -15.6970 -15.6614 -15.6285 -15.5946 -15.5040 -15.4655
   -15.4471 -15.3223 -15.2646 -15.2305 -15.0945 -13.9644 -13.8498  -8.3903
    -4.4328  -4.3837  -4.2310  -4.2221  -4.1030  -3.8884  -3.7064  -3.5188
    -3.4874  -3.4579  -3.4521  -3.3482  -3.2952  -3.1848  -3.1838  -3.1520
    -3.1379  -3.1063  -3.0846  -3.0802  -3.0397  -3.0212  -2.9558  -2.9147
    -2.9050  -2.8484  -2.7682  -2.6748  -2.6551  -2.6265  -2.5940  -2.5550
    -2.5375  -2.4386  -2.4322  -2.3668  -2.2320  -2.2093  -2.1615  -2.1329
    -2.1013  -2.0621  -1.9247  -1.7857  -1.7418  -1.7256  -1.6951  -1.6849
    -1.6548  -1.5322  -1.4897  -1.3903  -1.3589  -1.2473  -1.2347  -1.2173
    -1.2018  -1.1714  -1.1026  -1.0754  -1.0405  -0.9587  -0.8975  -0.7673
    -0.7341  -0.7152  -0.6865  -0.6789  -0.6206  -0.5788  -0.5208  -0.5106
    -0.4518  -0.4093  -0.3927  -0.3766  -0.3523  -0.2924  -0.2170  -0.1956
    -0.1322  -0.0946   0.1024   0.1405   0.1670   0.1873   0.2689   0.3018
     0.4791   0.4930   0.5575   0.7602   0.7991   1.1509   1.2302   1.7147
     2.6106   2.7908   2.9856   3.0433   3.0875   3.1672   3.2221   3.3000
     3.3329   3.4546

[...]

          k = 0.0380-0.0419 0.0000 ( 17876 PWs)   bands (ev):

[...]

          k =-0.0760-0.0000 0.0000 ( 17886 PWs)   bands (ev):

[...]

          k =-0.0760-0.0839 0.0000 ( 17948 PWs)   bands (ev):

   -56.6386 -56.6331 -56.3842 -56.3767 -56.3192 -56.2794 -56.0881 -56.0693
   -56.0677 -55.9872 -55.9470 -55.9317 -55.5495 -55.4542 -55.4541 -55.4306
   -32.9021 -32.8976 -32.8905 -32.8837 -32.7982 -32.7936 -32.7529 -32.7466
   -32.6864 -32.6734 -32.6162 -32.6096 -32.5858 -32.5782 -32.5710 -32.5632
   -32.5186 -32.4823 -32.4084 -32.3920 -32.3912 -32.3317 -32.3230 -32.3199
   -32.3076 -32.2931 -32.2878 -32.2843 -32.2621 -32.2532 -32.2342 -32.2178
   -32.1593 -32.1583 -32.1474 -32.1446 -31.9278 -31.8583 -31.8115 -31.7840
   -31.7839 -31.7309 -31.6979 -31.6867 -31.6866 -31.6486 -31.6485 -31.4947
   -16.5192 -16.4920 -16.2734 -16.2599 -16.1500 -16.1473 -16.1351 -16.1340
   -16.0455 -16.0412 -15.9949 -15.9745 -15.9168 -15.9045 -15.8635 -15.8620
   -15.8400 -15.8386 -15.7970 -15.7945 -15.6521 -15.6503 -15.5375 -15.5304
   -15.4926 -15.4509 -15.4106 -15.3982 -15.2350 -13.9521 -13.9517  -8.3922
    -3.8228  -3.7855  -3.4876  -3.4793  -3.2794  -3.2762  -3.2572  -3.2486
    -3.2287  -3.2013  -3.1965  -3.1857  -3.1478  -3.1069  -3.0841  -3.0657
    -3.0546  -3.0469  -3.0422  -3.0412  -3.0212  -3.0020  -2.9868  -2.9622
    -2.9027  -2.8917  -2.8679  -2.8588  -2.7756  -2.6315  -2.5644  -2.5585
    -2.5476  -2.5288  -2.4875  -2.3981  -2.3934  -2.3567  -2.3494  -2.3307
    -2.1374  -2.0727  -2.0693  -2.0074  -1.9786  -1.8750  -1.7284  -1.6949
    -1.6702  -1.6482  -1.5660  -1.5266  -1.5126  -1.4889  -1.4816  -1.4544
    -1.4442  -1.3581  -1.3497  -1.3169  -1.2713  -1.2095  -1.2057  -1.1838
    -1.1633  -1.0651  -0.9955  -0.9793  -0.9650  -0.9233  -0.8554  -0.8034
    -0.7631  -0.6752  -0.6594  -0.3908  -0.3889  -0.2523  -0.2413  -0.1131
    -0.1007  -0.0083   0.0233   0.0671   0.1821   0.1958   0.2006   0.2264
     0.3276   0.3288   0.3614   0.9411   0.9414   1.0068   1.0081   1.9891
     3.0337   3.0507   3.1321   3.1491   3.1537   3.1714   3.2154   3.2179
     3.5121   3.5245

     the Fermi energy is     2.3269 ev

!    total energy              =   -2897.72466990 Ry
     estimated scf accuracy    <       0.00000005 Ry
     smearing contrib. (-TS)   =      -0.00185810 Ry
     internal energy E=F+TS    =   -2897.72281180 Ry

     The total energy is F=E-TS. E is the sum of the following terms:
     one-electron contribution =  -24684.98186917 Ry
     hartree contribution      =   12420.44156624 Ry
     xc contribution           =    -473.85464301 Ry
     ewald contribution        =    9840.67198239 Ry
     electric field correction =       0.00015175 Ry

     convergence has been achieved in  93 iterations

     Forces acting on atoms (cartesian axes, Ry/au):

     atom    1 type  1   force =     0.00029412   -0.00004211    0.14819160
     atom    2 type  1   force =     0.00005651   -0.00032439   -0.17144140
     atom    3 type  2   force =    -0.00004661    0.00265427   -0.05989456
     atom    4 type  2   force =    -0.00032702   -0.00141256    0.04063183
     atom    5 type  2   force =    -0.02535703    0.00093765    0.00494952
     atom    6 type  2   force =     0.02286497    0.00011467    0.00299600
     atom    7 type  1   force =    -0.00051551   -0.00072158   -0.00012195
     atom    8 type  1   force =     0.00074142   -0.00040069    0.00041316
     atom    9 type  2   force =     0.00089554   -0.00028446    0.00032845
     atom   10 type  2   force =    -0.00010482   -0.00000820   -0.00021108
     atom   11 type  2   force =    -0.00014921    0.00001989    0.00014487
     atom   12 type  2   force =     0.00017413    0.00011959    0.00009935
     atom   13 type  1   force =     0.00002102   -0.00100143    0.00035821
     atom   14 type  1   force =    -0.00004298   -0.00114424   -0.00030276
     atom   15 type  2   force =     0.00022824   -0.00030402   -0.00039940
     atom   16 type  2   force =     0.00001802    0.00015289    0.00036295
     atom   17 type  2   force =     0.00115043    0.00008653    0.00030311
     atom   18 type  2   force =    -0.00077031   -0.00019434    0.00031440
     atom   19 type  1   force =     0.00053633   -0.00024033    0.00011308
     atom   20 type  1   force =     0.00019654    0.00002532    0.00055215
     atom   21 type  2   force =     0.00014290   -0.00010298    0.10274311
     atom   22 type  2   force =     0.00005578   -0.00025317   -0.00025714
     atom   23 type  2   force =    -0.07352770    0.00029524   -0.03460237
     atom   24 type  2   force =     0.07357395    0.00074170   -0.03465162
     atom   25 type  1   force =     0.00007636   -0.00018380    0.14938534
     atom   26 type  1   force =     0.00000188   -0.00105421   -0.17160101
     atom   27 type  2   force =    -0.00006920    0.00191814   -0.05888300
     atom   28 type  2   force =    -0.00039775   -0.00137082    0.04060332
     atom   29 type  2   force =    -0.02527747    0.00190980    0.00523758
     atom   30 type  2   force =     0.02336605    0.00034333    0.00328468
     atom   31 type  1   force =    -0.00048601   -0.00020326   -0.00007430
     atom   32 type  1   force =     0.00062846   -0.00026651    0.00000962
     atom   33 type  2   force =     0.00005236   -0.00037519    0.00040679
     atom   34 type  2   force =     0.00007271   -0.00015011    0.00005191
     atom   35 type  2   force =    -0.00017829   -0.00035214   -0.00036364
     atom   36 type  2   force =     0.00053163   -0.00062482   -0.00014869
     atom   37 type  1   force =     0.00090013    0.00031383   -0.00007066
     atom   38 type  1   force =    -0.00035131   -0.00014949    0.00022668
     atom   39 type  2   force =     0.00008109    0.00011083   -0.00118163
     atom   40 type  2   force =    -0.00000371    0.00030167   -0.00084297
     atom   41 type  2   force =     0.00019511    0.00024028    0.00023389
     atom   42 type  2   force =     0.00028363    0.00053597    0.00033603
     atom   43 type  1   force =     0.00040664    0.00077872   -0.00078742
     atom   44 type  1   force =    -0.00049578    0.00033801   -0.00010079
     atom   45 type  2   force =     0.00013657   -0.00009300    0.10270446
     atom   46 type  2   force =    -0.07355308   -0.00012363   -0.03459204
     atom   47 type  2   force =     0.07361000    0.00033918   -0.03466490
     atom   48 type  3   force =     0.00258845    0.00047735    0.00120071
     atom   49 type  4   force =    -0.00215964   -0.00116070   -0.00090049
     atom   50 type  4   force =    -0.00006755   -0.00021268   -0.00008899

     Total force =     0.404345     Total SCF correction =     0.000592
  @ DRIVER MODE: Message from server: STATUS
  @ DRIVER MODE: Message from server: GETFORCE
  @ DRIVER MODE: Returning v,forces,stress,ensemble

     Writing output data file ./calc.save/
  @ DRIVER MODE: Message from server: EXIT
  @ DRIVE MODE: Exiting

     General routines

     Parallel routines

   This run was terminated on:   0:50:19   9Sep2021

   JOB DONE.