     Program PWSCF v.6.7GPU starts on  9Sep2021 at  8:31:50

     R & G space division:  proc/nbgrp/npool/nimage =      10
     Reading input from /storage/home/hcoda1/3/ntian30/research/carbon/CxH_vib/CH3_calc/ads_slab/CH3NNHHH_a/out_0032/pw.inp
Warning: card &CELL ignored
Warning: card   CELL_DYNAMICS='IPI', ignored
Warning: card / ignored

     Current dimensions of program PWSCF are:
     Max number of different atomic species (ntypx) = 10
     Max number of k-points (npk) =  40000
     Max angular momentum in pseudopotentials (lmaxx) =  3
     Presently no symmetry can be used with electric field

     Message from routine cell_base_init:
     DEPRECATED: use true lattice parameter, not A to a.u. conversion factor

     IMPORTANT: XC functional enforced from input :
     Exchange-correlation= BEEF-VDW
                           (   1   4  43  14   2   0   0)
     Any further DFT definition will be discarded
     Please, verify this is what you really want

  @ DRIVER MODE: Connecting to
 qe_1139763_2767399.sched-torque.pace.gatech.edu730ygm5g_scratch
  using UNIX socket
  @ DRIVER MODE: Message from server: STATUS
  @ DRIVER MODE: Message from server: INIT
  @ DRIVER MODE: Receiving replica           0          -1
  @ DRIVER MODE: Receiving encoded integer          25
  @ DRIVER MODE:  SCF:  T  FORCE:  T  STRESS:  F  VC:  F  ENSEMBLE:  F
  @ DRIVER MODE:  SCF:  T  FORCE:  T  STRESS:  F  VC:  F  ENSEMBLE:  F

     Using Slab Decomposition

     bravais-lattice index     =            0
     lattice parameter (alat)  =       1.8897  a.u.
     unit-cell volume          =    6658.9804 (a.u.)^3
     number of atoms/cell      =           56
     number of atomic types    =            5
     number of electrons       =       398.00
     number of Kohn-Sham states=          209
     kinetic-energy cutoff     =      29.3995  Ry
     charge density cutoff     =     293.9946  Ry
     scf convergence threshold =      7.3E-08
     mixing beta               =       0.0500
     number of iterations used =            8  plain     mixing
     Exchange-correlation= BEEF-VDW
                           (   1   4  43  14   2   0   0)

     celldm(1)=   1.889726  celldm(2)=   0.000000  celldm(3)=   0.000000
     celldm(4)=   0.000000  celldm(5)=   0.000000  celldm(6)=   0.000000

     crystal axes: (cart. coord. in units of alat)
               a(1) = (   6.579727   0.000000   0.000000 )
               a(2) = (  -0.000775   5.961596   0.000000 )
               a(3) = (   0.000000   0.000000  25.155947 )

     reciprocal axes: (cart. coord. in units 2 pi/alat)
               b(1) = (  0.151982  0.000020  0.000000 )
               b(2) = (  0.000000  0.167740  0.000000 )
               b(3) = (  0.000000  0.000000  0.039752 )

     PseudoPot. # 1 for Ti read from file:
     /storage/coda1/p-amedford6/0/shared/rich_project_chbe-medford/medford-share/data/pseudos_module/espresso/nninc/pbe/van/Ti.UPF
     MD5 check sum: 8e4df49b7f0d34bbd5052bf3f5ea0213
     Pseudo is Ultrasoft, Zval = 12.0
     Generated by new atomic code, or converted to UPF format
     Using radial grid of  851 points,  6 beta functions with:
                l(1) =   0
                l(2) =   0
                l(3) =   1
                l(4) =   1
                l(5) =   2
                l(6) =   2
     Q(r) pseudized with  8 coefficients,  rinner =    1.000   1.000   1.000
                                                       1.000   1.000

     PseudoPot. # 2 for O  read from file:
     /storage/coda1/p-amedford6/0/shared/rich_project_chbe-medford/medford-share/data/pseudos_module/espresso/nninc/pbe/van/O.UPF
     MD5 check sum: 78c19812648e8988a0fe644b0f25305e
     Pseudo is Ultrasoft, Zval =  6.0
     Generated by new atomic code, or converted to UPF format
     Using radial grid of  737 points,  4 beta functions with:
                l(1) =   0
                l(2) =   0
                l(3) =   1
                l(4) =   1
     Q(r) pseudized with  8 coefficients,  rinner =    0.800   0.800   0.800

     PseudoPot. # 3 for N  read from file:
     /storage/coda1/p-amedford6/0/shared/rich_project_chbe-medford/medford-share/data/pseudos_module/espresso/nninc/pbe/van/N.UPF
     MD5 check sum: 90d10febe142ad51ac9d5be1deb811c4
     Pseudo is Ultrasoft, Zval =  5.0
     Generated by new atomic code, or converted to UPF format
     Using radial grid of  729 points,  4 beta functions with:
                l(1) =   0
                l(2) =   0
                l(3) =   1
                l(4) =   1
     Q(r) pseudized with  8 coefficients,  rinner =    0.800   0.800   0.800

     PseudoPot. # 4 for C  read from file:
     /storage/coda1/p-amedford6/0/shared/rich_project_chbe-medford/medford-share/data/pseudos_module/espresso/nninc/pbe/van/C.UPF
     MD5 check sum: 1a69bf6b8db32088f5b2163dbdb77a27
     Pseudo is Ultrasoft, Zval =  4.0
     Generated by new atomic code, or converted to UPF format
     Using radial grid of  721 points,  4 beta functions with:
                l(1) =   0
                l(2) =   0
                l(3) =   1
                l(4) =   1
     Q(r) pseudized with  8 coefficients,  rinner =    0.800   0.800   0.800

     PseudoPot. # 5 for H  read from file:
     /storage/coda1/p-amedford6/0/shared/rich_project_chbe-medford/medford-share/data/pseudos_module/espresso/nninc/pbe/van/H.UPF
     MD5 check sum: b5ee9d7bfd3a09ee7748110bda690ff7
     Pseudo is Ultrasoft, Zval =  1.0
     Generated by new atomic code, or converted to UPF format
     Using radial grid of  615 points,  1 beta functions with:
                l(1) =   0
     Q(r) pseudized with  8 coefficients,  rinner =    0.800

     atomic species   valence    mass     pseudopotential
        Ti1           12.00    47.86700     Ti( 1.00)
        O1             6.00    15.99900     O ( 1.00)
        N1             5.00    14.00700     N ( 1.00)
        C1             4.00    12.01100     C ( 1.00)
        H1             1.00     1.00800     H ( 1.00)

     No symmetry found

   Cartesian axes

     site n.     atom                  positions (alat units)
         1           Ti1 tau(   1) = (   0.0004258   2.9801865   6.0000000  )
         2           Ti1 tau(   2) = (   3.2906075   1.4906267   6.0002472  )
         3           O1  tau(   3) = (   0.0006271   0.0005054   7.9858123  )
         4           O1  tau(   4) = (   3.2906025   0.0005020   7.3038282  )
         5           O1  tau(   5) = (   4.5942328   1.4918067   9.2879030  )
         6           O1  tau(   6) = (   1.9868534   1.4903216   9.2879459  )
         7           Ti1 tau(   7) = (   3.2907910   2.8959150   9.1758416  )
         8           Ti1 tau(   8) = (   0.0015273   1.4827037   9.2680791  )
         9           O1  tau(   9) = (   3.3120675   0.0079458  11.3762204  )
        10           O1  tau(  10) = (   0.0116148   5.9584955  10.6183126  )
        11           O1  tau(  11) = (   1.3148726   1.5133626  12.6447579  )
        12           O1  tau(  12) = (   5.3140862   1.5122126  12.6508301  )
        13           Ti1 tau(  13) = (   0.0289753   2.9995974  12.5105963  )
        14           Ti1 tau(  14) = (   3.3300932   1.5144954  12.5190352  )
        15           O1  tau(  15) = (   0.0303621   0.0967028  14.6836000  )
        16           O1  tau(  16) = (   3.3188409   0.0235386  14.0025835  )
        17           O1  tau(  17) = (   4.5661268   1.5053193  16.2317874  )
        18           O1  tau(  18) = (   2.0488868   1.5039614  16.2002260  )
        19           Ti1 tau(  19) = (   3.3211226   2.9745325  15.7560014  )
        20           Ti1 tau(  20) = (   0.0641794   1.4487855  16.0607878  )
        21           O1  tau(  21) = (   3.2904802   0.0005063   4.7018136  )
        22           O1  tau(  22) = (   0.0207051   5.8381987  17.2232637  )
        23           O1  tau(  23) = (   1.3043587   1.4918075   6.0039043  )
        24           O1  tau(  24) = (   5.2767064   1.4903225   6.0039473  )
        25           Ti1 tau(  25) = (   0.0000382   5.9609847   6.0000000  )
        26           Ti1 tau(  26) = (   3.2902200   4.4714249   6.0002472  )
        27           O1  tau(  27) = (   0.0002396   2.9813036   7.9858123  )
        28           O1  tau(  28) = (   3.2902150   2.9813002   7.3038282  )
        29           O1  tau(  29) = (   4.5938453   4.4726049   9.2879030  )
        30           O1  tau(  30) = (   1.9864658   4.4711199   9.2879459  )
        31           Ti1 tau(  31) = (   3.2891106   5.8743827   9.1763621  )
        32           Ti1 tau(  32) = (   0.0006254   4.4649316   9.2693709  )
        33           O1  tau(  33) = (   3.3137607   3.0039157  11.3695003  )
        34           O1  tau(  34) = (   0.0092240   2.9805883  10.6323155  )
        35           O1  tau(  35) = (   1.3103219   4.4840529  12.6837359  )
        36           O1  tau(  36) = (   5.3166572   4.4842854  12.6901167  )
        37           Ti1 tau(  37) = (   0.0376818   0.0300362  12.4998423  )
        38           Ti1 tau(  38) = (   3.3279277   4.4933691  12.5326681  )
        39           O1  tau(  39) = (   0.0236785   2.9473731  14.9547601  )
        40           O1  tau(  40) = (   3.3158584   2.9778716  13.9675922  )
        41           O1  tau(  41) = (   4.5769684   4.4551829  16.1482216  )
        42           O1  tau(  42) = (   2.0574928   4.4544973  16.1629196  )
        43           Ti1 tau(  43) = (   3.3270828   0.0048838  15.7999907  )
        44           Ti1 tau(  44) = (   0.0216784   4.6657176  15.8371636  )
        45           O1  tau(  45) = (   3.2900926   2.9813045   4.7018136  )
        46           O1  tau(  46) = (   1.3039711   4.4726057   6.0039043  )
        47           O1  tau(  47) = (   5.2763189   4.4711207   6.0039473  )
        48           N1  tau(  48) = (   1.0300599   3.1028741  18.8625222  )
        49           N1  tau(  49) = (   6.4529598   2.6395754  18.1308714  )
        50           C1  tau(  50) = (   0.6566364   3.8075245  20.0867497  )
        51           H1  tau(  51) = (   6.5334193   4.6337433  19.9095685  )
        52           H1  tau(  52) = (   0.2127083   3.1054723  20.7945791  )
        53           H1  tau(  53) = (   1.5744534   4.2160081  20.5287796  )
        54           H1  tau(  54) = (   5.6912064   3.3271340  18.1715891  )
        55           H1  tau(  55) = (   6.1153184   1.7991689  18.5966666  )
        56           H1  tau(  56) = (   1.4989484   3.7555826  18.2384742  )

     number of k points=    10  Fermi-Dirac smearing, width (Ry)=  0.0073
                       cart. coord. in units 2pi/alat
        k(    1) = (   0.0000000   0.0000000   0.0000000), wk =   0.1250000
        k(    2) = (   0.0000000   0.0419351   0.0000000), wk =   0.2500000
        k(    3) = (   0.0000000  -0.0838702   0.0000000), wk =   0.1250000
        k(    4) = (   0.0379955   0.0000049   0.0000000), wk =   0.2500000
        k(    5) = (   0.0379955   0.0419400   0.0000000), wk =   0.2500000
        k(    6) = (   0.0379955  -0.0838652   0.0000000), wk =   0.2500000
        k(    7) = (   0.0379955  -0.0419301   0.0000000), wk =   0.2500000
        k(    8) = (  -0.0759910  -0.0000099   0.0000000), wk =   0.1250000
        k(    9) = (  -0.0759910   0.0419252   0.0000000), wk =   0.2500000
        k(   10) = (  -0.0759910  -0.0838800   0.0000000), wk =   0.1250000

     Initial potential from superposition of free atoms

     starting charge  381.99914, renormalised to  398.00000

     negative rho (up, down):  1.340E-02 0.000E+00

     %%%%%%%%%%%%%%%%%%%%%%%%%%%%%%%%%%%%%%%%%%%%%%%%%%%%%%%%%%%%%%%%%%%%%%%%
     %                                                                      %
     % You are using vdW-DF, which was implemented by the Thonhauser group. %
     % Please cite the following two papers that made this development      %
     % possible and the two reviews that describe the various versions:     %
     %                                                                      %
     %   T. Thonhauser et al., PRL 115, 136402 (2015).                      %
     %   T. Thonhauser et al., PRB 76, 125112 (2007).                       %
     %   K. Berland et al., Rep. Prog. Phys. 78, 066501 (2015).             %
     %   D.C. Langreth et al., J. Phys.: Condens. Matter 21, 084203 (2009). %
     %                                                                      %
     %                                                                      %
     % If you are calculating the stress with vdW-DF, please also cite:     %
     %                                                                      %
     %   R. Sabatini et al., J. Phys.: Condens. Matter 24, 424209 (2012).   %
     %                                                                      %
     %%%%%%%%%%%%%%%%%%%%%%%%%%%%%%%%%%%%%%%%%%%%%%%%%%%%%%%%%%%%%%%%%%%%%%%%

     Adding external electric field

     Computed dipole along edir(3) :
        Dipole              -11.7464 Ry au,        -29.8564 Debye
        Dipole field         -0.0222 Ry au,

        Potential amp.        2.0549 Ry
        Total length         46.3494 bohr

     Starting wfcs are  302 atomic wfcs
  @ DRIVER MODE: Message from server: STATUS
  @ DRIVER MODE: Message from server: POSDATA
  @ DRIVER MODE: Reading and sharing cell
  @ DRIVER MODE: Reading and sharing positions
  @ DRIVER MODE: Received positions

     Self-consistent Calculation

     iteration #  1     ecut=    29.40 Ry     beta= 0.05
     Davidson diagonalization with overlap
     c_bands:  1 eigenvalues not converged
     c_bands:  1 eigenvalues not converged
     c_bands:  1 eigenvalues not converged
     c_bands:  3 eigenvalues not converged
     c_bands:  3 eigenvalues not converged
     c_bands:  3 eigenvalues not converged
     c_bands:  4 eigenvalues not converged
     c_bands:  2 eigenvalues not converged
     ethr =  1.00E-05,  avg # of iterations = 21.6

[...]

     total energy              =   -2428.10760055 Ry
     estimated scf accuracy    <    5789.73447611 Ry

     iteration #  2     ecut=    29.40 Ry     beta= 0.05
     Davidson diagonalization with overlap
     ethr =  1.00E-02,  avg # of iterations = 22.3

[...]

     iteration # 86     ecut=    29.40 Ry     beta= 0.05
     Davidson diagonalization with overlap
     ethr =  4.34E-11,  avg # of iterations = 12.7

[...]

     total energy              =   -2942.85971679 Ry
     estimated scf accuracy    <       0.00000036 Ry

     iteration # 88     ecut=    29.40 Ry     beta= 0.05
     Davidson diagonalization with overlap
     c_bands:  1 eigenvalues not converged
     ethr =  4.34E-11,  avg # of iterations = 11.7

     negative rho (up, down):  1.463E-02 0.000E+00

     Adding external electric field

     Computed dipole along edir(3) :
        Dipole                1.2197 Ry au,          3.1001 Debye
        Dipole field          0.0023 Ry au,

        Potential amp.       -0.2134 Ry
        Total length         46.3494 bohr

     End of self-consistent calculation

          k = 0.0000 0.0000 0.0000 ( 18029 PWs)   bands (ev):

   -55.3495 -55.3126 -55.3017 -55.2706 -55.2676 -55.2333 -55.2261 -55.1908
   -55.1697 -55.1459 -55.1352 -55.1332 -55.0996 -55.0275 -54.3314 -54.2973
   -31.9180 -31.8022 -31.7942 -31.7147 -31.6651 -31.6591 -31.6524 -31.6389
   -31.5908 -31.5902 -31.5590 -31.5536 -31.5466 -31.5306 -31.5194 -31.5119
   -31.5048 -31.4894 -31.4869 -31.4669 -31.4542 -31.4462 -31.4194 -31.4156
   -31.4043 -31.4019 -31.4006 -31.3724 -31.3589 -31.3566 -31.3517 -31.3322
   -31.3290 -31.3208 -31.3196 -31.3176 -31.2834 -31.2694 -31.2616 -31.2446
   -31.2338 -31.2093 -30.7408 -30.6465 -30.6244 -30.5571 -30.4703 -30.3594
   -17.7994 -16.1857 -15.9180 -15.7781 -15.6683 -15.5493 -15.4308 -15.4112
   -15.2792 -15.1964 -15.0763 -15.0534 -15.0269 -15.0078 -14.9954 -14.9805
   -14.8949 -14.8889 -14.8716 -14.8442 -14.8378 -14.7952 -14.7877 -14.7481
   -14.7265 -14.7253 -14.5968 -14.5090 -14.4373 -14.2011 -13.1756 -12.8340
   -12.7166  -9.7174  -6.3727  -5.3903  -4.8751  -3.5377  -3.4956  -3.3695
    -3.2789  -3.2638  -3.2425  -3.1063  -2.9528  -2.7829  -2.7692  -2.7439
    -2.6394  -2.5617  -2.5555  -2.5308  -2.3794  -2.3578  -2.3067  -2.2412
    -2.2136  -2.1657  -2.1548  -2.1334  -2.1141  -2.0942  -2.0859  -1.9722
    -1.9211  -1.8285  -1.7726  -1.7452  -1.7095  -1.6817  -1.6665  -1.6393
    -1.6313  -1.5887  -1.5617  -1.5399  -1.4887  -1.3766  -1.2677  -1.2375
    -1.1400  -0.9879  -0.9544  -0.9420  -0.9306  -0.8540  -0.8368  -0.7882
    -0.7360  -0.7280  -0.6970  -0.5862  -0.5277  -0.4627  -0.3962  -0.3845
    -0.3377  -0.2760  -0.1636  -0.1394  -0.1169  -0.0918   0.0020   0.0415
     0.0865   0.1612   0.1805   0.1941   0.3009   0.3086   0.3888   0.4009
     0.4464   0.5329   0.5672   0.5895   0.5933   0.6069   0.6368   0.7039
     0.7282   0.7545   0.8296   0.9535   1.0239   1.1855   1.2486   1.2622
     1.5919   1.5961   1.6912   1.8751   2.2675   2.3157   3.7479   3.8174
     3.8923   3.8990   3.9109   3.9847   4.2219   4.2382   4.2506   4.2568
     4.2915

[...]

          k = 0.0380-0.0419 0.0000 ( 17876 PWs)   bands (ev):

[...]

          k =-0.0760-0.0000 0.0000 ( 17886 PWs)   bands (ev):

[...]

          k =-0.0760-0.0839 0.0000 ( 17948 PWs)   bands (ev):

   -55.3353 -55.3266 -55.2846 -55.2845 -55.2690 -55.2299 -55.2126 -55.2043
   -55.1541 -55.1503 -55.1492 -55.1167 -55.1164 -55.0287 -54.3143 -54.3142
   -31.7251 -31.7223 -31.7187 -31.6350 -31.6093 -31.6092 -31.6065 -31.5760
   -31.5760 -31.5578 -31.5504 -31.5481 -31.5420 -31.5121 -31.5052 -31.4871
   -31.4868 -31.4828 -31.4795 -31.4743 -31.4712 -31.4704 -31.4333 -31.4282
   -31.4260 -31.4213 -31.4172 -31.4059 -31.4043 -31.4042 -31.3972 -31.3877
   -31.3834 -31.3672 -31.3637 -31.3477 -31.3471 -31.3377 -31.2977 -31.2973
   -31.2871 -31.2386 -30.6371 -30.6370 -30.5533 -30.5532 -30.5138 -30.5137
   -17.7947 -15.7092 -15.5971 -15.5509 -15.3777 -15.3555 -15.3329 -15.3181
   -15.1901 -15.1717 -15.1437 -15.1174 -15.0923 -15.0648 -15.0536 -15.0485
   -14.9661 -14.9543 -14.9468 -14.9307 -14.8627 -14.8598 -14.8555 -14.8496
   -14.7989 -14.7964 -14.7157 -14.7025 -14.7010 -14.5034 -13.1766 -12.8181
   -12.8180  -9.7138  -6.3603  -5.3900  -4.8808  -3.4680  -2.8656  -2.8301
    -2.8067  -2.7724  -2.5933  -2.5551  -2.5182  -2.5059  -2.4067  -2.3645
    -2.3468  -2.3396  -2.2692  -2.2657  -2.2350  -2.2048  -2.1839  -2.1668
    -2.1529  -2.1310  -2.1063  -2.0769  -2.0709  -2.0557  -2.0017  -1.9991
    -1.9834  -1.9613  -1.9439  -1.9228  -1.9063  -1.8497  -1.7274  -1.7171
    -1.6630  -1.5566  -1.5520  -1.4718  -1.4666  -1.4226  -1.3948  -1.3828
    -1.3554  -1.1755  -1.1219  -1.0955  -1.0881  -1.0760  -0.9677  -0.9336
    -0.8755  -0.8598  -0.8337  -0.7359  -0.6852  -0.6809  -0.5991  -0.5679
    -0.5285  -0.4870  -0.3860  -0.3563  -0.3363  -0.3075  -0.3041  -0.2505
    -0.2451  -0.1684  -0.1206  -0.0845  -0.0701  -0.0390   0.1604   0.1700
     0.1883   0.3353   0.3580   0.4982   0.5421   0.5841   0.6449   0.6965
     0.7625   0.8031   0.9300   0.9578   0.9586   1.0289   1.0494   1.0543
     1.1070   1.1089   2.0477   2.0484   2.1356   2.1358   3.8909   3.9955
     4.0103   4.0557   4.1655   4.2393   4.2626   4.2894   4.3322   4.3350
     4.3995

     the Fermi energy is     3.8107 ev

!    total energy              =   -2942.85972189 Ry
     estimated scf accuracy    <       0.00000006 Ry
     smearing contrib. (-TS)   =      -0.03701380 Ry
     internal energy E=F+TS    =   -2942.82270809 Ry

     The total energy is F=E-TS. E is the sum of the following terms:
     one-electron contribution =  -23389.39823728 Ry
     hartree contribution      =   11787.23650628 Ry
     xc contribution           =    -487.75053147 Ry
     ewald contribution        =    9147.08674702 Ry
     electric field correction =       0.00280736 Ry

     convergence has been achieved in  88 iterations

     Forces acting on atoms (cartesian axes, Ry/au):

     atom    1 type  1   force =     0.00000436   -0.00026155    0.09309618
     atom    2 type  1   force =    -0.00014279   -0.00042535   -0.17825100
     atom    3 type  2   force =     0.00007391   -0.00009143   -0.02025842
     atom    4 type  2   force =     0.00001595   -0.00186794    0.05881356
     atom    5 type  2   force =    -0.01020134   -0.00054536    0.00773223
     atom    6 type  2   force =     0.01225320    0.00007417    0.00819145
     atom    7 type  1   force =     0.00038734    0.00328032   -0.01425805
     atom    8 type  1   force =    -0.00045625    0.00045892   -0.00456015
     atom    9 type  2   force =    -0.00002526   -0.00061641   -0.00038347
     atom   10 type  2   force =    -0.00059784    0.00090838   -0.00141843
     atom   11 type  2   force =    -0.00037601   -0.00011915    0.00023127
     atom   12 type  2   force =     0.00006747   -0.00006465    0.00003824
     atom   13 type  1   force =     0.00005408   -0.00031374    0.00018715
     atom   14 type  1   force =    -0.00036601    0.00013482    0.00042651
     atom   15 type  2   force =    -0.00015865    0.00080619    0.00021272
     atom   16 type  2   force =    -0.00008805   -0.00018526    0.00030080
     atom   17 type  2   force =    -0.00045934    0.00004799    0.00042714
     atom   18 type  2   force =     0.00014145   -0.00020561   -0.00007964
     atom   19 type  1   force =     0.00034477    0.00028074    0.00091155
     atom   20 type  1   force =    -0.00062193   -0.00069351    0.00030931
     atom   21 type  2   force =     0.00000122   -0.00010438    0.10396441
     atom   22 type  2   force =    -0.00019808    0.00001894   -0.00061846
     atom   23 type  2   force =    -0.07036168   -0.00022060   -0.02687100
     atom   24 type  2   force =     0.07025654    0.00020834   -0.02695143
     atom   25 type  1   force =     0.00001917   -0.00026849    0.09275632
     atom   26 type  1   force =    -0.00012137   -0.00045413   -0.17828835
     atom   27 type  2   force =     0.00013794   -0.00032711   -0.01928837
     atom   28 type  2   force =     0.00008156   -0.00155016    0.05820390
     atom   29 type  2   force =    -0.01020441   -0.00033003    0.00695045
     atom   30 type  2   force =     0.01215272   -0.00008800    0.00748484
     atom   31 type  1   force =     0.00040243    0.00495242   -0.01539686
     atom   32 type  1   force =    -0.00037390   -0.00032933   -0.00466896
     atom   33 type  2   force =    -0.00021921   -0.00047780    0.00014607
     atom   34 type  2   force =    -0.00014158    0.00364415   -0.00060592
     atom   35 type  2   force =     0.00003051   -0.00056360    0.00031631
     atom   36 type  2   force =    -0.00018715   -0.00053050   -0.00003259
     atom   37 type  1   force =    -0.00025814   -0.00049581    0.00049850
     atom   38 type  1   force =    -0.00019728   -0.00090061    0.00046904
     atom   39 type  2   force =    -0.00047821   -0.00052231    0.00050226
     atom   40 type  2   force =     0.00001344   -0.00048717   -0.00043675
     atom   41 type  2   force =    -0.00079877   -0.00011862   -0.00010962
     atom   42 type  2   force =     0.00030653   -0.00025785   -0.00030220
     atom   43 type  1   force =     0.00005310   -0.00031013   -0.00004373
     atom   44 type  1   force =    -0.00007422   -0.00066729    0.00069861
     atom   45 type  2   force =     0.00000992   -0.00014320    0.10396111
     atom   46 type  2   force =    -0.07041545   -0.00018872   -0.02688923
     atom   47 type  2   force =     0.07028068    0.00025262   -0.02696096
     atom   48 type  3   force =     0.00043179    0.00149359   -0.00054231
     atom   49 type  3   force =     0.00008497    0.00098784   -0.00030711
     atom   50 type  4   force =     0.00670776    0.00295702    0.00315529
     atom   51 type  5   force =     0.00004774    0.00036335    0.00034586
     atom   52 type  5   force =     0.00064383   -0.00000348    0.00052454
     atom   53 type  5   force =    -0.00808350   -0.00294477   -0.00246494
     atom   54 type  5   force =    -0.00000071   -0.00054086   -0.00043780
     atom   55 type  5   force =     0.00052333   -0.00176833   -0.00032444
     atom   56 type  5   force =     0.00007943   -0.00088655   -0.00010543

     Total force =     0.366339     Total SCF correction =     0.000737
  @ DRIVER MODE: Message from server: STATUS
  @ DRIVER MODE: Message from server: GETFORCE
  @ DRIVER MODE: Returning v,forces,stress,ensemble

     Writing output data file ./calc.save/
  @ DRIVER MODE: Message from server: EXIT
  @ DRIVE MODE: Exiting

     General routines

     Parallel routines

   This run was terminated on:   8:55:46   9Sep2021

   JOB DONE.