     Program PWSCF v.6.7GPU starts on 23Sep2021 at 17:22: 9

     R & G space division:  proc/nbgrp/npool/nimage =       8
     Reading input from /storage/home/hcoda1/3/ntian30/research/carbon/CxH_vib/H2O_calc/ads_slab/CH3N2HO_c/out_0047/pw.inp
Warning: card &CELL ignored
Warning: card   CELL_DYNAMICS='IPI', ignored
Warning: card / ignored

     Current dimensions of program PWSCF are:
     Max number of different atomic species (ntypx) = 10
     Max number of k-points (npk) =  40000
     Max angular momentum in pseudopotentials (lmaxx) =  3
     Presently no symmetry can be used with electric field

     Message from routine cell_base_init:
     DEPRECATED: use true lattice parameter, not A to a.u. conversion factor

     IMPORTANT: XC functional enforced from input :
     Exchange-correlation= BEEF-VDW
                           (   1   4  43  14   2   0   0)
     Any further DFT definition will be discarded
     Please, verify this is what you really want

  @ DRIVER MODE: Connecting to
 qe_1139763_2941007.sched-torque.pace.gatech.edu9m76af4y_scratch
  using UNIX socket
  @ DRIVER MODE: Message from server: STATUS
  @ DRIVER MODE: Message from server: INIT
  @ DRIVER MODE: Receiving replica           0          -1
  @ DRIVER MODE: Receiving encoded integer          25
  @ DRIVER MODE:  SCF:  T  FORCE:  T  STRESS:  F  VC:  F  ENSEMBLE:  F
  @ DRIVER MODE:  SCF:  T  FORCE:  T  STRESS:  F  VC:  F  ENSEMBLE:  F

     Using Slab Decomposition

     bravais-lattice index     =            0
     lattice parameter (alat)  =       1.8897  a.u.
     unit-cell volume          =    6658.9804 (a.u.)^3
     number of atoms/cell      =           55
     number of atomic types    =            5
     number of electrons       =       402.00
     number of Kohn-Sham states=          211
     kinetic-energy cutoff     =      29.3995  Ry
     charge density cutoff     =     293.9946  Ry
     scf convergence threshold =      7.3E-08
     mixing beta               =       0.0500
     number of iterations used =            8  plain     mixing
     Exchange-correlation= BEEF-VDW
                           (   1   4  43  14   2   0   0)

     celldm(1)=   1.889726  celldm(2)=   0.000000  celldm(3)=   0.000000
     celldm(4)=   0.000000  celldm(5)=   0.000000  celldm(6)=   0.000000

     crystal axes: (cart. coord. in units of alat)
               a(1) = (   6.579727   0.000000   0.000000 )
               a(2) = (  -0.000775   5.961596   0.000000 )
               a(3) = (   0.000000   0.000000  25.155947 )

     reciprocal axes: (cart. coord. in units 2 pi/alat)
               b(1) = (  0.151982  0.000020  0.000000 )
               b(2) = (  0.000000  0.167740  0.000000 )
               b(3) = (  0.000000  0.000000  0.039752 )

     PseudoPot. # 1 for Ti read from file:
     /storage/coda1/p-amedford6/0/shared/rich_project_chbe-medford/medford-share/data/pseudos_module/espresso/nninc/pbe/van/Ti.UPF
     MD5 check sum: 8e4df49b7f0d34bbd5052bf3f5ea0213
     Pseudo is Ultrasoft, Zval = 12.0
     Generated by new atomic code, or converted to UPF format
     Using radial grid of  851 points,  6 beta functions with:
                l(1) =   0
                l(2) =   0
                l(3) =   1
                l(4) =   1
                l(5) =   2
                l(6) =   2
     Q(r) pseudized with  8 coefficients,  rinner =    1.000   1.000   1.000
                                                       1.000   1.000

     PseudoPot. # 2 for O  read from file:
     /storage/coda1/p-amedford6/0/shared/rich_project_chbe-medford/medford-share/data/pseudos_module/espresso/nninc/pbe/van/O.UPF
     MD5 check sum: 78c19812648e8988a0fe644b0f25305e
     Pseudo is Ultrasoft, Zval =  6.0
     Generated by new atomic code, or converted to UPF format
     Using radial grid of  737 points,  4 beta functions with:
                l(1) =   0
                l(2) =   0
                l(3) =   1
                l(4) =   1
     Q(r) pseudized with  8 coefficients,  rinner =    0.800   0.800   0.800

     PseudoPot. # 3 for N  read from file:
     /storage/coda1/p-amedford6/0/shared/rich_project_chbe-medford/medford-share/data/pseudos_module/espresso/nninc/pbe/van/N.UPF
     MD5 check sum: 90d10febe142ad51ac9d5be1deb811c4
     Pseudo is Ultrasoft, Zval =  5.0
     Generated by new atomic code, or converted to UPF format
     Using radial grid of  729 points,  4 beta functions with:
                l(1) =   0
                l(2) =   0
                l(3) =   1
                l(4) =   1
     Q(r) pseudized with  8 coefficients,  rinner =    0.800   0.800   0.800

     PseudoPot. # 4 for C  read from file:
     /storage/coda1/p-amedford6/0/shared/rich_project_chbe-medford/medford-share/data/pseudos_module/espresso/nninc/pbe/van/C.UPF
     MD5 check sum: 1a69bf6b8db32088f5b2163dbdb77a27
     Pseudo is Ultrasoft, Zval =  4.0
     Generated by new atomic code, or converted to UPF format
     Using radial grid of  721 points,  4 beta functions with:
                l(1) =   0
                l(2) =   0
                l(3) =   1
                l(4) =   1
     Q(r) pseudized with  8 coefficients,  rinner =    0.800   0.800   0.800

     PseudoPot. # 5 for H  read from file:
     /storage/coda1/p-amedford6/0/shared/rich_project_chbe-medford/medford-share/data/pseudos_module/espresso/nninc/pbe/van/H.UPF
     MD5 check sum: b5ee9d7bfd3a09ee7748110bda690ff7
     Pseudo is Ultrasoft, Zval =  1.0
     Generated by new atomic code, or converted to UPF format
     Using radial grid of  615 points,  1 beta functions with:
                l(1) =   0
     Q(r) pseudized with  8 coefficients,  rinner =    0.800

     atomic species   valence    mass     pseudopotential
        Ti1           12.00    47.86700     Ti( 1.00)
        O1             6.00    15.99900     O ( 1.00)
        N1             5.00    14.00700     N ( 1.00)
        C1             4.00    12.01100     C ( 1.00)
        H1             1.00     1.00800     H ( 1.00)

     No symmetry found

   Cartesian axes

     site n.     atom                  positions (alat units)
         1           Ti1 tau(   1) = (   0.0004258   2.9801865   6.0000000  )
         2           Ti1 tau(   2) = (   3.2906075   1.4906267   6.0002472  )
         3           O1  tau(   3) = (   0.0006271   0.0005054   7.9858123  )
         4           O1  tau(   4) = (   3.2906025   0.0005020   7.3038282  )
         5           O1  tau(   5) = (   4.5942328   1.4918067   9.2879030  )
         6           O1  tau(   6) = (   1.9868534   1.4903216   9.2879459  )
         7           Ti1 tau(   7) = (   3.2907910   2.8959150   9.1758416  )
         8           Ti1 tau(   8) = (   0.0015273   1.4827037   9.2680791  )
         9           O1  tau(   9) = (   3.2989311   0.0219330  11.3020621  )
        10           O1  tau(  10) = (   0.0116148   5.9584955  10.6183126  )
        11           O1  tau(  11) = (   1.3029919   1.4976758  12.6257209  )
        12           O1  tau(  12) = (   5.3026591   1.4951023  12.6306759  )
        13           Ti1 tau(  13) = (   0.0286689   2.8598525  12.6759356  )
        14           Ti1 tau(  14) = (   3.3054201   1.5706400  12.4108957  )
        15           O1  tau(  15) = (   0.0066217   5.9386728  14.6456674  )
        16           O1  tau(  16) = (   3.2936494   5.9217248  13.9190535  )
        17           O1  tau(  17) = (   4.5783085   1.5227378  16.0725395  )
        18           O1  tau(  18) = (   2.0661487   1.5008106  16.0935948  )
        19           Ti1 tau(  19) = (   3.3004316   2.9577776  15.6622982  )
        20           Ti1 tau(  20) = (   6.5114840   1.4532315  15.8500040  )
        21           O1  tau(  21) = (   3.2904802   0.0005063   4.7018136  )
        22           O1  tau(  22) = (   0.0101108   5.9483577  17.1703567  )
        23           O1  tau(  23) = (   1.3043587   1.4918075   6.0039043  )
        24           O1  tau(  24) = (   5.2767064   1.4903225   6.0039473  )
        25           Ti1 tau(  25) = (   0.0000382   5.9609847   6.0000000  )
        26           Ti1 tau(  26) = (   3.2902200   4.4714249   6.0002472  )
        27           O1  tau(  27) = (   0.0002396   2.9813036   7.9858123  )
        28           O1  tau(  28) = (   3.2902150   2.9813002   7.3038282  )
        29           O1  tau(  29) = (   4.5938453   4.4726049   9.2879030  )
        30           O1  tau(  30) = (   1.9864658   4.4711199   9.2879459  )
        31           Ti1 tau(  31) = (   3.2891106   5.8743827   9.1763621  )
        32           Ti1 tau(  32) = (   0.0006254   4.4649316   9.2693709  )
        33           O1  tau(  33) = (   3.2985377   2.9527140  11.2683515  )
        34           O1  tau(  34) = (   0.0092240   2.9805883  10.6323155  )
        35           O1  tau(  35) = (   1.2869011   4.4751273  12.6337776  )
        36           O1  tau(  36) = (   5.3033013   4.4751711  12.6363117  )
        37           Ti1 tau(  37) = (   6.5677423   5.8343599  12.5653580  )
        38           Ti1 tau(  38) = (   3.2861748   4.6640272  12.6826305  )
        39           O1  tau(  39) = (   0.0268303   2.9326313  14.6927244  )
        40           O1  tau(  40) = (   3.2973518   2.9805258  13.8830516  )
        41           O1  tau(  41) = (   4.5656241   4.3944478  16.1024780  )
        42           O1  tau(  42) = (   2.0389263   4.3990843  16.1000718  )
        43           Ti1 tau(  43) = (   3.2183859   5.9292641  16.3327267  )
        44           Ti1 tau(  44) = (   6.5399727   4.6159235  16.0325440  )
        45           O1  tau(  45) = (   3.2900926   2.9813045   4.7018136  )
        46           O1  tau(  46) = (   1.3039711   4.4726057   6.0039043  )
        47           O1  tau(  47) = (   5.2763189   4.4711207   6.0039473  )
        48           N1  tau(  48) = (   0.1383159   2.7169024  18.7005470  )
        49           N1  tau(  49) = (   0.0454196   2.8879789  17.5111406  )
        50           C1  tau(  50) = (   0.1807782   3.8735959  19.6428767  )
        51           H1  tau(  51) = (   6.4938760   4.8136915  19.1652781  )
        52           H1  tau(  52) = (   6.0945921   3.6282151  20.4682347  )
        53           H1  tau(  53) = (   1.2016282   3.9139503  20.0277151  )
        54           O1  tau(  54) = (   3.2907091   5.9158944  18.1602194  )
        55           H1  tau(  55) = (   3.1351319   0.7410148  18.6917648  )

     number of k points=    10  Fermi-Dirac smearing, width (Ry)=  0.0073
                       cart. coord. in units 2pi/alat
        k(    1) = (   0.0000000   0.0000000   0.0000000), wk =   0.1250000
        k(    2) = (   0.0000000   0.0419351   0.0000000), wk =   0.2500000
        k(    3) = (   0.0000000  -0.0838702   0.0000000), wk =   0.1250000
        k(    4) = (   0.0379955   0.0000049   0.0000000), wk =   0.2500000
        k(    5) = (   0.0379955   0.0419400   0.0000000), wk =   0.2500000
        k(    6) = (   0.0379955  -0.0838652   0.0000000), wk =   0.2500000
        k(    7) = (   0.0379955  -0.0419301   0.0000000), wk =   0.2500000
        k(    8) = (  -0.0759910  -0.0000099   0.0000000), wk =   0.1250000
        k(    9) = (  -0.0759910   0.0419252   0.0000000), wk =   0.2500000
        k(   10) = (  -0.0759910  -0.0838800   0.0000000), wk =   0.1250000

     Initial potential from superposition of free atoms

     starting charge  385.99915, renormalised to  402.00000

     negative rho (up, down):  1.431E-02 0.000E+00

     %%%%%%%%%%%%%%%%%%%%%%%%%%%%%%%%%%%%%%%%%%%%%%%%%%%%%%%%%%%%%%%%%%%%%%%%
     %                                                                      %
     % You are using vdW-DF, which was implemented by the Thonhauser group. %
     % Please cite the following two papers that made this development      %
     % possible and the two reviews that describe the various versions:     %
     %                                                                      %
     %   T. Thonhauser et al., PRL 115, 136402 (2015).                      %
     %   T. Thonhauser et al., PRB 76, 125112 (2007).                       %
     %   K. Berland et al., Rep. Prog. Phys. 78, 066501 (2015).             %
     %   D.C. Langreth et al., J. Phys.: Condens. Matter 21, 084203 (2009). %
     %                                                                      %
     %                                                                      %
     % If you are calculating the stress with vdW-DF, please also cite:     %
     %                                                                      %
     %   R. Sabatini et al., J. Phys.: Condens. Matter 24, 424209 (2012).   %
     %                                                                      %
     %%%%%%%%%%%%%%%%%%%%%%%%%%%%%%%%%%%%%%%%%%%%%%%%%%%%%%%%%%%%%%%%%%%%%%%%

     Adding external electric field

     Computed dipole along edir(3) :
        Dipole              -12.0454 Ry au,        -30.6164 Debye
        Dipole field         -0.0227 Ry au,

        Potential amp.        2.1072 Ry
        Total length         46.3494 bohr

     Starting wfcs are  304 atomic wfcs
  @ DRIVER MODE: Message from server: STATUS
  @ DRIVER MODE: Message from server: POSDATA
  @ DRIVER MODE: Reading and sharing cell
  @ DRIVER MODE: Reading and sharing positions
  @ DRIVER MODE: Received positions

     Self-consistent Calculation

     iteration #  1     ecut=    29.40 Ry     beta= 0.05
     Davidson diagonalization with overlap
     c_bands:  5 eigenvalues not converged
     c_bands:  3 eigenvalues not converged
     c_bands:  5 eigenvalues not converged
     c_bands:  3 eigenvalues not converged
     c_bands:  3 eigenvalues not converged
     c_bands:  2 eigenvalues not converged
     c_bands:  5 eigenvalues not converged
     c_bands:  5 eigenvalues not converged
     ethr =  1.00E-05,  avg # of iterations = 21.5

[...]

     total energy              =   -2397.69289409 Ry
     estimated scf accuracy    <    6480.61461966 Ry

     iteration #  2     ecut=    29.40 Ry     beta= 0.05
     Davidson diagonalization with overlap
     ethr =  1.00E-02,  avg # of iterations = 23.0

[...]

     iteration # 62     ecut=    29.40 Ry     beta= 0.05
     Davidson diagonalization with overlap
     c_bands:  1 eigenvalues not converged
     ethr =  2.76E-08,  avg # of iterations =  8.0

[...]

     total energy              =   -2972.75301302 Ry
     estimated scf accuracy    <       0.00000025 Ry

     iteration # 76     ecut=    29.40 Ry     beta= 0.05
     Davidson diagonalization with overlap
     ethr =  6.19E-11,  avg # of iterations =  5.3

     negative rho (up, down):  1.493E-02 0.000E+00

     Adding external electric field

     Computed dipole along edir(3) :
        Dipole                0.6492 Ry au,          1.6502 Debye
        Dipole field          0.0012 Ry au,

        Potential amp.       -0.1136 Ry
        Total length         46.3494 bohr

     End of self-consistent calculation

          k = 0.0000 0.0000 0.0000 ( 18029 PWs)   bands (ev):

   -56.2036 -56.1698 -55.7894 -55.7558 -55.5853 -55.5494 -55.4994 -55.3506
   -55.3168 -55.3148 -55.1711 -55.1572 -55.0299 -55.0066 -54.9752 -54.9412
   -32.6540 -32.4959 -32.4690 -32.3620 -32.2781 -32.2694 -32.2689 -32.0334
   -32.0082 -31.9886 -31.9366 -31.9313 -31.9287 -31.8964 -31.8481 -31.8223
   -31.7946 -31.7718 -31.7699 -31.7278 -31.7127 -31.6995 -31.6870 -31.6573
   -31.6400 -31.6268 -31.5564 -31.5357 -31.5272 -31.5229 -31.5007 -31.4672
   -31.4374 -31.4046 -31.3719 -31.3658 -31.3601 -31.3083 -31.2868 -31.2847
   -31.2593 -31.2424 -31.2419 -31.2387 -31.2179 -31.1905 -31.1059 -30.9941
   -18.8086 -16.4973 -16.4804 -16.1627 -15.9567 -15.7810 -15.6979 -15.6846
   -15.6349 -15.5139 -15.5028 -15.3904 -15.3029 -15.2270 -15.2000 -15.1977
   -15.1033 -15.0595 -15.0173 -14.9926 -14.9802 -14.9734 -14.9410 -14.8335
   -14.8255 -14.7972 -14.6990 -14.6888 -14.5841 -14.2883 -14.2722 -13.4729
   -13.3607 -11.4395  -6.8926  -4.3533  -4.1695  -4.0065  -3.9795  -3.9373
    -3.7106  -3.4981  -3.4129  -3.2513  -3.1962  -3.1175  -2.9197  -2.9099
    -2.8552  -2.7845  -2.7097  -2.6508  -2.6042  -2.5873  -2.4926  -2.4543
    -2.4337  -2.4303  -2.3971  -2.3817  -2.2569  -2.2550  -2.2236  -2.1738
    -2.1142  -2.1001  -2.0329  -2.0237  -2.0070  -1.9591  -1.9246  -1.8771
    -1.8043  -1.7896  -1.6558  -1.6314  -1.6242  -1.5431  -1.5177  -1.5086
    -1.4596  -1.2980  -1.2272  -1.1799  -1.1763  -1.0382  -1.0253  -0.9873
    -0.9063  -0.8711  -0.7820  -0.7721  -0.7616  -0.7534  -0.6690  -0.6329
    -0.6187  -0.5915  -0.4088  -0.3805  -0.3191  -0.2659  -0.1665  -0.1227
    -0.1162  -0.1074  -0.0680  -0.0118   0.0093   0.0244   0.1229   0.1454
     0.2004   0.2705   0.3050   0.3775   0.3974   0.4004   0.4114   0.4671
     0.5586   0.6508   0.6942   0.7095   0.7780   0.7918   0.9289   0.9423
     1.0492   1.0906   1.0988   1.1594   1.2802   1.5628   1.5975   1.6368
     2.7559   3.0229   3.1503   3.3071   3.4547   3.5509   3.8422   3.8884
     3.9272   3.9502   3.9930

[...]

          k = 0.0380-0.0419 0.0000 ( 17876 PWs)   bands (ev):

[...]

          k =-0.0760-0.0000 0.0000 ( 17886 PWs)   bands (ev):

[...]

          k =-0.0760-0.0839 0.0000 ( 17948 PWs)   bands (ev):

   -56.1867 -56.1865 -55.7732 -55.7717 -55.5846 -55.5427 -55.5059 -55.3380
   -55.3273 -55.3174 -55.1692 -55.1553 -55.0318 -55.0084 -54.9583 -54.9580
   -32.4815 -32.4813 -32.4700 -32.4699 -32.3142 -32.3136 -32.0936 -32.0900
   -31.9674 -31.9647 -31.9620 -31.9612 -31.8723 -31.8486 -31.8237 -31.8221
   -31.7851 -31.7648 -31.7642 -31.7307 -31.7226 -31.6936 -31.6718 -31.6599
   -31.6072 -31.6004 -31.5768 -31.5601 -31.5445 -31.5442 -31.5287 -31.5076
   -31.4296 -31.4091 -31.3749 -31.3715 -31.3580 -31.3031 -31.2977 -31.2976
   -31.2915 -31.2516 -31.2474 -31.2429 -31.1868 -31.1863 -31.1486 -31.1482
   -18.8058 -16.4724 -15.9057 -15.8966 -15.7702 -15.7652 -15.5908 -15.5778
   -15.5769 -15.4934 -15.4543 -15.4309 -15.2883 -15.2750 -15.2149 -15.1897
   -15.1736 -15.1504 -15.1400 -15.1074 -15.0972 -15.0453 -14.9882 -14.9808
   -14.9218 -14.9142 -14.7568 -14.6946 -14.6485 -14.5014 -14.4073 -13.4639
   -13.4634 -11.4374  -6.9064  -4.2937  -4.1899  -3.9682  -3.9315  -3.0710
    -3.0224  -2.9200  -2.8827  -2.8017  -2.7896  -2.6785  -2.6621  -2.6155
    -2.5992  -2.5908  -2.5458  -2.4995  -2.4897  -2.4673  -2.4408  -2.4256
    -2.4134  -2.3755  -2.3262  -2.3098  -2.3043  -2.2790  -2.1767  -2.1469
    -2.1342  -2.1261  -2.0994  -2.0748  -2.0325  -1.9605  -1.9276  -1.8894
    -1.8774  -1.8084  -1.7457  -1.6968  -1.6802  -1.6136  -1.5564  -1.5317
    -1.4539  -1.4071  -1.2932  -1.2807  -1.2624  -1.1996  -1.1770  -1.1229
    -1.1032  -1.0411  -0.9915  -0.9683  -0.9640  -0.9502  -0.8831  -0.8224
    -0.7127  -0.6671  -0.6510  -0.6153  -0.6113  -0.5818  -0.5476  -0.5109
    -0.4111  -0.3967  -0.3850  -0.3327  -0.3232  -0.2494  -0.1733  -0.0594
     0.0616   0.1399   0.1499   0.1697   0.2096   0.2906   0.3698   0.4105
     0.4556   0.5156   0.5580   0.5965   0.6628   0.8052   0.8563   0.8785
     0.9635   1.0006   1.0712   1.1586   1.4375   1.4483   1.4528   1.4536
     2.8078   3.5719   3.5744   3.6038   3.6147   3.7281   3.8096   3.8276
     3.9518   4.0096   4.1804

     the Fermi energy is     2.9592 ev

!    total energy              =   -2972.75302615 Ry
     estimated scf accuracy    <       0.00000006 Ry
     smearing contrib. (-TS)   =      -0.01284433 Ry
     internal energy E=F+TS    =   -2972.74018181 Ry

     The total energy is F=E-TS. E is the sum of the following terms:
     one-electron contribution =  -23539.09174605 Ry
     hartree contribution      =   11863.13272643 Ry
     xc contribution           =    -493.07589190 Ry
     ewald contribution        =    9196.29393429 Ry
     electric field correction =       0.00079542 Ry

     convergence has been achieved in  76 iterations

     Forces acting on atoms (cartesian axes, Ry/au):

     atom    1 type  1   force =     0.00008080   -0.00036810    0.10678210
     atom    2 type  1   force =    -0.00012824    0.00016115   -0.16545768
     atom    3 type  2   force =     0.00006809   -0.00044732   -0.03888736
     atom    4 type  2   force =     0.00000248    0.00016268    0.03537243
     atom    5 type  2   force =    -0.00262241   -0.00317524   -0.00913090
     atom    6 type  2   force =     0.00444223   -0.00251000   -0.00941640
     atom    7 type  1   force =    -0.00001361    0.00133379    0.03450937
     atom    8 type  1   force =     0.00023822    0.01555921    0.06080538
     atom    9 type  2   force =    -0.00018126   -0.00046590    0.00007065
     atom   10 type  2   force =    -0.00255738    0.00087719   -0.04252748
     atom   11 type  2   force =    -0.00100630    0.00036538    0.00039199
     atom   12 type  2   force =     0.00050017    0.00026362    0.00028779
     atom   13 type  1   force =     0.00045270    0.00068731   -0.00044376
     atom   14 type  1   force =     0.00026037   -0.00016274    0.00039129
     atom   15 type  2   force =     0.00023211    0.00064280    0.00009309
     atom   16 type  2   force =    -0.00009162   -0.00039111   -0.00081046
     atom   17 type  2   force =    -0.00020376    0.00020874    0.00011435
     atom   18 type  2   force =     0.00021682   -0.00005694   -0.00004001
     atom   19 type  1   force =     0.00023797   -0.00086452    0.00002174
     atom   20 type  1   force =     0.00016147    0.00020084   -0.00039888
     atom   21 type  2   force =     0.00003229    0.00013458    0.10040622
     atom   22 type  2   force =     0.00016083    0.00068569   -0.00000517
     atom   23 type  2   force =    -0.07681217   -0.00000762   -0.03011393
     atom   24 type  2   force =     0.07668080    0.00046345   -0.03015900
     atom   25 type  1   force =    -0.00008536   -0.00045225    0.10716047
     atom   26 type  1   force =    -0.00020838   -0.00130817   -0.16550915
     atom   27 type  2   force =     0.00010082   -0.00031723   -0.03717804
     atom   28 type  2   force =     0.00004636   -0.00000374    0.03054403
     atom   29 type  2   force =    -0.00566156    0.00365666   -0.00699783
     atom   30 type  2   force =     0.00729622    0.00400518   -0.00726997
     atom   31 type  1   force =    -0.00011476   -0.00228907    0.02269322
     atom   32 type  1   force =     0.00032867   -0.01776494    0.06127464
     atom   33 type  2   force =    -0.00017096    0.00019859   -0.00014361
     atom   34 type  2   force =    -0.00143650    0.00001640   -0.05424530
     atom   35 type  2   force =    -0.00001562   -0.00018350   -0.00020671
     atom   36 type  2   force =    -0.00030404    0.00004429   -0.00005283
     atom   37 type  1   force =     0.00013075   -0.00007211    0.00054179
     atom   38 type  1   force =     0.00033684    0.00003345    0.00011652
     atom   39 type  2   force =    -0.00011951    0.00028820   -0.00033537
     atom   40 type  2   force =     0.00000821    0.00031974    0.00053663
     atom   41 type  2   force =    -0.00028460    0.00022318   -0.00011178
     atom   42 type  2   force =     0.00025761    0.00000844   -0.00002077
     atom   43 type  1   force =     0.00024904    0.00010365   -0.00020828
     atom   44 type  1   force =     0.00031729    0.00017755   -0.00037742
     atom   45 type  2   force =     0.00003361    0.00013435    0.10023764
     atom   46 type  2   force =    -0.07678706    0.00003750   -0.03010019
     atom   47 type  2   force =     0.07664706    0.00047440   -0.03012090
     atom   48 type  3   force =     0.00034301    0.00081006   -0.00122844
     atom   49 type  3   force =     0.00033820   -0.00047796   -0.00037244
     atom   50 type  4   force =     0.00010929   -0.00005182   -0.00017764
     atom   51 type  5   force =    -0.00019682   -0.00055678   -0.00061389
     atom   52 type  5   force =    -0.00020177   -0.00043257   -0.00018655
     atom   53 type  5   force =     0.00019777    0.00008650   -0.00049019
     atom   54 type  2   force =     0.00193214   -0.00906190   -0.00471472
     atom   55 type  5   force =    -0.00323655    0.00905697    0.00570172

     Total force =     0.381060     Total SCF correction =     0.000739
  @ DRIVER MODE: Message from server: STATUS
  @ DRIVER MODE: Message from server: GETFORCE
  @ DRIVER MODE: Returning v,forces,stress,ensemble

     Writing output data file ./calc.save/
  @ DRIVER MODE: Message from server: EXIT
  @ DRIVE MODE: Exiting

     General routines

     Parallel routines

   This run was terminated on:  17:47: 5  23Sep2021

   JOB DONE.