     Program PWSCF v.6.7GPU starts on 22Sep2021 at 17:16:46

     R & G space division:  proc/nbgrp/npool/nimage =      10
     Reading input from /storage/home/hcoda1/3/ntian30/research/carbon/CxH_vib/H2O_calc/ads_slab/CH2NHO_a/out_0003/pw.inp
Warning: card &CELL ignored
Warning: card   CELL_DYNAMICS='IPI', ignored
Warning: card / ignored

     Current dimensions of program PWSCF are:
     Max number of different atomic species (ntypx) = 10
     Max number of k-points (npk) =  40000
     Max angular momentum in pseudopotentials (lmaxx) =  3
     Presently no symmetry can be used with electric field

     Message from routine cell_base_init:
     DEPRECATED: use true lattice parameter, not A to a.u. conversion factor

     IMPORTANT: XC functional enforced from input :
     Exchange-correlation= BEEF-VDW
                           (   1   4  43  14   2   0   0)
     Any further DFT definition will be discarded
     Please, verify this is what you really want

  @ DRIVER MODE: Connecting to
 qe_1139763_2937321.sched-torque.pace.gatech.edu51pe6luj_scratch
  using UNIX socket
  @ DRIVER MODE: Message from server: STATUS
  @ DRIVER MODE: Message from server: INIT
  @ DRIVER MODE: Receiving replica           0          -1
  @ DRIVER MODE: Receiving encoded integer          25
  @ DRIVER MODE:  SCF:  T  FORCE:  T  STRESS:  F  VC:  F  ENSEMBLE:  F
  @ DRIVER MODE:  SCF:  T  FORCE:  T  STRESS:  F  VC:  F  ENSEMBLE:  F

     Using Slab Decomposition

     bravais-lattice index     =            0
     lattice parameter (alat)  =       1.8897  a.u.
     unit-cell volume          =    6658.9804 (a.u.)^3
     number of atoms/cell      =           53
     number of atomic types    =            5
     number of electrons       =       396.00
     number of Kohn-Sham states=          208
     kinetic-energy cutoff     =      29.3995  Ry
     charge density cutoff     =     293.9946  Ry
     scf convergence threshold =      7.3E-08
     mixing beta               =       0.0500
     number of iterations used =            8  plain     mixing
     Exchange-correlation= BEEF-VDW
                           (   1   4  43  14   2   0   0)

     celldm(1)=   1.889726  celldm(2)=   0.000000  celldm(3)=   0.000000
     celldm(4)=   0.000000  celldm(5)=   0.000000  celldm(6)=   0.000000

     crystal axes: (cart. coord. in units of alat)
               a(1) = (   6.579727   0.000000   0.000000 )
               a(2) = (  -0.000775   5.961596   0.000000 )
               a(3) = (   0.000000   0.000000  25.155947 )

     reciprocal axes: (cart. coord. in units 2 pi/alat)
               b(1) = (  0.151982  0.000020  0.000000 )
               b(2) = (  0.000000  0.167740  0.000000 )
               b(3) = (  0.000000  0.000000  0.039752 )

     PseudoPot. # 1 for Ti read from file:
     /storage/coda1/p-amedford6/0/shared/rich_project_chbe-medford/medford-share/data/pseudos_module/espresso/nninc/pbe/van/Ti.UPF
     MD5 check sum: 8e4df49b7f0d34bbd5052bf3f5ea0213
     Pseudo is Ultrasoft, Zval = 12.0
     Generated by new atomic code, or converted to UPF format
     Using radial grid of  851 points,  6 beta functions with:
                l(1) =   0
                l(2) =   0
                l(3) =   1
                l(4) =   1
                l(5) =   2
                l(6) =   2
     Q(r) pseudized with  8 coefficients,  rinner =    1.000   1.000   1.000
                                                       1.000   1.000

     PseudoPot. # 2 for O  read from file:
     /storage/coda1/p-amedford6/0/shared/rich_project_chbe-medford/medford-share/data/pseudos_module/espresso/nninc/pbe/van/O.UPF
     MD5 check sum: 78c19812648e8988a0fe644b0f25305e
     Pseudo is Ultrasoft, Zval =  6.0
     Generated by new atomic code, or converted to UPF format
     Using radial grid of  737 points,  4 beta functions with:
                l(1) =   0
                l(2) =   0
                l(3) =   1
                l(4) =   1
     Q(r) pseudized with  8 coefficients,  rinner =    0.800   0.800   0.800

     PseudoPot. # 3 for N  read from file:
     /storage/coda1/p-amedford6/0/shared/rich_project_chbe-medford/medford-share/data/pseudos_module/espresso/nninc/pbe/van/N.UPF
     MD5 check sum: 90d10febe142ad51ac9d5be1deb811c4
     Pseudo is Ultrasoft, Zval =  5.0
     Generated by new atomic code, or converted to UPF format
     Using radial grid of  729 points,  4 beta functions with:
                l(1) =   0
                l(2) =   0
                l(3) =   1
                l(4) =   1
     Q(r) pseudized with  8 coefficients,  rinner =    0.800   0.800   0.800

     PseudoPot. # 4 for C  read from file:
     /storage/coda1/p-amedford6/0/shared/rich_project_chbe-medford/medford-share/data/pseudos_module/espresso/nninc/pbe/van/C.UPF
     MD5 check sum: 1a69bf6b8db32088f5b2163dbdb77a27
     Pseudo is Ultrasoft, Zval =  4.0
     Generated by new atomic code, or converted to UPF format
     Using radial grid of  721 points,  4 beta functions with:
                l(1) =   0
                l(2) =   0
                l(3) =   1
                l(4) =   1
     Q(r) pseudized with  8 coefficients,  rinner =    0.800   0.800   0.800

     PseudoPot. # 5 for H  read from file:
     /storage/coda1/p-amedford6/0/shared/rich_project_chbe-medford/medford-share/data/pseudos_module/espresso/nninc/pbe/van/H.UPF
     MD5 check sum: b5ee9d7bfd3a09ee7748110bda690ff7
     Pseudo is Ultrasoft, Zval =  1.0
     Generated by new atomic code, or converted to UPF format
     Using radial grid of  615 points,  1 beta functions with:
                l(1) =   0
     Q(r) pseudized with  8 coefficients,  rinner =    0.800

     atomic species   valence    mass     pseudopotential
        Ti1           12.00    47.86700     Ti( 1.00)
        O1             6.00    15.99900     O ( 1.00)
        N1             5.00    14.00700     N ( 1.00)
        C1             4.00    12.01100     C ( 1.00)
        H1             1.00     1.00800     H ( 1.00)

     No symmetry found

   Cartesian axes

     site n.     atom                  positions (alat units)
         1           Ti1 tau(   1) = (   0.0004258   2.9801865   6.0000000  )
         2           Ti1 tau(   2) = (   3.2906075   1.4906267   6.0002472  )
         3           O1  tau(   3) = (   0.0006271   0.0005054   7.9858123  )
         4           O1  tau(   4) = (   3.2906025   0.0005020   7.3038282  )
         5           O1  tau(   5) = (   4.5942328   1.4918067   9.2879030  )
         6           O1  tau(   6) = (   1.9868534   1.4903216   9.2879459  )
         7           Ti1 tau(   7) = (   3.2907910   2.8959150   9.1758416  )
         8           Ti1 tau(   8) = (   0.0015273   1.4827037   9.2680791  )
         9           O1  tau(   9) = (   3.3049783   5.9490022  11.2668993  )
        10           O1  tau(  10) = (   0.0116148   5.9584955  10.6183126  )
        11           O1  tau(  11) = (   1.3054562   1.4902858  12.6165390  )
        12           O1  tau(  12) = (   5.3128925   1.4966897  12.6222362  )
        13           Ti1 tau(  13) = (   0.0227526   2.8513963  12.7011302  )
        14           Ti1 tau(  14) = (   3.3146314   1.3157910  12.6511296  )
        15           O1  tau(  15) = (   0.0292331   0.0037381  14.6451560  )
        16           O1  tau(  16) = (   3.3105559   0.0332628  13.8611824  )
        17           O1  tau(  17) = (   4.5798417   1.5533887  16.0574704  )
        18           O1  tau(  18) = (   2.0659959   1.5620864  16.0379710  )
        19           Ti1 tau(  19) = (   3.3199680   3.0150018  15.6455324  )
        20           Ti1 tau(  20) = (   6.5662113   1.5085715  15.8767718  )
        21           O1  tau(  21) = (   3.2904802   0.0005063   4.7018136  )
        22           O1  tau(  22) = (   0.0336757   0.0283057  17.1922241  )
        23           O1  tau(  23) = (   1.3043587   1.4918075   6.0039043  )
        24           O1  tau(  24) = (   5.2767064   1.4903225   6.0039473  )
        25           Ti1 tau(  25) = (   0.0000382   5.9609847   6.0000000  )
        26           Ti1 tau(  26) = (   3.2902200   4.4714249   6.0002472  )
        27           O1  tau(  27) = (   0.0002396   2.9813036   7.9858123  )
        28           O1  tau(  28) = (   3.2902150   2.9813002   7.3038282  )
        29           O1  tau(  29) = (   4.5938453   4.4726049   9.2879030  )
        30           O1  tau(  30) = (   1.9864658   4.4711199   9.2879459  )
        31           Ti1 tau(  31) = (   3.2891106   5.8743827   9.1763621  )
        32           Ti1 tau(  32) = (   0.0006254   4.4649316   9.2693709  )
        33           O1  tau(  33) = (   3.3044035   3.0314990  11.2389097  )
        34           O1  tau(  34) = (   0.0092240   2.9805883  10.6323155  )
        35           O1  tau(  35) = (   1.3090660   4.4724101  12.6204063  )
        36           O1  tau(  36) = (   5.3093727   4.4739031  12.6240458  )
        37           Ti1 tau(  37) = (   0.0315986   5.8296340  12.6341251  )
        38           Ti1 tau(  38) = (   3.3217628   4.4127071  12.4104736  )
        39           O1  tau(  39) = (   0.0286309   2.9529265  14.6620113  )
        40           O1  tau(  40) = (   3.3111648   2.9942334  13.8608864  )
        41           O1  tau(  41) = (   4.5850423   4.4544105  16.0703757  )
        42           O1  tau(  42) = (   2.0817017   4.4739285  16.0881885  )
        43           Ti1 tau(  43) = (   3.2564312   0.0343949  16.3346327  )
        44           Ti1 tau(  44) = (   6.5491996   4.6347227  16.0815441  )
        45           O1  tau(  45) = (   3.2900926   2.9813045   4.7018136  )
        46           O1  tau(  46) = (   1.3039711   4.4726057   6.0039043  )
        47           O1  tau(  47) = (   5.2763189   4.4711207   6.0039473  )
        48           N1  tau(  48) = (   0.0476609   2.9508057  17.4046342  )
        49           C1  tau(  49) = (   0.0744360   2.8714357  18.6596517  )
        50           H1  tau(  50) = (   0.0810575   3.7616739  19.3027278  )
        51           H1  tau(  51) = (   0.0872865   1.8968143  19.1621030  )
        52           O1  tau(  52) = (   3.2917830   0.0572188  18.1605702  )
        53           H1  tau(  53) = (   2.8914424   5.3141097  18.6896264  )

     number of k points=    10  Fermi-Dirac smearing, width (Ry)=  0.0073
                       cart. coord. in units 2pi/alat
        k(    1) = (   0.0000000   0.0000000   0.0000000), wk =   0.1250000
        k(    2) = (   0.0000000   0.0419351   0.0000000), wk =   0.2500000
        k(    3) = (   0.0000000  -0.0838702   0.0000000), wk =   0.1250000
        k(    4) = (   0.0379955   0.0000049   0.0000000), wk =   0.2500000
        k(    5) = (   0.0379955   0.0419400   0.0000000), wk =   0.2500000
        k(    6) = (   0.0379955  -0.0838652   0.0000000), wk =   0.2500000
        k(    7) = (   0.0379955  -0.0419301   0.0000000), wk =   0.2500000
        k(    8) = (  -0.0759910  -0.0000099   0.0000000), wk =   0.1250000
        k(    9) = (  -0.0759910   0.0419252   0.0000000), wk =   0.2500000
        k(   10) = (  -0.0759910  -0.0838800   0.0000000), wk =   0.1250000

     Initial potential from superposition of free atoms

     starting charge  379.99917, renormalised to  396.00000

     negative rho (up, down):  1.694E-02 0.000E+00

     %%%%%%%%%%%%%%%%%%%%%%%%%%%%%%%%%%%%%%%%%%%%%%%%%%%%%%%%%%%%%%%%%%%%%%%%
     %                                                                      %
     % You are using vdW-DF, which was implemented by the Thonhauser group. %
     % Please cite the following two papers that made this development      %
     % possible and the two reviews that describe the various versions:     %
     %                                                                      %
     %   T. Thonhauser et al., PRL 115, 136402 (2015).                      %
     %   T. Thonhauser et al., PRB 76, 125112 (2007).                       %
     %   K. Berland et al., Rep. Prog. Phys. 78, 066501 (2015).             %
     %   D.C. Langreth et al., J. Phys.: Condens. Matter 21, 084203 (2009). %
     %                                                                      %
     %                                                                      %
     % If you are calculating the stress with vdW-DF, please also cite:     %
     %                                                                      %
     %   R. Sabatini et al., J. Phys.: Condens. Matter 24, 424209 (2012).   %
     %                                                                      %
     %%%%%%%%%%%%%%%%%%%%%%%%%%%%%%%%%%%%%%%%%%%%%%%%%%%%%%%%%%%%%%%%%%%%%%%%

     Adding external electric field

     Computed dipole along edir(3) :
        Dipole               -7.7051 Ry au,        -19.5845 Debye
        Dipole field         -0.0145 Ry au,

        Potential amp.        1.3479 Ry
        Total length         46.3494 bohr

     Starting wfcs are  299 atomic wfcs
  @ DRIVER MODE: Message from server: STATUS
  @ DRIVER MODE: Message from server: POSDATA
  @ DRIVER MODE: Reading and sharing cell
  @ DRIVER MODE: Reading and sharing positions
  @ DRIVER MODE: Received positions

     Self-consistent Calculation

     iteration #  1     ecut=    29.40 Ry     beta= 0.05
     Davidson diagonalization with overlap
     c_bands:  1 eigenvalues not converged
     c_bands:  4 eigenvalues not converged
     c_bands:  2 eigenvalues not converged
     c_bands:  3 eigenvalues not converged
     c_bands:  2 eigenvalues not converged
     c_bands:  3 eigenvalues not converged
     c_bands:  2 eigenvalues not converged
     ethr =  1.00E-05,  avg # of iterations = 19.5

[...]

     total energy              =   -2658.46921259 Ry
     estimated scf accuracy    <    3232.54131582 Ry

[...]

     iteration #  3     ecut=    29.40 Ry     beta= 0.05
     Davidson diagonalization with overlap
     ethr =  1.00E-02,  avg # of iterations = 14.4

[...]

     iteration # 42     ecut=    29.40 Ry     beta= 0.05
     Davidson diagonalization with overlap
     c_bands:  1 eigenvalues not converged
     c_bands:  1 eigenvalues not converged
     c_bands:  1 eigenvalues not converged
     ethr =  3.10E-06,  avg # of iterations = 11.3

[...]

     total energy              =   -2951.50538709 Ry
     estimated scf accuracy    <       0.00000008 Ry

     iteration # 70     ecut=    29.40 Ry     beta= 0.05
     Davidson diagonalization with overlap
     ethr =  1.97E-11,  avg # of iterations =  2.4

     negative rho (up, down):  1.700E-02 0.000E+00

     Adding external electric field

     Computed dipole along edir(3) :
        Dipole                0.3635 Ry au,          0.9240 Debye
        Dipole field          0.0007 Ry au,

        Potential amp.       -0.0636 Ry
        Total length         46.3494 bohr

     End of self-consistent calculation

          k = 0.0000 0.0000 0.0000 ( 18029 PWs)   bands (ev):

   -56.8873 -56.8537 -56.0102 -55.9743 -55.7620 -55.6980 -55.5441 -55.4454
   -55.4115 -55.3923 -55.3291 -55.3047 -55.2762 -55.2521 -55.0752 -55.0162
   -33.3073 -33.1606 -33.1325 -33.0647 -32.9744 -32.9342 -32.4933 -32.2395
   -32.2306 -32.2022 -32.1503 -32.1479 -32.1214 -31.9950 -31.9800 -31.9310
   -31.9024 -31.8926 -31.8695 -31.8616 -31.8247 -31.7923 -31.7921 -31.7676
   -31.7641 -31.7597 -31.7152 -31.6903 -31.6590 -31.6500 -31.5936 -31.5694
   -31.5454 -31.5285 -31.5239 -31.5196 -31.5010 -31.4812 -31.4703 -31.4676
   -31.4578 -31.4227 -31.3379 -31.3165 -31.2817 -31.2763 -31.2565 -31.2172
   -16.9990 -16.4619 -16.4519 -16.2088 -16.1010 -16.0863 -16.0588 -15.9844
   -15.7999 -15.7286 -15.7010 -15.6504 -15.5260 -15.4030 -15.3064 -15.1593
   -15.0746 -15.0299 -15.0285 -15.0116 -14.9754 -14.9616 -14.9397 -14.8766
   -14.8562 -14.7855 -14.6480 -14.6168 -14.6022 -14.3324 -14.3234 -13.9430
   -13.8358  -7.2039  -4.5713  -4.1487  -3.9772  -3.9316  -3.7663  -3.5945
    -3.5819  -3.4436  -3.4104  -3.2687  -3.2646  -3.2503  -3.1655  -3.1504
    -3.0304  -2.9633  -2.9488  -2.8476  -2.8067  -2.6550  -2.6166  -2.5267
    -2.4741  -2.4535  -2.3905  -2.3408  -2.3142  -2.2904  -2.2651  -2.2087
    -2.1887  -2.1545  -2.0894  -2.0525  -1.9700  -1.9284  -1.9173  -1.9115
    -1.7974  -1.7709  -1.7304  -1.5900  -1.5330  -1.5142  -1.4922  -1.4391
    -1.3798  -1.3573  -1.3036  -1.2052  -1.1286  -1.1134  -1.0457  -1.0286
    -1.0158  -0.8910  -0.8366  -0.7444  -0.7357  -0.7202  -0.6527  -0.5945
    -0.5565  -0.4720  -0.3969  -0.3870  -0.3740  -0.3375  -0.3141  -0.2563
    -0.1466  -0.1037  -0.0561   0.0171   0.0385   0.1269   0.2216   0.2561
     0.2696   0.3142   0.3439   0.3643   0.4218   0.4860   0.4994   0.5687
     0.5760   0.5811   0.6657   0.7568   0.7948   0.8456   0.8696   0.8807
     1.0029   1.0888   1.1128   1.1580   1.5273   1.7477   2.4037   2.5732
     2.8493   3.0040   3.3273   3.3900   3.4031   3.4062   3.6739   3.8030

[...]

          k = 0.0380-0.0419 0.0000 ( 17876 PWs)   bands (ev):

[...]

          k =-0.0760-0.0000 0.0000 ( 17886 PWs)   bands (ev):

[...]

          k =-0.0760-0.0839 0.0000 ( 17948 PWs)   bands (ev):

   -56.8711 -56.8698 -55.9985 -55.9857 -55.7571 -55.7028 -55.5432 -55.4290
   -55.4277 -55.3887 -55.3297 -55.3080 -55.2748 -55.2509 -55.0765 -55.0173
   -33.1470 -33.1456 -33.1251 -33.1238 -33.0186 -33.0176 -32.3188 -32.3079
   -32.1931 -32.1807 -32.1802 -32.1720 -32.0626 -32.0198 -31.9882 -31.9770
   -31.9301 -31.9256 -31.8385 -31.7904 -31.7812 -31.7802 -31.7466 -31.7194
   -31.6986 -31.6507 -31.6492 -31.6484 -31.6465 -31.6326 -31.6151 -31.6105
   -31.6094 -31.6079 -31.5854 -31.5443 -31.5372 -31.5172 -31.5044 -31.4792
   -31.4761 -31.4238 -31.4206 -31.3472 -31.3396 -31.2857 -31.2587 -31.2383
   -16.4462 -16.3618 -16.3596 -16.3093 -16.3078 -16.0589 -16.0539 -15.8031
   -15.7721 -15.5877 -15.5111 -15.4790 -15.4290 -15.3880 -15.3533 -15.2510
   -15.2385 -15.1421 -15.1128 -15.1035 -15.0568 -15.0125 -14.9696 -14.9400
   -14.9008 -14.8099 -14.7498 -14.7155 -14.6208 -14.5160 -14.4665 -13.9404
   -13.9398  -7.1990  -4.1472  -3.9676  -3.4304  -3.4257  -3.4156  -3.4075
    -3.3551  -3.1836  -3.1759  -2.9900  -2.9624  -2.9600  -2.8891  -2.8826
    -2.7757  -2.7106  -2.7048  -2.7036  -2.6690  -2.6419  -2.6357  -2.5787
    -2.4706  -2.4211  -2.3956  -2.3737  -2.3447  -2.3162  -2.2621  -2.1728
    -2.1653  -2.1557  -2.1255  -2.1060  -2.0800  -2.0747  -1.9368  -1.8354
    -1.7633  -1.7149  -1.7052  -1.6902  -1.6633  -1.6280  -1.5971  -1.5838
    -1.5373  -1.4789  -1.4535  -1.3976  -1.3489  -1.2999  -1.2186  -1.1575
    -1.0911  -1.0689  -0.9361  -0.9209  -0.9014  -0.8623  -0.8293  -0.8202
    -0.7454  -0.6719  -0.6134  -0.5977  -0.5362  -0.5128  -0.4799  -0.4407
    -0.4324  -0.3773  -0.3520  -0.3052  -0.2905  -0.1694  -0.0863   0.0368
     0.0677   0.0853   0.1432   0.1757   0.3127   0.3219   0.3721   0.4868
     0.5231   0.6641   0.6841   0.7852   0.8338   0.8966   0.9526   0.9563
     0.9568   0.9830   1.0175   1.0381   1.1148   1.6886   2.9939   2.9968
     3.0538   3.0595   3.3663   3.3704   3.4749   3.4806   3.7852   3.7918

     the Fermi energy is     2.1407 ev

!    total energy              =   -2951.50540769 Ry
     estimated scf accuracy    <       0.00000005 Ry
     smearing contrib. (-TS)   =      -0.00231570 Ry
     internal energy E=F+TS    =   -2951.50309199 Ry

     The total energy is F=E-TS. E is the sum of the following terms:
     one-electron contribution =  -24181.79785419 Ry
     hartree contribution      =   12180.39936050 Ry
     xc contribution           =    -487.03950480 Ry
     ewald contribution        =    9536.93465712 Ry
     electric field correction =       0.00024938 Ry

     convergence has been achieved in  70 iterations

     Forces acting on atoms (cartesian axes, Ry/au):

     atom    1 type  1   force =     0.00001263   -0.00050291    0.12461031
     atom    2 type  1   force =    -0.00009403    0.00034443   -0.15485780
     atom    3 type  2   force =     0.00004685   -0.00012370   -0.06540283
     atom    4 type  2   force =     0.00007357    0.00024052    0.01703988
     atom    5 type  2   force =    -0.00338639   -0.00145308   -0.01348547
     atom    6 type  2   force =     0.00542507   -0.00094355   -0.01320053
     atom    7 type  1   force =     0.00029679   -0.00647637    0.05891040
     atom    8 type  1   force =     0.00011495    0.00856369    0.09586508
     atom    9 type  2   force =     0.00026657   -0.00011076    0.00024164
     atom   10 type  2   force =    -0.00166787    0.00092950   -0.05965602
     atom   11 type  2   force =     0.00080757   -0.00036423   -0.00034087
     atom   12 type  2   force =    -0.00103785   -0.00075908   -0.00008664
     atom   13 type  1   force =    -0.00020480   -0.00073501    0.00021056
     atom   14 type  1   force =     0.00003927   -0.00064949   -0.00012275
     atom   15 type  2   force =     0.00004926   -0.00108381    0.00016017
     atom   16 type  2   force =    -0.00008680    0.00000197   -0.00042801
     atom   17 type  2   force =     0.00002416   -0.00016699   -0.00023120
     atom   18 type  2   force =    -0.00018087   -0.00025745   -0.00024861
     atom   19 type  1   force =    -0.00019179   -0.00156270    0.00008813
     atom   20 type  1   force =    -0.00018010   -0.00013677   -0.00058132
     atom   21 type  2   force =     0.00002391    0.00021600    0.09783667
     atom   22 type  2   force =    -0.00027199   -0.00167149    0.00029552
     atom   23 type  2   force =    -0.08253320    0.00005508   -0.03294962
     atom   24 type  2   force =     0.08241957    0.00049440   -0.03300317
     atom   25 type  1   force =     0.00003026   -0.00058073    0.12483083
     atom   26 type  1   force =    -0.00019157   -0.00147028   -0.15524169
     atom   27 type  2   force =     0.00011567   -0.00079953   -0.06371565
     atom   28 type  2   force =     0.00005564    0.00198755    0.01249710
     atom   29 type  2   force =    -0.00156248    0.00507912   -0.01680140
     atom   30 type  2   force =     0.00370921    0.00540183   -0.01641254
     atom   31 type  1   force =     0.00000602    0.00179399    0.04179172
     atom   32 type  1   force =     0.00011438   -0.01184254    0.09593905
     atom   33 type  2   force =     0.00001413   -0.00023198   -0.00029380
     atom   34 type  2   force =    -0.00105247    0.00154446   -0.07419684
     atom   35 type  2   force =    -0.00040433    0.00019451    0.00008230
     atom   36 type  2   force =     0.00111489    0.00045428    0.00015460
     atom   37 type  1   force =    -0.00029971    0.00057160    0.00023190
     atom   38 type  1   force =     0.00020659   -0.00054390    0.00002834
     atom   39 type  2   force =     0.00016981    0.00042828   -0.00016412
     atom   40 type  2   force =    -0.00005012   -0.00048602   -0.00057756
     atom   41 type  2   force =     0.00067999    0.00005773   -0.00009535
     atom   42 type  2   force =    -0.00095220   -0.00015868    0.00020724
     atom   43 type  1   force =     0.00003144    0.00125572   -0.00069456
     atom   44 type  1   force =     0.00005736   -0.00020686   -0.00038253
     atom   45 type  2   force =     0.00003912    0.00001754    0.09766114
     atom   46 type  2   force =    -0.08259374    0.00001315   -0.03295738
     atom   47 type  2   force =     0.08247057    0.00044402   -0.03301052
     atom   48 type  3   force =    -0.00022716    0.00499360   -0.00124708
     atom   49 type  4   force =    -0.00010298   -0.00321210    0.00145739
     atom   50 type  5   force =    -0.00013635    0.00037730   -0.00113963
     atom   51 type  5   force =    -0.00009555    0.00021227    0.00134627
     atom   52 type  2   force =     0.00013844    0.00053514    0.00014025
     atom   53 type  5   force =    -0.00104934    0.00032229   -0.00010101

     Total force =     0.415570     Total SCF correction =     0.000565
  @ DRIVER MODE: Message from server: STATUS
  @ DRIVER MODE: Message from server: GETFORCE
  @ DRIVER MODE: Returning v,forces,stress,ensemble

     Writing output data file ./calc.save/
  @ DRIVER MODE: Message from server: EXIT
  @ DRIVE MODE: Exiting

     General routines

     Parallel routines

   This run was terminated on:  17:35:30  22Sep2021

   JOB DONE.