     Program PWSCF v.6.7GPU starts on 26Sep2021 at  8: 8: 2

     R & G space division:  proc/nbgrp/npool/nimage =       8
     Reading input from /storage/home/hcoda1/3/ntian30/research/carbon/CxH_vib/H2O_calc/ads_slab/CH3OHN2HO_a/out_0031/pw.inp
Warning: card &CELL ignored
Warning: card   CELL_DYNAMICS='IPI', ignored
Warning: card / ignored

     Current dimensions of program PWSCF are:
     Max number of different atomic species (ntypx) = 10
     Max number of k-points (npk) =  40000
     Max angular momentum in pseudopotentials (lmaxx) =  3
     Presently no symmetry can be used with electric field

     Message from routine cell_base_init:
     DEPRECATED: use true lattice parameter, not A to a.u. conversion factor

     IMPORTANT: XC functional enforced from input :
     Exchange-correlation= BEEF-VDW
                           (   1   4  43  14   2   0   0)
     Any further DFT definition will be discarded
     Please, verify this is what you really want

  @ DRIVER MODE: Connecting to
 qe_1139763_2971668.sched-torque.pace.gatech.edup045tea1_scratch
  using UNIX socket
  @ DRIVER MODE: Message from server: STATUS
  @ DRIVER MODE: Message from server: INIT
  @ DRIVER MODE: Receiving replica           0          -1
  @ DRIVER MODE: Receiving encoded integer          25
  @ DRIVER MODE:  SCF:  T  FORCE:  T  STRESS:  F  VC:  F  ENSEMBLE:  F
  @ DRIVER MODE:  SCF:  T  FORCE:  T  STRESS:  F  VC:  F  ENSEMBLE:  F

     Using Slab Decomposition

     bravais-lattice index     =            0
     lattice parameter (alat)  =       1.8897  a.u.
     unit-cell volume          =    6658.9804 (a.u.)^3
     number of atoms/cell      =           57
     number of atomic types    =            5
     number of electrons       =       409.00
     number of Kohn-Sham states=          214
     kinetic-energy cutoff     =      29.3995  Ry
     charge density cutoff     =     293.9946  Ry
     scf convergence threshold =      7.3E-08
     mixing beta               =       0.0500
     number of iterations used =            8  plain     mixing
     Exchange-correlation= BEEF-VDW
                           (   1   4  43  14   2   0   0)

     celldm(1)=   1.889726  celldm(2)=   0.000000  celldm(3)=   0.000000
     celldm(4)=   0.000000  celldm(5)=   0.000000  celldm(6)=   0.000000

     crystal axes: (cart. coord. in units of alat)
               a(1) = (   6.579727   0.000000   0.000000 )
               a(2) = (  -0.000775   5.961596   0.000000 )
               a(3) = (   0.000000   0.000000  25.155947 )

     reciprocal axes: (cart. coord. in units 2 pi/alat)
               b(1) = (  0.151982  0.000020  0.000000 )
               b(2) = (  0.000000  0.167740  0.000000 )
               b(3) = (  0.000000  0.000000  0.039752 )

     PseudoPot. # 1 for Ti read from file:
     /storage/coda1/p-amedford6/0/shared/rich_project_chbe-medford/medford-share/data/pseudos_module/espresso/nninc/pbe/van/Ti.UPF
     MD5 check sum: 8e4df49b7f0d34bbd5052bf3f5ea0213
     Pseudo is Ultrasoft, Zval = 12.0
     Generated by new atomic code, or converted to UPF format
     Using radial grid of  851 points,  6 beta functions with:
                l(1) =   0
                l(2) =   0
                l(3) =   1
                l(4) =   1
                l(5) =   2
                l(6) =   2
     Q(r) pseudized with  8 coefficients,  rinner =    1.000   1.000   1.000
                                                       1.000   1.000

     PseudoPot. # 2 for O  read from file:
     /storage/coda1/p-amedford6/0/shared/rich_project_chbe-medford/medford-share/data/pseudos_module/espresso/nninc/pbe/van/O.UPF
     MD5 check sum: 78c19812648e8988a0fe644b0f25305e
     Pseudo is Ultrasoft, Zval =  6.0
     Generated by new atomic code, or converted to UPF format
     Using radial grid of  737 points,  4 beta functions with:
                l(1) =   0
                l(2) =   0
                l(3) =   1
                l(4) =   1
     Q(r) pseudized with  8 coefficients,  rinner =    0.800   0.800   0.800

     PseudoPot. # 3 for C  read from file:
     /storage/coda1/p-amedford6/0/shared/rich_project_chbe-medford/medford-share/data/pseudos_module/espresso/nninc/pbe/van/C.UPF
     MD5 check sum: 1a69bf6b8db32088f5b2163dbdb77a27
     Pseudo is Ultrasoft, Zval =  4.0
     Generated by new atomic code, or converted to UPF format
     Using radial grid of  721 points,  4 beta functions with:
                l(1) =   0
                l(2) =   0
                l(3) =   1
                l(4) =   1
     Q(r) pseudized with  8 coefficients,  rinner =    0.800   0.800   0.800

     PseudoPot. # 4 for H  read from file:
     /storage/coda1/p-amedford6/0/shared/rich_project_chbe-medford/medford-share/data/pseudos_module/espresso/nninc/pbe/van/H.UPF
     MD5 check sum: b5ee9d7bfd3a09ee7748110bda690ff7
     Pseudo is Ultrasoft, Zval =  1.0
     Generated by new atomic code, or converted to UPF format
     Using radial grid of  615 points,  1 beta functions with:
                l(1) =   0
     Q(r) pseudized with  8 coefficients,  rinner =    0.800

     PseudoPot. # 5 for N  read from file:
     /storage/coda1/p-amedford6/0/shared/rich_project_chbe-medford/medford-share/data/pseudos_module/espresso/nninc/pbe/van/N.UPF
     MD5 check sum: 90d10febe142ad51ac9d5be1deb811c4
     Pseudo is Ultrasoft, Zval =  5.0
     Generated by new atomic code, or converted to UPF format
     Using radial grid of  729 points,  4 beta functions with:
                l(1) =   0
                l(2) =   0
                l(3) =   1
                l(4) =   1
     Q(r) pseudized with  8 coefficients,  rinner =    0.800   0.800   0.800

     atomic species   valence    mass     pseudopotential
        Ti1           12.00    47.86700     Ti( 1.00)
        O1             6.00    15.99900     O ( 1.00)
        C1             4.00    12.01100     C ( 1.00)
        H1             1.00     1.00800     H ( 1.00)
        N1             5.00    14.00700     N ( 1.00)

     No symmetry found

   Cartesian axes

     site n.     atom                  positions (alat units)
         1           Ti1 tau(   1) = (   0.0004258   2.9801865   6.0000000  )
         2           Ti1 tau(   2) = (   3.2906075   1.4906267   6.0002472  )
         3           O1  tau(   3) = (   0.0006271   0.0005054   7.9858123  )
         4           O1  tau(   4) = (   3.2906025   0.0005020   7.3038282  )
         5           O1  tau(   5) = (   4.5942328   1.4918067   9.2879030  )
         6           O1  tau(   6) = (   1.9868534   1.4903216   9.2879459  )
         7           Ti1 tau(   7) = (   3.3371032   3.0268772   9.1887580  )
         8           Ti1 tau(   8) = (   0.0611061   1.5258697   9.2809523  )
         9           O1  tau(   9) = (   3.3143856   0.0188946  11.3581724  )
        10           O1  tau(  10) = (   0.0164151   0.0031400  10.5895864  )
        11           O1  tau(  11) = (   1.3088961   1.4994640  12.6347600  )
        12           O1  tau(  12) = (   5.3347766   1.4946156  12.6347356  )
        13           Ti1 tau(  13) = (   0.0202478   3.0292801  12.5720800  )
        14           Ti1 tau(  14) = (   3.3188568   1.5851219  12.4260843  )
        15           O1  tau(  15) = (   0.0445434   5.9450813  14.6510506  )
        16           O1  tau(  16) = (   3.3207065   5.8849141  14.0104376  )
        17           O1  tau(  17) = (   4.6249962   1.5116716  16.1313945  )
        18           O1  tau(  18) = (   2.0639035   1.5439872  16.0680944  )
        19           Ti1 tau(  19) = (   3.3360141   2.9454253  15.6763505  )
        20           Ti1 tau(  20) = (   0.0686920   1.3314864  15.9334539  )
        21           O1  tau(  21) = (   3.2904802   0.0005063   4.7018136  )
        22           O1  tau(  22) = (   0.0979609   0.0039778  17.1657837  )
        23           O1  tau(  23) = (   1.3043587   1.4918075   6.0039043  )
        24           O1  tau(  24) = (   5.2767064   1.4903225   6.0039473  )
        25           Ti1 tau(  25) = (   0.0000382   5.9609847   6.0000000  )
        26           Ti1 tau(  26) = (   3.2902200   4.4714249   6.0002472  )
        27           O1  tau(  27) = (   0.0002396   2.9813036   7.9858123  )
        28           O1  tau(  28) = (   3.2902150   2.9813002   7.3038282  )
        29           O1  tau(  29) = (   4.5938453   4.4726049   9.2879030  )
        30           O1  tau(  30) = (   1.9864658   4.4711199   9.2879459  )
        31           Ti1 tau(  31) = (   3.3368545   0.0404040   9.1664313  )
        32           Ti1 tau(  32) = (   0.0604674   4.4799263   9.2696248  )
        33           O1  tau(  33) = (   3.3137611   2.9662427  11.3084074  )
        34           O1  tau(  34) = (   0.0134136   2.9850836  10.6046154  )
        35           O1  tau(  35) = (   1.3054726   4.4719986  12.6384794  )
        36           O1  tau(  36) = (   5.3362180   4.4781181  12.6390536  )
        37           Ti1 tau(  37) = (   0.0365240   0.0487139  12.4702884  )
        38           Ti1 tau(  38) = (   3.3180881   4.6653017  12.7087268  )
        39           O1  tau(  39) = (   0.0228105   2.9918545  14.7761892  )
        40           O1  tau(  40) = (   3.3431522   2.9700269  13.9040455  )
        41           O1  tau(  41) = (   4.6265974   4.4152401  16.1544535  )
        42           O1  tau(  42) = (   2.0571238   4.3592187  16.1146037  )
        43           Ti1 tau(  43) = (   3.3848590   5.9294639  16.2700006  )
        44           Ti1 tau(  44) = (   0.0517009   4.5268197  15.8466567  )
        45           O1  tau(  45) = (   3.2900926   2.9813045   4.7018136  )
        46           O1  tau(  46) = (   1.3039711   4.4726057   6.0039043  )
        47           O1  tau(  47) = (   5.2763189   4.4711207   6.0039473  )
        48           C1  tau(  48) = (   5.9450987   3.0517216  18.8599509  )
        49           O1  tau(  49) = (   0.1802289   3.0084098  17.6484507  )
        50           H1  tau(  50) = (   4.9625852   2.6832861  18.5889656  )
        51           H1  tau(  51) = (   1.1163247   3.1442434  17.8758057  )
        52           H1  tau(  52) = (   6.3899442   2.3914015  19.6026461  )
        53           H1  tau(  53) = (   5.8746647   4.0795385  19.2151274  )
        54           N1  tau(  54) = (   5.7598779   3.1323611  22.9045362  )
        55           N1  tau(  55) = (   4.9845974   3.1850264  22.1203839  )
        56           O1  tau(  56) = (   3.1467188   0.0118795  18.1166202  )
        57           H1  tau(  57) = (   2.2164505   0.0865285  18.3868412  )

     number of k points=    10  Fermi-Dirac smearing, width (Ry)=  0.0073
                       cart. coord. in units 2pi/alat
        k(    1) = (   0.0000000   0.0000000   0.0000000), wk =   0.1250000
        k(    2) = (   0.0000000   0.0419351   0.0000000), wk =   0.2500000
        k(    3) = (   0.0000000  -0.0838702   0.0000000), wk =   0.1250000
        k(    4) = (   0.0379955   0.0000049   0.0000000), wk =   0.2500000
        k(    5) = (   0.0379955   0.0419400   0.0000000), wk =   0.2500000
        k(    6) = (   0.0379955  -0.0838652   0.0000000), wk =   0.2500000
        k(    7) = (   0.0379955  -0.0419301   0.0000000), wk =   0.2500000
        k(    8) = (  -0.0759910  -0.0000099   0.0000000), wk =   0.1250000
        k(    9) = (  -0.0759910   0.0419252   0.0000000), wk =   0.2500000
        k(   10) = (  -0.0759910  -0.0838800   0.0000000), wk =   0.1250000

     Initial potential from superposition of free atoms

     starting charge  392.99914, renormalised to  409.00000

     negative rho (up, down):  9.139E-03 0.000E+00

     %%%%%%%%%%%%%%%%%%%%%%%%%%%%%%%%%%%%%%%%%%%%%%%%%%%%%%%%%%%%%%%%%%%%%%%%
     %                                                                      %
     % You are using vdW-DF, which was implemented by the Thonhauser group. %
     % Please cite the following two papers that made this development      %
     % possible and the two reviews that describe the various versions:     %
     %                                                                      %
     %   T. Thonhauser et al., PRL 115, 136402 (2015).                      %
     %   T. Thonhauser et al., PRB 76, 125112 (2007).                       %
     %   K. Berland et al., Rep. Prog. Phys. 78, 066501 (2015).             %
     %   D.C. Langreth et al., J. Phys.: Condens. Matter 21, 084203 (2009). %
     %                                                                      %
     %                                                                      %
     % If you are calculating the stress with vdW-DF, please also cite:     %
     %                                                                      %
     %   R. Sabatini et al., J. Phys.: Condens. Matter 24, 424209 (2012).   %
     %                                                                      %
     %%%%%%%%%%%%%%%%%%%%%%%%%%%%%%%%%%%%%%%%%%%%%%%%%%%%%%%%%%%%%%%%%%%%%%%%

     Adding external electric field

     Computed dipole along edir(3) :
        Dipole              -18.8687 Ry au,        -47.9594 Debye
        Dipole field         -0.0356 Ry au,

        Potential amp.        3.3008 Ry
        Total length         46.3494 bohr

     Starting wfcs are  309 atomic wfcs
  @ DRIVER MODE: Message from server: STATUS
  @ DRIVER MODE: Message from server: POSDATA
  @ DRIVER MODE: Reading and sharing cell
  @ DRIVER MODE: Reading and sharing positions
  @ DRIVER MODE: Received positions

     Self-consistent Calculation

     iteration #  1     ecut=    29.40 Ry     beta= 0.05
     Davidson diagonalization with overlap
     c_bands:  5 eigenvalues not converged
     c_bands:  5 eigenvalues not converged
     c_bands:  1 eigenvalues not converged
     c_bands:  4 eigenvalues not converged
     c_bands:  1 eigenvalues not converged
     c_bands:  3 eigenvalues not converged
     ethr =  1.00E-05,  avg # of iterations = 27.3

[...]

     total energy              =   -2113.19843785 Ry
     estimated scf accuracy    <   10331.03344897 Ry

     iteration #  2     ecut=    29.40 Ry     beta= 0.05
     Davidson diagonalization with overlap
     ethr =  1.00E-02,  avg # of iterations = 29.9

[...]

     iteration # 98     ecut=    29.40 Ry     beta= 0.05
     Davidson diagonalization with overlap
     c_bands:  1 eigenvalues not converged
     c_bands:  1 eigenvalues not converged
     c_bands:  1 eigenvalues not converged
     ethr =  4.45E-10,  avg # of iterations = 17.3

[...]

     total energy              =   -3006.45832977 Ry
     estimated scf accuracy    <       0.00000007 Ry

     iteration #104     ecut=    29.40 Ry     beta= 0.05
     Davidson diagonalization with overlap
     ethr =  1.82E-11,  avg # of iterations =  9.6

     negative rho (up, down):  1.064E-02 0.000E+00

     Adding external electric field

     Computed dipole along edir(3) :
        Dipole                1.0505 Ry au,          2.6702 Debye
        Dipole field          0.0020 Ry au,

        Potential amp.       -0.1838 Ry
        Total length         46.3494 bohr

     End of self-consistent calculation

          k = 0.0000 0.0000 0.0000 ( 18029 PWs)   bands (ev):

   -55.3294 -55.2538 -55.2185 -55.1443 -55.1221 -55.0876 -55.0516 -55.0469
   -55.0452 -55.0263 -55.0161 -54.9863 -54.8992 -54.8233 -54.2133 -54.1792
   -31.7318 -31.7229 -31.6356 -31.6239 -31.5829 -31.5693 -31.5447 -31.5429
   -31.5082 -31.4966 -31.4852 -31.4202 -31.4074 -31.4072 -31.3806 -31.3622
   -31.3539 -31.3368 -31.3357 -31.3242 -31.3172 -31.3125 -31.2665 -31.2644
   -31.2626 -31.2559 -31.2528 -31.2400 -31.2337 -31.2149 -31.2083 -31.1978
   -31.1960 -31.1762 -31.1715 -31.1635 -31.1620 -31.1284 -31.0880 -31.0686
   -31.0375 -31.0271 -30.6195 -30.5331 -30.5106 -30.4364 -30.3501 -30.2385
   -21.5055 -19.7125 -16.1358 -15.9058 -15.7265 -15.5245 -15.4678 -15.4013
   -15.2141 -15.1407 -14.9848 -14.8595 -14.8449 -14.7882 -14.7871 -14.7769
   -14.7481 -14.7232 -14.6779 -14.6665 -14.6612 -14.6574 -14.5960 -14.5536
   -14.5509 -14.5238 -14.5031 -14.3758 -14.3289 -14.2745 -14.1043 -14.0822
   -12.7130 -12.5969 -10.5716  -6.6855  -6.4079  -4.6685  -4.6297  -4.5954
    -4.4037  -3.6520  -3.3697  -3.2550  -3.1546  -3.1359  -3.0711  -3.0202
    -2.8056  -2.6958  -2.6362  -2.5237  -2.3965  -2.3595  -2.3047  -2.2779
    -2.1862  -2.1679  -2.1363  -2.1063  -2.0510  -2.0231  -2.0155  -2.0025
    -1.9273  -1.9205  -1.7906  -1.7856  -1.7292  -1.6375  -1.6196  -1.5967
    -1.5895  -1.5551  -1.5528  -1.5104  -1.4867  -1.4628  -1.4344  -1.3591
    -1.3398  -1.2770  -1.2394  -1.0074  -0.8529  -0.8282  -0.7477  -0.7315
    -0.7008  -0.6714  -0.6513  -0.6406  -0.6034  -0.5880  -0.4844  -0.3810
    -0.3724  -0.3126  -0.2748  -0.2701  -0.1345  -0.0894  -0.0153   0.0074
     0.0397   0.0607   0.1450   0.1938   0.2154   0.2822   0.3134   0.4189
     0.4564   0.4756   0.5170   0.5723   0.6327   0.6666   0.7059   0.7094
     0.7422   0.7913   0.8208   0.8553   0.8777   0.9247   1.0275   1.0650
     1.0754   1.2161   1.2273   1.3093   1.4341   1.4859   1.7590   1.8116
     1.8582   2.0039   2.3804   2.4273   3.8702   3.9729   3.9938   4.0151
     4.0828   4.1647   4.3301   4.3533   4.4176   4.5203

[...]

          k = 0.0380-0.0419 0.0000 ( 17876 PWs)   bands (ev):

[...]

          k =-0.0760-0.0000 0.0000 ( 17886 PWs)   bands (ev):

[...]

          k =-0.0760-0.0839 0.0000 ( 17948 PWs)   bands (ev):

   -55.3286 -55.2406 -55.2315 -55.1384 -55.1177 -55.0934 -55.0509 -55.0461
   -55.0377 -55.0294 -55.0173 -54.9955 -54.8955 -54.8269 -54.1964 -54.1960
   -31.6425 -31.5790 -31.5692 -31.5517 -31.5428 -31.5425 -31.5368 -31.5209
   -31.4587 -31.4538 -31.4151 -31.3936 -31.3821 -31.3769 -31.3606 -31.3583
   -31.3548 -31.3528 -31.3463 -31.3403 -31.3353 -31.3333 -31.3178 -31.3158
   -31.2967 -31.2862 -31.2567 -31.2504 -31.2478 -31.2435 -31.2356 -31.2341
   -31.2276 -31.2229 -31.2190 -31.2147 -31.2122 -31.1737 -31.1551 -31.0921
   -31.0747 -31.0311 -30.5234 -30.5231 -30.4333 -30.4317 -30.3934 -30.3925
   -21.5054 -19.7087 -16.1122 -15.5358 -15.3792 -15.2083 -15.1945 -15.1151
   -15.0236 -15.0058 -14.9753 -14.9618 -14.9448 -14.9203 -14.9121 -14.8770
   -14.8141 -14.7722 -14.7490 -14.7408 -14.6938 -14.6886 -14.6851 -14.6223
   -14.6151 -14.5970 -14.5722 -14.5124 -14.5034 -14.4030 -14.3875 -14.2155
   -12.6992 -12.6983 -10.5737  -6.6858  -6.4097  -4.6634  -4.6365  -4.5841
    -4.3956  -3.6172  -3.3602  -2.6841  -2.5993  -2.5296  -2.4321  -2.3537
    -2.2997  -2.2501  -2.2292  -2.1843  -2.1632  -2.0937  -2.0591  -2.0502
    -2.0308  -2.0287  -1.9982  -1.9829  -1.9701  -1.9489  -1.9205  -1.9033
    -1.8927  -1.8718  -1.8518  -1.8259  -1.8138  -1.8040  -1.7891  -1.7731
    -1.6623  -1.6455  -1.6128  -1.4503  -1.4388  -1.3697  -1.3380  -1.3115
    -1.3079  -1.2775  -1.2625  -1.2207  -1.1156  -1.0873  -1.0377  -0.9978
    -0.9033  -0.8875  -0.8366  -0.7855  -0.7398  -0.7112  -0.6807  -0.6655
    -0.6118  -0.4735  -0.4526  -0.4076  -0.2884  -0.2152  -0.1995  -0.1869
    -0.1652  -0.1420  -0.0956  -0.0874  -0.0256  -0.0129   0.0579   0.0619
     0.0909   0.1125   0.2150   0.3371   0.4157   0.4595   0.5046   0.5539
     0.5876   0.6700   0.7462   0.8325   0.9086   0.9381   0.9518   1.0696
     1.1021   1.1546   1.2005   1.2207   1.2789   1.3146   1.3549   1.3880
     2.1726   2.1863   2.2426   2.2483   4.0510   4.3010   4.3611   4.3780
     4.3877   4.4200   4.4411   4.4937   4.5091   4.5330

     the Fermi energy is     3.8804 ev

!    total energy              =   -3006.45833069 Ry
     estimated scf accuracy    <       0.00000006 Ry
     smearing contrib. (-TS)   =      -0.02082625 Ry
     internal energy E=F+TS    =   -3006.43750444 Ry

     The total energy is F=E-TS. E is the sum of the following terms:
     one-electron contribution =  -22317.78663363 Ry
     hartree contribution      =   11258.41551575 Ry
     xc contribution           =    -501.14558443 Ry
     ewald contribution        =    8554.07711522 Ry
     electric field correction =       0.00208265 Ry

     convergence has been achieved in 104 iterations

     Forces acting on atoms (cartesian axes, Ry/au):

     atom    1 type  1   force =    -0.00037228   -0.00016980    0.09495887
     atom    2 type  1   force =    -0.00035480    0.00513161   -0.17482543
     atom    3 type  2   force =     0.00070677    0.00012955   -0.02672948
     atom    4 type  2   force =     0.00128960    0.00083302    0.05207254
     atom    5 type  2   force =    -0.01095370   -0.00256116    0.00077924
     atom    6 type  2   force =     0.01193154   -0.00381045    0.00178905
     atom    7 type  1   force =    -0.00021688    0.00039351    0.00066511
     atom    8 type  1   force =     0.00013217    0.00022416    0.00015885
     atom    9 type  2   force =     0.00025026    0.00076517   -0.00066622
     atom   10 type  2   force =    -0.00039177    0.00016144    0.00014379
     atom   11 type  2   force =     0.00044291   -0.00015404    0.00011563
     atom   12 type  2   force =    -0.00085153   -0.00015346    0.00036823
     atom   13 type  1   force =     0.00044039    0.00035577   -0.00021486
     atom   14 type  1   force =    -0.00034027   -0.00071557    0.00094180
     atom   15 type  2   force =    -0.00014358   -0.00053967   -0.00099641
     atom   16 type  2   force =    -0.00027697    0.00000334   -0.00022425
     atom   17 type  2   force =    -0.00099210    0.00030354   -0.00002569
     atom   18 type  2   force =     0.00047497    0.00069965   -0.00005725
     atom   19 type  1   force =     0.00025407   -0.00083740    0.00018441
     atom   20 type  1   force =    -0.00026620    0.00002564    0.00038749
     atom   21 type  2   force =    -0.00000304    0.00007390    0.10300513
     atom   22 type  2   force =    -0.00003026   -0.00013518    0.00094090
     atom   23 type  2   force =    -0.07194115    0.00013550   -0.02803014
     atom   24 type  2   force =     0.07177628    0.00063333   -0.02813538
     atom   25 type  1   force =    -0.00036637    0.00025987    0.10241931
     atom   26 type  1   force =    -0.00010863   -0.00475168   -0.17506781
     atom   27 type  2   force =     0.00084687    0.00117061   -0.02484939
     atom   28 type  2   force =     0.00119610    0.00025345    0.05170173
     atom   29 type  2   force =    -0.01191127    0.00381686    0.00172005
     atom   30 type  2   force =     0.01375744    0.00146668    0.00245203
     atom   31 type  1   force =    -0.00028979   -0.00015549    0.00079865
     atom   32 type  1   force =     0.00027279    0.00029015    0.00058689
     atom   33 type  2   force =     0.00000584    0.00020491    0.00009010
     atom   34 type  2   force =    -0.00027365   -0.00032404   -0.00056029
     atom   35 type  2   force =    -0.00024023    0.00005015   -0.00046355
     atom   36 type  2   force =    -0.00037100    0.00009535   -0.00008119
     atom   37 type  1   force =    -0.00005071   -0.00034447    0.00004812
     atom   38 type  1   force =    -0.00056757    0.00028122    0.00001455
     atom   39 type  2   force =    -0.00025188   -0.00024263    0.00078074
     atom   40 type  2   force =    -0.00019884    0.00010590    0.00030541
     atom   41 type  2   force =    -0.00139470   -0.00026595   -0.00003186
     atom   42 type  2   force =     0.00107248   -0.00013983   -0.00049608
     atom   43 type  1   force =    -0.00018983    0.00056170    0.00018556
     atom   44 type  1   force =    -0.00006066    0.00016205    0.00009172
     atom   45 type  2   force =     0.00000206    0.00014007    0.10259309
     atom   46 type  2   force =    -0.07183379   -0.00062612   -0.02797615
     atom   47 type  2   force =     0.07169156   -0.00013497   -0.02805174
     atom   48 type  3   force =    -0.00223755    0.00010989   -0.00004684
     atom   49 type  2   force =    -0.00138890   -0.00010320    0.00085767
     atom   50 type  4   force =     0.00010188   -0.00145318   -0.00051647
     atom   51 type  4   force =     0.00036609    0.00044168   -0.00066004
     atom   52 type  4   force =    -0.00018000    0.00059230   -0.00033720
     atom   53 type  4   force =     0.00189665   -0.00084907   -0.00143017
     atom   54 type  5   force =     0.00011877   -0.00007970    0.00033238
     atom   55 type  5   force =    -0.00048820    0.00006345   -0.00030874
     atom   56 type  2   force =     0.00080767   -0.00057683    0.00048115
     atom   57 type  4   force =    -0.00029706   -0.00081153   -0.00118756

     Total force =     0.364809     Total SCF correction =     0.000572
  @ DRIVER MODE: Message from server: STATUS
  @ DRIVER MODE: Message from server: GETFORCE
  @ DRIVER MODE: Returning v,forces,stress,ensemble

     Writing output data file ./calc.save/
  @ DRIVER MODE: Message from server: EXIT
  @ DRIVE MODE: Exiting

     General routines

     Parallel routines

   This run was terminated on:   8:52:33  26Sep2021

   JOB DONE.