     Program PWSCF v.6.7GPU starts on  2Aug2021 at 14:22:48

     R & G space division:  proc/nbgrp/npool/nimage =      16
     Reading input from /storage/home/hcoda1/3/ntian30/research/carbon/02Aug_vib_paired/ads_slab/CH3NNH3_a/out_0008/pw.inp
Warning: card &CELL ignored
Warning: card   CELL_DYNAMICS='IPI', ignored
Warning: card / ignored

     Current dimensions of program PWSCF are:
     Max number of different atomic species (ntypx) = 10
     Max number of k-points (npk) =  40000
     Max angular momentum in pseudopotentials (lmaxx) =  3
     Presently no symmetry can be used with electric field

     Message from routine cell_base_init:
     DEPRECATED: use true lattice parameter, not A to a.u. conversion factor

     IMPORTANT: XC functional enforced from input :
     Exchange-correlation= BEEF-VDW
                           (   1   4  43  14   2   0   0)
     Any further DFT definition will be discarded
     Please, verify this is what you really want

  @ DRIVER MODE: Connecting to
 qe_1139763_2482544.sched-torque.pace.gatech.eduh97q90xn_scratch
  using UNIX socket
  @ DRIVER MODE: Message from server: STATUS
  @ DRIVER MODE: Message from server: INIT
  @ DRIVER MODE: Receiving replica           0          -1
  @ DRIVER MODE: Receiving encoded integer          25
  @ DRIVER MODE:  SCF:  T  FORCE:  T  STRESS:  F  VC:  F  ENSEMBLE:  F
  @ DRIVER MODE:  SCF:  T  FORCE:  T  STRESS:  F  VC:  F  ENSEMBLE:  F

     Using Slab Decomposition

     bravais-lattice index     =            0
     lattice parameter (alat)  =       1.8897  a.u.
     unit-cell volume          =    6658.9804 (a.u.)^3
     number of atoms/cell      =           56
     number of atomic types    =            5
     number of electrons       =       398.00
     number of Kohn-Sham states=          209
     kinetic-energy cutoff     =      29.3995  Ry
     charge density cutoff     =     293.9946  Ry
     scf convergence threshold =      7.3E-08
     mixing beta               =       0.0500
     number of iterations used =            8  plain     mixing
     Exchange-correlation= BEEF-VDW
                           (   1   4  43  14   2   0   0)

     celldm(1)=   1.889726  celldm(2)=   0.000000  celldm(3)=   0.000000
     celldm(4)=   0.000000  celldm(5)=   0.000000  celldm(6)=   0.000000

     crystal axes: (cart. coord. in units of alat)
               a(1) = (   6.579727   0.000000   0.000000 )
               a(2) = (  -0.000775   5.961596   0.000000 )
               a(3) = (   0.000000   0.000000  25.155947 )

     reciprocal axes: (cart. coord. in units 2 pi/alat)
               b(1) = (  0.151982  0.000020  0.000000 )
               b(2) = (  0.000000  0.167740  0.000000 )
               b(3) = (  0.000000  0.000000  0.039752 )

     PseudoPot. # 1 for Ti read from file:
     /storage/coda1/p-amedford6/0/shared/rich_project_chbe-medford/medford-share/data/pseudos_module/espresso/nninc/pbe/van/Ti.UPF
     MD5 check sum: 8e4df49b7f0d34bbd5052bf3f5ea0213
     Pseudo is Ultrasoft, Zval = 12.0
     Generated by new atomic code, or converted to UPF format
     Using radial grid of  851 points,  6 beta functions with:
                l(1) =   0
                l(2) =   0
                l(3) =   1
                l(4) =   1
                l(5) =   2
                l(6) =   2
     Q(r) pseudized with  8 coefficients,  rinner =    1.000   1.000   1.000
                                                       1.000   1.000

     PseudoPot. # 2 for O  read from file:
     /storage/coda1/p-amedford6/0/shared/rich_project_chbe-medford/medford-share/data/pseudos_module/espresso/nninc/pbe/van/O.UPF
     MD5 check sum: 78c19812648e8988a0fe644b0f25305e
     Pseudo is Ultrasoft, Zval =  6.0
     Generated by new atomic code, or converted to UPF format
     Using radial grid of  737 points,  4 beta functions with:
                l(1) =   0
                l(2) =   0
                l(3) =   1
                l(4) =   1
     Q(r) pseudized with  8 coefficients,  rinner =    0.800   0.800   0.800

     PseudoPot. # 3 for N  read from file:
     /storage/coda1/p-amedford6/0/shared/rich_project_chbe-medford/medford-share/data/pseudos_module/espresso/nninc/pbe/van/N.UPF
     MD5 check sum: 90d10febe142ad51ac9d5be1deb811c4
     Pseudo is Ultrasoft, Zval =  5.0
     Generated by new atomic code, or converted to UPF format
     Using radial grid of  729 points,  4 beta functions with:
                l(1) =   0
                l(2) =   0
                l(3) =   1
                l(4) =   1
     Q(r) pseudized with  8 coefficients,  rinner =    0.800   0.800   0.800

     PseudoPot. # 4 for C  read from file:
     /storage/coda1/p-amedford6/0/shared/rich_project_chbe-medford/medford-share/data/pseudos_module/espresso/nninc/pbe/van/C.UPF
     MD5 check sum: 1a69bf6b8db32088f5b2163dbdb77a27
     Pseudo is Ultrasoft, Zval =  4.0
     Generated by new atomic code, or converted to UPF format
     Using radial grid of  721 points,  4 beta functions with:
                l(1) =   0
                l(2) =   0
                l(3) =   1
                l(4) =   1
     Q(r) pseudized with  8 coefficients,  rinner =    0.800   0.800   0.800

     PseudoPot. # 5 for H  read from file:
     /storage/coda1/p-amedford6/0/shared/rich_project_chbe-medford/medford-share/data/pseudos_module/espresso/nninc/pbe/van/H.UPF
     MD5 check sum: b5ee9d7bfd3a09ee7748110bda690ff7
     Pseudo is Ultrasoft, Zval =  1.0
     Generated by new atomic code, or converted to UPF format
     Using radial grid of  615 points,  1 beta functions with:
                l(1) =   0
     Q(r) pseudized with  8 coefficients,  rinner =    0.800

     atomic species   valence    mass     pseudopotential
        Ti1           12.00    47.86700     Ti( 1.00)
        O1             6.00    15.99900     O ( 1.00)
        N1             5.00    14.00700     N ( 1.00)
        C1             4.00    12.01100     C ( 1.00)
        H1             1.00     1.00800     H ( 1.00)

     No symmetry found

   Cartesian axes

     site n.     atom                  positions (alat units)
         1           Ti1 tau(   1) = (   0.0004258   2.9801865   6.0000000  )
         2           Ti1 tau(   2) = (   3.2906075   1.4906267   6.0002472  )
         3           O1  tau(   3) = (   0.0006271   0.0005054   7.9858123  )
         4           O1  tau(   4) = (   3.2906025   0.0005020   7.3038282  )
         5           O1  tau(   5) = (   4.5942328   1.4918067   9.2879030  )
         6           O1  tau(   6) = (   1.9868534   1.4903216   9.2879459  )
         7           Ti1 tau(   7) = (   3.2907910   2.8959150   9.1758416  )
         8           Ti1 tau(   8) = (   0.0015273   1.4827037   9.2680791  )
         9           O1  tau(   9) = (   3.2727297   5.9424138  11.2974721  )
        10           O1  tau(  10) = (   0.0116148   5.9584955  10.6183126  )
        11           O1  tau(  11) = (   1.3027692   1.4721713  12.6242268  )
        12           O1  tau(  12) = (   5.2784376   1.4723552  12.6258992  )
        13           Ti1 tau(  13) = (   6.4570204   2.9507206  12.7630554  )
        14           Ti1 tau(  14) = (   3.1467966   1.4649636  12.4688949  )
        15           O1  tau(  15) = (   6.5600513   5.9133837  14.5918744  )
        16           O1  tau(  16) = (   3.2766225   5.9390981  13.8789110  )
        17           O1  tau(  17) = (   4.4915826   1.4834571  16.0540230  )
        18           O1  tau(  18) = (   2.0416982   1.4849982  16.0411193  )
        19           Ti1 tau(  19) = (   3.2679172   2.9642910  15.6858091  )
        20           Ti1 tau(  20) = (   6.5495220   1.5641796  16.1095294  )
        21           O1  tau(  21) = (   3.2904802   0.0005063   4.7018136  )
        22           O1  tau(  22) = (   6.5606002   0.0080969  17.2010096  )
        23           O1  tau(  23) = (   1.3043587   1.4918075   6.0039043  )
        24           O1  tau(  24) = (   5.2767064   1.4903225   6.0039473  )
        25           Ti1 tau(  25) = (   0.0000382   5.9609847   6.0000000  )
        26           Ti1 tau(  26) = (   3.2902200   4.4714249   6.0002472  )
        27           O1  tau(  27) = (   0.0002396   2.9813036   7.9858123  )
        28           O1  tau(  28) = (   3.2902150   2.9813002   7.3038282  )
        29           O1  tau(  29) = (   4.5938453   4.4726049   9.2879030  )
        30           O1  tau(  30) = (   1.9864658   4.4711199   9.2879459  )
        31           Ti1 tau(  31) = (   3.2891106   5.8743827   9.1763621  )
        32           Ti1 tau(  32) = (   0.0006254   4.4649316   9.2693709  )
        33           O1  tau(  33) = (   3.2718307   2.9587034  11.2961003  )
        34           O1  tau(  34) = (   0.0092240   2.9805883  10.6323155  )
        35           O1  tau(  35) = (   1.3028232   4.4416136  12.6207192  )
        36           O1  tau(  36) = (   5.2777600   4.4366566  12.6238879  )
        37           Ti1 tau(  37) = (   6.4830488   5.9304874  12.7660964  )
        38           Ti1 tau(  38) = (   3.1463657   4.4448748  12.4639736  )
        39           O1  tau(  39) = (   6.5417323   2.9404903  14.6589984  )
        40           O1  tau(  40) = (   3.2789452   2.9619718  13.8791424  )
        41           O1  tau(  41) = (   4.4971312   4.4676043  16.0556370  )
        42           O1  tau(  42) = (   2.0400509   4.4648231  16.0515753  )
        43           Ti1 tau(  43) = (   3.2598176   5.9476019  15.6881950  )
        44           Ti1 tau(  44) = (   6.5485469   4.5424454  16.1156095  )
        45           O1  tau(  45) = (   3.2900926   2.9813045   4.7018136  )
        46           O1  tau(  46) = (   1.3039711   4.4726057   6.0039043  )
        47           O1  tau(  47) = (   5.2763189   4.4711207   6.0039473  )
        48           N1  tau(  48) = (   0.0016189   2.9795595  17.3279962  )
        49           C1  tau(  49) = (   0.1781806   3.0735589  18.7581663  )
        50           H1  tau(  50) = (   6.0068595   3.7517258  19.1994632  )
        51           H1  tau(  51) = (   0.0766375   2.0971904  19.2409400  )
        52           H1  tau(  52) = (   1.1565538   3.4901639  19.0026035  )
        53           N1  tau(  53) = (   4.7601180   1.8141088  21.6614004  )
        54           H1  tau(  54) = (   4.4666586   2.7830198  21.5980365  )
        55           H1  tau(  55) = (   4.1231612   1.2775871  21.0809158  )
        56           H1  tau(  56) = (   4.6015807   1.5257772  22.6208530  )

     number of k points=    10  Fermi-Dirac smearing, width (Ry)=  0.0073
                       cart. coord. in units 2pi/alat
        k(    1) = (   0.0000000   0.0000000   0.0000000), wk =   0.1250000
        k(    2) = (   0.0000000   0.0419351   0.0000000), wk =   0.2500000
        k(    3) = (   0.0000000  -0.0838702   0.0000000), wk =   0.1250000
        k(    4) = (   0.0379955   0.0000049   0.0000000), wk =   0.2500000
        k(    5) = (   0.0379955   0.0419400   0.0000000), wk =   0.2500000
        k(    6) = (   0.0379955  -0.0838652   0.0000000), wk =   0.2500000
        k(    7) = (   0.0379955  -0.0419301   0.0000000), wk =   0.2500000
        k(    8) = (  -0.0759910  -0.0000099   0.0000000), wk =   0.1250000
        k(    9) = (  -0.0759910   0.0419252   0.0000000), wk =   0.2500000
        k(   10) = (  -0.0759910  -0.0838800   0.0000000), wk =   0.1250000

     Initial potential from superposition of free atoms

     starting charge  381.99914, renormalised to  398.00000

     negative rho (up, down):  9.479E-03 0.000E+00

     %%%%%%%%%%%%%%%%%%%%%%%%%%%%%%%%%%%%%%%%%%%%%%%%%%%%%%%%%%%%%%%%%%%%%%%%
     %                                                                      %
     % You are using vdW-DF, which was implemented by the Thonhauser group. %
     % Please cite the following two papers that made this development      %
     % possible and the two reviews that describe the various versions:     %
     %                                                                      %
     %   T. Thonhauser et al., PRL 115, 136402 (2015).                      %
     %   T. Thonhauser et al., PRB 76, 125112 (2007).                       %
     %   K. Berland et al., Rep. Prog. Phys. 78, 066501 (2015).             %
     %   D.C. Langreth et al., J. Phys.: Condens. Matter 21, 084203 (2009). %
     %                                                                      %
     %                                                                      %
     % If you are calculating the stress with vdW-DF, please also cite:     %
     %                                                                      %
     %   R. Sabatini et al., J. Phys.: Condens. Matter 24, 424209 (2012).   %
     %                                                                      %
     %%%%%%%%%%%%%%%%%%%%%%%%%%%%%%%%%%%%%%%%%%%%%%%%%%%%%%%%%%%%%%%%%%%%%%%%

     Adding external electric field

     Computed dipole along edir(3) :
        Dipole              -11.3717 Ry au,        -28.9040 Debye
        Dipole field         -0.0215 Ry au,

        Potential amp.        1.9893 Ry
        Total length         46.3494 bohr

     Starting wfcs are  302 atomic wfcs
  @ DRIVER MODE: Message from server: STATUS
  @ DRIVER MODE: Message from server: POSDATA
  @ DRIVER MODE: Reading and sharing cell
  @ DRIVER MODE: Reading and sharing positions
  @ DRIVER MODE: Received positions

     Self-consistent Calculation

     iteration #  1     ecut=    29.40 Ry     beta= 0.05
     Davidson diagonalization with overlap
     c_bands:  1 eigenvalues not converged
     c_bands:  1 eigenvalues not converged
     c_bands:  2 eigenvalues not converged
     c_bands:  1 eigenvalues not converged
     c_bands:  1 eigenvalues not converged
     c_bands:  1 eigenvalues not converged
     c_bands:  1 eigenvalues not converged
     c_bands:  2 eigenvalues not converged
     c_bands:  2 eigenvalues not converged
     ethr =  1.00E-05,  avg # of iterations = 19.6

[...]

     total energy              =   -2520.80208791 Ry
     estimated scf accuracy    <    4705.93947093 Ry

     iteration #  2     ecut=    29.40 Ry     beta= 0.05
     Davidson diagonalization with overlap
     ethr =  1.00E-02,  avg # of iterations = 22.1

[...]

     iteration # 68     ecut=    29.40 Ry     beta= 0.05
     Davidson diagonalization with overlap
     c_bands:  1 eigenvalues not converged
     c_bands:  1 eigenvalues not converged
     ethr =  3.29E-07,  avg # of iterations = 11.6

[...]

     total energy              =   -2942.90663096 Ry
     estimated scf accuracy    <       0.00000009 Ry

     iteration # 98     ecut=    29.40 Ry     beta= 0.05
     Davidson diagonalization with overlap
     ethr =  2.00E-11,  avg # of iterations =  2.4

     negative rho (up, down):  1.096E-02 0.000E+00

     Adding external electric field

     Computed dipole along edir(3) :
        Dipole                0.4518 Ry au,          1.1485 Debye
        Dipole field          0.0009 Ry au,

        Potential amp.       -0.0790 Ry
        Total length         46.3494 bohr

     End of self-consistent calculation

          k = 0.0000 0.0000 0.0000 ( 18029 PWs)   bands (ev):

   -56.6152 -56.5816 -55.7337 -55.7252 -55.6983 -55.6929 -55.5875 -55.5518
   -55.3702 -55.3349 -55.2795 -55.2719 -55.2456 -55.1697 -54.7321 -54.6190
   -33.0430 -32.8898 -32.8616 -32.7914 -32.7003 -32.6690 -32.2084 -32.1976
   -32.1305 -32.0202 -31.9751 -31.9470 -31.9330 -31.9082 -31.8756 -31.8730
   -31.8683 -31.8623 -31.8392 -31.8349 -31.8244 -31.7958 -31.7704 -31.7567
   -31.7436 -31.7237 -31.7154 -31.6921 -31.6718 -31.6180 -31.6017 -31.5938
   -31.5141 -31.5090 -31.4905 -31.4473 -31.4369 -31.4070 -31.3986 -31.3742
   -31.3530 -31.2961 -31.2335 -30.9731 -30.9607 -30.8784 -30.8391 -30.7478
   -16.7790 -16.3440 -16.1140 -15.9776 -15.9094 -15.8557 -15.8100 -15.6876
   -15.6155 -15.6095 -15.5695 -15.5377 -15.4676 -15.3272 -15.2290 -15.1749
   -15.1305 -15.0094 -14.9501 -14.9165 -14.9117 -14.8769 -14.8576 -14.6619
   -14.6375 -14.5354 -14.5249 -14.3996 -14.1760 -13.7782 -13.7208 -13.6682
   -12.7877  -7.4953  -4.3448  -3.8393  -3.7990  -3.7691  -3.6014  -3.5148
    -3.4069  -3.3948  -3.3126  -3.1958  -3.1493  -3.1018  -2.9859  -2.9852
    -2.8363  -2.7953  -2.7908  -2.7865  -2.7458  -2.6760  -2.6605  -2.6229
    -2.6098  -2.6077  -2.4589  -2.3576  -2.2886  -2.2685  -2.2578  -2.2226
    -2.1437  -2.1234  -2.1098  -2.1062  -2.0045  -1.8575  -1.8553  -1.8234
    -1.7800  -1.7793  -1.7412  -1.7254  -1.5893  -1.5166  -1.4132  -1.3967
    -1.3581  -1.2944  -1.2884  -1.1891  -1.1153  -1.0519  -1.0278  -0.9189
    -0.8750  -0.8528  -0.7628  -0.7014  -0.6618  -0.6438  -0.6274  -0.5242
    -0.5045  -0.4929  -0.4076  -0.3955  -0.3390  -0.2576  -0.2382  -0.2316
    -0.1435  -0.1380  -0.0453  -0.0043   0.0381   0.0828   0.1787   0.1973
     0.3001   0.3353   0.3572   0.4764   0.4897   0.5526   0.6201   0.6871
     0.7182   0.7418   0.7720   0.7934   0.8676   0.9819   0.9860   1.0891
     1.1281   1.2948   1.3337   1.3815   1.6232   1.6522   2.3175   2.6595
     2.8196   3.1179   3.3094   3.4206   3.6350   3.6501   3.6553   3.8342
     3.8795

[...]

          k = 0.0380-0.0419 0.0000 ( 17876 PWs)   bands (ev):

[...]

          k =-0.0760-0.0000 0.0000 ( 17886 PWs)   bands (ev):

[...]

          k =-0.0760-0.0839 0.0000 ( 17948 PWs)   bands (ev):

   -56.5985 -56.5981 -55.7177 -55.7125 -55.7102 -55.7095 -55.5723 -55.5669
   -55.3553 -55.3497 -55.2688 -55.2625 -55.2624 -55.1727 -54.7292 -54.6217
   -32.8756 -32.8753 -32.8600 -32.8597 -32.7444 -32.7441 -32.0380 -32.0354
   -32.0219 -32.0158 -31.9656 -31.9645 -31.9220 -31.9210 -31.9196 -31.9182
   -31.9076 -31.9050 -31.9036 -31.9013 -31.8244 -31.8199 -31.7736 -31.7682
   -31.7068 -31.6995 -31.6384 -31.6316 -31.6069 -31.6068 -31.5984 -31.5544
   -31.5523 -31.5245 -31.4895 -31.4881 -31.4879 -31.4490 -31.4489 -31.4425
   -31.4155 -31.3762 -31.1122 -30.9931 -30.9603 -30.9283 -30.8417 -30.8065
   -16.1272 -16.1252 -16.0931 -16.0928 -15.8229 -15.8192 -15.7744 -15.7726
   -15.5998 -15.5939 -15.3876 -15.3774 -15.3713 -15.3673 -15.2431 -15.2343
   -15.1703 -15.1595 -15.0701 -15.0667 -15.0039 -14.9977 -14.9595 -14.9398
   -14.6233 -14.6161 -14.4887 -14.4798 -14.3259 -13.7717 -13.7716 -13.7200
   -12.8042  -7.4854  -3.7987  -3.7842  -3.2268  -3.2262  -3.1606  -3.1593
    -3.0378  -3.0330  -2.9573  -2.9568  -2.8567  -2.8525  -2.7626  -2.7130
    -2.7106  -2.7069  -2.6976  -2.6457  -2.5571  -2.5552  -2.5419  -2.5269
    -2.4720  -2.4699  -2.4514  -2.3813  -2.3681  -2.3323  -2.2930  -2.1863
    -2.1729  -2.1557  -2.1303  -2.0692  -2.0569  -2.0448  -1.9972  -1.9749
    -1.8928  -1.8265  -1.7864  -1.6674  -1.6641  -1.6537  -1.6414  -1.4868
    -1.4511  -1.4196  -1.4107  -1.4040  -1.3592  -1.2622  -1.2541  -1.1193
    -1.1166  -1.0463  -0.9648  -0.9422  -0.9193  -0.7852  -0.7448  -0.7041
    -0.6990  -0.6736  -0.6476  -0.6288  -0.6002  -0.4490  -0.4299  -0.3957
    -0.3649  -0.3568  -0.3150  -0.2475  -0.1679  -0.0874  -0.0864  -0.0188
     0.0337   0.0949   0.1830   0.1951   0.1992   0.4820   0.5618   0.6495
     0.7288   0.7929   0.8583   0.8832   0.9436   0.9828   1.1215   1.1244
     1.1428   1.1433   1.2041   1.2124   1.3642   1.6487   2.2040   3.2326
     3.2329   3.3001   3.3006   3.6243   3.6298   3.7388   3.7479   3.8589
     3.8642

     the Fermi energy is     2.4971 ev

!    total energy              =   -2942.90663312 Ry
     estimated scf accuracy    <       0.00000004 Ry
     smearing contrib. (-TS)   =      -0.00476061 Ry
     internal energy E=F+TS    =   -2942.90187251 Ry

     The total energy is F=E-TS. E is the sum of the following terms:
     one-electron contribution =  -23225.45915435 Ry
     hartree contribution      =   11703.00977543 Ry
     xc contribution           =    -487.46850872 Ry
     ewald contribution        =    9067.01562984 Ry
     electric field correction =       0.00038529 Ry

     convergence has been achieved in  98 iterations

     Forces acting on atoms (cartesian axes, Ry/au):

     atom    1 type  1   force =     0.00000577   -0.00043688    0.12433091
     atom    2 type  1   force =    -0.00005982   -0.00054146   -0.16060755
     atom    3 type  2   force =     0.00016487   -0.00030065   -0.06841065
     atom    4 type  2   force =    -0.00005080   -0.00038600    0.02750720
     atom    5 type  2   force =    -0.01677455    0.00112873   -0.00834101
     atom    6 type  2   force =     0.01782547    0.00162847   -0.01023320
     atom    7 type  1   force =     0.00040208   -0.00408824    0.02186183
     atom    8 type  1   force =     0.00019723   -0.00219389    0.11173308
     atom    9 type  2   force =     0.00010396    0.00018760   -0.00034910
     atom   10 type  2   force =    -0.00319533    0.00010859   -0.07309765
     atom   11 type  2   force =    -0.00034191    0.00032795   -0.00009502
     atom   12 type  2   force =     0.00013597    0.00044833   -0.00005911
     atom   13 type  1   force =     0.00012445   -0.00024514    0.00005182
     atom   14 type  1   force =    -0.00015298    0.00004153   -0.00028972
     atom   15 type  2   force =    -0.00001009   -0.00023783    0.00011591
     atom   16 type  2   force =     0.00032503    0.00076695   -0.00002846
     atom   17 type  2   force =     0.00016953    0.00030862   -0.00033727
     atom   18 type  2   force =    -0.00020827    0.00020954    0.00014857
     atom   19 type  1   force =     0.00051094   -0.00010055   -0.00022684
     atom   20 type  1   force =     0.00004565   -0.00030631   -0.00034484
     atom   21 type  2   force =     0.00010174    0.00008206    0.09969530
     atom   22 type  2   force =     0.00014742    0.00094873    0.00045700
     atom   23 type  2   force =    -0.07916900    0.00008721   -0.03242768
     atom   24 type  2   force =     0.07907530    0.00051498   -0.03242071
     atom   25 type  1   force =     0.00003232   -0.00041131    0.12386123
     atom   26 type  1   force =    -0.00003904   -0.00041746   -0.16073009
     atom   27 type  2   force =     0.00028788   -0.00046737   -0.06740280
     atom   28 type  2   force =    -0.00005346   -0.00020271    0.02724218
     atom   29 type  2   force =    -0.01730427    0.00074243   -0.00826714
     atom   30 type  2   force =     0.01827234    0.00113942   -0.01010374
     atom   31 type  1   force =     0.00033646   -0.00100801    0.02132113
     atom   32 type  1   force =     0.00021260   -0.00027361    0.11228700
     atom   33 type  2   force =     0.00012086    0.00051188   -0.00011699
     atom   34 type  2   force =    -0.00294300   -0.00065407   -0.07295976
     atom   35 type  2   force =    -0.00024152    0.00027107   -0.00012213
     atom   36 type  2   force =     0.00009431    0.00014227   -0.00005622
     atom   37 type  1   force =     0.00012663   -0.00015213    0.00030860
     atom   38 type  1   force =     0.00006679    0.00005216    0.00034425
     atom   39 type  2   force =     0.00014839    0.00038665   -0.00025559
     atom   40 type  2   force =     0.00009939    0.00034498    0.00011458
     atom   41 type  2   force =    -0.00015823    0.00031173    0.00014014
     atom   42 type  2   force =     0.00000795    0.00062539   -0.00000184
     atom   43 type  1   force =     0.00062209    0.00053030    0.00049577
     atom   44 type  1   force =     0.00014517    0.00025066   -0.00028472
     atom   45 type  2   force =     0.00010615    0.00005050    0.09972000
     atom   46 type  2   force =    -0.07917654    0.00012755   -0.03242813
     atom   47 type  2   force =     0.07908096    0.00056238   -0.03241762
     atom   48 type  3   force =     0.00241871    0.00031460    0.00021688
     atom   49 type  4   force =    -0.01781665   -0.00057053    0.00226199
     atom   50 type  5   force =     0.00637831   -0.00418650   -0.00258603
     atom   51 type  5   force =     0.00165880    0.00114202   -0.00047667
     atom   52 type  5   force =     0.00825801    0.00260704    0.00176717
     atom   53 type  3   force =     0.00098883   -0.00022811    0.00033193
     atom   54 type  5   force =    -0.00010790    0.00081542   -0.00091357
     atom   55 type  5   force =     0.00020576    0.00033364    0.00030806
     atom   56 type  5   force =    -0.00120074   -0.00064262   -0.00023068

     Total force =     0.425545     Total SCF correction =     0.000548
  @ DRIVER MODE: Message from server: STATUS
  @ DRIVER MODE: Message from server: GETFORCE
  @ DRIVER MODE: Returning v,forces,stress,ensemble

     Writing output data file ./calc.save/
  @ DRIVER MODE: Message from server: EXIT
  @ DRIVE MODE: Exiting

     General routines

     Parallel routines

   This run was terminated on:  14:43: 8   2Aug2021

   JOB DONE.