     Program PWSCF v.6.7GPU starts on 23Sep2021 at 10:50:33

     R & G space division:  proc/nbgrp/npool/nimage =       8
     Reading input from /storage/home/hcoda1/3/ntian30/research/carbon/CxH_vib/H2O_calc/ads_slab/CH3N2HO_c/out_0031/pw.inp
Warning: card &CELL ignored
Warning: card   CELL_DYNAMICS='IPI', ignored
Warning: card / ignored

     Current dimensions of program PWSCF are:
     Max number of different atomic species (ntypx) = 10
     Max number of k-points (npk) =  40000
     Max angular momentum in pseudopotentials (lmaxx) =  3
     Presently no symmetry can be used with electric field

     Message from routine cell_base_init:
     DEPRECATED: use true lattice parameter, not A to a.u. conversion factor

     IMPORTANT: XC functional enforced from input :
     Exchange-correlation= BEEF-VDW
                           (   1   4  43  14   2   0   0)
     Any further DFT definition will be discarded
     Please, verify this is what you really want

  @ DRIVER MODE: Connecting to
 qe_1139763_2941007.sched-torque.pace.gatech.eduh_g3verg_scratch
  using UNIX socket
  @ DRIVER MODE: Message from server: STATUS
  @ DRIVER MODE: Message from server: INIT
  @ DRIVER MODE: Receiving replica           0          -1
  @ DRIVER MODE: Receiving encoded integer          25
  @ DRIVER MODE:  SCF:  T  FORCE:  T  STRESS:  F  VC:  F  ENSEMBLE:  F
  @ DRIVER MODE:  SCF:  T  FORCE:  T  STRESS:  F  VC:  F  ENSEMBLE:  F

     Using Slab Decomposition

     bravais-lattice index     =            0
     lattice parameter (alat)  =       1.8897  a.u.
     unit-cell volume          =    6658.9804 (a.u.)^3
     number of atoms/cell      =           55
     number of atomic types    =            5
     number of electrons       =       402.00
     number of Kohn-Sham states=          211
     kinetic-energy cutoff     =      29.3995  Ry
     charge density cutoff     =     293.9946  Ry
     scf convergence threshold =      7.3E-08
     mixing beta               =       0.0500
     number of iterations used =            8  plain     mixing
     Exchange-correlation= BEEF-VDW
                           (   1   4  43  14   2   0   0)

     celldm(1)=   1.889726  celldm(2)=   0.000000  celldm(3)=   0.000000
     celldm(4)=   0.000000  celldm(5)=   0.000000  celldm(6)=   0.000000

     crystal axes: (cart. coord. in units of alat)
               a(1) = (   6.579727   0.000000   0.000000 )
               a(2) = (  -0.000775   5.961596   0.000000 )
               a(3) = (   0.000000   0.000000  25.155947 )

     reciprocal axes: (cart. coord. in units 2 pi/alat)
               b(1) = (  0.151982  0.000020  0.000000 )
               b(2) = (  0.000000  0.167740  0.000000 )
               b(3) = (  0.000000  0.000000  0.039752 )

     PseudoPot. # 1 for Ti read from file:
     /storage/coda1/p-amedford6/0/shared/rich_project_chbe-medford/medford-share/data/pseudos_module/espresso/nninc/pbe/van/Ti.UPF
     MD5 check sum: 8e4df49b7f0d34bbd5052bf3f5ea0213
     Pseudo is Ultrasoft, Zval = 12.0
     Generated by new atomic code, or converted to UPF format
     Using radial grid of  851 points,  6 beta functions with:
                l(1) =   0
                l(2) =   0
                l(3) =   1
                l(4) =   1
                l(5) =   2
                l(6) =   2
     Q(r) pseudized with  8 coefficients,  rinner =    1.000   1.000   1.000
                                                       1.000   1.000

     PseudoPot. # 2 for O  read from file:
     /storage/coda1/p-amedford6/0/shared/rich_project_chbe-medford/medford-share/data/pseudos_module/espresso/nninc/pbe/van/O.UPF
     MD5 check sum: 78c19812648e8988a0fe644b0f25305e
     Pseudo is Ultrasoft, Zval =  6.0
     Generated by new atomic code, or converted to UPF format
     Using radial grid of  737 points,  4 beta functions with:
                l(1) =   0
                l(2) =   0
                l(3) =   1
                l(4) =   1
     Q(r) pseudized with  8 coefficients,  rinner =    0.800   0.800   0.800

     PseudoPot. # 3 for N  read from file:
     /storage/coda1/p-amedford6/0/shared/rich_project_chbe-medford/medford-share/data/pseudos_module/espresso/nninc/pbe/van/N.UPF
     MD5 check sum: 90d10febe142ad51ac9d5be1deb811c4
     Pseudo is Ultrasoft, Zval =  5.0
     Generated by new atomic code, or converted to UPF format
     Using radial grid of  729 points,  4 beta functions with:
                l(1) =   0
                l(2) =   0
                l(3) =   1
                l(4) =   1
     Q(r) pseudized with  8 coefficients,  rinner =    0.800   0.800   0.800

     PseudoPot. # 4 for C  read from file:
     /storage/coda1/p-amedford6/0/shared/rich_project_chbe-medford/medford-share/data/pseudos_module/espresso/nninc/pbe/van/C.UPF
     MD5 check sum: 1a69bf6b8db32088f5b2163dbdb77a27
     Pseudo is Ultrasoft, Zval =  4.0
     Generated by new atomic code, or converted to UPF format
     Using radial grid of  721 points,  4 beta functions with:
                l(1) =   0
                l(2) =   0
                l(3) =   1
                l(4) =   1
     Q(r) pseudized with  8 coefficients,  rinner =    0.800   0.800   0.800

     PseudoPot. # 5 for H  read from file:
     /storage/coda1/p-amedford6/0/shared/rich_project_chbe-medford/medford-share/data/pseudos_module/espresso/nninc/pbe/van/H.UPF
     MD5 check sum: b5ee9d7bfd3a09ee7748110bda690ff7
     Pseudo is Ultrasoft, Zval =  1.0
     Generated by new atomic code, or converted to UPF format
     Using radial grid of  615 points,  1 beta functions with:
                l(1) =   0
     Q(r) pseudized with  8 coefficients,  rinner =    0.800

     atomic species   valence    mass     pseudopotential
        Ti1           12.00    47.86700     Ti( 1.00)
        O1             6.00    15.99900     O ( 1.00)
        N1             5.00    14.00700     N ( 1.00)
        C1             4.00    12.01100     C ( 1.00)
        H1             1.00     1.00800     H ( 1.00)

     No symmetry found

   Cartesian axes

     site n.     atom                  positions (alat units)
         1           Ti1 tau(   1) = (   0.0004258   2.9801865   6.0000000  )
         2           Ti1 tau(   2) = (   3.2906075   1.4906267   6.0002472  )
         3           O1  tau(   3) = (   0.0006271   0.0005054   7.9858123  )
         4           O1  tau(   4) = (   3.2906025   0.0005020   7.3038282  )
         5           O1  tau(   5) = (   4.5942328   1.4918067   9.2879030  )
         6           O1  tau(   6) = (   1.9868534   1.4903216   9.2879459  )
         7           Ti1 tau(   7) = (   3.2907910   2.8959150   9.1758416  )
         8           Ti1 tau(   8) = (   0.0015273   1.4827037   9.2680791  )
         9           O1  tau(   9) = (   3.2989311   0.0219330  11.3020621  )
        10           O1  tau(  10) = (   0.0116148   5.9584955  10.6183126  )
        11           O1  tau(  11) = (   1.3029919   1.4976758  12.6257209  )
        12           O1  tau(  12) = (   5.3026591   1.4951023  12.6306759  )
        13           Ti1 tau(  13) = (   0.0286689   2.8598525  12.6759356  )
        14           Ti1 tau(  14) = (   3.3054201   1.5706400  12.4108957  )
        15           O1  tau(  15) = (   0.0066217   5.9386728  14.6456674  )
        16           O1  tau(  16) = (   3.2936494   5.9217248  13.9190535  )
        17           O1  tau(  17) = (   4.5783085   1.5227378  16.0725395  )
        18           O1  tau(  18) = (   2.0661487   1.5008106  16.0935948  )
        19           Ti1 tau(  19) = (   3.3004316   2.9577776  15.6622982  )
        20           Ti1 tau(  20) = (   6.5114840   1.4532315  15.8500040  )
        21           O1  tau(  21) = (   3.2904802   0.0005063   4.7018136  )
        22           O1  tau(  22) = (   0.0101108   5.9483577  17.1703567  )
        23           O1  tau(  23) = (   1.3043587   1.4918075   6.0039043  )
        24           O1  tau(  24) = (   5.2767064   1.4903225   6.0039473  )
        25           Ti1 tau(  25) = (   0.0000382   5.9609847   6.0000000  )
        26           Ti1 tau(  26) = (   3.2902200   4.4714249   6.0002472  )
        27           O1  tau(  27) = (   0.0002396   2.9813036   7.9858123  )
        28           O1  tau(  28) = (   3.2902150   2.9813002   7.3038282  )
        29           O1  tau(  29) = (   4.5938453   4.4726049   9.2879030  )
        30           O1  tau(  30) = (   1.9864658   4.4711199   9.2879459  )
        31           Ti1 tau(  31) = (   3.2891106   5.8743827   9.1763621  )
        32           Ti1 tau(  32) = (   0.0006254   4.4649316   9.2693709  )
        33           O1  tau(  33) = (   3.2985377   2.9527140  11.2683515  )
        34           O1  tau(  34) = (   0.0092240   2.9805883  10.6323155  )
        35           O1  tau(  35) = (   1.2869011   4.4751273  12.6337776  )
        36           O1  tau(  36) = (   5.3033013   4.4751711  12.6363117  )
        37           Ti1 tau(  37) = (   6.5677423   5.8343599  12.5653580  )
        38           Ti1 tau(  38) = (   3.2861748   4.6640272  12.6826305  )
        39           O1  tau(  39) = (   0.0268303   2.9326313  14.6927244  )
        40           O1  tau(  40) = (   3.2973518   2.9805258  13.8830516  )
        41           O1  tau(  41) = (   4.5656241   4.3944478  16.1024780  )
        42           O1  tau(  42) = (   2.0389263   4.3990843  16.1000718  )
        43           Ti1 tau(  43) = (   3.2183859   5.9292641  16.3327267  )
        44           Ti1 tau(  44) = (   6.5399727   4.6159235  16.0325440  )
        45           O1  tau(  45) = (   3.2900926   2.9813045   4.7018136  )
        46           O1  tau(  46) = (   1.3039711   4.4726057   6.0039043  )
        47           O1  tau(  47) = (   5.2763189   4.4711207   6.0039473  )
        48           N1  tau(  48) = (   0.1383159   2.7169024  18.7005470  )
        49           N1  tau(  49) = (   0.0454196   2.8879789  17.5111406  )
        50           C1  tau(  50) = (   0.1807782   3.8735959  19.6428767  )
        51           H1  tau(  51) = (   6.4938760   4.8136915  19.1652781  )
        52           H1  tau(  52) = (   6.0945921   3.6282151  20.4682347  )
        53           H1  tau(  53) = (   1.1916282   3.9139503  20.0277151  )
        54           O1  tau(  54) = (   3.2907091   5.9158944  18.1602194  )
        55           H1  tau(  55) = (   3.1351319   0.7410148  18.7017648  )

     number of k points=    10  Fermi-Dirac smearing, width (Ry)=  0.0073
                       cart. coord. in units 2pi/alat
        k(    1) = (   0.0000000   0.0000000   0.0000000), wk =   0.1250000
        k(    2) = (   0.0000000   0.0419351   0.0000000), wk =   0.2500000
        k(    3) = (   0.0000000  -0.0838702   0.0000000), wk =   0.1250000
        k(    4) = (   0.0379955   0.0000049   0.0000000), wk =   0.2500000
        k(    5) = (   0.0379955   0.0419400   0.0000000), wk =   0.2500000
        k(    6) = (   0.0379955  -0.0838652   0.0000000), wk =   0.2500000
        k(    7) = (   0.0379955  -0.0419301   0.0000000), wk =   0.2500000
        k(    8) = (  -0.0759910  -0.0000099   0.0000000), wk =   0.1250000
        k(    9) = (  -0.0759910   0.0419252   0.0000000), wk =   0.2500000
        k(   10) = (  -0.0759910  -0.0838800   0.0000000), wk =   0.1250000

     Initial potential from superposition of free atoms

     starting charge  385.99915, renormalised to  402.00000

     negative rho (up, down):  1.430E-02 0.000E+00

     %%%%%%%%%%%%%%%%%%%%%%%%%%%%%%%%%%%%%%%%%%%%%%%%%%%%%%%%%%%%%%%%%%%%%%%%
     %                                                                      %
     % You are using vdW-DF, which was implemented by the Thonhauser group. %
     % Please cite the following two papers that made this development      %
     % possible and the two reviews that describe the various versions:     %
     %                                                                      %
     %   T. Thonhauser et al., PRL 115, 136402 (2015).                      %
     %   T. Thonhauser et al., PRB 76, 125112 (2007).                       %
     %   K. Berland et al., Rep. Prog. Phys. 78, 066501 (2015).             %
     %   D.C. Langreth et al., J. Phys.: Condens. Matter 21, 084203 (2009). %
     %                                                                      %
     %                                                                      %
     % If you are calculating the stress with vdW-DF, please also cite:     %
     %                                                                      %
     %   R. Sabatini et al., J. Phys.: Condens. Matter 24, 424209 (2012).   %
     %                                                                      %
     %%%%%%%%%%%%%%%%%%%%%%%%%%%%%%%%%%%%%%%%%%%%%%%%%%%%%%%%%%%%%%%%%%%%%%%%

     Adding external electric field

     Computed dipole along edir(3) :
        Dipole              -12.0462 Ry au,        -30.6184 Debye
        Dipole field         -0.0227 Ry au,

        Potential amp.        2.1073 Ry
        Total length         46.3494 bohr

     Starting wfcs are  304 atomic wfcs
  @ DRIVER MODE: Message from server: STATUS
  @ DRIVER MODE: Message from server: POSDATA
  @ DRIVER MODE: Reading and sharing cell
  @ DRIVER MODE: Reading and sharing positions
  @ DRIVER MODE: Received positions

     Self-consistent Calculation

     iteration #  1     ecut=    29.40 Ry     beta= 0.05
     Davidson diagonalization with overlap
     c_bands:  5 eigenvalues not converged
     c_bands:  3 eigenvalues not converged
     c_bands:  5 eigenvalues not converged
     c_bands:  3 eigenvalues not converged
     c_bands:  3 eigenvalues not converged
     c_bands:  2 eigenvalues not converged
     c_bands:  5 eigenvalues not converged
     c_bands:  5 eigenvalues not converged
     ethr =  1.00E-05,  avg # of iterations = 21.5

[...]

     total energy              =   -2397.68029783 Ry
     estimated scf accuracy    <    6480.70458831 Ry

     iteration #  2     ecut=    29.40 Ry     beta= 0.05
     Davidson diagonalization with overlap
     ethr =  1.00E-02,  avg # of iterations = 22.3

[...]

     iteration # 48     ecut=    29.40 Ry     beta= 0.05
     Davidson diagonalization with overlap
     c_bands:  1 eigenvalues not converged
     ethr =  3.45E-09,  avg # of iterations =  7.0

[...]

     total energy              =   -2972.75293339 Ry
     estimated scf accuracy    <       0.00000009 Ry

     iteration # 66     ecut=    29.40 Ry     beta= 0.05
     Davidson diagonalization with overlap
     ethr =  2.05E-11,  avg # of iterations =  2.3

     negative rho (up, down):  1.494E-02 0.000E+00

     Adding external electric field

     Computed dipole along edir(3) :
        Dipole                0.6523 Ry au,          1.6581 Debye
        Dipole field          0.0012 Ry au,

        Potential amp.       -0.1141 Ry
        Total length         46.3494 bohr

     End of self-consistent calculation

          k = 0.0000 0.0000 0.0000 ( 18029 PWs)   bands (ev):

   -56.2016 -56.1678 -55.7875 -55.7540 -55.5831 -55.5474 -55.4975 -55.3485
   -55.3143 -55.3128 -55.1686 -55.1546 -55.0284 -55.0045 -54.9733 -54.9393
   -32.6520 -32.4941 -32.4672 -32.3601 -32.2761 -32.2675 -32.2671 -32.0314
   -32.0064 -31.9868 -31.9348 -31.9295 -31.9261 -31.8946 -31.8460 -31.8201
   -31.7924 -31.7698 -31.7680 -31.7256 -31.7104 -31.6976 -31.6846 -31.6553
   -31.6378 -31.6247 -31.5542 -31.5331 -31.5246 -31.5208 -31.4987 -31.4651
   -31.4350 -31.4019 -31.3699 -31.3633 -31.3576 -31.3064 -31.2851 -31.2828
   -31.2574 -31.2403 -31.2403 -31.2365 -31.2156 -31.1886 -31.1040 -30.9921
   -18.8072 -16.4951 -16.4418 -16.1605 -15.9538 -15.7788 -15.6948 -15.6825
   -15.6330 -15.5120 -15.5004 -15.3883 -15.3008 -15.2251 -15.1979 -15.1952
   -15.1012 -15.0572 -15.0144 -14.9899 -14.9779 -14.9702 -14.9388 -14.8313
   -14.8233 -14.7952 -14.6968 -14.6855 -14.5819 -14.2858 -14.2699 -13.4709
   -13.3587 -11.4523  -6.9024  -4.3553  -4.1584  -4.0046  -3.9900  -3.9397
    -3.7086  -3.4961  -3.4108  -3.2482  -3.1942  -3.1152  -2.9176  -2.9078
    -2.8532  -2.7825  -2.7075  -2.6486  -2.6020  -2.5853  -2.4904  -2.4521
    -2.4314  -2.4282  -2.3966  -2.3794  -2.2549  -2.2524  -2.2217  -2.1714
    -2.1122  -2.0978  -2.0307  -2.0225  -2.0049  -1.9573  -1.9219  -1.8749
    -1.8032  -1.7917  -1.6558  -1.6293  -1.6219  -1.5436  -1.5156  -1.5066
    -1.4573  -1.2959  -1.2250  -1.1779  -1.1743  -1.0361  -1.0221  -0.9851
    -0.9042  -0.8688  -0.7799  -0.7691  -0.7592  -0.7501  -0.6668  -0.6308
    -0.6151  -0.5892  -0.4066  -0.3780  -0.3162  -0.2638  -0.1644  -0.1204
    -0.1138  -0.1050  -0.0657  -0.0095   0.0120   0.0268   0.1254   0.1500
     0.2044   0.2727   0.3079   0.3802   0.4003   0.4027   0.4141   0.4693
     0.5613   0.6535   0.6964   0.7117   0.7804   0.7945   0.9314   0.9449
     1.0512   1.0927   1.1012   1.1621   1.2822   1.5651   1.5994   1.6387
     2.7576   3.0246   3.1522   3.3090   3.4566   3.5529   3.8446   3.8910
     3.9291   3.9523   3.9946

[...]

          k = 0.0380-0.0419 0.0000 ( 17876 PWs)   bands (ev):

[...]

          k =-0.0760-0.0000 0.0000 ( 17886 PWs)   bands (ev):

[...]

          k =-0.0760-0.0839 0.0000 ( 17948 PWs)   bands (ev):

   -56.1848 -56.1845 -55.7714 -55.7699 -55.5824 -55.5407 -55.5040 -55.3358
   -55.3253 -55.3148 -55.1667 -55.1527 -55.0302 -55.0064 -54.9563 -54.9561
   -32.4797 -32.4794 -32.4680 -32.4679 -32.3122 -32.3117 -32.0918 -32.0881
   -31.9656 -31.9628 -31.9602 -31.9593 -31.8700 -31.8466 -31.8212 -31.8201
   -31.7829 -31.7628 -31.7622 -31.7288 -31.7207 -31.6910 -31.6696 -31.6579
   -31.6046 -31.5979 -31.5746 -31.5580 -31.5422 -31.5420 -31.5262 -31.5056
   -31.4272 -31.4064 -31.3730 -31.3691 -31.3556 -31.3008 -31.2957 -31.2957
   -31.2899 -31.2494 -31.2458 -31.2407 -31.1848 -31.1843 -31.1466 -31.1462
   -18.8044 -16.4327 -15.9038 -15.8946 -15.7683 -15.7632 -15.5889 -15.5753
   -15.5749 -15.4913 -15.4520 -15.4288 -15.2862 -15.2727 -15.2125 -15.1873
   -15.1704 -15.1476 -15.1378 -15.1050 -15.0947 -15.0424 -14.9855 -14.9786
   -14.9196 -14.9120 -14.7545 -14.6923 -14.6465 -14.4987 -14.4050 -13.4620
   -13.4614 -11.4501  -6.9161  -4.2959  -4.1804  -3.9751  -3.9360  -3.0690
    -3.0204  -2.9179  -2.8807  -2.7997  -2.7874  -2.6765  -2.6599  -2.6135
    -2.5972  -2.5887  -2.5436  -2.4974  -2.4878  -2.4651  -2.4391  -2.4247
    -2.4114  -2.3747  -2.3239  -2.3074  -2.3021  -2.2768  -2.1745  -2.1442
    -2.1322  -2.1239  -2.0967  -2.0726  -2.0304  -1.9585  -1.9255  -1.8872
    -1.8753  -1.8055  -1.7449  -1.6948  -1.6786  -1.6116  -1.5581  -1.5310
    -1.4531  -1.4049  -1.2910  -1.2784  -1.2603  -1.1975  -1.1748  -1.1206
    -1.1009  -1.0390  -0.9894  -0.9662  -0.9619  -0.9481  -0.8804  -0.8193
    -0.7104  -0.6635  -0.6475  -0.6132  -0.6087  -0.5797  -0.5453  -0.5083
    -0.4082  -0.3944  -0.3824  -0.3304  -0.3209  -0.2467  -0.1710  -0.0554
     0.0652   0.1423   0.1522   0.1722   0.2117   0.2938   0.3720   0.4127
     0.4580   0.5179   0.5606   0.6001   0.6657   0.8076   0.8593   0.8813
     0.9658   1.0029   1.0736   1.1609   1.4394   1.4503   1.4547   1.4556
     2.8095   3.5738   3.5762   3.6057   3.6166   3.7309   3.8114   3.8290
     3.9538   4.0116   4.0682

     the Fermi energy is     2.9610 ev

!    total energy              =   -2972.75296086 Ry
     estimated scf accuracy    <       0.00000005 Ry
     smearing contrib. (-TS)   =      -0.01283838 Ry
     internal energy E=F+TS    =   -2972.74012248 Ry

     The total energy is F=E-TS. E is the sum of the following terms:
     one-electron contribution =  -23538.67156652 Ry
     hartree contribution      =   11862.95172295 Ry
     xc contribution           =    -493.07668263 Ry
     ewald contribution        =    9196.05560067 Ry
     electric field correction =       0.00080305 Ry

     convergence has been achieved in  66 iterations

     Forces acting on atoms (cartesian axes, Ry/au):

     atom    1 type  1   force =     0.00008126   -0.00037250    0.10682209
     atom    2 type  1   force =    -0.00012685    0.00016283   -0.16544252
     atom    3 type  2   force =     0.00006870   -0.00044737   -0.03890120
     atom    4 type  2   force =     0.00000360    0.00015914    0.03535893
     atom    5 type  2   force =    -0.00263554   -0.00317426   -0.00914248
     atom    6 type  2   force =     0.00445578   -0.00250931   -0.00942772
     atom    7 type  1   force =    -0.00001247    0.00133285    0.03448707
     atom    8 type  1   force =     0.00023590    0.01556092    0.06080250
     atom    9 type  2   force =    -0.00018046   -0.00045049    0.00006408
     atom   10 type  2   force =    -0.00255713    0.00088111   -0.04255953
     atom   11 type  2   force =    -0.00100193    0.00035451    0.00038226
     atom   12 type  2   force =     0.00049808    0.00025366    0.00027644
     atom   13 type  1   force =     0.00045186    0.00067401   -0.00043260
     atom   14 type  1   force =     0.00026076   -0.00015363    0.00040534
     atom   15 type  2   force =     0.00022666    0.00065025    0.00008470
     atom   16 type  2   force =    -0.00009323   -0.00038406   -0.00077945
     atom   17 type  2   force =    -0.00013673    0.00021701    0.00007380
     atom   18 type  2   force =     0.00017001   -0.00002350   -0.00014270
     atom   19 type  1   force =     0.00020340   -0.00094913    0.00011188
     atom   20 type  1   force =     0.00017377    0.00018445   -0.00040004
     atom   21 type  2   force =     0.00003387    0.00013352    0.10044156
     atom   22 type  2   force =     0.00015365    0.00067334   -0.00000833
     atom   23 type  2   force =    -0.07681155   -0.00000398   -0.03011176
     atom   24 type  2   force =     0.07668304    0.00046643   -0.03015766
     atom   25 type  1   force =    -0.00008581   -0.00045418    0.10720361
     atom   26 type  1   force =    -0.00021018   -0.00131372   -0.16549538
     atom   27 type  2   force =     0.00010160   -0.00031689   -0.03719378
     atom   28 type  2   force =     0.00004671   -0.00000417    0.03052427
     atom   29 type  2   force =    -0.00567211    0.00366412   -0.00701228
     atom   30 type  2   force =     0.00730829    0.00401234   -0.00728647
     atom   31 type  1   force =    -0.00011832   -0.00228153    0.02268607
     atom   32 type  1   force =     0.00032642   -0.01776756    0.06127236
     atom   33 type  2   force =    -0.00016986    0.00018615   -0.00015941
     atom   34 type  2   force =    -0.00143638    0.00001424   -0.05428385
     atom   35 type  2   force =    -0.00002532   -0.00017526   -0.00021650
     atom   36 type  2   force =    -0.00029407    0.00005162   -0.00006403
     atom   37 type  1   force =     0.00013019   -0.00005825    0.00055546
     atom   38 type  1   force =     0.00033716    0.00001023    0.00010723
     atom   39 type  2   force =    -0.00011963    0.00029174   -0.00034816
     atom   40 type  2   force =     0.00001021    0.00030401    0.00047164
     atom   41 type  2   force =    -0.00023808    0.00021372   -0.00010776
     atom   42 type  2   force =     0.00022042   -0.00000305   -0.00001636
     atom   43 type  1   force =     0.00020879    0.00048164    0.00037913
     atom   44 type  1   force =     0.00031423    0.00017951   -0.00039945
     atom   45 type  2   force =     0.00003606    0.00013630    0.10028040
     atom   46 type  2   force =    -0.07678706    0.00003429   -0.03009792
     atom   47 type  2   force =     0.07664723    0.00047138   -0.03011704
     atom   48 type  3   force =     0.00044962    0.00069337   -0.00131052
     atom   49 type  3   force =     0.00031224   -0.00047612   -0.00026989
     atom   50 type  4   force =    -0.01037434   -0.00021609   -0.00350653
     atom   51 type  5   force =    -0.00038703   -0.00060083   -0.00062896
     atom   52 type  5   force =    -0.00088912   -0.00043804   -0.00045330
     atom   53 type  5   force =     0.01146964    0.00039721    0.00314400
     atom   54 type  2   force =     0.00017077   -0.00018540    0.00168621
     atom   55 type  5   force =    -0.00142674   -0.00008656   -0.00114746

     Total force =     0.381145     Total SCF correction =     0.000693
  @ DRIVER MODE: Message from server: STATUS
  @ DRIVER MODE: Message from server: GETFORCE
  @ DRIVER MODE: Returning v,forces,stress,ensemble

     Writing output data file ./calc.save/
  @ DRIVER MODE: Message from server: EXIT
  @ DRIVE MODE: Exiting

     General routines

     Parallel routines

   This run was terminated on:  11:12:10  23Sep2021

   JOB DONE.