     Program PWSCF v.6.7GPU starts on 22Sep2021 at 20:13:25

     R & G space division:  proc/nbgrp/npool/nimage =      10
     Reading input from /storage/home/hcoda1/3/ntian30/research/carbon/CxH_vib/H2O_calc/ads_slab/CHNHNH2H2O_b/out_0012/pw.inp
Warning: card &CELL ignored
Warning: card   CELL_DYNAMICS='IPI', ignored
Warning: card / ignored

     Current dimensions of program PWSCF are:
     Max number of different atomic species (ntypx) = 10
     Max number of k-points (npk) =  40000
     Max angular momentum in pseudopotentials (lmaxx) =  3
     Presently no symmetry can be used with electric field

     Message from routine cell_base_init:
     DEPRECATED: use true lattice parameter, not A to a.u. conversion factor

     IMPORTANT: XC functional enforced from input :
     Exchange-correlation= BEEF-VDW
                           (   1   4  43  14   2   0   0)
     Any further DFT definition will be discarded
     Please, verify this is what you really want

  @ DRIVER MODE: Connecting to
 qe_1139763_2937312.sched-torque.pace.gatech.eduuv1u5q1k_scratch
  using UNIX socket
  @ DRIVER MODE: Message from server: STATUS
  @ DRIVER MODE: Message from server: INIT
  @ DRIVER MODE: Receiving replica           0          -1
  @ DRIVER MODE: Receiving encoded integer          25
  @ DRIVER MODE:  SCF:  T  FORCE:  T  STRESS:  F  VC:  F  ENSEMBLE:  F
  @ DRIVER MODE:  SCF:  T  FORCE:  T  STRESS:  F  VC:  F  ENSEMBLE:  F

     Using Slab Decomposition

     bravais-lattice index     =            0
     lattice parameter (alat)  =       1.8897  a.u.
     unit-cell volume          =    6658.9804 (a.u.)^3
     number of atoms/cell      =           57
     number of atomic types    =            5
     number of electrons       =       404.00
     number of Kohn-Sham states=          212
     kinetic-energy cutoff     =      29.3995  Ry
     charge density cutoff     =     293.9946  Ry
     scf convergence threshold =      7.3E-08
     mixing beta               =       0.0500
     number of iterations used =            8  plain     mixing
     Exchange-correlation= BEEF-VDW
                           (   1   4  43  14   2   0   0)

     celldm(1)=   1.889726  celldm(2)=   0.000000  celldm(3)=   0.000000
     celldm(4)=   0.000000  celldm(5)=   0.000000  celldm(6)=   0.000000

     crystal axes: (cart. coord. in units of alat)
               a(1) = (   6.579727   0.000000   0.000000 )
               a(2) = (  -0.000775   5.961596   0.000000 )
               a(3) = (   0.000000   0.000000  25.155947 )

     reciprocal axes: (cart. coord. in units 2 pi/alat)
               b(1) = (  0.151982  0.000020  0.000000 )
               b(2) = (  0.000000  0.167740  0.000000 )
               b(3) = (  0.000000  0.000000  0.039752 )

     PseudoPot. # 1 for Ti read from file:
     /storage/coda1/p-amedford6/0/shared/rich_project_chbe-medford/medford-share/data/pseudos_module/espresso/nninc/pbe/van/Ti.UPF
     MD5 check sum: 8e4df49b7f0d34bbd5052bf3f5ea0213
     Pseudo is Ultrasoft, Zval = 12.0
     Generated by new atomic code, or converted to UPF format
     Using radial grid of  851 points,  6 beta functions with:
                l(1) =   0
                l(2) =   0
                l(3) =   1
                l(4) =   1
                l(5) =   2
                l(6) =   2
     Q(r) pseudized with  8 coefficients,  rinner =    1.000   1.000   1.000
                                                       1.000   1.000

     PseudoPot. # 2 for O  read from file:
     /storage/coda1/p-amedford6/0/shared/rich_project_chbe-medford/medford-share/data/pseudos_module/espresso/nninc/pbe/van/O.UPF
     MD5 check sum: 78c19812648e8988a0fe644b0f25305e
     Pseudo is Ultrasoft, Zval =  6.0
     Generated by new atomic code, or converted to UPF format
     Using radial grid of  737 points,  4 beta functions with:
                l(1) =   0
                l(2) =   0
                l(3) =   1
                l(4) =   1
     Q(r) pseudized with  8 coefficients,  rinner =    0.800   0.800   0.800

     PseudoPot. # 3 for N  read from file:
     /storage/coda1/p-amedford6/0/shared/rich_project_chbe-medford/medford-share/data/pseudos_module/espresso/nninc/pbe/van/N.UPF
     MD5 check sum: 90d10febe142ad51ac9d5be1deb811c4
     Pseudo is Ultrasoft, Zval =  5.0
     Generated by new atomic code, or converted to UPF format
     Using radial grid of  729 points,  4 beta functions with:
                l(1) =   0
                l(2) =   0
                l(3) =   1
                l(4) =   1
     Q(r) pseudized with  8 coefficients,  rinner =    0.800   0.800   0.800

     PseudoPot. # 4 for C  read from file:
     /storage/coda1/p-amedford6/0/shared/rich_project_chbe-medford/medford-share/data/pseudos_module/espresso/nninc/pbe/van/C.UPF
     MD5 check sum: 1a69bf6b8db32088f5b2163dbdb77a27
     Pseudo is Ultrasoft, Zval =  4.0
     Generated by new atomic code, or converted to UPF format
     Using radial grid of  721 points,  4 beta functions with:
                l(1) =   0
                l(2) =   0
                l(3) =   1
                l(4) =   1
     Q(r) pseudized with  8 coefficients,  rinner =    0.800   0.800   0.800

     PseudoPot. # 5 for H  read from file:
     /storage/coda1/p-amedford6/0/shared/rich_project_chbe-medford/medford-share/data/pseudos_module/espresso/nninc/pbe/van/H.UPF
     MD5 check sum: b5ee9d7bfd3a09ee7748110bda690ff7
     Pseudo is Ultrasoft, Zval =  1.0
     Generated by new atomic code, or converted to UPF format
     Using radial grid of  615 points,  1 beta functions with:
                l(1) =   0
     Q(r) pseudized with  8 coefficients,  rinner =    0.800

     atomic species   valence    mass     pseudopotential
        Ti1           12.00    47.86700     Ti( 1.00)
        O1             6.00    15.99900     O ( 1.00)
        N1             5.00    14.00700     N ( 1.00)
        C1             4.00    12.01100     C ( 1.00)
        H1             1.00     1.00800     H ( 1.00)

     No symmetry found

   Cartesian axes

     site n.     atom                  positions (alat units)
         1           Ti1 tau(   1) = (   0.0004258   2.9801865   6.0000000  )
         2           Ti1 tau(   2) = (   3.2906075   1.4906267   6.0002472  )
         3           O1  tau(   3) = (   0.0006271   0.0005054   7.9858123  )
         4           O1  tau(   4) = (   3.2906025   0.0005020   7.3038282  )
         5           O1  tau(   5) = (   4.5942328   1.4918067   9.2879030  )
         6           O1  tau(   6) = (   1.9868534   1.4903216   9.2879459  )
         7           Ti1 tau(   7) = (   3.2907910   2.8959150   9.1758416  )
         8           Ti1 tau(   8) = (   0.0015273   1.4827037   9.2680791  )
         9           O1  tau(   9) = (   3.3066417   5.9496923  11.3845403  )
        10           O1  tau(  10) = (   0.0116148   5.9584955  10.6183126  )
        11           O1  tau(  11) = (   1.3010148   1.4986442  12.6442229  )
        12           O1  tau(  12) = (   5.3085967   1.5001388  12.6592367  )
        13           Ti1 tau(  13) = (   0.0282779   2.9853959  12.5065338  )
        14           Ti1 tau(  14) = (   3.3279724   1.4707331  12.5413945  )
        15           O1  tau(  15) = (   0.0378505   0.0859181  14.6860672  )
        16           O1  tau(  16) = (   3.3018867   0.0259462  14.0338077  )
        17           O1  tau(  17) = (   4.5998927   1.5484098  16.1661054  )
        18           O1  tau(  18) = (   2.0454451   1.5021798  16.2221046  )
        19           Ti1 tau(  19) = (   3.3206312   2.9825829  15.7321521  )
        20           Ti1 tau(  20) = (   0.0140791   1.4435866  15.9983415  )
        21           O1  tau(  21) = (   3.2904802   0.0005063   4.7018136  )
        22           O1  tau(  22) = (   6.5273045   5.8164216  17.2577718  )
        23           O1  tau(  23) = (   1.3043587   1.4918075   6.0039043  )
        24           O1  tau(  24) = (   5.2767064   1.4903225   6.0039473  )
        25           Ti1 tau(  25) = (   0.0000382   5.9609847   6.0000000  )
        26           Ti1 tau(  26) = (   3.2902200   4.4714249   6.0002472  )
        27           O1  tau(  27) = (   0.0002396   2.9813036   7.9858123  )
        28           O1  tau(  28) = (   3.2902150   2.9813002   7.3038282  )
        29           O1  tau(  29) = (   4.5938453   4.4726049   9.2879030  )
        30           O1  tau(  30) = (   1.9864658   4.4711199   9.2879459  )
        31           Ti1 tau(  31) = (   3.2891106   5.8743827   9.1763621  )
        32           Ti1 tau(  32) = (   0.0006254   4.4649316   9.2693709  )
        33           O1  tau(  33) = (   3.3068470   2.9864458  11.3814114  )
        34           O1  tau(  34) = (   0.0092240   2.9805883  10.6323155  )
        35           O1  tau(  35) = (   1.2982948   4.4740332  12.6840172  )
        36           O1  tau(  36) = (   5.3097620   4.4704985  12.6972095  )
        37           Ti1 tau(  37) = (   0.0348817   0.0130325  12.4954113  )
        38           Ti1 tau(  38) = (   3.3270268   4.4633798  12.5435021  )
        39           O1  tau(  39) = (   0.0563025   2.9439880  14.9425960  )
        40           O1  tau(  40) = (   3.2900316   2.9661073  13.9503945  )
        41           O1  tau(  41) = (   4.5967999   4.4093095  16.0633277  )
        42           O1  tau(  42) = (   2.0412097   4.4536800  16.1303113  )
        43           Ti1 tau(  43) = (   3.2964201   5.9600488  15.8742613  )
        44           Ti1 tau(  44) = (   0.0241369   4.6516137  15.8518307  )
        45           O1  tau(  45) = (   3.2900926   2.9813045   4.7018136  )
        46           O1  tau(  46) = (   1.3039711   4.4726057   6.0039043  )
        47           O1  tau(  47) = (   5.2763189   4.4711207   6.0039473  )
        48           N1  tau(  48) = (   1.4509408   2.7109095  18.7602185  )
        49           N1  tau(  49) = (   0.0917387   2.5303350  18.2307845  )
        50           C1  tau(  50) = (   1.9503960   3.7723240  19.2784661  )
        51           H1  tau(  51) = (   1.1612915   4.5273475  19.4152495  )
        52           H1  tau(  52) = (   2.0208952   1.9183395  18.4664618  )
        53           H1  tau(  53) = (   6.1377449   3.3539424  18.4987646  )
        54           H1  tau(  54) = (   6.2616785   1.7135167  18.6767212  )
        55           O1  tau(  55) = (   3.7012217   5.9496235  18.2853534  )
        56           H1  tau(  56) = (   4.6684668   5.8470116  18.1670174  )
        57           H1  tau(  57) = (   3.3852657   5.1278045  18.7338684  )

     number of k points=    10  Fermi-Dirac smearing, width (Ry)=  0.0073
                       cart. coord. in units 2pi/alat
        k(    1) = (   0.0000000   0.0000000   0.0000000), wk =   0.1250000
        k(    2) = (   0.0000000   0.0419351   0.0000000), wk =   0.2500000
        k(    3) = (   0.0000000  -0.0838702   0.0000000), wk =   0.1250000
        k(    4) = (   0.0379955   0.0000049   0.0000000), wk =   0.2500000
        k(    5) = (   0.0379955   0.0419400   0.0000000), wk =   0.2500000
        k(    6) = (   0.0379955  -0.0838652   0.0000000), wk =   0.2500000
        k(    7) = (   0.0379955  -0.0419301   0.0000000), wk =   0.2500000
        k(    8) = (  -0.0759910  -0.0000099   0.0000000), wk =   0.1250000
        k(    9) = (  -0.0759910   0.0419252   0.0000000), wk =   0.2500000
        k(   10) = (  -0.0759910  -0.0838800   0.0000000), wk =   0.1250000

     Initial potential from superposition of free atoms

     starting charge  387.99913, renormalised to  404.00000

     negative rho (up, down):  1.598E-02 0.000E+00

     %%%%%%%%%%%%%%%%%%%%%%%%%%%%%%%%%%%%%%%%%%%%%%%%%%%%%%%%%%%%%%%%%%%%%%%%
     %                                                                      %
     % You are using vdW-DF, which was implemented by the Thonhauser group. %
     % Please cite the following two papers that made this development      %
     % possible and the two reviews that describe the various versions:     %
     %                                                                      %
     %   T. Thonhauser et al., PRL 115, 136402 (2015).                      %
     %   T. Thonhauser et al., PRB 76, 125112 (2007).                       %
     %   K. Berland et al., Rep. Prog. Phys. 78, 066501 (2015).             %
     %   D.C. Langreth et al., J. Phys.: Condens. Matter 21, 084203 (2009). %
     %                                                                      %
     %                                                                      %
     % If you are calculating the stress with vdW-DF, please also cite:     %
     %                                                                      %
     %   R. Sabatini et al., J. Phys.: Condens. Matter 24, 424209 (2012).   %
     %                                                                      %
     %%%%%%%%%%%%%%%%%%%%%%%%%%%%%%%%%%%%%%%%%%%%%%%%%%%%%%%%%%%%%%%%%%%%%%%%

     Adding external electric field

     Computed dipole along edir(3) :
        Dipole              -14.3624 Ry au,        -36.5056 Debye
        Dipole field         -0.0271 Ry au,

        Potential amp.        2.5125 Ry
        Total length         46.3494 bohr

     Starting wfcs are  306 atomic wfcs
  @ DRIVER MODE: Message from server: STATUS
  @ DRIVER MODE: Message from server: POSDATA
  @ DRIVER MODE: Reading and sharing cell
  @ DRIVER MODE: Reading and sharing positions
  @ DRIVER MODE: Received positions

     Self-consistent Calculation

     iteration #  1     ecut=    29.40 Ry     beta= 0.05
     Davidson diagonalization with overlap
     c_bands:  3 eigenvalues not converged
     c_bands:  4 eigenvalues not converged
     c_bands:  4 eigenvalues not converged
     c_bands:  4 eigenvalues not converged
     c_bands:  5 eigenvalues not converged
     c_bands:  3 eigenvalues not converged
     c_bands:  2 eigenvalues not converged
     c_bands:  4 eigenvalues not converged
     ethr =  1.00E-05,  avg # of iterations = 21.9

[...]

     total energy              =   -2220.88694867 Ry
     estimated scf accuracy    <    8587.92229479 Ry

     iteration #  2     ecut=    29.40 Ry     beta= 0.05
     Davidson diagonalization with overlap
     ethr =  1.00E-02,  avg # of iterations = 27.8

[...]

     iteration # 78     ecut=    29.40 Ry     beta= 0.05
     Davidson diagonalization with overlap
     ethr =  2.80E-11,  avg # of iterations =  9.0

[...]

     total energy              =   -2975.10521781 Ry
     estimated scf accuracy    <       0.00000008 Ry

     iteration # 79     ecut=    29.40 Ry     beta= 0.05
     Davidson diagonalization with overlap
     c_bands:  1 eigenvalues not converged
     c_bands:  1 eigenvalues not converged
     ethr =  1.88E-11,  avg # of iterations = 12.0

     negative rho (up, down):  1.579E-02 0.000E+00

     Adding external electric field

     Computed dipole along edir(3) :
        Dipole                1.0199 Ry au,          2.5924 Debye
        Dipole field          0.0019 Ry au,

        Potential amp.       -0.1784 Ry
        Total length         46.3494 bohr

     End of self-consistent calculation

          k = 0.0000 0.0000 0.0000 ( 18029 PWs)   bands (ev):

   -55.3881 -55.3523 -55.3482 -55.3140 -55.3112 -55.3063 -55.2701 -55.2348
   -55.2197 -55.1848 -55.1781 -55.1628 -55.1444 -55.1153 -54.3795 -54.3455
   -31.9471 -31.8841 -31.8408 -31.7597 -31.7109 -31.7082 -31.6841 -31.6810
   -31.6369 -31.6012 -31.5940 -31.5928 -31.5865 -31.5822 -31.5645 -31.5621
   -31.5376 -31.5295 -31.5265 -31.5152 -31.5008 -31.4944 -31.4761 -31.4711
   -31.4621 -31.4493 -31.4486 -31.4199 -31.4054 -31.4017 -31.3986 -31.3765
   -31.3726 -31.3685 -31.3650 -31.3438 -31.3327 -31.3207 -31.3058 -31.3058
   -31.2959 -31.2892 -30.7890 -30.6944 -30.6723 -30.6054 -30.5186 -30.4077
   -18.9035 -18.4510 -16.2231 -15.9757 -15.8398 -15.7352 -15.5977 -15.5000
   -15.3904 -15.2772 -15.2541 -15.1607 -15.0860 -15.0816 -15.0445 -15.0193
   -14.9566 -14.9352 -14.9115 -14.9055 -14.8908 -14.8807 -14.8442 -14.8333
   -14.8004 -14.7894 -14.7719 -14.6520 -14.6296 -14.5547 -14.4841 -14.3476
   -12.8821 -12.7646  -9.8431  -7.0442  -6.3743  -6.1136  -4.4251  -3.7213
    -3.5463  -3.4132  -3.3340  -3.3052  -3.2883  -3.1570  -3.0603  -2.9042
    -2.8660  -2.8095  -2.6767  -2.6008  -2.5943  -2.5063  -2.4343  -2.4106
    -2.3776  -2.2682  -2.2621  -2.2122  -2.1949  -2.1718  -2.1626  -2.1158
    -2.0704  -2.0429  -1.9576  -1.8563  -1.8121  -1.7927  -1.7562  -1.7337
    -1.7289  -1.6852  -1.6788  -1.6549  -1.6165  -1.5922  -1.5467  -1.4345
    -1.3913  -1.2339  -1.1957  -1.0425  -1.0219  -0.9829  -0.9624  -0.9136
    -0.8950  -0.8794  -0.8504  -0.7749  -0.7168  -0.6494  -0.5864  -0.4951
    -0.4845  -0.4105  -0.3853  -0.3203  -0.2308  -0.1883  -0.1785  -0.1538
    -0.1501  -0.0365   0.0081   0.0685   0.0871   0.1445   0.1604   0.1825
     0.2524   0.3061   0.3755   0.4063   0.4853   0.5034   0.5386   0.5478
     0.5801   0.5906   0.6667   0.6816   0.7098   0.8125   0.9101   1.0043
     1.2140   1.2156   1.2621   1.5480   1.5502   1.6434   1.8268   2.2197
     2.2681   3.7017   3.7801   3.8296   3.8473   3.8518   3.9366   4.1912
     4.2055   4.2181   4.2243   4.2651

[...]

          k = 0.0380-0.0419 0.0000 ( 17876 PWs)   bands (ev):

[...]

          k =-0.0760-0.0000 0.0000 ( 17886 PWs)   bands (ev):

[...]

          k =-0.0760-0.0839 0.0000 ( 17948 PWs)   bands (ev):

   -55.3713 -55.3690 -55.3312 -55.3309 -55.3080 -55.3056 -55.2563 -55.2485
   -55.2054 -55.1987 -55.1646 -55.1622 -55.1604 -55.1171 -54.3625 -54.3624
   -31.7989 -31.7596 -31.7455 -31.6560 -31.6557 -31.6414 -31.6293 -31.6223
   -31.6221 -31.6013 -31.5963 -31.5932 -31.5701 -31.5632 -31.5505 -31.5367
   -31.5336 -31.5309 -31.5272 -31.5189 -31.5143 -31.5123 -31.5116 -31.5040
   -31.4716 -31.4702 -31.4509 -31.4507 -31.4504 -31.4457 -31.4427 -31.4383
   -31.4288 -31.4175 -31.4117 -31.3950 -31.3932 -31.3835 -31.3421 -31.3410
   -31.3405 -31.3216 -30.6850 -30.6850 -30.6016 -30.6014 -30.5620 -30.5620
   -18.8979 -18.4531 -15.8437 -15.6558 -15.5044 -15.4327 -15.4124 -15.3291
   -15.2739 -15.2702 -15.1972 -15.1792 -15.1669 -15.1453 -15.1356 -15.0883
   -15.0511 -15.0146 -14.9959 -14.9732 -14.9300 -14.9074 -14.9057 -14.8990
   -14.8912 -14.8515 -14.8456 -14.8424 -14.7507 -14.7487 -14.7111 -14.5631
   -12.8661 -12.8660  -9.8523  -7.0328  -6.3497  -6.0905  -4.4384  -3.6473
    -3.0209  -2.9139  -2.9037  -2.6738  -2.6562  -2.5950  -2.5830  -2.4945
    -2.4791  -2.4183  -2.3948  -2.3445  -2.3218  -2.2836  -2.2699  -2.2480
    -2.2271  -2.2134  -2.1867  -2.1707  -2.1533  -2.1342  -2.1231  -2.1118
    -2.0561  -2.0512  -2.0419  -2.0166  -1.9935  -1.9575  -1.9476  -1.9312
    -1.7759  -1.7598  -1.7384  -1.6032  -1.5988  -1.5618  -1.5246  -1.4969
    -1.4388  -1.4305  -1.4022  -1.3429  -1.1472  -1.1373  -1.1271  -1.1087
    -1.0389  -0.9820  -0.9682  -0.9506  -0.8971  -0.8185  -0.7764  -0.7321
    -0.6336  -0.5918  -0.5808  -0.5561  -0.4350  -0.4118  -0.3696  -0.3516
    -0.3352  -0.3012  -0.2996  -0.2398  -0.1887  -0.1540  -0.1311  -0.1168
    -0.0799   0.0754   0.1267   0.1432   0.2574   0.2868   0.4651   0.5078
     0.5295   0.6345   0.7178   0.7461   0.7602   0.8868   0.9083   0.9103
     0.9786   1.0007   1.0609   1.0667   1.2197   1.9995   2.0008   2.0879
     2.0881   3.8269   3.9495   3.9940   4.0296   4.1056   4.1585   4.2155
     4.2747   4.2865   4.2898   4.3573

     the Fermi energy is     3.7638 ev

!    total energy              =   -2975.10523692 Ry
     estimated scf accuracy    <       0.00000005 Ry
     smearing contrib. (-TS)   =      -0.03671973 Ry
     internal energy E=F+TS    =   -2975.06851718 Ry

     The total energy is F=E-TS. E is the sum of the following terms:
     one-electron contribution =  -23503.01104387 Ry
     hartree contribution      =   11847.49681320 Ry
     xc contribution           =    -494.92510862 Ry
     ewald contribution        =    9175.36885897 Ry
     electric field correction =       0.00196314 Ry

     convergence has been achieved in  79 iterations

     Forces acting on atoms (cartesian axes, Ry/au):

     atom    1 type  1   force =     0.00002967   -0.00025269    0.09307405
     atom    2 type  1   force =    -0.00019441   -0.00032313   -0.17839160
     atom    3 type  2   force =     0.00006076   -0.00016828   -0.02023652
     atom    4 type  2   force =     0.00001623   -0.00203536    0.05925052
     atom    5 type  2   force =    -0.01033782   -0.00109899    0.00808394
     atom    6 type  2   force =     0.01218004   -0.00054484    0.00816163
     atom    7 type  1   force =     0.00015273    0.00329793   -0.01112843
     atom    8 type  1   force =    -0.00029862    0.00053546   -0.00562012
     atom    9 type  2   force =     0.00004398    0.00017923   -0.00015539
     atom   10 type  2   force =    -0.00146406   -0.00003471   -0.00172479
     atom   11 type  2   force =     0.00037533   -0.00003613   -0.00005887
     atom   12 type  2   force =    -0.00009525    0.00010428   -0.00008961
     atom   13 type  1   force =    -0.00010937   -0.00016812   -0.00025821
     atom   14 type  1   force =    -0.00021553   -0.00036062    0.00033036
     atom   15 type  2   force =     0.00006844   -0.00027489    0.00014639
     atom   16 type  2   force =     0.00022517    0.00009868    0.00022148
     atom   17 type  2   force =     0.00047490   -0.00013471    0.00020949
     atom   18 type  2   force =    -0.00021196   -0.00007890   -0.00008059
     atom   19 type  1   force =    -0.00030800   -0.00039532    0.00013692
     atom   20 type  1   force =     0.00009569   -0.00001491    0.00081700
     atom   21 type  2   force =    -0.00000563   -0.00007797    0.10398672
     atom   22 type  2   force =    -0.00008611    0.00007547   -0.00013187
     atom   23 type  2   force =    -0.07032830   -0.00016459   -0.02684398
     atom   24 type  2   force =     0.07019940    0.00027961   -0.02692303
     atom   25 type  1   force =     0.00001681   -0.00015195    0.09273371
     atom   26 type  1   force =    -0.00015253   -0.00040079   -0.17833466
     atom   27 type  2   force =     0.00011028   -0.00030759   -0.01917399
     atom   28 type  2   force =     0.00004585   -0.00163348    0.05839924
     atom   29 type  2   force =    -0.01029090   -0.00064146    0.00729041
     atom   30 type  2   force =     0.01202777   -0.00031075    0.00742585
     atom   31 type  1   force =     0.00007297    0.00515137   -0.01466977
     atom   32 type  1   force =    -0.00014236   -0.00052416   -0.00596564
     atom   33 type  2   force =     0.00012847   -0.00039309   -0.00024707
     atom   34 type  2   force =    -0.00078764    0.00260553   -0.00104705
     atom   35 type  2   force =    -0.00007449   -0.00011003   -0.00011835
     atom   36 type  2   force =     0.00024412    0.00000903   -0.00014470
     atom   37 type  1   force =    -0.00043977    0.00007964   -0.00000531
     atom   38 type  1   force =    -0.00003342   -0.00024446   -0.00024064
     atom   39 type  2   force =    -0.00030078   -0.00020615   -0.00005008
     atom   40 type  2   force =    -0.00013764   -0.00006368   -0.00005987
     atom   41 type  2   force =    -0.00008272   -0.00017260    0.00035324
     atom   42 type  2   force =    -0.00011541   -0.00024881    0.00007198
     atom   43 type  1   force =    -0.00001022   -0.00036600    0.00031778
     atom   44 type  1   force =     0.00003075    0.00007602    0.00022787
     atom   45 type  2   force =     0.00000984   -0.00010782    0.10395643
     atom   46 type  2   force =    -0.07035462   -0.00011206   -0.02686926
     atom   47 type  2   force =     0.07019912    0.00032293   -0.02692786
     atom   48 type  3   force =    -0.00048146    0.00091407    0.00236422
     atom   49 type  3   force =     0.00284951    0.00068626   -0.00828388
     atom   50 type  4   force =     0.00157015    0.00194333    0.00018576
     atom   51 type  5   force =    -0.00013516   -0.00092656   -0.00003993
     atom   52 type  5   force =    -0.00020740   -0.00106652   -0.00030955
     atom   53 type  5   force =    -0.00166880    0.00267553    0.00222208
     atom   54 type  5   force =    -0.00196612   -0.00420422    0.00389123
     atom   55 type  2   force =     0.00025153    0.00002557    0.00043746
     atom   56 type  5   force =     0.00016701   -0.00034757   -0.00037489
     atom   57 type  5   force =    -0.00060998   -0.00035605    0.00020974

     Total force =     0.366352     Total SCF correction =     0.000587
  @ DRIVER MODE: Message from server: STATUS
  @ DRIVER MODE: Message from server: GETFORCE
  @ DRIVER MODE: Returning v,forces,stress,ensemble

     Writing output data file ./calc.save/
  @ DRIVER MODE: Message from server: EXIT
  @ DRIVE MODE: Exiting

     General routines

     Parallel routines

   This run was terminated on:  20:35: 2  22Sep2021

   JOB DONE.