     Program PWSCF v.6.7GPU starts on 23Aug2021 at 15:16:17

     R & G space division:  proc/nbgrp/npool/nimage =       6
     Reading input from /storage/home/hcoda1/3/ntian30/research/carbon/CH_vib/ads_slab/CH_a/out_0006/pw.inp
Warning: card &CELL ignored
Warning: card   CELL_DYNAMICS='IPI', ignored
Warning: card / ignored

     Current dimensions of program PWSCF are:
     Max number of different atomic species (ntypx) = 10
     Max number of k-points (npk) =  40000
     Max angular momentum in pseudopotentials (lmaxx) =  3
     Presently no symmetry can be used with electric field

     Message from routine cell_base_init:
     DEPRECATED: use true lattice parameter, not A to a.u. conversion factor

     IMPORTANT: XC functional enforced from input :
     Exchange-correlation= BEEF-VDW
                           (   1   4  43  14   2   0   0)
     Any further DFT definition will be discarded
     Please, verify this is what you really want

  @ DRIVER MODE: Connecting to
 qe_1139763_2632798.sched-torque.pace.gatech.edukzapbpo__scratch
  using UNIX socket
  @ DRIVER MODE: Message from server: STATUS
  @ DRIVER MODE: Message from server: INIT
  @ DRIVER MODE: Receiving replica           0          -1
  @ DRIVER MODE: Receiving encoded integer          25
  @ DRIVER MODE:  SCF:  T  FORCE:  T  STRESS:  F  VC:  F  ENSEMBLE:  F
  @ DRIVER MODE:  SCF:  T  FORCE:  T  STRESS:  F  VC:  F  ENSEMBLE:  F

     Using Slab Decomposition

     bravais-lattice index     =            0
     lattice parameter (alat)  =       1.8897  a.u.
     unit-cell volume          =    6658.9804 (a.u.)^3
     number of atoms/cell      =           49
     number of atomic types    =            4
     number of electrons       =       383.00
     number of Kohn-Sham states=          201
     kinetic-energy cutoff     =      29.3995  Ry
     charge density cutoff     =     293.9946  Ry
     scf convergence threshold =      7.3E-08
     mixing beta               =       0.0500
     number of iterations used =            8  plain     mixing
     Exchange-correlation= BEEF-VDW
                           (   1   4  43  14   2   0   0)

     celldm(1)=   1.889726  celldm(2)=   0.000000  celldm(3)=   0.000000
     celldm(4)=   0.000000  celldm(5)=   0.000000  celldm(6)=   0.000000

     crystal axes: (cart. coord. in units of alat)
               a(1) = (   6.579727   0.000000   0.000000 )
               a(2) = (  -0.000775   5.961596   0.000000 )
               a(3) = (   0.000000   0.000000  25.155947 )

     reciprocal axes: (cart. coord. in units 2 pi/alat)
               b(1) = (  0.151982  0.000020  0.000000 )
               b(2) = (  0.000000  0.167740  0.000000 )
               b(3) = (  0.000000  0.000000  0.039752 )

     PseudoPot. # 1 for Ti read from file:
     /storage/coda1/p-amedford6/0/shared/rich_project_chbe-medford/medford-share/data/pseudos_module/espresso/nninc/pbe/van/Ti.UPF
     MD5 check sum: 8e4df49b7f0d34bbd5052bf3f5ea0213
     Pseudo is Ultrasoft, Zval = 12.0
     Generated by new atomic code, or converted to UPF format
     Using radial grid of  851 points,  6 beta functions with:
                l(1) =   0
                l(2) =   0
                l(3) =   1
                l(4) =   1
                l(5) =   2
                l(6) =   2
     Q(r) pseudized with  8 coefficients,  rinner =    1.000   1.000   1.000
                                                       1.000   1.000

     PseudoPot. # 2 for O  read from file:
     /storage/coda1/p-amedford6/0/shared/rich_project_chbe-medford/medford-share/data/pseudos_module/espresso/nninc/pbe/van/O.UPF
     MD5 check sum: 78c19812648e8988a0fe644b0f25305e
     Pseudo is Ultrasoft, Zval =  6.0
     Generated by new atomic code, or converted to UPF format
     Using radial grid of  737 points,  4 beta functions with:
                l(1) =   0
                l(2) =   0
                l(3) =   1
                l(4) =   1
     Q(r) pseudized with  8 coefficients,  rinner =    0.800   0.800   0.800

     PseudoPot. # 3 for C  read from file:
     /storage/coda1/p-amedford6/0/shared/rich_project_chbe-medford/medford-share/data/pseudos_module/espresso/nninc/pbe/van/C.UPF
     MD5 check sum: 1a69bf6b8db32088f5b2163dbdb77a27
     Pseudo is Ultrasoft, Zval =  4.0
     Generated by new atomic code, or converted to UPF format
     Using radial grid of  721 points,  4 beta functions with:
                l(1) =   0
                l(2) =   0
                l(3) =   1
                l(4) =   1
     Q(r) pseudized with  8 coefficients,  rinner =    0.800   0.800   0.800

     PseudoPot. # 4 for H  read from file:
     /storage/coda1/p-amedford6/0/shared/rich_project_chbe-medford/medford-share/data/pseudos_module/espresso/nninc/pbe/van/H.UPF
     MD5 check sum: b5ee9d7bfd3a09ee7748110bda690ff7
     Pseudo is Ultrasoft, Zval =  1.0
     Generated by new atomic code, or converted to UPF format
     Using radial grid of  615 points,  1 beta functions with:
                l(1) =   0
     Q(r) pseudized with  8 coefficients,  rinner =    0.800

     atomic species   valence    mass     pseudopotential
        Ti1           12.00    47.86700     Ti( 1.00)
        O1             6.00    15.99900     O ( 1.00)
        C1             4.00    12.01100     C ( 1.00)
        H1             1.00     1.00800     H ( 1.00)

     No symmetry found

   Cartesian axes

     site n.     atom                  positions (alat units)
         1           Ti1 tau(   1) = (   0.0004258   2.9801865   6.0000000  )
         2           Ti1 tau(   2) = (   3.2906075   1.4906267   6.0002472  )
         3           O1  tau(   3) = (   0.0006271   0.0005054   7.9858123  )
         4           O1  tau(   4) = (   3.2906025   0.0005020   7.3038282  )
         5           O1  tau(   5) = (   4.5942328   1.4918067   9.2879030  )
         6           O1  tau(   6) = (   1.9868534   1.4903216   9.2879459  )
         7           Ti1 tau(   7) = (   3.2921849   2.8658251   9.1648892  )
         8           Ti1 tau(   8) = (   0.0073351   1.4983988   9.3831490  )
         9           O1  tau(   9) = (   3.2842540   0.0070318  11.3521760  )
        10           O1  tau(  10) = (   0.0010487   0.0043113  10.5580200  )
        11           O1  tau(  11) = (   1.2736759   1.5124129  12.6486185  )
        12           O1  tau(  12) = (   5.2630300   1.5084811  12.6300625  )
        13           Ti1 tau(  13) = (   0.0799159   2.9885021  12.8537609  )
        14           Ti1 tau(  14) = (   3.3962166   1.4899997  12.4930974  )
        15           O1  tau(  15) = (   6.5670857   5.9608082  14.6055349  )
        16           O1  tau(  16) = (   3.2779887   0.0262294  13.9455360  )
        17           O1  tau(  17) = (   4.5047259   1.5524619  16.1062024  )
        18           O1  tau(  18) = (   2.0328015   1.5482461  16.0993997  )
        19           Ti1 tau(  19) = (   3.2588990   3.0258902  15.7259251  )
        20           Ti1 tau(  20) = (   6.5443225   1.5921241  16.1654916  )
        21           O1  tau(  21) = (   3.2904802   0.0005063   4.7018136  )
        22           O1  tau(  22) = (   6.5577444   0.0567680  17.2452940  )
        23           O1  tau(  23) = (   1.3043587   1.4918075   6.0039043  )
        24           O1  tau(  24) = (   5.2767064   1.4903225   6.0039473  )
        25           Ti1 tau(  25) = (   0.0000382   5.9609847   6.0000000  )
        26           Ti1 tau(  26) = (   3.2902200   4.4714249   6.0002472  )
        27           O1  tau(  27) = (   0.0002396   2.9813036   7.9858123  )
        28           O1  tau(  28) = (   3.2902150   2.9813002   7.3038282  )
        29           O1  tau(  29) = (   4.5938453   4.4726049   9.2879030  )
        30           O1  tau(  30) = (   1.9864658   4.4711199   9.2879459  )
        31           Ti1 tau(  31) = (   3.2960881   5.8478476   9.1648656  )
        32           Ti1 tau(  32) = (   0.0086818   4.4758218   9.3788328  )
        33           O1  tau(  33) = (   3.2854246   2.9850844  11.3450670  )
        34           O1  tau(  34) = (   0.0004502   2.9836692  10.5560002  )
        35           O1  tau(  35) = (   1.2751814   4.4662498  12.6462591  )
        36           O1  tau(  36) = (   5.2612828   4.4711168  12.6263095  )
        37           Ti1 tau(  37) = (   0.0650160   0.0072273  12.8037121  )
        38           Ti1 tau(  38) = (   3.3952379   4.4681493  12.4860303  )
        39           O1  tau(  39) = (   6.5700874   2.9943110  14.6990684  )
        40           O1  tau(  40) = (   3.2774739   3.0059374  13.9302241  )
        41           O1  tau(  41) = (   4.5038310   4.5165569  16.1051355  )
        42           O1  tau(  42) = (   2.0336826   4.5180826  16.0999700  )
        43           Ti1 tau(  43) = (   3.2582433   0.0441072  15.7465997  )
        44           Ti1 tau(  44) = (   6.5393581   4.6163053  16.1595090  )
        45           O1  tau(  45) = (   3.2900926   2.9813045   4.7018136  )
        46           O1  tau(  46) = (   1.3039711   4.4726057   6.0039043  )
        47           O1  tau(  47) = (   5.2763189   4.4711207   6.0039473  )
        48           C1  tau(  48) = (   6.5669965   3.0274956  17.5243990  )
        49           H1  tau(  49) = (   0.0036594   3.1884539  18.5931066  )

     number of k points=    10  Fermi-Dirac smearing, width (Ry)=  0.0073
                       cart. coord. in units 2pi/alat
        k(    1) = (   0.0000000   0.0000000   0.0000000), wk =   0.1250000
        k(    2) = (   0.0000000   0.0419351   0.0000000), wk =   0.2500000
        k(    3) = (   0.0000000  -0.0838702   0.0000000), wk =   0.1250000
        k(    4) = (   0.0379955   0.0000049   0.0000000), wk =   0.2500000
        k(    5) = (   0.0379955   0.0419400   0.0000000), wk =   0.2500000
        k(    6) = (   0.0379955  -0.0838652   0.0000000), wk =   0.2500000
        k(    7) = (   0.0379955  -0.0419301   0.0000000), wk =   0.2500000
        k(    8) = (  -0.0759910  -0.0000099   0.0000000), wk =   0.1250000
        k(    9) = (  -0.0759910   0.0419252   0.0000000), wk =   0.2500000
        k(   10) = (  -0.0759910  -0.0838800   0.0000000), wk =   0.1250000

     Initial potential from superposition of free atoms

     starting charge  366.99920, renormalised to  383.00000

     negative rho (up, down):  2.155E-02 0.000E+00

     %%%%%%%%%%%%%%%%%%%%%%%%%%%%%%%%%%%%%%%%%%%%%%%%%%%%%%%%%%%%%%%%%%%%%%%%
     %                                                                      %
     % You are using vdW-DF, which was implemented by the Thonhauser group. %
     % Please cite the following two papers that made this development      %
     % possible and the two reviews that describe the various versions:     %
     %                                                                      %
     %   T. Thonhauser et al., PRL 115, 136402 (2015).                      %
     %   T. Thonhauser et al., PRB 76, 125112 (2007).                       %
     %   K. Berland et al., Rep. Prog. Phys. 78, 066501 (2015).             %
     %   D.C. Langreth et al., J. Phys.: Condens. Matter 21, 084203 (2009). %
     %                                                                      %
     %                                                                      %
     % If you are calculating the stress with vdW-DF, please also cite:     %
     %                                                                      %
     %   R. Sabatini et al., J. Phys.: Condens. Matter 24, 424209 (2012).   %
     %                                                                      %
     %%%%%%%%%%%%%%%%%%%%%%%%%%%%%%%%%%%%%%%%%%%%%%%%%%%%%%%%%%%%%%%%%%%%%%%%

     Adding external electric field

     Computed dipole along edir(3) :
        Dipole                0.0468 Ry au,          0.1189 Debye
        Dipole field          0.0001 Ry au,

        Potential amp.       -0.0082 Ry
        Total length         46.3494 bohr

     Starting wfcs are  289 atomic wfcs
  @ DRIVER MODE: Message from server: STATUS
  @ DRIVER MODE: Message from server: POSDATA
  @ DRIVER MODE: Reading and sharing cell
  @ DRIVER MODE: Reading and sharing positions
  @ DRIVER MODE: Received positions

     Self-consistent Calculation

     iteration #  1     ecut=    29.40 Ry     beta= 0.05
     Davidson diagonalization with overlap
     c_bands:  1 eigenvalues not converged
     c_bands:  1 eigenvalues not converged
     c_bands:  1 eigenvalues not converged
     c_bands:  1 eigenvalues not converged
     c_bands:  1 eigenvalues not converged
     c_bands:  1 eigenvalues not converged
     c_bands:  1 eigenvalues not converged
     ethr =  1.00E-05,  avg # of iterations = 19.5

[...]

     total energy              =   -2897.81002576 Ry
     estimated scf accuracy    <      11.76196948 Ry

     iteration #  2     ecut=    29.40 Ry     beta= 0.05
     Davidson diagonalization with overlap
     ethr =  3.07E-03,  avg # of iterations =  1.0

[...]

     iteration # 39     ecut=    29.40 Ry     beta= 0.05
     Davidson diagonalization with overlap
     c_bands:  1 eigenvalues not converged
     ethr =  1.69E-07,  avg # of iterations =  7.3

[...]

     total energy              =   -2896.37497028 Ry
     estimated scf accuracy    <       0.00000018 Ry

     iteration # 61     ecut=    29.40 Ry     beta= 0.05
     Davidson diagonalization with overlap
     ethr =  4.58E-11,  avg # of iterations =  5.9

     negative rho (up, down):  2.069E-02 0.000E+00

     Adding external electric field

     Computed dipole along edir(3) :
        Dipole                0.3669 Ry au,          0.9326 Debye
        Dipole field          0.0007 Ry au,

        Potential amp.       -0.0642 Ry
        Total length         46.3494 bohr

     End of self-consistent calculation

          k = 0.0000 0.0000 0.0000 ( 18029 PWs)   bands (ev):

   -56.6404 -56.6066 -56.3444 -56.3076 -56.2281 -56.1668 -56.0462 -56.0408
   -56.0065 -55.9462 -55.9386 -55.9099 -55.4380 -55.4040 -55.3613 -55.2782
   -33.0689 -32.8876 -32.8869 -32.8585 -32.8324 -32.7411 -32.6956 -32.6808
   -32.6509 -32.5585 -32.5464 -32.5389 -32.5243 -32.5210 -32.5151 -32.4978
   -32.4744 -32.4561 -32.4458 -32.3500 -32.3126 -32.2895 -32.2873 -32.2794
   -32.2658 -32.2600 -32.1980 -32.1953 -32.1704 -32.1644 -32.1552 -32.1313
   -32.1232 -32.1154 -32.1000 -32.0424 -31.9043 -31.8384 -31.7632 -31.7394
   -31.6569 -31.6325 -31.5943 -31.5719 -31.5705 -31.4924 -31.4598 -31.3486
   -16.9989 -16.8096 -16.5780 -16.4428 -16.3539 -16.2802 -16.0122 -16.0108
   -15.9650 -15.8916 -15.8647 -15.8022 -15.7987 -15.7732 -15.7617 -15.7520
   -15.7365 -15.6867 -15.6690 -15.6415 -15.6071 -15.5668 -15.4456 -15.4284
   -15.4094 -15.2947 -15.2456 -15.2069 -15.0276 -13.9309 -13.8169  -7.8114
    -4.4003  -4.3426  -4.1890  -4.1655  -4.0716  -3.8279  -3.7006  -3.4783
    -3.4375  -3.4066  -3.3917  -3.3250  -3.2652  -3.1589  -3.1420  -3.1210
    -3.0816  -3.0725  -3.0498  -3.0364  -3.0117  -2.9711  -2.8884  -2.8499
    -2.8293  -2.7508  -2.7235  -2.6469  -2.6198  -2.5761  -2.5512  -2.4918
    -2.4845  -2.4208  -2.3534  -2.2918  -2.1410  -2.1004  -2.0913  -2.0853
    -2.0134  -1.9039  -1.7643  -1.7299  -1.6625  -1.6611  -1.6434  -1.6076
    -1.5155  -1.4979  -1.4117  -1.3058  -1.2968  -1.2465  -1.1919  -1.1506
    -1.1341  -1.1339  -1.0765  -1.0448  -1.0085  -0.8885  -0.8555  -0.7347
    -0.7177  -0.6826  -0.6451  -0.6399  -0.5892  -0.5313  -0.4785  -0.4475
    -0.4262  -0.3791  -0.3689  -0.3343  -0.3115  -0.2581  -0.1424  -0.1183
    -0.1066  -0.0441   0.1430   0.1680   0.2105   0.3007   0.3487   0.5102
     0.5319   0.5907   0.7987   0.8342   1.1812   1.2612   1.5552   2.2929
     2.6272   2.8219   3.0808   3.1175   3.1352   3.1675   3.3408   3.3751
     3.3938

[...]

          k = 0.0380-0.0419 0.0000 ( 17876 PWs)   bands (ev):

[...]

          k =-0.0760-0.0000 0.0000 ( 17886 PWs)   bands (ev):

[...]

          k =-0.0760-0.0839 0.0000 ( 17948 PWs)   bands (ev):

   -56.6256 -56.6213 -56.3303 -56.3215 -56.2227 -56.1721 -56.0434 -56.0260
   -56.0210 -55.9414 -55.9325 -55.9236 -55.4209 -55.4209 -55.3576 -55.2819
   -32.8880 -32.8845 -32.8750 -32.8697 -32.7869 -32.7832 -32.6953 -32.6885
   -32.6063 -32.5954 -32.5383 -32.5281 -32.5264 -32.5185 -32.4922 -32.4649
   -32.4287 -32.3739 -32.3636 -32.3536 -32.3498 -32.2877 -32.2764 -32.2706
   -32.2697 -32.2601 -32.2539 -32.2458 -32.2323 -32.2269 -32.1862 -32.1776
   -32.1438 -32.1425 -32.1356 -32.1344 -31.8022 -31.7523 -31.7523 -31.6525
   -31.6525 -31.6440 -31.6307 -31.6145 -31.6144 -31.5738 -31.5114 -31.3882
   -16.4544 -16.4357 -16.2214 -16.2121 -16.1132 -16.1127 -16.1120 -16.1097
   -16.0108 -16.0079 -15.9348 -15.9207 -15.8650 -15.8571 -15.8216 -15.8197
   -15.7989 -15.7955 -15.7545 -15.7477 -15.6179 -15.6158 -15.5109 -15.5085
   -15.4682 -15.4281 -15.3873 -15.3781 -15.1638 -13.9193 -13.9189  -7.8140
    -3.7523  -3.7215  -3.4370  -3.4332  -3.2515  -3.2475  -3.2468  -3.2277
    -3.1842  -3.1544  -3.1447  -3.1191  -3.0884  -3.0449  -3.0336  -3.0135
    -3.0090  -3.0030  -2.9911  -2.9895  -2.9665  -2.9579  -2.9052  -2.8834
    -2.8730  -2.8634  -2.8143  -2.8129  -2.7130  -2.5887  -2.5383  -2.5341
    -2.4867  -2.4528  -2.3677  -2.3651  -2.3364  -2.3203  -2.2743  -2.1702
    -2.0384  -2.0359  -1.9907  -1.9612  -1.8951  -1.8202  -1.7170  -1.6531
    -1.6199  -1.5895  -1.5238  -1.4673  -1.4589  -1.4393  -1.4291  -1.4199
    -1.4065  -1.3103  -1.2979  -1.2273  -1.1896  -1.1795  -1.1698  -1.1375
    -1.1113  -1.0484  -0.9522  -0.9495  -0.9374  -0.9093  -0.8080  -0.7617
    -0.7046  -0.6525  -0.6086  -0.3584  -0.3559  -0.2021  -0.0946  -0.0329
     0.0327   0.0571   0.1002   0.1657   0.2271   0.2331   0.2597   0.2616
     0.3581   0.3606   0.9768   0.9772   1.0359   1.0369   1.7899   2.2368
     3.1062   3.1501   3.1677   3.1731   3.1968   3.2253   3.2439   3.2538
     3.5819

     the Fermi energy is     2.1599 ev

!    total energy              =   -2896.37500411 Ry
     estimated scf accuracy    <       0.00000003 Ry
     smearing contrib. (-TS)   =      -0.01057759 Ry
     internal energy E=F+TS    =   -2896.36442652 Ry

     The total energy is F=E-TS. E is the sum of the following terms:
     one-electron contribution =  -24781.35167652 Ry
     hartree contribution      =   12468.68363807 Ry
     xc contribution           =    -472.98130379 Ry
     ewald contribution        =    9889.28466164 Ry
     electric field correction =       0.00025408 Ry

     convergence has been achieved in  61 iterations

     Forces acting on atoms (cartesian axes, Ry/au):

     atom    1 type  1   force =     0.00019121   -0.00055534    0.14914697
     atom    2 type  1   force =    -0.00002659   -0.00030842   -0.17024921
     atom    3 type  2   force =     0.00005947    0.00011849   -0.06117768
     atom    4 type  2   force =     0.00010755   -0.00167437    0.04076677
     atom    5 type  2   force =    -0.02327915    0.00030681    0.00412265
     atom    6 type  2   force =     0.02299569    0.00151465    0.00332739
     atom    7 type  1   force =    -0.00054738    0.00074537    0.00013382
     atom    8 type  1   force =     0.00020667    0.00084586   -0.00027432
     atom    9 type  2   force =    -0.00006028    0.00009522   -0.00046965
     atom   10 type  2   force =    -0.00002798   -0.00050849    0.00042023
     atom   11 type  2   force =    -0.00029405    0.00048642    0.00032194
     atom   12 type  2   force =     0.00041015    0.00012071    0.00026754
     atom   13 type  1   force =     0.00034162    0.00064216   -0.00122726
     atom   14 type  1   force =    -0.00045996    0.00097116   -0.00028174
     atom   15 type  2   force =     0.00011419    0.00009717    0.00044486
     atom   16 type  2   force =     0.00013681   -0.00026129   -0.00013365
     atom   17 type  2   force =     0.00089890    0.00017282    0.00002768
     atom   18 type  2   force =    -0.00080060    0.00027385    0.00001237
     atom   19 type  1   force =     0.00000399   -0.00105632    0.00069934
     atom   20 type  1   force =     0.00011412    0.00187407    0.00378030
     atom   21 type  2   force =     0.00008193   -0.00018300    0.10248109
     atom   22 type  2   force =    -0.00005945    0.00018747   -0.00072343
     atom   23 type  2   force =    -0.07442262    0.00019541   -0.03477945
     atom   24 type  2   force =     0.07437879    0.00062354   -0.03482974
     atom   25 type  1   force =    -0.00003538   -0.00050855    0.15018758
     atom   26 type  1   force =    -0.00002216   -0.00070464   -0.17021014
     atom   27 type  2   force =     0.00007279    0.00063641   -0.06038632
     atom   28 type  2   force =     0.00002711   -0.00162173    0.04021237
     atom   29 type  2   force =    -0.02285704    0.00144462    0.00429779
     atom   30 type  2   force =     0.02312535    0.00223948    0.00349596
     atom   31 type  1   force =    -0.00054835    0.00013068   -0.00083918
     atom   32 type  1   force =     0.00023109   -0.00110506    0.00044306
     atom   33 type  2   force =     0.00025701   -0.00007733    0.00122713
     atom   34 type  2   force =    -0.00004170    0.00059000   -0.00015172
     atom   35 type  2   force =    -0.00103616   -0.00044078    0.00007590
     atom   36 type  2   force =     0.00108102   -0.00022884    0.00014245
     atom   37 type  1   force =    -0.00007327   -0.00007122   -0.00051835
     atom   38 type  1   force =    -0.00071285   -0.00077522    0.00033764
     atom   39 type  2   force =    -0.00005597   -0.00019778    0.00064034
     atom   40 type  2   force =     0.00009774   -0.00015856   -0.00085232
     atom   41 type  2   force =     0.00087308   -0.00037313    0.00040544
     atom   42 type  2   force =    -0.00084877   -0.00046199    0.00043212
     atom   43 type  1   force =    -0.00001675    0.00081683   -0.00084938
     atom   44 type  1   force =     0.00019741   -0.00153539    0.00235858
     atom   45 type  2   force =     0.00007203   -0.00018438    0.10246986
     atom   46 type  2   force =    -0.07441305   -0.00013561   -0.03478515
     atom   47 type  2   force =     0.07436506    0.00030897   -0.03483718
     atom   48 type  3   force =    -0.00025022   -0.00381993   -0.01677522
     atom   49 type  4   force =     0.00044896    0.00150923    0.01167194

     Total force =     0.405094     Total SCF correction =     0.000629
  @ DRIVER MODE: Message from server: STATUS
  @ DRIVER MODE: Message from server: GETFORCE
  @ DRIVER MODE: Returning v,forces,stress,ensemble

     Writing output data file ./calc.save/
  @ DRIVER MODE: Message from server: EXIT
  @ DRIVE MODE: Exiting

     General routines

     Parallel routines

   This run was terminated on:  15:40:26  23Aug2021

   JOB DONE.