     Program PWSCF v.6.7GPU starts on 10Sep2021 at 18: 1:20

     R & G space division:  proc/nbgrp/npool/nimage =      10
     Reading input from /storage/home/hcoda1/3/ntian30/research/carbon/CxH_vib/CH2_calc/ads_slab/CH2O_c/out_0001/pw.inp
Warning: card &CELL ignored
Warning: card   CELL_DYNAMICS='IPI', ignored
Warning: card / ignored

     Current dimensions of program PWSCF are:
     Max number of different atomic species (ntypx) = 10
     Max number of k-points (npk) =  40000
     Max angular momentum in pseudopotentials (lmaxx) =  3
     Presently no symmetry can be used with electric field

     Message from routine cell_base_init:
     DEPRECATED: use true lattice parameter, not A to a.u. conversion factor

     IMPORTANT: XC functional enforced from input :
     Exchange-correlation= BEEF-VDW
                           (   1   4  43  14   2   0   0)
     Any further DFT definition will be discarded
     Please, verify this is what you really want

  @ DRIVER MODE: Connecting to
 qe_1139763_2792043.sched-torque.pace.gatech.eduu2ik21wi_scratch
  using UNIX socket
  @ DRIVER MODE: Message from server: STATUS
  @ DRIVER MODE: Message from server: INIT
  @ DRIVER MODE: Receiving replica           0          -1
  @ DRIVER MODE: Receiving encoded integer          25
  @ DRIVER MODE:  SCF:  T  FORCE:  T  STRESS:  F  VC:  F  ENSEMBLE:  F
  @ DRIVER MODE:  SCF:  T  FORCE:  T  STRESS:  F  VC:  F  ENSEMBLE:  F

     Using Slab Decomposition

     bravais-lattice index     =            0
     lattice parameter (alat)  =       1.8897  a.u.
     unit-cell volume          =    6658.9804 (a.u.)^3
     number of atoms/cell      =           51
     number of atomic types    =            4
     number of electrons       =       390.00
     number of Kohn-Sham states=          205
     kinetic-energy cutoff     =      29.3995  Ry
     charge density cutoff     =     293.9946  Ry
     scf convergence threshold =      7.3E-08
     mixing beta               =       0.0500
     number of iterations used =            8  plain     mixing
     Exchange-correlation= BEEF-VDW
                           (   1   4  43  14   2   0   0)

     celldm(1)=   1.889726  celldm(2)=   0.000000  celldm(3)=   0.000000
     celldm(4)=   0.000000  celldm(5)=   0.000000  celldm(6)=   0.000000

     crystal axes: (cart. coord. in units of alat)
               a(1) = (   6.579727   0.000000   0.000000 )
               a(2) = (  -0.000775   5.961596   0.000000 )
               a(3) = (   0.000000   0.000000  25.155947 )

     reciprocal axes: (cart. coord. in units 2 pi/alat)
               b(1) = (  0.151982  0.000020  0.000000 )
               b(2) = (  0.000000  0.167740  0.000000 )
               b(3) = (  0.000000  0.000000  0.039752 )

     PseudoPot. # 1 for O  read from file:
     /storage/coda1/p-amedford6/0/shared/rich_project_chbe-medford/medford-share/data/pseudos_module/espresso/nninc/pbe/van/O.UPF
     MD5 check sum: 78c19812648e8988a0fe644b0f25305e
     Pseudo is Ultrasoft, Zval =  6.0
     Generated by new atomic code, or converted to UPF format
     Using radial grid of  737 points,  4 beta functions with:
                l(1) =   0
                l(2) =   0
                l(3) =   1
                l(4) =   1
     Q(r) pseudized with  8 coefficients,  rinner =    0.800   0.800   0.800

     PseudoPot. # 2 for Ti read from file:
     /storage/coda1/p-amedford6/0/shared/rich_project_chbe-medford/medford-share/data/pseudos_module/espresso/nninc/pbe/van/Ti.UPF
     MD5 check sum: 8e4df49b7f0d34bbd5052bf3f5ea0213
     Pseudo is Ultrasoft, Zval = 12.0
     Generated by new atomic code, or converted to UPF format
     Using radial grid of  851 points,  6 beta functions with:
                l(1) =   0
                l(2) =   0
                l(3) =   1
                l(4) =   1
                l(5) =   2
                l(6) =   2
     Q(r) pseudized with  8 coefficients,  rinner =    1.000   1.000   1.000
                                                       1.000   1.000

     PseudoPot. # 3 for C  read from file:
     /storage/coda1/p-amedford6/0/shared/rich_project_chbe-medford/medford-share/data/pseudos_module/espresso/nninc/pbe/van/C.UPF
     MD5 check sum: 1a69bf6b8db32088f5b2163dbdb77a27
     Pseudo is Ultrasoft, Zval =  4.0
     Generated by new atomic code, or converted to UPF format
     Using radial grid of  721 points,  4 beta functions with:
                l(1) =   0
                l(2) =   0
                l(3) =   1
                l(4) =   1
     Q(r) pseudized with  8 coefficients,  rinner =    0.800   0.800   0.800

     PseudoPot. # 4 for H  read from file:
     /storage/coda1/p-amedford6/0/shared/rich_project_chbe-medford/medford-share/data/pseudos_module/espresso/nninc/pbe/van/H.UPF
     MD5 check sum: b5ee9d7bfd3a09ee7748110bda690ff7
     Pseudo is Ultrasoft, Zval =  1.0
     Generated by new atomic code, or converted to UPF format
     Using radial grid of  615 points,  1 beta functions with:
                l(1) =   0
     Q(r) pseudized with  8 coefficients,  rinner =    0.800

     atomic species   valence    mass     pseudopotential
        O1             6.00    15.99900     O ( 1.00)
        Ti1           12.00    47.86700     Ti( 1.00)
        C1             4.00    12.01100     C ( 1.00)
        H1             1.00     1.00800     H ( 1.00)

     No symmetry found

   Cartesian axes

     site n.     atom                  positions (alat units)
         1           O1  tau(   1) = (   3.2904802   0.0005063   4.7018136  )
         2           O1  tau(   2) = (   3.2900926   2.9813045   4.7018136  )
         3           Ti1 tau(   3) = (   0.0004258   2.9801865   6.0000000  )
         4           Ti1 tau(   4) = (   0.0000382   5.9609847   6.0000000  )
         5           Ti1 tau(   5) = (   3.2906075   1.4906267   6.0002472  )
         6           Ti1 tau(   6) = (   3.2902200   4.4714249   6.0002472  )
         7           O1  tau(   7) = (   1.3043587   1.4918075   6.0039043  )
         8           O1  tau(   8) = (   1.3039711   4.4726057   6.0039043  )
         9           O1  tau(   9) = (   5.2767064   1.4903225   6.0039473  )
        10           O1  tau(  10) = (   5.2763189   4.4711207   6.0039473  )
        11           O1  tau(  11) = (   3.2906025   0.0005020   7.3038282  )
        12           O1  tau(  12) = (   3.2902150   2.9813002   7.3038282  )
        13           O1  tau(  13) = (   0.0006271   0.0005054   7.9858123  )
        14           O1  tau(  14) = (   0.0002396   2.9813036   7.9858123  )
        15           Ti1 tau(  15) = (   3.3026304   0.0558743   9.1529855  )
        16           Ti1 tau(  16) = (   3.3164045   3.0327615   9.1572159  )
        17           Ti1 tau(  17) = (   0.0278175   4.5359734   9.2551557  )
        18           Ti1 tau(  18) = (   0.0245227   1.6138560   9.3625275  )
        19           O1  tau(  19) = (   4.5942328   1.4918067   9.2879030  )
        20           O1  tau(  20) = (   4.5938453   4.4726049   9.2879030  )
        21           O1  tau(  21) = (   1.9868534   1.4903216   9.2879459  )
        22           O1  tau(  22) = (   1.9864658   4.4711199   9.2879459  )
        23           O1  tau(  23) = (   0.0082563   0.0105963  10.6032901  )
        24           O1  tau(  24) = (   0.0079484   2.9900140  10.5841352  )
        25           O1  tau(  25) = (   3.3038251   2.9929121  11.3473413  )
        26           O1  tau(  26) = (   3.3033308   0.0102956  11.3494618  )
        27           Ti1 tau(  27) = (   0.0317432   0.0173395  12.5007832  )
        28           Ti1 tau(  28) = (   3.3306627   4.4867663  12.4909107  )
        29           Ti1 tau(  29) = (   3.3307827   1.5098530  12.4883691  )
        30           Ti1 tau(  30) = (   0.0330478   2.9976760  12.7859357  )
        31           O1  tau(  31) = (   1.3012438   4.4818129  12.6408784  )
        32           O1  tau(  32) = (   1.3024292   1.5014896  12.6394904  )
        33           O1  tau(  33) = (   5.3013637   4.4812751  12.6442516  )
        34           O1  tau(  34) = (   5.3009141   1.5012301  12.6421300  )
        35           O1  tau(  35) = (   3.3022887   2.9886358  13.9251823  )
        36           O1  tau(  36) = (   3.3062039   0.0095056  13.9482717  )
        37           O1  tau(  37) = (   0.0260699   0.0177473  14.6866479  )
        38           O1  tau(  38) = (   0.0273203   2.9953000  14.7270975  )
        39           Ti1 tau(  39) = (   3.3120190   2.9903054  15.7171600  )
        40           Ti1 tau(  40) = (   3.3230935   0.0106652  15.7391692  )
        41           Ti1 tau(  41) = (   0.0328368   4.5824378  15.9539421  )
        42           Ti1 tau(  42) = (   0.0326753   1.3890416  16.0019494  )
        43           O1  tau(  43) = (   4.5622593   4.4711273  16.0916796  )
        44           O1  tau(  44) = (   4.5612194   1.5125715  16.1009491  )
        45           O1  tau(  45) = (   2.0595944   1.5153445  16.1103626  )
        46           O1  tau(  46) = (   2.0577381   4.4687033  16.1006481  )
        47           O1  tau(  47) = (   0.0167757   0.0040543  17.2075325  )
        48           O1  tau(  48) = (   6.5579879   3.0050237  17.4360139  )
        49           C1  tau(  49) = (   6.3840651   3.0748419  18.6981053  )
        50           H1  tau(  50) = (   6.3009919   4.0539401  19.1613311  )
        51           H1  tau(  51) = (   6.3054763   2.1576074  19.2739789  )

     number of k points=    10  Fermi-Dirac smearing, width (Ry)=  0.0073
                       cart. coord. in units 2pi/alat
        k(    1) = (   0.0000000   0.0000000   0.0000000), wk =   0.1250000
        k(    2) = (   0.0000000   0.0419351   0.0000000), wk =   0.2500000
        k(    3) = (   0.0000000  -0.0838702   0.0000000), wk =   0.1250000
        k(    4) = (   0.0379955   0.0000049   0.0000000), wk =   0.2500000
        k(    5) = (   0.0379955   0.0419400   0.0000000), wk =   0.2500000
        k(    6) = (   0.0379955  -0.0838652   0.0000000), wk =   0.2500000
        k(    7) = (   0.0379955  -0.0419301   0.0000000), wk =   0.2500000
        k(    8) = (  -0.0759910  -0.0000099   0.0000000), wk =   0.1250000
        k(    9) = (  -0.0759910   0.0419252   0.0000000), wk =   0.2500000
        k(   10) = (  -0.0759910  -0.0838800   0.0000000), wk =   0.1250000

     Initial potential from superposition of free atoms

     starting charge  373.99919, renormalised to  390.00000

     negative rho (up, down):  1.845E-02 0.000E+00

     %%%%%%%%%%%%%%%%%%%%%%%%%%%%%%%%%%%%%%%%%%%%%%%%%%%%%%%%%%%%%%%%%%%%%%%%
     %                                                                      %
     % You are using vdW-DF, which was implemented by the Thonhauser group. %
     % Please cite the following two papers that made this development      %
     % possible and the two reviews that describe the various versions:     %
     %                                                                      %
     %   T. Thonhauser et al., PRL 115, 136402 (2015).                      %
     %   T. Thonhauser et al., PRB 76, 125112 (2007).                       %
     %   K. Berland et al., Rep. Prog. Phys. 78, 066501 (2015).             %
     %   D.C. Langreth et al., J. Phys.: Condens. Matter 21, 084203 (2009). %
     %                                                                      %
     %                                                                      %
     % If you are calculating the stress with vdW-DF, please also cite:     %
     %                                                                      %
     %   R. Sabatini et al., J. Phys.: Condens. Matter 24, 424209 (2012).   %
     %                                                                      %
     %%%%%%%%%%%%%%%%%%%%%%%%%%%%%%%%%%%%%%%%%%%%%%%%%%%%%%%%%%%%%%%%%%%%%%%%

     Adding external electric field

     Computed dipole along edir(3) :
        Dipole               -5.1802 Ry au,        -13.1669 Debye
        Dipole field         -0.0098 Ry au,

        Potential amp.        0.9062 Ry
        Total length         46.3494 bohr

     Starting wfcs are  294 atomic wfcs
  @ DRIVER MODE: Message from server: STATUS
  @ DRIVER MODE: Message from server: POSDATA
  @ DRIVER MODE: Reading and sharing cell
  @ DRIVER MODE: Reading and sharing positions
  @ DRIVER MODE: Received positions

     Self-consistent Calculation

     iteration #  1     ecut=    29.40 Ry     beta= 0.05
     Davidson diagonalization with overlap
     c_bands:  5 eigenvalues not converged
     c_bands:  4 eigenvalues not converged
     c_bands:  2 eigenvalues not converged
     c_bands:  1 eigenvalues not converged
     c_bands:  2 eigenvalues not converged
     c_bands:  5 eigenvalues not converged
     c_bands:  2 eigenvalues not converged
     c_bands:  3 eigenvalues not converged
     c_bands:  2 eigenvalues not converged
     ethr =  1.00E-05,  avg # of iterations = 20.9

[...]

     total energy              =   -2823.09222743 Ry
     estimated scf accuracy    <    1181.08359026 Ry

     iteration #  2     ecut=    29.40 Ry     beta= 0.05
     Davidson diagonalization with overlap
     ethr =  1.00E-02,  avg # of iterations = 16.7

[...]

     iteration # 81     ecut=    29.40 Ry     beta= 0.05
     Davidson diagonalization with overlap
     c_bands:  1 eigenvalues not converged
     ethr =  2.86E-11,  avg # of iterations = 14.3

[...]

     total energy              =   -2930.16728092 Ry
     estimated scf accuracy    <       0.00000009 Ry

     iteration # 86     ecut=    29.40 Ry     beta= 0.05
     Davidson diagonalization with overlap
     ethr =  2.36E-11,  avg # of iterations =  5.6

     negative rho (up, down):  1.727E-02 0.000E+00

     Adding external electric field

     Computed dipole along edir(3) :
        Dipole                0.9348 Ry au,          2.3761 Debye
        Dipole field          0.0018 Ry au,

        Potential amp.       -0.1635 Ry
        Total length         46.3494 bohr

     End of self-consistent calculation

          k = 0.0000 0.0000 0.0000 ( 18029 PWs)   bands (ev):

   -55.8196 -55.8079 -55.7832 -55.7716 -55.7103 -55.6958 -55.6734 -55.6005
   -55.5996 -55.5883 -55.5784 -55.5547 -55.5237 -55.4857 -54.8459 -54.8118
   -32.3776 -32.2920 -32.1866 -32.1703 -32.1255 -32.1209 -32.1143 -32.0953
   -32.0677 -32.0509 -32.0487 -32.0224 -31.9924 -31.9895 -31.9782 -31.9562
   -31.9400 -31.9399 -31.9301 -31.9138 -31.8918 -31.8851 -31.8827 -31.8707
   -31.8623 -31.8447 -31.8427 -31.8197 -31.8141 -31.8138 -31.7882 -31.7608
   -31.7554 -31.7325 -31.7319 -31.7290 -31.7076 -31.7070 -31.6933 -31.6774
   -31.6744 -31.6739 -31.2560 -31.1582 -31.1360 -31.0727 -30.9866 -30.8754
   -19.8621 -16.5894 -16.2955 -16.1496 -16.0152 -15.9660 -15.8507 -15.6932
   -15.6147 -15.5484 -15.4925 -15.4400 -15.4025 -15.4015 -15.3720 -15.3592
   -15.3529 -15.3453 -15.2711 -15.2691 -15.2347 -15.2167 -15.2061 -15.1168
   -15.0568 -14.9962 -14.9498 -14.8918 -14.8380 -14.8251 -13.3465 -13.2281
    -9.3004  -5.5507  -5.5303  -3.9384  -3.7618  -3.7225  -3.7082  -3.6498
    -3.5389  -3.4222  -3.3948  -3.1047  -3.0171  -2.9871  -2.9764  -2.9637
    -2.8224  -2.7783  -2.6639  -2.6611  -2.6492  -2.6450  -2.6246  -2.5896
    -2.5819  -2.5380  -2.5159  -2.4074  -2.3664  -2.2570  -2.2432  -2.2138
    -2.1552  -2.1300  -2.0991  -2.0865  -2.0566  -2.0526  -2.0502  -2.0052
    -1.9047  -1.8171  -1.7495  -1.6674  -1.6290  -1.5366  -1.3786  -1.3086
    -1.2675  -1.2326  -1.1829  -1.1641  -1.1345  -1.1117  -1.0897  -1.0806
    -0.9829  -0.8708  -0.8606  -0.7620  -0.7015  -0.6841  -0.6688  -0.5772
    -0.5585  -0.5478  -0.4554  -0.3128  -0.3031  -0.2990  -0.1803  -0.1492
    -0.1265  -0.0814  -0.0564  -0.0220   0.0086   0.0630   0.1084   0.1188
     0.1656   0.1834   0.2088   0.3100   0.3623   0.3743   0.4282   0.4653
     0.6462   0.6671   0.8086   0.8740   1.0806   1.1788   1.2341   1.3476
     1.7664   1.8242   3.3461   3.3775   3.4023   3.4522   3.4982   3.5417
     3.5924   3.7885   3.8060   3.8153   3.8393

[...]

          k = 0.0380-0.0419 0.0000 ( 17876 PWs)   bands (ev):

[...]

          k =-0.0760-0.0000 0.0000 ( 17886 PWs)   bands (ev):

[...]

          k =-0.0760-0.0839 0.0000 ( 17948 PWs)   bands (ev):

   -55.8078 -55.7948 -55.7900 -55.7893 -55.7005 -55.6925 -55.6831 -55.6035
   -55.5963 -55.5742 -55.5722 -55.5692 -55.5298 -55.4882 -54.8294 -54.8282
   -32.1790 -32.1787 -32.1155 -32.1019 -32.1005 -32.0952 -32.0806 -32.0759
   -32.0609 -32.0320 -32.0241 -32.0093 -31.9928 -31.9561 -31.9452 -31.9364
   -31.9348 -31.9322 -31.9239 -31.9205 -31.9032 -31.9005 -31.8965 -31.8955
   -31.8929 -31.8895 -31.8781 -31.8555 -31.8274 -31.8266 -31.8263 -31.8040
   -31.7996 -31.7819 -31.7786 -31.7727 -31.7697 -31.7683 -31.7418 -31.7154
   -31.7079 -31.6833 -31.1494 -31.1479 -31.0695 -31.0685 -31.0302 -31.0292
   -19.8544 -16.0213 -15.9908 -15.8744 -15.7610 -15.7481 -15.7055 -15.6627
   -15.6149 -15.5563 -15.5534 -15.5055 -15.4861 -15.4826 -15.4378 -15.4051
   -15.3566 -15.3505 -15.3395 -15.3385 -15.2845 -15.2810 -15.2344 -15.2275
   -15.2062 -15.1671 -15.1638 -15.0936 -15.0603 -15.0032 -13.3304 -13.3282
    -9.3014  -5.5307  -5.5105  -3.5665  -3.3100  -3.2767  -3.1072  -2.9787
    -2.9689  -2.9107  -2.8268  -2.7895  -2.7446  -2.6951  -2.6918  -2.6697
    -2.6575  -2.6437  -2.6400  -2.6316  -2.5861  -2.5662  -2.5248  -2.4812
    -2.4729  -2.4596  -2.4539  -2.4138  -2.3979  -2.3862  -2.3790  -2.3732
    -2.3049  -2.2247  -2.1544  -2.0793  -2.0268  -2.0068  -1.9751  -1.9405
    -1.9056  -1.8884  -1.8715  -1.7477  -1.7248  -1.5762  -1.5601  -1.5372
    -1.5285  -1.4748  -1.4684  -1.3474  -1.2698  -1.2636  -1.1962  -1.1748
    -1.1457  -1.0972  -1.0746  -0.9950  -0.9527  -0.9097  -0.8561  -0.7951
    -0.7833  -0.7173  -0.7070  -0.6263  -0.6065  -0.5843  -0.5796  -0.5090
    -0.4751  -0.3958  -0.3848  -0.3620  -0.2617  -0.1969  -0.1910   0.0040
     0.1758   0.1805   0.2004   0.3000   0.3305   0.3735   0.4290   0.4451
     0.5319   0.5865   0.6776   0.6977   0.7065   0.7873   1.5375   1.5385
     1.6296   1.6401   3.3001   3.5650   3.6020   3.6060   3.6664   3.8197
     3.8227   3.8399   3.8492   3.9737   3.9814

     the Fermi energy is     3.3311 ev

!    total energy              =   -2930.16728833 Ry
     estimated scf accuracy    <       0.00000006 Ry
     smearing contrib. (-TS)   =      -0.03343861 Ry
     internal energy E=F+TS    =   -2930.13384972 Ry

     The total energy is F=E-TS. E is the sum of the following terms:
     one-electron contribution =  -24668.17958015 Ry
     hartree contribution      =   12419.54956207 Ry
     xc contribution           =    -481.27067194 Ry
     ewald contribution        =    9799.76519116 Ry
     electric field correction =       0.00164913 Ry

     convergence has been achieved in  86 iterations

     Forces acting on atoms (cartesian axes, Ry/au):

     atom    1 type  1   force =    -0.00009841    0.00004789    0.10424963
     atom    2 type  1   force =    -0.00009488    0.00005032    0.10431792
     atom    3 type  2   force =    -0.00025251   -0.00196265    0.10278924
     atom    4 type  2   force =    -0.00014966    0.00160029    0.11369344
     atom    5 type  2   force =    -0.00032548    0.00058219   -0.18043162
     atom    6 type  2   force =    -0.00019447   -0.00013563   -0.18077540
     atom    7 type  1   force =    -0.06895062    0.00062786   -0.02907848
     atom    8 type  1   force =    -0.06847777   -0.00120509   -0.02911855
     atom    9 type  1   force =     0.06858782    0.00111638   -0.02915472
     atom   10 type  1   force =     0.06820532   -0.00080841   -0.02921010
     atom   11 type  1   force =     0.00037462    0.00051045    0.04560516
     atom   12 type  1   force =     0.00056993    0.00076175    0.04714166
     atom   13 type  1   force =     0.00027953   -0.00577585   -0.03304070
     atom   14 type  1   force =     0.00033620    0.00397834   -0.02581648
     atom   15 type  2   force =     0.00003177   -0.00027698    0.00027660
     atom   16 type  2   force =     0.00013406    0.00013453   -0.00006765
     atom   17 type  2   force =    -0.00022326   -0.00067274    0.00127803
     atom   18 type  2   force =    -0.00027933   -0.00035603    0.00064321
     atom   19 type  1   force =    -0.01792647    0.00015085    0.00395254
     atom   20 type  1   force =    -0.01644156    0.00130257    0.00322223
     atom   21 type  1   force =     0.01956267   -0.00097600    0.00434767
     atom   22 type  1   force =     0.01781971    0.00102717    0.00345369
     atom   23 type  1   force =    -0.00013966   -0.00027031    0.00015382
     atom   24 type  1   force =    -0.00022369    0.00003517    0.00002873
     atom   25 type  1   force =    -0.00002555   -0.00010692   -0.00086047
     atom   26 type  1   force =    -0.00011605    0.00023570   -0.00015571
     atom   27 type  2   force =    -0.00005560   -0.00075620   -0.00094826
     atom   28 type  2   force =     0.00013206    0.00067736    0.00011440
     atom   29 type  2   force =     0.00008770   -0.00088543    0.00049124
     atom   30 type  2   force =    -0.00023826    0.00137197   -0.00052544
     atom   31 type  1   force =    -0.00020744   -0.00034143    0.00040890
     atom   32 type  1   force =    -0.00025377    0.00036879    0.00001561
     atom   33 type  1   force =     0.00002213   -0.00039598    0.00052440
     atom   34 type  1   force =     0.00022559    0.00044425    0.00023896
     atom   35 type  1   force =     0.00014391   -0.00005260   -0.00137288
     atom   36 type  1   force =    -0.00008369    0.00032690   -0.00011992
     atom   37 type  1   force =    -0.00068179    0.00009736    0.00054170
     atom   38 type  1   force =     0.00003547   -0.00023280   -0.00046211
     atom   39 type  2   force =    -0.00059263    0.00065021    0.00119891
     atom   40 type  2   force =    -0.00086200   -0.00006640    0.00034881
     atom   41 type  2   force =     0.00027687   -0.00084066   -0.00088754
     atom   42 type  2   force =     0.00029723    0.00097871   -0.00087907
     atom   43 type  1   force =    -0.00063230    0.00035544    0.00035726
     atom   44 type  1   force =     0.00024980    0.00001294    0.00033312
     atom   45 type  1   force =    -0.00093081    0.00013069    0.00062412
     atom   46 type  1   force =    -0.00013971   -0.00002119    0.00078917
     atom   47 type  1   force =    -0.00033646    0.00079236    0.00154457
     atom   48 type  1   force =     0.00179012   -0.00024831   -0.00137102
     atom   49 type  3   force =    -0.00153914   -0.00022206    0.00164693
     atom   50 type  4   force =     0.00070837   -0.00087553    0.00037229
     atom   51 type  4   force =     0.00060209   -0.00088325   -0.00042785

     Total force =     0.374415     Total SCF correction =     0.000906
  @ DRIVER MODE: Message from server: STATUS
  @ DRIVER MODE: Message from server: GETFORCE
  @ DRIVER MODE: Returning v,forces,stress,ensemble

     Writing output data file ./calc.save/
  @ DRIVER MODE: Message from server: EXIT
  @ DRIVE MODE: Exiting

     General routines

     Parallel routines

   This run was terminated on:  18:23:19  10Sep2021

   JOB DONE.