     Program PWSCF v.6.7GPU starts on 15Sep2021 at 21:19:59

     R & G space division:  proc/nbgrp/npool/nimage =      10
     Reading input from /storage/home/hcoda1/3/ntian30/research/carbon/CxH_vib/H2O_calc/ads_slab/CH3N2HH2O_a/out_0018/pw.inp
Warning: card &CELL ignored
Warning: card   CELL_DYNAMICS='IPI', ignored
Warning: card / ignored

     Current dimensions of program PWSCF are:
     Max number of different atomic species (ntypx) = 10
     Max number of k-points (npk) =  40000
     Max angular momentum in pseudopotentials (lmaxx) =  3
     Presently no symmetry can be used with electric field

     Message from routine cell_base_init:
     DEPRECATED: use true lattice parameter, not A to a.u. conversion factor

     IMPORTANT: XC functional enforced from input :
     Exchange-correlation= BEEF-VDW
                           (   1   4  43  14   2   0   0)
     Any further DFT definition will be discarded
     Please, verify this is what you really want

  @ DRIVER MODE: Connecting to
 qe_1139763_2852617.sched-torque.pace.gatech.eduereen6dk_scratch
  using UNIX socket
  @ DRIVER MODE: Message from server: STATUS
  @ DRIVER MODE: Message from server: INIT
  @ DRIVER MODE: Receiving replica           0          -1
  @ DRIVER MODE: Receiving encoded integer          25
  @ DRIVER MODE:  SCF:  T  FORCE:  T  STRESS:  F  VC:  F  ENSEMBLE:  F
  @ DRIVER MODE:  SCF:  T  FORCE:  T  STRESS:  F  VC:  F  ENSEMBLE:  F

     Using Slab Decomposition

     bravais-lattice index     =            0
     lattice parameter (alat)  =       1.8897  a.u.
     unit-cell volume          =    6658.9804 (a.u.)^3
     number of atoms/cell      =           57
     number of atomic types    =            5
     number of electrons       =       404.00
     number of Kohn-Sham states=          212
     kinetic-energy cutoff     =      29.3995  Ry
     charge density cutoff     =     293.9946  Ry
     scf convergence threshold =      7.3E-08
     mixing beta               =       0.0500
     number of iterations used =            8  plain     mixing
     Exchange-correlation= BEEF-VDW
                           (   1   4  43  14   2   0   0)

     celldm(1)=   1.889726  celldm(2)=   0.000000  celldm(3)=   0.000000
     celldm(4)=   0.000000  celldm(5)=   0.000000  celldm(6)=   0.000000

     crystal axes: (cart. coord. in units of alat)
               a(1) = (   6.579727   0.000000   0.000000 )
               a(2) = (  -0.000775   5.961596   0.000000 )
               a(3) = (   0.000000   0.000000  25.155947 )

     reciprocal axes: (cart. coord. in units 2 pi/alat)
               b(1) = (  0.151982  0.000020  0.000000 )
               b(2) = (  0.000000  0.167740  0.000000 )
               b(3) = (  0.000000  0.000000  0.039752 )

     PseudoPot. # 1 for Ti read from file:
     /storage/coda1/p-amedford6/0/shared/rich_project_chbe-medford/medford-share/data/pseudos_module/espresso/nninc/pbe/van/Ti.UPF
     MD5 check sum: 8e4df49b7f0d34bbd5052bf3f5ea0213
     Pseudo is Ultrasoft, Zval = 12.0
     Generated by new atomic code, or converted to UPF format
     Using radial grid of  851 points,  6 beta functions with:
                l(1) =   0
                l(2) =   0
                l(3) =   1
                l(4) =   1
                l(5) =   2
                l(6) =   2
     Q(r) pseudized with  8 coefficients,  rinner =    1.000   1.000   1.000
                                                       1.000   1.000

     PseudoPot. # 2 for O  read from file:
     /storage/coda1/p-amedford6/0/shared/rich_project_chbe-medford/medford-share/data/pseudos_module/espresso/nninc/pbe/van/O.UPF
     MD5 check sum: 78c19812648e8988a0fe644b0f25305e
     Pseudo is Ultrasoft, Zval =  6.0
     Generated by new atomic code, or converted to UPF format
     Using radial grid of  737 points,  4 beta functions with:
                l(1) =   0
                l(2) =   0
                l(3) =   1
                l(4) =   1
     Q(r) pseudized with  8 coefficients,  rinner =    0.800   0.800   0.800

     PseudoPot. # 3 for N  read from file:
     /storage/coda1/p-amedford6/0/shared/rich_project_chbe-medford/medford-share/data/pseudos_module/espresso/nninc/pbe/van/N.UPF
     MD5 check sum: 90d10febe142ad51ac9d5be1deb811c4
     Pseudo is Ultrasoft, Zval =  5.0
     Generated by new atomic code, or converted to UPF format
     Using radial grid of  729 points,  4 beta functions with:
                l(1) =   0
                l(2) =   0
                l(3) =   1
                l(4) =   1
     Q(r) pseudized with  8 coefficients,  rinner =    0.800   0.800   0.800

     PseudoPot. # 4 for C  read from file:
     /storage/coda1/p-amedford6/0/shared/rich_project_chbe-medford/medford-share/data/pseudos_module/espresso/nninc/pbe/van/C.UPF
     MD5 check sum: 1a69bf6b8db32088f5b2163dbdb77a27
     Pseudo is Ultrasoft, Zval =  4.0
     Generated by new atomic code, or converted to UPF format
     Using radial grid of  721 points,  4 beta functions with:
                l(1) =   0
                l(2) =   0
                l(3) =   1
                l(4) =   1
     Q(r) pseudized with  8 coefficients,  rinner =    0.800   0.800   0.800

     PseudoPot. # 5 for H  read from file:
     /storage/coda1/p-amedford6/0/shared/rich_project_chbe-medford/medford-share/data/pseudos_module/espresso/nninc/pbe/van/H.UPF
     MD5 check sum: b5ee9d7bfd3a09ee7748110bda690ff7
     Pseudo is Ultrasoft, Zval =  1.0
     Generated by new atomic code, or converted to UPF format
     Using radial grid of  615 points,  1 beta functions with:
                l(1) =   0
     Q(r) pseudized with  8 coefficients,  rinner =    0.800

     atomic species   valence    mass     pseudopotential
        Ti1           12.00    47.86700     Ti( 1.00)
        O1             6.00    15.99900     O ( 1.00)
        N1             5.00    14.00700     N ( 1.00)
        C1             4.00    12.01100     C ( 1.00)
        H1             1.00     1.00800     H ( 1.00)

     No symmetry found

   Cartesian axes

     site n.     atom                  positions (alat units)
         1           Ti1 tau(   1) = (   0.0004258   2.9801865   6.0000000  )
         2           Ti1 tau(   2) = (   3.2906075   1.4906267   6.0002472  )
         3           O1  tau(   3) = (   0.0006271   0.0005054   7.9858123  )
         4           O1  tau(   4) = (   3.2906025   0.0005020   7.3038282  )
         5           O1  tau(   5) = (   4.5942328   1.4918067   9.2879030  )
         6           O1  tau(   6) = (   1.9868534   1.4903216   9.2879459  )
         7           Ti1 tau(   7) = (   3.2907910   2.8959150   9.1758416  )
         8           Ti1 tau(   8) = (   0.0015273   1.4827037   9.2680791  )
         9           O1  tau(   9) = (   3.2846840   0.0164488  11.3171736  )
        10           O1  tau(  10) = (   0.0116148   5.9584955  10.6183126  )
        11           O1  tau(  11) = (   1.2780696   1.4966870  12.6228330  )
        12           O1  tau(  12) = (   5.2671132   1.5021727  12.6038655  )
        13           Ti1 tau(  13) = (   0.0814623   2.9703834  12.6092300  )
        14           Ti1 tau(  14) = (   3.3984034   1.5042134  12.4754612  )
        15           O1  tau(  15) = (   6.5611900   5.9602394  14.6246442  )
        16           O1  tau(  16) = (   3.2847170   0.0117735  13.9091713  )
        17           O1  tau(  17) = (   4.5127615   1.5439160  15.9886145  )
        18           O1  tau(  18) = (   2.0245574   1.5486524  15.9865356  )
        19           Ti1 tau(  19) = (   3.2678410   3.0292036  15.6627315  )
        20           Ti1 tau(  20) = (   6.5437773   1.5790868  15.8036792  )
        21           O1  tau(  21) = (   3.2904802   0.0005063   4.7018136  )
        22           O1  tau(  22) = (   6.5616667   0.0409992  17.2467836  )
        23           O1  tau(  23) = (   1.3043587   1.4918075   6.0039043  )
        24           O1  tau(  24) = (   5.2767064   1.4903225   6.0039473  )
        25           Ti1 tau(  25) = (   0.0000382   5.9609847   6.0000000  )
        26           Ti1 tau(  26) = (   3.2902200   4.4714249   6.0002472  )
        27           O1  tau(  27) = (   0.0002396   2.9813036   7.9858123  )
        28           O1  tau(  28) = (   3.2902150   2.9813002   7.3038282  )
        29           O1  tau(  29) = (   4.5938453   4.4726049   9.2879030  )
        30           O1  tau(  30) = (   1.9864658   4.4711199   9.2879459  )
        31           Ti1 tau(  31) = (   3.2891106   5.8743827   9.1763621  )
        32           Ti1 tau(  32) = (   0.0006254   4.4649316   9.2693709  )
        33           O1  tau(  33) = (   3.2886753   2.9955121  11.3174028  )
        34           O1  tau(  34) = (   0.0092240   2.9805883  10.6323155  )
        35           O1  tau(  35) = (   1.2771457   4.4765085  12.6200386  )
        36           O1  tau(  36) = (   5.2716127   4.4859779  12.5990880  )
        37           Ti1 tau(  37) = (   0.0719143   5.9417653  12.6408960  )
        38           Ti1 tau(  38) = (   3.4009286   4.4967646  12.4819834  )
        39           O1  tau(  39) = (   6.5633752   2.9851081  14.6229342  )
        40           O1  tau(  40) = (   3.2806164   3.0132077  13.8636590  )
        41           O1  tau(  41) = (   4.5054435   4.4842064  16.0752605  )
        42           O1  tau(  42) = (   2.0287922   4.4846499  16.0567397  )
        43           Ti1 tau(  43) = (   3.2585180   0.0608266  15.7494983  )
        44           Ti1 tau(  44) = (   6.5556145   4.6328118  16.1363011  )
        45           O1  tau(  45) = (   3.2900926   2.9813045   4.7018136  )
        46           O1  tau(  46) = (   1.3039711   4.4726057   6.0039043  )
        47           O1  tau(  47) = (   5.2763189   4.4711207   6.0039473  )
        48           N1  tau(  48) = (   6.4582227   2.6263240  18.5734135  )
        49           N1  tau(  49) = (   6.5493832   2.9496485  17.3103279  )
        50           C1  tau(  50) = (   0.1600853   3.5596473  19.6555425  )
        51           H1  tau(  51) = (   6.1911903   4.4878083  19.4849519  )
        52           H1  tau(  52) = (   6.4401482   3.1080517  20.5902855  )
        53           H1  tau(  53) = (   1.2308410   3.8049764  19.6956042  )
        54           H1  tau(  54) = (   6.5044843   1.6253530  18.7706356  )
        55           O1  tau(  55) = (   3.2415852   0.0755412  18.2049893  )
        56           H1  tau(  56) = (   4.0109045   5.4607113  18.3409029  )
        57           H1  tau(  57) = (   2.4534619   5.4803556  18.3240773  )

     number of k points=    10  Fermi-Dirac smearing, width (Ry)=  0.0073
                       cart. coord. in units 2pi/alat
        k(    1) = (   0.0000000   0.0000000   0.0000000), wk =   0.1250000
        k(    2) = (   0.0000000   0.0419351   0.0000000), wk =   0.2500000
        k(    3) = (   0.0000000  -0.0838702   0.0000000), wk =   0.1250000
        k(    4) = (   0.0379955   0.0000049   0.0000000), wk =   0.2500000
        k(    5) = (   0.0379955   0.0419400   0.0000000), wk =   0.2500000
        k(    6) = (   0.0379955  -0.0838652   0.0000000), wk =   0.2500000
        k(    7) = (   0.0379955  -0.0419301   0.0000000), wk =   0.2500000
        k(    8) = (  -0.0759910  -0.0000099   0.0000000), wk =   0.1250000
        k(    9) = (  -0.0759910   0.0419252   0.0000000), wk =   0.2500000
        k(   10) = (  -0.0759910  -0.0838800   0.0000000), wk =   0.1250000

     Initial potential from superposition of free atoms

     starting charge  387.99913, renormalised to  404.00000

     negative rho (up, down):  1.444E-02 0.000E+00

     %%%%%%%%%%%%%%%%%%%%%%%%%%%%%%%%%%%%%%%%%%%%%%%%%%%%%%%%%%%%%%%%%%%%%%%%
     %                                                                      %
     % You are using vdW-DF, which was implemented by the Thonhauser group. %
     % Please cite the following two papers that made this development      %
     % possible and the two reviews that describe the various versions:     %
     %                                                                      %
     %   T. Thonhauser et al., PRL 115, 136402 (2015).                      %
     %   T. Thonhauser et al., PRB 76, 125112 (2007).                       %
     %   K. Berland et al., Rep. Prog. Phys. 78, 066501 (2015).             %
     %   D.C. Langreth et al., J. Phys.: Condens. Matter 21, 084203 (2009). %
     %                                                                      %
     %                                                                      %
     % If you are calculating the stress with vdW-DF, please also cite:     %
     %                                                                      %
     %   R. Sabatini et al., J. Phys.: Condens. Matter 24, 424209 (2012).   %
     %                                                                      %
     %%%%%%%%%%%%%%%%%%%%%%%%%%%%%%%%%%%%%%%%%%%%%%%%%%%%%%%%%%%%%%%%%%%%%%%%

     Adding external electric field

     Computed dipole along edir(3) :
        Dipole              -13.5700 Ry au,        -34.4914 Debye
        Dipole field         -0.0256 Ry au,

        Potential amp.        2.3739 Ry
        Total length         46.3494 bohr

     Starting wfcs are  306 atomic wfcs
  @ DRIVER MODE: Message from server: STATUS
  @ DRIVER MODE: Message from server: POSDATA
  @ DRIVER MODE: Reading and sharing cell
  @ DRIVER MODE: Reading and sharing positions
  @ DRIVER MODE: Received positions

     Self-consistent Calculation

     iteration #  1     ecut=    29.40 Ry     beta= 0.05
     Davidson diagonalization with overlap
     c_bands:  4 eigenvalues not converged
     c_bands:  4 eigenvalues not converged
     c_bands:  4 eigenvalues not converged
     c_bands:  4 eigenvalues not converged
     c_bands:  3 eigenvalues not converged
     c_bands:  3 eigenvalues not converged
     ethr =  1.00E-05,  avg # of iterations = 25.3

[...]

     total energy              =   -2338.50334223 Ry
     estimated scf accuracy    <    7257.37700679 Ry

     iteration #  2     ecut=    29.40 Ry     beta= 0.05
     Davidson diagonalization with overlap
     ethr =  1.00E-02,  avg # of iterations = 23.2

[...]

     iteration # 61     ecut=    29.40 Ry     beta= 0.05
     Davidson diagonalization with overlap
     c_bands:  1 eigenvalues not converged
     ethr =  5.71E-08,  avg # of iterations =  9.0

[...]

     total energy              =   -2975.23034762 Ry
     estimated scf accuracy    <       0.00000009 Ry

     iteration # 84     ecut=    29.40 Ry     beta= 0.05
     Davidson diagonalization with overlap
     ethr =  2.29E-11,  avg # of iterations =  6.8

     negative rho (up, down):  1.507E-02 0.000E+00

     Adding external electric field

     Computed dipole along edir(3) :
        Dipole                1.1665 Ry au,          2.9650 Debye
        Dipole field          0.0022 Ry au,

        Potential amp.       -0.2041 Ry
        Total length         46.3494 bohr

     End of self-consistent calculation

          k = 0.0000 0.0000 0.0000 ( 18029 PWs)   bands (ev):

   -55.5013 -55.4673 -55.3292 -55.2927 -55.2584 -55.2247 -55.1987 -55.1962
   -55.1837 -55.1611 -55.1494 -55.0117 -54.5504 -54.4318 -54.3978 -54.3864
   -31.9743 -31.8645 -31.7956 -31.7806 -31.7174 -31.7088 -31.6728 -31.6546
   -31.6183 -31.6018 -31.5967 -31.5704 -31.5602 -31.5160 -31.5085 -31.4974
   -31.4786 -31.4769 -31.4523 -31.4343 -31.4228 -31.4133 -31.4101 -31.3932
   -31.3885 -31.3809 -31.3712 -31.3640 -31.3620 -31.3599 -31.3375 -31.3264
   -31.3139 -31.2962 -31.2039 -31.1767 -31.0443 -30.8368 -30.7749 -30.7603
   -30.7537 -30.7309 -30.7217 -30.6538 -30.5967 -30.5676 -30.5661 -30.4565
   -18.7903 -17.7230 -16.0703 -15.8781 -15.6058 -15.4833 -15.4556 -15.2717
   -15.1952 -15.1434 -15.0110 -14.9647 -14.9348 -14.9051 -14.8920 -14.8350
   -14.8080 -14.7810 -14.7525 -14.7468 -14.7271 -14.7059 -14.6652 -14.6060
   -14.5817 -14.5201 -14.4698 -14.4481 -14.3562 -14.3504 -13.9266 -12.9332
   -12.8176 -11.8948  -8.8044  -6.5600  -5.5882  -4.3120  -4.0800  -3.4552
    -3.3790  -3.3204  -3.2047  -3.1470  -2.9866  -2.9494  -2.9117  -2.7760
    -2.6013  -2.5434  -2.5181  -2.4886  -2.4045  -2.2704  -2.2588  -2.2114
    -2.1832  -2.1626  -2.1489  -2.1322  -2.0375  -1.9983  -1.9609  -1.8539
    -1.8160  -1.7914  -1.7752  -1.7668  -1.7506  -1.6853  -1.6541  -1.6353
    -1.6246  -1.5874  -1.5539  -1.5435  -1.4138  -1.3949  -1.2780  -1.1528
    -1.1275  -1.0686  -1.0430  -0.8839  -0.8790  -0.8578  -0.8156  -0.8080
    -0.7366  -0.6634  -0.6224  -0.5465  -0.4286  -0.4187  -0.3845  -0.2380
    -0.2346  -0.2114  -0.1731  -0.1619  -0.1115  -0.1032  -0.0560   0.0047
     0.1000   0.1701   0.2759   0.2792   0.3317   0.3714   0.3837   0.4414
     0.4586   0.5083   0.5202   0.5277   0.5795   0.6143   0.6269   0.6843
     0.7355   0.8528   0.9224   0.9472   0.9938   1.1161   1.1915   1.2386
     1.2441   1.4121   1.5356   1.5626   1.5906   1.7908   1.8218   2.1575
     2.2013   3.6727   3.6896   3.7793   3.8382   3.9522   4.0235   4.1125
     4.1906   4.2611   4.3541   4.4140

[...]

          k = 0.0380-0.0419 0.0000 ( 17876 PWs)   bands (ev):

[...]

          k =-0.0760-0.0000 0.0000 ( 17886 PWs)   bands (ev):

[...]

          k =-0.0760-0.0839 0.0000 ( 17948 PWs)   bands (ev):

   -55.4844 -55.4840 -55.3147 -55.3070 -55.2416 -55.2413 -55.1945 -55.1872
   -55.1725 -55.1698 -55.1633 -55.0132 -54.5489 -54.4148 -54.4146 -54.3879
   -31.7898 -31.7897 -31.7809 -31.7808 -31.6776 -31.6604 -31.6055 -31.6049
   -31.5669 -31.5623 -31.5588 -31.5536 -31.5509 -31.5456 -31.5128 -31.5078
   -31.4864 -31.4781 -31.4748 -31.4683 -31.4347 -31.4325 -31.4245 -31.4219
   -31.4114 -31.4101 -31.3980 -31.3957 -31.3915 -31.3855 -31.3852 -31.3793
   -31.3522 -31.3280 -31.3137 -31.2115 -30.9538 -30.7981 -30.7635 -30.7437
   -30.7436 -30.7434 -30.6499 -30.6498 -30.6157 -30.6108 -30.6108 -30.5968
   -18.7893 -17.7169 -15.4939 -15.4276 -15.3564 -15.3525 -15.2480 -15.1950
   -15.1001 -15.0896 -15.0825 -15.0794 -14.9785 -14.9752 -14.9099 -14.9010
   -14.8618 -14.8544 -14.8507 -14.8342 -14.8199 -14.8143 -14.7999 -14.7536
   -14.7351 -14.7292 -14.5661 -14.5413 -14.4257 -14.4076 -14.0509 -12.9198
   -12.9196 -11.8960  -8.8148  -6.5441  -5.5811  -4.2641  -4.0976  -2.9825
    -2.9158  -2.7852  -2.6585  -2.5251  -2.5124  -2.4920  -2.4555  -2.2891
    -2.2763  -2.2607  -2.2511  -2.2101  -2.1985  -2.1799  -2.1655  -2.1120
    -2.0943  -2.0751  -2.0712  -2.0602  -2.0553  -2.0437  -2.0351  -2.0262
    -2.0025  -1.9562  -1.9348  -1.8538  -1.7679  -1.7582  -1.6814  -1.5511
    -1.5440  -1.5321  -1.5305  -1.5187  -1.5090  -1.4677  -1.4334  -1.3773
    -1.2712  -1.1503  -1.0984  -1.0802  -1.0272  -1.0068  -0.9180  -0.8377
    -0.8025  -0.7842  -0.6987  -0.6499  -0.5717  -0.5564  -0.5192  -0.4687
    -0.4444  -0.4304  -0.4137  -0.4056  -0.3429  -0.2994  -0.2313  -0.2172
    -0.1613  -0.1301  -0.1019  -0.0790  -0.0380   0.0555   0.0632   0.0904
     0.1185   0.1335   0.2072   0.3583   0.3989   0.6387   0.6479   0.7188
     0.8473   0.8707   0.8777   0.9535   0.9668   1.0040   1.0254   1.1464
     1.1692   1.1927   1.3218   1.3571   1.4477   1.9604   1.9613   2.0203
     2.0208   3.5357   4.1364   4.1464   4.1637   4.1772   4.2028   4.2093
     4.2512   4.2644   4.3980   4.4189

     the Fermi energy is     3.6487 ev

!    total energy              =   -2975.23035208 Ry
     estimated scf accuracy    <       0.00000002 Ry
     smearing contrib. (-TS)   =      -0.02109491 Ry
     internal energy E=F+TS    =   -2975.20925717 Ry

     The total energy is F=E-TS. E is the sum of the following terms:
     one-electron contribution =  -23876.92909769 Ry
     hartree contribution      =   12035.91397523 Ry
     xc contribution           =    -494.92634621 Ry
     ewald contribution        =    9360.72964348 Ry
     electric field correction =       0.00256802 Ry

     convergence has been achieved in  84 iterations

     Forces acting on atoms (cartesian axes, Ry/au):

     atom    1 type  1   force =     0.00016614   -0.00022688    0.09943832
     atom    2 type  1   force =    -0.00015371   -0.00039302   -0.17311156
     atom    3 type  2   force =    -0.00006815   -0.00000265   -0.02912199
     atom    4 type  2   force =     0.00003906   -0.00102664    0.04893645
     atom    5 type  2   force =    -0.01224612    0.00099149    0.00049433
     atom    6 type  2   force =     0.01355472    0.00186452   -0.00110208
     atom    7 type  1   force =    -0.00136175   -0.00053523   -0.00301267
     atom    8 type  1   force =     0.00094717   -0.00608541    0.04540010
     atom    9 type  2   force =    -0.00000136   -0.00023318    0.00000181
     atom   10 type  2   force =    -0.00155561    0.00261567   -0.03090945
     atom   11 type  2   force =    -0.00016799   -0.00045240    0.00005495
     atom   12 type  2   force =     0.00008133   -0.00023567    0.00015841
     atom   13 type  1   force =    -0.00019999   -0.00054271   -0.00043504
     atom   14 type  1   force =     0.00030983   -0.00016385    0.00018425
     atom   15 type  2   force =     0.00000248   -0.00009267   -0.00018118
     atom   16 type  2   force =    -0.00022080    0.00005001    0.00019111
     atom   17 type  2   force =     0.00020543   -0.00027161    0.00018794
     atom   18 type  2   force =    -0.00007637   -0.00034374    0.00004873
     atom   19 type  1   force =     0.00008104   -0.00016593    0.00025586
     atom   20 type  1   force =    -0.00002520   -0.00066785    0.00013254
     atom   21 type  2   force =     0.00008883   -0.00000517    0.10259443
     atom   22 type  2   force =     0.00009403   -0.00031265    0.00004996
     atom   23 type  2   force =    -0.07249192   -0.00008899   -0.02847283
     atom   24 type  2   force =     0.07245613    0.00034104   -0.02845327
     atom   25 type  1   force =     0.00009344   -0.00027728    0.09895699
     atom   26 type  1   force =    -0.00006038   -0.00041684   -0.17329656
     atom   27 type  2   force =    -0.00003380    0.00000467   -0.02842808
     atom   28 type  2   force =     0.00009470   -0.00076066    0.04810232
     atom   29 type  2   force =    -0.01261379    0.00062878    0.00052858
     atom   30 type  2   force =     0.01384868    0.00095811   -0.00104083
     atom   31 type  1   force =    -0.00145797    0.00225227   -0.00573805
     atom   32 type  1   force =     0.00112302    0.00384434    0.04590865
     atom   33 type  2   force =    -0.00006193   -0.00026360   -0.00007804
     atom   34 type  2   force =    -0.00096325    0.00134037   -0.03376227
     atom   35 type  2   force =    -0.00027488    0.00004446   -0.00023167
     atom   36 type  2   force =     0.00048391    0.00010036   -0.00002709
     atom   37 type  1   force =    -0.00031867    0.00007790    0.00015673
     atom   38 type  1   force =     0.00018447   -0.00029602   -0.00001116
     atom   39 type  2   force =     0.00002140   -0.00052628    0.00048042
     atom   40 type  2   force =    -0.00005260    0.00017720   -0.00022278
     atom   41 type  2   force =    -0.00010357   -0.00025250    0.00009848
     atom   42 type  2   force =     0.00017934   -0.00018637    0.00000618
     atom   43 type  1   force =     0.00010230    0.00004453   -0.00023303
     atom   44 type  1   force =    -0.00001575   -0.00011903   -0.00013794
     atom   45 type  2   force =     0.00009605   -0.00001392    0.10258776
     atom   46 type  2   force =    -0.07251251   -0.00000804   -0.02846412
     atom   47 type  2   force =     0.07247236    0.00037741   -0.02845477
     atom   48 type  3   force =     0.00019820    0.00161066    0.00443292
     atom   49 type  3   force =     0.00034273   -0.00002190    0.00183857
     atom   50 type  4   force =     0.00117329    0.00262873   -0.01930290
     atom   51 type  5   force =     0.00101240   -0.00147968    0.00232441
     atom   52 type  5   force =    -0.00265034   -0.00367889    0.00925539
     atom   53 type  5   force =    -0.00002378   -0.00019543    0.00188042
     atom   54 type  5   force =     0.00033523   -0.00002048   -0.00003787
     atom   55 type  2   force =     0.00059570    0.00056528   -0.00019201
     atom   56 type  5   force =    -0.00017501   -0.00038537   -0.00027445
     atom   57 type  5   force =    -0.00049624    0.00023075    0.00004670

     Total force =     0.372769     Total SCF correction =     0.000490
  @ DRIVER MODE: Message from server: STATUS
  @ DRIVER MODE: Message from server: GETFORCE
  @ DRIVER MODE: Returning v,forces,stress,ensemble

     Writing output data file ./calc.save/
  @ DRIVER MODE: Message from server: EXIT
  @ DRIVE MODE: Exiting

     General routines

     Parallel routines

   This run was terminated on:  21:41:28  15Sep2021

   JOB DONE.