     Program PWSCF v.6.7GPU starts on 24Aug2021 at  8:29: 9

     R & G space division:  proc/nbgrp/npool/nimage =       6
     Reading input from /storage/home/hcoda1/3/ntian30/research/carbon/CH2_vib/ads_slab/CH2NNHHH_a/out_0037/pw.inp
Warning: card &CELL ignored
Warning: card   CELL_DYNAMICS='IPI', ignored
Warning: card / ignored

     Current dimensions of program PWSCF are:
     Max number of different atomic species (ntypx) = 10
     Max number of k-points (npk) =  40000
     Max angular momentum in pseudopotentials (lmaxx) =  3
     Presently no symmetry can be used with electric field

     Message from routine cell_base_init:
     DEPRECATED: use true lattice parameter, not A to a.u. conversion factor

     IMPORTANT: XC functional enforced from input :
     Exchange-correlation= BEEF-VDW
                           (   1   4  43  14   2   0   0)
     Any further DFT definition will be discarded
     Please, verify this is what you really want

  @ DRIVER MODE: Connecting to
 qe_1139763_2632806.sched-torque.pace.gatech.edu8pdq97s2_scratch
  using UNIX socket
  @ DRIVER MODE: Message from server: STATUS
  @ DRIVER MODE: Message from server: INIT
  @ DRIVER MODE: Receiving replica           0          -1
  @ DRIVER MODE: Receiving encoded integer          25
  @ DRIVER MODE:  SCF:  T  FORCE:  T  STRESS:  F  VC:  F  ENSEMBLE:  F
  @ DRIVER MODE:  SCF:  T  FORCE:  T  STRESS:  F  VC:  F  ENSEMBLE:  F

     Using Slab Decomposition

     bravais-lattice index     =            0
     lattice parameter (alat)  =       1.8897  a.u.
     unit-cell volume          =    6658.9804 (a.u.)^3
     number of atoms/cell      =           55
     number of atomic types    =            5
     number of electrons       =       397.00
     number of Kohn-Sham states=          208
     kinetic-energy cutoff     =      29.3995  Ry
     charge density cutoff     =     293.9946  Ry
     scf convergence threshold =      7.3E-08
     mixing beta               =       0.0500
     number of iterations used =            8  plain     mixing
     Exchange-correlation= BEEF-VDW
                           (   1   4  43  14   2   0   0)

     celldm(1)=   1.889726  celldm(2)=   0.000000  celldm(3)=   0.000000
     celldm(4)=   0.000000  celldm(5)=   0.000000  celldm(6)=   0.000000

     crystal axes: (cart. coord. in units of alat)
               a(1) = (   6.579727   0.000000   0.000000 )
               a(2) = (  -0.000775   5.961596   0.000000 )
               a(3) = (   0.000000   0.000000  25.155947 )

     reciprocal axes: (cart. coord. in units 2 pi/alat)
               b(1) = (  0.151982  0.000020  0.000000 )
               b(2) = (  0.000000  0.167740  0.000000 )
               b(3) = (  0.000000  0.000000  0.039752 )

     PseudoPot. # 1 for Ti read from file:
     /storage/coda1/p-amedford6/0/shared/rich_project_chbe-medford/medford-share/data/pseudos_module/espresso/nninc/pbe/van/Ti.UPF
     MD5 check sum: 8e4df49b7f0d34bbd5052bf3f5ea0213
     Pseudo is Ultrasoft, Zval = 12.0
     Generated by new atomic code, or converted to UPF format
     Using radial grid of  851 points,  6 beta functions with:
                l(1) =   0
                l(2) =   0
                l(3) =   1
                l(4) =   1
                l(5) =   2
                l(6) =   2
     Q(r) pseudized with  8 coefficients,  rinner =    1.000   1.000   1.000
                                                       1.000   1.000

     PseudoPot. # 2 for O  read from file:
     /storage/coda1/p-amedford6/0/shared/rich_project_chbe-medford/medford-share/data/pseudos_module/espresso/nninc/pbe/van/O.UPF
     MD5 check sum: 78c19812648e8988a0fe644b0f25305e
     Pseudo is Ultrasoft, Zval =  6.0
     Generated by new atomic code, or converted to UPF format
     Using radial grid of  737 points,  4 beta functions with:
                l(1) =   0
                l(2) =   0
                l(3) =   1
                l(4) =   1
     Q(r) pseudized with  8 coefficients,  rinner =    0.800   0.800   0.800

     PseudoPot. # 3 for N  read from file:
     /storage/coda1/p-amedford6/0/shared/rich_project_chbe-medford/medford-share/data/pseudos_module/espresso/nninc/pbe/van/N.UPF
     MD5 check sum: 90d10febe142ad51ac9d5be1deb811c4
     Pseudo is Ultrasoft, Zval =  5.0
     Generated by new atomic code, or converted to UPF format
     Using radial grid of  729 points,  4 beta functions with:
                l(1) =   0
                l(2) =   0
                l(3) =   1
                l(4) =   1
     Q(r) pseudized with  8 coefficients,  rinner =    0.800   0.800   0.800

     PseudoPot. # 4 for C  read from file:
     /storage/coda1/p-amedford6/0/shared/rich_project_chbe-medford/medford-share/data/pseudos_module/espresso/nninc/pbe/van/C.UPF
     MD5 check sum: 1a69bf6b8db32088f5b2163dbdb77a27
     Pseudo is Ultrasoft, Zval =  4.0
     Generated by new atomic code, or converted to UPF format
     Using radial grid of  721 points,  4 beta functions with:
                l(1) =   0
                l(2) =   0
                l(3) =   1
                l(4) =   1
     Q(r) pseudized with  8 coefficients,  rinner =    0.800   0.800   0.800

     PseudoPot. # 5 for H  read from file:
     /storage/coda1/p-amedford6/0/shared/rich_project_chbe-medford/medford-share/data/pseudos_module/espresso/nninc/pbe/van/H.UPF
     MD5 check sum: b5ee9d7bfd3a09ee7748110bda690ff7
     Pseudo is Ultrasoft, Zval =  1.0
     Generated by new atomic code, or converted to UPF format
     Using radial grid of  615 points,  1 beta functions with:
                l(1) =   0
     Q(r) pseudized with  8 coefficients,  rinner =    0.800

     atomic species   valence    mass     pseudopotential
        Ti1           12.00    47.86700     Ti( 1.00)
        O1             6.00    15.99900     O ( 1.00)
        N1             5.00    14.00700     N ( 1.00)
        C1             4.00    12.01100     C ( 1.00)
        H1             1.00     1.00800     H ( 1.00)

     No symmetry found

   Cartesian axes

     site n.     atom                  positions (alat units)
         1           Ti1 tau(   1) = (   0.0004258   2.9801865   6.0000000  )
         2           Ti1 tau(   2) = (   3.2906075   1.4906267   6.0002472  )
         3           O1  tau(   3) = (   0.0006271   0.0005054   7.9858123  )
         4           O1  tau(   4) = (   3.2906025   0.0005020   7.3038282  )
         5           O1  tau(   5) = (   4.5942328   1.4918067   9.2879030  )
         6           O1  tau(   6) = (   1.9868534   1.4903216   9.2879459  )
         7           Ti1 tau(   7) = (   3.2907910   2.8959150   9.1758416  )
         8           Ti1 tau(   8) = (   0.0015273   1.4827037   9.2680791  )
         9           O1  tau(   9) = (   3.2797308   5.9473376  11.3602069  )
        10           O1  tau(  10) = (   0.0116148   5.9584955  10.6183126  )
        11           O1  tau(  11) = (   1.2902197   1.4970218  12.6485984  )
        12           O1  tau(  12) = (   5.2825647   1.4998509  12.6204812  )
        13           Ti1 tau(  13) = (   6.5707130   2.9731531  12.5352273  )
        14           Ti1 tau(  14) = (   3.2824754   1.4851695  12.4964603  )
        15           O1  tau(  15) = (   6.5335774   0.0914421  14.6722524  )
        16           O1  tau(  16) = (   3.3157438   0.0180770  13.9903400  )
        17           O1  tau(  17) = (   4.5084513   1.5196572  16.2619966  )
        18           O1  tau(  18) = (   2.0062152   1.4815140  16.1839734  )
        19           Ti1 tau(  19) = (   3.2259906   2.9465836  15.7211513  )
        20           Ti1 tau(  20) = (   6.5090593   1.4075841  16.1508600  )
        21           O1  tau(  21) = (   3.2904802   0.0005063   4.7018136  )
        22           O1  tau(  22) = (   6.5630310   5.8123487  17.2302531  )
        23           O1  tau(  23) = (   1.3043587   1.4918075   6.0039043  )
        24           O1  tau(  24) = (   5.2767064   1.4903225   6.0039473  )
        25           Ti1 tau(  25) = (   0.0000382   5.9609847   6.0000000  )
        26           Ti1 tau(  26) = (   3.2902200   4.4714249   6.0002472  )
        27           O1  tau(  27) = (   0.0002396   2.9813036   7.9858123  )
        28           O1  tau(  28) = (   3.2902150   2.9813002   7.3038282  )
        29           O1  tau(  29) = (   4.5938453   4.4726049   9.2879030  )
        30           O1  tau(  30) = (   1.9864658   4.4711199   9.2879459  )
        31           Ti1 tau(  31) = (   3.2891106   5.8743827   9.1763621  )
        32           Ti1 tau(  32) = (   0.0006254   4.4649316   9.2693709  )
        33           O1  tau(  33) = (   3.2783824   2.9878764  11.3535400  )
        34           O1  tau(  34) = (   0.0092240   2.9805883  10.6323155  )
        35           O1  tau(  35) = (   1.2857266   4.4729298  12.7006550  )
        36           O1  tau(  36) = (   5.2845514   4.4687958  12.6640455  )
        37           Ti1 tau(  37) = (   6.5734551   0.0101047  12.5124135  )
        38           Ti1 tau(  38) = (   3.2852174   4.4611384  12.5175569  )
        39           O1  tau(  39) = (   6.5279837   2.9480221  14.9030702  )
        40           O1  tau(  40) = (   3.2956390   2.9588503  13.9390168  )
        41           O1  tau(  41) = (   4.4992944   4.4159585  16.2207858  )
        42           O1  tau(  42) = (   2.0104883   4.4624356  16.0673450  )
        43           Ti1 tau(  43) = (   3.2790961   0.0058003  15.7788240  )
        44           Ti1 tau(  44) = (   0.0606790   4.6093333  15.7554573  )
        45           O1  tau(  45) = (   3.2900926   2.9813045   4.7018136  )
        46           O1  tau(  46) = (   1.3039711   4.4726057   6.0039043  )
        47           O1  tau(  47) = (   5.2763189   4.4711207   6.0039473  )
        48           N1  tau(  48) = (   0.0403274   2.7191540  18.0026804  )
        49           C1  tau(  49) = (   0.9398849   2.4944932  18.9664025  )
        50           H1  tau(  50) = (   0.9073005   3.0183022  19.9142263  )
        51           H1  tau(  51) = (   1.7098349   1.7704235  18.7615287  )
        52           N1  tau(  52) = (   5.5765855   3.6054979  18.4816711  )
        53           H1  tau(  53) = (   5.9881759   4.5320851  18.7147717  )
        54           H1  tau(  54) = (   4.9244470   3.8465857  17.6610935  )
        55           H1  tau(  55) = (   5.0674124   3.1947177  19.2767304  )

     number of k points=    10  Fermi-Dirac smearing, width (Ry)=  0.0073
                       cart. coord. in units 2pi/alat
        k(    1) = (   0.0000000   0.0000000   0.0000000), wk =   0.1250000
        k(    2) = (   0.0000000   0.0419351   0.0000000), wk =   0.2500000
        k(    3) = (   0.0000000  -0.0838702   0.0000000), wk =   0.1250000
        k(    4) = (   0.0379955   0.0000049   0.0000000), wk =   0.2500000
        k(    5) = (   0.0379955   0.0419400   0.0000000), wk =   0.2500000
        k(    6) = (   0.0379955  -0.0838652   0.0000000), wk =   0.2500000
        k(    7) = (   0.0379955  -0.0419301   0.0000000), wk =   0.2500000
        k(    8) = (  -0.0759910  -0.0000099   0.0000000), wk =   0.1250000
        k(    9) = (  -0.0759910   0.0419252   0.0000000), wk =   0.2500000
        k(   10) = (  -0.0759910  -0.0838800   0.0000000), wk =   0.1250000

     Initial potential from superposition of free atoms

     starting charge  380.99914, renormalised to  397.00000

     negative rho (up, down):  1.589E-02 0.000E+00

     %%%%%%%%%%%%%%%%%%%%%%%%%%%%%%%%%%%%%%%%%%%%%%%%%%%%%%%%%%%%%%%%%%%%%%%%
     %                                                                      %
     % You are using vdW-DF, which was implemented by the Thonhauser group. %
     % Please cite the following two papers that made this development      %
     % possible and the two reviews that describe the various versions:     %
     %                                                                      %
     %   T. Thonhauser et al., PRL 115, 136402 (2015).                      %
     %   T. Thonhauser et al., PRB 76, 125112 (2007).                       %
     %   K. Berland et al., Rep. Prog. Phys. 78, 066501 (2015).             %
     %   D.C. Langreth et al., J. Phys.: Condens. Matter 21, 084203 (2009). %
     %                                                                      %
     %                                                                      %
     % If you are calculating the stress with vdW-DF, please also cite:     %
     %                                                                      %
     %   R. Sabatini et al., J. Phys.: Condens. Matter 24, 424209 (2012).   %
     %                                                                      %
     %%%%%%%%%%%%%%%%%%%%%%%%%%%%%%%%%%%%%%%%%%%%%%%%%%%%%%%%%%%%%%%%%%%%%%%%

     Adding external electric field

     Computed dipole along edir(3) :
        Dipole              -10.3122 Ry au,        -26.2111 Debye
        Dipole field         -0.0195 Ry au,

        Potential amp.        1.8040 Ry
        Total length         46.3494 bohr

     Starting wfcs are  301 atomic wfcs
  @ DRIVER MODE: Message from server: STATUS
  @ DRIVER MODE: Message from server: POSDATA
  @ DRIVER MODE: Reading and sharing cell
  @ DRIVER MODE: Reading and sharing positions
  @ DRIVER MODE: Received positions

     Self-consistent Calculation

     iteration #  1     ecut=    29.40 Ry     beta= 0.05
     Davidson diagonalization with overlap
     c_bands:  3 eigenvalues not converged
     c_bands:  2 eigenvalues not converged
     c_bands:  3 eigenvalues not converged
     c_bands:  2 eigenvalues not converged
     c_bands:  3 eigenvalues not converged
     c_bands:  2 eigenvalues not converged
     c_bands:  3 eigenvalues not converged
     c_bands:  2 eigenvalues not converged
     c_bands:  2 eigenvalues not converged
     c_bands:  3 eigenvalues not converged
     ethr =  1.00E-05,  avg # of iterations = 20.0

[...]

     total energy              =   -2480.07809623 Ry
     estimated scf accuracy    <    5159.14465781 Ry

     iteration #  2     ecut=    29.40 Ry     beta= 0.05
     Davidson diagonalization with overlap
     ethr =  1.00E-02,  avg # of iterations = 22.7

[...]

     iteration # 87     ecut=    29.40 Ry     beta= 0.05
     Davidson diagonalization with overlap
     ethr =  3.45E-11,  avg # of iterations = 10.4

[...]

     total energy              =   -2941.49084223 Ry
     estimated scf accuracy    <       0.00000010 Ry

     iteration # 88     ecut=    29.40 Ry     beta= 0.05
     Davidson diagonalization with overlap
     c_bands:  1 eigenvalues not converged
     ethr =  2.62E-11,  avg # of iterations = 12.6

     negative rho (up, down):  1.345E-02 0.000E+00

     Adding external electric field

     Computed dipole along edir(3) :
        Dipole                1.3637 Ry au,          3.4661 Debye
        Dipole field          0.0026 Ry au,

        Potential amp.       -0.2386 Ry
        Total length         46.3494 bohr

     End of self-consistent calculation

          k = 0.0000 0.0000 0.0000 ( 18029 PWs)   bands (ev):

   -55.2837 -55.2447 -55.2446 -55.2106 -55.1594 -55.1575 -55.1209 -55.0940
   -55.0769 -55.0756 -55.0593 -55.0423 -54.9566 -54.7912 -54.2630 -54.2289
   -31.8559 -31.7353 -31.6459 -31.6108 -31.5838 -31.5814 -31.5788 -31.5344
   -31.5319 -31.4916 -31.4898 -31.4896 -31.4574 -31.4541 -31.4400 -31.4185
   -31.4035 -31.3985 -31.3942 -31.3930 -31.3568 -31.3518 -31.3382 -31.3246
   -31.3016 -31.2965 -31.2903 -31.2863 -31.2738 -31.2707 -31.2610 -31.2508
   -31.2441 -31.2391 -31.2090 -31.2046 -31.1977 -31.1854 -31.1482 -31.1055
   -31.0621 -30.9325 -30.6718 -30.5790 -30.5569 -30.4883 -30.4016 -30.2906
   -19.2083 -16.1259 -15.8644 -15.7364 -15.5440 -15.4777 -15.3824 -15.2448
   -15.1936 -15.1350 -15.0826 -15.0428 -15.0292 -14.9636 -14.9064 -14.8179
   -14.8162 -14.7992 -14.7893 -14.7775 -14.7740 -14.7117 -14.7091 -14.6818
   -14.6672 -14.6570 -14.5164 -14.4323 -14.3709 -14.2691 -14.0248 -12.7659
   -12.6487  -9.1407  -7.7753  -7.0426  -5.9990  -3.8226  -3.4633  -3.2903
    -3.2442  -3.2035  -3.1785  -3.0100  -2.9288  -2.6610  -2.5931  -2.5534
    -2.5061  -2.4946  -2.4691  -2.2969  -2.2663  -2.2274  -2.1907  -2.1666
    -2.1267  -2.0987  -2.0827  -2.0536  -2.0408  -2.0385  -1.8559  -1.7847
    -1.7626  -1.7016  -1.6847  -1.6685  -1.6110  -1.5820  -1.5691  -1.5667
    -1.5445  -1.5271  -1.5040  -1.4613  -1.3746  -1.2830  -1.2385  -1.2165
    -1.1034  -1.0390  -0.9152  -0.8745  -0.8588  -0.8313  -0.7596  -0.6935
    -0.6655  -0.6297  -0.4896  -0.4848  -0.4011  -0.3904  -0.3177  -0.3015
    -0.2611  -0.2154  -0.1048  -0.0705  -0.0489   0.0028   0.0648   0.0874
     0.1700   0.2238   0.2809   0.2949   0.3740   0.4145   0.4507   0.4738
     0.5607   0.6024   0.6620   0.6683   0.7053   0.7087   0.7341   0.8204
     0.8337   0.8534   0.8940   1.0634   1.2639   1.3157   1.3366   1.6694
     1.6888   1.7594   1.9447   2.3342   2.3818   3.8174   3.8828   3.9534
     3.9679   3.9778   4.0499   4.0953   4.2847   4.3140   4.3169   4.3383

[...]

          k = 0.0380-0.0419 0.0000 ( 17876 PWs)   bands (ev):

[...]

          k =-0.0760-0.0000 0.0000 ( 17886 PWs)   bands (ev):

[...]

          k =-0.0760-0.0839 0.0000 ( 17948 PWs)   bands (ev):

   -55.2715 -55.2565 -55.2276 -55.2275 -55.1556 -55.1457 -55.1327 -55.0805
   -55.0776 -55.0748 -55.0595 -55.0590 -54.9551 -54.7927 -54.2460 -54.2458
   -31.6654 -31.6524 -31.5787 -31.5505 -31.5504 -31.5472 -31.5198 -31.5198
   -31.4925 -31.4839 -31.4793 -31.4756 -31.4211 -31.4123 -31.4122 -31.4087
   -31.4067 -31.4025 -31.3960 -31.3809 -31.3687 -31.3581 -31.3538 -31.3470
   -31.3469 -31.3450 -31.3438 -31.3279 -31.3110 -31.3081 -31.2918 -31.2891
   -31.2845 -31.2826 -31.2825 -31.2516 -31.2398 -31.2386 -31.1655 -31.0924
   -31.0629 -31.0102 -30.5696 -30.5695 -30.4843 -30.4843 -30.4450 -30.4449
   -19.2045 -15.5914 -15.5149 -15.4589 -15.3711 -15.2905 -15.2706 -15.2608
   -15.2283 -15.1612 -15.1379 -15.0720 -15.0372 -14.9913 -14.9885 -14.9734
   -14.8887 -14.8695 -14.8544 -14.8502 -14.7891 -14.7877 -14.7607 -14.7383
   -14.7317 -14.7279 -14.6281 -14.6271 -14.4632 -14.4285 -14.1916 -12.7502
   -12.7502  -9.1277  -7.7849  -7.0268  -6.0094  -3.8461  -2.8521  -2.7655
    -2.6759  -2.5196  -2.4819  -2.4721  -2.4169  -2.3266  -2.3008  -2.2871
    -2.2669  -2.2595  -2.1867  -2.1816  -2.1374  -2.1157  -2.1052  -2.0990
    -2.0651  -2.0517  -2.0382  -2.0014  -1.9930  -1.9767  -1.9428  -1.9229
    -1.8986  -1.8705  -1.8563  -1.8273  -1.7042  -1.6751  -1.6309  -1.5696
    -1.5437  -1.4767  -1.4714  -1.3691  -1.3573  -1.3466  -1.3054  -1.2913
    -1.2712  -1.1092  -1.0643  -1.0288  -1.0168  -1.0111  -0.8553  -0.8385
    -0.7707  -0.7548  -0.7402  -0.6634  -0.6223  -0.6054  -0.5263  -0.4863
    -0.4567  -0.4356  -0.2933  -0.2811  -0.2553  -0.2406  -0.2340  -0.1415
    -0.1209  -0.0851  -0.0508  -0.0127   0.0036   0.0624   0.2155   0.2424
     0.2793   0.4238   0.4388   0.5234   0.5707   0.6986   0.7635   0.7657
     0.8469   0.9168   1.0189   1.0314   1.0508   1.1367   1.1829   1.1879
     1.1891   2.1174   2.1182   2.2018   2.2020   3.6946   3.9566   4.0790
     4.0854   4.1278   4.2504   4.3341   4.3576   4.3956   4.3976   4.4716

     the Fermi energy is     3.8724 ev

!    total energy              =   -2941.49085015 Ry
     estimated scf accuracy    <       0.00000007 Ry
     smearing contrib. (-TS)   =      -0.04234644 Ry
     internal energy E=F+TS    =   -2941.44850370 Ry

     The total energy is F=E-TS. E is the sum of the following terms:
     one-electron contribution =  -23921.92616024 Ry
     hartree contribution      =   12054.14337822 Ry
     xc contribution           =    -486.85644988 Ry
     ewald contribution        =    9413.18721896 Ry
     electric field correction =       0.00350923 Ry

     convergence has been achieved in  88 iterations

     Forces acting on atoms (cartesian axes, Ry/au):

     atom    1 type  1   force =     0.00015768   -0.00016356    0.09402885
     atom    2 type  1   force =    -0.00004427   -0.00043095   -0.17753893
     atom    3 type  2   force =     0.00006320   -0.00004953   -0.02101385
     atom    4 type  2   force =     0.00002093   -0.00180484    0.05732689
     atom    5 type  2   force =    -0.01087542   -0.00090583    0.00782464
     atom    6 type  2   force =     0.01208896   -0.00033662    0.00622021
     atom    7 type  1   force =    -0.00065167    0.00288997   -0.01528544
     atom    8 type  1   force =     0.00059192    0.00236740    0.00237127
     atom    9 type  2   force =    -0.00010255    0.00013121    0.00091958
     atom   10 type  2   force =    -0.00165471   -0.00050356   -0.00379494
     atom   11 type  2   force =    -0.00003433   -0.00024352    0.00021117
     atom   12 type  2   force =    -0.00020315   -0.00040436    0.00027698
     atom   13 type  1   force =     0.00042623    0.00108449    0.00058347
     atom   14 type  1   force =     0.00020285   -0.00061836    0.00031846
     atom   15 type  2   force =    -0.00019776    0.00029723    0.00049524
     atom   16 type  2   force =    -0.00014801   -0.00026907   -0.00113293
     atom   17 type  2   force =     0.00007789   -0.00023955    0.00017664
     atom   18 type  2   force =    -0.00076456   -0.00031924    0.00008678
     atom   19 type  1   force =    -0.00077513    0.00077092   -0.00071105
     atom   20 type  1   force =    -0.00034547    0.00128452   -0.00104175
     atom   21 type  2   force =     0.00011147   -0.00004332    0.10375044
     atom   22 type  2   force =     0.00011062    0.00025061    0.00041982
     atom   23 type  2   force =    -0.07063051   -0.00018478   -0.02704452
     atom   24 type  2   force =     0.07057381    0.00029003   -0.02708160
     atom   25 type  1   force =     0.00014059   -0.00024648    0.09336590
     atom   26 type  1   force =    -0.00000511   -0.00036863   -0.17775477
     atom   27 type  2   force =     0.00010684   -0.00039642   -0.02003508
     atom   28 type  2   force =     0.00003799   -0.00146664    0.05681363
     atom   29 type  2   force =    -0.01077143   -0.00066058    0.00673784
     atom   30 type  2   force =     0.01189032   -0.00016695    0.00509611
     atom   31 type  1   force =    -0.00062745    0.00410705   -0.01559273
     atom   32 type  1   force =     0.00067239   -0.00281779    0.00215343
     atom   33 type  2   force =     0.00015661   -0.00021868   -0.00059580
     atom   34 type  2   force =    -0.00109218    0.00272850   -0.00200529
     atom   35 type  2   force =     0.00010322    0.00020688    0.00009947
     atom   36 type  2   force =    -0.00034648    0.00034486   -0.00006465
     atom   37 type  1   force =     0.00046784   -0.00007890    0.00028292
     atom   38 type  1   force =     0.00008768    0.00089508    0.00010362
     atom   39 type  2   force =    -0.00005710   -0.00094481    0.00040255
     atom   40 type  2   force =    -0.00022624   -0.00041726    0.00068883
     atom   41 type  2   force =    -0.00038444   -0.00031416    0.00042364
     atom   42 type  2   force =     0.00016009   -0.00000919    0.00027590
     atom   43 type  1   force =    -0.00020211   -0.00117208    0.00080208
     atom   44 type  1   force =    -0.00001890   -0.00085009   -0.00113323
     atom   45 type  2   force =     0.00009802   -0.00007947    0.10373106
     atom   46 type  2   force =    -0.07065378   -0.00008995   -0.02705555
     atom   47 type  2   force =     0.07060465    0.00029230   -0.02709233
     atom   48 type  3   force =    -0.00126797   -0.00020442   -0.00030371
     atom   49 type  4   force =     0.00013364   -0.00050554    0.00114152
     atom   50 type  5   force =     0.00079885    0.00004629   -0.00100849
     atom   51 type  5   force =    -0.00019174    0.00059050   -0.00018871
     atom   52 type  3   force =    -0.00497319    0.00118859   -0.00245496
     atom   53 type  5   force =    -0.00002989   -0.00160886   -0.00113267
     atom   54 type  5   force =     0.00606120   -0.00081753    0.00377564
     atom   55 type  5   force =     0.00133005    0.00018508    0.00015841

     Total force =     0.365795     Total SCF correction =     0.000662
  @ DRIVER MODE: Message from server: STATUS
  @ DRIVER MODE: Message from server: GETFORCE
  @ DRIVER MODE: Returning v,forces,stress,ensemble

     Writing output data file ./calc.save/
  @ DRIVER MODE: Message from server: EXIT
  @ DRIVE MODE: Exiting

     General routines

     Parallel routines

   This run was terminated on:   9: 4:36  24Aug2021

   JOB DONE.