     Program PWSCF v.6.7GPU starts on 30Sep2021 at 22: 0:20

     R & G space division:  proc/nbgrp/npool/nimage =       8
     Reading input from /storage/home/hcoda1/3/ntian30/research/carbon/CxH_vib/pristine/ads_slab/CH2N2_h/out_0027/pw.inp
Warning: card &CELL ignored
Warning: card   CELL_DYNAMICS='IPI', ignored
Warning: card / ignored

     Current dimensions of program PWSCF are:
     Max number of different atomic species (ntypx) = 10
     Max number of k-points (npk) =  40000
     Max angular momentum in pseudopotentials (lmaxx) =  3
     Presently no symmetry can be used with electric field

     Message from routine cell_base_init:
     DEPRECATED: use true lattice parameter, not A to a.u. conversion factor

     IMPORTANT: XC functional enforced from input :
     Exchange-correlation= BEEF-VDW
                           (   1   4  43  14   2   0   0)
     Any further DFT definition will be discarded
     Please, verify this is what you really want

  @ DRIVER MODE: Connecting to
 qe_1139763_3035237.sched-torque.pace.gatech.edumnimnz9c_scratch
  using UNIX socket
  @ DRIVER MODE: Message from server: STATUS
  @ DRIVER MODE: Message from server: INIT
  @ DRIVER MODE: Receiving replica           0          -1
  @ DRIVER MODE: Receiving encoded integer          25
  @ DRIVER MODE:  SCF:  T  FORCE:  T  STRESS:  F  VC:  F  ENSEMBLE:  F
  @ DRIVER MODE:  SCF:  T  FORCE:  T  STRESS:  F  VC:  F  ENSEMBLE:  F

     Using Slab Decomposition

     bravais-lattice index     =            0
     lattice parameter (alat)  =       1.8897  a.u.
     unit-cell volume          =    6658.9804 (a.u.)^3
     number of atoms/cell      =           53
     number of atomic types    =            5
     number of electrons       =       400.00
     number of Kohn-Sham states=          210
     kinetic-energy cutoff     =      29.3995  Ry
     charge density cutoff     =     293.9946  Ry
     scf convergence threshold =      7.3E-08
     mixing beta               =       0.0500
     number of iterations used =            8  plain     mixing
     Exchange-correlation= BEEF-VDW
                           (   1   4  43  14   2   0   0)

     celldm(1)=   1.889726  celldm(2)=   0.000000  celldm(3)=   0.000000
     celldm(4)=   0.000000  celldm(5)=   0.000000  celldm(6)=   0.000000

     crystal axes: (cart. coord. in units of alat)
               a(1) = (   6.579727   0.000000   0.000000 )
               a(2) = (  -0.000775   5.961596   0.000000 )
               a(3) = (   0.000000   0.000000  25.155947 )

     reciprocal axes: (cart. coord. in units 2 pi/alat)
               b(1) = (  0.151982  0.000020  0.000000 )
               b(2) = (  0.000000  0.167740  0.000000 )
               b(3) = (  0.000000  0.000000  0.039752 )

     PseudoPot. # 1 for Ti read from file:
     /storage/coda1/p-amedford6/0/shared/rich_project_chbe-medford/medford-share/data/pseudos_module/espresso/nninc/pbe/van/Ti.UPF
     MD5 check sum: 8e4df49b7f0d34bbd5052bf3f5ea0213
     Pseudo is Ultrasoft, Zval = 12.0
     Generated by new atomic code, or converted to UPF format
     Using radial grid of  851 points,  6 beta functions with:
                l(1) =   0
                l(2) =   0
                l(3) =   1
                l(4) =   1
                l(5) =   2
                l(6) =   2
     Q(r) pseudized with  8 coefficients,  rinner =    1.000   1.000   1.000
                                                       1.000   1.000

     PseudoPot. # 2 for O  read from file:
     /storage/coda1/p-amedford6/0/shared/rich_project_chbe-medford/medford-share/data/pseudos_module/espresso/nninc/pbe/van/O.UPF
     MD5 check sum: 78c19812648e8988a0fe644b0f25305e
     Pseudo is Ultrasoft, Zval =  6.0
     Generated by new atomic code, or converted to UPF format
     Using radial grid of  737 points,  4 beta functions with:
                l(1) =   0
                l(2) =   0
                l(3) =   1
                l(4) =   1
     Q(r) pseudized with  8 coefficients,  rinner =    0.800   0.800   0.800

     PseudoPot. # 3 for N  read from file:
     /storage/coda1/p-amedford6/0/shared/rich_project_chbe-medford/medford-share/data/pseudos_module/espresso/nninc/pbe/van/N.UPF
     MD5 check sum: 90d10febe142ad51ac9d5be1deb811c4
     Pseudo is Ultrasoft, Zval =  5.0
     Generated by new atomic code, or converted to UPF format
     Using radial grid of  729 points,  4 beta functions with:
                l(1) =   0
                l(2) =   0
                l(3) =   1
                l(4) =   1
     Q(r) pseudized with  8 coefficients,  rinner =    0.800   0.800   0.800

     PseudoPot. # 4 for C  read from file:
     /storage/coda1/p-amedford6/0/shared/rich_project_chbe-medford/medford-share/data/pseudos_module/espresso/nninc/pbe/van/C.UPF
     MD5 check sum: 1a69bf6b8db32088f5b2163dbdb77a27
     Pseudo is Ultrasoft, Zval =  4.0
     Generated by new atomic code, or converted to UPF format
     Using radial grid of  721 points,  4 beta functions with:
                l(1) =   0
                l(2) =   0
                l(3) =   1
                l(4) =   1
     Q(r) pseudized with  8 coefficients,  rinner =    0.800   0.800   0.800

     PseudoPot. # 5 for H  read from file:
     /storage/coda1/p-amedford6/0/shared/rich_project_chbe-medford/medford-share/data/pseudos_module/espresso/nninc/pbe/van/H.UPF
     MD5 check sum: b5ee9d7bfd3a09ee7748110bda690ff7
     Pseudo is Ultrasoft, Zval =  1.0
     Generated by new atomic code, or converted to UPF format
     Using radial grid of  615 points,  1 beta functions with:
                l(1) =   0
     Q(r) pseudized with  8 coefficients,  rinner =    0.800

     atomic species   valence    mass     pseudopotential
        Ti1           12.00    47.86700     Ti( 1.00)
        O1             6.00    15.99900     O ( 1.00)
        N1             5.00    14.00700     N ( 1.00)
        C1             4.00    12.01100     C ( 1.00)
        H1             1.00     1.00800     H ( 1.00)

     No symmetry found

   Cartesian axes

     site n.     atom                  positions (alat units)
         1           Ti1 tau(   1) = (   0.0004258   2.9801865   6.0000000  )
         2           Ti1 tau(   2) = (   3.2906075   1.4906267   6.0002472  )
         3           O1  tau(   3) = (   0.0006271   0.0005054   7.9858123  )
         4           O1  tau(   4) = (   3.2906025   0.0005020   7.3038282  )
         5           O1  tau(   5) = (   4.5942328   1.4918067   9.2879030  )
         6           O1  tau(   6) = (   1.9868534   1.4903216   9.2879459  )
         7           Ti1 tau(   7) = (   3.2940346   2.8698074   9.1684565  )
         8           Ti1 tau(   8) = (   0.0030225   1.4329613   9.3767462  )
         9           O1  tau(   9) = (   3.2994152   5.9581457  11.3549906  )
        10           O1  tau(  10) = (   6.5730281   5.9481945  10.5612412  )
        11           O1  tau(  11) = (   1.2782729   1.4799297  12.6138410  )
        12           O1  tau(  12) = (   5.2754995   1.4800591  12.6632238  )
        13           Ti1 tau(  13) = (   0.0766946   2.9556037  12.8068061  )
        14           Ti1 tau(  14) = (   3.3903493   1.4788161  12.4952579  )
        15           O1  tau(  15) = (   0.0876507   5.9454885  14.6519752  )
        16           O1  tau(  16) = (   3.2436869   5.9606251  13.9358461  )
        17           O1  tau(  17) = (   4.5879952   1.4894255  15.9985222  )
        18           O1  tau(  18) = (   2.0927145   1.4923104  16.0778241  )
        19           Ti1 tau(  19) = (   3.3818532   2.9747944  15.7863222  )
        20           Ti1 tau(  20) = (   0.1331232   1.5076923  16.1442520  )
        21           O1  tau(  21) = (   3.2904802   0.0005063   4.7018136  )
        22           O1  tau(  22) = (   6.5571263   5.9613239  17.2084283  )
        23           O1  tau(  23) = (   1.3043587   1.4918075   6.0039043  )
        24           O1  tau(  24) = (   5.2767064   1.4903225   6.0039473  )
        25           Ti1 tau(  25) = (   0.0000382   5.9609847   6.0000000  )
        26           Ti1 tau(  26) = (   3.2902200   4.4714249   6.0002472  )
        27           O1  tau(  27) = (   0.0002396   2.9813036   7.9858123  )
        28           O1  tau(  28) = (   3.2902150   2.9813002   7.3038282  )
        29           O1  tau(  29) = (   4.5938453   4.4726049   9.2879030  )
        30           O1  tau(  30) = (   1.9864658   4.4711199   9.2879459  )
        31           Ti1 tau(  31) = (   3.2881238   5.8488574   9.1742270  )
        32           Ti1 tau(  32) = (   0.0015652   4.4122313   9.3797820  )
        33           O1  tau(  33) = (   3.3067820   2.9727102  11.3461643  )
        34           O1  tau(  34) = (   6.5709248   2.9657579  10.5611975  )
        35           O1  tau(  35) = (   1.2701395   4.4574477  12.6080355  )
        36           O1  tau(  36) = (   5.2774107   4.4662555  12.6593532  )
        37           Ti1 tau(  37) = (   0.0866433   5.9395267  12.8007823  )
        38           Ti1 tau(  38) = (   3.3983582   4.4424157  12.5219168  )
        39           O1  tau(  39) = (   0.0671811   2.9517497  14.6463865  )
        40           O1  tau(  40) = (   3.2450650   3.0047677  13.9292835  )
        41           O1  tau(  41) = (   4.5850435   4.4841338  15.8299482  )
        42           O1  tau(  42) = (   2.0023688   4.4342503  16.0865826  )
        43           Ti1 tau(  43) = (   3.3875004   0.1080243  15.7411054  )
        44           Ti1 tau(  44) = (   6.4704293   4.4893485  16.1236300  )
        45           O1  tau(  45) = (   3.2900926   2.9813045   4.7018136  )
        46           O1  tau(  46) = (   6.5000697   2.9773305  17.2009514  )
        47           O1  tau(  47) = (   1.3039711   4.4726057   6.0039043  )
        48           O1  tau(  48) = (   5.2763189   4.4711207   6.0039473  )
        49           N1  tau(  49) = (   3.1734193   5.1894584  17.8228359  )
        50           N1  tau(  50) = (   2.5368264   4.0434087  17.4457212  )
        51           C1  tau(  51) = (   3.6285828   5.3156434  19.0144592  )
        52           H1  tau(  52) = (   3.4938138   4.5389551  19.7603617  )
        53           H1  tau(  53) = (   4.1761532   0.2457294  19.2464809  )

     number of k points=    10  Fermi-Dirac smearing, width (Ry)=  0.0073
                       cart. coord. in units 2pi/alat
        k(    1) = (   0.0000000   0.0000000   0.0000000), wk =   0.1250000
        k(    2) = (   0.0000000   0.0419351   0.0000000), wk =   0.2500000
        k(    3) = (   0.0000000  -0.0838702   0.0000000), wk =   0.1250000
        k(    4) = (   0.0379955   0.0000049   0.0000000), wk =   0.2500000
        k(    5) = (   0.0379955   0.0419400   0.0000000), wk =   0.2500000
        k(    6) = (   0.0379955  -0.0838652   0.0000000), wk =   0.2500000
        k(    7) = (   0.0379955  -0.0419301   0.0000000), wk =   0.2500000
        k(    8) = (  -0.0759910  -0.0000099   0.0000000), wk =   0.1250000
        k(    9) = (  -0.0759910   0.0419252   0.0000000), wk =   0.2500000
        k(   10) = (  -0.0759910  -0.0838800   0.0000000), wk =   0.1250000

     Initial potential from superposition of free atoms

     starting charge  383.99917, renormalised to  400.00000

     negative rho (up, down):  1.732E-02 0.000E+00

     %%%%%%%%%%%%%%%%%%%%%%%%%%%%%%%%%%%%%%%%%%%%%%%%%%%%%%%%%%%%%%%%%%%%%%%%
     %                                                                      %
     % You are using vdW-DF, which was implemented by the Thonhauser group. %
     % Please cite the following two papers that made this development      %
     % possible and the two reviews that describe the various versions:     %
     %                                                                      %
     %   T. Thonhauser et al., PRL 115, 136402 (2015).                      %
     %   T. Thonhauser et al., PRB 76, 125112 (2007).                       %
     %   K. Berland et al., Rep. Prog. Phys. 78, 066501 (2015).             %
     %   D.C. Langreth et al., J. Phys.: Condens. Matter 21, 084203 (2009). %
     %                                                                      %
     %                                                                      %
     % If you are calculating the stress with vdW-DF, please also cite:     %
     %                                                                      %
     %   R. Sabatini et al., J. Phys.: Condens. Matter 24, 424209 (2012).   %
     %                                                                      %
     %%%%%%%%%%%%%%%%%%%%%%%%%%%%%%%%%%%%%%%%%%%%%%%%%%%%%%%%%%%%%%%%%%%%%%%%

     Adding external electric field

     Computed dipole along edir(3) :
        Dipole               -9.1452 Ry au,        -23.2449 Debye
        Dipole field         -0.0173 Ry au,

        Potential amp.        1.5998 Ry
        Total length         46.3494 bohr

     Starting wfcs are  302 atomic wfcs
  @ DRIVER MODE: Message from server: STATUS
  @ DRIVER MODE: Message from server: POSDATA
  @ DRIVER MODE: Reading and sharing cell
  @ DRIVER MODE: Reading and sharing positions
  @ DRIVER MODE: Received positions

     Self-consistent Calculation

     iteration #  1     ecut=    29.40 Ry     beta= 0.05
     Davidson diagonalization with overlap
     c_bands:  1 eigenvalues not converged
     c_bands:  1 eigenvalues not converged
     c_bands:  2 eigenvalues not converged
     c_bands:  2 eigenvalues not converged
     c_bands:  1 eigenvalues not converged
     c_bands:  2 eigenvalues not converged
     c_bands:  1 eigenvalues not converged
     c_bands:  2 eigenvalues not converged
     ethr =  1.00E-05,  avg # of iterations = 20.0

[...]

     total energy              =   -2546.86057750 Ry
     estimated scf accuracy    <    4698.51663794 Ry

     iteration #  2     ecut=    29.40 Ry     beta= 0.05
     Davidson diagonalization with overlap
     ethr =  1.00E-02,  avg # of iterations = 22.8

[...]

     iteration # 40     ecut=    29.40 Ry     beta= 0.05
     Davidson diagonalization with overlap
     c_bands:  1 eigenvalues not converged
     c_bands:  1 eigenvalues not converged
     ethr =  2.86E-07,  avg # of iterations = 10.3

[...]

     total energy              =   -2970.21527676 Ry
     estimated scf accuracy    <       0.00000009 Ry

     iteration # 62     ecut=    29.40 Ry     beta= 0.05
     Davidson diagonalization with overlap
     ethr =  2.17E-11,  avg # of iterations =  5.1

     negative rho (up, down):  1.738E-02 0.000E+00

     Adding external electric field

     Computed dipole along edir(3) :
        Dipole                0.6248 Ry au,          1.5882 Debye
        Dipole field          0.0012 Ry au,

        Potential amp.       -0.1093 Ry
        Total length         46.3494 bohr

     End of self-consistent calculation

          k = 0.0000 0.0000 0.0000 ( 18029 PWs)   bands (ev):

   -56.1816 -56.1481 -55.8547 -55.7949 -55.7564 -55.7311 -55.5843 -55.5568
   -55.5487 -55.5227 -55.4853 -55.4690 -55.4500 -55.4107 -54.9475 -54.9135
   -32.6083 -32.4302 -32.4026 -32.4023 -32.3726 -32.3197 -32.2815 -32.2352
   -32.1555 -32.1230 -32.0860 -32.0523 -32.0455 -32.0184 -32.0143 -31.9901
   -31.9734 -31.9604 -31.9555 -31.9531 -31.9188 -31.9082 -31.8323 -31.8215
   -31.8119 -31.7952 -31.7665 -31.7650 -31.7524 -31.7509 -31.7359 -31.7292
   -31.7141 -31.7066 -31.6940 -31.6714 -31.6627 -31.6575 -31.6424 -31.6221
   -31.5891 -31.5240 -31.3469 -31.2753 -31.2514 -31.1649 -31.0799 -30.9682
   -19.5594 -16.7334 -16.4708 -16.3456 -16.2343 -15.9716 -15.8534 -15.8243
   -15.6553 -15.5439 -15.5223 -15.5075 -15.4716 -15.4231 -15.3799 -15.3233
   -15.3057 -15.2658 -15.2327 -15.2042 -15.1838 -15.1616 -15.1384 -15.0814
   -15.0770 -14.9400 -14.8216 -14.8072 -14.7909 -14.7128 -14.7054 -13.4420
   -13.3288 -11.7765  -7.3221  -5.5344  -5.0190  -4.4954  -3.9219  -3.8305
    -3.7280  -3.6640  -3.5468  -3.3188  -3.2640  -3.1798  -3.0072  -2.9808
    -2.9020  -2.8697  -2.8389  -2.8153  -2.7585  -2.7139  -2.6808  -2.6512
    -2.6155  -2.5900  -2.5747  -2.5417  -2.4963  -2.4313  -2.4025  -2.3625
    -2.3247  -2.2568  -2.1770  -2.1356  -2.1214  -2.0916  -2.0527  -1.9975
    -1.9715  -1.9626  -1.8840  -1.8644  -1.7443  -1.7177  -1.6182  -1.6122
    -1.5160  -1.4611  -1.4348  -1.3865  -1.2303  -1.1849  -1.1413  -1.1114
    -1.0953  -1.0132  -0.9904  -0.9583  -0.7928  -0.7746  -0.7401  -0.7170
    -0.6725  -0.6311  -0.5908  -0.5623  -0.5109  -0.4521  -0.3802  -0.3334
    -0.2214  -0.1696  -0.0987  -0.0744  -0.0577  -0.0176   0.0378   0.0470
     0.0779   0.0786   0.1124   0.1594   0.1727   0.2393   0.2531   0.3253
     0.3535   0.3836   0.4604   0.5934   0.6373   0.6815   0.7802   0.7932
     0.9389   1.0379   1.0793   1.2960   1.3011   1.6632   1.7352   1.8602
     3.0914   3.2723   3.3299   3.5755   3.5982   3.6739   3.7092   3.8400
     3.9054   3.9601

[...]

          k = 0.0380-0.0419 0.0000 ( 17876 PWs)   bands (ev):

[...]

          k =-0.0760-0.0000 0.0000 ( 17886 PWs)   bands (ev):

[...]

          k =-0.0760-0.0839 0.0000 ( 17948 PWs)   bands (ev):

   -56.1653 -56.1642 -55.8520 -55.7831 -55.7680 -55.7337 -55.5704 -55.5625
   -55.5408 -55.5384 -55.4697 -55.4656 -55.4628 -55.4168 -54.9306 -54.9303
   -32.4262 -32.4254 -32.4165 -32.4150 -32.3259 -32.3248 -32.2808 -32.1395
   -32.1378 -32.1102 -32.0973 -32.0846 -32.0424 -32.0236 -32.0029 -31.9949
   -31.9785 -31.9201 -31.8857 -31.8785 -31.8700 -31.8662 -31.8109 -31.8094
   -31.7986 -31.7897 -31.7884 -31.7837 -31.7819 -31.7772 -31.7742 -31.7689
   -31.7515 -31.7487 -31.7295 -31.7252 -31.6849 -31.6818 -31.6741 -31.6692
   -31.6656 -31.6344 -31.2644 -31.2642 -31.1611 -31.1608 -31.1226 -31.1224
   -19.5310 -16.7031 -16.0223 -15.9415 -15.8881 -15.8139 -15.7931 -15.6853
   -15.6731 -15.6467 -15.6454 -15.5388 -15.5284 -15.5171 -15.4848 -15.3503
   -15.3425 -15.3082 -15.2991 -15.2445 -15.2337 -15.1261 -15.1233 -15.1151
   -15.1146 -15.0232 -15.0188 -14.9599 -14.9552 -14.8702 -14.8686 -13.4316
   -13.4310 -11.7758  -7.3155  -5.5270  -4.9345  -4.1346  -3.2516  -3.1576
    -3.0833  -3.0408  -2.9904  -2.9158  -2.8873  -2.8579  -2.7920  -2.7790
    -2.7613  -2.7530  -2.6724  -2.6655  -2.6377  -2.6263  -2.5952  -2.5834
    -2.5517  -2.5467  -2.5438  -2.5083  -2.4955  -2.4944  -2.4807  -2.4710
    -2.4008  -2.3976  -2.3683  -2.3553  -2.3283  -2.0920  -2.0625  -2.0601
    -1.9829  -1.9336  -1.8771  -1.8750  -1.8633  -1.8458  -1.6644  -1.5966
    -1.5630  -1.5394  -1.5091  -1.4809  -1.4498  -1.3352  -1.2970  -1.2257
    -1.2213  -1.1529  -1.0881  -1.0399  -1.0218  -0.9627  -0.9584  -0.9405
    -0.9206  -0.8921  -0.8691  -0.7994  -0.7731  -0.7108  -0.6471  -0.6333
    -0.5286  -0.4806  -0.4678  -0.4546  -0.4367  -0.4072  -0.2964  -0.2899
    -0.0689  -0.0131   0.0577   0.1179   0.1262   0.1782   0.2033   0.3026
     0.3429   0.5064   0.5140   0.5498   0.5866   0.7091   0.7120   0.7434
     0.7566   0.8290   0.8358   1.4661   1.4681   1.5171   1.5177   1.7780
     3.6009   3.6347   3.6385   3.6524   3.6882   3.6924   3.7342   3.7592
     3.9714   4.0160

     the Fermi energy is     2.5482 ev

!    total energy              =   -2970.21531099 Ry
     estimated scf accuracy    <       0.00000007 Ry
     smearing contrib. (-TS)   =      -0.00022244 Ry
     internal energy E=F+TS    =   -2970.21508855 Ry

     The total energy is F=E-TS. E is the sum of the following terms:
     one-electron contribution =  -24504.62277644 Ry
     hartree contribution      =   12342.85844074 Ry
     xc contribution           =    -491.70573309 Ry
     ewald contribution        =    9683.25424344 Ry
     electric field correction =       0.00073679 Ry

     convergence has been achieved in  62 iterations

     Forces acting on atoms (cartesian axes, Ry/au):

     atom    1 type  1   force =     0.00007355   -0.00005330    0.14750253
     atom    2 type  1   force =    -0.00008140   -0.00169414   -0.16798959
     atom    3 type  2   force =    -0.00002797    0.00211970   -0.05939384
     atom    4 type  2   force =    -0.00002254   -0.00154954    0.04197898
     atom    5 type  2   force =    -0.02137785    0.00022682    0.00301287
     atom    6 type  2   force =     0.02079583    0.00096623    0.00408309
     atom    7 type  1   force =    -0.00000451   -0.00126719    0.00045124
     atom    8 type  1   force =     0.00008932   -0.00084297   -0.00050222
     atom    9 type  2   force =     0.00001442   -0.00051683   -0.00025192
     atom   10 type  2   force =     0.00011524   -0.00020458    0.00035017
     atom   11 type  2   force =    -0.00080444   -0.00064381   -0.00052684
     atom   12 type  2   force =    -0.00007400   -0.00027851   -0.00077934
     atom   13 type  1   force =     0.00030408    0.00041811   -0.00050795
     atom   14 type  1   force =    -0.00072000   -0.00046828    0.00020844
     atom   15 type  2   force =    -0.00048292    0.00031543   -0.00104314
     atom   16 type  2   force =     0.00033295    0.00045982   -0.00080290
     atom   17 type  2   force =     0.00016846    0.00014653   -0.00001279
     atom   18 type  2   force =    -0.00073223   -0.00010248   -0.00002019
     atom   19 type  1   force =     0.00119112   -0.00012568   -0.00112755
     atom   20 type  1   force =    -0.00050242   -0.00044257    0.00007484
     atom   21 type  2   force =     0.00004783   -0.00007504    0.10180512
     atom   22 type  2   force =     0.00042059    0.00066639    0.00065632
     atom   23 type  2   force =    -0.07553432    0.00023852   -0.03470864
     atom   24 type  2   force =     0.07550166    0.00069594   -0.03477022
     atom   25 type  1   force =     0.00006503   -0.00020313    0.14780430
     atom   26 type  1   force =    -0.00002253    0.00033825   -0.16802255
     atom   27 type  2   force =     0.00003386    0.00240419   -0.05906407
     atom   28 type  2   force =     0.00011477   -0.00132520    0.04062848
     atom   29 type  2   force =    -0.02165800    0.00009481    0.00330276
     atom   30 type  2   force =     0.02040275    0.00022635    0.00436028
     atom   31 type  1   force =     0.00003304    0.00074136    0.00049270
     atom   32 type  1   force =    -0.00015800    0.00037588   -0.00038646
     atom   33 type  2   force =    -0.00004912    0.00040032   -0.00033720
     atom   34 type  2   force =     0.00021191    0.00004979   -0.00003379
     atom   35 type  2   force =     0.00010608    0.00080148    0.00034546
     atom   36 type  2   force =    -0.00059333   -0.00005213   -0.00047008
     atom   37 type  1   force =     0.00028095   -0.00056844    0.00051438
     atom   38 type  1   force =    -0.00056271   -0.00049678    0.00010301
     atom   39 type  2   force =     0.00023150   -0.00038950    0.00091419
     atom   40 type  2   force =     0.00021541    0.00004426    0.00012199
     atom   41 type  2   force =     0.00047176   -0.00060260   -0.00009765
     atom   42 type  2   force =     0.00070305    0.00003013    0.00142717
     atom   43 type  1   force =     0.00159639   -0.00044755   -0.00063315
     atom   44 type  1   force =     0.00029153    0.00056118   -0.00028379
     atom   45 type  2   force =     0.00004484   -0.00007891    0.10187864
     atom   46 type  2   force =     0.00009532   -0.00056616   -0.00002181
     atom   47 type  2   force =    -0.07555554    0.00003381   -0.03469337
     atom   48 type  2   force =     0.07550607    0.00045559   -0.03479892
     atom   49 type  3   force =    -0.00134390   -0.00049719   -0.00068770
     atom   50 type  3   force =     0.00024691    0.00136717    0.00011324
     atom   51 type  4   force =    -0.00491310   -0.00987869   -0.00290678
     atom   52 type  5   force =     0.00013776   -0.00080241   -0.00015219
     atom   53 type  5   force =     0.00537682    0.00999552    0.00289647

     Total force =     0.401273     Total SCF correction =     0.000651
  @ DRIVER MODE: Message from server: STATUS
  @ DRIVER MODE: Message from server: GETFORCE
  @ DRIVER MODE: Returning v,forces,stress,ensemble

     Writing output data file ./calc.save/
  @ DRIVER MODE: Message from server: EXIT
  @ DRIVE MODE: Exiting

     General routines

     Parallel routines

   This run was terminated on:  22:20:42  30Sep2021

   JOB DONE.