     Program PWSCF v.6.7GPU starts on 26Sep2021 at 12:21: 9

     R & G space division:  proc/nbgrp/npool/nimage =       8
     Reading input from /storage/home/hcoda1/3/ntian30/research/carbon/CxH_vib/H2O_calc/ads_slab/CH3ON2H2O_a/out_0043/pw.inp
Warning: card &CELL ignored
Warning: card   CELL_DYNAMICS='IPI', ignored
Warning: card / ignored

     Current dimensions of program PWSCF are:
     Max number of different atomic species (ntypx) = 10
     Max number of k-points (npk) =  40000
     Max angular momentum in pseudopotentials (lmaxx) =  3
     Presently no symmetry can be used with electric field

     Message from routine cell_base_init:
     DEPRECATED: use true lattice parameter, not A to a.u. conversion factor

     IMPORTANT: XC functional enforced from input :
     Exchange-correlation= BEEF-VDW
                           (   1   4  43  14   2   0   0)
     Any further DFT definition will be discarded
     Please, verify this is what you really want

  @ DRIVER MODE: Connecting to
 qe_1139763_2971672.sched-torque.pace.gatech.eduo07vnmik_scratch
  using UNIX socket
  @ DRIVER MODE: Message from server: STATUS
  @ DRIVER MODE: Message from server: INIT
  @ DRIVER MODE: Receiving replica           0          -1
  @ DRIVER MODE: Receiving encoded integer          25
  @ DRIVER MODE:  SCF:  T  FORCE:  T  STRESS:  F  VC:  F  ENSEMBLE:  F
  @ DRIVER MODE:  SCF:  T  FORCE:  T  STRESS:  F  VC:  F  ENSEMBLE:  F

     Using Slab Decomposition

     bravais-lattice index     =            0
     lattice parameter (alat)  =       1.8897  a.u.
     unit-cell volume          =    6658.9804 (a.u.)^3
     number of atoms/cell      =           57
     number of atomic types    =            5
     number of electrons       =       409.00
     number of Kohn-Sham states=          214
     kinetic-energy cutoff     =      29.3995  Ry
     charge density cutoff     =     293.9946  Ry
     scf convergence threshold =      7.3E-08
     mixing beta               =       0.0500
     number of iterations used =            8  plain     mixing
     Exchange-correlation= BEEF-VDW
                           (   1   4  43  14   2   0   0)

     celldm(1)=   1.889726  celldm(2)=   0.000000  celldm(3)=   0.000000
     celldm(4)=   0.000000  celldm(5)=   0.000000  celldm(6)=   0.000000

     crystal axes: (cart. coord. in units of alat)
               a(1) = (   6.579727   0.000000   0.000000 )
               a(2) = (  -0.000775   5.961596   0.000000 )
               a(3) = (   0.000000   0.000000  25.155947 )

     reciprocal axes: (cart. coord. in units 2 pi/alat)
               b(1) = (  0.151982  0.000020  0.000000 )
               b(2) = (  0.000000  0.167740  0.000000 )
               b(3) = (  0.000000  0.000000  0.039752 )

     PseudoPot. # 1 for Ti read from file:
     /storage/coda1/p-amedford6/0/shared/rich_project_chbe-medford/medford-share/data/pseudos_module/espresso/nninc/pbe/van/Ti.UPF
     MD5 check sum: 8e4df49b7f0d34bbd5052bf3f5ea0213
     Pseudo is Ultrasoft, Zval = 12.0
     Generated by new atomic code, or converted to UPF format
     Using radial grid of  851 points,  6 beta functions with:
                l(1) =   0
                l(2) =   0
                l(3) =   1
                l(4) =   1
                l(5) =   2
                l(6) =   2
     Q(r) pseudized with  8 coefficients,  rinner =    1.000   1.000   1.000
                                                       1.000   1.000

     PseudoPot. # 2 for O  read from file:
     /storage/coda1/p-amedford6/0/shared/rich_project_chbe-medford/medford-share/data/pseudos_module/espresso/nninc/pbe/van/O.UPF
     MD5 check sum: 78c19812648e8988a0fe644b0f25305e
     Pseudo is Ultrasoft, Zval =  6.0
     Generated by new atomic code, or converted to UPF format
     Using radial grid of  737 points,  4 beta functions with:
                l(1) =   0
                l(2) =   0
                l(3) =   1
                l(4) =   1
     Q(r) pseudized with  8 coefficients,  rinner =    0.800   0.800   0.800

     PseudoPot. # 3 for C  read from file:
     /storage/coda1/p-amedford6/0/shared/rich_project_chbe-medford/medford-share/data/pseudos_module/espresso/nninc/pbe/van/C.UPF
     MD5 check sum: 1a69bf6b8db32088f5b2163dbdb77a27
     Pseudo is Ultrasoft, Zval =  4.0
     Generated by new atomic code, or converted to UPF format
     Using radial grid of  721 points,  4 beta functions with:
                l(1) =   0
                l(2) =   0
                l(3) =   1
                l(4) =   1
     Q(r) pseudized with  8 coefficients,  rinner =    0.800   0.800   0.800

     PseudoPot. # 4 for H  read from file:
     /storage/coda1/p-amedford6/0/shared/rich_project_chbe-medford/medford-share/data/pseudos_module/espresso/nninc/pbe/van/H.UPF
     MD5 check sum: b5ee9d7bfd3a09ee7748110bda690ff7
     Pseudo is Ultrasoft, Zval =  1.0
     Generated by new atomic code, or converted to UPF format
     Using radial grid of  615 points,  1 beta functions with:
                l(1) =   0
     Q(r) pseudized with  8 coefficients,  rinner =    0.800

     PseudoPot. # 5 for N  read from file:
     /storage/coda1/p-amedford6/0/shared/rich_project_chbe-medford/medford-share/data/pseudos_module/espresso/nninc/pbe/van/N.UPF
     MD5 check sum: 90d10febe142ad51ac9d5be1deb811c4
     Pseudo is Ultrasoft, Zval =  5.0
     Generated by new atomic code, or converted to UPF format
     Using radial grid of  729 points,  4 beta functions with:
                l(1) =   0
                l(2) =   0
                l(3) =   1
                l(4) =   1
     Q(r) pseudized with  8 coefficients,  rinner =    0.800   0.800   0.800

     atomic species   valence    mass     pseudopotential
        Ti1           12.00    47.86700     Ti( 1.00)
        O1             6.00    15.99900     O ( 1.00)
        C1             4.00    12.01100     C ( 1.00)
        H1             1.00     1.00800     H ( 1.00)
        N1             5.00    14.00700     N ( 1.00)

     No symmetry found

   Cartesian axes

     site n.     atom                  positions (alat units)
         1           Ti1 tau(   1) = (   0.0004258   2.9801865   6.0000000  )
         2           Ti1 tau(   2) = (   3.2906075   1.4906267   6.0002472  )
         3           O1  tau(   3) = (   0.0006271   0.0005054   7.9858123  )
         4           O1  tau(   4) = (   3.2906025   0.0005020   7.3038282  )
         5           O1  tau(   5) = (   4.5942328   1.4918067   9.2879030  )
         6           O1  tau(   6) = (   1.9868534   1.4903216   9.2879459  )
         7           Ti1 tau(   7) = (   3.3113259   3.0354369   9.1618307  )
         8           Ti1 tau(   8) = (   0.0141821   1.6139659   9.3625064  )
         9           O1  tau(   9) = (   3.2964399   0.0287090  11.3517035  )
        10           O1  tau(  10) = (   0.0046459   0.0167322  10.6079620  )
        11           O1  tau(  11) = (   1.2916403   1.5142126  12.6509924  )
        12           O1  tau(  12) = (   5.2954765   1.5212855  12.6445515  )
        13           Ti1 tau(  13) = (   0.0303381   3.0181167  12.7741416  )
        14           Ti1 tau(  14) = (   3.3376880   1.5190318  12.5019279  )
        15           O1  tau(  15) = (   6.5702980   0.0162101  14.7136675  )
        16           O1  tau(  16) = (   3.3118210   0.0215951  13.9605728  )
        17           O1  tau(  17) = (   4.5586303   1.5408398  16.0643691  )
        18           O1  tau(  18) = (   2.0376984   1.5397913  16.0346728  )
        19           Ti1 tau(  19) = (   3.2806018   3.0126274  15.6982083  )
        20           Ti1 tau(  20) = (   0.0204579   1.3876160  16.0921805  )
        21           O1  tau(  21) = (   3.2904802   0.0005063   4.7018136  )
        22           O1  tau(  22) = (   0.0362274   0.0182013  17.2505027  )
        23           O1  tau(  23) = (   1.3043587   1.4918075   6.0039043  )
        24           O1  tau(  24) = (   5.2767064   1.4903225   6.0039473  )
        25           Ti1 tau(  25) = (   0.0000382   5.9609847   6.0000000  )
        26           Ti1 tau(  26) = (   3.2902200   4.4714249   6.0002472  )
        27           O1  tau(  27) = (   0.0002396   2.9813036   7.9858123  )
        28           O1  tau(  28) = (   3.2902150   2.9813002   7.3038282  )
        29           O1  tau(  29) = (   4.5938453   4.4726049   9.2879030  )
        30           O1  tau(  30) = (   1.9864658   4.4711199   9.2879459  )
        31           Ti1 tau(  31) = (   3.2918133   0.0584897   9.1554610  )
        32           Ti1 tau(  32) = (   0.0176696   4.5429683   9.2683582  )
        33           O1  tau(  33) = (   3.2944385   3.0046939  11.3531965  )
        34           O1  tau(  34) = (   0.0071923   2.9964285  10.5824339  )
        35           O1  tau(  35) = (   1.2923070   4.5060354  12.6395470  )
        36           O1  tau(  36) = (   5.2930342   4.4972821  12.6335129  )
        37           Ti1 tau(  37) = (   0.0360028   0.0369787  12.5252624  )
        38           Ti1 tau(  38) = (   3.3378333   4.5109478  12.5016189  )
        39           O1  tau(  39) = (   0.0182598   3.0415135  14.6926035  )
        40           O1  tau(  40) = (   3.2973286   3.0139918  13.9115332  )
        41           O1  tau(  41) = (   4.5518717   4.4752506  16.0920674  )
        42           O1  tau(  42) = (   2.0385343   4.4722040  16.0556704  )
        43           Ti1 tau(  43) = (   3.3273276   0.0437280  15.7880462  )
        44           Ti1 tau(  44) = (   0.0148993   4.5306414  15.9319406  )
        45           O1  tau(  45) = (   3.2900926   2.9813045   4.7018136  )
        46           O1  tau(  46) = (   1.3039711   4.4726057   6.0039043  )
        47           O1  tau(  47) = (   5.2763189   4.4711207   6.0039473  )
        48           C1  tau(  48) = (   6.0619278   3.0088867  18.6555636  )
        49           O1  tau(  49) = (   6.5788924   2.9994598  17.3400993  )
        50           H1  tau(  50) = (   4.9713474   2.8828304  18.6515055  )
        51           H1  tau(  51) = (   6.4909130   2.1836263  19.2313859  )
        52           H1  tau(  52) = (   6.3070107   3.9563896  19.1453893  )
        53           N1  tau(  53) = (   5.9950546   3.0301018  22.7159517  )
        54           N1  tau(  54) = (   5.2276613   3.1827328  21.9368001  )
        55           O1  tau(  55) = (   3.1718816   0.0591848  18.2205797  )
        56           H1  tau(  56) = (   3.8437189   5.3938241  18.5518935  )
        57           H1  tau(  57) = (   2.3086839   5.6188137  18.3735615  )

     number of k points=    10  Fermi-Dirac smearing, width (Ry)=  0.0073
                       cart. coord. in units 2pi/alat
        k(    1) = (   0.0000000   0.0000000   0.0000000), wk =   0.1250000
        k(    2) = (   0.0000000   0.0419351   0.0000000), wk =   0.2500000
        k(    3) = (   0.0000000  -0.0838702   0.0000000), wk =   0.1250000
        k(    4) = (   0.0379955   0.0000049   0.0000000), wk =   0.2500000
        k(    5) = (   0.0379955   0.0419400   0.0000000), wk =   0.2500000
        k(    6) = (   0.0379955  -0.0838652   0.0000000), wk =   0.2500000
        k(    7) = (   0.0379955  -0.0419301   0.0000000), wk =   0.2500000
        k(    8) = (  -0.0759910  -0.0000099   0.0000000), wk =   0.1250000
        k(    9) = (  -0.0759910   0.0419252   0.0000000), wk =   0.2500000
        k(   10) = (  -0.0759910  -0.0838800   0.0000000), wk =   0.1250000

     Initial potential from superposition of free atoms

     starting charge  392.99914, renormalised to  409.00000

     negative rho (up, down):  9.746E-03 0.000E+00

     %%%%%%%%%%%%%%%%%%%%%%%%%%%%%%%%%%%%%%%%%%%%%%%%%%%%%%%%%%%%%%%%%%%%%%%%
     %                                                                      %
     % You are using vdW-DF, which was implemented by the Thonhauser group. %
     % Please cite the following two papers that made this development      %
     % possible and the two reviews that describe the various versions:     %
     %                                                                      %
     %   T. Thonhauser et al., PRL 115, 136402 (2015).                      %
     %   T. Thonhauser et al., PRB 76, 125112 (2007).                       %
     %   K. Berland et al., Rep. Prog. Phys. 78, 066501 (2015).             %
     %   D.C. Langreth et al., J. Phys.: Condens. Matter 21, 084203 (2009). %
     %                                                                      %
     %                                                                      %
     % If you are calculating the stress with vdW-DF, please also cite:     %
     %                                                                      %
     %   R. Sabatini et al., J. Phys.: Condens. Matter 24, 424209 (2012).   %
     %                                                                      %
     %%%%%%%%%%%%%%%%%%%%%%%%%%%%%%%%%%%%%%%%%%%%%%%%%%%%%%%%%%%%%%%%%%%%%%%%

     Adding external electric field

     Computed dipole along edir(3) :
        Dipole              -18.5715 Ry au,        -47.2041 Debye
        Dipole field         -0.0350 Ry au,

        Potential amp.        3.2488 Ry
        Total length         46.3494 bohr

     Starting wfcs are  309 atomic wfcs
  @ DRIVER MODE: Message from server: STATUS
  @ DRIVER MODE: Message from server: POSDATA
  @ DRIVER MODE: Reading and sharing cell
  @ DRIVER MODE: Reading and sharing positions
  @ DRIVER MODE: Received positions

     Self-consistent Calculation

     iteration #  1     ecut=    29.40 Ry     beta= 0.05
     Davidson diagonalization with overlap
     c_bands:  3 eigenvalues not converged
     c_bands:  2 eigenvalues not converged
     c_bands:  2 eigenvalues not converged
     c_bands:  5 eigenvalues not converged
     c_bands:  5 eigenvalues not converged
     c_bands:  5 eigenvalues not converged
     c_bands:  1 eigenvalues not converged
     c_bands:  3 eigenvalues not converged
     ethr =  1.00E-05,  avg # of iterations = 28.5

[...]

     total energy              =   -2113.10352798 Ry
     estimated scf accuracy    <   10297.60409451 Ry

     iteration #  2     ecut=    29.40 Ry     beta= 0.05
     Davidson diagonalization with overlap
     ethr =  1.00E-02,  avg # of iterations = 30.7

[...]

     iteration # 78     ecut=    29.40 Ry     beta= 0.05
     Davidson diagonalization with overlap
     c_bands:  1 eigenvalues not converged
     c_bands:  1 eigenvalues not converged
     ethr =  8.62E-11,  avg # of iterations = 17.4

[...]

     total energy              =   -3006.52108781 Ry
     estimated scf accuracy    <       0.00000009 Ry

     iteration # 82     ecut=    29.40 Ry     beta= 0.05
     Davidson diagonalization with overlap
     ethr =  2.20E-11,  avg # of iterations =  9.7

     negative rho (up, down):  1.093E-02 0.000E+00

     Adding external electric field

     Computed dipole along edir(3) :
        Dipole                0.9965 Ry au,          2.5328 Debye
        Dipole field          0.0019 Ry au,

        Potential amp.       -0.1743 Ry
        Total length         46.3494 bohr

     End of self-consistent calculation

          k = 0.0000 0.0000 0.0000 ( 18029 PWs)   bands (ev):

   -55.2856 -55.2513 -55.2496 -55.2150 -55.1925 -55.1770 -55.1691 -55.1335
   -55.0829 -55.0644 -55.0495 -55.0411 -55.0072 -54.9532 -54.2922 -54.2582
   -31.8084 -31.7547 -31.6783 -31.6461 -31.6248 -31.5775 -31.5601 -31.5569
   -31.5204 -31.5153 -31.4788 -31.4654 -31.4588 -31.4498 -31.4454 -31.4327
   -31.4266 -31.3904 -31.3852 -31.3770 -31.3731 -31.3545 -31.3503 -31.3414
   -31.3336 -31.3274 -31.3118 -31.2901 -31.2798 -31.2745 -31.2710 -31.2641
   -31.2605 -31.2453 -31.2326 -31.2225 -31.2204 -31.1857 -31.1706 -31.1503
   -31.1379 -31.1366 -30.7015 -30.6057 -30.5833 -30.5181 -30.4321 -30.3210
   -21.4252 -18.7443 -17.1989 -16.0006 -15.7300 -15.5699 -15.4387 -15.4036
   -15.2166 -15.0948 -14.9623 -14.9380 -14.8842 -14.8570 -14.8226 -14.8118
   -14.8068 -14.7947 -14.7871 -14.7400 -14.7055 -14.6878 -14.6874 -14.6642
   -14.6154 -14.5620 -14.4971 -14.4320 -14.4031 -14.3616 -14.2924 -14.2844
   -12.7931 -12.6752  -9.1243  -6.6021  -6.5456  -4.5632  -4.5524  -3.9174
    -3.7672  -3.4724  -3.3642  -3.2859  -3.2122  -3.1899  -3.1684  -3.0928
    -2.9795  -2.8459  -2.7497  -2.5113  -2.4561  -2.4131  -2.3816  -2.3525
    -2.1959  -2.1710  -2.1022  -2.0916  -2.0823  -2.0716  -2.0447  -2.0157
    -1.9900  -1.9583  -1.9003  -1.8742  -1.8044  -1.6736  -1.6651  -1.6330
    -1.5865  -1.5703  -1.5689  -1.5420  -1.4978  -1.4790  -1.4547  -1.4492
    -1.3523  -1.2600  -1.2171  -1.1229  -1.0432  -0.9701  -0.8482  -0.8093
    -0.7357  -0.7027  -0.6863  -0.6328  -0.5835  -0.5730  -0.5146  -0.4678
    -0.3601  -0.3176  -0.2755  -0.2391  -0.1874  -0.1434  -0.0722  -0.0391
    -0.0064  -0.0019   0.0190   0.2174   0.2286   0.2800   0.2929   0.3899
     0.4425   0.4766   0.4902   0.4995   0.5373   0.6129   0.6686   0.6771
     0.7089   0.7445   0.7640   0.8101   0.8508   0.9032   0.9329   0.9676
     1.0342   1.0746   1.2285   1.3232   1.3674   1.4832   1.6404   1.7317
     1.8052   1.9057   2.3185   2.3758   3.8959   3.9298   3.9567   3.9747
     4.0430   4.1420   4.2585   4.3497   4.3588   4.3893

[...]

          k = 0.0380-0.0419 0.0000 ( 17876 PWs)   bands (ev):

[...]

          k =-0.0760-0.0000 0.0000 ( 17886 PWs)   bands (ev):

[...]

          k =-0.0760-0.0839 0.0000 ( 17948 PWs)   bands (ev):

   -55.2735 -55.2616 -55.2354 -55.2307 -55.1894 -55.1748 -55.1584 -55.1443
   -55.0856 -55.0614 -55.0517 -55.0265 -55.0220 -54.9558 -54.2757 -54.2746
   -31.6202 -31.6037 -31.5777 -31.5761 -31.5655 -31.5641 -31.5467 -31.5142
   -31.5073 -31.4902 -31.4871 -31.4765 -31.4415 -31.4311 -31.4106 -31.4064
   -31.4013 -31.3993 -31.3980 -31.3917 -31.3889 -31.3855 -31.3740 -31.3656
   -31.3593 -31.3508 -31.3498 -31.3483 -31.3427 -31.3173 -31.2912 -31.2786
   -31.2756 -31.2749 -31.2716 -31.2629 -31.2546 -31.2418 -31.2322 -31.2228
   -31.1811 -31.1474 -30.5966 -30.5954 -30.5149 -30.5141 -30.4756 -30.4747
   -21.4250 -18.7433 -17.1684 -15.4686 -15.3596 -15.2305 -15.1659 -15.1431
   -15.1165 -15.0636 -15.0472 -14.9917 -14.9875 -14.9370 -14.9307 -14.8878
   -14.8811 -14.8269 -14.7988 -14.7896 -14.7607 -14.7279 -14.7120 -14.7110
   -14.6710 -14.6496 -14.6409 -14.6104 -14.6032 -14.5410 -14.5039 -14.4708
   -12.7775 -12.7756  -9.1262  -6.6029  -6.5390  -4.5637  -4.5597  -3.8271
    -3.7260  -3.4985  -3.2725  -2.9996  -2.7541  -2.5710  -2.4800  -2.4112
    -2.3581  -2.3400  -2.2306  -2.2060  -2.1762  -2.1414  -2.1188  -2.1081
    -2.0907  -2.0815  -2.0746  -2.0568  -2.0234  -2.0036  -1.9779  -1.9524
    -1.9376  -1.9141  -1.8964  -1.8890  -1.8642  -1.8364  -1.8297  -1.8268
    -1.7644  -1.7243  -1.5660  -1.5210  -1.4998  -1.4097  -1.3903  -1.3737
    -1.3482  -1.3341  -1.3175  -1.1987  -1.1477  -1.1198  -1.0113  -0.9932
    -0.9672  -0.8293  -0.8052  -0.7724  -0.7443  -0.7023  -0.6331  -0.6094
    -0.5537  -0.5403  -0.4395  -0.4026  -0.3783  -0.3637  -0.2678  -0.2462
    -0.2405  -0.2150  -0.1516  -0.1202  -0.0745  -0.0447  -0.0139   0.0106
     0.0566   0.0764   0.1702   0.1908   0.2268   0.2697   0.3637   0.5302
     0.6234   0.7336   0.7593   0.8061   0.8667   0.9088   0.9591   1.0126
     1.0604   1.0671   1.1297   1.1669   1.2518   1.2657   1.2690   1.3373
     2.0930   2.0933   2.1812   2.1902   4.1370   4.1454   4.2024   4.2221
     4.3616   4.3678   4.3812   4.3890   4.4839   4.5463

     the Fermi energy is     3.8657 ev

!    total energy              =   -3006.52109650 Ry
     estimated scf accuracy    <       0.00000005 Ry
     smearing contrib. (-TS)   =      -0.02294494 Ry
     internal energy E=F+TS    =   -3006.49815156 Ry

     The total energy is F=E-TS. E is the sum of the following terms:
     one-electron contribution =  -22563.12051922 Ry
     hartree contribution      =   11380.90063383 Ry
     xc contribution           =    -501.14790896 Ry
     ewald contribution        =    8676.86776892 Ry
     electric field correction =       0.00187388 Ry

     convergence has been achieved in  82 iterations

     Forces acting on atoms (cartesian axes, Ry/au):

     atom    1 type  1   force =    -0.00014688   -0.00167534    0.10539575
     atom    2 type  1   force =    -0.00022259    0.00114117   -0.17917340
     atom    3 type  2   force =     0.00020528   -0.00552976   -0.03232747
     atom    4 type  2   force =     0.00010353    0.00072131    0.04630276
     atom    5 type  2   force =    -0.01805027    0.00052856    0.00423235
     atom    6 type  2   force =     0.01844888   -0.00044354    0.00410167
     atom    7 type  1   force =     0.00007566    0.00018923    0.00002739
     atom    8 type  1   force =     0.00007317    0.00029321   -0.00014442
     atom    9 type  2   force =     0.00017784    0.00035133   -0.00006613
     atom   10 type  2   force =     0.00017202    0.00000121    0.00004138
     atom   11 type  2   force =     0.00005386   -0.00035753   -0.00037309
     atom   12 type  2   force =    -0.00006824   -0.00053146   -0.00051205
     atom   13 type  1   force =     0.00048764    0.00024753    0.00007017
     atom   14 type  1   force =    -0.00026897   -0.00047636   -0.00043171
     atom   15 type  2   force =     0.00003596   -0.00054565    0.00031686
     atom   16 type  2   force =    -0.00008787    0.00030514   -0.00019796
     atom   17 type  2   force =    -0.00046739   -0.00074163    0.00025190
     atom   18 type  2   force =    -0.00000297   -0.00036163    0.00000097
     atom   19 type  1   force =     0.00022905   -0.00029117   -0.00010353
     atom   20 type  1   force =     0.00000693   -0.00079397   -0.00084272
     atom   21 type  2   force =    -0.00003348    0.00010118    0.10395472
     atom   22 type  2   force =    -0.00016145   -0.00051968    0.00049454
     atom   23 type  2   force =    -0.06943164    0.00052842   -0.02946918
     atom   24 type  2   force =     0.06918697    0.00098419   -0.02952245
     atom   25 type  1   force =    -0.00002282    0.00155976    0.11480276
     atom   26 type  1   force =    -0.00022422   -0.00047892   -0.17917744
     atom   27 type  2   force =     0.00021664    0.00414752   -0.02604274
     atom   28 type  2   force =     0.00042870    0.00092997    0.04808529
     atom   29 type  2   force =    -0.01632762    0.00162789    0.00384615
     atom   30 type  2   force =     0.01738221    0.00217850    0.00361284
     atom   31 type  1   force =    -0.00014146    0.00010103   -0.00026273
     atom   32 type  1   force =     0.00011075   -0.00008967    0.00022671
     atom   33 type  2   force =     0.00028917   -0.00051213    0.00020396
     atom   34 type  2   force =    -0.00004313   -0.00030663   -0.00026691
     atom   35 type  2   force =    -0.00045879   -0.00012735    0.00001971
     atom   36 type  2   force =     0.00053417    0.00002830    0.00001202
     atom   37 type  1   force =     0.00047058   -0.00073183   -0.00004081
     atom   38 type  1   force =    -0.00038023   -0.00002310   -0.00037189
     atom   39 type  2   force =    -0.00044851   -0.00048840   -0.00047967
     atom   40 type  2   force =     0.00037345   -0.00040773   -0.00025573
     atom   41 type  2   force =    -0.00022913    0.00010999    0.00025933
     atom   42 type  2   force =    -0.00034841   -0.00034319   -0.00010615
     atom   43 type  1   force =    -0.00009970    0.00013605    0.00133159
     atom   44 type  1   force =     0.00016716   -0.00032010   -0.00079060
     atom   45 type  2   force =    -0.00003703    0.00007715    0.10400089
     atom   46 type  2   force =    -0.06903280   -0.00107650   -0.02952335
     atom   47 type  2   force =     0.06884745   -0.00063248   -0.02960350
     atom   48 type  3   force =    -0.00020581    0.00000709    0.00029028
     atom   49 type  2   force =    -0.00001218    0.00026701   -0.00082382
     atom   50 type  4   force =    -0.00045340   -0.00005188    0.00003026
     atom   51 type  4   force =     0.00030526   -0.00027129    0.00015305
     atom   52 type  4   force =    -0.00003988    0.00036441   -0.00042300
     atom   53 type  5   force =    -0.00108079   -0.00017854   -0.00111086
     atom   54 type  5   force =     0.00052088    0.00038017    0.00080510
     atom   55 type  2   force =     0.02641077   -0.00074389    0.00183578
     atom   56 type  4   force =    -0.01104238    0.00844528   -0.00489831
     atom   57 type  4   force =    -0.01574394   -0.00670122    0.00263550

     Total force =     0.376163     Total SCF correction =     0.000487
  @ DRIVER MODE: Message from server: STATUS
  @ DRIVER MODE: Message from server: GETFORCE
  @ DRIVER MODE: Returning v,forces,stress,ensemble

     Writing output data file ./calc.save/
  @ DRIVER MODE: Message from server: EXIT
  @ DRIVE MODE: Exiting

     General routines

     Parallel routines

   This run was terminated on:  12:52:40  26Sep2021

   JOB DONE.