     Program PWSCF v.6.7GPU starts on  9Sep2021 at  0:23:56

     R & G space division:  proc/nbgrp/npool/nimage =      10
     Reading input from /storage/home/hcoda1/3/ntian30/research/carbon/CxH_vib/CH_calc/ads_slab/CH_a/out_0010/pw.inp
Warning: card &CELL ignored
Warning: card   CELL_DYNAMICS='IPI', ignored
Warning: card / ignored

     Current dimensions of program PWSCF are:
     Max number of different atomic species (ntypx) = 10
     Max number of k-points (npk) =  40000
     Max angular momentum in pseudopotentials (lmaxx) =  3
     Presently no symmetry can be used with electric field

     Message from routine cell_base_init:
     DEPRECATED: use true lattice parameter, not A to a.u. conversion factor

     IMPORTANT: XC functional enforced from input :
     Exchange-correlation= BEEF-VDW
                           (   1   4  43  14   2   0   0)
     Any further DFT definition will be discarded
     Please, verify this is what you really want

  @ DRIVER MODE: Connecting to
 qe_1139763_2767381.sched-torque.pace.gatech.edudqattihw_scratch
  using UNIX socket
  @ DRIVER MODE: Message from server: STATUS
  @ DRIVER MODE: Message from server: INIT
  @ DRIVER MODE: Receiving replica           0          -1
  @ DRIVER MODE: Receiving encoded integer          25
  @ DRIVER MODE:  SCF:  T  FORCE:  T  STRESS:  F  VC:  F  ENSEMBLE:  F
  @ DRIVER MODE:  SCF:  T  FORCE:  T  STRESS:  F  VC:  F  ENSEMBLE:  F

     Using Slab Decomposition

     bravais-lattice index     =            0
     lattice parameter (alat)  =       1.8897  a.u.
     unit-cell volume          =    6658.9804 (a.u.)^3
     number of atoms/cell      =           49
     number of atomic types    =            4
     number of electrons       =       383.00
     number of Kohn-Sham states=          201
     kinetic-energy cutoff     =      29.3995  Ry
     charge density cutoff     =     293.9946  Ry
     scf convergence threshold =      7.3E-08
     mixing beta               =       0.0500
     number of iterations used =            8  plain     mixing
     Exchange-correlation= BEEF-VDW
                           (   1   4  43  14   2   0   0)

     celldm(1)=   1.889726  celldm(2)=   0.000000  celldm(3)=   0.000000
     celldm(4)=   0.000000  celldm(5)=   0.000000  celldm(6)=   0.000000

     crystal axes: (cart. coord. in units of alat)
               a(1) = (   6.579727   0.000000   0.000000 )
               a(2) = (  -0.000775   5.961596   0.000000 )
               a(3) = (   0.000000   0.000000  25.155947 )

     reciprocal axes: (cart. coord. in units 2 pi/alat)
               b(1) = (  0.151982  0.000020  0.000000 )
               b(2) = (  0.000000  0.167740  0.000000 )
               b(3) = (  0.000000  0.000000  0.039752 )

     PseudoPot. # 1 for Ti read from file:
     /storage/coda1/p-amedford6/0/shared/rich_project_chbe-medford/medford-share/data/pseudos_module/espresso/nninc/pbe/van/Ti.UPF
     MD5 check sum: 8e4df49b7f0d34bbd5052bf3f5ea0213
     Pseudo is Ultrasoft, Zval = 12.0
     Generated by new atomic code, or converted to UPF format
     Using radial grid of  851 points,  6 beta functions with:
                l(1) =   0
                l(2) =   0
                l(3) =   1
                l(4) =   1
                l(5) =   2
                l(6) =   2
     Q(r) pseudized with  8 coefficients,  rinner =    1.000   1.000   1.000
                                                       1.000   1.000

     PseudoPot. # 2 for O  read from file:
     /storage/coda1/p-amedford6/0/shared/rich_project_chbe-medford/medford-share/data/pseudos_module/espresso/nninc/pbe/van/O.UPF
     MD5 check sum: 78c19812648e8988a0fe644b0f25305e
     Pseudo is Ultrasoft, Zval =  6.0
     Generated by new atomic code, or converted to UPF format
     Using radial grid of  737 points,  4 beta functions with:
                l(1) =   0
                l(2) =   0
                l(3) =   1
                l(4) =   1
     Q(r) pseudized with  8 coefficients,  rinner =    0.800   0.800   0.800

     PseudoPot. # 3 for C  read from file:
     /storage/coda1/p-amedford6/0/shared/rich_project_chbe-medford/medford-share/data/pseudos_module/espresso/nninc/pbe/van/C.UPF
     MD5 check sum: 1a69bf6b8db32088f5b2163dbdb77a27
     Pseudo is Ultrasoft, Zval =  4.0
     Generated by new atomic code, or converted to UPF format
     Using radial grid of  721 points,  4 beta functions with:
                l(1) =   0
                l(2) =   0
                l(3) =   1
                l(4) =   1
     Q(r) pseudized with  8 coefficients,  rinner =    0.800   0.800   0.800

     PseudoPot. # 4 for H  read from file:
     /storage/coda1/p-amedford6/0/shared/rich_project_chbe-medford/medford-share/data/pseudos_module/espresso/nninc/pbe/van/H.UPF
     MD5 check sum: b5ee9d7bfd3a09ee7748110bda690ff7
     Pseudo is Ultrasoft, Zval =  1.0
     Generated by new atomic code, or converted to UPF format
     Using radial grid of  615 points,  1 beta functions with:
                l(1) =   0
     Q(r) pseudized with  8 coefficients,  rinner =    0.800

     atomic species   valence    mass     pseudopotential
        Ti1           12.00    47.86700     Ti( 1.00)
        O1             6.00    15.99900     O ( 1.00)
        C1             4.00    12.01100     C ( 1.00)
        H1             1.00     1.00800     H ( 1.00)

     No symmetry found

   Cartesian axes

     site n.     atom                  positions (alat units)
         1           Ti1 tau(   1) = (   0.0004258   2.9801865   6.0000000  )
         2           Ti1 tau(   2) = (   3.2906075   1.4906267   6.0002472  )
         3           O1  tau(   3) = (   0.0006271   0.0005054   7.9858123  )
         4           O1  tau(   4) = (   3.2906025   0.0005020   7.3038282  )
         5           O1  tau(   5) = (   4.5942328   1.4918067   9.2879030  )
         6           O1  tau(   6) = (   1.9868534   1.4903216   9.2879459  )
         7           Ti1 tau(   7) = (   3.2921849   2.8658251   9.1648892  )
         8           Ti1 tau(   8) = (   0.0073351   1.4983988   9.3831490  )
         9           O1  tau(   9) = (   3.2842540   0.0070318  11.3521760  )
        10           O1  tau(  10) = (   0.0010487   0.0043113  10.5580200  )
        11           O1  tau(  11) = (   1.2736759   1.5124129  12.6486185  )
        12           O1  tau(  12) = (   5.2630300   1.5084811  12.6300625  )
        13           Ti1 tau(  13) = (   0.0799159   2.9885021  12.8537609  )
        14           Ti1 tau(  14) = (   3.3962166   1.4899997  12.4930974  )
        15           O1  tau(  15) = (   6.5670857   5.9608082  14.6055349  )
        16           O1  tau(  16) = (   3.2779887   0.0262294  13.9455360  )
        17           O1  tau(  17) = (   4.5047259   1.5524619  16.1062024  )
        18           O1  tau(  18) = (   2.0328015   1.5482461  16.0993997  )
        19           Ti1 tau(  19) = (   3.2588990   3.0258902  15.7259251  )
        20           Ti1 tau(  20) = (   6.5443225   1.5921241  16.1654916  )
        21           O1  tau(  21) = (   3.2904802   0.0005063   4.7018136  )
        22           O1  tau(  22) = (   6.5577444   0.0567680  17.2452940  )
        23           O1  tau(  23) = (   1.3043587   1.4918075   6.0039043  )
        24           O1  tau(  24) = (   5.2767064   1.4903225   6.0039473  )
        25           Ti1 tau(  25) = (   0.0000382   5.9609847   6.0000000  )
        26           Ti1 tau(  26) = (   3.2902200   4.4714249   6.0002472  )
        27           O1  tau(  27) = (   0.0002396   2.9813036   7.9858123  )
        28           O1  tau(  28) = (   3.2902150   2.9813002   7.3038282  )
        29           O1  tau(  29) = (   4.5938453   4.4726049   9.2879030  )
        30           O1  tau(  30) = (   1.9864658   4.4711199   9.2879459  )
        31           Ti1 tau(  31) = (   3.2960881   5.8478476   9.1648656  )
        32           Ti1 tau(  32) = (   0.0086818   4.4758218   9.3788328  )
        33           O1  tau(  33) = (   3.2854246   2.9850844  11.3450670  )
        34           O1  tau(  34) = (   0.0004502   2.9836692  10.5560002  )
        35           O1  tau(  35) = (   1.2751814   4.4662498  12.6462591  )
        36           O1  tau(  36) = (   5.2612828   4.4711168  12.6263095  )
        37           Ti1 tau(  37) = (   0.0650160   0.0072273  12.8037121  )
        38           Ti1 tau(  38) = (   3.3952379   4.4681493  12.4860303  )
        39           O1  tau(  39) = (   6.5700874   2.9943110  14.6990684  )
        40           O1  tau(  40) = (   3.2774739   3.0059374  13.9302241  )
        41           O1  tau(  41) = (   4.5038310   4.5165569  16.1051355  )
        42           O1  tau(  42) = (   2.0336826   4.5180826  16.0999700  )
        43           Ti1 tau(  43) = (   3.2582433   0.0441072  15.7465997  )
        44           Ti1 tau(  44) = (   6.5393581   4.6163053  16.1595090  )
        45           O1  tau(  45) = (   3.2900926   2.9813045   4.7018136  )
        46           O1  tau(  46) = (   1.3039711   4.4726057   6.0039043  )
        47           O1  tau(  47) = (   5.2763189   4.4711207   6.0039473  )
        48           C1  tau(  48) = (   6.5669965   3.0274956  17.5143990  )
        49           H1  tau(  49) = (   0.0036594   3.1984539  18.5931066  )

     number of k points=    10  Fermi-Dirac smearing, width (Ry)=  0.0073
                       cart. coord. in units 2pi/alat
        k(    1) = (   0.0000000   0.0000000   0.0000000), wk =   0.1250000
        k(    2) = (   0.0000000   0.0419351   0.0000000), wk =   0.2500000
        k(    3) = (   0.0000000  -0.0838702   0.0000000), wk =   0.1250000
        k(    4) = (   0.0379955   0.0000049   0.0000000), wk =   0.2500000
        k(    5) = (   0.0379955   0.0419400   0.0000000), wk =   0.2500000
        k(    6) = (   0.0379955  -0.0838652   0.0000000), wk =   0.2500000
        k(    7) = (   0.0379955  -0.0419301   0.0000000), wk =   0.2500000
        k(    8) = (  -0.0759910  -0.0000099   0.0000000), wk =   0.1250000
        k(    9) = (  -0.0759910   0.0419252   0.0000000), wk =   0.2500000
        k(   10) = (  -0.0759910  -0.0838800   0.0000000), wk =   0.1250000

     Initial potential from superposition of free atoms

     starting charge  366.99920, renormalised to  383.00000

     negative rho (up, down):  2.156E-02 0.000E+00

     %%%%%%%%%%%%%%%%%%%%%%%%%%%%%%%%%%%%%%%%%%%%%%%%%%%%%%%%%%%%%%%%%%%%%%%%
     %                                                                      %
     % You are using vdW-DF, which was implemented by the Thonhauser group. %
     % Please cite the following two papers that made this development      %
     % possible and the two reviews that describe the various versions:     %
     %                                                                      %
     %   T. Thonhauser et al., PRL 115, 136402 (2015).                      %
     %   T. Thonhauser et al., PRB 76, 125112 (2007).                       %
     %   K. Berland et al., Rep. Prog. Phys. 78, 066501 (2015).             %
     %   D.C. Langreth et al., J. Phys.: Condens. Matter 21, 084203 (2009). %
     %                                                                      %
     %                                                                      %
     % If you are calculating the stress with vdW-DF, please also cite:     %
     %                                                                      %
     %   R. Sabatini et al., J. Phys.: Condens. Matter 24, 424209 (2012).   %
     %                                                                      %
     %%%%%%%%%%%%%%%%%%%%%%%%%%%%%%%%%%%%%%%%%%%%%%%%%%%%%%%%%%%%%%%%%%%%%%%%

     Adding external electric field

     Computed dipole along edir(3) :
        Dipole                0.0501 Ry au,          0.1273 Debye
        Dipole field          0.0001 Ry au,

        Potential amp.       -0.0088 Ry
        Total length         46.3494 bohr

     Starting wfcs are  289 atomic wfcs
  @ DRIVER MODE: Message from server: STATUS
  @ DRIVER MODE: Message from server: POSDATA
  @ DRIVER MODE: Reading and sharing cell
  @ DRIVER MODE: Reading and sharing positions
  @ DRIVER MODE: Received positions

     Self-consistent Calculation

     iteration #  1     ecut=    29.40 Ry     beta= 0.05
     Davidson diagonalization with overlap
     c_bands:  1 eigenvalues not converged
     c_bands:  1 eigenvalues not converged
     c_bands:  1 eigenvalues not converged
     c_bands:  1 eigenvalues not converged
     c_bands:  1 eigenvalues not converged
     c_bands:  1 eigenvalues not converged
     ethr =  1.00E-05,  avg # of iterations = 19.5

[...]

     total energy              =   -2897.80943997 Ry
     estimated scf accuracy    <      11.75190439 Ry

     iteration #  2     ecut=    29.40 Ry     beta= 0.05
     Davidson diagonalization with overlap
     ethr =  3.07E-03,  avg # of iterations =  1.0

[...]

     iteration # 42     ecut=    29.40 Ry     beta= 0.05
     Davidson diagonalization with overlap
     c_bands:  1 eigenvalues not converged
     c_bands:  1 eigenvalues not converged
     ethr =  2.10E-07,  avg # of iterations =  8.8

[...]

     total energy              =   -2896.37512509 Ry
     estimated scf accuracy    <       0.00000009 Ry

     iteration # 69     ecut=    29.40 Ry     beta= 0.05
     Davidson diagonalization with overlap
     ethr =  2.39E-11,  avg # of iterations =  7.1

     negative rho (up, down):  2.069E-02 0.000E+00

     Adding external electric field

     Computed dipole along edir(3) :
        Dipole                0.3680 Ry au,          0.9353 Debye
        Dipole field          0.0007 Ry au,

        Potential amp.       -0.0644 Ry
        Total length         46.3494 bohr

     End of self-consistent calculation

          k = 0.0000 0.0000 0.0000 ( 18029 PWs)   bands (ev):

   -56.6406 -56.6068 -56.3430 -56.3062 -56.2274 -56.1664 -56.0429 -56.0402
   -56.0059 -55.9454 -55.9363 -55.9091 -55.4380 -55.4040 -55.3526 -55.2694
   -33.0690 -32.8870 -32.8863 -32.8586 -32.8326 -32.7414 -32.6958 -32.6802
   -32.6498 -32.5576 -32.5450 -32.5378 -32.5234 -32.5200 -32.5129 -32.4961
   -32.4731 -32.4554 -32.4450 -32.3495 -32.3120 -32.2889 -32.2867 -32.2763
   -32.2625 -32.2594 -32.1974 -32.1940 -32.1683 -32.1622 -32.1546 -32.1305
   -32.1225 -32.1129 -32.0992 -32.0416 -31.8956 -31.8383 -31.7632 -31.7394
   -31.6568 -31.6247 -31.5871 -31.5718 -31.5621 -31.4848 -31.4597 -31.3426
   -16.9975 -16.8093 -16.5771 -16.4420 -16.3521 -16.2791 -16.0122 -16.0101
   -15.9639 -15.8916 -15.8637 -15.8010 -15.7978 -15.7716 -15.7607 -15.7510
   -15.7323 -15.6845 -15.6681 -15.6404 -15.6071 -15.5660 -15.4439 -15.4246
   -15.4081 -15.2939 -15.2443 -15.2061 -15.0222 -13.9307 -13.8167  -7.7728
    -4.4000  -4.3415  -4.1872  -4.1626  -4.0708  -3.8267  -3.6995  -3.4771
    -3.4359  -3.4052  -3.3903  -3.3241  -3.2650  -3.1577  -3.1414  -3.1192
    -3.0799  -3.0713  -3.0493  -3.0353  -3.0106  -2.9701  -2.8873  -2.8485
    -2.8293  -2.7499  -2.7227  -2.6453  -2.6190  -2.5748  -2.5495  -2.4903
    -2.4837  -2.4200  -2.3488  -2.2910  -2.1394  -2.0990  -2.0906  -2.0833
    -2.0130  -1.9040  -1.7626  -1.7282  -1.6618  -1.6602  -1.6424  -1.6057
    -1.5136  -1.4952  -1.4107  -1.3044  -1.2950  -1.2438  -1.1910  -1.1502
    -1.1334  -1.1329  -1.0758  -1.0452  -1.0070  -0.8782  -0.8526  -0.7338
    -0.7164  -0.6813  -0.6442  -0.6392  -0.5887  -0.5306  -0.4773  -0.4467
    -0.4251  -0.3783  -0.3677  -0.3328  -0.3100  -0.2554  -0.1405  -0.1167
    -0.1062  -0.0413   0.1437   0.1692   0.2123   0.3012   0.3497   0.5115
     0.5322   0.5908   0.7989   0.8356   1.1813   1.2614   1.5393   2.2802
     2.6271   2.8220   3.0825   3.1189   3.1361   3.1678   3.3425   3.3770
     3.3953

[...]

          k = 0.0380-0.0419 0.0000 ( 17876 PWs)   bands (ev):

[...]

          k =-0.0760-0.0000 0.0000 ( 17886 PWs)   bands (ev):

[...]

          k =-0.0760-0.0839 0.0000 ( 17948 PWs)   bands (ev):

   -56.6258 -56.6215 -56.3290 -56.3201 -56.2220 -56.1717 -56.0400 -56.0255
   -56.0204 -55.9391 -55.9317 -55.9228 -55.4209 -55.4209 -55.3488 -55.2731
   -32.8881 -32.8846 -32.8751 -32.8698 -32.7871 -32.7834 -32.6940 -32.6872
   -32.6052 -32.5944 -32.5372 -32.5271 -32.5251 -32.5170 -32.4915 -32.4644
   -32.4279 -32.3735 -32.3605 -32.3530 -32.3492 -32.2848 -32.2759 -32.2700
   -32.2676 -32.2591 -32.2519 -32.2434 -32.2316 -32.2261 -32.1840 -32.1754
   -32.1430 -32.1418 -32.1347 -32.1336 -31.7931 -31.7523 -31.7523 -31.6525
   -31.6524 -31.6353 -31.6230 -31.6145 -31.6144 -31.5654 -31.5048 -31.3831
   -16.4533 -16.4345 -16.2207 -16.2115 -16.1128 -16.1124 -16.1115 -16.1092
   -16.0089 -16.0062 -15.9341 -15.9198 -15.8638 -15.8560 -15.8208 -15.8189
   -15.7977 -15.7944 -15.7526 -15.7459 -15.6172 -15.6151 -15.5093 -15.5054
   -15.4664 -15.4261 -15.3862 -15.3759 -15.1585 -13.9191 -13.9187  -7.7751
    -3.7512  -3.7204  -3.4360  -3.4322  -3.2496  -3.2473  -3.2457  -3.2265
    -3.1826  -3.1527  -3.1430  -3.1173  -3.0858  -3.0435  -3.0327  -3.0129
    -3.0082  -3.0025  -2.9897  -2.9885  -2.9655  -2.9564  -2.9042  -2.8828
    -2.8723  -2.8627  -2.8135  -2.8121  -2.7087  -2.5862  -2.5381  -2.5340
    -2.4847  -2.4508  -2.3670  -2.3644  -2.3356  -2.3194  -2.2728  -2.1695
    -2.0377  -2.0352  -1.9888  -1.9596  -1.8929  -1.8182  -1.7162  -1.6500
    -1.6188  -1.5892  -1.5232  -1.4651  -1.4575  -1.4384  -1.4276  -1.4196
    -1.4056  -1.3094  -1.2972  -1.2258  -1.1886  -1.1785  -1.1682  -1.1363
    -1.1100  -1.0468  -0.9510  -0.9483  -0.9359  -0.9085  -0.8027  -0.7596
    -0.7024  -0.6514  -0.6053  -0.3579  -0.3554  -0.2014  -0.0925  -0.0301
     0.0346   0.0588   0.1015   0.1669   0.2287   0.2339   0.2609   0.2633
     0.3591   0.3616   0.9770   0.9774   1.0360   1.0371   1.7708   2.2230
     3.1074   3.1504   3.1680   3.1732   3.1983   3.2261   3.2445   3.2548
     3.5818

     the Fermi energy is     2.1453 ev

!    total energy              =   -2896.37514034 Ry
     estimated scf accuracy    <       0.00000001 Ry
     smearing contrib. (-TS)   =      -0.01052636 Ry
     internal energy E=F+TS    =   -2896.36461398 Ry

     The total energy is F=E-TS. E is the sum of the following terms:
     one-electron contribution =  -24783.61074592 Ry
     hartree contribution      =   12469.83420848 Ry
     xc contribution           =    -472.98014780 Ry
     ewald contribution        =    9890.39181576 Ry
     electric field correction =       0.00025551 Ry

     convergence has been achieved in  69 iterations

     Forces acting on atoms (cartesian axes, Ry/au):

     atom    1 type  1   force =     0.00018965   -0.00055678    0.14917887
     atom    2 type  1   force =    -0.00002448   -0.00030969   -0.17024421
     atom    3 type  2   force =     0.00005934    0.00011947   -0.06123838
     atom    4 type  2   force =     0.00010926   -0.00167372    0.04074328
     atom    5 type  2   force =    -0.02327764    0.00030946    0.00410631
     atom    6 type  2   force =     0.02299658    0.00151805    0.00331269
     atom    7 type  1   force =    -0.00054799    0.00074113    0.00017922
     atom    8 type  1   force =     0.00020582    0.00085004   -0.00020530
     atom    9 type  2   force =    -0.00006047    0.00009666   -0.00048914
     atom   10 type  2   force =    -0.00003056   -0.00050959    0.00033414
     atom   11 type  2   force =    -0.00023869    0.00045388    0.00028899
     atom   12 type  2   force =     0.00033872    0.00011122    0.00023787
     atom   13 type  1   force =     0.00032530    0.00064572   -0.00093696
     atom   14 type  1   force =    -0.00045375    0.00096964   -0.00029578
     atom   15 type  2   force =     0.00012735    0.00000152   -0.00011685
     atom   16 type  2   force =     0.00013564   -0.00026437   -0.00006995
     atom   17 type  2   force =     0.00074075    0.00016122    0.00008076
     atom   18 type  2   force =    -0.00066081    0.00025845    0.00005983
     atom   19 type  1   force =     0.00000692   -0.00108514    0.00058812
     atom   20 type  1   force =     0.00007774   -0.00018725    0.00112366
     atom   21 type  2   force =     0.00008102   -0.00018354    0.10248298
     atom   22 type  2   force =    -0.00005256    0.00024927   -0.00032687
     atom   23 type  2   force =    -0.07444443    0.00019548   -0.03478831
     atom   24 type  2   force =     0.07440173    0.00062454   -0.03483832
     atom   25 type  1   force =    -0.00004079   -0.00050991    0.15022239
     atom   26 type  1   force =    -0.00002076   -0.00070376   -0.17019160
     atom   27 type  2   force =     0.00007259    0.00063684   -0.06044733
     atom   28 type  2   force =     0.00002911   -0.00161927    0.04018724
     atom   29 type  2   force =    -0.02285479    0.00144477    0.00428156
     atom   30 type  2   force =     0.02312541    0.00224024    0.00348059
     atom   31 type  1   force =    -0.00054478    0.00012534   -0.00079269
     atom   32 type  1   force =     0.00023131   -0.00111272    0.00051478
     atom   33 type  2   force =     0.00025732   -0.00007971    0.00120415
     atom   34 type  2   force =    -0.00004340    0.00059031   -0.00024390
     atom   35 type  2   force =    -0.00097712   -0.00040743    0.00004183
     atom   36 type  2   force =     0.00100661   -0.00021971    0.00011167
     atom   37 type  1   force =    -0.00003822   -0.00007332   -0.00029250
     atom   38 type  1   force =    -0.00070159   -0.00076703    0.00032419
     atom   39 type  2   force =    -0.00004129   -0.00017555   -0.00023897
     atom   40 type  2   force =     0.00009606   -0.00015835   -0.00078092
     atom   41 type  2   force =     0.00072872   -0.00037016    0.00049851
     atom   42 type  2   force =    -0.00073395   -0.00045826    0.00052649
     atom   43 type  1   force =    -0.00001382    0.00084257   -0.00089704
     atom   44 type  1   force =     0.00016535   -0.00015875    0.00033410
     atom   45 type  2   force =     0.00007218   -0.00018423    0.10247808
     atom   46 type  2   force =    -0.07443338   -0.00013619   -0.03479475
     atom   47 type  2   force =     0.07438735    0.00030825   -0.03484722
     atom   48 type  3   force =     0.00003418   -0.00065035    0.00278410
     atom   49 type  4   force =     0.00023330   -0.00093929   -0.00262940

     Total force =     0.404592     Total SCF correction =     0.000202
  @ DRIVER MODE: Message from server: STATUS
  @ DRIVER MODE: Message from server: GETFORCE
  @ DRIVER MODE: Returning v,forces,stress,ensemble

     Writing output data file ./calc.save/
  @ DRIVER MODE: Message from server: EXIT
  @ DRIVE MODE: Exiting

     General routines

     Parallel routines

   This run was terminated on:   0:39:55   9Sep2021

   JOB DONE.