     Program PWSCF v.6.7GPU starts on 16Jul2021 at  4: 0:50

     R & G space division:  proc/nbgrp/npool/nimage =      16
     Reading input from /storage/home/hcoda1/3/ntian30/research/carbon/15Jul_vib/ads_slab/CH3NNH3_a/out_0022/pw.inp
Warning: card &CELL ignored
Warning: card   CELL_DYNAMICS='IPI', ignored
Warning: card / ignored

     Current dimensions of program PWSCF are:
     Max number of different atomic species (ntypx) = 10
     Max number of k-points (npk) =  40000
     Max angular momentum in pseudopotentials (lmaxx) =  3
     Presently no symmetry can be used with electric field

     Message from routine cell_base_init:
     DEPRECATED: use true lattice parameter, not A to a.u. conversion factor

     IMPORTANT: XC functional enforced from input :
     Exchange-correlation= BEEF-VDW
                           (   1   4  43  14   2   0   0)
     Any further DFT definition will be discarded
     Please, verify this is what you really want

  @ DRIVER MODE: Connecting to
 qe_1139763_2351650.sched-torque.pace.gatech.edu4wo8a807_scratch
  using UNIX socket
  @ DRIVER MODE: Message from server: STATUS
  @ DRIVER MODE: Message from server: INIT
  @ DRIVER MODE: Receiving replica           0          -1
  @ DRIVER MODE: Receiving encoded integer          25
  @ DRIVER MODE:  SCF:  T  FORCE:  T  STRESS:  F  VC:  F  ENSEMBLE:  F
  @ DRIVER MODE:  SCF:  T  FORCE:  T  STRESS:  F  VC:  F  ENSEMBLE:  F

     Using Slab Decomposition

     bravais-lattice index     =            0
     lattice parameter (alat)  =       1.8897  a.u.
     unit-cell volume          =    6658.9804 (a.u.)^3
     number of atoms/cell      =           56
     number of atomic types    =            5
     number of electrons       =       398.00
     number of Kohn-Sham states=          209
     kinetic-energy cutoff     =      29.3995  Ry
     charge density cutoff     =     293.9946  Ry
     scf convergence threshold =      7.3E-08
     mixing beta               =       0.0500
     number of iterations used =            8  plain     mixing
     Exchange-correlation= BEEF-VDW
                           (   1   4  43  14   2   0   0)

     celldm(1)=   1.889726  celldm(2)=   0.000000  celldm(3)=   0.000000
     celldm(4)=   0.000000  celldm(5)=   0.000000  celldm(6)=   0.000000

     crystal axes: (cart. coord. in units of alat)
               a(1) = (   6.579727   0.000000   0.000000 )
               a(2) = (  -0.000775   5.961596   0.000000 )
               a(3) = (   0.000000   0.000000  25.155947 )

     reciprocal axes: (cart. coord. in units 2 pi/alat)
               b(1) = (  0.151982  0.000020  0.000000 )
               b(2) = (  0.000000  0.167740  0.000000 )
               b(3) = (  0.000000  0.000000  0.039752 )

     PseudoPot. # 1 for Ti read from file:
     /storage/coda1/p-amedford6/0/shared/rich_project_chbe-medford/medford-share/data/pseudos_module/espresso/nninc/pbe/van/Ti.UPF
     MD5 check sum: 8e4df49b7f0d34bbd5052bf3f5ea0213
     Pseudo is Ultrasoft, Zval = 12.0
     Generated by new atomic code, or converted to UPF format
     Using radial grid of  851 points,  6 beta functions with:
                l(1) =   0
                l(2) =   0
                l(3) =   1
                l(4) =   1
                l(5) =   2
                l(6) =   2
     Q(r) pseudized with  8 coefficients,  rinner =    1.000   1.000   1.000
                                                       1.000   1.000

     PseudoPot. # 2 for O  read from file:
     /storage/coda1/p-amedford6/0/shared/rich_project_chbe-medford/medford-share/data/pseudos_module/espresso/nninc/pbe/van/O.UPF
     MD5 check sum: 78c19812648e8988a0fe644b0f25305e
     Pseudo is Ultrasoft, Zval =  6.0
     Generated by new atomic code, or converted to UPF format
     Using radial grid of  737 points,  4 beta functions with:
                l(1) =   0
                l(2) =   0
                l(3) =   1
                l(4) =   1
     Q(r) pseudized with  8 coefficients,  rinner =    0.800   0.800   0.800

     PseudoPot. # 3 for N  read from file:
     /storage/coda1/p-amedford6/0/shared/rich_project_chbe-medford/medford-share/data/pseudos_module/espresso/nninc/pbe/van/N.UPF
     MD5 check sum: 90d10febe142ad51ac9d5be1deb811c4
     Pseudo is Ultrasoft, Zval =  5.0
     Generated by new atomic code, or converted to UPF format
     Using radial grid of  729 points,  4 beta functions with:
                l(1) =   0
                l(2) =   0
                l(3) =   1
                l(4) =   1
     Q(r) pseudized with  8 coefficients,  rinner =    0.800   0.800   0.800

     PseudoPot. # 4 for C  read from file:
     /storage/coda1/p-amedford6/0/shared/rich_project_chbe-medford/medford-share/data/pseudos_module/espresso/nninc/pbe/van/C.UPF
     MD5 check sum: 1a69bf6b8db32088f5b2163dbdb77a27
     Pseudo is Ultrasoft, Zval =  4.0
     Generated by new atomic code, or converted to UPF format
     Using radial grid of  721 points,  4 beta functions with:
                l(1) =   0
                l(2) =   0
                l(3) =   1
                l(4) =   1
     Q(r) pseudized with  8 coefficients,  rinner =    0.800   0.800   0.800

     PseudoPot. # 5 for H  read from file:
     /storage/coda1/p-amedford6/0/shared/rich_project_chbe-medford/medford-share/data/pseudos_module/espresso/nninc/pbe/van/H.UPF
     MD5 check sum: b5ee9d7bfd3a09ee7748110bda690ff7
     Pseudo is Ultrasoft, Zval =  1.0
     Generated by new atomic code, or converted to UPF format
     Using radial grid of  615 points,  1 beta functions with:
                l(1) =   0
     Q(r) pseudized with  8 coefficients,  rinner =    0.800

     atomic species   valence    mass     pseudopotential
        Ti1           12.00    47.86700     Ti( 1.00)
        O1             6.00    15.99900     O ( 1.00)
        N1             5.00    14.00700     N ( 1.00)
        C1             4.00    12.01100     C ( 1.00)
        H1             1.00     1.00800     H ( 1.00)

     Starting magnetic structure
     atomic species   magnetization
        Ti1          0.000
        O1           0.000
        N1           0.000
        C1           0.025
        H1           0.000

     No symmetry found

   Cartesian axes

     site n.     atom                  positions (alat units)
         1           Ti1 tau(   1) = (   0.0004258   2.9801865   6.0000000  )
         2           Ti1 tau(   2) = (   3.2906075   1.4906267   6.0002472  )
         3           O1  tau(   3) = (   0.0006271   0.0005054   7.9858123  )
         4           O1  tau(   4) = (   3.2906025   0.0005020   7.3038282  )
         5           O1  tau(   5) = (   4.5942328   1.4918067   9.2879030  )
         6           O1  tau(   6) = (   1.9868534   1.4903216   9.2879459  )
         7           Ti1 tau(   7) = (   3.2907910   2.8959150   9.1758416  )
         8           Ti1 tau(   8) = (   0.0015273   1.4827037   9.2680791  )
         9           O1  tau(   9) = (   3.3019049   5.9598586  11.2958584  )
        10           O1  tau(  10) = (   0.0116148   5.9584955  10.6183126  )
        11           O1  tau(  11) = (   1.3346742   1.4914638  12.6145280  )
        12           O1  tau(  12) = (   5.3113054   1.4894223  12.6320738  )
        13           Ti1 tau(  13) = (   6.4919192   2.9607050  12.7581921  )
        14           Ti1 tau(  14) = (   3.1808934   1.4809541  12.4628303  )
        15           O1  tau(  15) = (   0.0259758   5.9327586  14.5948705  )
        16           O1  tau(  16) = (   3.3179433   0.0111293  13.8771559  )
        17           O1  tau(  17) = (   4.5450242   1.5254396  16.0425357  )
        18           O1  tau(  18) = (   2.0945915   1.5254857  16.0466093  )
        19           Ti1 tau(  19) = (   3.3175380   3.0118254  15.6854273  )
        20           Ti1 tau(  20) = (   0.0287691   1.6153805  16.0968480  )
        21           O1  tau(  21) = (   3.2904802   0.0005063   4.7018136  )
        22           O1  tau(  22) = (   0.0272082   0.0527987  17.2096484  )
        23           O1  tau(  23) = (   1.3043587   1.4918075   6.0039043  )
        24           O1  tau(  24) = (   5.2767064   1.4903225   6.0039473  )
        25           Ti1 tau(  25) = (   0.0000382   5.9609847   6.0000000  )
        26           Ti1 tau(  26) = (   3.2902200   4.4714249   6.0002472  )
        27           O1  tau(  27) = (   0.0002396   2.9813036   7.9858123  )
        28           O1  tau(  28) = (   3.2902150   2.9813002   7.3038282  )
        29           O1  tau(  29) = (   4.5938453   4.4726049   9.2879030  )
        30           O1  tau(  30) = (   1.9864658   4.4711199   9.2879459  )
        31           Ti1 tau(  31) = (   3.2891106   5.8743827   9.1763621  )
        32           Ti1 tau(  32) = (   0.0006254   4.4649316   9.2693709  )
        33           O1  tau(  33) = (   3.3007599   2.9794320  11.2948048  )
        34           O1  tau(  34) = (   0.0092240   2.9805883  10.6323155  )
        35           O1  tau(  35) = (   1.3367187   4.4652043  12.6121808  )
        36           O1  tau(  36) = (   5.3110114   4.4536366  12.6300246  )
        37           Ti1 tau(  37) = (   6.5175235   5.9394146  12.7678677  )
        38           Ti1 tau(  38) = (   3.1810223   4.4618757  12.4682998  )
        39           O1  tau(  39) = (   0.0141956   2.9656780  14.6533049  )
        40           O1  tau(  40) = (   3.3125561   2.9946134  13.8784269  )
        41           O1  tau(  41) = (   4.5469694   4.5079638  16.0550352  )
        42           O1  tau(  42) = (   2.0896055   4.5089645  16.0567747  )
        43           Ti1 tau(  43) = (   3.3249511   0.0336637  15.6879192  )
        44           Ti1 tau(  44) = (   0.0309337   4.5948497  16.1324869  )
        45           O1  tau(  45) = (   3.2900926   2.9813045   4.7018136  )
        46           O1  tau(  46) = (   1.3039711   4.4726057   6.0039043  )
        47           O1  tau(  47) = (   5.2763189   4.4711207   6.0039473  )
        48           N1  tau(  48) = (   0.0510883   3.0100077  17.3315927  )
        49           C1  tau(  49) = (   0.2149723   3.0659314  18.7643681  )
        50           H1  tau(  50) = (   6.1109748   3.7957518  19.2115106  )
        51           H1  tau(  51) = (   0.0391147   2.1019789  19.2277120  )
        52           H1  tau(  52) = (   1.2341903   3.3897193  19.0223879  )
        53           N1  tau(  53) = (   4.7717085   1.8344328  21.5424420  )
        54           H1  tau(  54) = (   4.4711387   2.7986659  21.4441960  )
        55           H1  tau(  55) = (   4.1840297   1.2822813  20.9257432  )
        56           H1  tau(  56) = (   4.5427024   1.5537098  22.4892962  )

     number of k points=    10  Fermi-Dirac smearing, width (Ry)=  0.0073
                       cart. coord. in units 2pi/alat
        k(    1) = (   0.0000000   0.0000000   0.0000000), wk =   0.0625000
        k(    2) = (   0.0000000   0.0419351   0.0000000), wk =   0.1250000
        k(    3) = (   0.0000000  -0.0838702   0.0000000), wk =   0.0625000
        k(    4) = (   0.0379955   0.0000049   0.0000000), wk =   0.1250000
        k(    5) = (   0.0379955   0.0419400   0.0000000), wk =   0.1250000
[...]
     % Please cite the following two papers that made this development      %
     % possible and the two reviews that describe the various versions:     %
     %                                                                      %
     %   T. Thonhauser et al., PRL 115, 136402 (2015).                      %
     %   T. Thonhauser et al., PRB 76, 125112 (2007).                       %
     %   K. Berland et al., Rep. Prog. Phys. 78, 066501 (2015).             %
     %   D.C. Langreth et al., J. Phys.: Condens. Matter 21, 084203 (2009). %
     %                                                                      %
     %                                                                      %
     % If you are calculating the stress with vdW-DF, please also cite:     %
     %                                                                      %
     %   R. Sabatini et al., J. Phys.: Condens. Matter 24, 424209 (2012).   %
     %                                                                      %
     %%%%%%%%%%%%%%%%%%%%%%%%%%%%%%%%%%%%%%%%%%%%%%%%%%%%%%%%%%%%%%%%%%%%%%%%

     Adding external electric field

     Computed dipole along edir(3) :
        Dipole              -11.2917 Ry au,        -28.7007 Debye
        Dipole field         -0.0213 Ry au,

        Potential amp.        1.9753 Ry
        Total length         46.3494 bohr

[...]

     Starting wfcs are  302 atomic wfcs
  @ DRIVER MODE: Message from server: STATUS
  @ DRIVER MODE: Message from server: POSDATA
  @ DRIVER MODE: Reading and sharing cell
  @ DRIVER MODE: Reading and sharing positions
  @ DRIVER MODE: Received positions

     Self-consistent Calculation

     iteration #  1     ecut=    29.40 Ry     beta= 0.05
     Davidson diagonalization with overlap
     c_bands:  1 eigenvalues not converged
     c_bands:  1 eigenvalues not converged
     c_bands:  2 eigenvalues not converged
     c_bands:  1 eigenvalues not converged
     c_bands:  1 eigenvalues not converged
     c_bands:  1 eigenvalues not converged
     c_bands:  2 eigenvalues not converged
     c_bands:  2 eigenvalues not converged
     c_bands:  1 eigenvalues not converged
     c_bands:  1 eigenvalues not converged
     c_bands:  2 eigenvalues not converged
     c_bands:  1 eigenvalues not converged
     c_bands:  1 eigenvalues not converged
     c_bands:  1 eigenvalues not converged
     c_bands:  2 eigenvalues not converged
     c_bands:  2 eigenvalues not converged
     ethr =  1.00E-05,  avg # of iterations = 19.6

[...]

     total energy              =   -2520.81472799 Ry
     estimated scf accuracy    <    4704.34949532 Ry

     total magnetization       =     0.00 Bohr mag/cell
     absolute magnetization    =     0.01 Bohr mag/cell

     iteration #  2     ecut=    29.40 Ry     beta= 0.05
     Davidson diagonalization with overlap
     ethr =  1.00E-02,  avg # of iterations = 21.9

[...]

     iteration # 60     ecut=    29.40 Ry     beta= 0.05
     Davidson diagonalization with overlap
     c_bands:  1 eigenvalues not converged
     c_bands:  1 eigenvalues not converged
     ethr =  7.29E-08,  avg # of iterations =  8.4

[...]

     total energy              =   -2942.90770538 Ry
     estimated scf accuracy    <       0.00000013 Ry

[...]

     iteration # 80     ecut=    29.40 Ry     beta= 0.05
     Davidson diagonalization with overlap
     ethr =  2.96E-11,  avg # of iterations =  6.0

     negative rho (up, down):  5.680E-03 5.680E-03

[...]

     Adding external electric field

     Computed dipole along edir(3) :
        Dipole                0.4202 Ry au,          1.0681 Debye
        Dipole field          0.0008 Ry au,

        Potential amp.       -0.0735 Ry
        Total length         46.3494 bohr

     Magnetic moment per site  (integrated on atomic sphere of radius R)
     atom   1 (R=0.735)  charge=  8.0053  magn= -0.0001
     atom   2 (R=0.735)  charge=  8.0011  magn= -0.0001
     atom   3 (R=0.735)  charge=  4.9958  magn=  0.0000
     atom   4 (R=0.735)  charge=  5.0345  magn=  0.0000
     atom   5 (R=0.735)  charge=  4.9982  magn=  0.0000
     atom   6 (R=0.735)  charge=  4.9994  magn=  0.0000
     atom   7 (R=0.735)  charge=  7.9947  magn= -0.0000
     atom   8 (R=0.735)  charge=  7.9823  magn= -0.0000
     atom   9 (R=0.735)  charge=  5.0128  magn=  0.0001
     atom  10 (R=0.735)  charge=  4.9434  magn=  0.0000
     atom  11 (R=0.735)  charge=  4.9999  magn=  0.0001
     atom  12 (R=0.735)  charge=  5.0035  magn=  0.0000
     atom  13 (R=0.735)  charge=  7.9933  magn= -0.0000
     atom  14 (R=0.735)  charge=  8.0007  magn= -0.0001
     atom  15 (R=0.735)  charge=  4.9894  magn= -0.0000
     atom  16 (R=0.735)  charge=  5.0146  magn=  0.0000
     atom  17 (R=0.735)  charge=  4.9900  magn= -0.0002
     atom  18 (R=0.735)  charge=  4.9888  magn= -0.0002
     atom  19 (R=0.735)  charge=  8.0208  magn=  0.0001
     atom  20 (R=0.735)  charge=  8.0242  magn=  0.0005
     atom  21 (R=0.735)  charge=  4.8827  magn=  0.0001
     atom  22 (R=0.735)  charge=  4.9720  magn= -0.0001
     atom  23 (R=0.735)  charge=  4.9884  magn=  0.0000
     atom  24 (R=0.735)  charge=  4.9885  magn=  0.0000
     atom  25 (R=0.735)  charge=  8.0053  magn= -0.0001
     atom  26 (R=0.735)  charge=  8.0011  magn= -0.0001
     atom  27 (R=0.735)  charge=  4.9957  magn=  0.0000
     atom  28 (R=0.735)  charge=  5.0347  magn=  0.0000
     atom  29 (R=0.735)  charge=  4.9989  magn= -0.0000
     atom  30 (R=0.735)  charge=  5.0001  magn=  0.0000
     atom  31 (R=0.735)  charge=  7.9947  magn= -0.0000
     atom  32 (R=0.735)  charge=  7.9826  magn= -0.0000
     atom  33 (R=0.735)  charge=  5.0125  magn=  0.0000
     atom  34 (R=0.735)  charge=  4.9424  magn=  0.0000
     atom  35 (R=0.735)  charge=  5.0005  magn=  0.0001
     atom  36 (R=0.735)  charge=  5.0043  magn=  0.0000
     atom  37 (R=0.735)  charge=  7.9990  magn=  0.0000
     atom  38 (R=0.735)  charge=  8.0004  magn= -0.0001
     atom  39 (R=0.735)  charge=  4.9853  magn= -0.0001
     atom  40 (R=0.735)  charge=  5.0160  magn=  0.0000
     atom  41 (R=0.735)  charge=  4.9884  magn= -0.0001
     atom  42 (R=0.735)  charge=  4.9878  magn= -0.0001
     atom  43 (R=0.735)  charge=  8.0214  magn=  0.0001
     atom  44 (R=0.735)  charge=  8.0216  magn=  0.0003
     atom  45 (R=0.735)  charge=  4.8827  magn=  0.0001
     atom  46 (R=0.735)  charge=  4.9884  magn=  0.0000
     atom  47 (R=0.735)  charge=  4.9885  magn=  0.0000
     atom  48 (R=0.418)  charge=  1.3137  magn= -0.0010
     atom  49 (R=0.447)  charge=  0.8361  magn=  0.0001
     atom  50 (R=0.418)  charge=  0.4372  magn= -0.0001
     atom  51 (R=0.418)  charge=  0.4445  magn= -0.0000
     atom  52 (R=0.418)  charge=  0.4339  magn= -0.0001
     atom  53 (R=0.418)  charge=  1.3298  magn= -0.0000
     atom  54 (R=0.418)  charge=  0.4522  magn=  0.0000
     atom  55 (R=0.418)  charge=  0.4511  magn=  0.0000
     atom  56 (R=0.418)  charge=  0.4538  magn=  0.0000

     End of self-consistent calculation

 ------ SPIN UP ------------

          k = 0.0000 0.0000 0.0000 ( 18029 PWs)   bands (ev):

   -56.6305 -56.5969 -55.7553 -55.7433 -55.7204 -55.7104 -55.6097 -55.5743
   -55.3923 -55.3564 -55.2961 -55.2905 -55.2622 -55.1927 -54.7274 -54.6160
   -33.0584 -32.9051 -32.8770 -32.8062 -32.7151 -32.6844 -32.2259 -32.2198
   -32.1524 -32.0392 -31.9931 -31.9689 -31.9504 -31.9292 -31.8955 -31.8911
   -31.8896 -31.8843 -31.8586 -31.8560 -31.8446 -31.8171 -31.7924 -31.7774
   -31.7644 -31.7460 -31.7366 -31.7120 -31.6883 -31.6344 -31.6229 -31.6102
   -31.5333 -31.5304 -31.5069 -31.4663 -31.4583 -31.4234 -31.4207 -31.3965
   -31.3739 -31.3126 -31.2330 -30.9731 -30.9578 -30.8749 -30.8378 -30.7479
   -16.7956 -16.3635 -16.1328 -15.9936 -15.9279 -15.8717 -15.8289 -15.7029
   -15.6352 -15.6272 -15.5855 -15.5575 -15.4861 -15.3463 -15.2478 -15.1951
   -15.1506 -15.0302 -14.9691 -14.9366 -14.9260 -14.8832 -14.8735 -14.6800
   -14.6569 -14.5632 -14.5416 -14.4212 -14.1861 -13.7946 -13.7047 -13.6845
   -12.8010  -7.5162  -4.3608  -3.8593  -3.7716  -3.7467  -3.6207  -3.5344
    -3.4272  -3.4131  -3.3265  -3.2121  -3.1679  -3.1202  -3.0038  -3.0024
    -2.8542  -2.8138  -2.8065  -2.8049  -2.7582  -2.6957  -2.6724  -2.6408
    -2.6312  -2.6124  -2.4755  -2.3793  -2.3085  -2.2844  -2.2785  -2.2428
    -2.1682  -2.1385  -2.1295  -2.1259  -2.0184  -1.8733  -1.8668  -1.8436
    -1.8018  -1.7965  -1.7540  -1.7405  -1.6234  -1.5325  -1.4301  -1.4137
    -1.3697  -1.3132  -1.3056  -1.2155  -1.1375  -1.0467  -1.0454  -0.9360
    -0.8883  -0.8715  -0.7810  -0.7216  -0.6822  -0.6558  -0.6436  -0.5434
    -0.5210  -0.5107  -0.4267  -0.4149  -0.3659  -0.2771  -0.2541  -0.2451
    -0.1628  -0.1602  -0.0652  -0.0232   0.0171   0.0521   0.1681   0.1855
     0.2832   0.3123   0.3393   0.4529   0.4689   0.5337   0.6089   0.6714
     0.6986   0.7254   0.7548   0.7740   0.8489   0.9608   0.9696   1.0724
     1.1043   1.2782   1.3171   1.3894   1.6031   1.6333   2.3092   2.6440
     2.8033   3.1019   3.2893   3.4024   3.6183   3.6345   3.6396   3.8610
     3.8892

[...]

          k =-0.0760-0.0000 0.0000 ( 17886 PWs)   bands (ev):

[...]

 ------ SPIN DOWN ----------

[...]

          k = 0.0380-0.0419 0.0000 ( 17876 PWs)   bands (ev):

[...]

          k =-0.0760-0.0839 0.0000 ( 17948 PWs)   bands (ev):

   -56.6140 -56.6137 -55.7402 -55.7344 -55.7276 -55.7270 -55.5925 -55.5917
   -55.3783 -55.3699 -55.2874 -55.2793 -55.2792 -55.1958 -54.7237 -54.6176
   -32.8912 -32.8910 -32.8754 -32.8753 -32.7595 -32.7593 -32.0558 -32.0535
   -32.0443 -32.0377 -31.9845 -31.9835 -31.9408 -31.9405 -31.9384 -31.9373
   -31.9296 -31.9267 -31.9245 -31.9229 -31.8450 -31.8430 -31.7940 -31.7911
   -31.7291 -31.7187 -31.6600 -31.6520 -31.6234 -31.6233 -31.6166 -31.5767
   -31.5725 -31.5448 -31.5106 -31.5047 -31.5046 -31.4655 -31.4655 -31.4616
   -31.4382 -31.3986 -31.1125 -30.9923 -30.9564 -30.9258 -30.8391 -30.8019
   -16.1443 -16.1422 -16.1093 -16.1090 -15.8406 -15.8370 -15.7943 -15.7919
   -15.6181 -15.6120 -15.4054 -15.3968 -15.3901 -15.3887 -15.2607 -15.2548
   -15.1893 -15.1789 -15.0898 -15.0806 -15.0240 -15.0175 -14.9751 -14.9541
   -14.6439 -14.6346 -14.5139 -14.4964 -14.3299 -13.7878 -13.7877 -13.7040
   -12.8211  -7.5090  -3.7789  -3.7549  -3.2432  -3.2429  -3.1792  -3.1781
    -3.0568  -3.0527  -2.9738  -2.9731  -2.8751  -2.8739  -2.7697  -2.7317
    -2.7286  -2.7281  -2.7132  -2.6638  -2.5747  -2.5735  -2.5616  -2.5467
    -2.4883  -2.4864  -2.4674  -2.3986  -2.3848  -2.3530  -2.3153  -2.2011
    -2.1908  -2.1793  -2.1471  -2.0844  -2.0766  -2.0637  -2.0212  -1.9889
    -1.9123  -1.8409  -1.8010  -1.6878  -1.6832  -1.6713  -1.6594  -1.5058
    -1.4655  -1.4351  -1.4280  -1.4218  -1.3740  -1.2791  -1.2716  -1.1396
    -1.1379  -1.0638  -0.9823  -0.9611  -0.9327  -0.8040  -0.7600  -0.7255
    -0.7177  -0.6897  -0.6694  -0.6480  -0.6045  -0.4685  -0.4569  -0.4180
    -0.3835  -0.3613  -0.3271  -0.2693  -0.1834  -0.1050  -0.1046  -0.0503
     0.0180   0.0794   0.1659   0.1763   0.1815   0.4628   0.5417   0.6311
     0.7070   0.7733   0.8366   0.8675   0.9231   0.9676   1.1041   1.1074
     1.1267   1.1270   1.1862   1.1899   1.3722   1.6386   2.1913   3.2165
     3.2169   3.2835   3.2840   3.6077   3.6135   3.7216   3.7309   3.8381
     3.8430

     the Fermi energy is     2.4842 ev

!    total energy              =   -2942.90772305 Ry
     estimated scf accuracy    <       0.00000007 Ry
     smearing contrib. (-TS)   =      -0.00487569 Ry
     internal energy E=F+TS    =   -2942.90284736 Ry

     The total energy is F=E-TS. E is the sum of the following terms:
     one-electron contribution =  -23242.46496653 Ry
     hartree contribution      =   11711.44356667 Ry
     xc contribution           =    -487.47801024 Ry
     ewald contribution        =    9075.59622952 Ry
     electric field correction =       0.00033322 Ry

     total magnetization       =    -0.00 Bohr mag/cell
     absolute magnetization    =     0.01 Bohr mag/cell

     convergence has been achieved in  80 iterations

     Forces acting on atoms (cartesian axes, Ry/au):

     atom    1 type  1   force =     0.00003881   -0.00040131    0.12406930
     atom    2 type  1   force =    -0.00010348   -0.00056865   -0.16066885
     atom    3 type  2   force =     0.00023580   -0.00026925   -0.06798335
     atom    4 type  2   force =     0.00001467   -0.00029124    0.02760064
     atom    5 type  2   force =    -0.01615326    0.00175317   -0.00935870
     atom    6 type  2   force =     0.01818702    0.00219113   -0.00898148
     atom    7 type  1   force =     0.00115402   -0.00377959    0.02169909
     atom    8 type  1   force =    -0.00057627   -0.00290564    0.11107230
     atom    9 type  2   force =    -0.00017934    0.00030780   -0.00046812
     atom   10 type  2   force =    -0.00195902    0.00129317   -0.07321321
     atom   11 type  2   force =     0.00023060   -0.00010722    0.00016782
     atom   12 type  2   force =    -0.00027288    0.00022177    0.00020285
     atom   13 type  1   force =    -0.00009667    0.00008550   -0.00043219
     atom   14 type  1   force =    -0.00058090    0.00045335    0.00040420
     atom   15 type  2   force =     0.00027431   -0.00000613    0.00014720
     atom   16 type  2   force =    -0.00048739   -0.00036851    0.00055579
     atom   17 type  2   force =    -0.00060870    0.00023969    0.00009524
     atom   18 type  2   force =     0.00003194    0.00024882    0.00010219
     atom   19 type  1   force =     0.00038976   -0.00054905    0.00000160
     atom   20 type  1   force =    -0.00011511    0.00004210    0.00026184
     atom   21 type  2   force =     0.00004925   -0.00000717    0.09969135
     atom   22 type  2   force =     0.00027511   -0.00006207   -0.00040437
     atom   23 type  2   force =    -0.07914618    0.00000167   -0.03243159
     atom   24 type  2   force =     0.07903253    0.00043745   -0.03245312
     atom   25 type  1   force =     0.00001611   -0.00041062    0.12360163
     atom   26 type  1   force =    -0.00009843   -0.00046352   -0.16080703
     atom   27 type  2   force =     0.00033164   -0.00048408   -0.06703284
     atom   28 type  2   force =     0.00002914   -0.00012025    0.02732684
     atom   29 type  2   force =    -0.01662860    0.00127699   -0.00946500
     atom   30 type  2   force =     0.01855955    0.00165378   -0.00909942
     atom   31 type  1   force =     0.00116863   -0.00138516    0.02112878
     atom   32 type  1   force =    -0.00053656    0.00034762    0.11171398
     atom   33 type  2   force =    -0.00015922   -0.00024821    0.00005595
     atom   34 type  2   force =    -0.00132512    0.00066968   -0.07266617
     atom   35 type  2   force =    -0.00077970   -0.00043150   -0.00002509
     atom   36 type  2   force =     0.00009426   -0.00001874    0.00010652
     atom   37 type  1   force =     0.00007237    0.00063391    0.00022040
     atom   38 type  1   force =    -0.00020703    0.00003279   -0.00017681
     atom   39 type  2   force =     0.00013413   -0.00018561    0.00090588
     atom   40 type  2   force =    -0.00018033   -0.00046368    0.00031606
     atom   41 type  2   force =     0.00007654   -0.00009169    0.00006908
     atom   42 type  2   force =     0.00040997    0.00001842    0.00002895
     atom   43 type  1   force =    -0.00022551   -0.00012580    0.00006624
     atom   44 type  1   force =    -0.00025728    0.00051982    0.00013474
     atom   45 type  2   force =     0.00002572   -0.00003126    0.09971645
     atom   46 type  2   force =    -0.07915208    0.00005543   -0.03243249
     atom   47 type  2   force =     0.07903346    0.00047737   -0.03244771
     atom   48 type  3   force =     0.00083870    0.00049639   -0.00145031
     atom   49 type  4   force =     0.00156302    0.00920495   -0.00331655
     atom   50 type  5   force =     0.00008356    0.00142671    0.00053767
     atom   51 type  5   force =    -0.00136828   -0.00988698    0.00370306
     atom   52 type  5   force =    -0.00023994    0.00003903   -0.00009912
     atom   53 type  3   force =     0.00002594   -0.00084602   -0.00014210
     atom   54 type  5   force =    -0.00003793    0.00021154   -0.00054264
     atom   55 type  5   force =     0.00014782    0.00031431   -0.00082958
     atom   56 type  5   force =    -0.00104915   -0.00014540    0.00122422

     Total force =     0.424602     Total SCF correction =     0.000377
  @ DRIVER MODE: Message from server: STATUS
  @ DRIVER MODE: Message from server: GETFORCE
  @ DRIVER MODE: Returning v,forces,stress,ensemble

     Writing output data file ./calc.save/
  @ DRIVER MODE: Message from server: EXIT
  @ DRIVE MODE: Exiting

     General routines

     Parallel routines

   This run was terminated on:   4:34:24  16Jul2021

   JOB DONE.