     Program PWSCF v.6.7GPU starts on 21Sep2021 at  9:54:19

     R & G space division:  proc/nbgrp/npool/nimage =      10
     Reading input from /storage/home/hcoda1/3/ntian30/research/carbon/CxH_vib/H2O_calc/ads_slab/CH3H2O_a/out_0036/pw.inp
Warning: card &CELL ignored
Warning: card   CELL_DYNAMICS='IPI', ignored
Warning: card / ignored

     Current dimensions of program PWSCF are:
     Max number of different atomic species (ntypx) = 10
     Max number of k-points (npk) =  40000
     Max angular momentum in pseudopotentials (lmaxx) =  3
     Presently no symmetry can be used with electric field

     Message from routine cell_base_init:
     DEPRECATED: use true lattice parameter, not A to a.u. conversion factor

     IMPORTANT: XC functional enforced from input :
     Exchange-correlation= BEEF-VDW
                           (   1   4  43  14   2   0   0)
     Any further DFT definition will be discarded
     Please, verify this is what you really want

  @ DRIVER MODE: Connecting to
 qe_1139763_2911776.sched-torque.pace.gatech.eduqhoksfs4_scratch
  using UNIX socket
  @ DRIVER MODE: Message from server: STATUS
  @ DRIVER MODE: Message from server: INIT
  @ DRIVER MODE: Receiving replica           0          -1
  @ DRIVER MODE: Receiving encoded integer          25
  @ DRIVER MODE:  SCF:  T  FORCE:  T  STRESS:  F  VC:  F  ENSEMBLE:  F
  @ DRIVER MODE:  SCF:  T  FORCE:  T  STRESS:  F  VC:  F  ENSEMBLE:  F

     Using Slab Decomposition

     bravais-lattice index     =            0
     lattice parameter (alat)  =       1.8897  a.u.
     unit-cell volume          =    6658.9804 (a.u.)^3
     number of atoms/cell      =           54
     number of atomic types    =            4
     number of electrons       =       393.00
     number of Kohn-Sham states=          206
     kinetic-energy cutoff     =      29.3995  Ry
     charge density cutoff     =     293.9946  Ry
     scf convergence threshold =      7.3E-08
     mixing beta               =       0.0500
     number of iterations used =            8  plain     mixing
     Exchange-correlation= BEEF-VDW
                           (   1   4  43  14   2   0   0)

     celldm(1)=   1.889726  celldm(2)=   0.000000  celldm(3)=   0.000000
     celldm(4)=   0.000000  celldm(5)=   0.000000  celldm(6)=   0.000000

     crystal axes: (cart. coord. in units of alat)
               a(1) = (   6.579727   0.000000   0.000000 )
               a(2) = (  -0.000775   5.961596   0.000000 )
               a(3) = (   0.000000   0.000000  25.155947 )

     reciprocal axes: (cart. coord. in units 2 pi/alat)
               b(1) = (  0.151982  0.000020  0.000000 )
               b(2) = (  0.000000  0.167740  0.000000 )
               b(3) = (  0.000000  0.000000  0.039752 )

     PseudoPot. # 1 for Ti read from file:
     /storage/coda1/p-amedford6/0/shared/rich_project_chbe-medford/medford-share/data/pseudos_module/espresso/nninc/pbe/van/Ti.UPF
     MD5 check sum: 8e4df49b7f0d34bbd5052bf3f5ea0213
     Pseudo is Ultrasoft, Zval = 12.0
     Generated by new atomic code, or converted to UPF format
     Using radial grid of  851 points,  6 beta functions with:
                l(1) =   0
                l(2) =   0
                l(3) =   1
                l(4) =   1
                l(5) =   2
                l(6) =   2
     Q(r) pseudized with  8 coefficients,  rinner =    1.000   1.000   1.000
                                                       1.000   1.000

     PseudoPot. # 2 for O  read from file:
     /storage/coda1/p-amedford6/0/shared/rich_project_chbe-medford/medford-share/data/pseudos_module/espresso/nninc/pbe/van/O.UPF
     MD5 check sum: 78c19812648e8988a0fe644b0f25305e
     Pseudo is Ultrasoft, Zval =  6.0
     Generated by new atomic code, or converted to UPF format
     Using radial grid of  737 points,  4 beta functions with:
                l(1) =   0
                l(2) =   0
                l(3) =   1
                l(4) =   1
     Q(r) pseudized with  8 coefficients,  rinner =    0.800   0.800   0.800

     PseudoPot. # 3 for C  read from file:
     /storage/coda1/p-amedford6/0/shared/rich_project_chbe-medford/medford-share/data/pseudos_module/espresso/nninc/pbe/van/C.UPF
     MD5 check sum: 1a69bf6b8db32088f5b2163dbdb77a27
     Pseudo is Ultrasoft, Zval =  4.0
     Generated by new atomic code, or converted to UPF format
     Using radial grid of  721 points,  4 beta functions with:
                l(1) =   0
                l(2) =   0
                l(3) =   1
                l(4) =   1
     Q(r) pseudized with  8 coefficients,  rinner =    0.800   0.800   0.800

     PseudoPot. # 4 for H  read from file:
     /storage/coda1/p-amedford6/0/shared/rich_project_chbe-medford/medford-share/data/pseudos_module/espresso/nninc/pbe/van/H.UPF
     MD5 check sum: b5ee9d7bfd3a09ee7748110bda690ff7
     Pseudo is Ultrasoft, Zval =  1.0
     Generated by new atomic code, or converted to UPF format
     Using radial grid of  615 points,  1 beta functions with:
                l(1) =   0
     Q(r) pseudized with  8 coefficients,  rinner =    0.800

     atomic species   valence    mass     pseudopotential
        Ti1           12.00    47.86700     Ti( 1.00)
        O1             6.00    15.99900     O ( 1.00)
        C1             4.00    12.01100     C ( 1.00)
        H1             1.00     1.00800     H ( 1.00)

     No symmetry found

   Cartesian axes

     site n.     atom                  positions (alat units)
         1           Ti1 tau(   1) = (   0.0004258   2.9801865   6.0000000  )
         2           Ti1 tau(   2) = (   3.2906075   1.4906267   6.0002472  )
         3           O1  tau(   3) = (   0.0006271   0.0005054   7.9858123  )
         4           O1  tau(   4) = (   3.2906025   0.0005020   7.3038282  )
         5           O1  tau(   5) = (   4.5942328   1.4918067   9.2879030  )
         6           O1  tau(   6) = (   1.9868534   1.4903216   9.2879459  )
         7           Ti1 tau(   7) = (   3.3154911   2.9426235   9.1630835  )
         8           Ti1 tau(   8) = (   0.0285409   1.6075342   9.3657832  )
         9           O1  tau(   9) = (   3.2815087   0.0160907  11.3545821  )
        10           O1  tau(  10) = (   0.0024802   0.0106306  10.6007539  )
        11           O1  tau(  11) = (   1.2725489   1.5064038  12.6453836  )
        12           O1  tau(  12) = (   5.2753141   1.5150378  12.6350139  )
        13           Ti1 tau(  13) = (   0.0284581   2.9538459  12.7835337  )
        14           Ti1 tau(  14) = (   3.3388075   1.4895305  12.5082680  )
        15           O1  tau(  15) = (   6.5535251   0.0144872  14.6406477  )
        16           O1  tau(  16) = (   3.2781334   0.0285334  13.9682696  )
        17           O1  tau(  17) = (   4.5366274   1.5703088  16.0558364  )
        18           O1  tau(  18) = (   2.0012422   1.5648880  16.0484572  )
        19           Ti1 tau(  19) = (   3.2604835   3.0254881  15.6976271  )
        20           Ti1 tau(  20) = (   6.5333720   1.5229778  16.1593769  )
        21           O1  tau(  21) = (   3.2904802   0.0005063   4.7018136  )
        22           O1  tau(  22) = (   6.5574971   0.0350135  17.1872057  )
        23           O1  tau(  23) = (   1.3043587   1.4918075   6.0039043  )
        24           O1  tau(  24) = (   5.2767064   1.4903225   6.0039473  )
        25           Ti1 tau(  25) = (   0.0000382   5.9609847   6.0000000  )
        26           Ti1 tau(  26) = (   3.2902200   4.4714249   6.0002472  )
        27           O1  tau(  27) = (   0.0002396   2.9813036   7.9858123  )
        28           O1  tau(  28) = (   3.2902150   2.9813002   7.3038282  )
        29           O1  tau(  29) = (   4.5938453   4.4726049   9.2879030  )
        30           O1  tau(  30) = (   1.9864658   4.4711199   9.2879459  )
        31           Ti1 tau(  31) = (   3.3083403   5.9269411   9.1538128  )
        32           Ti1 tau(  32) = (   0.0303829   4.5362093   9.2612125  )
        33           O1  tau(  33) = (   3.2841341   2.9899418  11.3555480  )
        34           O1  tau(  34) = (   0.0038936   2.9924975  10.5838058  )
        35           O1  tau(  35) = (   1.2726398   4.4822405  12.6394144  )
        36           O1  tau(  36) = (   5.2736595   4.4864409  12.6303220  )
        37           Ti1 tau(  37) = (   0.0300145   5.9360250  12.5182071  )
        38           Ti1 tau(  38) = (   3.3377519   4.4811756  12.4937589  )
        39           O1  tau(  39) = (   6.5654514   3.0136449  14.7225067  )
        40           O1  tau(  40) = (   3.2707049   3.0114760  13.9116621  )
        41           O1  tau(  41) = (   4.5328936   4.4881537  16.0752462  )
        42           O1  tau(  42) = (   1.9999049   4.4921254  16.0707699  )
        43           Ti1 tau(  43) = (   3.2502456   0.0519323  15.7983500  )
        44           Ti1 tau(  44) = (   6.5407796   4.6451211  15.8442649  )
        45           O1  tau(  45) = (   3.2900926   2.9813045   4.7018136  )
        46           O1  tau(  46) = (   1.3039711   4.4726057   6.0039043  )
        47           O1  tau(  47) = (   5.2763189   4.4711207   6.0039473  )
        48           C1  tau(  48) = (   6.5619928   2.8946514  17.8930439  )
        49           H1  tau(  49) = (   6.5552299   3.9601472  18.1196503  )
        50           H1  tau(  50) = (   0.8760557   2.4850835  18.3732843  )
        51           H1  tau(  51) = (   5.6817198   2.4733575  18.3891814  )
        52           O1  tau(  52) = (   3.2572702   0.1178616  18.1992317  )
        53           H1  tau(  53) = (   4.0330629   5.5870706  18.5179137  )
        54           H1  tau(  54) = (   2.4710694   5.5989049  18.5058656  )

     number of k points=    10  Fermi-Dirac smearing, width (Ry)=  0.0073
                       cart. coord. in units 2pi/alat
        k(    1) = (   0.0000000   0.0000000   0.0000000), wk =   0.1250000
        k(    2) = (   0.0000000   0.0419351   0.0000000), wk =   0.2500000
        k(    3) = (   0.0000000  -0.0838702   0.0000000), wk =   0.1250000
        k(    4) = (   0.0379955   0.0000049   0.0000000), wk =   0.2500000
        k(    5) = (   0.0379955   0.0419400   0.0000000), wk =   0.2500000
        k(    6) = (   0.0379955  -0.0838652   0.0000000), wk =   0.2500000
        k(    7) = (   0.0379955  -0.0419301   0.0000000), wk =   0.2500000
        k(    8) = (  -0.0759910  -0.0000099   0.0000000), wk =   0.1250000
        k(    9) = (  -0.0759910   0.0419252   0.0000000), wk =   0.2500000
        k(   10) = (  -0.0759910  -0.0838800   0.0000000), wk =   0.1250000

     Initial potential from superposition of free atoms

     starting charge  376.99916, renormalised to  393.00000

     negative rho (up, down):  1.842E-02 0.000E+00

     %%%%%%%%%%%%%%%%%%%%%%%%%%%%%%%%%%%%%%%%%%%%%%%%%%%%%%%%%%%%%%%%%%%%%%%%
     %                                                                      %
     % You are using vdW-DF, which was implemented by the Thonhauser group. %
     % Please cite the following two papers that made this development      %
     % possible and the two reviews that describe the various versions:     %
     %                                                                      %
     %   T. Thonhauser et al., PRL 115, 136402 (2015).                      %
     %   T. Thonhauser et al., PRB 76, 125112 (2007).                       %
     %   K. Berland et al., Rep. Prog. Phys. 78, 066501 (2015).             %
     %   D.C. Langreth et al., J. Phys.: Condens. Matter 21, 084203 (2009). %
     %                                                                      %
     %                                                                      %
     % If you are calculating the stress with vdW-DF, please also cite:     %
     %                                                                      %
     %   R. Sabatini et al., J. Phys.: Condens. Matter 24, 424209 (2012).   %
     %                                                                      %
     %%%%%%%%%%%%%%%%%%%%%%%%%%%%%%%%%%%%%%%%%%%%%%%%%%%%%%%%%%%%%%%%%%%%%%%%

     Adding external electric field

     Computed dipole along edir(3) :
        Dipole               -6.6605 Ry au,        -16.9294 Debye
        Dipole field         -0.0126 Ry au,

        Potential amp.        1.1652 Ry
        Total length         46.3494 bohr

     Starting wfcs are  297 atomic wfcs
  @ DRIVER MODE: Message from server: STATUS
  @ DRIVER MODE: Message from server: POSDATA
  @ DRIVER MODE: Reading and sharing cell
  @ DRIVER MODE: Reading and sharing positions
  @ DRIVER MODE: Received positions

     Self-consistent Calculation

     iteration #  1     ecut=    29.40 Ry     beta= 0.05
     Davidson diagonalization with overlap
     c_bands:  2 eigenvalues not converged
     c_bands:  2 eigenvalues not converged
     c_bands:  2 eigenvalues not converged
     c_bands:  1 eigenvalues not converged
     c_bands:  1 eigenvalues not converged
     ethr =  1.00E-05,  avg # of iterations = 18.0

[...]

     total energy              =   -2713.81827815 Ry
     estimated scf accuracy    <    2414.38187917 Ry

[...]

     iteration #  3     ecut=    29.40 Ry     beta= 0.05
     Davidson diagonalization with overlap
     ethr =  1.00E-02,  avg # of iterations = 16.2

[...]

     iteration # 55     ecut=    29.40 Ry     beta= 0.05
     Davidson diagonalization with overlap
     ethr =  7.59E-11,  avg # of iterations =  9.8

[...]

     total energy              =   -2933.86690404 Ry
     estimated scf accuracy    <       0.00000018 Ry

     iteration # 56     ecut=    29.40 Ry     beta= 0.05
     Davidson diagonalization with overlap
     c_bands:  1 eigenvalues not converged
     ethr =  4.61E-11,  avg # of iterations = 11.4

     negative rho (up, down):  1.749E-02 0.000E+00

     Adding external electric field

     Computed dipole along edir(3) :
        Dipole                0.8244 Ry au,          2.0953 Debye
        Dipole field          0.0016 Ry au,

        Potential amp.       -0.1442 Ry
        Total length         46.3494 bohr

     End of self-consistent calculation

          k = 0.0000 0.0000 0.0000 ( 18029 PWs)   bands (ev):

   -55.8866 -55.8507 -55.8438 -55.8181 -55.8073 -55.7759 -55.7429 -55.6871
   -55.6568 -55.6476 -55.6145 -55.6072 -55.5486 -55.5481 -54.8961 -54.8620
   -32.4013 -32.3556 -32.2591 -32.2381 -32.1783 -32.1585 -32.1577 -32.1241
   -32.1138 -32.1043 -32.0850 -32.0804 -32.0616 -32.0465 -32.0449 -32.0272
   -31.9955 -31.9895 -31.9777 -31.9765 -31.9514 -31.9483 -31.9430 -31.9277
   -31.9246 -31.9021 -31.8984 -31.8850 -31.8796 -31.8715 -31.8689 -31.8434
   -31.8188 -31.8031 -31.7911 -31.7888 -31.7668 -31.7524 -31.7500 -31.7342
   -31.7333 -31.6560 -31.3057 -31.2093 -31.1869 -31.1222 -31.0361 -30.9251
   -19.3224 -16.6116 -16.3354 -16.1866 -16.0480 -16.0119 -15.8121 -15.7001
   -15.5801 -15.5431 -15.4838 -15.4630 -15.4312 -15.4115 -15.4087 -15.3946
   -15.3870 -15.3345 -15.3256 -15.2905 -15.2888 -15.2622 -15.2067 -15.1615
   -15.1067 -15.0535 -15.0052 -14.9391 -14.8821 -14.8719 -13.3972 -13.2791
    -9.2999  -7.1107  -3.9834  -3.8326  -3.8131  -3.7783  -3.7189  -3.6292
    -3.4740  -3.3638  -3.2261  -3.0724  -3.0223  -3.0087  -3.0069  -2.9793
    -2.8811  -2.7559  -2.7310  -2.7029  -2.6981  -2.6797  -2.6781  -2.6424
    -2.5971  -2.5851  -2.5498  -2.5371  -2.3852  -2.3169  -2.2994  -2.2584
    -2.1979  -2.1880  -2.1539  -2.1392  -2.1318  -2.0940  -2.0765  -2.0295
    -1.9803  -1.9081  -1.8246  -1.7679  -1.6685  -1.5789  -1.5185  -1.4628
    -1.4296  -1.3303  -1.3131  -1.2862  -1.2143  -1.1872  -1.1192  -1.0695
    -0.9780  -0.9026  -0.8843  -0.8342  -0.7844  -0.6704  -0.6459  -0.6184
    -0.6135  -0.5995  -0.5767  -0.4203  -0.3923  -0.3277  -0.3194  -0.2073
    -0.2035  -0.1731  -0.1552  -0.0968  -0.0677   0.0028   0.0392   0.0807
     0.0903   0.1139   0.1242   0.1370   0.2285   0.3189   0.3433   0.4148
     0.4515   0.5678   0.6456   0.7629   0.8549   1.0350   1.0757   1.1279
     1.2049   1.3000   1.7146   1.7735   3.2985   3.3449   3.3648   3.3860
     3.4138   3.5448   3.6661   3.7507   3.7756   3.8078

[...]

          k = 0.0380-0.0419 0.0000 ( 17876 PWs)   bands (ev):

[...]

          k =-0.0760-0.0000 0.0000 ( 17886 PWs)   bands (ev):

[...]

          k =-0.0760-0.0839 0.0000 ( 17948 PWs)   bands (ev):

   -55.8745 -55.8627 -55.8280 -55.8228 -55.8157 -55.7614 -55.7574 -55.6893
   -55.6531 -55.6325 -55.6303 -55.6029 -55.5523 -55.5513 -54.8795 -54.8785
   -32.2137 -32.1972 -32.1787 -32.1667 -32.1650 -32.1482 -32.1201 -32.1163
   -32.0980 -32.0955 -32.0937 -32.0419 -32.0328 -32.0319 -32.0122 -32.0002
   -31.9951 -31.9943 -31.9929 -31.9915 -31.9886 -31.9750 -31.9698 -31.9623
   -31.9526 -31.9512 -31.9469 -31.9074 -31.8870 -31.8866 -31.8790 -31.8779
   -31.8575 -31.8370 -31.8351 -31.8272 -31.8137 -31.7954 -31.7927 -31.7765
   -31.7442 -31.7020 -31.2002 -31.1990 -31.1191 -31.1182 -31.0796 -31.0787
   -19.3216 -16.0742 -15.9618 -15.8440 -15.7670 -15.7450 -15.7106 -15.6617
   -15.6559 -15.5943 -15.5887 -15.5407 -15.5302 -15.5030 -15.4773 -15.4336
   -15.4123 -15.3918 -15.3708 -15.3352 -15.3143 -15.3039 -15.2656 -15.2541
   -15.2415 -15.2136 -15.2020 -15.1396 -15.0964 -15.0517 -13.3813 -13.3796
    -9.3156  -7.1039  -3.7232  -3.3605  -3.1683  -3.1109  -3.0118  -2.9642
    -2.9529  -2.8894  -2.8282  -2.8160  -2.7812  -2.7658  -2.7614  -2.7200
    -2.7174  -2.7040  -2.6723  -2.6689  -2.6583  -2.6272  -2.5805  -2.5663
    -2.5509  -2.5130  -2.4965  -2.4933  -2.4535  -2.4368  -2.4301  -2.4232
    -2.3835  -2.3718  -2.2066  -2.1467  -2.1166  -2.0383  -2.0193  -1.9868
    -1.9773  -1.9489  -1.9261  -1.8895  -1.7489  -1.7098  -1.7076  -1.6260
    -1.6001  -1.5733  -1.4664  -1.4019  -1.3754  -1.3664  -1.2999  -1.2619
    -1.2272  -1.1231  -1.0914  -1.0414  -0.9854  -0.9718  -0.9280  -0.8477
    -0.8416  -0.8070  -0.7911  -0.7682  -0.6502  -0.6070  -0.5968  -0.5487
    -0.5242  -0.5051  -0.4398  -0.4005  -0.3977  -0.3365  -0.2759  -0.2229
     0.0252   0.1273   0.1421   0.1630   0.2319   0.2807   0.4222   0.4356
     0.4447   0.5050   0.5617   0.6400   0.6652   0.6685   0.7470   1.1781
     1.4885   1.4898   1.5778   1.5873   3.5244   3.5283   3.5939   3.6346
     3.7609   3.7661   3.7863   3.7901   3.9058   3.9351

     the Fermi energy is     3.2672 ev

!    total energy              =   -2933.86697620 Ry
     estimated scf accuracy    <       0.00000006 Ry
     smearing contrib. (-TS)   =      -0.02305218 Ry
     internal energy E=F+TS    =   -2933.84392402 Ry

     The total energy is F=E-TS. E is the sum of the following terms:
     one-electron contribution =  -24503.62926320 Ry
     hartree contribution      =   12338.76301363 Ry
     xc contribution           =    -483.57313868 Ry
     ewald contribution        =    9714.59418177 Ry
     electric field correction =       0.00128247 Ry

     convergence has been achieved in  56 iterations

     Forces acting on atoms (cartesian axes, Ry/au):

     atom    1 type  1   force =    -0.00010766   -0.00195101    0.10547906
     atom    2 type  1   force =    -0.00038419    0.00132800   -0.17931337
     atom    3 type  2   force =     0.00026176   -0.00510799   -0.03369075
     atom    4 type  2   force =     0.00051802   -0.00078023    0.04635135
     atom    5 type  2   force =    -0.01893160   -0.00017997    0.00449379
     atom    6 type  2   force =     0.01982775    0.00139926    0.00400578
     atom    7 type  1   force =    -0.00040564   -0.00012525   -0.00042064
     atom    8 type  1   force =     0.00015594    0.00075432    0.00130632
     atom    9 type  2   force =     0.00011872   -0.00045139   -0.00099848
     atom   10 type  2   force =     0.00008552    0.00005807   -0.00009138
     atom   11 type  2   force =    -0.00055465   -0.00011003    0.00015151
     atom   12 type  2   force =     0.00099241   -0.00002918    0.00019865
     atom   13 type  1   force =    -0.00048149   -0.00076716    0.00046912
     atom   14 type  1   force =    -0.00028871   -0.00002433    0.00074009
     atom   15 type  2   force =     0.00004866   -0.00042311    0.00115644
     atom   16 type  2   force =    -0.00011996   -0.00003695   -0.00006164
     atom   17 type  2   force =    -0.00040956   -0.00040543    0.00008337
     atom   18 type  2   force =     0.00056699   -0.00019244    0.00011498
     atom   19 type  1   force =    -0.00094138    0.00028285    0.00089427
     atom   20 type  1   force =     0.00058281   -0.00053579   -0.00023739
     atom   21 type  2   force =    -0.00001324   -0.00000502    0.10409449
     atom   22 type  2   force =    -0.00022598   -0.00014893    0.00009224
     atom   23 type  2   force =    -0.06931217    0.00065213   -0.02952699
     atom   24 type  2   force =     0.06902871    0.00109199   -0.02958547
     atom   25 type  1   force =    -0.00014702    0.00132357    0.11504023
     atom   26 type  1   force =    -0.00023507   -0.00150151   -0.17961390
     atom   27 type  2   force =     0.00036274    0.00380048   -0.02635082
     atom   28 type  2   force =     0.00059841   -0.00051636    0.04861671
     atom   29 type  2   force =    -0.01842372    0.00190546    0.00401866
     atom   30 type  2   force =     0.01789044    0.00351897    0.00329265
     atom   31 type  1   force =    -0.00050446    0.00059546    0.00006488
     atom   32 type  1   force =     0.00013696   -0.00150373    0.00085061
     atom   33 type  2   force =    -0.00015535    0.00046252   -0.00159665
     atom   34 type  2   force =     0.00001752   -0.00083029   -0.00159829
     atom   35 type  2   force =     0.00011441    0.00020372   -0.00031049
     atom   36 type  2   force =     0.00031575    0.00018621   -0.00028805
     atom   37 type  1   force =     0.00008772    0.00043699   -0.00063666
     atom   38 type  1   force =    -0.00010046    0.00074352    0.00041356
     atom   39 type  2   force =    -0.00008510    0.00013772    0.00002571
     atom   40 type  2   force =     0.00040019    0.00042216    0.00022789
     atom   41 type  2   force =    -0.00067540   -0.00064360   -0.00046896
     atom   42 type  2   force =     0.00090052   -0.00054134   -0.00045838
     atom   43 type  1   force =    -0.00045080   -0.00006362    0.00062885
     atom   44 type  1   force =     0.00052615   -0.00010100   -0.00075175
     atom   45 type  2   force =    -0.00002663   -0.00001965    0.10407073
     atom   46 type  2   force =    -0.06886375   -0.00086777   -0.02954920
     atom   47 type  2   force =     0.06866829   -0.00048270   -0.02961253
     atom   48 type  3   force =    -0.00017960   -0.00051141   -0.00099332
     atom   49 type  4   force =    -0.00003930    0.00041228   -0.00135419
     atom   50 type  4   force =     0.00059851   -0.00004941    0.00038187
     atom   51 type  4   force =    -0.00052587   -0.00006395    0.00039473
     atom   52 type  2   force =     0.00431146   -0.00280131    0.00131154
     atom   53 type  4   force =    -0.00362533    0.00231811   -0.00182294
     atom   54 type  4   force =    -0.00090225   -0.00026191    0.00036214

     Total force =     0.375414     Total SCF correction =     0.000844
  @ DRIVER MODE: Message from server: STATUS
  @ DRIVER MODE: Message from server: GETFORCE
  @ DRIVER MODE: Returning v,forces,stress,ensemble

     Writing output data file ./calc.save/
  @ DRIVER MODE: Message from server: EXIT
  @ DRIVE MODE: Exiting

     General routines

     Parallel routines

   This run was terminated on:  10:23:54  21Sep2021

   JOB DONE.