     Program PWSCF v.6.7GPU starts on  2Aug2021 at 12:20:11

     R & G space division:  proc/nbgrp/npool/nimage =      16
     Reading input from /storage/home/hcoda1/3/ntian30/research/carbon/02Aug_vib_paired/ads_slab/CH3NNHHH_a/out_0001/pw.inp
Warning: card &CELL ignored
Warning: card   CELL_DYNAMICS='IPI', ignored
Warning: card / ignored

     Current dimensions of program PWSCF are:
     Max number of different atomic species (ntypx) = 10
     Max number of k-points (npk) =  40000
     Max angular momentum in pseudopotentials (lmaxx) =  3
     Presently no symmetry can be used with electric field

     Message from routine cell_base_init:
     DEPRECATED: use true lattice parameter, not A to a.u. conversion factor

     IMPORTANT: XC functional enforced from input :
     Exchange-correlation= BEEF-VDW
                           (   1   4  43  14   2   0   0)
     Any further DFT definition will be discarded
     Please, verify this is what you really want

  @ DRIVER MODE: Connecting to
 qe_1139763_2482545.sched-torque.pace.gatech.eduyhqc1p98_scratch
  using UNIX socket
  @ DRIVER MODE: Message from server: STATUS
  @ DRIVER MODE: Message from server: INIT
  @ DRIVER MODE: Receiving replica           0          -1
  @ DRIVER MODE: Receiving encoded integer          25
  @ DRIVER MODE:  SCF:  T  FORCE:  T  STRESS:  F  VC:  F  ENSEMBLE:  F
  @ DRIVER MODE:  SCF:  T  FORCE:  T  STRESS:  F  VC:  F  ENSEMBLE:  F

     Using Slab Decomposition

     bravais-lattice index     =            0
     lattice parameter (alat)  =       1.8897  a.u.
     unit-cell volume          =    6658.9804 (a.u.)^3
     number of atoms/cell      =           56
     number of atomic types    =            5
     number of electrons       =       398.00
     number of Kohn-Sham states=          209
     kinetic-energy cutoff     =      29.3995  Ry
     charge density cutoff     =     293.9946  Ry
     scf convergence threshold =      7.3E-08
     mixing beta               =       0.0500
     number of iterations used =            8  plain     mixing
     Exchange-correlation= BEEF-VDW
                           (   1   4  43  14   2   0   0)

     celldm(1)=   1.889726  celldm(2)=   0.000000  celldm(3)=   0.000000
     celldm(4)=   0.000000  celldm(5)=   0.000000  celldm(6)=   0.000000

     crystal axes: (cart. coord. in units of alat)
               a(1) = (   6.579727   0.000000   0.000000 )
               a(2) = (  -0.000775   5.961596   0.000000 )
               a(3) = (   0.000000   0.000000  25.155947 )

     reciprocal axes: (cart. coord. in units 2 pi/alat)
               b(1) = (  0.151982  0.000020  0.000000 )
               b(2) = (  0.000000  0.167740  0.000000 )
               b(3) = (  0.000000  0.000000  0.039752 )

     PseudoPot. # 1 for Ti read from file:
     /storage/coda1/p-amedford6/0/shared/rich_project_chbe-medford/medford-share/data/pseudos_module/espresso/nninc/pbe/van/Ti.UPF
     MD5 check sum: 8e4df49b7f0d34bbd5052bf3f5ea0213
     Pseudo is Ultrasoft, Zval = 12.0
     Generated by new atomic code, or converted to UPF format
     Using radial grid of  851 points,  6 beta functions with:
                l(1) =   0
                l(2) =   0
                l(3) =   1
                l(4) =   1
                l(5) =   2
                l(6) =   2
     Q(r) pseudized with  8 coefficients,  rinner =    1.000   1.000   1.000
                                                       1.000   1.000

     PseudoPot. # 2 for O  read from file:
     /storage/coda1/p-amedford6/0/shared/rich_project_chbe-medford/medford-share/data/pseudos_module/espresso/nninc/pbe/van/O.UPF
     MD5 check sum: 78c19812648e8988a0fe644b0f25305e
     Pseudo is Ultrasoft, Zval =  6.0
     Generated by new atomic code, or converted to UPF format
     Using radial grid of  737 points,  4 beta functions with:
                l(1) =   0
                l(2) =   0
                l(3) =   1
                l(4) =   1
     Q(r) pseudized with  8 coefficients,  rinner =    0.800   0.800   0.800

     PseudoPot. # 3 for N  read from file:
     /storage/coda1/p-amedford6/0/shared/rich_project_chbe-medford/medford-share/data/pseudos_module/espresso/nninc/pbe/van/N.UPF
     MD5 check sum: 90d10febe142ad51ac9d5be1deb811c4
     Pseudo is Ultrasoft, Zval =  5.0
     Generated by new atomic code, or converted to UPF format
     Using radial grid of  729 points,  4 beta functions with:
                l(1) =   0
                l(2) =   0
                l(3) =   1
                l(4) =   1
     Q(r) pseudized with  8 coefficients,  rinner =    0.800   0.800   0.800

     PseudoPot. # 4 for C  read from file:
     /storage/coda1/p-amedford6/0/shared/rich_project_chbe-medford/medford-share/data/pseudos_module/espresso/nninc/pbe/van/C.UPF
     MD5 check sum: 1a69bf6b8db32088f5b2163dbdb77a27
     Pseudo is Ultrasoft, Zval =  4.0
     Generated by new atomic code, or converted to UPF format
     Using radial grid of  721 points,  4 beta functions with:
                l(1) =   0
                l(2) =   0
                l(3) =   1
                l(4) =   1
     Q(r) pseudized with  8 coefficients,  rinner =    0.800   0.800   0.800

     PseudoPot. # 5 for H  read from file:
     /storage/coda1/p-amedford6/0/shared/rich_project_chbe-medford/medford-share/data/pseudos_module/espresso/nninc/pbe/van/H.UPF
     MD5 check sum: b5ee9d7bfd3a09ee7748110bda690ff7
     Pseudo is Ultrasoft, Zval =  1.0
     Generated by new atomic code, or converted to UPF format
     Using radial grid of  615 points,  1 beta functions with:
                l(1) =   0
     Q(r) pseudized with  8 coefficients,  rinner =    0.800

     atomic species   valence    mass     pseudopotential
        Ti1           12.00    47.86700     Ti( 1.00)
        O1             6.00    15.99900     O ( 1.00)
        N1             5.00    14.00700     N ( 1.00)
        C1             4.00    12.01100     C ( 1.00)
        H1             1.00     1.00800     H ( 1.00)

     No symmetry found

   Cartesian axes

     site n.     atom                  positions (alat units)
         1           Ti1 tau(   1) = (   0.0004258   2.9801865   6.0000000  )
         2           Ti1 tau(   2) = (   3.2906075   1.4906267   6.0002472  )
         3           O1  tau(   3) = (   0.0006271   0.0005054   7.9858123  )
         4           O1  tau(   4) = (   3.2906025   0.0005020   7.3038282  )
         5           O1  tau(   5) = (   4.5942328   1.4918067   9.2879030  )
         6           O1  tau(   6) = (   1.9868534   1.4903216   9.2879459  )
         7           Ti1 tau(   7) = (   3.2907910   2.8959150   9.1758416  )
         8           Ti1 tau(   8) = (   0.0015273   1.4827037   9.2680791  )
         9           O1  tau(   9) = (   3.2969863   5.9453513  11.3493076  )
        10           O1  tau(  10) = (   0.0116148   5.9584955  10.6183126  )
        11           O1  tau(  11) = (   1.3059050   1.4736943  12.6642453  )
        12           O1  tau(  12) = (   5.3003793   1.4775083  12.6459419  )
        13           Ti1 tau(  13) = (   0.0167275   2.9625105  12.5508078  )
        14           Ti1 tau(  14) = (   3.3131340   1.4712512  12.4909780  )
        15           O1  tau(  15) = (   6.5517612   5.9325698  14.7566896  )
        16           O1  tau(  16) = (   3.3302114   5.9429442  13.9823395  )
        17           O1  tau(  17) = (   4.5243935   1.5056208  16.2316672  )
        18           O1  tau(  18) = (   2.0170937   1.4633510  16.1378485  )
        19           Ti1 tau(  19) = (   3.2500237   2.9242626  15.6920970  )
        20           Ti1 tau(  20) = (   6.5441017   1.2779805  16.1516014  )
        21           O1  tau(  21) = (   3.2904802   0.0005063   4.7018136  )
        22           O1  tau(  22) = (   6.5540411   5.9581837  17.3465722  )
        23           O1  tau(  23) = (   1.3043587   1.4918075   6.0039043  )
        24           O1  tau(  24) = (   5.2767064   1.4903225   6.0039473  )
        25           Ti1 tau(  25) = (   0.0000382   5.9609847   6.0000000  )
        26           Ti1 tau(  26) = (   3.2902200   4.4714249   6.0002472  )
        27           O1  tau(  27) = (   0.0002396   2.9813036   7.9858123  )
        28           O1  tau(  28) = (   3.2902150   2.9813002   7.3038282  )
        29           O1  tau(  29) = (   4.5938453   4.4726049   9.2879030  )
        30           O1  tau(  30) = (   1.9864658   4.4711199   9.2879459  )
        31           Ti1 tau(  31) = (   3.2891106   5.8743827   9.1763621  )
        32           Ti1 tau(  32) = (   0.0006254   4.4649316   9.2693709  )
        33           O1  tau(  33) = (   3.2962403   2.9651072  11.3429128  )
        34           O1  tau(  34) = (   0.0092240   2.9805883  10.6323155  )
        35           O1  tau(  35) = (   1.3076126   4.4641214  12.6643835  )
        36           O1  tau(  36) = (   5.2981430   4.4591552  12.6429889  )
        37           Ti1 tau(  37) = (   0.0194730   5.9489450  12.5196332  )
        38           Ti1 tau(  38) = (   3.3150505   4.4522436  12.4946186  )
        39           O1  tau(  39) = (   6.5702761   2.9869041  14.8038460  )
        40           O1  tau(  40) = (   3.3119818   2.9576719  13.9204832  )
        41           O1  tau(  41) = (   4.5223198   4.3950437  16.2490866  )
        42           O1  tau(  42) = (   2.0356696   4.4339808  16.1311045  )
        43           Ti1 tau(  43) = (   3.3057863   5.9493229  15.7677403  )
        44           Ti1 tau(  44) = (   0.0958844   4.4293496  15.8701971  )
        45           O1  tau(  45) = (   3.2900926   2.9813045   4.7018136  )
        46           O1  tau(  46) = (   1.3039711   4.4726057   6.0039043  )
        47           O1  tau(  47) = (   5.2763189   4.4711207   6.0039473  )
        48           N1  tau(  48) = (   0.0520580   3.0375546  17.6897758  )
        49           C1  tau(  49) = (   1.1116374   2.9693208  18.6984743  )
        50           H1  tau(  50) = (   1.2951007   3.9532040  19.1583453  )
        51           H1  tau(  51) = (   0.8627774   2.2426413  19.4871689  )
        52           H1  tau(  52) = (   2.0263963   2.6228967  18.2308865  )
        53           N1  tau(  53) = (   5.4279256   3.3744730  18.4033390  )
        54           H1  tau(  54) = (   5.6103604   4.1199394  19.0852601  )
        55           H1  tau(  55) = (   4.7934260   3.8076565  17.6395878  )
        56           H1  tau(  56) = (   5.0090149   2.5598412  18.8678436  )

     number of k points=    10  Fermi-Dirac smearing, width (Ry)=  0.0073
                       cart. coord. in units 2pi/alat
        k(    1) = (   0.0000000   0.0000000   0.0000000), wk =   0.1250000
        k(    2) = (   0.0000000   0.0419351   0.0000000), wk =   0.2500000
        k(    3) = (   0.0000000  -0.0838702   0.0000000), wk =   0.1250000
        k(    4) = (   0.0379955   0.0000049   0.0000000), wk =   0.2500000
        k(    5) = (   0.0379955   0.0419400   0.0000000), wk =   0.2500000
        k(    6) = (   0.0379955  -0.0838652   0.0000000), wk =   0.2500000
        k(    7) = (   0.0379955  -0.0419301   0.0000000), wk =   0.2500000
        k(    8) = (  -0.0759910  -0.0000099   0.0000000), wk =   0.1250000
        k(    9) = (  -0.0759910   0.0419252   0.0000000), wk =   0.2500000
        k(   10) = (  -0.0759910  -0.0838800   0.0000000), wk =   0.1250000

     Initial potential from superposition of free atoms

     starting charge  381.99914, renormalised to  398.00000

     negative rho (up, down):  1.617E-02 0.000E+00

     %%%%%%%%%%%%%%%%%%%%%%%%%%%%%%%%%%%%%%%%%%%%%%%%%%%%%%%%%%%%%%%%%%%%%%%%
     %                                                                      %
     % You are using vdW-DF, which was implemented by the Thonhauser group. %
     % Please cite the following two papers that made this development      %
     % possible and the two reviews that describe the various versions:     %
     %                                                                      %
     %   T. Thonhauser et al., PRL 115, 136402 (2015).                      %
     %   T. Thonhauser et al., PRB 76, 125112 (2007).                       %
     %   K. Berland et al., Rep. Prog. Phys. 78, 066501 (2015).             %
     %   D.C. Langreth et al., J. Phys.: Condens. Matter 21, 084203 (2009). %
     %                                                                      %
     %                                                                      %
     % If you are calculating the stress with vdW-DF, please also cite:     %
     %                                                                      %
     %   R. Sabatini et al., J. Phys.: Condens. Matter 24, 424209 (2012).   %
     %                                                                      %
     %%%%%%%%%%%%%%%%%%%%%%%%%%%%%%%%%%%%%%%%%%%%%%%%%%%%%%%%%%%%%%%%%%%%%%%%

     Adding external electric field

     Computed dipole along edir(3) :
        Dipole              -10.5729 Ry au,        -26.8736 Debye
        Dipole field         -0.0200 Ry au,

        Potential amp.        1.8496 Ry
        Total length         46.3494 bohr

     Starting wfcs are  302 atomic wfcs
  @ DRIVER MODE: Message from server: STATUS
  @ DRIVER MODE: Message from server: POSDATA
  @ DRIVER MODE: Reading and sharing cell
  @ DRIVER MODE: Reading and sharing positions
  @ DRIVER MODE: Received positions

     Self-consistent Calculation

     iteration #  1     ecut=    29.40 Ry     beta= 0.05
     Davidson diagonalization with overlap
     c_bands:  3 eigenvalues not converged
     c_bands:  3 eigenvalues not converged
     c_bands:  1 eigenvalues not converged
     c_bands:  5 eigenvalues not converged
     c_bands:  5 eigenvalues not converged
     c_bands:  5 eigenvalues not converged
     c_bands:  1 eigenvalues not converged
     c_bands:  4 eigenvalues not converged
     c_bands:  3 eigenvalues not converged
     ethr =  1.00E-05,  avg # of iterations = 20.0

[...]

     total energy              =   -2442.74915608 Ry
     estimated scf accuracy    <    5591.60866862 Ry

     iteration #  2     ecut=    29.40 Ry     beta= 0.05
     Davidson diagonalization with overlap
     ethr =  1.00E-02,  avg # of iterations = 24.2

[...]

     iteration # 67     ecut=    29.40 Ry     beta= 0.05
     Davidson diagonalization with overlap
     ethr =  5.50E-11,  avg # of iterations =  9.0

[...]

     total energy              =   -2942.82495684 Ry
     estimated scf accuracy    <       0.00000011 Ry

     iteration # 68     ecut=    29.40 Ry     beta= 0.05
     Davidson diagonalization with overlap
     c_bands:  2 eigenvalues not converged
     c_bands:  2 eigenvalues not converged
     ethr =  2.64E-11,  avg # of iterations = 11.8

     negative rho (up, down):  1.407E-02 0.000E+00

     Adding external electric field

     Computed dipole along edir(3) :
        Dipole                1.6025 Ry au,          4.0731 Debye
        Dipole field          0.0030 Ry au,

        Potential amp.       -0.2803 Ry
        Total length         46.3494 bohr

     End of self-consistent calculation

          k = 0.0000 0.0000 0.0000 ( 18029 PWs)   bands (ev):

   -55.1440 -55.1074 -55.1055 -55.0714 -55.0267 -55.0115 -54.9885 -54.9455
   -54.9332 -54.9251 -54.9104 -54.9003 -54.8644 -54.7940 -54.1175 -54.0835
   -31.7238 -31.5952 -31.5129 -31.4811 -31.4365 -31.4355 -31.4334 -31.4030
   -31.3990 -31.3955 -31.3688 -31.3537 -31.3505 -31.3215 -31.3038 -31.2786
   -31.2622 -31.2583 -31.2480 -31.2430 -31.2167 -31.2108 -31.2037 -31.1770
   -31.1624 -31.1559 -31.1486 -31.1411 -31.1410 -31.1299 -31.1276 -31.1217
   -31.1046 -31.0957 -31.0900 -31.0637 -31.0609 -31.0491 -31.0420 -31.0365
   -31.0255 -30.9830 -30.5261 -30.4341 -30.4119 -30.3427 -30.2560 -30.1449
   -18.9932 -16.0081 -15.7533 -15.6181 -15.3833 -15.3314 -15.2749 -15.0667
   -15.0659 -14.9941 -14.9789 -14.9305 -14.9112 -14.8439 -14.7593 -14.7371
   -14.6707 -14.6690 -14.6392 -14.6279 -14.6271 -14.5645 -14.5546 -14.5252
   -14.5122 -14.4870 -14.3689 -14.2845 -14.2259 -13.9732 -13.5457 -12.6203
   -12.5032  -9.7826  -7.7370  -7.2308  -5.4489  -3.8014  -3.3457  -3.2720
    -3.1697  -3.1417  -3.0649  -3.0352  -2.8505  -2.8294  -2.4880  -2.4496
    -2.4020  -2.3835  -2.3629  -2.3449  -2.1763  -2.1507  -2.0782  -2.0443
    -2.0259  -1.9861  -1.9695  -1.9593  -1.9257  -1.9201  -1.9110  -1.7037
    -1.6472  -1.5521  -1.5299  -1.5031  -1.4708  -1.4343  -1.4260  -1.4232
    -1.4172  -1.4036  -1.3906  -1.3108  -1.2489  -1.1717  -1.1619  -1.1267
    -1.0228  -0.9747  -0.7745  -0.7610  -0.7156  -0.6735  -0.6107  -0.5890
    -0.5228  -0.4921  -0.4719  -0.3509  -0.3225  -0.2820  -0.2541  -0.1870
    -0.1562  -0.1116  -0.0267   0.0442   0.0792   0.0978   0.1575   0.2874
     0.2986   0.3275   0.3886   0.4522   0.4930   0.5135   0.5317   0.5686
     0.6180   0.7437   0.7887   0.8082   0.8124   0.8465   0.8697   0.9206
     0.9457   1.0051   1.0106   1.1297   1.1988   1.4277   1.4620   1.4850
     1.8172   1.8408   1.9048   2.0909   2.4790   2.5262   3.9603   4.0209
     4.0777   4.0947   4.1135   4.2022   4.2182   4.4232   4.4505   4.4542
     4.4572

[...]

          k = 0.0380-0.0419 0.0000 ( 17876 PWs)   bands (ev):

[...]

          k =-0.0760-0.0000 0.0000 ( 17886 PWs)   bands (ev):

[...]

          k =-0.0760-0.0839 0.0000 ( 17948 PWs)   bands (ev):

   -55.1285 -55.1226 -55.0884 -55.0884 -55.0161 -55.0080 -54.9991 -54.9294
   -54.9285 -54.9254 -54.9178 -54.9166 -54.8606 -54.7977 -54.1006 -54.1004
   -31.5275 -31.5246 -31.4480 -31.4262 -31.4103 -31.4103 -31.3810 -31.3809
   -31.3551 -31.3493 -31.3465 -31.3459 -31.3111 -31.2771 -31.2704 -31.2659
   -31.2647 -31.2606 -31.2588 -31.2526 -31.2216 -31.2177 -31.2153 -31.2125
   -31.2077 -31.2077 -31.1941 -31.1918 -31.1641 -31.1595 -31.1440 -31.1399
   -31.1378 -31.1370 -31.1353 -31.1273 -31.1027 -31.0988 -31.0963 -31.0731
   -31.0483 -31.0308 -30.4246 -30.4245 -30.3387 -30.3386 -30.2994 -30.2993
   -18.9885 -15.5148 -15.4051 -15.2963 -15.2314 -15.1890 -15.1375 -15.1203
   -15.1099 -15.0639 -15.0345 -14.9654 -14.9015 -14.8486 -14.8476 -14.8128
   -14.7346 -14.7208 -14.7137 -14.7031 -14.6466 -14.6399 -14.6084 -14.5875
   -14.5844 -14.5546 -14.4807 -14.4782 -14.3904 -14.1818 -13.5805 -12.6049
   -12.6047  -9.7518  -7.7335  -7.1767  -5.4526  -3.8236  -3.4275  -2.7635
    -2.6526  -2.4419  -2.4161  -2.3563  -2.3350  -2.2479  -2.1889  -2.1684
    -2.1450  -2.1107  -2.1078  -2.0862  -2.0623  -2.0080  -1.9787  -1.9685
    -1.9617  -1.9478  -1.9349  -1.9140  -1.8580  -1.8481  -1.8407  -1.7984
    -1.7870  -1.7556  -1.7493  -1.7105  -1.6938  -1.6176  -1.5252  -1.5007
    -1.4414  -1.3398  -1.3266  -1.3209  -1.2276  -1.2191  -1.1896  -1.1588
    -1.1036  -1.0042  -0.9492  -0.8737  -0.8705  -0.8398  -0.7526  -0.6892
    -0.6557  -0.6460  -0.6057  -0.5494  -0.5265  -0.4932  -0.4101  -0.3692
    -0.3411  -0.3057  -0.2127  -0.1512  -0.1276  -0.0968  -0.0934  -0.0042
     0.0289   0.0658   0.0865   0.1247   0.1513   0.2187   0.2385   0.3487
     0.4182   0.4490   0.5678   0.5917   0.6562   0.7881   0.8594   0.9005
     0.9539   1.0109   1.0378   1.1683   1.1755   1.1990   1.2940   1.3344
     1.3413   1.3543   2.2636   2.2647   2.3463   2.3464   4.0926   4.1792
     4.2222   4.2598   4.3683   4.4772   4.4956   4.5384   4.5387   4.6150
     4.6241

     the Fermi energy is     4.0127 ev

!    total energy              =   -2942.82498798 Ry
     estimated scf accuracy    <       0.00000007 Ry
     smearing contrib. (-TS)   =      -0.03686572 Ry
     internal energy E=F+TS    =   -2942.78812226 Ry

     The total energy is F=E-TS. E is the sum of the following terms:
     one-electron contribution =  -23972.13788049 Ry
     hartree contribution      =   12081.54535775 Ry
     xc contribution           =    -487.77199445 Ry
     ewald contribution        =    9435.57154886 Ry
     electric field correction =       0.00484607 Ry

     convergence has been achieved in  68 iterations

     Forces acting on atoms (cartesian axes, Ry/au):

     atom    1 type  1   force =     0.00013770   -0.00024275    0.09430808
     atom    2 type  1   force =    -0.00009478   -0.00033672   -0.17739018
     atom    3 type  2   force =     0.00005608   -0.00016748   -0.02134108
     atom    4 type  2   force =    -0.00001618   -0.00172661    0.05657397
     atom    5 type  2   force =    -0.01055472   -0.00127579    0.00623408
     atom    6 type  2   force =     0.01222055   -0.00074267    0.00570718
     atom    7 type  1   force =    -0.00034141    0.00172153   -0.01623824
     atom    8 type  1   force =    -0.00010542    0.00440627    0.00557754
     atom    9 type  2   force =     0.00000578   -0.00004654   -0.00004411
     atom   10 type  2   force =    -0.00074655   -0.00022053   -0.00046984
     atom   11 type  2   force =     0.00034402    0.00011250   -0.00020782
     atom   12 type  2   force =    -0.00052821   -0.00000325   -0.00014718
     atom   13 type  1   force =     0.00001562   -0.00033300    0.00020761
     atom   14 type  1   force =     0.00057127    0.00010417   -0.00029528
     atom   15 type  2   force =    -0.00052326    0.00031879   -0.00024605
     atom   16 type  2   force =    -0.00034088    0.00018808   -0.00006071
     atom   17 type  2   force =    -0.00049643   -0.00006880    0.00019648
     atom   18 type  2   force =     0.00007750    0.00035712   -0.00012714
     atom   19 type  1   force =     0.00026594    0.00002483    0.00014973
     atom   20 type  1   force =    -0.00018352    0.00055834   -0.00009748
     atom   21 type  2   force =     0.00003360    0.00003909    0.10361664
     atom   22 type  2   force =     0.00001642   -0.00072178   -0.00059677
     atom   23 type  2   force =    -0.07081635   -0.00010167   -0.02718080
     atom   24 type  2   force =     0.07067678    0.00033458   -0.02721241
     atom   25 type  1   force =    -0.00008993   -0.00020474    0.09376813
     atom   26 type  1   force =    -0.00013270   -0.00031688   -0.17729853
     atom   27 type  2   force =     0.00008808   -0.00035578   -0.02046024
     atom   28 type  2   force =     0.00003208   -0.00144238    0.05588636
     atom   29 type  2   force =    -0.01091968   -0.00073090    0.00608739
     atom   30 type  2   force =     0.01246926   -0.00028996    0.00556349
     atom   31 type  1   force =    -0.00016062    0.00466010   -0.01719377
     atom   32 type  1   force =    -0.00003494   -0.00485170    0.00559174
     atom   33 type  2   force =     0.00005725    0.00012701    0.00027120
     atom   34 type  2   force =     0.00005724   -0.00085153   -0.00298896
     atom   35 type  2   force =     0.00023660    0.00004078    0.00005962
     atom   36 type  2   force =    -0.00043527    0.00015811   -0.00008574
     atom   37 type  1   force =    -0.00014498   -0.00011064   -0.00007239
     atom   38 type  1   force =     0.00045706   -0.00027094    0.00038455
     atom   39 type  2   force =    -0.00035227    0.00011698    0.00059493
     atom   40 type  2   force =    -0.00012496    0.00019468   -0.00019683
     atom   41 type  2   force =    -0.00000572    0.00034073    0.00011821
     atom   42 type  2   force =    -0.00021744    0.00012411    0.00002311
     atom   43 type  1   force =    -0.00032683    0.00062769    0.00009167
     atom   44 type  1   force =    -0.00046370    0.00011339   -0.00001199
     atom   45 type  2   force =     0.00002675    0.00000643    0.10362286
     atom   46 type  2   force =    -0.07081723   -0.00004253   -0.02718209
     atom   47 type  2   force =     0.07068560    0.00037851   -0.02718907
     atom   48 type  3   force =     0.01398449   -0.00199122    0.00117719
     atom   49 type  4   force =    -0.00482204    0.00002069   -0.00347001
     atom   50 type  5   force =    -0.00048422   -0.00015577   -0.00051458
     atom   51 type  5   force =    -0.00032259   -0.00006955   -0.00019258
     atom   52 type  5   force =    -0.00112109    0.00004495   -0.00046759
     atom   53 type  3   force =    -0.00449317    0.00153243    0.00280746
     atom   54 type  5   force =    -0.00001725    0.00041435    0.00013332
     atom   55 type  5   force =    -0.00111486    0.00043892   -0.00027895
     atom   56 type  5   force =    -0.00116650    0.00016695    0.00050588

     Total force =     0.365925     Total SCF correction =     0.000678
  @ DRIVER MODE: Message from server: STATUS
  @ DRIVER MODE: Message from server: GETFORCE
  @ DRIVER MODE: Returning v,forces,stress,ensemble

     Writing output data file ./calc.save/
  @ DRIVER MODE: Message from server: EXIT
  @ DRIVE MODE: Exiting

     General routines

     Parallel routines

   This run was terminated on:  12:36:19   2Aug2021

   JOB DONE.