     Program PWSCF v.6.7GPU starts on  9Sep2021 at  0:43:35

     R & G space division:  proc/nbgrp/npool/nimage =      10
     Reading input from /storage/home/hcoda1/3/ntian30/research/carbon/CxH_vib/C_calc/ads_slab/CN_a/out_0009/pw.inp
Warning: card &CELL ignored
Warning: card   CELL_DYNAMICS='IPI', ignored
Warning: card / ignored

     Current dimensions of program PWSCF are:
     Max number of different atomic species (ntypx) = 10
     Max number of k-points (npk) =  40000
     Max angular momentum in pseudopotentials (lmaxx) =  3
     Presently no symmetry can be used with electric field

     Message from routine cell_base_init:
     DEPRECATED: use true lattice parameter, not A to a.u. conversion factor

     IMPORTANT: XC functional enforced from input :
     Exchange-correlation= BEEF-VDW
                           (   1   4  43  14   2   0   0)
     Any further DFT definition will be discarded
     Please, verify this is what you really want

  @ DRIVER MODE: Connecting to
 qe_1139763_2767374.sched-torque.pace.gatech.eduhiqi7875_scratch
  using UNIX socket
  @ DRIVER MODE: Message from server: STATUS
  @ DRIVER MODE: Message from server: INIT
  @ DRIVER MODE: Receiving replica           0          -1
  @ DRIVER MODE: Receiving encoded integer          25
  @ DRIVER MODE:  SCF:  T  FORCE:  T  STRESS:  F  VC:  F  ENSEMBLE:  F
  @ DRIVER MODE:  SCF:  T  FORCE:  T  STRESS:  F  VC:  F  ENSEMBLE:  F

     Using Slab Decomposition

     bravais-lattice index     =            0
     lattice parameter (alat)  =       1.8897  a.u.
     unit-cell volume          =    6658.9804 (a.u.)^3
     number of atoms/cell      =           49
     number of atomic types    =            4
     number of electrons       =       387.00
     number of Kohn-Sham states=          203
     kinetic-energy cutoff     =      29.3995  Ry
     charge density cutoff     =     293.9946  Ry
     scf convergence threshold =      7.3E-08
     mixing beta               =       0.0500
     number of iterations used =            8  plain     mixing
     Exchange-correlation= BEEF-VDW
                           (   1   4  43  14   2   0   0)

     celldm(1)=   1.889726  celldm(2)=   0.000000  celldm(3)=   0.000000
     celldm(4)=   0.000000  celldm(5)=   0.000000  celldm(6)=   0.000000

     crystal axes: (cart. coord. in units of alat)
               a(1) = (   6.579727   0.000000   0.000000 )
               a(2) = (  -0.000775   5.961596   0.000000 )
               a(3) = (   0.000000   0.000000  25.155947 )

     reciprocal axes: (cart. coord. in units 2 pi/alat)
               b(1) = (  0.151982  0.000020  0.000000 )
               b(2) = (  0.000000  0.167740  0.000000 )
               b(3) = (  0.000000  0.000000  0.039752 )

     PseudoPot. # 1 for Ti read from file:
     /storage/coda1/p-amedford6/0/shared/rich_project_chbe-medford/medford-share/data/pseudos_module/espresso/nninc/pbe/van/Ti.UPF
     MD5 check sum: 8e4df49b7f0d34bbd5052bf3f5ea0213
     Pseudo is Ultrasoft, Zval = 12.0
     Generated by new atomic code, or converted to UPF format
     Using radial grid of  851 points,  6 beta functions with:
                l(1) =   0
                l(2) =   0
                l(3) =   1
                l(4) =   1
                l(5) =   2
                l(6) =   2
     Q(r) pseudized with  8 coefficients,  rinner =    1.000   1.000   1.000
                                                       1.000   1.000

     PseudoPot. # 2 for O  read from file:
     /storage/coda1/p-amedford6/0/shared/rich_project_chbe-medford/medford-share/data/pseudos_module/espresso/nninc/pbe/van/O.UPF
     MD5 check sum: 78c19812648e8988a0fe644b0f25305e
     Pseudo is Ultrasoft, Zval =  6.0
     Generated by new atomic code, or converted to UPF format
     Using radial grid of  737 points,  4 beta functions with:
                l(1) =   0
                l(2) =   0
                l(3) =   1
                l(4) =   1
     Q(r) pseudized with  8 coefficients,  rinner =    0.800   0.800   0.800

     PseudoPot. # 3 for N  read from file:
     /storage/coda1/p-amedford6/0/shared/rich_project_chbe-medford/medford-share/data/pseudos_module/espresso/nninc/pbe/van/N.UPF
     MD5 check sum: 90d10febe142ad51ac9d5be1deb811c4
     Pseudo is Ultrasoft, Zval =  5.0
     Generated by new atomic code, or converted to UPF format
     Using radial grid of  729 points,  4 beta functions with:
                l(1) =   0
                l(2) =   0
                l(3) =   1
                l(4) =   1
     Q(r) pseudized with  8 coefficients,  rinner =    0.800   0.800   0.800

     PseudoPot. # 4 for C  read from file:
     /storage/coda1/p-amedford6/0/shared/rich_project_chbe-medford/medford-share/data/pseudos_module/espresso/nninc/pbe/van/C.UPF
     MD5 check sum: 1a69bf6b8db32088f5b2163dbdb77a27
     Pseudo is Ultrasoft, Zval =  4.0
     Generated by new atomic code, or converted to UPF format
     Using radial grid of  721 points,  4 beta functions with:
                l(1) =   0
                l(2) =   0
                l(3) =   1
                l(4) =   1
     Q(r) pseudized with  8 coefficients,  rinner =    0.800   0.800   0.800

     atomic species   valence    mass     pseudopotential
        Ti1           12.00    47.86700     Ti( 1.00)
        O1             6.00    15.99900     O ( 1.00)
        N1             5.00    14.00700     N ( 1.00)
        C1             4.00    12.01100     C ( 1.00)

     No symmetry found

   Cartesian axes

     site n.     atom                  positions (alat units)
         1           Ti1 tau(   1) = (   0.0004258   2.9801865   6.0000000  )
         2           Ti1 tau(   2) = (   3.2906075   1.4906267   6.0002472  )
         3           O1  tau(   3) = (   0.0006271   0.0005054   7.9858123  )
         4           O1  tau(   4) = (   3.2906025   0.0005020   7.3038282  )
         5           O1  tau(   5) = (   4.5942328   1.4918067   9.2879030  )
         6           O1  tau(   6) = (   1.9868534   1.4903216   9.2879459  )
         7           Ti1 tau(   7) = (   3.2907910   2.8959150   9.1758416  )
         8           Ti1 tau(   8) = (   0.0015273   1.4827037   9.2680791  )
         9           O1  tau(   9) = (   3.2906544   5.9526486  11.3360365  )
        10           O1  tau(  10) = (   0.0116148   5.9584955  10.6183126  )
        11           O1  tau(  11) = (   1.2859751   1.4766153  12.6250921  )
        12           O1  tau(  12) = (   5.2747213   1.4793106  12.6166009  )
        13           Ti1 tau(  13) = (   0.0603843   2.9584451  12.6427671  )
        14           Ti1 tau(  14) = (   3.3778536   1.4756059  12.4863933  )
        15           O1  tau(  15) = (   6.5752277   0.0194043  14.6532461  )
        16           O1  tau(  16) = (   3.2875826   0.0023437  13.9196692  )
        17           O1  tau(  17) = (   4.5326611   1.5140167  16.0393429  )
        18           O1  tau(  18) = (   2.0377802   1.5105360  16.0392308  )
        19           Ti1 tau(  19) = (   3.2776205   2.9998382  15.7112304  )
        20           Ti1 tau(  20) = (   6.5636215   1.4772787  15.8536107  )
        21           O1  tau(  21) = (   3.2904802   0.0005063   4.7018136  )
        22           O1  tau(  22) = (   6.5677839   0.0282815  17.1640259  )
        23           O1  tau(  23) = (   1.3043587   1.4918075   6.0039043  )
        24           O1  tau(  24) = (   5.2767064   1.4903225   6.0039473  )
        25           Ti1 tau(  25) = (   0.0000382   5.9609847   6.0000000  )
        26           Ti1 tau(  26) = (   3.2902200   4.4714249   6.0002472  )
        27           O1  tau(  27) = (   0.0002396   2.9813036   7.9858123  )
        28           O1  tau(  28) = (   3.2902150   2.9813002   7.3038282  )
        29           O1  tau(  29) = (   4.5938453   4.4726049   9.2879030  )
        30           O1  tau(  30) = (   1.9864658   4.4711199   9.2879459  )
        31           Ti1 tau(  31) = (   3.2891106   5.8743827   9.1763621  )
        32           Ti1 tau(  32) = (   0.0006254   4.4649316   9.2693709  )
        33           O1  tau(  33) = (   3.2934253   2.9766276  11.3360394  )
        34           O1  tau(  34) = (   0.0092240   2.9805883  10.6323155  )
        35           O1  tau(  35) = (   1.2837843   4.4682058  12.6378402  )
        36           O1  tau(  36) = (   5.2794199   4.4724371  12.6287280  )
        37           Ti1 tau(  37) = (   0.0629162   5.9364049  12.5278104  )
        38           Ti1 tau(  38) = (   3.3790601   4.4565194  12.4925032  )
        39           O1  tau(  39) = (   6.5767340   2.9373485  14.6650829  )
        40           O1  tau(  40) = (   3.2863475   2.9847055  13.9098935  )
        41           O1  tau(  41) = (   4.5306188   4.4848726  16.0532295  )
        42           O1  tau(  42) = (   2.0355158   4.4881816  16.0516428  )
        43           Ti1 tau(  43) = (   3.2786155   0.0182257  15.7221571  )
        44           Ti1 tau(  44) = (   6.5667443   4.6373684  16.0773964  )
        45           O1  tau(  45) = (   3.2900926   2.9813045   4.7018136  )
        46           O1  tau(  46) = (   1.3039711   4.4726057   6.0039043  )
        47           O1  tau(  47) = (   5.2763189   4.4711207   6.0039473  )
        48           N1  tau(  48) = (   0.0024438   2.9903893  17.4749376  )
        49           C1  tau(  49) = (   0.0264708   2.9268645  18.6621426  )

     number of k points=    10  Fermi-Dirac smearing, width (Ry)=  0.0073
                       cart. coord. in units 2pi/alat
        k(    1) = (   0.0000000   0.0000000   0.0000000), wk =   0.1250000
        k(    2) = (   0.0000000   0.0419351   0.0000000), wk =   0.2500000
        k(    3) = (   0.0000000  -0.0838702   0.0000000), wk =   0.1250000
        k(    4) = (   0.0379955   0.0000049   0.0000000), wk =   0.2500000
        k(    5) = (   0.0379955   0.0419400   0.0000000), wk =   0.2500000
        k(    6) = (   0.0379955  -0.0838652   0.0000000), wk =   0.2500000
        k(    7) = (   0.0379955  -0.0419301   0.0000000), wk =   0.2500000
        k(    8) = (  -0.0759910  -0.0000099   0.0000000), wk =   0.1250000
        k(    9) = (  -0.0759910   0.0419252   0.0000000), wk =   0.2500000
        k(   10) = (  -0.0759910  -0.0838800   0.0000000), wk =   0.1250000

     Initial potential from superposition of free atoms

     starting charge  370.99920, renormalised to  387.00000

     negative rho (up, down):  2.000E-02 0.000E+00

     %%%%%%%%%%%%%%%%%%%%%%%%%%%%%%%%%%%%%%%%%%%%%%%%%%%%%%%%%%%%%%%%%%%%%%%%
     %                                                                      %
     % You are using vdW-DF, which was implemented by the Thonhauser group. %
     % Please cite the following two papers that made this development      %
     % possible and the two reviews that describe the various versions:     %
     %                                                                      %
     %   T. Thonhauser et al., PRL 115, 136402 (2015).                      %
     %   T. Thonhauser et al., PRB 76, 125112 (2007).                       %
     %   K. Berland et al., Rep. Prog. Phys. 78, 066501 (2015).             %
     %   D.C. Langreth et al., J. Phys.: Condens. Matter 21, 084203 (2009). %
     %                                                                      %
     %                                                                      %
     % If you are calculating the stress with vdW-DF, please also cite:     %
     %                                                                      %
     %   R. Sabatini et al., J. Phys.: Condens. Matter 24, 424209 (2012).   %
     %                                                                      %
     %%%%%%%%%%%%%%%%%%%%%%%%%%%%%%%%%%%%%%%%%%%%%%%%%%%%%%%%%%%%%%%%%%%%%%%%

     Adding external electric field

     Computed dipole along edir(3) :
        Dipole               -3.3355 Ry au,         -8.4779 Debye
        Dipole field         -0.0063 Ry au,

        Potential amp.        0.5835 Ry
        Total length         46.3494 bohr

     Starting wfcs are  292 atomic wfcs
  @ DRIVER MODE: Message from server: STATUS
  @ DRIVER MODE: Message from server: POSDATA
  @ DRIVER MODE: Reading and sharing cell
  @ DRIVER MODE: Reading and sharing positions
  @ DRIVER MODE: Received positions

     Self-consistent Calculation

     iteration #  1     ecut=    29.40 Ry     beta= 0.05
     Davidson diagonalization with overlap
     c_bands:  3 eigenvalues not converged
     c_bands:  1 eigenvalues not converged
     c_bands:  5 eigenvalues not converged
     c_bands:  1 eigenvalues not converged
     c_bands:  4 eigenvalues not converged
     ethr =  1.00E-05,  avg # of iterations = 18.6

[...]

     total energy              =   -2906.84241624 Ry
     estimated scf accuracy    <     123.54855756 Ry

[...]

     iteration #  3     ecut=    29.40 Ry     beta= 0.05
     Davidson diagonalization with overlap
     ethr =  1.00E-02,  avg # of iterations =  8.0

[...]

     iteration # 42     ecut=    29.40 Ry     beta= 0.05
     Davidson diagonalization with overlap
     c_bands:  1 eigenvalues not converged
     c_bands:  2 eigenvalues not converged
     c_bands:  2 eigenvalues not converged
     c_bands:  1 eigenvalues not converged
     ethr =  8.96E-07,  avg # of iterations = 16.0

[...]

     total energy              =   -2915.40627026 Ry
     estimated scf accuracy    <       0.00000008 Ry

     iteration # 61     ecut=    29.40 Ry     beta= 0.05
     Davidson diagonalization with overlap
     ethr =  1.98E-11,  avg # of iterations = 11.8

     negative rho (up, down):  1.873E-02 0.000E+00

     Adding external electric field

     Computed dipole along edir(3) :
        Dipole               -0.2904 Ry au,         -0.7381 Debye
        Dipole field         -0.0005 Ry au,

        Potential amp.        0.0508 Ry
        Total length         46.3494 bohr

     End of self-consistent calculation

          k = 0.0000 0.0000 0.0000 ( 18029 PWs)   bands (ev):

   -56.6724 -56.6599 -56.6383 -56.6235 -56.5380 -56.5262 -56.5033 -56.4910
   -56.4819 -56.4498 -56.4478 -56.4159 -56.4142 -56.1985 -55.6518 -55.6178
   -33.2109 -33.1553 -33.0260 -32.9992 -32.9817 -32.9673 -32.9649 -32.9401
   -32.9153 -32.8861 -32.8830 -32.8653 -32.8596 -32.8383 -32.8245 -32.8126
   -32.7969 -32.7821 -32.7771 -32.7654 -32.7429 -32.7300 -32.7294 -32.6812
   -32.6810 -32.6744 -32.6742 -32.6711 -32.6692 -32.6509 -32.6400 -32.6318
   -32.6239 -32.6167 -32.6146 -32.6089 -32.6027 -32.5851 -32.5615 -32.4439
   -32.4229 -32.4050 -32.0590 -31.9705 -31.9481 -31.8758 -31.7893 -31.6782
   -17.4108 -17.1498 -16.9176 -16.8291 -16.8030 -16.6581 -16.5217 -16.4036
   -16.3279 -16.2790 -16.2320 -16.2211 -16.2095 -16.1749 -16.1365 -16.1192
   -16.1122 -16.0914 -16.0605 -16.0501 -16.0331 -16.0124 -15.9716 -15.8461
   -15.8076 -15.7567 -15.7317 -15.7017 -15.4024 -15.3140 -14.1544 -14.0379
    -5.3018  -4.7781  -4.6312  -4.5791  -4.5213  -4.4444  -4.2906  -4.2007
    -3.9293  -3.8595  -3.8380  -3.8207  -3.7766  -3.5959  -3.5725  -3.4888
    -3.4746  -3.4718  -3.4512  -3.4335  -3.4279  -3.3743  -3.2854  -3.2298
    -3.2198  -3.1146  -3.0722  -3.0605  -2.9960  -2.9856  -2.9640  -2.9285
    -2.9103  -2.9091  -2.8880  -2.8554  -2.7482  -2.7309  -2.6434  -2.5515
    -2.4744  -2.4139  -2.2822  -2.1536  -2.1403  -2.1035  -2.0837  -2.0652
    -2.0024  -1.9696  -1.9195  -1.8411  -1.8356  -1.7876  -1.7287  -1.6572
    -1.6251  -1.5525  -1.4868  -1.4354  -1.4333  -1.4193  -1.3484  -1.1597
    -1.1169  -1.0945  -1.0521  -0.9933  -0.9459  -0.9401  -0.8790  -0.8548
    -0.8120  -0.7602  -0.7248  -0.7046  -0.6959  -0.6748  -0.6665  -0.6276
    -0.5773  -0.4729  -0.4397  -0.3989  -0.3637  -0.2549  -0.1232  -0.0451
    -0.0166   0.0994   0.2960   0.3702   0.4630   0.5085   0.5621   0.9417
     0.9874   2.4593   2.5480   2.5919   2.6082   2.6935   2.7107   2.9144
     2.9421   2.9520   3.0120

[...]

          k = 0.0380-0.0419 0.0000 ( 17876 PWs)   bands (ev):

[...]

          k =-0.0760-0.0000 0.0000 ( 17886 PWs)   bands (ev):

[...]

          k =-0.0760-0.0839 0.0000 ( 17948 PWs)   bands (ev):

   -56.6561 -56.6544 -56.6445 -56.6386 -56.5224 -56.5188 -56.5129 -56.5043
   -56.4662 -56.4630 -56.4352 -56.4307 -56.4129 -56.1997 -55.6348 -55.6347
   -33.0171 -33.0114 -32.9711 -32.9699 -32.9510 -32.9496 -32.9203 -32.9157
   -32.8737 -32.8676 -32.8509 -32.8470 -32.8090 -32.8061 -32.8048 -32.7994
   -32.7933 -32.7873 -32.7783 -32.7757 -32.7738 -32.7728 -32.7688 -32.7311
   -32.7233 -32.7169 -32.7154 -32.7129 -32.6857 -32.6673 -32.6659 -32.6645
   -32.6616 -32.6496 -32.6474 -32.6463 -32.6382 -32.6272 -32.6219 -32.4867
   -32.4499 -32.4255 -31.9608 -31.9607 -31.8719 -31.8717 -31.8326 -31.8325
   -16.8273 -16.8137 -16.6524 -16.5870 -16.5643 -16.5570 -16.5176 -16.3770
   -16.3635 -16.3625 -16.2888 -16.2535 -16.2430 -16.2134 -16.1983 -16.1949
   -16.1834 -16.1728 -16.1330 -16.1273 -16.1163 -16.1052 -16.0723 -16.0405
   -15.9925 -15.9880 -15.8100 -15.6917 -15.5840 -15.3963 -14.1399 -14.1395
    -5.1969  -4.1161  -4.0985  -3.9249  -3.8160  -3.8058  -3.7565  -3.6252
    -3.5731  -3.5656  -3.5330  -3.5152  -3.5020  -3.4944  -3.4851  -3.4561
    -3.4265  -3.3917  -3.3765  -3.3589  -3.3464  -3.3275  -3.3109  -3.3015
    -3.2852  -3.2630  -3.2300  -3.2164  -3.2005  -3.1710  -3.0388  -2.9289
    -2.8660  -2.8168  -2.8047  -2.7933  -2.7492  -2.7382  -2.7269  -2.6879
    -2.5468  -2.5098  -2.3786  -2.3766  -2.3309  -2.2757  -2.2700  -2.1314
    -2.1042  -2.0935  -2.0727  -2.0087  -1.9774  -1.9018  -1.8753  -1.8228
    -1.7975  -1.7525  -1.6792  -1.6686  -1.6413  -1.6316  -1.6234  -1.5476
    -1.5031  -1.4370  -1.4312  -1.4105  -1.3498  -1.3186  -1.2657  -1.1870
    -1.1503  -1.0174  -0.9558  -0.7709  -0.7570  -0.6567  -0.5991  -0.5819
    -0.5359  -0.4988  -0.3755  -0.3617  -0.3548  -0.2831  -0.2716  -0.2564
    -0.1471  -0.1370  -0.1168   0.0670   0.4948   0.7336   0.7346   0.8069
     0.8075   2.7689   2.7753   2.8120   2.8311   2.9635   2.9729   2.9942
     2.9960   3.1046   3.1237

     the Fermi energy is     2.4610 ev

!    total energy              =   -2915.40631126 Ry
     estimated scf accuracy    <       0.00000003 Ry
     smearing contrib. (-TS)   =      -0.02159183 Ry
     internal energy E=F+TS    =   -2915.38471943 Ry

     The total energy is F=E-TS. E is the sum of the following terms:
     one-electron contribution =  -24972.15246538 Ry
     hartree contribution      =   12561.26365966 Ry
     xc contribution           =    -477.44672549 Ry
     ewald contribution        =    9972.95065263 Ry
     electric field correction =       0.00015916 Ry

     convergence has been achieved in  61 iterations

     Forces acting on atoms (cartesian axes, Ry/au):

     atom    1 type  1   force =     0.00015244   -0.00019753    0.09635843
     atom    2 type  1   force =    -0.00010616   -0.00060127   -0.17544911
     atom    3 type  2   force =     0.00003156   -0.00003588   -0.02459668
     atom    4 type  2   force =     0.00008665   -0.00145579    0.05304448
     atom    5 type  2   force =    -0.01197880   -0.00120317    0.00381229
     atom    6 type  2   force =     0.01363498   -0.00046887    0.00269482
     atom    7 type  1   force =    -0.00107028    0.00060452   -0.01036232
     atom    8 type  1   force =     0.00048906    0.01692439    0.02648904
     atom    9 type  2   force =    -0.00005116   -0.00011466   -0.00060354
     atom   10 type  2   force =    -0.00123750    0.00037723   -0.01549765
     atom   11 type  2   force =     0.00007716    0.00021970   -0.00017382
     atom   12 type  2   force =     0.00010496    0.00034324   -0.00033945
     atom   13 type  1   force =    -0.00014339   -0.00004507    0.00007792
     atom   14 type  1   force =     0.00002415    0.00030123   -0.00031653
     atom   15 type  2   force =    -0.00012163   -0.00015248    0.00087248
     atom   16 type  2   force =    -0.00005909    0.00038822    0.00011208
     atom   17 type  2   force =     0.00005439    0.00000508    0.00010495
     atom   18 type  2   force =    -0.00017711    0.00018285    0.00023845
     atom   19 type  1   force =     0.00022655   -0.00018143    0.00016159
     atom   20 type  1   force =    -0.00017625    0.00006690   -0.00023422
     atom   21 type  2   force =     0.00009901   -0.00001051    0.10328573
     atom   22 type  2   force =     0.00056171    0.00025071    0.00025515
     atom   23 type  2   force =    -0.07142441   -0.00008463   -0.02763239
     atom   24 type  2   force =     0.07142795    0.00033921   -0.02764539
     atom   25 type  1   force =     0.00005537   -0.00022233    0.09628701
     atom   26 type  1   force =    -0.00018777   -0.00015986   -0.17555942
     atom   27 type  2   force =     0.00009845   -0.00022754   -0.02351951
     atom   28 type  2   force =     0.00011622   -0.00123408    0.05333335
     atom   29 type  2   force =    -0.01213336    0.00067348    0.00352829
     atom   30 type  2   force =     0.01370664    0.00102838    0.00241855
     atom   31 type  1   force =    -0.00092682    0.00338342   -0.01149334
     atom   32 type  1   force =     0.00066506   -0.01868372    0.02687857
     atom   33 type  2   force =    -0.00014934    0.00029677   -0.00003977
     atom   34 type  2   force =    -0.00097430    0.00039397   -0.02319661
     atom   35 type  2   force =     0.00018144    0.00000402   -0.00006583
     atom   36 type  2   force =    -0.00016488    0.00003480   -0.00021104
     atom   37 type  1   force =    -0.00022104   -0.00019359   -0.00029070
     atom   38 type  1   force =    -0.00004119    0.00028345   -0.00042569
     atom   39 type  2   force =     0.00017682   -0.00055630    0.00003140
     atom   40 type  2   force =    -0.00005540    0.00016323    0.00052379
     atom   41 type  2   force =     0.00040472   -0.00040023   -0.00003843
     atom   42 type  2   force =    -0.00044129   -0.00058176   -0.00016963
     atom   43 type  1   force =     0.00013099   -0.00002506   -0.00040088
     atom   44 type  1   force =    -0.00033044   -0.00082101    0.00041751
     atom   45 type  2   force =     0.00009638   -0.00002964    0.10328167
     atom   46 type  2   force =    -0.07143977   -0.00005108   -0.02764308
     atom   47 type  2   force =     0.07145349    0.00038740   -0.02766286
     atom   48 type  3   force =    -0.00022127    0.00034750    0.00069254
     atom   49 type  4   force =    -0.00022349    0.00073777   -0.00133217

     Total force =     0.368235     Total SCF correction =     0.000410
  @ DRIVER MODE: Message from server: STATUS
  @ DRIVER MODE: Message from server: GETFORCE
  @ DRIVER MODE: Returning v,forces,stress,ensemble

     Writing output data file ./calc.save/
  @ DRIVER MODE: Message from server: EXIT
  @ DRIVE MODE: Exiting

     General routines

     Parallel routines

   This run was terminated on:   1: 1: 2   9Sep2021

   JOB DONE.