     Program PWSCF v.6.7GPU starts on 22Sep2021 at 17:50:21

     R & G space division:  proc/nbgrp/npool/nimage =      10
     Reading input from /storage/home/hcoda1/3/ntian30/research/carbon/CxH_vib/H2O_calc/ads_slab/CH2NHHHO_a/out_0004/pw.inp
Warning: card &CELL ignored
Warning: card   CELL_DYNAMICS='IPI', ignored
Warning: card / ignored

     Current dimensions of program PWSCF are:
     Max number of different atomic species (ntypx) = 10
     Max number of k-points (npk) =  40000
     Max angular momentum in pseudopotentials (lmaxx) =  3
     Presently no symmetry can be used with electric field

     Message from routine cell_base_init:
     DEPRECATED: use true lattice parameter, not A to a.u. conversion factor

     IMPORTANT: XC functional enforced from input :
     Exchange-correlation= BEEF-VDW
                           (   1   4  43  14   2   0   0)
     Any further DFT definition will be discarded
     Please, verify this is what you really want

  @ DRIVER MODE: Connecting to
 qe_1139763_2937325.sched-torque.pace.gatech.edu68v2pt_f_scratch
  using UNIX socket
  @ DRIVER MODE: Message from server: STATUS
  @ DRIVER MODE: Message from server: INIT
  @ DRIVER MODE: Receiving replica           0          -1
  @ DRIVER MODE: Receiving encoded integer          25
  @ DRIVER MODE:  SCF:  T  FORCE:  T  STRESS:  F  VC:  F  ENSEMBLE:  F
  @ DRIVER MODE:  SCF:  T  FORCE:  T  STRESS:  F  VC:  F  ENSEMBLE:  F

     Using Slab Decomposition

     bravais-lattice index     =            0
     lattice parameter (alat)  =       1.8897  a.u.
     unit-cell volume          =    6658.9804 (a.u.)^3
     number of atoms/cell      =           55
     number of atomic types    =            5
     number of electrons       =       398.00
     number of Kohn-Sham states=          209
     kinetic-energy cutoff     =      29.3995  Ry
     charge density cutoff     =     293.9946  Ry
     scf convergence threshold =      7.3E-08
     mixing beta               =       0.0500
     number of iterations used =            8  plain     mixing
     Exchange-correlation= BEEF-VDW
                           (   1   4  43  14   2   0   0)

     celldm(1)=   1.889726  celldm(2)=   0.000000  celldm(3)=   0.000000
     celldm(4)=   0.000000  celldm(5)=   0.000000  celldm(6)=   0.000000

     crystal axes: (cart. coord. in units of alat)
               a(1) = (   6.579727   0.000000   0.000000 )
               a(2) = (  -0.000775   5.961596   0.000000 )
               a(3) = (   0.000000   0.000000  25.155947 )

     reciprocal axes: (cart. coord. in units 2 pi/alat)
               b(1) = (  0.151982  0.000020  0.000000 )
               b(2) = (  0.000000  0.167740  0.000000 )
               b(3) = (  0.000000  0.000000  0.039752 )

     PseudoPot. # 1 for Ti read from file:
     /storage/coda1/p-amedford6/0/shared/rich_project_chbe-medford/medford-share/data/pseudos_module/espresso/nninc/pbe/van/Ti.UPF
     MD5 check sum: 8e4df49b7f0d34bbd5052bf3f5ea0213
     Pseudo is Ultrasoft, Zval = 12.0
     Generated by new atomic code, or converted to UPF format
     Using radial grid of  851 points,  6 beta functions with:
                l(1) =   0
                l(2) =   0
                l(3) =   1
                l(4) =   1
                l(5) =   2
                l(6) =   2
     Q(r) pseudized with  8 coefficients,  rinner =    1.000   1.000   1.000
                                                       1.000   1.000

     PseudoPot. # 2 for O  read from file:
     /storage/coda1/p-amedford6/0/shared/rich_project_chbe-medford/medford-share/data/pseudos_module/espresso/nninc/pbe/van/O.UPF
     MD5 check sum: 78c19812648e8988a0fe644b0f25305e
     Pseudo is Ultrasoft, Zval =  6.0
     Generated by new atomic code, or converted to UPF format
     Using radial grid of  737 points,  4 beta functions with:
                l(1) =   0
                l(2) =   0
                l(3) =   1
                l(4) =   1
     Q(r) pseudized with  8 coefficients,  rinner =    0.800   0.800   0.800

     PseudoPot. # 3 for N  read from file:
     /storage/coda1/p-amedford6/0/shared/rich_project_chbe-medford/medford-share/data/pseudos_module/espresso/nninc/pbe/van/N.UPF
     MD5 check sum: 90d10febe142ad51ac9d5be1deb811c4
     Pseudo is Ultrasoft, Zval =  5.0
     Generated by new atomic code, or converted to UPF format
     Using radial grid of  729 points,  4 beta functions with:
                l(1) =   0
                l(2) =   0
                l(3) =   1
                l(4) =   1
     Q(r) pseudized with  8 coefficients,  rinner =    0.800   0.800   0.800

     PseudoPot. # 4 for C  read from file:
     /storage/coda1/p-amedford6/0/shared/rich_project_chbe-medford/medford-share/data/pseudos_module/espresso/nninc/pbe/van/C.UPF
     MD5 check sum: 1a69bf6b8db32088f5b2163dbdb77a27
     Pseudo is Ultrasoft, Zval =  4.0
     Generated by new atomic code, or converted to UPF format
     Using radial grid of  721 points,  4 beta functions with:
                l(1) =   0
                l(2) =   0
                l(3) =   1
                l(4) =   1
     Q(r) pseudized with  8 coefficients,  rinner =    0.800   0.800   0.800

     PseudoPot. # 5 for H  read from file:
     /storage/coda1/p-amedford6/0/shared/rich_project_chbe-medford/medford-share/data/pseudos_module/espresso/nninc/pbe/van/H.UPF
     MD5 check sum: b5ee9d7bfd3a09ee7748110bda690ff7
     Pseudo is Ultrasoft, Zval =  1.0
     Generated by new atomic code, or converted to UPF format
     Using radial grid of  615 points,  1 beta functions with:
                l(1) =   0
     Q(r) pseudized with  8 coefficients,  rinner =    0.800

     atomic species   valence    mass     pseudopotential
        Ti1           12.00    47.86700     Ti( 1.00)
        O1             6.00    15.99900     O ( 1.00)
        N1             5.00    14.00700     N ( 1.00)
        C1             4.00    12.01100     C ( 1.00)
        H1             1.00     1.00800     H ( 1.00)

     No symmetry found

   Cartesian axes

     site n.     atom                  positions (alat units)
         1           Ti1 tau(   1) = (   0.0004258   2.9801865   6.0000000  )
         2           Ti1 tau(   2) = (   3.2906075   1.4906267   6.0002472  )
         3           O1  tau(   3) = (   0.0006271   0.0005054   7.9858123  )
         4           O1  tau(   4) = (   3.2906025   0.0005020   7.3038282  )
         5           O1  tau(   5) = (   4.5942328   1.4918067   9.2879030  )
         6           O1  tau(   6) = (   1.9868534   1.4903216   9.2879459  )
         7           Ti1 tau(   7) = (   3.2907910   2.8959150   9.1758416  )
         8           Ti1 tau(   8) = (   0.0015273   1.4827037   9.2680791  )
         9           O1  tau(   9) = (   3.3134935   5.9450930  11.3716456  )
        10           O1  tau(  10) = (   0.0116148   5.9584955  10.6183126  )
        11           O1  tau(  11) = (   1.3009377   1.4930576  12.6823270  )
        12           O1  tau(  12) = (   5.3410967   1.4903504  12.6863499  )
        13           Ti1 tau(  13) = (   0.0342001   2.9430440  12.5112676  )
        14           Ti1 tau(  14) = (   3.3297267   1.2953541  12.7310232  )
        15           O1  tau(  15) = (   0.0493764   5.9086628  14.6689690  )
        16           O1  tau(  16) = (   3.3288597   0.0714287  14.0177558  )
        17           O1  tau(  17) = (   4.6153468   1.5975901  16.1787110  )
        18           O1  tau(  18) = (   2.0592605   1.5839887  16.0909148  )
        19           Ti1 tau(  19) = (   3.3163104   3.0362344  15.7082748  )
        20           Ti1 tau(  20) = (   0.1120434   1.3330501  15.8434463  )
        21           O1  tau(  21) = (   3.2904802   0.0005063   4.7018136  )
        22           O1  tau(  22) = (   0.0690725   0.1374024  17.2087871  )
        23           O1  tau(  23) = (   1.3043587   1.4918075   6.0039043  )
        24           O1  tau(  24) = (   5.2767064   1.4903225   6.0039473  )
        25           Ti1 tau(  25) = (   0.0000382   5.9609847   6.0000000  )
        26           Ti1 tau(  26) = (   3.2902200   4.4714249   6.0002472  )
        27           O1  tau(  27) = (   0.0002396   2.9813036   7.9858123  )
        28           O1  tau(  28) = (   3.2902150   2.9813002   7.3038282  )
        29           O1  tau(  29) = (   4.5938453   4.4726049   9.2879030  )
        30           O1  tau(  30) = (   1.9864658   4.4711199   9.2879459  )
        31           Ti1 tau(  31) = (   3.2891106   5.8743827   9.1763621  )
        32           Ti1 tau(  32) = (   0.0006254   4.4649316   9.2693709  )
        33           O1  tau(  33) = (   3.3165203   3.0043058  11.3207354  )
        34           O1  tau(  34) = (   0.0092240   2.9805883  10.6323155  )
        35           O1  tau(  35) = (   1.3050136   4.4578615  12.6552238  )
        36           O1  tau(  36) = (   5.3353050   4.4620295  12.6594116  )
        37           Ti1 tau(  37) = (   0.0330755   5.9154870  12.5003292  )
        38           Ti1 tau(  38) = (   3.3291962   4.3779952  12.4454333  )
        39           O1  tau(  39) = (   0.0233967   3.0352723  14.9286183  )
        40           O1  tau(  40) = (   3.3272303   3.0068708  13.9347379  )
        41           O1  tau(  41) = (   4.5962338   4.4808180  16.1645836  )
        42           O1  tau(  42) = (   2.0526765   4.4464907  16.1857218  )
        43           Ti1 tau(  43) = (   3.4309460   0.0633718  16.3216252  )
        44           Ti1 tau(  44) = (   0.1034465   4.5521166  15.9739525  )
        45           O1  tau(  45) = (   3.2900926   2.9813045   4.7018136  )
        46           O1  tau(  46) = (   1.3039711   4.4726057   6.0039043  )
        47           O1  tau(  47) = (   5.2763189   4.4711207   6.0039473  )
        48           N1  tau(  48) = (   6.1597698   3.4635781  18.2989460  )
        49           C1  tau(  49) = (   0.6557129   3.1470513  19.0816575  )
        50           H1  tau(  50) = (   1.2037892   3.9510289  19.5415217  )
        51           H1  tau(  51) = (   1.0557295   2.1499681  19.0337936  )
        52           H1  tau(  52) = (   5.6880836   4.3337965  18.4846543  )
        53           H1  tau(  53) = (   5.5056413   2.7003945  18.1017309  )
        54           O1  tau(  54) = (   3.2744276   0.0793712  18.1757868  )
        55           H1  tau(  55) = (   2.3604784   5.9194474  18.4805682  )

     number of k points=    10  Fermi-Dirac smearing, width (Ry)=  0.0073
                       cart. coord. in units 2pi/alat
        k(    1) = (   0.0000000   0.0000000   0.0000000), wk =   0.1250000
        k(    2) = (   0.0000000   0.0419351   0.0000000), wk =   0.2500000
        k(    3) = (   0.0000000  -0.0838702   0.0000000), wk =   0.1250000
        k(    4) = (   0.0379955   0.0000049   0.0000000), wk =   0.2500000
        k(    5) = (   0.0379955   0.0419400   0.0000000), wk =   0.2500000
        k(    6) = (   0.0379955  -0.0838652   0.0000000), wk =   0.2500000
        k(    7) = (   0.0379955  -0.0419301   0.0000000), wk =   0.2500000
        k(    8) = (  -0.0759910  -0.0000099   0.0000000), wk =   0.1250000
        k(    9) = (  -0.0759910   0.0419252   0.0000000), wk =   0.2500000
        k(   10) = (  -0.0759910  -0.0838800   0.0000000), wk =   0.1250000

     Initial potential from superposition of free atoms

     starting charge  381.99915, renormalised to  398.00000

     negative rho (up, down):  1.644E-02 0.000E+00

     %%%%%%%%%%%%%%%%%%%%%%%%%%%%%%%%%%%%%%%%%%%%%%%%%%%%%%%%%%%%%%%%%%%%%%%%
     %                                                                      %
     % You are using vdW-DF, which was implemented by the Thonhauser group. %
     % Please cite the following two papers that made this development      %
     % possible and the two reviews that describe the various versions:     %
     %                                                                      %
     %   T. Thonhauser et al., PRL 115, 136402 (2015).                      %
     %   T. Thonhauser et al., PRB 76, 125112 (2007).                       %
     %   K. Berland et al., Rep. Prog. Phys. 78, 066501 (2015).             %
     %   D.C. Langreth et al., J. Phys.: Condens. Matter 21, 084203 (2009). %
     %                                                                      %
     %                                                                      %
     % If you are calculating the stress with vdW-DF, please also cite:     %
     %                                                                      %
     %   R. Sabatini et al., J. Phys.: Condens. Matter 24, 424209 (2012).   %
     %                                                                      %
     %%%%%%%%%%%%%%%%%%%%%%%%%%%%%%%%%%%%%%%%%%%%%%%%%%%%%%%%%%%%%%%%%%%%%%%%

     Adding external electric field

     Computed dipole along edir(3) :
        Dipole              -10.2322 Ry au,        -26.0075 Debye
        Dipole field         -0.0193 Ry au,

        Potential amp.        1.7900 Ry
        Total length         46.3494 bohr

     Starting wfcs are  301 atomic wfcs
  @ DRIVER MODE: Message from server: STATUS
  @ DRIVER MODE: Message from server: POSDATA
  @ DRIVER MODE: Reading and sharing cell
  @ DRIVER MODE: Reading and sharing positions
  @ DRIVER MODE: Received positions

     Self-consistent Calculation

     iteration #  1     ecut=    29.40 Ry     beta= 0.05
     Davidson diagonalization with overlap
     c_bands:  1 eigenvalues not converged
     c_bands:  3 eigenvalues not converged
     c_bands:  2 eigenvalues not converged
     c_bands:  1 eigenvalues not converged
     c_bands:  4 eigenvalues not converged
     c_bands:  4 eigenvalues not converged
     c_bands:  4 eigenvalues not converged
     c_bands:  2 eigenvalues not converged
     c_bands:  3 eigenvalues not converged
     c_bands:  4 eigenvalues not converged
     ethr =  1.00E-05,  avg # of iterations = 20.0

[...]

     total energy              =   -2477.33478878 Ry
     estimated scf accuracy    <    5313.90568097 Ry

     iteration #  2     ecut=    29.40 Ry     beta= 0.05
     Davidson diagonalization with overlap
     ethr =  1.00E-02,  avg # of iterations = 23.5

[...]

     iteration #107     ecut=    29.40 Ry     beta= 0.05
     Davidson diagonalization with overlap
     c_bands:  1 eigenvalues not converged
     ethr =  4.31E-10,  avg # of iterations = 15.9

[...]

     total energy              =   -2953.88644853 Ry
     estimated scf accuracy    <       0.00000011 Ry

     iteration #112     ecut=    29.40 Ry     beta= 0.05
     Davidson diagonalization with overlap
     ethr =  2.68E-11,  avg # of iterations =  9.8

     negative rho (up, down):  1.575E-02 0.000E+00

     Adding external electric field

     Computed dipole along edir(3) :
        Dipole                0.8518 Ry au,          2.1650 Debye
        Dipole field          0.0016 Ry au,

        Potential amp.       -0.1490 Ry
        Total length         46.3494 bohr

     End of self-consistent calculation

          k = 0.0000 0.0000 0.0000 ( 18029 PWs)   bands (ev):

   -55.7679 -55.7162 -55.6821 -55.5848 -55.5461 -55.5451 -55.5300 -55.5114
   -55.5025 -55.4515 -55.4486 -55.3398 -55.3079 -55.2666 -54.6944 -54.6603
   -32.2019 -32.0866 -32.0699 -32.0607 -32.0487 -32.0344 -32.0066 -31.9855
   -31.9830 -31.9619 -31.9463 -31.8690 -31.8536 -31.8530 -31.8315 -31.8247
   -31.8238 -31.7940 -31.7739 -31.7467 -31.7459 -31.7383 -31.7282 -31.7254
   -31.7227 -31.7177 -31.6892 -31.6802 -31.6722 -31.6707 -31.6608 -31.6586
   -31.6476 -31.6368 -31.6174 -31.6076 -31.5342 -31.5289 -31.5121 -31.4792
   -31.4713 -31.4601 -31.1006 -31.0138 -30.9914 -30.9180 -30.8316 -30.7199
   -16.8637 -16.6108 -16.3802 -16.2143 -15.9916 -15.9392 -15.8792 -15.7069
   -15.5919 -15.5368 -15.3499 -15.2826 -15.2562 -15.2432 -15.2371 -15.2214
   -15.2082 -15.1652 -15.1477 -15.1457 -15.1401 -15.1053 -15.0780 -15.0366
   -14.9882 -14.9540 -14.8579 -14.8026 -14.7628 -14.5181 -14.4814 -13.1930
   -13.0765  -9.7890  -7.0569  -5.3165  -4.1410  -3.7437  -3.6304  -3.6195
    -3.5569  -3.5029  -3.3352  -3.2251  -3.1417  -3.1278  -2.9756  -2.8619
    -2.8159  -2.7496  -2.7120  -2.6762  -2.6386  -2.6269  -2.5947  -2.5047
    -2.4814  -2.4671  -2.4064  -2.3810  -2.3115  -2.2876  -2.2593  -2.2456
    -2.1392  -2.0866  -2.0537  -2.0456  -2.0295  -2.0007  -1.9743  -1.9670
    -1.9396  -1.8557  -1.8016  -1.7463  -1.7188  -1.7038  -1.4006  -1.3291
    -1.2938  -1.2563  -1.1670  -1.1486  -1.1145  -1.0948  -1.0789  -1.0716
    -0.9575  -0.8888  -0.8305  -0.8013  -0.7573  -0.7234  -0.6124  -0.5583
    -0.5092  -0.4689  -0.4553  -0.4320  -0.3436  -0.3176  -0.3020  -0.1997
    -0.1578  -0.0930  -0.0226  -0.0092   0.0412   0.0702   0.1097   0.1447
     0.2024   0.2354   0.2525   0.2971   0.3360   0.3468   0.4046   0.4213
     0.5171   0.6012   0.6203   0.6924   0.7808   0.8282   0.9448   1.0082
     1.2783   1.3322   1.3457   1.5238   1.8996   1.9452   3.3613   3.3985
     3.5146   3.5277   3.6045   3.6150   3.6993   3.8548   3.9046   4.0152
     4.0513

[...]

          k = 0.0380-0.0419 0.0000 ( 17876 PWs)   bands (ev):

[...]

          k =-0.0760-0.0000 0.0000 ( 17886 PWs)   bands (ev):

[...]

          k =-0.0760-0.0839 0.0000 ( 17948 PWs)   bands (ev):

   -55.7670 -55.6993 -55.6988 -55.5740 -55.5564 -55.5306 -55.5288 -55.5276
   -55.4963 -55.4579 -55.4461 -55.3360 -55.3104 -55.2703 -54.6779 -54.6767
   -32.0320 -32.0173 -32.0170 -32.0157 -31.9923 -31.9918 -31.9868 -31.9736
   -31.9168 -31.8919 -31.8743 -31.8614 -31.8568 -31.8364 -31.8210 -31.8195
   -31.8188 -31.8154 -31.8118 -31.8067 -31.7814 -31.7554 -31.7464 -31.7398
   -31.7311 -31.7300 -31.7135 -31.7124 -31.7119 -31.7032 -31.7030 -31.6809
   -31.6802 -31.6764 -31.6431 -31.6152 -31.5966 -31.5566 -31.5382 -31.5310
   -31.5198 -31.4749 -31.0046 -31.0036 -30.9142 -30.9127 -30.8754 -30.8743
   -16.8448 -16.6005 -16.0518 -15.8036 -15.7122 -15.7018 -15.5695 -15.5019
   -15.4914 -15.4495 -15.4291 -15.4066 -15.4007 -15.3770 -15.3348 -15.2831
   -15.2532 -15.2268 -15.2204 -15.1809 -15.1735 -15.1546 -15.1524 -15.1308
   -15.0808 -15.0400 -15.0265 -15.0093 -14.8264 -14.7689 -14.6415 -13.1785
   -13.1781  -9.7894  -7.0489  -5.3011  -4.1264  -3.3606  -3.1770  -3.0143
    -2.9434  -2.8822  -2.7939  -2.7510  -2.7341  -2.6913  -2.6677  -2.6455
    -2.5663  -2.5500  -2.5220  -2.5111  -2.4813  -2.4664  -2.4602  -2.4504
    -2.4068  -2.3979  -2.3866  -2.3558  -2.3483  -2.3374  -2.2985  -2.2771
    -2.2671  -2.2561  -2.2065  -2.1828  -2.1028  -2.0652  -1.9690  -1.8861
    -1.8758  -1.8525  -1.8051  -1.7934  -1.7509  -1.7346  -1.6909  -1.6155
    -1.5313  -1.4633  -1.3536  -1.3101  -1.2986  -1.2397  -1.2223  -1.1659
    -1.1316  -1.0977  -1.0690  -0.9707  -0.9390  -0.8819  -0.7659  -0.7021
    -0.6898  -0.6671  -0.6564  -0.6205  -0.5995  -0.5852  -0.5538  -0.4715
    -0.4344  -0.4192  -0.4102  -0.3734  -0.2473  -0.1249  -0.0808  -0.0200
     0.0445   0.0609   0.1154   0.1557   0.3099   0.3439   0.4400   0.4546
     0.4759   0.5887   0.5963   0.6781   0.7212   0.7642   0.7922   0.8249
     0.8297   0.8690   1.6935   1.7020   1.7655   1.7656   3.3704   3.7438
     3.8462   3.8619   3.8791   3.9205   3.9341   3.9632   3.9697   4.0326
     4.0484

     the Fermi energy is     3.4033 ev

!    total energy              =   -2953.88644900 Ry
     estimated scf accuracy    <       0.00000007 Ry
     smearing contrib. (-TS)   =      -0.02903681 Ry
     internal energy E=F+TS    =   -2953.85741219 Ry

     The total energy is F=E-TS. E is the sum of the following terms:
     one-electron contribution =  -23669.75545060 Ry
     hartree contribution      =   11925.81437472 Ry
     xc contribution           =    -488.85114194 Ry
     ewald contribution        =    9278.93343646 Ry
     electric field correction =       0.00136917 Ry

     convergence has been achieved in 112 iterations

     Forces acting on atoms (cartesian axes, Ry/au):

     atom    1 type  1   force =    -0.00001456   -0.00028321    0.09373389
     atom    2 type  1   force =    -0.00010396    0.00049194   -0.17553688
     atom    3 type  2   force =     0.00011122   -0.00024383   -0.02088332
     atom    4 type  2   force =     0.00001386   -0.00197821    0.05498367
     atom    5 type  2   force =    -0.00642684   -0.00243914    0.00277156
     atom    6 type  2   force =     0.00858834   -0.00177027    0.00360999
     atom    7 type  1   force =     0.00058849   -0.00336909    0.00970588
     atom    8 type  1   force =    -0.00066495    0.00046961    0.00111102
     atom    9 type  2   force =    -0.00001253    0.00059562   -0.00098735
     atom   10 type  2   force =    -0.00024922    0.00115837   -0.00783410
     atom   11 type  2   force =    -0.00013334   -0.00001469    0.00015310
     atom   12 type  2   force =    -0.00040152   -0.00017916    0.00001699
     atom   13 type  1   force =    -0.00026899   -0.00000086   -0.00034496
     atom   14 type  1   force =    -0.00061887    0.00039904    0.00047068
     atom   15 type  2   force =    -0.00002901    0.00121483   -0.00013938
     atom   16 type  2   force =    -0.00007358    0.00008901   -0.00026734
     atom   17 type  2   force =    -0.00042429    0.00055466   -0.00035560
     atom   18 type  2   force =     0.00023792    0.00071369   -0.00027340
     atom   19 type  1   force =     0.00005129   -0.00007971    0.00076175
     atom   20 type  1   force =    -0.00014576   -0.00084892    0.00014677
     atom   21 type  2   force =     0.00001657    0.00008900    0.10327819
     atom   22 type  2   force =    -0.00000439    0.00078688   -0.00036321
     atom   23 type  2   force =    -0.07185667   -0.00017119   -0.02712988
     atom   24 type  2   force =     0.07172066    0.00030137   -0.02721019
     atom   25 type  1   force =     0.00009228   -0.00020565    0.09354646
     atom   26 type  1   force =    -0.00024772   -0.00137430   -0.17567082
     atom   27 type  2   force =     0.00015360   -0.00015875   -0.01963224
     atom   28 type  2   force =     0.00011321   -0.00027878    0.05022646
     atom   29 type  2   force =    -0.00549390    0.00259563    0.00166373
     atom   30 type  2   force =     0.00763993    0.00269042    0.00255521
     atom   31 type  1   force =     0.00071038    0.00798308   -0.00205863
     atom   32 type  1   force =    -0.00070882   -0.00206725    0.00021464
     atom   33 type  2   force =    -0.00016937   -0.00073970   -0.00014175
     atom   34 type  2   force =     0.00011595   -0.00172700   -0.00875070
     atom   35 type  2   force =    -0.00004579   -0.00011660   -0.00059759
     atom   36 type  2   force =    -0.00018397   -0.00018611   -0.00040177
     atom   37 type  1   force =     0.00045624    0.00066147   -0.00061726
     atom   38 type  1   force =    -0.00061691   -0.00051405    0.00026517
     atom   39 type  2   force =    -0.00005125    0.00011156    0.00019734
     atom   40 type  2   force =     0.00011729    0.00002549    0.00059135
     atom   41 type  2   force =    -0.00078060   -0.00013747   -0.00010169
     atom   42 type  2   force =     0.00074877    0.00009801   -0.00079565
     atom   43 type  1   force =    -0.00025070    0.00036067   -0.00003378
     atom   44 type  1   force =    -0.00011126   -0.00121804    0.00074340
     atom   45 type  2   force =     0.00001806   -0.00005208    0.10305929
     atom   46 type  2   force =    -0.07186928   -0.00001951   -0.02714496
     atom   47 type  2   force =     0.07177252    0.00040283   -0.02723146
     atom   48 type  3   force =     0.00216648   -0.02728971   -0.00471625
     atom   49 type  4   force =    -0.00083383    0.00518229    0.00019998
     atom   50 type  5   force =     0.00034659   -0.00025712    0.00075468
     atom   51 type  5   force =    -0.00100928   -0.00054979   -0.00020783
     atom   52 type  5   force =    -0.00590629    0.01310451    0.00296895
     atom   53 type  5   force =     0.00544717    0.00859527    0.00148855
     atom   54 type  2   force =    -0.00132621   -0.00059192   -0.00071054
     atom   55 type  5   force =    -0.00019319    0.00018687    0.00091985

     Total force =     0.363555     Total SCF correction =     0.000582
  @ DRIVER MODE: Message from server: STATUS
  @ DRIVER MODE: Message from server: GETFORCE
  @ DRIVER MODE: Returning v,forces,stress,ensemble

     Writing output data file ./calc.save/
  @ DRIVER MODE: Message from server: EXIT
  @ DRIVE MODE: Exiting

     General routines

     Parallel routines

   This run was terminated on:  18:18:37  22Sep2021

   JOB DONE.