     Program PWSCF v.6.7GPU starts on 23Sep2021 at  5:30:45

     R & G space division:  proc/nbgrp/npool/nimage =      10
     Reading input from /storage/home/hcoda1/3/ntian30/research/carbon/CxH_vib/H2O_calc/ads_slab/CHNHNHH2O_b/out_0040/pw.inp
Warning: card &CELL ignored
Warning: card   CELL_DYNAMICS='IPI', ignored
Warning: card / ignored

     Current dimensions of program PWSCF are:
     Max number of different atomic species (ntypx) = 10
     Max number of k-points (npk) =  40000
     Max angular momentum in pseudopotentials (lmaxx) =  3
     Presently no symmetry can be used with electric field

     Message from routine cell_base_init:
     DEPRECATED: use true lattice parameter, not A to a.u. conversion factor

     IMPORTANT: XC functional enforced from input :
     Exchange-correlation= BEEF-VDW
                           (   1   4  43  14   2   0   0)
     Any further DFT definition will be discarded
     Please, verify this is what you really want

  @ DRIVER MODE: Connecting to
 qe_1139763_2937311.sched-torque.pace.gatech.edu_jgb90ic_scratch
  using UNIX socket
  @ DRIVER MODE: Message from server: STATUS
  @ DRIVER MODE: Message from server: INIT
  @ DRIVER MODE: Receiving replica           0          -1
  @ DRIVER MODE: Receiving encoded integer          25
  @ DRIVER MODE:  SCF:  T  FORCE:  T  STRESS:  F  VC:  F  ENSEMBLE:  F
  @ DRIVER MODE:  SCF:  T  FORCE:  T  STRESS:  F  VC:  F  ENSEMBLE:  F

     Using Slab Decomposition

     bravais-lattice index     =            0
     lattice parameter (alat)  =       1.8897  a.u.
     unit-cell volume          =    6658.9804 (a.u.)^3
     number of atoms/cell      =           56
     number of atomic types    =            5
     number of electrons       =       403.00
     number of Kohn-Sham states=          211
     kinetic-energy cutoff     =      29.3995  Ry
     charge density cutoff     =     293.9946  Ry
     scf convergence threshold =      7.3E-08
     mixing beta               =       0.0500
     number of iterations used =            8  plain     mixing
     Exchange-correlation= BEEF-VDW
                           (   1   4  43  14   2   0   0)

     celldm(1)=   1.889726  celldm(2)=   0.000000  celldm(3)=   0.000000
     celldm(4)=   0.000000  celldm(5)=   0.000000  celldm(6)=   0.000000

     crystal axes: (cart. coord. in units of alat)
               a(1) = (   6.579727   0.000000   0.000000 )
               a(2) = (  -0.000775   5.961596   0.000000 )
               a(3) = (   0.000000   0.000000  25.155947 )

     reciprocal axes: (cart. coord. in units 2 pi/alat)
               b(1) = (  0.151982  0.000020  0.000000 )
               b(2) = (  0.000000  0.167740  0.000000 )
               b(3) = (  0.000000  0.000000  0.039752 )

     PseudoPot. # 1 for Ti read from file:
     /storage/coda1/p-amedford6/0/shared/rich_project_chbe-medford/medford-share/data/pseudos_module/espresso/nninc/pbe/van/Ti.UPF
     MD5 check sum: 8e4df49b7f0d34bbd5052bf3f5ea0213
     Pseudo is Ultrasoft, Zval = 12.0
     Generated by new atomic code, or converted to UPF format
     Using radial grid of  851 points,  6 beta functions with:
                l(1) =   0
                l(2) =   0
                l(3) =   1
                l(4) =   1
                l(5) =   2
                l(6) =   2
     Q(r) pseudized with  8 coefficients,  rinner =    1.000   1.000   1.000
                                                       1.000   1.000

     PseudoPot. # 2 for O  read from file:
     /storage/coda1/p-amedford6/0/shared/rich_project_chbe-medford/medford-share/data/pseudos_module/espresso/nninc/pbe/van/O.UPF
     MD5 check sum: 78c19812648e8988a0fe644b0f25305e
     Pseudo is Ultrasoft, Zval =  6.0
     Generated by new atomic code, or converted to UPF format
     Using radial grid of  737 points,  4 beta functions with:
                l(1) =   0
                l(2) =   0
                l(3) =   1
                l(4) =   1
     Q(r) pseudized with  8 coefficients,  rinner =    0.800   0.800   0.800

     PseudoPot. # 3 for N  read from file:
     /storage/coda1/p-amedford6/0/shared/rich_project_chbe-medford/medford-share/data/pseudos_module/espresso/nninc/pbe/van/N.UPF
     MD5 check sum: 90d10febe142ad51ac9d5be1deb811c4
     Pseudo is Ultrasoft, Zval =  5.0
     Generated by new atomic code, or converted to UPF format
     Using radial grid of  729 points,  4 beta functions with:
                l(1) =   0
                l(2) =   0
                l(3) =   1
                l(4) =   1
     Q(r) pseudized with  8 coefficients,  rinner =    0.800   0.800   0.800

     PseudoPot. # 4 for C  read from file:
     /storage/coda1/p-amedford6/0/shared/rich_project_chbe-medford/medford-share/data/pseudos_module/espresso/nninc/pbe/van/C.UPF
     MD5 check sum: 1a69bf6b8db32088f5b2163dbdb77a27
     Pseudo is Ultrasoft, Zval =  4.0
     Generated by new atomic code, or converted to UPF format
     Using radial grid of  721 points,  4 beta functions with:
                l(1) =   0
                l(2) =   0
                l(3) =   1
                l(4) =   1
     Q(r) pseudized with  8 coefficients,  rinner =    0.800   0.800   0.800

     PseudoPot. # 5 for H  read from file:
     /storage/coda1/p-amedford6/0/shared/rich_project_chbe-medford/medford-share/data/pseudos_module/espresso/nninc/pbe/van/H.UPF
     MD5 check sum: b5ee9d7bfd3a09ee7748110bda690ff7
     Pseudo is Ultrasoft, Zval =  1.0
     Generated by new atomic code, or converted to UPF format
     Using radial grid of  615 points,  1 beta functions with:
                l(1) =   0
     Q(r) pseudized with  8 coefficients,  rinner =    0.800

     atomic species   valence    mass     pseudopotential
        Ti1           12.00    47.86700     Ti( 1.00)
        O1             6.00    15.99900     O ( 1.00)
        N1             5.00    14.00700     N ( 1.00)
        C1             4.00    12.01100     C ( 1.00)
        H1             1.00     1.00800     H ( 1.00)

     No symmetry found

   Cartesian axes

     site n.     atom                  positions (alat units)
         1           Ti1 tau(   1) = (   0.0004258   2.9801865   6.0000000  )
         2           Ti1 tau(   2) = (   3.2906075   1.4906267   6.0002472  )
         3           O1  tau(   3) = (   0.0006271   0.0005054   7.9858123  )
         4           O1  tau(   4) = (   3.2906025   0.0005020   7.3038282  )
         5           O1  tau(   5) = (   4.5942328   1.4918067   9.2879030  )
         6           O1  tau(   6) = (   1.9868534   1.4903216   9.2879459  )
         7           Ti1 tau(   7) = (   3.2907910   2.8959150   9.1758416  )
         8           Ti1 tau(   8) = (   0.0015273   1.4827037   9.2680791  )
         9           O1  tau(   9) = (   3.2780774   5.9605562  11.3537357  )
        10           O1  tau(  10) = (   0.0116148   5.9584955  10.6183126  )
        11           O1  tau(  11) = (   1.2922713   1.4781662  12.6511241  )
        12           O1  tau(  12) = (   5.2965393   1.5043564  12.6031353  )
        13           Ti1 tau(  13) = (   6.5273184   3.0207086  12.5807821  )
        14           Ti1 tau(  14) = (   3.2344070   1.4559942  12.5004267  )
        15           O1  tau(  15) = (   6.4759410   0.0295824  14.6525783  )
        16           O1  tau(  16) = (   3.3604338   0.0238249  13.9383540  )
        17           O1  tau(  17) = (   4.5324113   1.5808541  16.1066768  )
        18           O1  tau(  18) = (   1.9684897   1.4712893  15.8817925  )
        19           Ti1 tau(  19) = (   3.2566353   3.0739815  15.8599551  )
        20           Ti1 tau(  20) = (   6.5466614   1.5318677  15.7800735  )
        21           O1  tau(  21) = (   3.2904802   0.0005063   4.7018136  )
        22           O1  tau(  22) = (   6.5744325   0.0155309  17.2227980  )
        23           O1  tau(  23) = (   1.3043587   1.4918075   6.0039043  )
        24           O1  tau(  24) = (   5.2767064   1.4903225   6.0039473  )
        25           Ti1 tau(  25) = (   0.0000382   5.9609847   6.0000000  )
        26           Ti1 tau(  26) = (   3.2902200   4.4714249   6.0002472  )
        27           O1  tau(  27) = (   0.0002396   2.9813036   7.9858123  )
        28           O1  tau(  28) = (   3.2902150   2.9813002   7.3038282  )
        29           O1  tau(  29) = (   4.5938453   4.4726049   9.2879030  )
        30           O1  tau(  30) = (   1.9864658   4.4711199   9.2879459  )
        31           Ti1 tau(  31) = (   3.2891106   5.8743827   9.1763621  )
        32           Ti1 tau(  32) = (   0.0006254   4.4649316   9.2693709  )
        33           O1  tau(  33) = (   3.2727763   2.9788165  11.3438337  )
        34           O1  tau(  34) = (   0.0092240   2.9805883  10.6323155  )
        35           O1  tau(  35) = (   1.2865780   4.4896361  12.6556599  )
        36           O1  tau(  36) = (   5.2967437   4.4749066  12.6066920  )
        37           Ti1 tau(  37) = (   6.5467059   0.0356701  12.5108493  )
        38           Ti1 tau(  38) = (   3.2305653   4.4019604  12.5605372  )
        39           O1  tau(  39) = (   6.5199767   2.9846217  14.6905747  )
        40           O1  tau(  40) = (   3.2851694   3.0254550  13.9321539  )
        41           O1  tau(  41) = (   4.5310495   4.4602642  16.1636806  )
        42           O1  tau(  42) = (   1.9842988   4.5744318  15.9411167  )
        43           Ti1 tau(  43) = (   3.2691225   0.1036042  15.7405456  )
        44           Ti1 tau(  44) = (   6.5697781   4.6877429  16.0360384  )
        45           O1  tau(  45) = (   3.2900926   2.9813045   4.7018136  )
        46           O1  tau(  46) = (   1.3039711   4.4726057   6.0039043  )
        47           O1  tau(  47) = (   5.2763189   4.4711207   6.0039473  )
        48           N1  tau(  48) = (   1.2792381   2.8578196  18.3696018  )
        49           N1  tau(  49) = (   0.1888888   2.9646215  17.5057353  )
        50           C1  tau(  50) = (   2.5352320   2.9081513  18.0382144  )
        51           H1  tau(  51) = (   3.1442446   2.7411670  18.9317345  )
        52           H1  tau(  52) = (   1.0014291   2.6635404  19.3302151  )
        53           H1  tau(  53) = (   5.9397212   2.8571719  18.0851170  )
        54           O1  tau(  54) = (   3.2630597   0.0441043  18.2348460  )
        55           H1  tau(  55) = (   4.0455299   5.4198958  18.2485053  )
        56           H1  tau(  56) = (   2.4923979   5.4091459  18.3156537  )

     number of k points=    10  Fermi-Dirac smearing, width (Ry)=  0.0073
                       cart. coord. in units 2pi/alat
        k(    1) = (   0.0000000   0.0000000   0.0000000), wk =   0.1250000
        k(    2) = (   0.0000000   0.0419351   0.0000000), wk =   0.2500000
        k(    3) = (   0.0000000  -0.0838702   0.0000000), wk =   0.1250000
        k(    4) = (   0.0379955   0.0000049   0.0000000), wk =   0.2500000
        k(    5) = (   0.0379955   0.0419400   0.0000000), wk =   0.2500000
        k(    6) = (   0.0379955  -0.0838652   0.0000000), wk =   0.2500000
        k(    7) = (   0.0379955  -0.0419301   0.0000000), wk =   0.2500000
        k(    8) = (  -0.0759910  -0.0000099   0.0000000), wk =   0.1250000
        k(    9) = (  -0.0759910   0.0419252   0.0000000), wk =   0.2500000
        k(   10) = (  -0.0759910  -0.0838800   0.0000000), wk =   0.1250000

     Initial potential from superposition of free atoms

     starting charge  386.99914, renormalised to  403.00000

     negative rho (up, down):  1.739E-02 0.000E+00

     %%%%%%%%%%%%%%%%%%%%%%%%%%%%%%%%%%%%%%%%%%%%%%%%%%%%%%%%%%%%%%%%%%%%%%%%
     %                                                                      %
     % You are using vdW-DF, which was implemented by the Thonhauser group. %
     % Please cite the following two papers that made this development      %
     % possible and the two reviews that describe the various versions:     %
     %                                                                      %
     %   T. Thonhauser et al., PRL 115, 136402 (2015).                      %
     %   T. Thonhauser et al., PRB 76, 125112 (2007).                       %
     %   K. Berland et al., Rep. Prog. Phys. 78, 066501 (2015).             %
     %   D.C. Langreth et al., J. Phys.: Condens. Matter 21, 084203 (2009). %
     %                                                                      %
     %                                                                      %
     % If you are calculating the stress with vdW-DF, please also cite:     %
     %                                                                      %
     %   R. Sabatini et al., J. Phys.: Condens. Matter 24, 424209 (2012).   %
     %                                                                      %
     %%%%%%%%%%%%%%%%%%%%%%%%%%%%%%%%%%%%%%%%%%%%%%%%%%%%%%%%%%%%%%%%%%%%%%%%

     Adding external electric field

     Computed dipole along edir(3) :
        Dipole              -12.3463 Ry au,        -31.3811 Debye
        Dipole field         -0.0233 Ry au,

        Potential amp.        2.1598 Ry
        Total length         46.3494 bohr

     Starting wfcs are  305 atomic wfcs
  @ DRIVER MODE: Message from server: STATUS
  @ DRIVER MODE: Message from server: POSDATA
  @ DRIVER MODE: Reading and sharing cell
  @ DRIVER MODE: Reading and sharing positions
  @ DRIVER MODE: Received positions

     Self-consistent Calculation

     iteration #  1     ecut=    29.40 Ry     beta= 0.05
     Davidson diagonalization with overlap
     c_bands:  5 eigenvalues not converged
     c_bands:  3 eigenvalues not converged
     c_bands:  3 eigenvalues not converged
     c_bands:  1 eigenvalues not converged
     c_bands:  2 eigenvalues not converged
     c_bands:  2 eigenvalues not converged
     c_bands:  5 eigenvalues not converged
     c_bands:  2 eigenvalues not converged
     c_bands:  4 eigenvalues not converged
     ethr =  1.00E-05,  avg # of iterations = 29.3

[...]

     total energy              =   -2358.74979022 Ry
     estimated scf accuracy    <    6971.35110418 Ry

     iteration #  2     ecut=    29.40 Ry     beta= 0.05
     Davidson diagonalization with overlap
     ethr =  1.00E-02,  avg # of iterations = 26.2

[...]

     iteration # 66     ecut=    29.40 Ry     beta= 0.05
     Davidson diagonalization with overlap
     c_bands:  1 eigenvalues not converged
     ethr =  3.12E-11,  avg # of iterations = 15.3

[...]

     total energy              =   -2973.93997557 Ry
     estimated scf accuracy    <       0.00000014 Ry

     iteration # 67     ecut=    29.40 Ry     beta= 0.05
     Davidson diagonalization with overlap
     ethr =  3.12E-11,  avg # of iterations =  7.0

     negative rho (up, down):  1.725E-02 0.000E+00

     Adding external electric field

     Computed dipole along edir(3) :
        Dipole                1.3983 Ry au,          3.5542 Debye
        Dipole field          0.0026 Ry au,

        Potential amp.       -0.2446 Ry
        Total length         46.3494 bohr

     End of self-consistent calculation

          k = 0.0000 0.0000 0.0000 ( 18029 PWs)   bands (ev):

   -55.3196 -55.2855 -55.2104 -55.1858 -55.1675 -55.1559 -55.1405 -55.1187
   -55.1067 -55.1046 -55.0977 -55.0632 -54.9921 -54.8341 -54.3002 -54.2662
   -31.8038 -31.7314 -31.6570 -31.6503 -31.6403 -31.6116 -31.5874 -31.5648
   -31.5199 -31.5012 -31.4720 -31.4642 -31.4556 -31.4409 -31.4257 -31.4216
   -31.3984 -31.3804 -31.3769 -31.3652 -31.3356 -31.3332 -31.3291 -31.3261
   -31.3232 -31.3194 -31.3152 -31.2973 -31.2893 -31.2793 -31.2725 -31.2722
   -31.2622 -31.2607 -31.2522 -31.2483 -31.2402 -31.2147 -31.2103 -31.0903
   -31.0754 -31.0494 -30.7071 -30.6190 -30.5966 -30.5240 -30.4376 -30.3263
   -18.8284 -18.6494 -15.9780 -15.7942 -15.6132 -15.4741 -15.3921 -15.1605
   -15.1021 -15.0636 -14.9826 -14.9600 -14.8591 -14.8406 -14.8391 -14.8205
   -14.8177 -14.7625 -14.7472 -14.7428 -14.6944 -14.6875 -14.6623 -14.6468
   -14.5945 -14.5155 -14.5070 -14.4605 -14.4153 -14.3688 -14.0224 -13.4139
   -12.8008 -12.6843  -8.8035  -7.2712  -6.5141  -4.3226  -3.7971  -3.3611
    -3.2849  -3.2494  -3.2244  -3.0889  -2.9722  -2.8819  -2.7559  -2.6735
    -2.5849  -2.4804  -2.4236  -2.3786  -2.3183  -2.2580  -2.2314  -2.1459
    -2.1263  -2.1065  -2.0843  -2.0580  -2.0285  -1.9922  -1.8687  -1.8584
    -1.7764  -1.7199  -1.6798  -1.6636  -1.6397  -1.6339  -1.6020  -1.5811
    -1.5723  -1.5610  -1.5584  -1.5234  -1.3851  -1.3604  -1.3323  -1.3102
    -1.1636  -1.0261  -0.9374  -0.9347  -0.8250  -0.7605  -0.7573  -0.7188
    -0.7032  -0.6007  -0.5156  -0.4786  -0.4543  -0.3739  -0.3169  -0.2626
    -0.2111  -0.1750  -0.1092  -0.0853  -0.0686  -0.0516   0.0173   0.0799
     0.1409   0.2262   0.2698   0.2941   0.3848   0.3992   0.4223   0.4871
     0.5191   0.5640   0.5994   0.6286   0.6522   0.6825   0.7078   0.7510
     0.7891   0.9148   0.9331   0.9616   0.9826   1.1571   1.2068   1.3092
     1.3397   1.4412   1.4838   1.6627   1.7240   1.8032   1.9158   2.2940
     2.3398   3.7895   3.9008   3.9349   3.9598   3.9991   4.0504   4.2572
     4.3301   4.3712   4.4283

[...]

          k = 0.0380-0.0419 0.0000 ( 17876 PWs)   bands (ev):

[...]

          k =-0.0760-0.0000 0.0000 ( 17886 PWs)   bands (ev):

[...]

          k =-0.0760-0.0839 0.0000 ( 17948 PWs)   bands (ev):

   -55.3029 -55.3021 -55.2009 -55.1824 -55.1762 -55.1443 -55.1306 -55.1237
   -55.1229 -55.1083 -55.0845 -55.0766 -54.9904 -54.8357 -54.2832 -54.2831
   -31.6194 -31.6187 -31.5973 -31.5966 -31.5655 -31.5335 -31.5023 -31.4900
   -31.4830 -31.4678 -31.4491 -31.4441 -31.4398 -31.4306 -31.4255 -31.4237
   -31.4223 -31.4217 -31.4168 -31.4011 -31.3900 -31.3761 -31.3654 -31.3632
   -31.3581 -31.3537 -31.3444 -31.3320 -31.3260 -31.3245 -31.3093 -31.3001
   -31.2969 -31.2962 -31.2944 -31.2916 -31.2617 -31.2335 -31.2195 -31.1464
   -31.0926 -31.0784 -30.6093 -30.6093 -30.5199 -30.5198 -30.4809 -30.4808
   -18.8145 -18.6589 -15.3553 -15.3203 -15.2823 -15.2549 -15.2389 -15.1181
   -15.1047 -15.0689 -15.0273 -15.0142 -14.9838 -14.9551 -14.9062 -14.8977
   -14.8634 -14.8439 -14.8047 -14.7783 -14.7589 -14.7546 -14.7379 -14.7162
   -14.6727 -14.6509 -14.6384 -14.6341 -14.5821 -14.4878 -14.2076 -13.4365
   -12.7861 -12.7860  -8.7994  -7.1967  -6.5154  -4.5330  -3.5721  -2.8866
    -2.6698  -2.6309  -2.5815  -2.4884  -2.4411  -2.3192  -2.3128  -2.2904
    -2.2447  -2.2317  -2.1908  -2.1508  -2.1446  -2.1169  -2.1043  -2.0599
    -2.0483  -2.0456  -2.0311  -1.9966  -1.9919  -1.9713  -1.9469  -1.9437
    -1.9341  -1.9176  -1.8845  -1.8775  -1.8507  -1.8315  -1.6788  -1.6080
    -1.5631  -1.4859  -1.4626  -1.4459  -1.4268  -1.3920  -1.3718  -1.3463
    -1.3178  -1.1717  -1.0294  -0.9967  -0.9714  -0.8732  -0.8582  -0.8386
    -0.7917  -0.7505  -0.7148  -0.6561  -0.6479  -0.6013  -0.5805  -0.4603
    -0.4228  -0.3226  -0.2882  -0.2868  -0.2682  -0.2544  -0.2370  -0.2110
    -0.1614  -0.0901  -0.0748  -0.0260  -0.0022   0.0004   0.0134   0.1592
     0.2301   0.2506   0.3532   0.3830   0.5578   0.7216   0.7337   0.8017
     0.8645   0.9194   0.9534   0.9934   1.0035   1.0693   1.0940   1.1985
     1.2088   1.2577   1.2626   1.3416   1.3541   2.0877   2.0893   2.1598
     2.1599   4.1532   4.1685   4.1972   4.2602   4.3037   4.3153   4.3530
     4.3565   4.4596   4.4761

     the Fermi energy is     3.8076 ev

!    total energy              =   -2973.94000334 Ry
     estimated scf accuracy    <       0.00000007 Ry
     smearing contrib. (-TS)   =      -0.02072629 Ry
     internal energy E=F+TS    =   -2973.91927705 Ry

     The total energy is F=E-TS. E is the sum of the following terms:
     one-electron contribution =  -24338.87536490 Ry
     hartree contribution      =   12267.15247195 Ry
     xc contribution           =    -494.10729532 Ry
     ewald contribution        =    9591.90722126 Ry
     electric field correction =       0.00368996 Ry

     convergence has been achieved in  67 iterations

     Forces acting on atoms (cartesian axes, Ry/au):

     atom    1 type  1   force =     0.00003195   -0.00010233    0.09507899
     atom    2 type  1   force =     0.00017911   -0.00068175   -0.17564484
     atom    3 type  2   force =     0.00008872   -0.00004704   -0.02293948
     atom    4 type  2   force =     0.00002168   -0.00143300    0.05290389
     atom    5 type  2   force =    -0.01000476   -0.00031264    0.00381232
     atom    6 type  2   force =     0.01112773    0.00020428    0.00206860
     atom    7 type  1   force =    -0.00021492    0.00178703   -0.00589289
     atom    8 type  1   force =     0.00081012    0.01008939    0.01604583
     atom    9 type  2   force =    -0.00015696    0.00086507    0.00032888
     atom   10 type  2   force =    -0.00227251    0.00217670   -0.01800890
     atom   11 type  2   force =     0.00023854   -0.00002885    0.00007640
     atom   12 type  2   force =    -0.00034853   -0.00018287    0.00055775
     atom   13 type  1   force =    -0.00002535    0.00125386    0.00017474
     atom   14 type  1   force =    -0.00011727    0.00007851   -0.00001268
     atom   15 type  2   force =     0.00011768    0.00020405   -0.00002416
     atom   16 type  2   force =    -0.00036929    0.00043708   -0.00027479
     atom   17 type  2   force =    -0.00011246   -0.00011403   -0.00015611
     atom   18 type  2   force =    -0.00005770    0.00008601    0.00032011
     atom   19 type  1   force =    -0.00053322    0.00016305   -0.00028992
     atom   20 type  1   force =    -0.00027969   -0.00016565    0.00017829
     atom   21 type  2   force =     0.00009194   -0.00008502    0.10319671
     atom   22 type  2   force =     0.00037586   -0.00003724    0.00044794
     atom   23 type  2   force =    -0.07159648   -0.00016517   -0.02757822
     atom   24 type  2   force =     0.07155508    0.00025021   -0.02762709
     atom   25 type  1   force =     0.00023371   -0.00039506    0.09518987
     atom   26 type  1   force =    -0.00003497   -0.00020889   -0.17580766
     atom   27 type  2   force =     0.00012179   -0.00012307   -0.02196821
     atom   28 type  2   force =     0.00001389   -0.00139791    0.05323158
     atom   29 type  2   force =    -0.01035140   -0.00022685    0.00365634
     atom   30 type  2   force =     0.01138859    0.00042481    0.00192340
     atom   31 type  1   force =    -0.00029795    0.00265852   -0.00009127
     atom   32 type  1   force =     0.00067137   -0.01115138    0.01692391
     atom   33 type  2   force =     0.00037039   -0.00027116    0.00001185
     atom   34 type  2   force =    -0.00033901    0.00144147   -0.01893938
     atom   35 type  2   force =    -0.00000623   -0.00035580   -0.00016840
     atom   36 type  2   force =    -0.00000321   -0.00024815    0.00043240
     atom   37 type  1   force =    -0.00004815   -0.00123112    0.00033696
     atom   38 type  1   force =    -0.00039254    0.00090525    0.00004868
     atom   39 type  2   force =     0.00009012    0.00010127    0.00007531
     atom   40 type  2   force =    -0.00049002   -0.00058613    0.00000641
     atom   41 type  2   force =     0.00008578   -0.00002726    0.00051962
     atom   42 type  2   force =    -0.00012608   -0.00026807   -0.00010186
     atom   43 type  1   force =    -0.00026133    0.00001617    0.00045000
     atom   44 type  1   force =     0.00006259   -0.00023978    0.00027631
     atom   45 type  2   force =     0.00010064   -0.00010322    0.10321931
     atom   46 type  2   force =    -0.07158410   -0.00017237   -0.02757103
     atom   47 type  2   force =     0.07158270    0.00024254   -0.02758208
     atom   48 type  3   force =     0.00006461   -0.00044415    0.00022435
     atom   49 type  3   force =     0.00013006    0.00008484   -0.00008585
     atom   50 type  4   force =     0.00040444    0.00001886    0.00053748
     atom   51 type  5   force =    -0.00018426   -0.00048990   -0.00026118
     atom   52 type  5   force =    -0.00002498   -0.00105399   -0.00081284
     atom   53 type  5   force =     0.00016823   -0.00042056   -0.00060360
     atom   54 type  2   force =    -0.00008068   -0.01514769    0.00112290
     atom   55 type  5   force =    -0.00670750    0.00740095   -0.00038949
     atom   56 type  5   force =     0.00689425    0.00702815   -0.00054521

     Total force =     0.365785     Total SCF correction =     0.000802
  @ DRIVER MODE: Message from server: STATUS
  @ DRIVER MODE: Message from server: GETFORCE
  @ DRIVER MODE: Returning v,forces,stress,ensemble

     Writing output data file ./calc.save/
  @ DRIVER MODE: Message from server: EXIT
  @ DRIVE MODE: Exiting

     General routines

     Parallel routines

   This run was terminated on:   5:50:48  23Sep2021

   JOB DONE.