     Program PWSCF v.6.7GPU starts on 28Sep2021 at 23:53:46

     R & G space division:  proc/nbgrp/npool/nimage =       8
     Reading input from /storage/home/hcoda1/3/ntian30/research/carbon/CxH_vib/H2O_calc/ads_slab/CHNHNH2HO_b/out_0032/pw.inp
Warning: card &CELL ignored
Warning: card   CELL_DYNAMICS='IPI', ignored
Warning: card / ignored

     Current dimensions of program PWSCF are:
     Max number of different atomic species (ntypx) = 10
     Max number of k-points (npk) =  40000
     Max angular momentum in pseudopotentials (lmaxx) =  3
     Presently no symmetry can be used with electric field

     Message from routine cell_base_init:
     DEPRECATED: use true lattice parameter, not A to a.u. conversion factor

     IMPORTANT: XC functional enforced from input :
     Exchange-correlation= BEEF-VDW
                           (   1   4  43  14   2   0   0)
     Any further DFT definition will be discarded
     Please, verify this is what you really want

  @ DRIVER MODE: Connecting to
 qe_1139763_3009830.sched-torque.pace.gatech.edumcqw0a_5_scratch
  using UNIX socket
  @ DRIVER MODE: Message from server: STATUS
  @ DRIVER MODE: Message from server: INIT
  @ DRIVER MODE: Receiving replica           0          -1
  @ DRIVER MODE: Receiving encoded integer          25
  @ DRIVER MODE:  SCF:  T  FORCE:  T  STRESS:  F  VC:  F  ENSEMBLE:  F
  @ DRIVER MODE:  SCF:  T  FORCE:  T  STRESS:  F  VC:  F  ENSEMBLE:  F

     Using Slab Decomposition

     bravais-lattice index     =            0
     lattice parameter (alat)  =       1.8897  a.u.
     unit-cell volume          =    6658.9804 (a.u.)^3
     number of atoms/cell      =           56
     number of atomic types    =            5
     number of electrons       =       403.00
     number of Kohn-Sham states=          211
     kinetic-energy cutoff     =      29.3995  Ry
     charge density cutoff     =     293.9946  Ry
     scf convergence threshold =      7.3E-08
     mixing beta               =       0.0500
     number of iterations used =            8  plain     mixing
     Exchange-correlation= BEEF-VDW
                           (   1   4  43  14   2   0   0)

     celldm(1)=   1.889726  celldm(2)=   0.000000  celldm(3)=   0.000000
     celldm(4)=   0.000000  celldm(5)=   0.000000  celldm(6)=   0.000000

     crystal axes: (cart. coord. in units of alat)
               a(1) = (   6.579727   0.000000   0.000000 )
               a(2) = (  -0.000775   5.961596   0.000000 )
               a(3) = (   0.000000   0.000000  25.155947 )

     reciprocal axes: (cart. coord. in units 2 pi/alat)
               b(1) = (  0.151982  0.000020  0.000000 )
               b(2) = (  0.000000  0.167740  0.000000 )
               b(3) = (  0.000000  0.000000  0.039752 )

     PseudoPot. # 1 for Ti read from file:
     /storage/coda1/p-amedford6/0/shared/rich_project_chbe-medford/medford-share/data/pseudos_module/espresso/nninc/pbe/van/Ti.UPF
     MD5 check sum: 8e4df49b7f0d34bbd5052bf3f5ea0213
     Pseudo is Ultrasoft, Zval = 12.0
     Generated by new atomic code, or converted to UPF format
     Using radial grid of  851 points,  6 beta functions with:
                l(1) =   0
                l(2) =   0
                l(3) =   1
                l(4) =   1
                l(5) =   2
                l(6) =   2
     Q(r) pseudized with  8 coefficients,  rinner =    1.000   1.000   1.000
                                                       1.000   1.000

     PseudoPot. # 2 for O  read from file:
     /storage/coda1/p-amedford6/0/shared/rich_project_chbe-medford/medford-share/data/pseudos_module/espresso/nninc/pbe/van/O.UPF
     MD5 check sum: 78c19812648e8988a0fe644b0f25305e
     Pseudo is Ultrasoft, Zval =  6.0
     Generated by new atomic code, or converted to UPF format
     Using radial grid of  737 points,  4 beta functions with:
                l(1) =   0
                l(2) =   0
                l(3) =   1
                l(4) =   1
     Q(r) pseudized with  8 coefficients,  rinner =    0.800   0.800   0.800

     PseudoPot. # 3 for N  read from file:
     /storage/coda1/p-amedford6/0/shared/rich_project_chbe-medford/medford-share/data/pseudos_module/espresso/nninc/pbe/van/N.UPF
     MD5 check sum: 90d10febe142ad51ac9d5be1deb811c4
     Pseudo is Ultrasoft, Zval =  5.0
     Generated by new atomic code, or converted to UPF format
     Using radial grid of  729 points,  4 beta functions with:
                l(1) =   0
                l(2) =   0
                l(3) =   1
                l(4) =   1
     Q(r) pseudized with  8 coefficients,  rinner =    0.800   0.800   0.800

     PseudoPot. # 4 for C  read from file:
     /storage/coda1/p-amedford6/0/shared/rich_project_chbe-medford/medford-share/data/pseudos_module/espresso/nninc/pbe/van/C.UPF
     MD5 check sum: 1a69bf6b8db32088f5b2163dbdb77a27
     Pseudo is Ultrasoft, Zval =  4.0
     Generated by new atomic code, or converted to UPF format
     Using radial grid of  721 points,  4 beta functions with:
                l(1) =   0
                l(2) =   0
                l(3) =   1
                l(4) =   1
     Q(r) pseudized with  8 coefficients,  rinner =    0.800   0.800   0.800

     PseudoPot. # 5 for H  read from file:
     /storage/coda1/p-amedford6/0/shared/rich_project_chbe-medford/medford-share/data/pseudos_module/espresso/nninc/pbe/van/H.UPF
     MD5 check sum: b5ee9d7bfd3a09ee7748110bda690ff7
     Pseudo is Ultrasoft, Zval =  1.0
     Generated by new atomic code, or converted to UPF format
     Using radial grid of  615 points,  1 beta functions with:
                l(1) =   0
     Q(r) pseudized with  8 coefficients,  rinner =    0.800

     atomic species   valence    mass     pseudopotential
        Ti1           12.00    47.86700     Ti( 1.00)
        O1             6.00    15.99900     O ( 1.00)
        N1             5.00    14.00700     N ( 1.00)
        C1             4.00    12.01100     C ( 1.00)
        H1             1.00     1.00800     H ( 1.00)

     No symmetry found

   Cartesian axes

     site n.     atom                  positions (alat units)
         1           Ti1 tau(   1) = (   0.0004258   2.9801865   6.0000000  )
         2           Ti1 tau(   2) = (   3.2906075   1.4906267   6.0002472  )
         3           O1  tau(   3) = (   0.0006271   0.0005054   7.9858123  )
         4           O1  tau(   4) = (   3.2906025   0.0005020   7.3038282  )
         5           O1  tau(   5) = (   4.5942328   1.4918067   9.2879030  )
         6           O1  tau(   6) = (   1.9868534   1.4903216   9.2879459  )
         7           Ti1 tau(   7) = (   3.2907910   2.8959150   9.1758416  )
         8           Ti1 tau(   8) = (   0.0015273   1.4827037   9.2680791  )
         9           O1  tau(   9) = (   3.2982983   0.0405180  11.3424948  )
        10           O1  tau(  10) = (   0.0116148   5.9584955  10.6183126  )
        11           O1  tau(  11) = (   1.2753745   1.5072422  12.7016807  )
        12           O1  tau(  12) = (   5.3195175   1.5181342  12.6954276  )
        13           Ti1 tau(  13) = (   0.0019584   2.9687762  12.4995492  )
        14           Ti1 tau(  14) = (   3.3051642   1.5697923  12.4614731  )
        15           O1  tau(  15) = (   6.5474216   5.8614089  14.6874354  )
        16           O1  tau(  16) = (   3.3077571   5.9224049  13.9445013  )
        17           O1  tau(  17) = (   4.5645563   1.5748115  16.1270233  )
        18           O1  tau(  18) = (   2.0342606   1.5395256  16.0843959  )
        19           Ti1 tau(  19) = (   3.2752269   2.9899004  15.7194909  )
        20           Ti1 tau(  20) = (   6.5310352   1.3332667  15.7916221  )
        21           O1  tau(  21) = (   3.2904802   0.0005063   4.7018136  )
        22           O1  tau(  22) = (   0.0193913   0.2006272  17.2172921  )
        23           O1  tau(  23) = (   1.3043587   1.4918075   6.0039043  )
        24           O1  tau(  24) = (   5.2767064   1.4903225   6.0039473  )
        25           Ti1 tau(  25) = (   0.0000382   5.9609847   6.0000000  )
        26           Ti1 tau(  26) = (   3.2902200   4.4714249   6.0002472  )
        27           O1  tau(  27) = (   0.0002396   2.9813036   7.9858123  )
        28           O1  tau(  28) = (   3.2902150   2.9813002   7.3038282  )
        29           O1  tau(  29) = (   4.5938453   4.4726049   9.2879030  )
        30           O1  tau(  30) = (   1.9864658   4.4711199   9.2879459  )
        31           Ti1 tau(  31) = (   3.2891106   5.8743827   9.1763621  )
        32           Ti1 tau(  32) = (   0.0006254   4.4649316   9.2693709  )
        33           O1  tau(  33) = (   3.2939295   2.9453814  11.3217152  )
        34           O1  tau(  34) = (   0.0092240   2.9805883  10.6323155  )
        35           O1  tau(  35) = (   1.2781447   4.4822909  12.6561401  )
        36           O1  tau(  36) = (   5.3212068   4.4743896  12.6463055  )
        37           Ti1 tau(  37) = (   0.0302233   5.9315785  12.5023592  )
        38           Ti1 tau(  38) = (   3.3112215   4.6713144  12.7097751  )
        39           O1  tau(  39) = (   0.0192075   3.0624537  14.9697097  )
        40           O1  tau(  40) = (   3.2993887   3.0147307  13.9488589  )
        41           O1  tau(  41) = (   4.5718800   4.4489939  16.2708329  )
        42           O1  tau(  42) = (   2.0246426   4.4466800  16.2581844  )
        43           Ti1 tau(  43) = (   3.2612680   0.0306108  16.4716933  )
        44           Ti1 tau(  44) = (   6.5506247   4.5497786  16.0606151  )
        45           O1  tau(  45) = (   3.2900926   2.9813045   4.7018136  )
        46           O1  tau(  46) = (   1.3039711   4.4726057   6.0039043  )
        47           O1  tau(  47) = (   5.2763189   4.4711207   6.0039473  )
        48           N1  tau(  48) = (   0.9981237   2.4704741  18.7333368  )
        49           N1  tau(  49) = (   6.5532285   3.4232418  18.2716252  )
        50           C1  tau(  50) = (   2.1690532   2.7243113  19.1879583  )
        51           H1  tau(  51) = (   2.3212509   3.8010200  19.3435938  )
        52           H1  tau(  52) = (   0.7222050   1.5235952  18.4365492  )
        53           H1  tau(  53) = (   0.1186806   4.2950834  18.7847415  )
        54           H1  tau(  54) = (   5.6367167   3.0457734  18.5222562  )
        55           O1  tau(  55) = (   3.2473456   0.1866190  18.2687603  )
        56           H1  tau(  56) = (   3.0571027   1.0491837  18.7494863  )

     number of k points=    10  Fermi-Dirac smearing, width (Ry)=  0.0073
                       cart. coord. in units 2pi/alat
        k(    1) = (   0.0000000   0.0000000   0.0000000), wk =   0.1250000
        k(    2) = (   0.0000000   0.0419351   0.0000000), wk =   0.2500000
        k(    3) = (   0.0000000  -0.0838702   0.0000000), wk =   0.1250000
        k(    4) = (   0.0379955   0.0000049   0.0000000), wk =   0.2500000
        k(    5) = (   0.0379955   0.0419400   0.0000000), wk =   0.2500000
        k(    6) = (   0.0379955  -0.0838652   0.0000000), wk =   0.2500000
        k(    7) = (   0.0379955  -0.0419301   0.0000000), wk =   0.2500000
        k(    8) = (  -0.0759910  -0.0000099   0.0000000), wk =   0.1250000
        k(    9) = (  -0.0759910   0.0419252   0.0000000), wk =   0.2500000
        k(   10) = (  -0.0759910  -0.0838800   0.0000000), wk =   0.1250000

     Initial potential from superposition of free atoms

     starting charge  386.99914, renormalised to  403.00000

     negative rho (up, down):  1.628E-02 0.000E+00

     %%%%%%%%%%%%%%%%%%%%%%%%%%%%%%%%%%%%%%%%%%%%%%%%%%%%%%%%%%%%%%%%%%%%%%%%
     %                                                                      %
     % You are using vdW-DF, which was implemented by the Thonhauser group. %
     % Please cite the following two papers that made this development      %
     % possible and the two reviews that describe the various versions:     %
     %                                                                      %
     %   T. Thonhauser et al., PRL 115, 136402 (2015).                      %
     %   T. Thonhauser et al., PRB 76, 125112 (2007).                       %
     %   K. Berland et al., Rep. Prog. Phys. 78, 066501 (2015).             %
     %   D.C. Langreth et al., J. Phys.: Condens. Matter 21, 084203 (2009). %
     %                                                                      %
     %                                                                      %
     % If you are calculating the stress with vdW-DF, please also cite:     %
     %                                                                      %
     %   R. Sabatini et al., J. Phys.: Condens. Matter 24, 424209 (2012).   %
     %                                                                      %
     %%%%%%%%%%%%%%%%%%%%%%%%%%%%%%%%%%%%%%%%%%%%%%%%%%%%%%%%%%%%%%%%%%%%%%%%

     Adding external electric field

     Computed dipole along edir(3) :
        Dipole              -13.0968 Ry au,        -33.2887 Debye
        Dipole field         -0.0247 Ry au,

        Potential amp.        2.2911 Ry
        Total length         46.3494 bohr

     Starting wfcs are  305 atomic wfcs
  @ DRIVER MODE: Message from server: STATUS
  @ DRIVER MODE: Message from server: POSDATA
  @ DRIVER MODE: Reading and sharing cell
  @ DRIVER MODE: Reading and sharing positions
  @ DRIVER MODE: Received positions

     Self-consistent Calculation

     iteration #  1     ecut=    29.40 Ry     beta= 0.05
     Davidson diagonalization with overlap
     c_bands:  5 eigenvalues not converged
     c_bands:  2 eigenvalues not converged
     c_bands:  1 eigenvalues not converged
     c_bands:  1 eigenvalues not converged
     c_bands:  5 eigenvalues not converged
     c_bands:  4 eigenvalues not converged
     c_bands:  1 eigenvalues not converged
     ethr =  1.00E-05,  avg # of iterations = 27.3

[...]

     total energy              =   -2288.82232214 Ry
     estimated scf accuracy    <    7754.39652048 Ry

     iteration #  2     ecut=    29.40 Ry     beta= 0.05
     Davidson diagonalization with overlap
     ethr =  1.00E-02,  avg # of iterations = 25.8

[...]

     iteration # 48     ecut=    29.40 Ry     beta= 0.05
     Davidson diagonalization with overlap
     c_bands:  1 eigenvalues not converged
     ethr =  1.38E-06,  avg # of iterations = 13.5

[...]

     total energy              =   -2973.89801193 Ry
     estimated scf accuracy    <       0.00000016 Ry

     iteration # 65     ecut=    29.40 Ry     beta= 0.05
     Davidson diagonalization with overlap
     ethr =  4.03E-11,  avg # of iterations =  8.3

     negative rho (up, down):  1.611E-02 0.000E+00

     Adding external electric field

     Computed dipole along edir(3) :
        Dipole                0.8529 Ry au,          2.1677 Debye
        Dipole field          0.0016 Ry au,

        Potential amp.       -0.1492 Ry
        Total length         46.3494 bohr

     End of self-consistent calculation

          k = 0.0000 0.0000 0.0000 ( 18029 PWs)   bands (ev):

   -55.6409 -55.6386 -55.6045 -55.5686 -55.4886 -55.4663 -55.4464 -55.4427
   -55.4323 -55.3899 -55.3475 -55.2895 -55.2114 -55.0657 -54.6023 -54.5682
   -32.1229 -32.0962 -31.9761 -31.9710 -31.9698 -31.9292 -31.9036 -31.8845
   -31.8777 -31.8622 -31.8431 -31.8320 -31.7912 -31.7613 -31.7475 -31.7450
   -31.7402 -31.7266 -31.7059 -31.7016 -31.6963 -31.6699 -31.6646 -31.6516
   -31.6406 -31.6393 -31.6173 -31.6086 -31.5934 -31.5894 -31.5839 -31.5725
   -31.5615 -31.5446 -31.5013 -31.4933 -31.4902 -31.4752 -31.4114 -31.3253
   -31.2914 -31.2833 -31.0075 -30.9229 -30.9004 -30.8253 -30.7390 -30.6270
   -18.7020 -16.3055 -16.2520 -16.1110 -15.8881 -15.8010 -15.7697 -15.6088
   -15.4824 -15.4406 -15.3169 -15.1707 -15.1406 -15.1329 -15.1264 -15.1176
   -15.1003 -15.0727 -15.0594 -15.0547 -15.0412 -14.9769 -14.9581 -14.9291
   -14.8487 -14.7970 -14.7694 -14.6992 -14.6561 -14.5524 -14.5078 -14.2714
   -13.1001 -12.9840  -9.5819  -6.9132  -5.8614  -4.3071  -4.0895  -3.8378
    -3.6253  -3.5372  -3.5138  -3.4054  -3.3144  -3.0848  -3.0622  -2.9922
    -2.8409  -2.7478  -2.6628  -2.6359  -2.5947  -2.5411  -2.5271  -2.4844
    -2.4185  -2.3871  -2.3454  -2.3332  -2.2839  -2.2763  -2.2298  -2.1523
    -2.1457  -2.0400  -1.9720  -1.9673  -1.9527  -1.9442  -1.8944  -1.8792
    -1.8715  -1.8012  -1.7458  -1.7113  -1.6455  -1.6194  -1.5480  -1.3036
    -1.2254  -1.2119  -1.1500  -1.0692  -1.0385  -1.0244  -1.0137  -0.9875
    -0.9609  -0.8721  -0.8454  -0.7054  -0.6996  -0.6615  -0.6351  -0.6054
    -0.4942  -0.4309  -0.4075  -0.3621  -0.3411  -0.3008  -0.2385  -0.2194
    -0.1402  -0.0959  -0.0166  -0.0143   0.0109   0.0819   0.1415   0.1756
     0.1920   0.2918   0.3068   0.3357   0.3422   0.3649   0.3912   0.4843
     0.5021   0.5443   0.5668   0.7081   0.7188   0.7709   0.9146   0.9451
     1.0466   1.1451   1.3713   1.3856   1.4249   1.4527   1.6212   1.9900
     2.0349   3.4409   3.6003   3.6132   3.7100   3.7230   3.7999   3.9353
     4.0304   4.1018   4.1375

[...]

          k = 0.0380-0.0419 0.0000 ( 17876 PWs)   bands (ev):

[...]

          k =-0.0760-0.0000 0.0000 ( 17886 PWs)   bands (ev):

[...]

          k =-0.0760-0.0839 0.0000 ( 17948 PWs)   bands (ev):

   -55.6400 -55.6215 -55.6214 -55.5674 -55.4805 -55.4518 -55.4499 -55.4474
   -55.4470 -55.3815 -55.3559 -55.2906 -55.2095 -55.0675 -54.5852 -54.5851
   -32.0212 -31.9383 -31.9382 -31.9302 -31.9148 -31.9145 -31.9043 -31.8427
   -31.8177 -31.8094 -31.7991 -31.7834 -31.7779 -31.7619 -31.7598 -31.7415
   -31.7415 -31.7317 -31.7303 -31.7189 -31.7183 -31.7043 -31.6931 -31.6867
   -31.6507 -31.6469 -31.6459 -31.6400 -31.6251 -31.6225 -31.6150 -31.6024
   -31.5860 -31.5801 -31.5688 -31.5660 -31.4949 -31.4666 -31.4148 -31.4065
   -31.3299 -31.2867 -30.9131 -30.9131 -30.8207 -30.8203 -30.7823 -30.7820
   -18.6958 -16.2566 -15.9401 -15.6348 -15.6337 -15.6139 -15.4553 -15.4212
   -15.3895 -15.3597 -15.3092 -15.3036 -15.2783 -15.2434 -15.2294 -15.1769
   -15.1526 -15.1357 -15.1172 -15.0981 -15.0786 -15.0500 -15.0393 -15.0378
   -14.9579 -14.9491 -14.9348 -14.9270 -14.8496 -14.6373 -14.4796 -14.4293
   -13.0859 -13.0858  -9.5688  -6.9065  -5.8256  -4.4894  -3.9438  -3.7689
    -3.0673  -2.8690  -2.8393  -2.7122  -2.6792  -2.6559  -2.5912  -2.5504
    -2.5490  -2.4725  -2.4593  -2.4146  -2.4101  -2.3656  -2.3629  -2.3354
    -2.3264  -2.3130  -2.3035  -2.2965  -2.2477  -2.2217  -2.2186  -2.2060
    -2.1827  -2.1687  -2.1448  -2.1279  -2.0684  -1.9930  -1.8807  -1.8581
    -1.7989  -1.7643  -1.7499  -1.7306  -1.7087  -1.6811  -1.6626  -1.5651
    -1.4823  -1.4208  -1.3186  -1.2328  -1.2123  -1.1593  -1.1515  -1.1087
    -1.0860  -1.0659  -1.0294  -0.9608  -0.8510  -0.8396  -0.7709  -0.6852
    -0.6429  -0.5779  -0.5758  -0.5697  -0.5538  -0.5295  -0.5105  -0.4607
    -0.4556  -0.3645  -0.3403  -0.3335  -0.3153  -0.2849  -0.1512  -0.1122
    -0.0631   0.1367   0.1436   0.1718   0.2795   0.3696   0.4353   0.4454
     0.5030   0.5504   0.5850   0.6244   0.6801   0.7040   0.7703   0.8796
     0.8858   0.9048   0.9466   1.0079   1.2464   1.7901   1.7969   1.8552
     1.8555   3.6553   3.8495   3.9649   3.9702   3.9855   4.0267   4.0358
     4.0494   4.1100   4.1177

     the Fermi energy is     3.4816 ev

!    total energy              =   -2973.89804608 Ry
     estimated scf accuracy    <       0.00000007 Ry
     smearing contrib. (-TS)   =      -0.01933463 Ry
     internal energy E=F+TS    =   -2973.87871145 Ry

     The total energy is F=E-TS. E is the sum of the following terms:
     one-electron contribution =  -23221.62425605 Ry
     hartree contribution      =   11705.22291497 Ry
     xc contribution           =    -493.95481948 Ry
     ewald contribution        =    9036.47607650 Ry
     electric field correction =       0.00137261 Ry

     convergence has been achieved in  65 iterations

     Forces acting on atoms (cartesian axes, Ry/au):

     atom    1 type  1   force =     0.00006820   -0.00019877    0.09419799
     atom    2 type  1   force =    -0.00015951    0.00003897   -0.17478954
     atom    3 type  2   force =     0.00002983   -0.00050367   -0.02069851
     atom    4 type  2   force =     0.00004354   -0.00070816    0.05228188
     atom    5 type  2   force =    -0.00299843   -0.00196757    0.00012956
     atom    6 type  2   force =     0.00463485   -0.00150249   -0.00032762
     atom    7 type  1   force =    -0.00019593    0.00281585    0.01409985
     atom    8 type  1   force =    -0.00011990   -0.00121233   -0.00059457
     atom    9 type  2   force =     0.00005209   -0.00010847   -0.00010337
     atom   10 type  2   force =    -0.00139989    0.00346723   -0.00732424
     atom   11 type  2   force =    -0.00018553    0.00025360    0.00020342
     atom   12 type  2   force =     0.00037380    0.00039366    0.00061140
     atom   13 type  1   force =    -0.00042860    0.00058062   -0.00029463
     atom   14 type  1   force =     0.00000346   -0.00008548    0.00067470
     atom   15 type  2   force =     0.00038514    0.00089438    0.00064081
     atom   16 type  2   force =    -0.00009262   -0.00077859    0.00092806
     atom   17 type  2   force =     0.00058504   -0.00024400   -0.00010699
     atom   18 type  2   force =     0.00025607   -0.00008974   -0.00024490
     atom   19 type  1   force =     0.00000180    0.00002683   -0.00055393
     atom   20 type  1   force =    -0.00026039   -0.00029112   -0.00048551
     atom   21 type  2   force =     0.00006928   -0.00000193    0.10294855
     atom   22 type  2   force =     0.00039552    0.00036784   -0.00010282
     atom   23 type  2   force =    -0.07235714   -0.00018352   -0.02723497
     atom   24 type  2   force =     0.07230058    0.00026210   -0.02728421
     atom   25 type  1   force =     0.00007085   -0.00030708    0.09365154
     atom   26 type  1   force =    -0.00006387   -0.00116840   -0.17489813
     atom   27 type  2   force =     0.00017337   -0.00002111   -0.01956885
     atom   28 type  2   force =     0.00003155   -0.00104173    0.04856009
     atom   29 type  2   force =    -0.00594534    0.00105859    0.00312567
     atom   30 type  2   force =     0.00742794    0.00157338    0.00262759
     atom   31 type  1   force =     0.00004544    0.00141735    0.00269792
     atom   32 type  1   force =     0.00006539    0.00067548   -0.00038003
     atom   33 type  2   force =    -0.00016951   -0.00011045   -0.00052055
     atom   34 type  2   force =    -0.00061507   -0.00196701   -0.01093965
     atom   35 type  2   force =     0.00024182   -0.00040663   -0.00014660
     atom   36 type  2   force =    -0.00004262   -0.00026259   -0.00021226
     atom   37 type  1   force =    -0.00026298   -0.00039533   -0.00051711
     atom   38 type  1   force =     0.00025782    0.00022048    0.00032057
     atom   39 type  2   force =    -0.00036563   -0.00120669   -0.00030294
     atom   40 type  2   force =    -0.00012978    0.00036537    0.00080310
     atom   41 type  2   force =    -0.00081441    0.00009377    0.00029471
     atom   42 type  2   force =     0.00030362   -0.00051173   -0.00002665
     atom   43 type  1   force =    -0.00030192    0.00063099    0.00011899
     atom   44 type  1   force =     0.00006144   -0.00112713   -0.00005461
     atom   45 type  2   force =     0.00006533    0.00005509    0.10279897
     atom   46 type  2   force =    -0.07231273   -0.00006145   -0.02718585
     atom   47 type  2   force =     0.07222126    0.00038773   -0.02721763
     atom   48 type  3   force =    -0.00118264   -0.00106694   -0.00040153
     atom   49 type  3   force =     0.00236852    0.00188831    0.00167698
     atom   50 type  4   force =     0.00032134    0.00035423    0.00040547
     atom   51 type  5   force =    -0.00026015   -0.00106890    0.00031978
     atom   52 type  5   force =     0.00005698    0.00142704    0.00062136
     atom   53 type  5   force =    -0.00251658   -0.00195291   -0.00200518
     atom   54 type  5   force =     0.00040074    0.00182222    0.00110375
     atom   55 type  2   force =     0.00032164    0.00035803   -0.00044320
     atom   56 type  5   force =    -0.00045308   -0.00087721   -0.00087613

     Total force =     0.361029     Total SCF correction =     0.000769
  @ DRIVER MODE: Message from server: STATUS
  @ DRIVER MODE: Message from server: GETFORCE
  @ DRIVER MODE: Returning v,forces,stress,ensemble

     Writing output data file ./calc.save/
  @ DRIVER MODE: Message from server: EXIT
  @ DRIVE MODE: Exiting

     General routines

     Parallel routines

   This run was terminated on:   0:16: 9  29Sep2021

   JOB DONE.