     Program PWSCF v.6.8 starts on 30Aug2021 at 14:39:22

     R & G space division:  proc/nbgrp/npool/nimage =      24

     Reading input from /storage/home/hcoda1/3/ntian30/research/carbon/methanol/ads_slab/CH3OHN2_I/methanol.log/pw.inp
Warning: card &CELL ignored
Warning: card   CELL_DYNAMICS='IPI', ignored
Warning: card / ignored

     Current dimensions of program PWSCF are:
     Max number of different atomic species (ntypx) = 10
     Max number of k-points (npk) =  40000
     Max angular momentum in pseudopotentials (lmaxx) =  4
     Presently no symmetry can be used with electric field

     Message from routine cell_base_init:
     DEPRECATED: use true lattice parameter, not A to a.u. conversion factor

     IMPORTANT: XC functional enforced from input :
     Exchange-correlation= BEEF-VDW
                           (   1   4  43  14   2   0   0)
     Any further DFT definition will be discarded
     Please, verify this is what you really want

  @ DRIVER MODE: Connecting to
 qe_1139763_2685193.sched-torque.pace.gatech.edu4o8hvzla_scratch
  using UNIX socket
  @ DRIVER MODE: Message from server: STATUS
  @ DRIVER MODE: Message from server: INIT
  @ DRIVER MODE: Receiving replica           0          -1
  @ DRIVER MODE: Receiving encoded integer          25
  @ DRIVER MODE:  SCF:  T  FORCE:  T  STRESS:  F  VC:  F  ENSEMBLE:  F
  @ DRIVER MODE:  SCF:  T  FORCE:  T  STRESS:  F  VC:  F  ENSEMBLE:  F

     Using Slab Decomposition

     bravais-lattice index     =            0
     lattice parameter (alat)  =       1.8897  a.u.
     unit-cell volume          =    6658.9804 (a.u.)^3
     number of atoms/cell      =           55
     number of atomic types    =            5
     number of electrons       =       402.00
     number of Kohn-Sham states=          211
     kinetic-energy cutoff     =      29.3995  Ry
     charge density cutoff     =     293.9946  Ry
     scf convergence threshold =      7.3E-08
     mixing beta               =       0.0500
     number of iterations used =            8  plain     mixing
     Exchange-correlation= BEEF-VDW
                           (   1   4  43  14   2   0   0)

     celldm(1)=   1.889726  celldm(2)=   0.000000  celldm(3)=   0.000000
     celldm(4)=   0.000000  celldm(5)=   0.000000  celldm(6)=   0.000000

     crystal axes: (cart. coord. in units of alat)
               a(1) = (   6.579727   0.000000   0.000000 )
               a(2) = (  -0.000775   5.961596   0.000000 )
               a(3) = (   0.000000   0.000000  25.155947 )

     reciprocal axes: (cart. coord. in units 2 pi/alat)
               b(1) = (  0.151982  0.000020  0.000000 )
               b(2) = (  0.000000  0.167740  0.000000 )
               b(3) = (  0.000000  0.000000  0.039752 )

     PseudoPot. # 1 for Ti read from file:
     /storage/coda1/p-amedford6/0/shared/rich_project_chbe-medford/medford-share/data/pseudos_module/espresso/nninc/pbe/van/Ti.UPF
     MD5 check sum: 8e4df49b7f0d34bbd5052bf3f5ea0213
     Pseudo is Ultrasoft, Zval = 12.0
     Generated by new atomic code, or converted to UPF format
     Using radial grid of  851 points,  6 beta functions with:
                l(1) =   0
                l(2) =   0
                l(3) =   1
                l(4) =   1
                l(5) =   2
                l(6) =   2
     Q(r) pseudized with  8 coefficients,  rinner =    1.000   1.000   1.000
                                                       1.000   1.000

     PseudoPot. # 2 for O  read from file:
     /storage/coda1/p-amedford6/0/shared/rich_project_chbe-medford/medford-share/data/pseudos_module/espresso/nninc/pbe/van/O.UPF
     MD5 check sum: 78c19812648e8988a0fe644b0f25305e
     Pseudo is Ultrasoft, Zval =  6.0
     Generated by new atomic code, or converted to UPF format
     Using radial grid of  737 points,  4 beta functions with:
                l(1) =   0
                l(2) =   0
                l(3) =   1
                l(4) =   1
     Q(r) pseudized with  8 coefficients,  rinner =    0.800   0.800   0.800

     PseudoPot. # 3 for C  read from file:
     /storage/coda1/p-amedford6/0/shared/rich_project_chbe-medford/medford-share/data/pseudos_module/espresso/nninc/pbe/van/C.UPF
     MD5 check sum: 1a69bf6b8db32088f5b2163dbdb77a27
     Pseudo is Ultrasoft, Zval =  4.0
     Generated by new atomic code, or converted to UPF format
     Using radial grid of  721 points,  4 beta functions with:
                l(1) =   0
                l(2) =   0
                l(3) =   1
                l(4) =   1
     Q(r) pseudized with  8 coefficients,  rinner =    0.800   0.800   0.800

     PseudoPot. # 4 for H  read from file:
     /storage/coda1/p-amedford6/0/shared/rich_project_chbe-medford/medford-share/data/pseudos_module/espresso/nninc/pbe/van/H.UPF
     MD5 check sum: b5ee9d7bfd3a09ee7748110bda690ff7
     Pseudo is Ultrasoft, Zval =  1.0
     Generated by new atomic code, or converted to UPF format
     Using radial grid of  615 points,  1 beta functions with:
                l(1) =   0
     Q(r) pseudized with  8 coefficients,  rinner =    0.800

     PseudoPot. # 5 for N  read from file:
     /storage/coda1/p-amedford6/0/shared/rich_project_chbe-medford/medford-share/data/pseudos_module/espresso/nninc/pbe/van/N.UPF
     MD5 check sum: 90d10febe142ad51ac9d5be1deb811c4
     Pseudo is Ultrasoft, Zval =  5.0
     Generated by new atomic code, or converted to UPF format
     Using radial grid of  729 points,  4 beta functions with:
                l(1) =   0
                l(2) =   0
                l(3) =   1
                l(4) =   1
     Q(r) pseudized with  8 coefficients,  rinner =    0.800   0.800   0.800

     atomic species   valence    mass     pseudopotential
        Ti1           12.00    47.86700     Ti( 1.00)
        O1             6.00    15.99900     O ( 1.00)
        C1             4.00    12.01100     C ( 1.00)
        H1             1.00     1.00800     H ( 1.00)
        N1             5.00    14.00700     N ( 1.00)

     No symmetry found

   Cartesian axes

     site n.     atom                  positions (alat units)
         1           Ti1 tau(   1) = (   0.0004258   2.9801865   6.0000000  )
         2           Ti1 tau(   2) = (   3.2906075   1.4906267   6.0002472  )
         3           O1  tau(   3) = (   0.0006271   0.0005054   7.9858123  )
         4           O1  tau(   4) = (   3.2906025   0.0005020   7.3038282  )
         5           O1  tau(   5) = (   4.5942328   1.4918067   9.2879030  )
         6           O1  tau(   6) = (   1.9868534   1.4903216   9.2879459  )
         7           Ti1 tau(   7) = (   3.3125460   2.9785574   9.1552530  )
         8           Ti1 tau(   8) = (   0.0311596   1.4964134   9.2690592  )
         9           O1  tau(   9) = (   3.2305614   5.9578668  11.3788911  )
        10           O1  tau(  10) = (   6.5695207   5.9598644  10.6154311  )
        11           O1  tau(  11) = (   1.2270336   1.4847904  12.6847009  )
        12           O1  tau(  12) = (   5.2241502   1.4857433  12.6419053  )
        13           Ti1 tau(  13) = (   6.5230289   2.9624647  12.5450162  )
        14           Ti1 tau(  14) = (   3.2395519   1.4893098  12.5167001  )
        15           O1  tau(  15) = (   6.4514961   0.0044027  14.6975867  )
        16           O1  tau(  16) = (   3.2275387   5.9518086  14.0130126  )
        17           O1  tau(  17) = (   4.4114216   1.5094095  16.2207107  )
        18           O1  tau(  18) = (   1.8941150   1.4979477  16.1737019  )
        19           Ti1 tau(  19) = (   3.1541547   2.9676464  15.7424757  )
        20           Ti1 tau(  20) = (   6.4731952   1.4023154  15.9257176  )
        21           O1  tau(  21) = (   3.2904802   0.0005063   4.7018136  )
        22           O1  tau(  22) = (   6.4523166   5.9537441  17.2285404  )
        23           O1  tau(  23) = (   1.3043587   1.4918075   6.0039043  )
        24           O1  tau(  24) = (   5.2767064   1.4903225   6.0039473  )
        25           Ti1 tau(  25) = (   0.0000382   5.9609847   6.0000000  )
        26           Ti1 tau(  26) = (   3.2902200   4.4714249   6.0002472  )
        27           O1  tau(  27) = (   0.0002396   2.9813036   7.9858123  )
        28           O1  tau(  28) = (   3.2902150   2.9813002   7.3038282  )
        29           O1  tau(  29) = (   4.5938453   4.4726049   9.2879030  )
        30           O1  tau(  30) = (   1.9864658   4.4711199   9.2879459  )
        31           Ti1 tau(  31) = (   3.3079062   5.9597871   9.1524692  )
        32           Ti1 tau(  32) = (   0.0306098   4.4652648   9.2710962  )
        33           O1  tau(  33) = (   3.2311014   2.9759501  11.3713600  )
        34           O1  tau(  34) = (   6.5671215   2.9789454  10.6350239  )
        35           O1  tau(  35) = (   1.2234440   4.4645023  12.6870612  )
        36           O1  tau(  36) = (   5.2264351   4.4635290  12.6443428  )
        37           Ti1 tau(  37) = (   6.5267985   5.9409833  12.4913319  )
        38           Ti1 tau(  38) = (   3.2389837   4.4665399  12.5217391  )
        39           O1  tau(  39) = (   6.4453944   2.9701978  14.8830765  )
        40           O1  tau(  40) = (   3.2216481   2.9718320  13.9593617  )
        41           O1  tau(  41) = (   4.4092282   4.4280906  16.2316293  )
        42           O1  tau(  42) = (   1.8935544   4.4422750  16.1712388  )
        43           Ti1 tau(  43) = (   3.1879468   5.9491464  15.8056501  )
        44           Ti1 tau(  44) = (   6.4822765   4.6137504  15.9834927  )
        45           O1  tau(  45) = (   3.2900926   2.9813045   4.7018136  )
        46           O1  tau(  46) = (   1.3039711   4.4726057   6.0039043  )
        47           O1  tau(  47) = (   5.2763189   4.4711207   6.0039473  )
        48           C1  tau(  48) = (   0.4077056   2.9538944  18.9627770  )
        49           O1  tau(  49) = (   6.2926382   2.9853010  17.6920389  )
        50           H1  tau(  50) = (   1.4674917   2.9516143  18.7317846  )
        51           H1  tau(  51) = (   5.3306189   3.0251282  17.8339341  )
        52           H1  tau(  52) = (   0.1523079   3.8464468  19.5334156  )
        53           H1  tau(  53) = (   0.1397053   2.0411758  19.4947430  )
        54           N1  tau(  54) = (   3.1541547   2.9676464  19.0424757  )
        55           N1  tau(  55) = (   3.1541547   2.9676464  17.9124957  )

     number of k points=    10  Fermi-Dirac smearing, width (Ry)=  0.0073
                       cart. coord. in units 2pi/alat
        k(    1) = (   0.0000000   0.0000000   0.0000000), wk =   0.1250000
        k(    2) = (   0.0000000   0.0419351   0.0000000), wk =   0.2500000
        k(    3) = (   0.0000000  -0.0838702   0.0000000), wk =   0.1250000
        k(    4) = (   0.0379955   0.0000049   0.0000000), wk =   0.2500000
        k(    5) = (   0.0379955   0.0419400   0.0000000), wk =   0.2500000
        k(    6) = (   0.0379955  -0.0838652   0.0000000), wk =   0.2500000
        k(    7) = (   0.0379955  -0.0419301   0.0000000), wk =   0.2500000
        k(    8) = (  -0.0759910  -0.0000099   0.0000000), wk =   0.1250000
        k(    9) = (  -0.0759910   0.0419252   0.0000000), wk =   0.2500000
[...]
        43           Ti1 tau(  43) = (   3.2948966   0.0099868  15.7771418  )
        44           Ti1 tau(  44) = (   6.5739042   4.6074147  15.8986855  )
        45           O1  tau(  45) = (   3.2900926   2.9813045   4.7018136  )
        46           O1  tau(  46) = (   1.3039711   4.4726057   6.0039043  )
        47           O1  tau(  47) = (   5.2763189   4.4711207   6.0039473  )
        48           C1  tau(  48) = (   0.1824453   2.9489535  18.8966692  )
        49           O1  tau(  49) = (   6.3067095   2.9786255  17.5302154  )
        50           H1  tau(  50) = (   1.2636147   2.9214303  18.8630832  )
        51           H1  tau(  51) = (   5.3309068   2.9690445  17.4974730  )
        52           H1  tau(  52) = (   6.4238167   3.8473705  19.4007044  )
        53           H1  tau(  53) = (   6.3814184   2.0533908  19.3751615  )
        54           N1  tau(  54) = (   3.7590262   2.9515569  20.5608859  )
        55           N1  tau(  55) = (   3.5187449   2.9891505  19.4862760  )

     number of k points=    10  Fermi-Dirac smearing, width (Ry)=  0.0073
                       cart. coord. in units 2pi/alat
        k(    1) = (   0.0000000   0.0000000   0.0000000), wk =   0.1250000
        k(    2) = (   0.0000000   0.0419351   0.0000000), wk =   0.2500000
        k(    3) = (   0.0000000  -0.0838702   0.0000000), wk =   0.1250000
        k(    4) = (   0.0379955   0.0000049   0.0000000), wk =   0.2500000
        k(    5) = (   0.0379955   0.0419400   0.0000000), wk =   0.2500000
        k(    6) = (   0.0379955  -0.0838652   0.0000000), wk =   0.2500000
        k(    7) = (   0.0379955  -0.0419301   0.0000000), wk =   0.2500000
        k(    8) = (  -0.0759910  -0.0000099   0.0000000), wk =   0.1250000
        k(    9) = (  -0.0759910   0.0419252   0.0000000), wk =   0.2500000
        k(   10) = (  -0.0759910  -0.0838800   0.0000000), wk =   0.1250000

     Initial potential from superposition of free atoms

     starting charge  385.99915, renormalised to  402.00000

[...]

     %%%%%%%%%%%%%%%%%%%%%%%%%%%%%%%%%%%%%%%%%%%%%%%%%%%%%%%%%%%%%%%%%%%%%%%%
     %                                                                      %
     % You are using vdW-DF, which was implemented by the Thonhauser group. %
     % Please cite the following two papers that made this development      %
     % possible and the two reviews that describe the various versions:     %
     %                                                                      %
     %   T. Thonhauser et al., PRL 115, 136402 (2015).                      %
     %   T. Thonhauser et al., PRB 76, 125112 (2007).                       %
     %   K. Berland et al., Rep. Prog. Phys. 78, 066501 (2015).             %
     %   D.C. Langreth et al., J. Phys.: Condens. Matter 21, 084203 (2009). %
     %                                                                      %
     %                                                                      %
     % If you are calculating the stress with vdW-DF, please also cite:     %
     %                                                                      %
     %   R. Sabatini et al., J. Phys.: Condens. Matter 24, 424209 (2012).   %
     %                                                                      %
     %%%%%%%%%%%%%%%%%%%%%%%%%%%%%%%%%%%%%%%%%%%%%%%%%%%%%%%%%%%%%%%%%%%%%%%%

[...]

     Starting wfcs are  304 atomic wfcs
  @ DRIVER MODE: Message from server: STATUS
  @ DRIVER MODE: Message from server: POSDATA
  @ DRIVER MODE: Reading and sharing cell
  @ DRIVER MODE: Reading and sharing positions
  @ DRIVER MODE: Received positions

[...]

     Self-consistent Calculation

[...]

     iteration # 15     ecut=    29.40 Ry     beta= 0.05
     Davidson diagonalization with overlap
     ethr =  1.57E-10,  avg # of iterations = 11.3

[...]

     total energy              =   -2972.83347028 Ry
     estimated scf accuracy    <       0.00000012 Ry

     iteration # 16     ecut=    29.40 Ry     beta= 0.05
     Davidson diagonalization with overlap
     c_bands:  2 eigenvalues not converged
     ethr =  3.06E-11,  avg # of iterations = 16.0

[...]

     End of self-consistent calculation

[...]

          k = 0.0380-0.0419 0.0000 ( 17876 PWs)   bands (ev):

[...]

          k =-0.0760-0.0839 0.0000 ( 17948 PWs)   bands (ev):

   -55.2061 -55.2049 -55.1730 -55.1704 -55.1076 -55.1032 -55.1027 -55.0732
   -55.0508 -55.0418 -55.0379 -55.0148 -54.9878 -54.9855 -54.2656 -54.2652
   -31.6361 -31.5989 -31.5968 -31.5170 -31.5013 -31.4988 -31.4846 -31.4649
   -31.4598 -31.4393 -31.4264 -31.4230 -31.4182 -31.3799 -31.3732 -31.3587
   -31.3575 -31.3546 -31.3499 -31.3454 -31.3439 -31.3396 -31.3314 -31.3036
   -31.3015 -31.3010 -31.2993 -31.2959 -31.2916 -31.2903 -31.2900 -31.2727
   -31.2648 -31.2488 -31.2383 -31.2381 -31.2367 -31.2137 -31.2102 -31.2006
   -31.1712 -31.1689 -30.5828 -30.5825 -30.5076 -30.5072 -30.4680 -30.4677
   -21.8918 -19.9840 -15.5616 -15.4816 -15.4084 -15.2205 -15.2179 -15.2103
   -15.1943 -15.0633 -15.0422 -15.0338 -14.9876 -14.9778 -14.9663 -14.9583
   -14.9423 -14.8144 -14.8120 -14.8055 -14.8019 -14.7383 -14.7331 -14.7161
   -14.7006 -14.6668 -14.6614 -14.6494 -14.6413 -14.4787 -14.3599 -12.7646
   -12.7642 -10.9429  -7.2786  -6.6598  -5.1115  -5.0548  -4.8925  -4.7629
    -3.8464  -2.8406  -2.7555  -2.6698  -2.6596  -2.4303  -2.4285  -2.3835
    -2.3177  -2.2745  -2.2220  -2.2047  -2.2005  -2.1306  -2.1273  -2.1178
    -2.1082  -2.0656  -2.0628  -2.0238  -2.0065  -1.9637  -1.9293  -1.9147
    -1.9079  -1.8869  -1.8854  -1.8720  -1.8467  -1.8378  -1.8266  -1.7156
    -1.6725  -1.5819  -1.5759  -1.5521  -1.4451  -1.4362  -1.3593  -1.3508
    -1.3048  -1.2888  -1.2449  -1.1879  -1.1431  -1.0373  -1.0194  -1.0106
    -0.9324  -0.8615  -0.8347  -0.8095  -0.7599  -0.7039  -0.6660  -0.6253
    -0.5576  -0.5056  -0.4302  -0.4179  -0.3768  -0.2415  -0.2366  -0.2130
    -0.2111  -0.2061  -0.1232  -0.1056  -0.0561  -0.0140   0.0380   0.0598
     0.0769   0.2809   0.2911   0.3745   0.4634   0.5144   0.6504   0.6636
     0.7243   0.7798   0.8317   0.8548   0.9309   1.0520   1.0579   1.0841
     1.1722   1.2096   1.2145   1.2408   2.0947   2.0963   2.2005   2.2024
     4.0288   4.0957   4.1289   4.1931   4.2483   4.3471   4.3537   4.3850
     4.4086   4.4266   4.4324

     the Fermi energy is     3.9318 ev

!    total energy              =   -2972.83347476 Ry
     estimated scf accuracy    <       0.00000007 Ry
     smearing contrib. (-TS)   =      -0.03734366 Ry
     internal energy E=F+TS    =   -2972.79613110 Ry

     The total energy is F=E-TS. E is the sum of the following terms:
     one-electron contribution =  -22936.59083637 Ry
     hartree contribution      =   11564.03154810 Ry
     xc contribution           =    -493.18081773 Ry
     ewald contribution        =    8892.94116751 Ry
     electric field correction =       0.00280739 Ry

     convergence has been achieved in  16 iterations

     Forces acting on atoms (cartesian axes, Ry/au):

     atom    1 type  1   force =    -0.00020524   -0.00011712    0.09358701
     atom    2 type  1   force =    -0.00011448    0.00062850   -0.18363253
     atom    3 type  2   force =     0.00031806    0.00062440   -0.02201905
     atom    4 type  2   force =     0.00015058    0.00001640    0.05074865
     atom    5 type  2   force =    -0.01607292   -0.00009533    0.00632371
     atom    6 type  2   force =     0.01293915    0.00014952    0.00440081
     atom    7 type  1   force =     0.00015314    0.00122877   -0.00063973
     atom    8 type  1   force =     0.00000222    0.00056112    0.00017576
     atom    9 type  2   force =    -0.00006772    0.00003609   -0.00008339
     atom   10 type  2   force =     0.00016810    0.00012475   -0.00038056
     atom   11 type  2   force =     0.00045951    0.00047420   -0.00004923
     atom   12 type  2   force =    -0.00007231    0.00024784   -0.00001088
     atom   13 type  1   force =    -0.00003829    0.00082119   -0.00013888
     atom   14 type  1   force =     0.00056047   -0.00011799   -0.00034735
     atom   15 type  2   force =     0.00045096    0.00067035   -0.00035827
     atom   16 type  2   force =    -0.00019697    0.00000331   -0.00027333
     atom   17 type  2   force =     0.00048054   -0.00023516   -0.00032139
     atom   18 type  2   force =    -0.00003811   -0.00012996   -0.00010208
     atom   19 type  1   force =     0.00025176    0.00026280   -0.00027962
     atom   20 type  1   force =     0.00024878   -0.00022922   -0.00084371
     atom   21 type  2   force =    -0.00000451   -0.00000140    0.10512970
     atom   22 type  2   force =     0.00038821    0.00066805    0.00037358
     atom   23 type  2   force =    -0.06791420   -0.00014417   -0.02682947
     atom   24 type  2   force =     0.06765526    0.00032707   -0.02689013
     atom   25 type  1   force =    -0.00005263   -0.00010943    0.09600411
     atom   26 type  1   force =    -0.00010550   -0.00100978   -0.18354822
     atom   27 type  2   force =     0.00030225    0.00033853   -0.02093572
     atom   28 type  2   force =     0.00038723   -0.00013114    0.05091977
     atom   29 type  2   force =    -0.01623894    0.00016702    0.00615119
     atom   30 type  2   force =     0.01292749    0.00109376    0.00425813
     atom   31 type  1   force =     0.00013697   -0.00111795   -0.00016929
     atom   32 type  1   force =     0.00006991   -0.00060090    0.00035700
     atom   33 type  2   force =     0.00021295   -0.00013309    0.00049880
     atom   34 type  2   force =     0.00004413   -0.00022521    0.00043455
     atom   35 type  2   force =     0.00059516   -0.00058897   -0.00023848
     atom   36 type  2   force =    -0.00041212   -0.00042636   -0.00012768
     atom   37 type  1   force =     0.00002600   -0.00084111   -0.00034704
     atom   38 type  1   force =     0.00048295   -0.00000578   -0.00039792
     atom   39 type  2   force =     0.00016096   -0.00103640   -0.00054775
     atom   40 type  2   force =     0.00014459    0.00006008   -0.00006363
     atom   41 type  2   force =    -0.00027250    0.00016231   -0.00028907
     atom   42 type  2   force =     0.00081055   -0.00012631    0.00001992
     atom   43 type  1   force =    -0.00013758   -0.00032458   -0.00030499
     atom   44 type  1   force =     0.00019571    0.00000020   -0.00002510
     atom   45 type  2   force =     0.00000001   -0.00001164    0.10509294
     atom   46 type  2   force =    -0.06792479   -0.00044693   -0.02681604
     atom   47 type  2   force =     0.06766077   -0.00002504   -0.02687304
     atom   48 type  3   force =     0.00054465    0.00000749    0.00017032
     atom   49 type  2   force =    -0.00048408    0.00000102    0.00059892
     atom   50 type  4   force =     0.00005293    0.00018514   -0.00028796
     atom   51 type  4   force =     0.00081197   -0.00004212   -0.00028385
     atom   52 type  4   force =     0.00029689   -0.00011859   -0.00041341
     atom   53 type  4   force =     0.00024039   -0.00016753   -0.00023306
     atom   54 type  5   force =    -0.00082828   -0.00031346    0.00046024
     atom   55 type  5   force =     0.00084994    0.00001272   -0.00060329

     Total force =     0.368557     Total SCF correction =     0.000841
  @ DRIVER MODE: Message from server: STATUS
  @ DRIVER MODE: Message from server: GETFORCE
  @ DRIVER MODE: Returning v,forces,stress,ensemble

     Writing config to output data dir ./calc.save/
  @ DRIVER MODE: Message from server: STATUS
  @ DRIVER MODE: Message from server: INIT
  @ DRIVER MODE: Receiving replica           0           0
  @ DRIVER MODE: Receiving encoded integer           2
  @ DRIVER MODE:  SCF:  T  FORCE:  T  STRESS:  F  VC:  F  ENSEMBLE:  F
  @ DRIVER MODE:  SCF:  F  FORCE:  F  STRESS:  F  VC:  F  ENSEMBLE:  T
  @ DRIVER MODE: Message from server: STATUS
  @ DRIVER MODE: Message from server: POSDATA
  @ DRIVER MODE: Reading and sharing positions
  @ DRIVER MODE: Received positions
     NEW-OLD atomic charge density approx. for the potential

[...]

     Adding external electric field

     Computed dipole along edir(3) :
        Dipole                1.2197 Ry au,          3.1001 Debye
        Dipole field          0.0023 Ry au,

        Potential amp.       -0.2134 Ry
        Total length         46.3494 bohr

  @ DRIVER MODE: BEEF-vdw

[...]

     negative rho (up, down):  1.363E-02 0.000E+00

     negative rho (up, down):  1.363E-02 0.000E+00
 BEEFens 2000 ensemble energies
             -0.354067522762061E+02
             -0.204360692533335E+01
             -0.729861675788078E+01
              0.245636645650169E+02
             -0.121709589058736E+02
             -0.940403986257604E+01
             -0.246016716608352E+02
             -0.514067996463455E+02
             -0.219234915007343E+02
             -0.230744858667735E+02
             -0.213920467993100E+02
              0.432176576233143E+01
              0.202592744553384E+01
             -0.109567999934181E+01
              0.177390048573780E+01
              0.270560931283203E+02
             -0.104516934539848E+02
             -0.735528202867735E+01
              0.119728896660360E+02
             -0.632272393240981E+02
              0.316793196212583E+02
             -0.135603090143812E+02
             -0.247571893549097E+01
             -0.572234581148562E+01
             -0.953473345169016E+00
             -0.220778818251209E+01
              0.490585674556540E+02
             -0.152993383337969E+02
             -0.412527536453541E+01
             -0.310035405335634E+02
              0.400767681435843E+02
             -0.442553427705010E+01
             -0.218232502358402E+02
              0.114533779483677E+02
             -0.209428330548997E+01
              0.132948930506555E+02
             -0.552992615367430E+00
              0.276804678985141E+01
              0.193173259378199E+02
             -0.558259819874026E+02
              0.311099803646491E+02
              0.828339098400713E+01
             -0.639865197947174E+01
             -0.178398849320953E+02
              0.704547650698098E+01
             -0.111609391907157E+02
              0.254433489328989E+02
              0.203054105534785E+02
             -0.130781106623926E+02
             -0.167180566184946E+02
             -0.176325950546497E+02
             -0.212394869225439E+02
              0.107871701739949E+02
             -0.276822493810523E+02
              0.848507695316692E+01
              0.353282026647261E+02
              0.407343969956503E+02
              0.189771639783328E+02
              0.851665878340468E+01
              0.177171675968650E+02
[...]
             -0.416592047911537E+02
              0.284376635116030E+01
             -0.144229007613020E+01
             -0.580570451874200E+01
              0.599393154134873E-01
             -0.370942726303084E+02
             -0.715746663780037E+01
              0.505758877148243E+01
              0.756034301839370E+01
              0.277912921647207E+02
             -0.242765926300915E+02
              0.317126512419833E+02
             -0.226989503520422E+02
              0.145994184855295E+02
              0.229888527187992E+02

 BEEF-vdW xc energy contributions
           1 :   -417.739988396480
           2 :    363.667572275039
           3 :   -276.668404948646
           4 :    186.151990954261
           5 :   -115.219792192814
           6 :    72.8244330170816
           7 :   -55.0171126925050
           8 :    51.6017390749416
           9 :   -53.0830438626974
          10 :    54.2308206670462
          11 :   -53.8154876140744
          12 :    52.3434423109914
          13 :   -50.1669689671550
          14 :    46.9963422731151
          15 :   -42.4768026297155
          16 :    36.8381590646862
          17 :   -31.0232806888725
          18 :    26.2515744313840
          19 :   -23.4039784459158
          20 :    22.6375451260467
          21 :   -23.4459280459387
          22 :    25.0293112437825
          23 :   -26.6615546226124
          24 :    27.8133221319247
          25 :   -28.1176398848964
          26 :    27.3636093494636
          27 :   -25.5541809932951
          28 :    22.9490228729377
          29 :   -20.0440002560783
          30 :    17.4550054164688
          31 :   -49.1640041371518
          32 :   -33.3328306068838
  @ DRIVER MODE: Message from server: STATUS
  @ DRIVER MODE: Message from server: GETFORCE
  @ DRIVER MODE: Returning v,forces,stress,ensemble
  @ DRIVE MODE: Returning Ensemble Energies

     Writing config to output data dir ./calc.save/
  @ DRIVER MODE: Message from server: EXIT
  @ DRIVE MODE: Exiting

     General routines

     Parallel routines

   This run was terminated on:  22:23:38  30Aug2021

   JOB DONE.