     Program PWSCF v.6.8 starts on 30Aug2021 at 14:39:26

     R & G space division:  proc/nbgrp/npool/nimage =      24

     Reading input from /storage/home/hcoda1/3/ntian30/research/carbon/methanol/ads_slab/CH3OHN2_i/methanol.log/pw.inp
Warning: card &CELL ignored
Warning: card   CELL_DYNAMICS='IPI', ignored
Warning: card / ignored

     Current dimensions of program PWSCF are:
     Max number of different atomic species (ntypx) = 10
     Max number of k-points (npk) =  40000
     Max angular momentum in pseudopotentials (lmaxx) =  4
     Presently no symmetry can be used with electric field

     Message from routine cell_base_init:
     DEPRECATED: use true lattice parameter, not A to a.u. conversion factor

     IMPORTANT: XC functional enforced from input :
     Exchange-correlation= BEEF-VDW
                           (   1   4  43  14   2   0   0)
     Any further DFT definition will be discarded
     Please, verify this is what you really want

  @ DRIVER MODE: Connecting to
 qe_1139763_2685213.sched-torque.pace.gatech.edu9es5_jsn_scratch
  using UNIX socket
  @ DRIVER MODE: Message from server: STATUS
  @ DRIVER MODE: Message from server: INIT
  @ DRIVER MODE: Receiving replica           0          -1
  @ DRIVER MODE: Receiving encoded integer          25
  @ DRIVER MODE:  SCF:  T  FORCE:  T  STRESS:  F  VC:  F  ENSEMBLE:  F
  @ DRIVER MODE:  SCF:  T  FORCE:  T  STRESS:  F  VC:  F  ENSEMBLE:  F

     Using Slab Decomposition

     bravais-lattice index     =            0
     lattice parameter (alat)  =       1.8897  a.u.
     unit-cell volume          =    6658.9804 (a.u.)^3
     number of atoms/cell      =           55
     number of atomic types    =            5
     number of electrons       =       402.00
     number of Kohn-Sham states=          211
     kinetic-energy cutoff     =      29.3995  Ry
     charge density cutoff     =     293.9946  Ry
     scf convergence threshold =      7.3E-08
     mixing beta               =       0.0500
     number of iterations used =            8  plain     mixing
     Exchange-correlation= BEEF-VDW
                           (   1   4  43  14   2   0   0)

     celldm(1)=   1.889726  celldm(2)=   0.000000  celldm(3)=   0.000000
     celldm(4)=   0.000000  celldm(5)=   0.000000  celldm(6)=   0.000000

     crystal axes: (cart. coord. in units of alat)
               a(1) = (   6.579727   0.000000   0.000000 )
               a(2) = (  -0.000775   5.961596   0.000000 )
               a(3) = (   0.000000   0.000000  25.155947 )

     reciprocal axes: (cart. coord. in units 2 pi/alat)
               b(1) = (  0.151982  0.000020  0.000000 )
               b(2) = (  0.000000  0.167740  0.000000 )
               b(3) = (  0.000000  0.000000  0.039752 )

     PseudoPot. # 1 for Ti read from file:
     /storage/coda1/p-amedford6/0/shared/rich_project_chbe-medford/medford-share/data/pseudos_module/espresso/nninc/pbe/van/Ti.UPF
     MD5 check sum: 8e4df49b7f0d34bbd5052bf3f5ea0213
     Pseudo is Ultrasoft, Zval = 12.0
     Generated by new atomic code, or converted to UPF format
     Using radial grid of  851 points,  6 beta functions with:
                l(1) =   0
                l(2) =   0
                l(3) =   1
                l(4) =   1
                l(5) =   2
                l(6) =   2
     Q(r) pseudized with  8 coefficients,  rinner =    1.000   1.000   1.000
                                                       1.000   1.000

     PseudoPot. # 2 for O  read from file:
     /storage/coda1/p-amedford6/0/shared/rich_project_chbe-medford/medford-share/data/pseudos_module/espresso/nninc/pbe/van/O.UPF
     MD5 check sum: 78c19812648e8988a0fe644b0f25305e
     Pseudo is Ultrasoft, Zval =  6.0
     Generated by new atomic code, or converted to UPF format
     Using radial grid of  737 points,  4 beta functions with:
                l(1) =   0
                l(2) =   0
                l(3) =   1
                l(4) =   1
     Q(r) pseudized with  8 coefficients,  rinner =    0.800   0.800   0.800

     PseudoPot. # 3 for C  read from file:
     /storage/coda1/p-amedford6/0/shared/rich_project_chbe-medford/medford-share/data/pseudos_module/espresso/nninc/pbe/van/C.UPF
     MD5 check sum: 1a69bf6b8db32088f5b2163dbdb77a27
     Pseudo is Ultrasoft, Zval =  4.0
     Generated by new atomic code, or converted to UPF format
     Using radial grid of  721 points,  4 beta functions with:
                l(1) =   0
                l(2) =   0
                l(3) =   1
                l(4) =   1
     Q(r) pseudized with  8 coefficients,  rinner =    0.800   0.800   0.800

     PseudoPot. # 4 for H  read from file:
     /storage/coda1/p-amedford6/0/shared/rich_project_chbe-medford/medford-share/data/pseudos_module/espresso/nninc/pbe/van/H.UPF
     MD5 check sum: b5ee9d7bfd3a09ee7748110bda690ff7
     Pseudo is Ultrasoft, Zval =  1.0
     Generated by new atomic code, or converted to UPF format
     Using radial grid of  615 points,  1 beta functions with:
                l(1) =   0
     Q(r) pseudized with  8 coefficients,  rinner =    0.800

     PseudoPot. # 5 for N  read from file:
     /storage/coda1/p-amedford6/0/shared/rich_project_chbe-medford/medford-share/data/pseudos_module/espresso/nninc/pbe/van/N.UPF
     MD5 check sum: 90d10febe142ad51ac9d5be1deb811c4
     Pseudo is Ultrasoft, Zval =  5.0
     Generated by new atomic code, or converted to UPF format
     Using radial grid of  729 points,  4 beta functions with:
                l(1) =   0
                l(2) =   0
                l(3) =   1
                l(4) =   1
     Q(r) pseudized with  8 coefficients,  rinner =    0.800   0.800   0.800

     atomic species   valence    mass     pseudopotential
        Ti1           12.00    47.86700     Ti( 1.00)
        O1             6.00    15.99900     O ( 1.00)
        C1             4.00    12.01100     C ( 1.00)
        H1             1.00     1.00800     H ( 1.00)
        N1             5.00    14.00700     N ( 1.00)

     No symmetry found

   Cartesian axes

     site n.     atom                  positions (alat units)
         1           Ti1 tau(   1) = (   0.0004258   2.9801865   6.0000000  )
         2           Ti1 tau(   2) = (   3.2906075   1.4906267   6.0002472  )
         3           O1  tau(   3) = (   0.0006271   0.0005054   7.9858123  )
         4           O1  tau(   4) = (   3.2906025   0.0005020   7.3038282  )
         5           O1  tau(   5) = (   4.5942328   1.4918067   9.2879030  )
         6           O1  tau(   6) = (   1.9868534   1.4903216   9.2879459  )
         7           Ti1 tau(   7) = (   3.3158351   2.9795272   9.1571407  )
         8           Ti1 tau(   8) = (   0.0345117   1.4954568   9.2575666  )
         9           O1  tau(   9) = (   3.2804148   0.0005216  11.3961210  )
        10           O1  tau(  10) = (   6.5754384   0.0027490  10.6104223  )
        11           O1  tau(  11) = (   1.2711157   1.5048091  12.6625889  )
        12           O1  tau(  12) = (   5.2819882   1.5086244  12.6575238  )
        13           Ti1 tau(  13) = (   6.5611464   2.9928142  12.4891984  )
        14           Ti1 tau(  14) = (   3.2628853   1.4881963  12.5400211  )
        15           O1  tau(  15) = (   6.5462708   0.0383706  14.6849076  )
        16           O1  tau(  16) = (   3.2762351   0.0314270  14.0210983  )
        17           O1  tau(  17) = (   4.5480503   1.5258664  16.2093047  )
        18           O1  tau(  18) = (   2.0091799   1.5236472  16.2076768  )
        19           Ti1 tau(  19) = (   3.2615833   3.0079505  15.7899682  )
        20           Ti1 tau(  20) = (   6.5461430   1.3591503  15.9841226  )
        21           O1  tau(  21) = (   3.2904802   0.0005063   4.7018136  )
        22           O1  tau(  22) = (   0.0055641   5.9323274  17.2271586  )
        23           O1  tau(  23) = (   1.3043587   1.4918075   6.0039043  )
        24           O1  tau(  24) = (   5.2767064   1.4903225   6.0039473  )
        25           Ti1 tau(  25) = (   0.0000382   5.9609847   6.0000000  )
        26           Ti1 tau(  26) = (   3.2902200   4.4714249   6.0002472  )
        27           O1  tau(  27) = (   0.0002396   2.9813036   7.9858123  )
        28           O1  tau(  28) = (   3.2902150   2.9813002   7.3038282  )
        29           O1  tau(  29) = (   4.5938453   4.4726049   9.2879030  )
        30           O1  tau(  30) = (   1.9864658   4.4711199   9.2879459  )
        31           Ti1 tau(  31) = (   3.3150948   5.9586858   9.1561628  )
        32           Ti1 tau(  32) = (   0.0340967   4.4763829   9.2524718  )
        33           O1  tau(  33) = (   3.2753113   2.9914731  11.3901290  )
        34           O1  tau(  34) = (   6.5780236   2.9893894  10.6266999  )
        35           O1  tau(  35) = (   1.2714098   4.4783180  12.6834591  )
        36           O1  tau(  36) = (   5.2817444   4.4746391  12.6770453  )
        37           Ti1 tau(  37) = (   6.5518553   0.0146490  12.4787168  )
        38           Ti1 tau(  38) = (   3.2609386   4.4666435  12.5436525  )
        39           O1  tau(  39) = (   6.5727554   2.9765611  15.0046942  )
        40           O1  tau(  40) = (   3.2753211   2.9893216  13.9945429  )
        41           O1  tau(  41) = (   4.5407595   4.4795142  16.1711177  )
        42           O1  tau(  42) = (   2.0079144   4.4851887  16.1445895  )
        43           Ti1 tau(  43) = (   3.2645986   0.0272911  15.8248446  )
        44           Ti1 tau(  44) = (   6.5393768   4.6192689  15.8991084  )
        45           O1  tau(  45) = (   3.2900926   2.9813045   4.7018136  )
        46           O1  tau(  46) = (   1.3039711   4.4726057   6.0039043  )
        47           O1  tau(  47) = (   5.2763189   4.4711207   6.0039473  )
        48           C1  tau(  48) = (   0.2825875   3.2559775  19.2685358  )
        49           O1  tau(  49) = (   1.2951032   4.2390751  19.3812768  )
        50           H1  tau(  50) = (   0.6415048   2.3562466  19.7635977  )
        51           H1  tau(  51) = (   0.9956314   5.0335145  18.9054436  )
        52           H1  tau(  52) = (   5.9119845   3.5690521  19.7114027  )
        53           H1  tau(  53) = (   0.0782633   2.9856970  18.2099924  )
        54           N1  tau(  54) = (   2.0091799   1.5236472  18.7076768  )
        55           N1  tau(  55) = (   2.0091799   1.5236472  17.5776968  )

     number of k points=    10  Fermi-Dirac smearing, width (Ry)=  0.0073
                       cart. coord. in units 2pi/alat
        k(    1) = (   0.0000000   0.0000000   0.0000000), wk =   0.1250000
        k(    2) = (   0.0000000   0.0419351   0.0000000), wk =   0.2500000
        k(    3) = (   0.0000000  -0.0838702   0.0000000), wk =   0.1250000
        k(    4) = (   0.0379955   0.0000049   0.0000000), wk =   0.2500000
        k(    5) = (   0.0379955   0.0419400   0.0000000), wk =   0.2500000
        k(    6) = (   0.0379955  -0.0838652   0.0000000), wk =   0.2500000
        k(    7) = (   0.0379955  -0.0419301   0.0000000), wk =   0.2500000
        k(    8) = (  -0.0759910  -0.0000099   0.0000000), wk =   0.1250000
        k(    9) = (  -0.0759910   0.0419252   0.0000000), wk =   0.2500000
[...]
        43           Ti1 tau(  43) = (   3.2767394   5.9270192  15.7675361  )
        44           Ti1 tau(  44) = (   6.5494238   4.5756125  15.8717811  )
        45           O1  tau(  45) = (   3.2900926   2.9813045   4.7018136  )
        46           O1  tau(  46) = (   1.3039711   4.4726057   6.0039043  )
        47           O1  tau(  47) = (   5.2763189   4.4711207   6.0039473  )
        48           C1  tau(  48) = (   6.4246662   3.5269422  19.4537660  )
        49           O1  tau(  49) = (   1.0063858   4.3507339  19.5053967  )
        50           H1  tau(  50) = (   0.0106252   2.6815931  20.1222556  )
        51           H1  tau(  51) = (   0.8640172   5.0911584  18.8968669  )
        52           H1  tau(  52) = (   5.5201416   4.0671656  19.7537839  )
        53           H1  tau(  53) = (   6.2517405   3.1146771  18.4415458  )
        54           N1  tau(  54) = (   3.3152914   0.9155967  19.6781206  )
        55           N1  tau(  55) = (   2.6139991   1.6196836  19.1916745  )

     number of k points=    10  Fermi-Dirac smearing, width (Ry)=  0.0073
                       cart. coord. in units 2pi/alat
        k(    1) = (   0.0000000   0.0000000   0.0000000), wk =   0.1250000
        k(    2) = (   0.0000000   0.0419351   0.0000000), wk =   0.2500000
        k(    3) = (   0.0000000  -0.0838702   0.0000000), wk =   0.1250000
        k(    4) = (   0.0379955   0.0000049   0.0000000), wk =   0.2500000
        k(    5) = (   0.0379955   0.0419400   0.0000000), wk =   0.2500000
        k(    6) = (   0.0379955  -0.0838652   0.0000000), wk =   0.2500000
        k(    7) = (   0.0379955  -0.0419301   0.0000000), wk =   0.2500000
        k(    8) = (  -0.0759910  -0.0000099   0.0000000), wk =   0.1250000
        k(    9) = (  -0.0759910   0.0419252   0.0000000), wk =   0.2500000
        k(   10) = (  -0.0759910  -0.0838800   0.0000000), wk =   0.1250000

     Initial potential from superposition of free atoms

     starting charge  385.99915, renormalised to  402.00000

[...]

     %%%%%%%%%%%%%%%%%%%%%%%%%%%%%%%%%%%%%%%%%%%%%%%%%%%%%%%%%%%%%%%%%%%%%%%%
     %                                                                      %
     % You are using vdW-DF, which was implemented by the Thonhauser group. %
     % Please cite the following two papers that made this development      %
     % possible and the two reviews that describe the various versions:     %
     %                                                                      %
     %   T. Thonhauser et al., PRL 115, 136402 (2015).                      %
     %   T. Thonhauser et al., PRB 76, 125112 (2007).                       %
     %   K. Berland et al., Rep. Prog. Phys. 78, 066501 (2015).             %
     %   D.C. Langreth et al., J. Phys.: Condens. Matter 21, 084203 (2009). %
     %                                                                      %
     %                                                                      %
     % If you are calculating the stress with vdW-DF, please also cite:     %
     %                                                                      %
     %   R. Sabatini et al., J. Phys.: Condens. Matter 24, 424209 (2012).   %
     %                                                                      %
     %%%%%%%%%%%%%%%%%%%%%%%%%%%%%%%%%%%%%%%%%%%%%%%%%%%%%%%%%%%%%%%%%%%%%%%%

[...]

     Starting wfcs are  304 atomic wfcs
  @ DRIVER MODE: Message from server: STATUS
  @ DRIVER MODE: Message from server: POSDATA
  @ DRIVER MODE: Reading and sharing cell
  @ DRIVER MODE: Reading and sharing positions
  @ DRIVER MODE: Received positions

[...]

     Self-consistent Calculation

[...]

     iteration #  9     ecut=    29.40 Ry     beta= 0.05
     Davidson diagonalization with overlap
     c_bands:  1 eigenvalues not converged
     ethr =  9.17E-09,  avg # of iterations = 14.0

[...]

     total energy              =   -2972.78778136 Ry
     estimated scf accuracy    <       0.00000008 Ry

     iteration # 17     ecut=    29.40 Ry     beta= 0.05
     Davidson diagonalization with overlap
     ethr =  2.07E-11,  avg # of iterations = 16.6

[...]

     End of self-consistent calculation

[...]

          k = 0.0380-0.0419 0.0000 ( 17876 PWs)   bands (ev):

[...]

          k =-0.0760-0.0839 0.0000 ( 17948 PWs)   bands (ev):

   -55.8654 -55.8636 -55.8148 -55.8148 -55.7571 -55.7362 -55.7318 -55.7110
   -55.7087 -55.7026 -55.6958 -55.6535 -55.6408 -55.6395 -54.9261 -54.9260
   -32.3249 -32.2483 -32.2471 -32.1486 -32.1485 -32.1443 -32.1320 -32.1078
   -32.1070 -32.0816 -32.0768 -32.0742 -32.0688 -32.0280 -32.0258 -32.0251
   -32.0243 -32.0234 -32.0087 -32.0025 -31.9989 -31.9946 -31.9856 -31.9710
   -31.9674 -31.9587 -31.9550 -31.9532 -31.9329 -31.9328 -31.9293 -31.9241
   -31.9076 -31.9053 -31.8812 -31.8758 -31.8750 -31.8733 -31.8516 -31.8366
   -31.8254 -31.8239 -31.2428 -31.2427 -31.1687 -31.1686 -31.1288 -31.1287
   -20.7078 -17.7497 -16.4061 -16.0578 -16.0266 -15.9393 -15.9309 -15.8290
   -15.8128 -15.7235 -15.6807 -15.6573 -15.6551 -15.6071 -15.5785 -15.5634
   -15.5592 -15.5013 -15.4871 -15.4576 -15.4532 -15.4037 -15.3979 -15.3975
   -15.3954 -15.3646 -15.3583 -15.3198 -15.3166 -15.2241 -15.0849 -13.4257
   -13.4256  -9.2754  -5.9139  -4.8343  -3.8816  -3.8448  -3.4215  -3.3266
    -3.2775  -3.1904  -3.1611  -3.0732  -3.0493  -3.0054  -2.9969  -2.9218
    -2.8743  -2.8733  -2.7950  -2.7877  -2.7837  -2.7737  -2.7624  -2.7081
    -2.6907  -2.6700  -2.6413  -2.6224  -2.5969  -2.5928  -2.5864  -2.5782
    -2.5520  -2.5434  -2.5302  -2.5171  -2.4947  -2.4577  -2.4455  -2.4367
    -2.2812  -2.2734  -2.1666  -2.1221  -2.1196  -2.0338  -2.0314  -1.9900
    -1.9559  -1.8985  -1.8617  -1.6937  -1.6828  -1.6801  -1.6165  -1.5640
    -1.5153  -1.4520  -1.4384  -1.4001  -1.3413  -1.2135  -1.1985  -1.1675
    -1.0824  -1.0731  -0.9934  -0.9297  -0.8853  -0.8744  -0.8719  -0.8469
    -0.8346  -0.8269  -0.7210  -0.6743  -0.6336  -0.6236  -0.5997  -0.4721
    -0.3903  -0.3468  -0.3218  -0.2186  -0.1152   0.0180   0.0248   0.0901
     0.1815   0.1950   0.2055   0.2336   0.3596   0.3749   0.4313   0.4814
     0.4899   0.5303   0.5345   1.3576   1.4312   1.4322   1.5391   1.5400
     3.3857   3.4606   3.4851   3.5230   3.6654   3.6718   3.7205   3.7584
     3.7726   3.7791   3.8478

     the Fermi energy is     3.2809 ev

!    total energy              =   -2972.78778423 Ry
     estimated scf accuracy    <       0.00000006 Ry
     smearing contrib. (-TS)   =      -0.03674234 Ry
     internal energy E=F+TS    =   -2972.75104189 Ry

     The total energy is F=E-TS. E is the sum of the following terms:
     one-electron contribution =  -22427.93280631 Ry
     hartree contribution      =   11304.16276889 Ry
     xc contribution           =    -493.14966031 Ry
     ewald contribution        =    8644.16847505 Ry
     electric field correction =       0.00018078 Ry

     convergence has been achieved in  17 iterations

     Forces acting on atoms (cartesian axes, Ry/au):

     atom    1 type  1   force =    -0.00011267   -0.00000052    0.09017078
     atom    2 type  1   force =    -0.00016675   -0.00003951   -0.18429932
     atom    3 type  2   force =     0.00041649    0.00102571   -0.02354961
     atom    4 type  2   force =     0.00050840    0.00027020    0.05319654
     atom    5 type  2   force =    -0.01444204    0.00050440    0.00672565
     atom    6 type  2   force =     0.01289691    0.00095332    0.00551971
     atom    7 type  1   force =     0.00026993    0.00088766    0.00014797
     atom    8 type  1   force =    -0.00027425    0.00071694    0.00071833
     atom    9 type  2   force =     0.00018774   -0.00001414   -0.00011448
     atom   10 type  2   force =    -0.00025330   -0.00012028   -0.00048388
     atom   11 type  2   force =     0.00029181   -0.00013278    0.00012400
     atom   12 type  2   force =     0.00003550   -0.00007131   -0.00009524
     atom   13 type  1   force =     0.00059193    0.00015328   -0.00100986
     atom   14 type  1   force =    -0.00051227    0.00025787   -0.00000929
     atom   15 type  2   force =    -0.00021297    0.00039630   -0.00017309
     atom   16 type  2   force =     0.00044803    0.00004984    0.00020641
     atom   17 type  2   force =     0.00004116   -0.00000153    0.00040380
     atom   18 type  2   force =    -0.00005512   -0.00035930   -0.00060851
     atom   19 type  1   force =     0.00046922   -0.00003661    0.00018155
     atom   20 type  1   force =     0.00030574   -0.00024553   -0.00050811
     atom   21 type  2   force =     0.00004192    0.00000732    0.10528595
     atom   22 type  2   force =    -0.00017227   -0.00038637   -0.00009128
     atom   23 type  2   force =    -0.06765179   -0.00036547   -0.02595692
     atom   24 type  2   force =     0.06749364    0.00004896   -0.02605566
     atom   25 type  1   force =    -0.00020074    0.00002349    0.08866108
     atom   26 type  1   force =    -0.00014416   -0.00032049   -0.18425447
     atom   27 type  2   force =     0.00042794    0.00088084   -0.02251745
     atom   28 type  2   force =     0.00039066    0.00016746    0.05273161
     atom   29 type  2   force =    -0.01452658    0.00080973    0.00665676
     atom   30 type  2   force =     0.01281709    0.00098052    0.00548653
     atom   31 type  1   force =     0.00031842   -0.00057505   -0.00044542
     atom   32 type  1   force =    -0.00021489   -0.00049311    0.00083336
     atom   33 type  2   force =     0.00009709   -0.00036153    0.00083139
     atom   34 type  2   force =    -0.00013076   -0.00010504    0.00054468
     atom   35 type  2   force =     0.00005008   -0.00034253    0.00007536
     atom   36 type  2   force =     0.00015835   -0.00046982    0.00056039
     atom   37 type  1   force =    -0.00007522   -0.00038791   -0.00021147
     atom   38 type  1   force =    -0.00071628   -0.00058418    0.00037608
     atom   39 type  2   force =    -0.00010305   -0.00030812   -0.00024681
     atom   40 type  2   force =     0.00029550   -0.00026468   -0.00005747
     atom   41 type  2   force =     0.00067035   -0.00023284    0.00017071
     atom   42 type  2   force =    -0.00033341   -0.00005698   -0.00010861
     atom   43 type  1   force =    -0.00040435   -0.00033157   -0.00088721
     atom   44 type  1   force =     0.00009544   -0.00042769   -0.00008988
     atom   45 type  2   force =     0.00002583    0.00001069    0.10523457
     atom   46 type  2   force =    -0.06764937   -0.00024324   -0.02596937
     atom   47 type  2   force =     0.06749728    0.00024450   -0.02603923
     atom   48 type  3   force =    -0.00057054    0.00045858    0.00032583
     atom   49 type  2   force =     0.00066995    0.00020629    0.00029536
     atom   50 type  4   force =     0.00048950   -0.00043930    0.00016695
     atom   51 type  4   force =     0.00014605    0.00018286   -0.00059785
     atom   52 type  4   force =     0.00009156   -0.00049788   -0.00033671
     atom   53 type  4   force =     0.00018860   -0.00056594   -0.00139626
     atom   54 type  5   force =    -0.00068249    0.00032440   -0.00082421
     atom   55 type  5   force =     0.00117720   -0.00077991    0.00130630

     Total force =     0.366930     Total SCF correction =     0.000826
  @ DRIVER MODE: Message from server: STATUS
  @ DRIVER MODE: Message from server: GETFORCE
  @ DRIVER MODE: Returning v,forces,stress,ensemble

     Writing config to output data dir ./calc.save/
  @ DRIVER MODE: Message from server: STATUS
  @ DRIVER MODE: Message from server: INIT
  @ DRIVER MODE: Receiving replica           0           0
  @ DRIVER MODE: Receiving encoded integer           2
  @ DRIVER MODE:  SCF:  T  FORCE:  T  STRESS:  F  VC:  F  ENSEMBLE:  F
  @ DRIVER MODE:  SCF:  F  FORCE:  F  STRESS:  F  VC:  F  ENSEMBLE:  T
  @ DRIVER MODE: Message from server: STATUS
  @ DRIVER MODE: Message from server: POSDATA
  @ DRIVER MODE: Reading and sharing positions
  @ DRIVER MODE: Received positions
     NEW-OLD atomic charge density approx. for the potential

[...]

     Adding external electric field

     Computed dipole along edir(3) :
        Dipole                0.3095 Ry au,          0.7867 Debye
        Dipole field          0.0006 Ry au,

        Potential amp.       -0.0541 Ry
        Total length         46.3494 bohr

  @ DRIVER MODE: BEEF-vdw

[...]

     negative rho (up, down):  1.432E-02 0.000E+00

     negative rho (up, down):  1.432E-02 0.000E+00
 BEEFens 2000 ensemble energies
             -0.354087568865558E+02
             -0.203525544199385E+01
             -0.731514786149245E+01
              0.245557830783618E+02
             -0.121779044593857E+02
             -0.942046952858075E+01
             -0.246161505155714E+02
             -0.514269500191452E+02
             -0.219629359519205E+02
             -0.230689890990628E+02
             -0.213532623936595E+02
              0.430543087598440E+01
              0.203245692150070E+01
             -0.107797695021361E+01
              0.178586630134340E+01
              0.270373745139959E+02
             -0.104794514988222E+02
             -0.738293945684427E+01
              0.119305540760336E+02
             -0.632429251176013E+02
              0.316516369709845E+02
             -0.135309515393096E+02
             -0.248013812584023E+01
             -0.572941472072307E+01
             -0.938191351496357E+00
             -0.222783940149499E+01
              0.490800553956095E+02
             -0.152446475601355E+02
             -0.416541110687564E+01
             -0.309815912207304E+02
              0.400822402913331E+02
             -0.445890357204861E+01
             -0.218112294696188E+02
              0.114707580167366E+02
             -0.209104491902701E+01
              0.132579297293544E+02
             -0.551835018512634E+00
              0.279239691190992E+01
              0.192861295061324E+02
             -0.558546459421675E+02
              0.311332998299718E+02
              0.827984155771819E+01
             -0.637814897195872E+01
             -0.178642840669120E+02
              0.703690769361049E+01
             -0.111510670544807E+02
              0.254222980707932E+02
              0.202956519427615E+02
             -0.130764609174759E+02
             -0.166914299305757E+02
             -0.175945459469872E+02
             -0.212402508021049E+02
              0.107746652261642E+02
             -0.277094847942113E+02
              0.850037671795963E+01
              0.353430523550446E+02
              0.407040815870729E+02
              0.189933439701217E+02
              0.855237184474696E+01
              0.177230386109043E+02
[...]
             -0.416398287383921E+02
              0.283552172990699E+01
             -0.141233858306480E+01
             -0.581185839753567E+01
              0.501215620121229E-01
             -0.370781574246218E+02
             -0.717690538788153E+01
              0.507017326848164E+01
              0.754385647190492E+01
              0.277759070106782E+02
             -0.242542597890768E+02
              0.317485243245315E+02
             -0.227056792430066E+02
              0.145956496914695E+02
              0.229767190174569E+02

 BEEF-vdW xc energy contributions
           1 :   -417.683041292715
           2 :    363.505947198001
           3 :   -276.503074272977
           4 :    186.186209485966
           5 :   -115.459599853895
           6 :    73.0820489909667
           7 :   -55.1358886848774
           8 :    51.5852552912188
           9 :   -53.0251350515712
          10 :    54.2100029094345
          11 :   -53.8515533397482
          12 :    52.4077174570689
          13 :   -50.2094475265083
          14 :    46.9802102075391
          15 :   -42.3954115823082
          16 :    36.7110881165589
          17 :   -30.8816173622536
          18 :    26.1217562178188
          19 :   -23.2899123607141
          20 :    22.5145475694634
          21 :   -23.2835192030271
          22 :    24.8245691584762
          23 :   -26.4409341733428
          24 :    27.6091308102309
          25 :   -27.9538747241177
          26 :    27.2600527116745
          27 :   -25.5303830365306
          28 :    23.0102980718940
          29 :   -20.1591158342694
          30 :    17.5558864183511
          31 :   -49.1559195787914
          32 :   -33.3079063350497
  @ DRIVER MODE: Message from server: STATUS
  @ DRIVER MODE: Message from server: GETFORCE
  @ DRIVER MODE: Returning v,forces,stress,ensemble
  @ DRIVE MODE: Returning Ensemble Energies

     Writing config to output data dir ./calc.save/
  @ DRIVER MODE: Message from server: EXIT
  @ DRIVE MODE: Exiting

     General routines

     Parallel routines

   This run was terminated on:  22:34:39  30Aug2021

   JOB DONE.