     Program PWSCF v.6.7GPU starts on 26Sep2021 at 20:51:58

     R & G space division:  proc/nbgrp/npool/nimage =       8
     Reading input from /storage/home/hcoda1/3/ntian30/research/carbon/CxH_vib/H2O_calc/ads_slab/CH3OH2O_a/out_0029/pw.inp
Warning: card &CELL ignored
Warning: card   CELL_DYNAMICS='IPI', ignored
Warning: card / ignored

     Current dimensions of program PWSCF are:
     Max number of different atomic species (ntypx) = 10
     Max number of k-points (npk) =  40000
     Max angular momentum in pseudopotentials (lmaxx) =  3
     Presently no symmetry can be used with electric field

     Message from routine cell_base_init:
     DEPRECATED: use true lattice parameter, not A to a.u. conversion factor

     IMPORTANT: XC functional enforced from input :
     Exchange-correlation= BEEF-VDW
                           (   1   4  43  14   2   0   0)
     Any further DFT definition will be discarded
     Please, verify this is what you really want

  @ DRIVER MODE: Connecting to
 qe_1139763_2971673.sched-torque.pace.gatech.edunezycguv_scratch
  using UNIX socket
  @ DRIVER MODE: Message from server: STATUS
  @ DRIVER MODE: Message from server: INIT
  @ DRIVER MODE: Receiving replica           0          -1
  @ DRIVER MODE: Receiving encoded integer          25
  @ DRIVER MODE:  SCF:  T  FORCE:  T  STRESS:  F  VC:  F  ENSEMBLE:  F
  @ DRIVER MODE:  SCF:  T  FORCE:  T  STRESS:  F  VC:  F  ENSEMBLE:  F

     Using Slab Decomposition

     bravais-lattice index     =            0
     lattice parameter (alat)  =       1.8897  a.u.
     unit-cell volume          =    6658.9804 (a.u.)^3
     number of atoms/cell      =           55
     number of atomic types    =            4
     number of electrons       =       399.00
     number of Kohn-Sham states=          209
     kinetic-energy cutoff     =      29.3995  Ry
     charge density cutoff     =     293.9946  Ry
     scf convergence threshold =      7.3E-08
     mixing beta               =       0.0500
     number of iterations used =            8  plain     mixing
     Exchange-correlation= BEEF-VDW
                           (   1   4  43  14   2   0   0)

     celldm(1)=   1.889726  celldm(2)=   0.000000  celldm(3)=   0.000000
     celldm(4)=   0.000000  celldm(5)=   0.000000  celldm(6)=   0.000000

     crystal axes: (cart. coord. in units of alat)
               a(1) = (   6.579727   0.000000   0.000000 )
               a(2) = (  -0.000775   5.961596   0.000000 )
               a(3) = (   0.000000   0.000000  25.155947 )

     reciprocal axes: (cart. coord. in units 2 pi/alat)
               b(1) = (  0.151982  0.000020  0.000000 )
               b(2) = (  0.000000  0.167740  0.000000 )
               b(3) = (  0.000000  0.000000  0.039752 )

     PseudoPot. # 1 for Ti read from file:
     /storage/coda1/p-amedford6/0/shared/rich_project_chbe-medford/medford-share/data/pseudos_module/espresso/nninc/pbe/van/Ti.UPF
     MD5 check sum: 8e4df49b7f0d34bbd5052bf3f5ea0213
     Pseudo is Ultrasoft, Zval = 12.0
     Generated by new atomic code, or converted to UPF format
     Using radial grid of  851 points,  6 beta functions with:
                l(1) =   0
                l(2) =   0
                l(3) =   1
                l(4) =   1
                l(5) =   2
                l(6) =   2
     Q(r) pseudized with  8 coefficients,  rinner =    1.000   1.000   1.000
                                                       1.000   1.000

     PseudoPot. # 2 for O  read from file:
     /storage/coda1/p-amedford6/0/shared/rich_project_chbe-medford/medford-share/data/pseudos_module/espresso/nninc/pbe/van/O.UPF
     MD5 check sum: 78c19812648e8988a0fe644b0f25305e
     Pseudo is Ultrasoft, Zval =  6.0
     Generated by new atomic code, or converted to UPF format
     Using radial grid of  737 points,  4 beta functions with:
                l(1) =   0
                l(2) =   0
                l(3) =   1
                l(4) =   1
     Q(r) pseudized with  8 coefficients,  rinner =    0.800   0.800   0.800

     PseudoPot. # 3 for C  read from file:
     /storage/coda1/p-amedford6/0/shared/rich_project_chbe-medford/medford-share/data/pseudos_module/espresso/nninc/pbe/van/C.UPF
     MD5 check sum: 1a69bf6b8db32088f5b2163dbdb77a27
     Pseudo is Ultrasoft, Zval =  4.0
     Generated by new atomic code, or converted to UPF format
     Using radial grid of  721 points,  4 beta functions with:
                l(1) =   0
                l(2) =   0
                l(3) =   1
                l(4) =   1
     Q(r) pseudized with  8 coefficients,  rinner =    0.800   0.800   0.800

     PseudoPot. # 4 for H  read from file:
     /storage/coda1/p-amedford6/0/shared/rich_project_chbe-medford/medford-share/data/pseudos_module/espresso/nninc/pbe/van/H.UPF
     MD5 check sum: b5ee9d7bfd3a09ee7748110bda690ff7
     Pseudo is Ultrasoft, Zval =  1.0
     Generated by new atomic code, or converted to UPF format
     Using radial grid of  615 points,  1 beta functions with:
                l(1) =   0
     Q(r) pseudized with  8 coefficients,  rinner =    0.800

     atomic species   valence    mass     pseudopotential
        Ti1           12.00    47.86700     Ti( 1.00)
        O1             6.00    15.99900     O ( 1.00)
        C1             4.00    12.01100     C ( 1.00)
        H1             1.00     1.00800     H ( 1.00)

     No symmetry found

   Cartesian axes

     site n.     atom                  positions (alat units)
         1           Ti1 tau(   1) = (   0.0004258   2.9801865   6.0000000  )
         2           Ti1 tau(   2) = (   3.2906075   1.4906267   6.0002472  )
         3           O1  tau(   3) = (   0.0006271   0.0005054   7.9858123  )
         4           O1  tau(   4) = (   3.2906025   0.0005020   7.3038282  )
         5           O1  tau(   5) = (   4.5942328   1.4918067   9.2879030  )
         6           O1  tau(   6) = (   1.9868534   1.4903216   9.2879459  )
         7           Ti1 tau(   7) = (   3.2820359   3.0439161   9.1623595  )
         8           Ti1 tau(   8) = (   6.5599266   1.6132547   9.3553476  )
         9           O1  tau(   9) = (   3.2945286   0.0238644  11.3456088  )
        10           O1  tau(  10) = (   0.0063054   0.0138127  10.6020390  )
        11           O1  tau(  11) = (   1.2951583   1.5100513  12.6443238  )
        12           O1  tau(  12) = (   5.2990995   1.5148170  12.6233090  )
        13           Ti1 tau(  13) = (   0.0263474   3.0106421  12.7494805  )
        14           Ti1 tau(  14) = (   3.3336015   1.5167552  12.4948480  )
        15           O1  tau(  15) = (   6.5448532   0.0190031  14.6983011  )
        16           O1  tau(  16) = (   3.3224233   0.0259125  13.9568087  )
        17           O1  tau(  17) = (   4.5367000   1.5168325  16.1249780  )
        18           O1  tau(  18) = (   2.0218268   1.5507800  16.0022153  )
        19           Ti1 tau(  19) = (   3.2743302   2.9980917  15.6870858  )
        20           Ti1 tau(  20) = (   0.0201860   1.3869735  16.0719154  )
        21           O1  tau(  21) = (   3.2904802   0.0005063   4.7018136  )
        22           O1  tau(  22) = (   0.0925506   0.0150102  17.2361640  )
        23           O1  tau(  23) = (   1.3043587   1.4918075   6.0039043  )
        24           O1  tau(  24) = (   5.2767064   1.4903225   6.0039473  )
        25           Ti1 tau(  25) = (   0.0000382   5.9609847   6.0000000  )
        26           Ti1 tau(  26) = (   3.2902200   4.4714249   6.0002472  )
        27           O1  tau(  27) = (   0.0002396   2.9813036   7.9858123  )
        28           O1  tau(  28) = (   3.2902150   2.9813002   7.3038282  )
        29           O1  tau(  29) = (   4.5938453   4.4726049   9.2879030  )
        30           O1  tau(  30) = (   1.9864658   4.4711199   9.2879459  )
        31           Ti1 tau(  31) = (   3.2669230   0.0652730   9.1555536  )
        32           Ti1 tau(  32) = (   6.5613759   4.5453191   9.2698998  )
        33           O1  tau(  33) = (   3.2918870   3.0052186  11.3478826  )
        34           O1  tau(  34) = (   0.0060846   2.9950393  10.5821163  )
        35           O1  tau(  35) = (   1.2959246   4.5006532  12.6413340  )
        36           O1  tau(  36) = (   5.2961686   4.4944485  12.6189864  )
        37           Ti1 tau(  37) = (   0.0327138   0.0295606  12.5236923  )
        38           Ti1 tau(  38) = (   3.3339673   4.5113903  12.4983483  )
        39           O1  tau(  39) = (   6.5730609   3.0277731  14.6772624  )
        40           O1  tau(  40) = (   3.3208155   3.0007925  13.9016932  )
        41           O1  tau(  41) = (   4.5507661   4.4739758  16.0704957  )
        42           O1  tau(  42) = (   2.0281244   4.4521521  15.9894756  )
        43           Ti1 tau(  43) = (   3.3328935   0.0118079  15.7915215  )
        44           Ti1 tau(  44) = (   0.0096178   4.5175135  15.9069376  )
        45           O1  tau(  45) = (   3.2900926   2.9813045   4.7018136  )
        46           O1  tau(  46) = (   1.3039711   4.4726057   6.0039043  )
        47           O1  tau(  47) = (   5.2763189   4.4711207   6.0039473  )
        48           C1  tau(  48) = (   6.0108469   3.0492512  18.6187439  )
        49           O1  tau(  49) = (   6.5747659   3.0013081  17.3187206  )
        50           H1  tau(  50) = (   4.9221177   3.1735116  18.5649479  )
        51           H1  tau(  51) = (   6.2378858   2.1236533  19.1567593  )
        52           H1  tau(  52) = (   6.4208835   3.9027719  19.1555001  )
        53           O1  tau(  53) = (   2.8960476   5.8777769  18.1661119  )
        54           H1  tau(  54) = (   3.1709146   0.7341104  18.6084320  )
        55           H1  tau(  55) = (   1.9162551   5.9097105  18.1191095  )

     number of k points=    10  Fermi-Dirac smearing, width (Ry)=  0.0073
                       cart. coord. in units 2pi/alat
        k(    1) = (   0.0000000   0.0000000   0.0000000), wk =   0.1250000
        k(    2) = (   0.0000000   0.0419351   0.0000000), wk =   0.2500000
        k(    3) = (   0.0000000  -0.0838702   0.0000000), wk =   0.1250000
        k(    4) = (   0.0379955   0.0000049   0.0000000), wk =   0.2500000
        k(    5) = (   0.0379955   0.0419400   0.0000000), wk =   0.2500000
        k(    6) = (   0.0379955  -0.0838652   0.0000000), wk =   0.2500000
        k(    7) = (   0.0379955  -0.0419301   0.0000000), wk =   0.2500000
        k(    8) = (  -0.0759910  -0.0000099   0.0000000), wk =   0.1250000
        k(    9) = (  -0.0759910   0.0419252   0.0000000), wk =   0.2500000
        k(   10) = (  -0.0759910  -0.0838800   0.0000000), wk =   0.1250000

     Initial potential from superposition of free atoms

     starting charge  382.99916, renormalised to  399.00000

     negative rho (up, down):  1.705E-02 0.000E+00

     %%%%%%%%%%%%%%%%%%%%%%%%%%%%%%%%%%%%%%%%%%%%%%%%%%%%%%%%%%%%%%%%%%%%%%%%
     %                                                                      %
     % You are using vdW-DF, which was implemented by the Thonhauser group. %
     % Please cite the following two papers that made this development      %
     % possible and the two reviews that describe the various versions:     %
     %                                                                      %
     %   T. Thonhauser et al., PRL 115, 136402 (2015).                      %
     %   T. Thonhauser et al., PRB 76, 125112 (2007).                       %
     %   K. Berland et al., Rep. Prog. Phys. 78, 066501 (2015).             %
     %   D.C. Langreth et al., J. Phys.: Condens. Matter 21, 084203 (2009). %
     %                                                                      %
     %                                                                      %
     % If you are calculating the stress with vdW-DF, please also cite:     %
     %                                                                      %
     %   R. Sabatini et al., J. Phys.: Condens. Matter 24, 424209 (2012).   %
     %                                                                      %
     %%%%%%%%%%%%%%%%%%%%%%%%%%%%%%%%%%%%%%%%%%%%%%%%%%%%%%%%%%%%%%%%%%%%%%%%

     Adding external electric field

     Computed dipole along edir(3) :
        Dipole               -9.9863 Ry au,        -25.3827 Debye
        Dipole field         -0.0188 Ry au,

        Potential amp.        1.7470 Ry
        Total length         46.3494 bohr

     Starting wfcs are  301 atomic wfcs
  @ DRIVER MODE: Message from server: STATUS
  @ DRIVER MODE: Message from server: POSDATA
  @ DRIVER MODE: Reading and sharing cell
  @ DRIVER MODE: Reading and sharing positions
  @ DRIVER MODE: Received positions

     Self-consistent Calculation

     iteration #  1     ecut=    29.40 Ry     beta= 0.05
     Davidson diagonalization with overlap
     c_bands:  2 eigenvalues not converged
     c_bands:  2 eigenvalues not converged
     c_bands:  3 eigenvalues not converged
     c_bands:  3 eigenvalues not converged
     c_bands:  2 eigenvalues not converged
     c_bands:  3 eigenvalues not converged
     c_bands:  3 eigenvalues not converged
     c_bands:  1 eigenvalues not converged
     ethr =  1.00E-05,  avg # of iterations = 19.6

[...]

     total energy              =   -2489.85691394 Ry
     estimated scf accuracy    <    5304.39762100 Ry

     iteration #  2     ecut=    29.40 Ry     beta= 0.05
     Davidson diagonalization with overlap
     ethr =  1.00E-02,  avg # of iterations = 24.8

[...]

     iteration # 54     ecut=    29.40 Ry     beta= 0.05
     Davidson diagonalization with overlap
     c_bands:  1 eigenvalues not converged
     ethr =  1.23E-07,  avg # of iterations = 13.8

[...]

     total energy              =   -2966.34219197 Ry
     estimated scf accuracy    <       0.00000009 Ry

     iteration # 68     ecut=    29.40 Ry     beta= 0.05
     Davidson diagonalization with overlap
     ethr =  2.29E-11,  avg # of iterations = 10.0

     negative rho (up, down):  1.687E-02 0.000E+00

     Adding external electric field

     Computed dipole along edir(3) :
        Dipole                0.9461 Ry au,          2.4047 Debye
        Dipole field          0.0018 Ry au,

        Potential amp.       -0.1655 Ry
        Total length         46.3494 bohr

     End of self-consistent calculation

          k = 0.0000 0.0000 0.0000 ( 18029 PWs)   bands (ev):

   -55.7046 -55.6687 -55.6653 -55.6290 -55.6173 -55.6041 -55.5831 -55.5490
   -55.4943 -55.4807 -55.4711 -55.4547 -55.4199 -55.3789 -54.7081 -54.6740
   -32.2230 -32.1743 -32.0949 -32.0626 -32.0463 -31.9971 -31.9806 -31.9697
   -31.9370 -31.9341 -31.8926 -31.8819 -31.8762 -31.8711 -31.8639 -31.8477
   -31.8466 -31.8034 -31.7988 -31.7965 -31.7878 -31.7831 -31.7689 -31.7548
   -31.7487 -31.7439 -31.7257 -31.7032 -31.6964 -31.6950 -31.6881 -31.6848
   -31.6727 -31.6648 -31.6516 -31.6440 -31.6368 -31.6009 -31.5948 -31.5701
   -31.5614 -31.5551 -31.1171 -31.0222 -30.9998 -30.9340 -30.8479 -30.7366
   -18.9063 -17.5513 -16.4189 -16.1498 -15.9885 -15.8608 -15.8223 -15.6266
   -15.5107 -15.3861 -15.3597 -15.3049 -15.2801 -15.2401 -15.2345 -15.2259
   -15.2150 -15.2063 -15.1525 -15.1181 -15.1059 -15.0961 -15.0844 -15.0331
   -14.9811 -14.9167 -14.8442 -14.8217 -14.7973 -14.7256 -14.7045 -13.2085
   -13.0906  -9.4343  -6.6751  -4.2655  -4.1034  -3.8067  -3.7678  -3.6420
    -3.6170  -3.5872  -3.5058  -3.3083  -3.2754  -3.1527  -2.9412  -2.8826
    -2.8270  -2.8031  -2.7608  -2.6098  -2.5916  -2.5204  -2.5096  -2.4910
    -2.4807  -2.4483  -2.4302  -2.3976  -2.3702  -2.3309  -2.2862  -2.2249
    -2.0857  -2.0716  -2.0345  -2.0169  -2.0054  -1.9906  -1.9537  -1.9325
    -1.8992  -1.8811  -1.8720  -1.7711  -1.6633  -1.5698  -1.5330  -1.4637
    -1.3827  -1.2383  -1.2173  -1.1463  -1.1210  -1.1056  -1.0547  -1.0026
    -0.9420  -0.9375  -0.8809  -0.7819  -0.7150  -0.6943  -0.6576  -0.6088
    -0.5495  -0.4734  -0.4443  -0.4268  -0.4036  -0.3915  -0.2038  -0.1790
    -0.1367  -0.1092  -0.0269   0.0317   0.0486   0.0669   0.0935   0.1206
     0.1937   0.2532   0.2625   0.2891   0.3331   0.3477   0.3816   0.4492
     0.4981   0.5164   0.5639   0.6130   0.6648   0.8047   0.9088   0.9508
     1.0626   1.2274   1.3165   1.3906   1.4915   1.9019   1.9579   3.4755
     3.5076   3.5354   3.5570   3.6337   3.7257   3.8355   3.9276   3.9431
     3.9721

[...]

          k = 0.0380-0.0419 0.0000 ( 17876 PWs)   bands (ev):

[...]

          k =-0.0760-0.0000 0.0000 ( 17886 PWs)   bands (ev):

[...]

          k =-0.0760-0.0839 0.0000 ( 17948 PWs)   bands (ev):

   -55.6924 -55.6808 -55.6490 -55.6451 -55.6144 -55.6022 -55.5702 -55.5619
   -55.4966 -55.4774 -55.4733 -55.4418 -55.4328 -55.3818 -54.6916 -54.6905
   -32.0361 -32.0171 -31.9970 -31.9898 -31.9851 -31.9836 -31.9664 -31.9293
   -31.9197 -31.9114 -31.9026 -31.8936 -31.8555 -31.8452 -31.8307 -31.8261
   -31.8257 -31.8193 -31.8178 -31.8102 -31.8023 -31.7996 -31.7926 -31.7836
   -31.7746 -31.7711 -31.7669 -31.7664 -31.7564 -31.7402 -31.7138 -31.6972
   -31.6922 -31.6860 -31.6852 -31.6814 -31.6754 -31.6583 -31.6482 -31.6370
   -31.6067 -31.5724 -31.0131 -31.0118 -30.9305 -30.9296 -30.8914 -30.8905
   -18.9049 -17.5188 -15.8875 -15.7737 -15.6554 -15.5815 -15.5697 -15.5236
   -15.4934 -15.4671 -15.4096 -15.4023 -15.3545 -15.3528 -15.3020 -15.2960
   -15.2451 -15.2129 -15.2090 -15.1675 -15.1447 -15.1362 -15.1263 -15.0898
   -15.0728 -15.0631 -15.0283 -15.0190 -14.9700 -14.9316 -14.9053 -13.1929
   -13.1910  -9.4366  -6.6696  -4.1625  -4.0689  -3.8082  -3.3071  -3.1737
    -2.9702  -2.9012  -2.8354  -2.7731  -2.7695  -2.6535  -2.6338  -2.5947
    -2.5641  -2.5316  -2.5239  -2.5133  -2.4970  -2.4941  -2.4771  -2.4377
    -2.4171  -2.3937  -2.3716  -2.3603  -2.3388  -2.3164  -2.3087  -2.2890
    -2.2560  -2.2494  -2.2416  -2.1782  -2.1155  -1.9829  -1.9394  -1.9260
    -1.8411  -1.8065  -1.7900  -1.7609  -1.7528  -1.7374  -1.6064  -1.5868
    -1.4921  -1.4264  -1.4071  -1.3792  -1.2713  -1.2123  -1.1814  -1.1582
    -1.1220  -1.0746  -1.0074  -0.9663  -0.9150  -0.8569  -0.8122  -0.7981
    -0.7654  -0.6613  -0.6570  -0.6497  -0.6080  -0.5676  -0.5165  -0.4660
    -0.4586  -0.4335  -0.4015  -0.3592  -0.3400  -0.2431  -0.2322  -0.1931
    -0.1467  -0.0540   0.1265   0.2098   0.3165   0.3511   0.3910   0.4525
     0.4973   0.5492   0.5954   0.6436   0.6693   0.7133   0.7469   0.8292
     0.8475   0.8528   0.9212   1.6781   1.6785   1.7645   1.7731   3.7194
     3.7347   3.7870   3.8058   3.9437   3.9497   3.9632   3.9728   4.0715
     4.1307

     the Fermi energy is     3.4466 ev

!    total energy              =   -2966.34221657 Ry
     estimated scf accuracy    <       0.00000007 Ry
     smearing contrib. (-TS)   =      -0.02282781 Ry
     internal energy E=F+TS    =   -2966.31938876 Ry

     The total energy is F=E-TS. E is the sum of the following terms:
     one-electron contribution =  -24405.68126219 Ry
     hartree contribution      =   12294.84417208 Ry
     xc contribution           =    -490.96736958 Ry
     ewald contribution        =    9635.48338186 Ry
     electric field correction =       0.00168906 Ry

     convergence has been achieved in  68 iterations

     Forces acting on atoms (cartesian axes, Ry/au):

     atom    1 type  1   force =     0.00018009   -0.00147068    0.10512270
     atom    2 type  1   force =     0.00007077    0.00125198   -0.17890761
     atom    3 type  2   force =    -0.00001284   -0.00501055   -0.03284283
     atom    4 type  2   force =    -0.00058151    0.00074533    0.04591384
     atom    5 type  2   force =    -0.01790603   -0.00053078    0.00427709
     atom    6 type  2   force =     0.01740460    0.00074146    0.00347173
     atom    7 type  1   force =    -0.00005749   -0.00058336   -0.00006037
     atom    8 type  1   force =    -0.00037802   -0.00056971    0.00046147
     atom    9 type  2   force =     0.00014557   -0.00027327   -0.00005526
     atom   10 type  2   force =     0.00022781   -0.00001549    0.00052224
     atom   11 type  2   force =     0.00001451   -0.00010237   -0.00005798
     atom   12 type  2   force =    -0.00014950   -0.00028826   -0.00026267
     atom   13 type  1   force =     0.00055417   -0.00057796   -0.00130270
     atom   14 type  1   force =     0.00001643   -0.00046314    0.00036714
     atom   15 type  2   force =    -0.00013724   -0.00038365   -0.00000026
     atom   16 type  2   force =     0.00004961   -0.00063588   -0.00003075
     atom   17 type  2   force =    -0.00033829   -0.00012904   -0.00037712
     atom   18 type  2   force =     0.00049113   -0.00043957    0.00004035
     atom   19 type  1   force =     0.00001538    0.00050522    0.00019511
     atom   20 type  1   force =     0.00007497   -0.00074016    0.00069748
     atom   21 type  2   force =     0.00007325    0.00010977    0.10393426
     atom   22 type  2   force =    -0.00031262   -0.00034305   -0.00014337
     atom   23 type  2   force =    -0.06947505    0.00050953   -0.02944236
     atom   24 type  2   force =     0.06950631    0.00088020   -0.02947330
     atom   25 type  1   force =     0.00027330    0.00145275    0.11395907
     atom   26 type  1   force =    -0.00005461   -0.00044800   -0.17907511
     atom   27 type  2   force =    -0.00013415    0.00370433   -0.02691366
     atom   28 type  2   force =    -0.00026937    0.00101762    0.04785617
     atom   29 type  2   force =    -0.01572003    0.00042014    0.00351210
     atom   30 type  2   force =     0.01709311    0.00264450    0.00288826
     atom   31 type  1   force =     0.00036561    0.00005712   -0.00017645
     atom   32 type  1   force =    -0.00066561    0.00012590    0.00029709
     atom   33 type  2   force =     0.00024771   -0.00041272    0.00014213
     atom   34 type  2   force =     0.00006910   -0.00005268   -0.00008012
     atom   35 type  2   force =     0.00013294   -0.00018555    0.00022313
     atom   36 type  2   force =     0.00017612    0.00016755    0.00015278
     atom   37 type  1   force =     0.00034341    0.00077760   -0.00022661
     atom   38 type  1   force =    -0.00008563   -0.00054188    0.00003830
     atom   39 type  2   force =    -0.00046835    0.00023409    0.00024281
     atom   40 type  2   force =     0.00025861   -0.00064381   -0.00011401
     atom   41 type  2   force =     0.00009973   -0.00002142   -0.00012754
     atom   42 type  2   force =    -0.00035156   -0.00035529   -0.00037963
     atom   43 type  1   force =    -0.00012835   -0.00023709   -0.00010672
     atom   44 type  1   force =     0.00032538    0.00020769    0.00031639
     atom   45 type  2   force =     0.00007828    0.00008487    0.10397042
     atom   46 type  2   force =    -0.06917234   -0.00107066   -0.02946236
     atom   47 type  2   force =     0.06915235   -0.00060207   -0.02953432
     atom   48 type  3   force =    -0.00185679   -0.00284941   -0.00285309
     atom   49 type  2   force =    -0.00051935   -0.00048518   -0.00114711
     atom   50 type  4   force =     0.00047677    0.00010183    0.00055487
     atom   51 type  4   force =     0.00000990    0.00112047   -0.00017122
     atom   52 type  4   force =     0.00145508    0.00334567    0.00433631
     atom   53 type  2   force =     0.00082373    0.00106866    0.00049524
     atom   54 type  4   force =    -0.00021784   -0.00088991   -0.00062188
     atom   55 type  4   force =    -0.00121315    0.00007830   -0.00004207

     Total force =     0.374126     Total SCF correction =     0.000724
  @ DRIVER MODE: Message from server: STATUS
  @ DRIVER MODE: Message from server: GETFORCE
  @ DRIVER MODE: Returning v,forces,stress,ensemble

     Writing output data file ./calc.save/
  @ DRIVER MODE: Message from server: EXIT
  @ DRIVE MODE: Exiting

     General routines

     Parallel routines

   This run was terminated on:  22: 0:29  26Sep2021

   JOB DONE.