     Program PWSCF v.6.7GPU starts on 28Sep2021 at 20: 4:18

     R & G space division:  proc/nbgrp/npool/nimage =       8
     Reading input from /storage/home/hcoda1/3/ntian30/research/carbon/CxH_vib/H2O_calc/ads_slab/CHNHNH2HO_b/out_0023/pw.inp
Warning: card &CELL ignored
Warning: card   CELL_DYNAMICS='IPI', ignored
Warning: card / ignored

     Current dimensions of program PWSCF are:
     Max number of different atomic species (ntypx) = 10
     Max number of k-points (npk) =  40000
     Max angular momentum in pseudopotentials (lmaxx) =  3
     Presently no symmetry can be used with electric field

     Message from routine cell_base_init:
     DEPRECATED: use true lattice parameter, not A to a.u. conversion factor

     IMPORTANT: XC functional enforced from input :
     Exchange-correlation= BEEF-VDW
                           (   1   4  43  14   2   0   0)
     Any further DFT definition will be discarded
     Please, verify this is what you really want

  @ DRIVER MODE: Connecting to
 qe_1139763_3009830.sched-torque.pace.gatech.edubvzggpp0_scratch
  using UNIX socket
  @ DRIVER MODE: Message from server: STATUS
  @ DRIVER MODE: Message from server: INIT
  @ DRIVER MODE: Receiving replica           0          -1
  @ DRIVER MODE: Receiving encoded integer          25
  @ DRIVER MODE:  SCF:  T  FORCE:  T  STRESS:  F  VC:  F  ENSEMBLE:  F
  @ DRIVER MODE:  SCF:  T  FORCE:  T  STRESS:  F  VC:  F  ENSEMBLE:  F

     Using Slab Decomposition

     bravais-lattice index     =            0
     lattice parameter (alat)  =       1.8897  a.u.
     unit-cell volume          =    6658.9804 (a.u.)^3
     number of atoms/cell      =           56
     number of atomic types    =            5
     number of electrons       =       403.00
     number of Kohn-Sham states=          211
     kinetic-energy cutoff     =      29.3995  Ry
     charge density cutoff     =     293.9946  Ry
     scf convergence threshold =      7.3E-08
     mixing beta               =       0.0500
     number of iterations used =            8  plain     mixing
     Exchange-correlation= BEEF-VDW
                           (   1   4  43  14   2   0   0)

     celldm(1)=   1.889726  celldm(2)=   0.000000  celldm(3)=   0.000000
     celldm(4)=   0.000000  celldm(5)=   0.000000  celldm(6)=   0.000000

     crystal axes: (cart. coord. in units of alat)
               a(1) = (   6.579727   0.000000   0.000000 )
               a(2) = (  -0.000775   5.961596   0.000000 )
               a(3) = (   0.000000   0.000000  25.155947 )

     reciprocal axes: (cart. coord. in units 2 pi/alat)
               b(1) = (  0.151982  0.000020  0.000000 )
               b(2) = (  0.000000  0.167740  0.000000 )
               b(3) = (  0.000000  0.000000  0.039752 )

     PseudoPot. # 1 for Ti read from file:
     /storage/coda1/p-amedford6/0/shared/rich_project_chbe-medford/medford-share/data/pseudos_module/espresso/nninc/pbe/van/Ti.UPF
     MD5 check sum: 8e4df49b7f0d34bbd5052bf3f5ea0213
     Pseudo is Ultrasoft, Zval = 12.0
     Generated by new atomic code, or converted to UPF format
     Using radial grid of  851 points,  6 beta functions with:
                l(1) =   0
                l(2) =   0
                l(3) =   1
                l(4) =   1
                l(5) =   2
                l(6) =   2
     Q(r) pseudized with  8 coefficients,  rinner =    1.000   1.000   1.000
                                                       1.000   1.000

     PseudoPot. # 2 for O  read from file:
     /storage/coda1/p-amedford6/0/shared/rich_project_chbe-medford/medford-share/data/pseudos_module/espresso/nninc/pbe/van/O.UPF
     MD5 check sum: 78c19812648e8988a0fe644b0f25305e
     Pseudo is Ultrasoft, Zval =  6.0
     Generated by new atomic code, or converted to UPF format
     Using radial grid of  737 points,  4 beta functions with:
                l(1) =   0
                l(2) =   0
                l(3) =   1
                l(4) =   1
     Q(r) pseudized with  8 coefficients,  rinner =    0.800   0.800   0.800

     PseudoPot. # 3 for N  read from file:
     /storage/coda1/p-amedford6/0/shared/rich_project_chbe-medford/medford-share/data/pseudos_module/espresso/nninc/pbe/van/N.UPF
     MD5 check sum: 90d10febe142ad51ac9d5be1deb811c4
     Pseudo is Ultrasoft, Zval =  5.0
     Generated by new atomic code, or converted to UPF format
     Using radial grid of  729 points,  4 beta functions with:
                l(1) =   0
                l(2) =   0
                l(3) =   1
                l(4) =   1
     Q(r) pseudized with  8 coefficients,  rinner =    0.800   0.800   0.800

     PseudoPot. # 4 for C  read from file:
     /storage/coda1/p-amedford6/0/shared/rich_project_chbe-medford/medford-share/data/pseudos_module/espresso/nninc/pbe/van/C.UPF
     MD5 check sum: 1a69bf6b8db32088f5b2163dbdb77a27
     Pseudo is Ultrasoft, Zval =  4.0
     Generated by new atomic code, or converted to UPF format
     Using radial grid of  721 points,  4 beta functions with:
                l(1) =   0
                l(2) =   0
                l(3) =   1
                l(4) =   1
     Q(r) pseudized with  8 coefficients,  rinner =    0.800   0.800   0.800

     PseudoPot. # 5 for H  read from file:
     /storage/coda1/p-amedford6/0/shared/rich_project_chbe-medford/medford-share/data/pseudos_module/espresso/nninc/pbe/van/H.UPF
     MD5 check sum: b5ee9d7bfd3a09ee7748110bda690ff7
     Pseudo is Ultrasoft, Zval =  1.0
     Generated by new atomic code, or converted to UPF format
     Using radial grid of  615 points,  1 beta functions with:
                l(1) =   0
     Q(r) pseudized with  8 coefficients,  rinner =    0.800

     atomic species   valence    mass     pseudopotential
        Ti1           12.00    47.86700     Ti( 1.00)
        O1             6.00    15.99900     O ( 1.00)
        N1             5.00    14.00700     N ( 1.00)
        C1             4.00    12.01100     C ( 1.00)
        H1             1.00     1.00800     H ( 1.00)

     No symmetry found

   Cartesian axes

     site n.     atom                  positions (alat units)
         1           Ti1 tau(   1) = (   0.0004258   2.9801865   6.0000000  )
         2           Ti1 tau(   2) = (   3.2906075   1.4906267   6.0002472  )
         3           O1  tau(   3) = (   0.0006271   0.0005054   7.9858123  )
         4           O1  tau(   4) = (   3.2906025   0.0005020   7.3038282  )
         5           O1  tau(   5) = (   4.5942328   1.4918067   9.2879030  )
         6           O1  tau(   6) = (   1.9868534   1.4903216   9.2879459  )
         7           Ti1 tau(   7) = (   3.2907910   2.8959150   9.1758416  )
         8           Ti1 tau(   8) = (   0.0015273   1.4827037   9.2680791  )
         9           O1  tau(   9) = (   3.2982983   0.0405180  11.3424948  )
        10           O1  tau(  10) = (   0.0116148   5.9584955  10.6183126  )
        11           O1  tau(  11) = (   1.2753745   1.5072422  12.7016807  )
        12           O1  tau(  12) = (   5.3195175   1.5181342  12.6954276  )
        13           Ti1 tau(  13) = (   0.0019584   2.9687762  12.4995492  )
        14           Ti1 tau(  14) = (   3.3051642   1.5697923  12.4614731  )
        15           O1  tau(  15) = (   6.5474216   5.8614089  14.6874354  )
        16           O1  tau(  16) = (   3.3077571   5.9224049  13.9445013  )
        17           O1  tau(  17) = (   4.5645563   1.5748115  16.1270233  )
        18           O1  tau(  18) = (   2.0342606   1.5395256  16.0843959  )
        19           Ti1 tau(  19) = (   3.2752269   2.9899004  15.7194909  )
        20           Ti1 tau(  20) = (   6.5310352   1.3332667  15.7916221  )
        21           O1  tau(  21) = (   3.2904802   0.0005063   4.7018136  )
        22           O1  tau(  22) = (   0.0193913   0.2006272  17.2172921  )
        23           O1  tau(  23) = (   1.3043587   1.4918075   6.0039043  )
        24           O1  tau(  24) = (   5.2767064   1.4903225   6.0039473  )
        25           Ti1 tau(  25) = (   0.0000382   5.9609847   6.0000000  )
        26           Ti1 tau(  26) = (   3.2902200   4.4714249   6.0002472  )
        27           O1  tau(  27) = (   0.0002396   2.9813036   7.9858123  )
        28           O1  tau(  28) = (   3.2902150   2.9813002   7.3038282  )
        29           O1  tau(  29) = (   4.5938453   4.4726049   9.2879030  )
        30           O1  tau(  30) = (   1.9864658   4.4711199   9.2879459  )
        31           Ti1 tau(  31) = (   3.2891106   5.8743827   9.1763621  )
        32           Ti1 tau(  32) = (   0.0006254   4.4649316   9.2693709  )
        33           O1  tau(  33) = (   3.2939295   2.9453814  11.3217152  )
        34           O1  tau(  34) = (   0.0092240   2.9805883  10.6323155  )
        35           O1  tau(  35) = (   1.2781447   4.4822909  12.6561401  )
        36           O1  tau(  36) = (   5.3212068   4.4743896  12.6463055  )
        37           Ti1 tau(  37) = (   0.0302233   5.9315785  12.5023592  )
        38           Ti1 tau(  38) = (   3.3112215   4.6713144  12.7097751  )
        39           O1  tau(  39) = (   0.0192075   3.0624537  14.9697097  )
        40           O1  tau(  40) = (   3.2993887   3.0147307  13.9488589  )
        41           O1  tau(  41) = (   4.5718800   4.4489939  16.2708329  )
        42           O1  tau(  42) = (   2.0246426   4.4466800  16.2581844  )
        43           Ti1 tau(  43) = (   3.2612680   0.0306108  16.4716933  )
        44           Ti1 tau(  44) = (   6.5506247   4.5497786  16.0606151  )
        45           O1  tau(  45) = (   3.2900926   2.9813045   4.7018136  )
        46           O1  tau(  46) = (   1.3039711   4.4726057   6.0039043  )
        47           O1  tau(  47) = (   5.2763189   4.4711207   6.0039473  )
        48           N1  tau(  48) = (   0.9981237   2.4704741  18.7333368  )
        49           N1  tau(  49) = (   6.5532285   3.4232418  18.2716252  )
        50           C1  tau(  50) = (   2.1690532   2.7243113  19.1879583  )
        51           H1  tau(  51) = (   2.3212509   3.8010200  19.3335938  )
        52           H1  tau(  52) = (   0.7222050   1.5235952  18.4365492  )
        53           H1  tau(  53) = (   0.1086806   4.2950834  18.7847415  )
        54           H1  tau(  54) = (   5.6367167   3.0457734  18.5222562  )
        55           O1  tau(  55) = (   3.2473456   0.1866190  18.2687603  )
        56           H1  tau(  56) = (   3.0571027   1.0491837  18.7494863  )

     number of k points=    10  Fermi-Dirac smearing, width (Ry)=  0.0073
                       cart. coord. in units 2pi/alat
        k(    1) = (   0.0000000   0.0000000   0.0000000), wk =   0.1250000
        k(    2) = (   0.0000000   0.0419351   0.0000000), wk =   0.2500000
        k(    3) = (   0.0000000  -0.0838702   0.0000000), wk =   0.1250000
        k(    4) = (   0.0379955   0.0000049   0.0000000), wk =   0.2500000
        k(    5) = (   0.0379955   0.0419400   0.0000000), wk =   0.2500000
        k(    6) = (   0.0379955  -0.0838652   0.0000000), wk =   0.2500000
        k(    7) = (   0.0379955  -0.0419301   0.0000000), wk =   0.2500000
        k(    8) = (  -0.0759910  -0.0000099   0.0000000), wk =   0.1250000
        k(    9) = (  -0.0759910   0.0419252   0.0000000), wk =   0.2500000
        k(   10) = (  -0.0759910  -0.0838800   0.0000000), wk =   0.1250000

     Initial potential from superposition of free atoms

     starting charge  386.99914, renormalised to  403.00000

     negative rho (up, down):  1.629E-02 0.000E+00

     %%%%%%%%%%%%%%%%%%%%%%%%%%%%%%%%%%%%%%%%%%%%%%%%%%%%%%%%%%%%%%%%%%%%%%%%
     %                                                                      %
     % You are using vdW-DF, which was implemented by the Thonhauser group. %
     % Please cite the following two papers that made this development      %
     % possible and the two reviews that describe the various versions:     %
     %                                                                      %
     %   T. Thonhauser et al., PRL 115, 136402 (2015).                      %
     %   T. Thonhauser et al., PRB 76, 125112 (2007).                       %
     %   K. Berland et al., Rep. Prog. Phys. 78, 066501 (2015).             %
     %   D.C. Langreth et al., J. Phys.: Condens. Matter 21, 084203 (2009). %
     %                                                                      %
     %                                                                      %
     % If you are calculating the stress with vdW-DF, please also cite:     %
     %                                                                      %
     %   R. Sabatini et al., J. Phys.: Condens. Matter 24, 424209 (2012).   %
     %                                                                      %
     %%%%%%%%%%%%%%%%%%%%%%%%%%%%%%%%%%%%%%%%%%%%%%%%%%%%%%%%%%%%%%%%%%%%%%%%

     Adding external electric field

     Computed dipole along edir(3) :
        Dipole              -13.0960 Ry au,        -33.2867 Debye
        Dipole field         -0.0247 Ry au,

        Potential amp.        2.2909 Ry
        Total length         46.3494 bohr

     Starting wfcs are  305 atomic wfcs
  @ DRIVER MODE: Message from server: STATUS
  @ DRIVER MODE: Message from server: POSDATA
  @ DRIVER MODE: Reading and sharing cell
  @ DRIVER MODE: Reading and sharing positions
  @ DRIVER MODE: Received positions

     Self-consistent Calculation

     iteration #  1     ecut=    29.40 Ry     beta= 0.05
     Davidson diagonalization with overlap
     c_bands:  5 eigenvalues not converged
     c_bands:  2 eigenvalues not converged
     c_bands:  1 eigenvalues not converged
     c_bands:  1 eigenvalues not converged
     c_bands:  5 eigenvalues not converged
     c_bands:  4 eigenvalues not converged
     c_bands:  1 eigenvalues not converged
     ethr =  1.00E-05,  avg # of iterations = 27.3

[...]

     total energy              =   -2288.80409193 Ry
     estimated scf accuracy    <    7754.49614900 Ry

     iteration #  2     ecut=    29.40 Ry     beta= 0.05
     Davidson diagonalization with overlap
     ethr =  1.00E-02,  avg # of iterations = 26.5

[...]

     iteration # 50     ecut=    29.40 Ry     beta= 0.05
     Davidson diagonalization with overlap
     c_bands:  1 eigenvalues not converged
     c_bands:  1 eigenvalues not converged
     ethr =  9.28E-07,  avg # of iterations = 15.1

[...]

     total energy              =   -2973.89804161 Ry
     estimated scf accuracy    <       0.00000010 Ry

     iteration # 79     ecut=    29.40 Ry     beta= 0.05
     Davidson diagonalization with overlap
     ethr =  2.55E-11,  avg # of iterations =  8.8

     negative rho (up, down):  1.612E-02 0.000E+00

     Adding external electric field

     Computed dipole along edir(3) :
        Dipole                0.8506 Ry au,          2.1620 Debye
        Dipole field          0.0016 Ry au,

        Potential amp.       -0.1488 Ry
        Total length         46.3494 bohr

     End of self-consistent calculation

          k = 0.0000 0.0000 0.0000 ( 18029 PWs)   bands (ev):

   -55.6423 -55.6395 -55.6055 -55.5698 -55.4896 -55.4673 -55.4475 -55.4437
   -55.4333 -55.3908 -55.3484 -55.2907 -55.2124 -55.0672 -54.6028 -54.5688
   -32.1239 -32.0974 -31.9775 -31.9721 -31.9708 -31.9302 -31.9051 -31.8855
   -31.8786 -31.8636 -31.8443 -31.8332 -31.7922 -31.7623 -31.7487 -31.7459
   -31.7412 -31.7276 -31.7069 -31.7027 -31.6972 -31.6712 -31.6655 -31.6527
   -31.6417 -31.6404 -31.6183 -31.6095 -31.5945 -31.5903 -31.5849 -31.5735
   -31.5624 -31.5455 -31.5022 -31.4946 -31.4914 -31.4762 -31.4124 -31.3267
   -31.2928 -31.2848 -31.0079 -30.9236 -30.9010 -30.8259 -30.7396 -30.6274
   -18.7026 -16.3072 -16.2538 -16.1124 -15.8893 -15.8024 -15.7710 -15.6100
   -15.4836 -15.4418 -15.3183 -15.1718 -15.1416 -15.1338 -15.1277 -15.1190
   -15.1015 -15.0738 -15.0604 -15.0558 -15.0422 -14.9779 -14.9593 -14.9302
   -14.8503 -14.7982 -14.7705 -14.7002 -14.6572 -14.5540 -14.5167 -14.2726
   -13.1006 -12.9845  -9.5881  -6.9139  -5.8620  -4.3096  -4.0911  -3.8359
    -3.6261  -3.5383  -3.5149  -3.4065  -3.3154  -3.0861  -3.0633  -2.9931
    -2.8420  -2.7489  -2.6640  -2.6370  -2.5958  -2.5423  -2.5283  -2.4855
    -2.4196  -2.3882  -2.3466  -2.3345  -2.2851  -2.2774  -2.2312  -2.1535
    -2.1468  -2.0412  -1.9731  -1.9687  -1.9538  -1.9453  -1.8956  -1.8803
    -1.8726  -1.8022  -1.7470  -1.7125  -1.6469  -1.6205  -1.5494  -1.3051
    -1.2261  -1.2131  -1.1513  -1.0704  -1.0399  -1.0257  -1.0149  -0.9892
    -0.9623  -0.8736  -0.8468  -0.7067  -0.7007  -0.6636  -0.6372  -0.6070
    -0.4955  -0.4322  -0.4086  -0.3633  -0.3422  -0.3022  -0.2397  -0.2206
    -0.1413  -0.0973  -0.0179  -0.0158   0.0098   0.0806   0.1403   0.1744
     0.1906   0.2908   0.3057   0.3345   0.3411   0.3637   0.3901   0.4832
     0.5011   0.5430   0.5656   0.7070   0.7177   0.7698   0.9132   0.9436
     1.0458   1.1438   1.3674   1.3845   1.4243   1.4516   1.6206   1.9893
     2.0342   3.4400   3.5993   3.6124   3.7090   3.7219   3.7989   3.9344
     4.0288   4.1005   4.1339

[...]

          k = 0.0380-0.0419 0.0000 ( 17876 PWs)   bands (ev):

[...]

          k =-0.0760-0.0000 0.0000 ( 17886 PWs)   bands (ev):

[...]

          k =-0.0760-0.0839 0.0000 ( 17948 PWs)   bands (ev):

   -55.6415 -55.6225 -55.6224 -55.5686 -55.4814 -55.4528 -55.4509 -55.4483
   -55.4482 -55.3824 -55.3568 -55.2918 -55.2105 -55.0690 -54.5858 -54.5857
   -32.0224 -31.9393 -31.9391 -31.9316 -31.9158 -31.9155 -31.9058 -31.8441
   -31.8189 -31.8106 -31.8001 -31.7844 -31.7789 -31.7630 -31.7608 -31.7425
   -31.7424 -31.7326 -31.7313 -31.7200 -31.7193 -31.7054 -31.6944 -31.6877
   -31.6517 -31.6480 -31.6471 -31.6410 -31.6261 -31.6235 -31.6159 -31.6033
   -31.5869 -31.5810 -31.5701 -31.5670 -31.4962 -31.4676 -31.4158 -31.4079
   -31.3315 -31.2882 -30.9138 -30.9137 -30.8211 -30.8207 -30.7829 -30.7826
   -18.6965 -16.2590 -15.9415 -15.6359 -15.6350 -15.6150 -15.4564 -15.4224
   -15.3905 -15.3609 -15.3107 -15.3048 -15.2796 -15.2447 -15.2310 -15.1779
   -15.1537 -15.1367 -15.1183 -15.0993 -15.0797 -15.0510 -15.0404 -15.0389
   -14.9593 -14.9503 -14.9356 -14.9278 -14.8518 -14.6385 -14.4879 -14.4305
   -13.0864 -13.0864  -9.5750  -6.9079  -5.8252  -4.4926  -3.9446  -3.7659
    -3.0686  -2.8702  -2.8406  -2.7135  -2.6805  -2.6571  -2.5924  -2.5516
    -2.5502  -2.4736  -2.4605  -2.4156  -2.4114  -2.3667  -2.3641  -2.3365
    -2.3276  -2.3140  -2.3045  -2.2976  -2.2488  -2.2230  -2.2197  -2.2072
    -2.1838  -2.1700  -2.1459  -2.1291  -2.0697  -1.9943  -1.8819  -1.8595
    -1.8001  -1.7653  -1.7509  -1.7318  -1.7098  -1.6822  -1.6637  -1.5662
    -1.4835  -1.4222  -1.3202  -1.2342  -1.2135  -1.1605  -1.1526  -1.1100
    -1.0872  -1.0670  -1.0307  -0.9623  -0.8522  -0.8409  -0.7723  -0.6864
    -0.6447  -0.5791  -0.5770  -0.5708  -0.5550  -0.5309  -0.5118  -0.4628
    -0.4571  -0.3659  -0.3416  -0.3347  -0.3165  -0.2866  -0.1524  -0.1136
    -0.0644   0.1356   0.1424   0.1706   0.2782   0.3683   0.4337   0.4442
     0.5016   0.5495   0.5838   0.6235   0.6791   0.7030   0.7689   0.8785
     0.8848   0.9037   0.9454   1.0068   1.2425   1.7895   1.7963   1.8545
     1.8548   3.6542   3.8487   3.9639   3.9693   3.9845   4.0259   4.0345
     4.0485   4.1091   4.1171

     the Fermi energy is     3.4806 ev

!    total energy              =   -2973.89805006 Ry
     estimated scf accuracy    <       0.00000004 Ry
     smearing contrib. (-TS)   =      -0.01933732 Ry
     internal energy E=F+TS    =   -2973.87871274 Ry

     The total energy is F=E-TS. E is the sum of the following terms:
     one-electron contribution =  -23222.06048589 Ry
     hartree contribution      =   11705.43235530 Ry
     xc contribution           =    -493.95714486 Ry
     ewald contribution        =    9036.70519734 Ry
     electric field correction =       0.00136537 Ry

     convergence has been achieved in  79 iterations

     Forces acting on atoms (cartesian axes, Ry/au):

     atom    1 type  1   force =     0.00006549   -0.00020062    0.09418889
     atom    2 type  1   force =    -0.00015758    0.00003083   -0.17480983
     atom    3 type  2   force =     0.00003017   -0.00049934   -0.02069652
     atom    4 type  2   force =     0.00004241   -0.00070821    0.05228454
     atom    5 type  2   force =    -0.00298174   -0.00196424    0.00012614
     atom    6 type  2   force =     0.00461754   -0.00149849   -0.00032982
     atom    7 type  1   force =    -0.00019400    0.00281170    0.01407070
     atom    8 type  1   force =    -0.00012126   -0.00121885   -0.00059475
     atom    9 type  2   force =     0.00005260   -0.00010384   -0.00008831
     atom   10 type  2   force =    -0.00139769    0.00347015   -0.00730868
     atom   11 type  2   force =    -0.00019120    0.00025052    0.00020695
     atom   12 type  2   force =     0.00037902    0.00039027    0.00061411
     atom   13 type  1   force =    -0.00042743    0.00056542   -0.00028827
     atom   14 type  1   force =     0.00000602   -0.00008408    0.00068597
     atom   15 type  2   force =     0.00038523    0.00090385    0.00063434
     atom   16 type  2   force =    -0.00009286   -0.00077133    0.00092948
     atom   17 type  2   force =     0.00056028   -0.00025084   -0.00011424
     atom   18 type  2   force =     0.00025239   -0.00008564   -0.00023289
     atom   19 type  1   force =     0.00000767    0.00002629   -0.00058495
     atom   20 type  1   force =    -0.00026963   -0.00026434   -0.00048844
     atom   21 type  2   force =     0.00006785   -0.00000237    0.10299618
     atom   22 type  2   force =     0.00037944    0.00038249   -0.00008379
     atom   23 type  2   force =    -0.07236701   -0.00018329   -0.02723630
     atom   24 type  2   force =     0.07230933    0.00026599   -0.02728551
     atom   25 type  1   force =     0.00007316   -0.00030740    0.09363682
     atom   26 type  1   force =    -0.00005975   -0.00116744   -0.17492022
     atom   27 type  2   force =     0.00017380   -0.00002362   -0.01956460
     atom   28 type  2   force =     0.00003225   -0.00104280    0.04856364
     atom   29 type  2   force =    -0.00593108    0.00106142    0.00312180
     atom   30 type  2   force =     0.00741324    0.00157725    0.00262413
     atom   31 type  1   force =     0.00004581    0.00141536    0.00267497
     atom   32 type  1   force =     0.00006417    0.00067604   -0.00038444
     atom   33 type  2   force =    -0.00016900   -0.00012554   -0.00050192
     atom   34 type  2   force =    -0.00061410   -0.00196948   -0.01093527
     atom   35 type  2   force =     0.00023534   -0.00040244   -0.00014127
     atom   36 type  2   force =    -0.00003757   -0.00025656   -0.00020615
     atom   37 type  1   force =    -0.00025811   -0.00039037   -0.00051954
     atom   38 type  1   force =     0.00025448    0.00023377    0.00032188
     atom   39 type  2   force =    -0.00036419   -0.00119979   -0.00029909
     atom   40 type  2   force =    -0.00013175    0.00035515    0.00083132
     atom   41 type  2   force =    -0.00083306    0.00010506    0.00031248
     atom   42 type  2   force =     0.00033495   -0.00051084   -0.00004322
     atom   43 type  1   force =    -0.00032158    0.00063657    0.00000697
     atom   44 type  1   force =     0.00010810   -0.00117935   -0.00001101
     atom   45 type  2   force =     0.00006606    0.00005774    0.10284652
     atom   46 type  2   force =    -0.07232195   -0.00006082   -0.02718663
     atom   47 type  2   force =     0.07223099    0.00039091   -0.02722054
     atom   48 type  3   force =    -0.00139350   -0.00054995    0.00035329
     atom   49 type  3   force =    -0.00000696    0.00032124    0.00016876
     atom   50 type  4   force =     0.00021842   -0.00048405   -0.00117275
     atom   51 type  5   force =     0.00023522    0.00042441    0.00166011
     atom   52 type  5   force =    -0.00035896    0.00139814    0.00098777
     atom   53 type  5   force =     0.00006004   -0.00036605   -0.00070893
     atom   54 type  5   force =     0.00041250    0.00067187    0.00038233
     atom   55 type  2   force =     0.00033288    0.00038168   -0.00041554
     atom   56 type  5   force =    -0.00044490   -0.00093216   -0.00085670

     Total force =     0.361040     Total SCF correction =     0.000467
  @ DRIVER MODE: Message from server: STATUS
  @ DRIVER MODE: Message from server: GETFORCE
  @ DRIVER MODE: Returning v,forces,stress,ensemble

     Writing output data file ./calc.save/
  @ DRIVER MODE: Message from server: EXIT
  @ DRIVE MODE: Exiting

     General routines

     Parallel routines

   This run was terminated on:  20:30:55  28Sep2021

   JOB DONE.