     Program PWSCF v.6.7GPU starts on 15Sep2021 at 15:53:11

     R & G space division:  proc/nbgrp/npool/nimage =      10
     Reading input from /storage/home/hcoda1/3/ntian30/research/carbon/CxH_vib/H2O_calc/ads_slab/CH2NH2O_a/out_0001/pw.inp
Warning: card &CELL ignored
Warning: card   CELL_DYNAMICS='IPI', ignored
Warning: card / ignored

     Current dimensions of program PWSCF are:
     Max number of different atomic species (ntypx) = 10
     Max number of k-points (npk) =  40000
     Max angular momentum in pseudopotentials (lmaxx) =  3
     Presently no symmetry can be used with electric field

     Message from routine cell_base_init:
     DEPRECATED: use true lattice parameter, not A to a.u. conversion factor

     IMPORTANT: XC functional enforced from input :
     Exchange-correlation= BEEF-VDW
                           (   1   4  43  14   2   0   0)
     Any further DFT definition will be discarded
     Please, verify this is what you really want

  @ DRIVER MODE: Connecting to
 qe_1139763_2852607.sched-torque.pace.gatech.edu6fa_n2z5_scratch
  using UNIX socket
  @ DRIVER MODE: Message from server: STATUS
  @ DRIVER MODE: Message from server: INIT
  @ DRIVER MODE: Receiving replica           0          -1
  @ DRIVER MODE: Receiving encoded integer          25
  @ DRIVER MODE:  SCF:  T  FORCE:  T  STRESS:  F  VC:  F  ENSEMBLE:  F
  @ DRIVER MODE:  SCF:  T  FORCE:  T  STRESS:  F  VC:  F  ENSEMBLE:  F

     Using Slab Decomposition

     bravais-lattice index     =            0
     lattice parameter (alat)  =       1.8897  a.u.
     unit-cell volume          =    6658.9804 (a.u.)^3
     number of atoms/cell      =           54
     number of atomic types    =            5
     number of electrons       =       397.00
     number of Kohn-Sham states=          208
     kinetic-energy cutoff     =      29.3995  Ry
     charge density cutoff     =     293.9946  Ry
     scf convergence threshold =      7.3E-08
     mixing beta               =       0.0500
     number of iterations used =            8  plain     mixing
     Exchange-correlation= BEEF-VDW
                           (   1   4  43  14   2   0   0)

     celldm(1)=   1.889726  celldm(2)=   0.000000  celldm(3)=   0.000000
     celldm(4)=   0.000000  celldm(5)=   0.000000  celldm(6)=   0.000000

     crystal axes: (cart. coord. in units of alat)
               a(1) = (   6.579727   0.000000   0.000000 )
               a(2) = (  -0.000775   5.961596   0.000000 )
               a(3) = (   0.000000   0.000000  25.155947 )

     reciprocal axes: (cart. coord. in units 2 pi/alat)
               b(1) = (  0.151982  0.000020  0.000000 )
               b(2) = (  0.000000  0.167740  0.000000 )
               b(3) = (  0.000000  0.000000  0.039752 )

     PseudoPot. # 1 for Ti read from file:
     /storage/coda1/p-amedford6/0/shared/rich_project_chbe-medford/medford-share/data/pseudos_module/espresso/nninc/pbe/van/Ti.UPF
     MD5 check sum: 8e4df49b7f0d34bbd5052bf3f5ea0213
     Pseudo is Ultrasoft, Zval = 12.0
     Generated by new atomic code, or converted to UPF format
     Using radial grid of  851 points,  6 beta functions with:
                l(1) =   0
                l(2) =   0
                l(3) =   1
                l(4) =   1
                l(5) =   2
                l(6) =   2
     Q(r) pseudized with  8 coefficients,  rinner =    1.000   1.000   1.000
                                                       1.000   1.000

     PseudoPot. # 2 for O  read from file:
     /storage/coda1/p-amedford6/0/shared/rich_project_chbe-medford/medford-share/data/pseudos_module/espresso/nninc/pbe/van/O.UPF
     MD5 check sum: 78c19812648e8988a0fe644b0f25305e
     Pseudo is Ultrasoft, Zval =  6.0
     Generated by new atomic code, or converted to UPF format
     Using radial grid of  737 points,  4 beta functions with:
                l(1) =   0
                l(2) =   0
                l(3) =   1
                l(4) =   1
     Q(r) pseudized with  8 coefficients,  rinner =    0.800   0.800   0.800

     PseudoPot. # 3 for N  read from file:
     /storage/coda1/p-amedford6/0/shared/rich_project_chbe-medford/medford-share/data/pseudos_module/espresso/nninc/pbe/van/N.UPF
     MD5 check sum: 90d10febe142ad51ac9d5be1deb811c4
     Pseudo is Ultrasoft, Zval =  5.0
     Generated by new atomic code, or converted to UPF format
     Using radial grid of  729 points,  4 beta functions with:
                l(1) =   0
                l(2) =   0
                l(3) =   1
                l(4) =   1
     Q(r) pseudized with  8 coefficients,  rinner =    0.800   0.800   0.800

     PseudoPot. # 4 for C  read from file:
     /storage/coda1/p-amedford6/0/shared/rich_project_chbe-medford/medford-share/data/pseudos_module/espresso/nninc/pbe/van/C.UPF
     MD5 check sum: 1a69bf6b8db32088f5b2163dbdb77a27
     Pseudo is Ultrasoft, Zval =  4.0
     Generated by new atomic code, or converted to UPF format
     Using radial grid of  721 points,  4 beta functions with:
                l(1) =   0
                l(2) =   0
                l(3) =   1
                l(4) =   1
     Q(r) pseudized with  8 coefficients,  rinner =    0.800   0.800   0.800

     PseudoPot. # 5 for H  read from file:
     /storage/coda1/p-amedford6/0/shared/rich_project_chbe-medford/medford-share/data/pseudos_module/espresso/nninc/pbe/van/H.UPF
     MD5 check sum: b5ee9d7bfd3a09ee7748110bda690ff7
     Pseudo is Ultrasoft, Zval =  1.0
     Generated by new atomic code, or converted to UPF format
     Using radial grid of  615 points,  1 beta functions with:
                l(1) =   0
     Q(r) pseudized with  8 coefficients,  rinner =    0.800

     atomic species   valence    mass     pseudopotential
        Ti1           12.00    47.86700     Ti( 1.00)
        O1             6.00    15.99900     O ( 1.00)
        N1             5.00    14.00700     N ( 1.00)
        C1             4.00    12.01100     C ( 1.00)
        H1             1.00     1.00800     H ( 1.00)

     No symmetry found

   Cartesian axes

     site n.     atom                  positions (alat units)
         1           Ti1 tau(   1) = (   0.0004258   2.9801865   6.0000000  )
         2           Ti1 tau(   2) = (   3.2906075   1.4906267   6.0002472  )
         3           O1  tau(   3) = (   0.0006271   0.0005054   7.9858123  )
         4           O1  tau(   4) = (   3.2906025   0.0005020   7.3038282  )
         5           O1  tau(   5) = (   4.5942328   1.4918067   9.2879030  )
         6           O1  tau(   6) = (   1.9868534   1.4903216   9.2879459  )
         7           Ti1 tau(   7) = (   3.2907910   2.8959150   9.1758416  )
         8           Ti1 tau(   8) = (   0.0015273   1.4827037   9.2680791  )
         9           O1  tau(   9) = (   3.3024300   0.0156651  11.3362489  )
        10           O1  tau(  10) = (   0.0116148   5.9584955  10.6183126  )
        11           O1  tau(  11) = (   1.3202942   1.5021919  12.6211084  )
        12           O1  tau(  12) = (   5.3089492   1.4933221  12.6244093  )
        13           Ti1 tau(  13) = (   6.5318549   2.9554166  12.6004298  )
        14           Ti1 tau(  14) = (   3.2163550   1.4959796  12.4995714  )
        15           O1  tau(  15) = (   0.0198598   0.0281632  14.6562685  )
        16           O1  tau(  16) = (   3.3115091   0.0214956  13.9462002  )
        17           O1  tau(  17) = (   4.5768415   1.5604546  16.0171077  )
        18           O1  tau(  18) = (   2.0579415   1.5629007  16.0064375  )
        19           Ti1 tau(  19) = (   3.3180608   3.0267156  15.6839788  )
        20           Ti1 tau(  20) = (   0.0373526   1.5614015  15.8096867  )
        21           O1  tau(  21) = (   3.2904802   0.0005063   4.7018136  )
        22           O1  tau(  22) = (   0.0417102   0.0258274  17.2400240  )
        23           O1  tau(  23) = (   1.3043587   1.4918075   6.0039043  )
        24           O1  tau(  24) = (   5.2767064   1.4903225   6.0039473  )
        25           Ti1 tau(  25) = (   0.0000382   5.9609847   6.0000000  )
        26           Ti1 tau(  26) = (   3.2902200   4.4714249   6.0002472  )
        27           O1  tau(  27) = (   0.0002396   2.9813036   7.9858123  )
        28           O1  tau(  28) = (   3.2902150   2.9813002   7.3038282  )
        29           O1  tau(  29) = (   4.5938453   4.4726049   9.2879030  )
        30           O1  tau(  30) = (   1.9864658   4.4711199   9.2879459  )
        31           Ti1 tau(  31) = (   3.2891106   5.8743827   9.1763621  )
        32           Ti1 tau(  32) = (   0.0006254   4.4649316   9.2693709  )
        33           O1  tau(  33) = (   3.2972593   2.9937737  11.3378417  )
        34           O1  tau(  34) = (   0.0092240   2.9805883  10.6323155  )
        35           O1  tau(  35) = (   1.3143161   4.4928581  12.6237603  )
        36           O1  tau(  36) = (   5.3098643   4.4818631  12.6293382  )
        37           Ti1 tau(  37) = (   6.5333161   5.9285706  12.5502982  )
        38           Ti1 tau(  38) = (   3.2144982   4.4885123  12.4917375  )
        39           O1  tau(  39) = (   0.0198576   2.9709144  14.6477637  )
        40           O1  tau(  40) = (   3.3145585   3.0140958  13.8917140  )
        41           O1  tau(  41) = (   4.5688195   4.4932876  16.0791699  )
        42           O1  tau(  42) = (   2.0650477   4.4875755  16.0663885  )
        43           Ti1 tau(  43) = (   3.3331689   0.0560974  15.7812046  )
        44           Ti1 tau(  44) = (   0.0348837   4.6827776  16.0884590  )
        45           O1  tau(  45) = (   3.2900926   2.9813045   4.7018136  )
        46           O1  tau(  46) = (   1.3039711   4.4726057   6.0039043  )
        47           O1  tau(  47) = (   5.2763189   4.4711207   6.0039473  )
        48           N1  tau(  48) = (   0.0259943   2.9709886  17.3934402  )
        49           C1  tau(  49) = (   0.0487696   2.8543938  18.6443550  )
        50           H1  tau(  50) = (   0.0551173   3.7295775  19.3121947  )
        51           H1  tau(  51) = (   0.0550652   1.8705629  19.1311967  )
        52           O1  tau(  52) = (   3.2796845   0.1561466  18.1797653  )
        53           H1  tau(  53) = (   4.0301203   5.5808867  18.4795516  )
        54           H1  tau(  54) = (   2.4663764   5.6445902  18.4210942  )

     number of k points=    10  Fermi-Dirac smearing, width (Ry)=  0.0073
                       cart. coord. in units 2pi/alat
        k(    1) = (   0.0000000   0.0000000   0.0000000), wk =   0.1250000
        k(    2) = (   0.0000000   0.0419351   0.0000000), wk =   0.2500000
        k(    3) = (   0.0000000  -0.0838702   0.0000000), wk =   0.1250000
        k(    4) = (   0.0379955   0.0000049   0.0000000), wk =   0.2500000
        k(    5) = (   0.0379955   0.0419400   0.0000000), wk =   0.2500000
        k(    6) = (   0.0379955  -0.0838652   0.0000000), wk =   0.2500000
        k(    7) = (   0.0379955  -0.0419301   0.0000000), wk =   0.2500000
        k(    8) = (  -0.0759910  -0.0000099   0.0000000), wk =   0.1250000
        k(    9) = (  -0.0759910   0.0419252   0.0000000), wk =   0.2500000
        k(   10) = (  -0.0759910  -0.0838800   0.0000000), wk =   0.1250000

     Initial potential from superposition of free atoms

     starting charge  380.99916, renormalised to  397.00000

     negative rho (up, down):  1.694E-02 0.000E+00

     %%%%%%%%%%%%%%%%%%%%%%%%%%%%%%%%%%%%%%%%%%%%%%%%%%%%%%%%%%%%%%%%%%%%%%%%
     %                                                                      %
     % You are using vdW-DF, which was implemented by the Thonhauser group. %
     % Please cite the following two papers that made this development      %
     % possible and the two reviews that describe the various versions:     %
     %                                                                      %
     %   T. Thonhauser et al., PRL 115, 136402 (2015).                      %
     %   T. Thonhauser et al., PRB 76, 125112 (2007).                       %
     %   K. Berland et al., Rep. Prog. Phys. 78, 066501 (2015).             %
     %   D.C. Langreth et al., J. Phys.: Condens. Matter 21, 084203 (2009). %
     %                                                                      %
     %                                                                      %
     % If you are calculating the stress with vdW-DF, please also cite:     %
     %                                                                      %
     %   R. Sabatini et al., J. Phys.: Condens. Matter 24, 424209 (2012).   %
     %                                                                      %
     %%%%%%%%%%%%%%%%%%%%%%%%%%%%%%%%%%%%%%%%%%%%%%%%%%%%%%%%%%%%%%%%%%%%%%%%

     Adding external electric field

     Computed dipole along edir(3) :
        Dipole               -9.2265 Ry au,        -23.4513 Debye
        Dipole field         -0.0174 Ry au,

        Potential amp.        1.6140 Ry
        Total length         46.3494 bohr

     Starting wfcs are  300 atomic wfcs
  @ DRIVER MODE: Message from server: STATUS
  @ DRIVER MODE: Message from server: POSDATA
  @ DRIVER MODE: Reading and sharing cell
  @ DRIVER MODE: Reading and sharing positions
  @ DRIVER MODE: Received positions

     Self-consistent Calculation

     iteration #  1     ecut=    29.40 Ry     beta= 0.05
     Davidson diagonalization with overlap
     c_bands:  1 eigenvalues not converged
     c_bands:  1 eigenvalues not converged
     c_bands:  1 eigenvalues not converged
     c_bands:  1 eigenvalues not converged
     c_bands:  1 eigenvalues not converged
     c_bands:  1 eigenvalues not converged
     c_bands:  1 eigenvalues not converged
     ethr =  1.00E-05,  avg # of iterations = 19.0

[...]

     total energy              =   -2550.55187100 Ry
     estimated scf accuracy    <    4467.39718545 Ry

     iteration #  2     ecut=    29.40 Ry     beta= 0.05
     Davidson diagonalization with overlap
     ethr =  1.00E-02,  avg # of iterations = 23.6

[...]

     iteration # 77     ecut=    29.40 Ry     beta= 0.05
     Davidson diagonalization with overlap
     c_bands:  1 eigenvalues not converged
     c_bands:  1 eigenvalues not converged
     ethr =  4.08E-10,  avg # of iterations = 16.0

[...]

     total energy              =   -2952.76144208 Ry
     estimated scf accuracy    <       0.00000008 Ry

     iteration # 85     ecut=    29.40 Ry     beta= 0.05
     Davidson diagonalization with overlap
     ethr =  1.93E-11,  avg # of iterations =  5.7

     negative rho (up, down):  1.682E-02 0.000E+00

     Adding external electric field

     Computed dipole along edir(3) :
        Dipole                1.0235 Ry au,          2.6015 Debye
        Dipole field          0.0019 Ry au,

        Potential amp.       -0.1790 Ry
        Total length         46.3494 bohr

     End of self-consistent calculation

          k = 0.0000 0.0000 0.0000 ( 18029 PWs)   bands (ev):

   -55.6872 -55.6558 -55.6532 -55.6275 -55.6200 -55.5350 -55.5011 -55.4999
   -55.4690 -55.4671 -55.4635 -55.4298 -55.2139 -54.9969 -54.6670 -54.6329
   -32.2001 -32.1704 -32.0418 -32.0382 -31.9995 -31.9798 -31.9604 -31.9537
   -31.9310 -31.8906 -31.8816 -31.8511 -31.8393 -31.8386 -31.8339 -31.8135
   -31.7923 -31.7852 -31.7823 -31.7495 -31.7443 -31.7369 -31.7032 -31.6920
   -31.6918 -31.6904 -31.6806 -31.6630 -31.6627 -31.6548 -31.6493 -31.6406
   -31.6321 -31.6310 -31.6170 -31.6093 -31.5759 -31.4626 -31.4099 -31.2698
   -31.2491 -31.2111 -31.0740 -30.9856 -30.9632 -30.8908 -30.8043 -30.6932
   -19.1475 -16.4037 -16.1611 -15.9433 -15.8440 -15.8069 -15.6091 -15.5067
   -15.4196 -15.3099 -15.2455 -15.2246 -15.2182 -15.1982 -15.1874 -15.1465
   -15.1334 -15.1291 -15.1095 -15.0922 -15.0392 -15.0293 -15.0216 -14.9323
   -14.8589 -14.8240 -14.8118 -14.8063 -14.7881 -14.7457 -14.2992 -13.1687
   -13.0522  -7.4990  -6.9576  -4.2716  -3.8236  -3.7473  -3.6430  -3.5944
    -3.5529  -3.4100  -3.3492  -3.2608  -3.1456  -2.9341  -2.8746  -2.8348
    -2.8071  -2.7461  -2.5958  -2.5515  -2.4998  -2.4897  -2.4785  -2.4650
    -2.4377  -2.4230  -2.3274  -2.2861  -2.2399  -2.2296  -2.0902  -2.0767
    -2.0501  -2.0005  -1.9660  -1.9526  -1.9468  -1.9351  -1.9212  -1.8982
    -1.8729  -1.7701  -1.6802  -1.6105  -1.4989  -1.4545  -1.4042  -1.3110
    -1.3019  -1.2321  -1.1536  -1.1414  -1.1173  -1.0876  -1.0795  -0.9647
    -0.8591  -0.8451  -0.7449  -0.6919  -0.6089  -0.5799  -0.5253  -0.4799
    -0.4505  -0.4468  -0.4307  -0.3798  -0.2357  -0.2112  -0.1729  -0.0932
    -0.0339  -0.0224   0.0219   0.0630   0.1165   0.1423   0.1966   0.2042
     0.2384   0.2824   0.2859   0.3047   0.3220   0.3475   0.5217   0.5627
     0.5743   0.6500   0.6596   0.8275   0.8405   0.9674   1.0778   1.2825
     1.3558   1.4419   1.5481   1.6483   1.9269   1.9726   3.4412   3.5327
     3.5754   3.6064   3.6855   3.6887   3.8990   3.9160   3.9375   4.0207

[...]

          k = 0.0380-0.0419 0.0000 ( 17876 PWs)   bands (ev):

[...]

          k =-0.0760-0.0000 0.0000 ( 17886 PWs)   bands (ev):

[...]

          k =-0.0760-0.0839 0.0000 ( 17948 PWs)   bands (ev):

   -55.6705 -55.6698 -55.6388 -55.6368 -55.6255 -55.5205 -55.5145 -55.4840
   -55.4836 -55.4708 -55.4480 -55.4455 -55.2127 -54.9980 -54.6500 -54.6498
   -32.0124 -31.9979 -31.9860 -31.9854 -31.9656 -31.9648 -31.9221 -31.9165
   -31.9040 -31.8816 -31.8732 -31.8516 -31.8344 -31.8201 -31.8058 -31.8025
   -31.7993 -31.7958 -31.7899 -31.7893 -31.7869 -31.7840 -31.7724 -31.7382
   -31.7307 -31.7189 -31.7086 -31.6848 -31.6835 -31.6783 -31.6735 -31.6705
   -31.6636 -31.6607 -31.6581 -31.6557 -31.5838 -31.4660 -31.4046 -31.3439
   -31.2509 -31.2326 -30.9760 -30.9759 -30.8869 -30.8867 -30.8476 -30.8476
   -19.1467 -15.8551 -15.7570 -15.6423 -15.6117 -15.5606 -15.4958 -15.4838
   -15.4170 -15.3721 -15.3690 -15.2988 -15.2920 -15.2585 -15.2491 -15.2145
   -15.2140 -15.2074 -15.1568 -15.1439 -15.1283 -15.1261 -15.1195 -15.0427
   -15.0071 -15.0022 -14.9941 -14.9108 -14.8278 -14.7693 -14.4584 -13.1541
   -13.1539  -7.4959  -6.9506  -4.2458  -3.5265  -3.4436  -3.1400  -2.9698
    -2.8843  -2.8180  -2.7927  -2.7679  -2.6173  -2.5960  -2.5428  -2.5390
    -2.5145  -2.5125  -2.5087  -2.4899  -2.4824  -2.4571  -2.4310  -2.3901
    -2.3646  -2.3582  -2.3459  -2.3332  -2.3090  -2.2961  -2.2874  -2.2391
    -2.2370  -2.2182  -2.1252  -2.0546  -1.9112  -1.8926  -1.8492  -1.8280
    -1.8151  -1.7811  -1.7550  -1.7374  -1.6849  -1.6053  -1.5131  -1.4210
    -1.3800  -1.3676  -1.3003  -1.2826  -1.1905  -1.1653  -1.0900  -1.0702
    -0.9932  -0.9739  -0.8841  -0.8411  -0.8206  -0.7860  -0.7525  -0.7408
    -0.7108  -0.6547  -0.6425  -0.5905  -0.5637  -0.5008  -0.4386  -0.4176
    -0.4058  -0.3691  -0.3495  -0.3235  -0.1842  -0.1527  -0.1362  -0.0986
     0.0387   0.0696   0.2796   0.3663   0.3871   0.4653   0.5164   0.5976
     0.6210   0.6296   0.6462   0.6821   0.7735   0.8449   0.8562   0.8888
     0.9892   1.4924   1.7194   1.7203   1.7924   1.7925   3.7313   3.7742
     3.8098   3.8320   3.9277   3.9593   3.9801   3.9821   4.0341   4.1138

     the Fermi energy is     3.4448 ev

!    total energy              =   -2952.76146145 Ry
     estimated scf accuracy    <       0.00000005 Ry
     smearing contrib. (-TS)   =      -0.02154908 Ry
     internal energy E=F+TS    =   -2952.73991237 Ry

     The total energy is F=E-TS. E is the sum of the following terms:
     one-electron contribution =  -24472.77440508 Ry
     hartree contribution      =   12327.50939307 Ry
     xc contribution           =    -488.06391213 Ry
     ewald contribution        =    9680.58703485 Ry
     electric field correction =       0.00197692 Ry

     convergence has been achieved in  85 iterations

     Forces acting on atoms (cartesian axes, Ry/au):

     atom    1 type  1   force =    -0.00000843   -0.00029107    0.09610766
     atom    2 type  1   force =     0.00007890   -0.00044387   -0.17559794
     atom    3 type  2   force =     0.00010872   -0.00004848   -0.02421198
     atom    4 type  2   force =     0.00000675   -0.00136778    0.05324845
     atom    5 type  2   force =    -0.01131783    0.00005222    0.00282188
     atom    6 type  2   force =     0.01306743    0.00039918    0.00282930
     atom    7 type  1   force =     0.00079733    0.00047676   -0.00792708
     atom    8 type  1   force =     0.00007395    0.00682100    0.02439253
     atom    9 type  2   force =    -0.00025595   -0.00079746    0.00032653
     atom   10 type  2   force =    -0.00266504    0.00235146   -0.01481953
     atom   11 type  2   force =    -0.00020522   -0.00012355   -0.00054755
     atom   12 type  2   force =     0.00053264   -0.00001254   -0.00061830
     atom   13 type  1   force =    -0.00056307   -0.00159986    0.00048160
     atom   14 type  1   force =     0.00045497   -0.00021280   -0.00030070
     atom   15 type  2   force =    -0.00020865   -0.00077817   -0.00066425
     atom   16 type  2   force =    -0.00008195   -0.00043316   -0.00030939
     atom   17 type  2   force =    -0.00145372   -0.00090684   -0.00019877
     atom   18 type  2   force =     0.00114044   -0.00026214    0.00034976
     atom   19 type  1   force =    -0.00010368    0.00057036    0.00009531
     atom   20 type  1   force =     0.00016211   -0.00075480   -0.00055998
     atom   21 type  2   force =     0.00005416   -0.00001586    0.10322832
     atom   22 type  2   force =     0.00002320   -0.00034017    0.00098657
     atom   23 type  2   force =    -0.07151385   -0.00012436   -0.02770263
     atom   24 type  2   force =     0.07142832    0.00035357   -0.02777112
     atom   25 type  1   force =     0.00017296   -0.00025192    0.09581568
     atom   26 type  1   force =     0.00005805   -0.00033329   -0.17581599
     atom   27 type  2   force =     0.00014603   -0.00004106   -0.02329489
     atom   28 type  2   force =     0.00000891   -0.00107264    0.05285627
     atom   29 type  2   force =    -0.01166077    0.00075062    0.00296248
     atom   30 type  2   force =     0.01328903    0.00126176    0.00299028
     atom   31 type  1   force =     0.00071736    0.00395431   -0.01082658
     atom   32 type  1   force =     0.00010130   -0.00902615    0.02486499
     atom   33 type  2   force =    -0.00007445    0.00061119   -0.00012330
     atom   34 type  2   force =    -0.00202331    0.00169252   -0.02186460
     atom   35 type  2   force =     0.00004373   -0.00025373   -0.00025784
     atom   36 type  2   force =    -0.00007801   -0.00007289   -0.00060129
     atom   37 type  1   force =    -0.00029535    0.00154726    0.00006527
     atom   38 type  1   force =     0.00054688    0.00040919    0.00020921
     atom   39 type  2   force =     0.00001408   -0.00010421   -0.00115904
     atom   40 type  2   force =     0.00011890    0.00012713    0.00033702
     atom   41 type  2   force =    -0.00024119   -0.00001449   -0.00016265
     atom   42 type  2   force =     0.00009016   -0.00050735    0.00035338
     atom   43 type  1   force =    -0.00079305   -0.00057611    0.00047877
     atom   44 type  1   force =     0.00012087    0.00013421    0.00006764
     atom   45 type  2   force =     0.00004593   -0.00005154    0.10321542
     atom   46 type  2   force =    -0.07153356   -0.00006165   -0.02771825
     atom   47 type  2   force =     0.07144279    0.00037669   -0.02777423
     atom   48 type  3   force =     0.00203746   -0.00032252    0.00038360
     atom   49 type  4   force =    -0.00194297   -0.00014753    0.00039410
     atom   50 type  5   force =     0.00028427    0.00034548    0.00019728
     atom   51 type  5   force =     0.00031963   -0.00019097    0.00079251
     atom   52 type  2   force =     0.00149876    0.00040987   -0.00035952
     atom   53 type  5   force =    -0.00045638   -0.00043699   -0.00004632
     atom   54 type  5   force =    -0.00150959   -0.00066680    0.00038194

     Total force =     0.367000     Total SCF correction =     0.000681
  @ DRIVER MODE: Message from server: STATUS
  @ DRIVER MODE: Message from server: GETFORCE
  @ DRIVER MODE: Returning v,forces,stress,ensemble

     Writing output data file ./calc.save/
  @ DRIVER MODE: Message from server: EXIT
  @ DRIVE MODE: Exiting

     General routines

     Parallel routines

   This run was terminated on:  16:15:51  15Sep2021

   JOB DONE.