     Program PWSCF v.6.7GPU starts on 25Aug2021 at 13: 8:37

     R & G space division:  proc/nbgrp/npool/nimage =       6
     Reading input from /storage/home/hcoda1/3/ntian30/research/carbon/CH3_vib_end_on/ads_slab/CH3NHNH2_a/out_0037/pw.inp
Warning: card &CELL ignored
Warning: card   CELL_DYNAMICS='IPI', ignored
Warning: card / ignored

     Current dimensions of program PWSCF are:
     Max number of different atomic species (ntypx) = 10
     Max number of k-points (npk) =  40000
     Max angular momentum in pseudopotentials (lmaxx) =  3
     Presently no symmetry can be used with electric field

     Message from routine cell_base_init:
     DEPRECATED: use true lattice parameter, not A to a.u. conversion factor

     IMPORTANT: XC functional enforced from input :
     Exchange-correlation= BEEF-VDW
                           (   1   4  43  14   2   0   0)
     Any further DFT definition will be discarded
     Please, verify this is what you really want

  @ DRIVER MODE: Connecting to
 qe_1139763_2643871.sched-torque.pace.gatech.eduofa2t38y_scratch
  using UNIX socket
  @ DRIVER MODE: Message from server: STATUS
  @ DRIVER MODE: Message from server: INIT
  @ DRIVER MODE: Receiving replica           0          -1
  @ DRIVER MODE: Receiving encoded integer          25
  @ DRIVER MODE:  SCF:  T  FORCE:  T  STRESS:  F  VC:  F  ENSEMBLE:  F
  @ DRIVER MODE:  SCF:  T  FORCE:  T  STRESS:  F  VC:  F  ENSEMBLE:  F

     Using Slab Decomposition

     bravais-lattice index     =            0
     lattice parameter (alat)  =       1.8897  a.u.
     unit-cell volume          =    6658.9804 (a.u.)^3
     number of atoms/cell      =           56
     number of atomic types    =            5
     number of electrons       =       398.00
     number of Kohn-Sham states=          209
     kinetic-energy cutoff     =      29.3995  Ry
     charge density cutoff     =     293.9946  Ry
     scf convergence threshold =      7.3E-08
     mixing beta               =       0.0500
     number of iterations used =            8  plain     mixing
     Exchange-correlation= BEEF-VDW
                           (   1   4  43  14   2   0   0)

     celldm(1)=   1.889726  celldm(2)=   0.000000  celldm(3)=   0.000000
     celldm(4)=   0.000000  celldm(5)=   0.000000  celldm(6)=   0.000000

     crystal axes: (cart. coord. in units of alat)
               a(1) = (   6.579727   0.000000   0.000000 )
               a(2) = (  -0.000775   5.961596   0.000000 )
               a(3) = (   0.000000   0.000000  25.155947 )

     reciprocal axes: (cart. coord. in units 2 pi/alat)
               b(1) = (  0.151982  0.000020  0.000000 )
               b(2) = (  0.000000  0.167740  0.000000 )
               b(3) = (  0.000000  0.000000  0.039752 )

     PseudoPot. # 1 for Ti read from file:
     /storage/coda1/p-amedford6/0/shared/rich_project_chbe-medford/medford-share/data/pseudos_module/espresso/nninc/pbe/van/Ti.UPF
     MD5 check sum: 8e4df49b7f0d34bbd5052bf3f5ea0213
     Pseudo is Ultrasoft, Zval = 12.0
     Generated by new atomic code, or converted to UPF format
     Using radial grid of  851 points,  6 beta functions with:
                l(1) =   0
                l(2) =   0
                l(3) =   1
                l(4) =   1
                l(5) =   2
                l(6) =   2
     Q(r) pseudized with  8 coefficients,  rinner =    1.000   1.000   1.000
                                                       1.000   1.000

     PseudoPot. # 2 for O  read from file:
     /storage/coda1/p-amedford6/0/shared/rich_project_chbe-medford/medford-share/data/pseudos_module/espresso/nninc/pbe/van/O.UPF
     MD5 check sum: 78c19812648e8988a0fe644b0f25305e
     Pseudo is Ultrasoft, Zval =  6.0
     Generated by new atomic code, or converted to UPF format
     Using radial grid of  737 points,  4 beta functions with:
                l(1) =   0
                l(2) =   0
                l(3) =   1
                l(4) =   1
     Q(r) pseudized with  8 coefficients,  rinner =    0.800   0.800   0.800

     PseudoPot. # 3 for N  read from file:
     /storage/coda1/p-amedford6/0/shared/rich_project_chbe-medford/medford-share/data/pseudos_module/espresso/nninc/pbe/van/N.UPF
     MD5 check sum: 90d10febe142ad51ac9d5be1deb811c4
     Pseudo is Ultrasoft, Zval =  5.0
     Generated by new atomic code, or converted to UPF format
     Using radial grid of  729 points,  4 beta functions with:
                l(1) =   0
                l(2) =   0
                l(3) =   1
                l(4) =   1
     Q(r) pseudized with  8 coefficients,  rinner =    0.800   0.800   0.800

     PseudoPot. # 4 for C  read from file:
     /storage/coda1/p-amedford6/0/shared/rich_project_chbe-medford/medford-share/data/pseudos_module/espresso/nninc/pbe/van/C.UPF
     MD5 check sum: 1a69bf6b8db32088f5b2163dbdb77a27
     Pseudo is Ultrasoft, Zval =  4.0
     Generated by new atomic code, or converted to UPF format
     Using radial grid of  721 points,  4 beta functions with:
                l(1) =   0
                l(2) =   0
                l(3) =   1
                l(4) =   1
     Q(r) pseudized with  8 coefficients,  rinner =    0.800   0.800   0.800

     PseudoPot. # 5 for H  read from file:
     /storage/coda1/p-amedford6/0/shared/rich_project_chbe-medford/medford-share/data/pseudos_module/espresso/nninc/pbe/van/H.UPF
     MD5 check sum: b5ee9d7bfd3a09ee7748110bda690ff7
     Pseudo is Ultrasoft, Zval =  1.0
     Generated by new atomic code, or converted to UPF format
     Using radial grid of  615 points,  1 beta functions with:
                l(1) =   0
     Q(r) pseudized with  8 coefficients,  rinner =    0.800

     atomic species   valence    mass     pseudopotential
        Ti1           12.00    47.86700     Ti( 1.00)
        O1             6.00    15.99900     O ( 1.00)
        N1             5.00    14.00700     N ( 1.00)
        C1             4.00    12.01100     C ( 1.00)
        H1             1.00     1.00800     H ( 1.00)

     No symmetry found

   Cartesian axes

     site n.     atom                  positions (alat units)
         1           Ti1 tau(   1) = (   0.0004258   2.9801865   6.0000000  )
         2           Ti1 tau(   2) = (   3.2906075   1.4906267   6.0002472  )
         3           O1  tau(   3) = (   0.0006271   0.0005054   7.9858123  )
         4           O1  tau(   4) = (   3.2906025   0.0005020   7.3038282  )
         5           O1  tau(   5) = (   4.5942328   1.4918067   9.2879030  )
         6           O1  tau(   6) = (   1.9868534   1.4903216   9.2879459  )
         7           Ti1 tau(   7) = (   3.2907910   2.8959150   9.1758416  )
         8           Ti1 tau(   8) = (   0.0015273   1.4827037   9.2680791  )
         9           O1  tau(   9) = (   3.2714441   0.0289406  11.3813764  )
        10           O1  tau(  10) = (   0.0116148   5.9584955  10.6183126  )
        11           O1  tau(  11) = (   1.2692032   1.5162281  12.7122965  )
        12           O1  tau(  12) = (   5.2779133   1.5159715  12.6811497  )
        13           Ti1 tau(  13) = (   6.5579218   3.0031650  12.5037829  )
        14           Ti1 tau(  14) = (   3.2791490   1.5128154  12.5375672  )
        15           O1  tau(  15) = (   6.5208524   5.8954130  14.6845636  )
        16           O1  tau(  16) = (   3.2849572   0.0099931  14.0031570  )
        17           O1  tau(  17) = (   4.4884262   1.5607690  16.1641467  )
        18           O1  tau(  18) = (   1.9729656   1.5430890  16.0903287  )
        19           Ti1 tau(  19) = (   3.2372663   3.0309179  15.7728032  )
        20           Ti1 tau(  20) = (   6.5553692   1.3539605  15.8053163  )
        21           O1  tau(  21) = (   3.2904802   0.0005063   4.7018136  )
        22           O1  tau(  22) = (   6.5123495   0.2165906  17.2215032  )
        23           O1  tau(  23) = (   1.3043587   1.4918075   6.0039043  )
        24           O1  tau(  24) = (   5.2767064   1.4903225   6.0039473  )
        25           Ti1 tau(  25) = (   0.0000382   5.9609847   6.0000000  )
        26           Ti1 tau(  26) = (   3.2902200   4.4714249   6.0002472  )
        27           O1  tau(  27) = (   0.0002396   2.9813036   7.9858123  )
        28           O1  tau(  28) = (   3.2902150   2.9813002   7.3038282  )
        29           O1  tau(  29) = (   4.5938453   4.4726049   9.2879030  )
        30           O1  tau(  30) = (   1.9864658   4.4711199   9.2879459  )
        31           Ti1 tau(  31) = (   3.2891106   5.8743827   9.1763621  )
        32           Ti1 tau(  32) = (   0.0006254   4.4649316   9.2693709  )
        33           O1  tau(  33) = (   3.2699379   2.9911670  11.3762017  )
        34           O1  tau(  34) = (   0.0092240   2.9805883  10.6323155  )
        35           O1  tau(  35) = (   1.2730946   4.4825978  12.6662957  )
        36           O1  tau(  36) = (   5.2742290   4.4829497  12.6320226  )
        37           Ti1 tau(  37) = (   6.5783117   0.0079037  12.5026730  )
        38           Ti1 tau(  38) = (   3.2784283   4.4905194  12.5286134  )
        39           O1  tau(  39) = (   6.5033290   3.0824797  14.9867588  )
        40           O1  tau(  40) = (   3.2824109   3.0350539  13.9807796  )
        41           O1  tau(  41) = (   4.4804250   4.5097483  16.2808085  )
        42           O1  tau(  42) = (   1.9642025   4.5165872  16.2225063  )
        43           Ti1 tau(  43) = (   3.2609991   0.0502580  15.7998297  )
        44           Ti1 tau(  44) = (   6.5501253   4.5826093  16.0954727  )
        45           O1  tau(  45) = (   3.2900926   2.9813045   4.7018136  )
        46           O1  tau(  46) = (   1.3039711   4.4726057   6.0039043  )
        47           O1  tau(  47) = (   5.2763189   4.4711207   6.0039473  )
        48           N1  tau(  48) = (   0.8845045   3.2634721  19.1145209  )
        49           N1  tau(  49) = (   6.3504243   3.3997271  18.1887592  )
        50           C1  tau(  50) = (   1.2927081   4.5631590  19.6429350  )
        51           H1  tau(  51) = (   0.4658632   5.1229972  20.1056819  )
        52           H1  tau(  52) = (   2.0600825   4.3818216  20.3958833  )
        53           H1  tau(  53) = (   1.7018904   5.1738364  18.8453250  )
        54           H1  tau(  54) = (   0.5528611   2.6866381  19.8888112  )
        55           H1  tau(  55) = (   5.6051421   3.9827062  18.5884547  )
        56           H1  tau(  56) = (   5.9567982   2.4624696  18.0937858  )

     number of k points=    10  Fermi-Dirac smearing, width (Ry)=  0.0073
                       cart. coord. in units 2pi/alat
        k(    1) = (   0.0000000   0.0000000   0.0000000), wk =   0.1250000
        k(    2) = (   0.0000000   0.0419351   0.0000000), wk =   0.2500000
        k(    3) = (   0.0000000  -0.0838702   0.0000000), wk =   0.1250000
        k(    4) = (   0.0379955   0.0000049   0.0000000), wk =   0.2500000
        k(    5) = (   0.0379955   0.0419400   0.0000000), wk =   0.2500000
        k(    6) = (   0.0379955  -0.0838652   0.0000000), wk =   0.2500000
        k(    7) = (   0.0379955  -0.0419301   0.0000000), wk =   0.2500000
        k(    8) = (  -0.0759910  -0.0000099   0.0000000), wk =   0.1250000
        k(    9) = (  -0.0759910   0.0419252   0.0000000), wk =   0.2500000
        k(   10) = (  -0.0759910  -0.0838800   0.0000000), wk =   0.1250000

     Initial potential from superposition of free atoms

     starting charge  381.99914, renormalised to  398.00000

     negative rho (up, down):  1.416E-02 0.000E+00

     %%%%%%%%%%%%%%%%%%%%%%%%%%%%%%%%%%%%%%%%%%%%%%%%%%%%%%%%%%%%%%%%%%%%%%%%
     %                                                                      %
     % You are using vdW-DF, which was implemented by the Thonhauser group. %
     % Please cite the following two papers that made this development      %
     % possible and the two reviews that describe the various versions:     %
     %                                                                      %
     %   T. Thonhauser et al., PRL 115, 136402 (2015).                      %
     %   T. Thonhauser et al., PRB 76, 125112 (2007).                       %
     %   K. Berland et al., Rep. Prog. Phys. 78, 066501 (2015).             %
     %   D.C. Langreth et al., J. Phys.: Condens. Matter 21, 084203 (2009). %
     %                                                                      %
     %                                                                      %
     % If you are calculating the stress with vdW-DF, please also cite:     %
     %                                                                      %
     %   R. Sabatini et al., J. Phys.: Condens. Matter 24, 424209 (2012).   %
     %                                                                      %
     %%%%%%%%%%%%%%%%%%%%%%%%%%%%%%%%%%%%%%%%%%%%%%%%%%%%%%%%%%%%%%%%%%%%%%%%

     Adding external electric field

     Computed dipole along edir(3) :
        Dipole              -11.7171 Ry au,        -29.7818 Debye
        Dipole field         -0.0221 Ry au,

        Potential amp.        2.0497 Ry
        Total length         46.3494 bohr

     Starting wfcs are  302 atomic wfcs
  @ DRIVER MODE: Message from server: STATUS
  @ DRIVER MODE: Message from server: POSDATA
  @ DRIVER MODE: Reading and sharing cell
  @ DRIVER MODE: Reading and sharing positions
  @ DRIVER MODE: Received positions

     Self-consistent Calculation

     iteration #  1     ecut=    29.40 Ry     beta= 0.05
     Davidson diagonalization with overlap
     c_bands:  3 eigenvalues not converged
     c_bands:  1 eigenvalues not converged
     c_bands:  1 eigenvalues not converged
     c_bands:  4 eigenvalues not converged
     c_bands:  1 eigenvalues not converged
     c_bands:  4 eigenvalues not converged
     c_bands:  5 eigenvalues not converged
     c_bands:  2 eigenvalues not converged
     ethr =  1.00E-05,  avg # of iterations = 21.9

[...]

     total energy              =   -2424.56986091 Ry
     estimated scf accuracy    <    5830.30148613 Ry

     iteration #  2     ecut=    29.40 Ry     beta= 0.05
     Davidson diagonalization with overlap
     ethr =  1.00E-02,  avg # of iterations = 22.2

[...]

     iteration # 70     ecut=    29.40 Ry     beta= 0.05
     Davidson diagonalization with overlap
     c_bands:  2 eigenvalues not converged
     c_bands:  1 eigenvalues not converged
     ethr =  1.95E-11,  avg # of iterations = 17.1

[...]

     total energy              =   -2942.84388316 Ry
     estimated scf accuracy    <       0.00000015 Ry

     iteration # 71     ecut=    29.40 Ry     beta= 0.05
     Davidson diagonalization with overlap
     ethr =  1.95E-11,  avg # of iterations =  9.6

     negative rho (up, down):  1.512E-02 0.000E+00

     Adding external electric field

     Computed dipole along edir(3) :
        Dipole                1.4964 Ry au,          3.8034 Debye
        Dipole field          0.0028 Ry au,

        Potential amp.       -0.2618 Ry
        Total length         46.3494 bohr

     End of self-consistent calculation

          k = 0.0000 0.0000 0.0000 ( 18029 PWs)   bands (ev):

   -55.2016 -55.1644 -55.1539 -55.1248 -55.1197 -55.0828 -55.0799 -55.0450
   -55.0258 -55.0127 -54.9914 -54.9865 -54.9528 -54.8561 -54.1861 -54.1520
   -31.7679 -31.6516 -31.6468 -31.5680 -31.5151 -31.5139 -31.5111 -31.4926
   -31.4428 -31.4391 -31.4112 -31.4091 -31.3989 -31.3818 -31.3688 -31.3630
   -31.3560 -31.3463 -31.3389 -31.3222 -31.3065 -31.3036 -31.2717 -31.2681
   -31.2574 -31.2565 -31.2379 -31.2284 -31.2111 -31.2103 -31.2060 -31.1854
   -31.1851 -31.1819 -31.1751 -31.1725 -31.1392 -31.1294 -31.1148 -31.0979
   -31.0693 -31.0499 -30.5956 -30.5011 -30.4791 -30.4119 -30.3251 -30.2143
   -17.9612 -16.0351 -15.7729 -15.6274 -15.5152 -15.4041 -15.2844 -15.2536
   -15.1339 -15.0578 -14.9238 -14.8975 -14.8752 -14.8515 -14.8397 -14.8270
   -14.7515 -14.7450 -14.7288 -14.7006 -14.6988 -14.6535 -14.6438 -14.6045
   -14.5795 -14.5580 -14.4534 -14.3654 -14.2914 -14.0746 -13.4334 -12.6889
   -12.5714  -9.7047  -6.5849  -6.0841  -4.5983  -3.3736  -3.2558  -3.2255
    -3.1383  -3.1047  -3.0962  -3.0010  -2.9498  -2.7919  -2.6495  -2.6234
    -2.4929  -2.4179  -2.4014  -2.3770  -2.2473  -2.2120  -2.1608  -2.1217
    -2.0628  -2.0322  -2.0086  -1.9929  -1.9618  -1.9526  -1.9274  -1.8381
    -1.7789  -1.6852  -1.6678  -1.6012  -1.5923  -1.5606  -1.5394  -1.4944
    -1.4841  -1.4336  -1.4268  -1.4141  -1.3945  -1.2647  -1.2229  -1.1130
    -1.0517  -0.9640  -0.8437  -0.8034  -0.7893  -0.6987  -0.6899  -0.6573
    -0.5816  -0.5783  -0.5476  -0.4394  -0.3744  -0.3108  -0.2519  -0.2253
    -0.1924  -0.1149  -0.0240   0.0120   0.0287   0.0519   0.1521   0.1871
     0.2428   0.3095   0.3211   0.3343   0.4141   0.4551   0.5304   0.5668
     0.5847   0.6732   0.6996   0.7275   0.7281   0.7659   0.7801   0.8198
     0.8685   0.8952   0.9818   1.0366   1.1025   1.3473   1.3999   1.4060
     1.7321   1.7400   1.8365   2.0199   2.4130   2.4613   3.8948   3.9636
     4.0393   4.0443   4.0666   4.1305   4.3684   4.3916   4.4005   4.4027
     4.4292

[...]

          k = 0.0380-0.0419 0.0000 ( 17876 PWs)   bands (ev):

[...]

          k =-0.0760-0.0000 0.0000 ( 17886 PWs)   bands (ev):

[...]

          k =-0.0760-0.0839 0.0000 ( 17948 PWs)   bands (ev):

   -55.1878 -55.1780 -55.1370 -55.1365 -55.1235 -55.0785 -55.0655 -55.0594
   -55.0170 -55.0100 -55.0068 -54.9700 -54.9695 -54.8572 -54.1692 -54.1688
   -31.5760 -31.5750 -31.5682 -31.4835 -31.4621 -31.4617 -31.4586 -31.4281
   -31.4280 -31.4125 -31.4017 -31.4000 -31.3913 -31.3656 -31.3563 -31.3434
   -31.3425 -31.3386 -31.3354 -31.3296 -31.3278 -31.3218 -31.2828 -31.2795
   -31.2792 -31.2778 -31.2601 -31.2589 -31.2567 -31.2563 -31.2514 -31.2430
   -31.2400 -31.2231 -31.2197 -31.2037 -31.2030 -31.2001 -31.1507 -31.1503
   -31.1258 -31.0738 -30.4919 -30.4916 -30.4082 -30.4080 -30.3687 -30.3685
   -17.9579 -15.5600 -15.4301 -15.4010 -15.2447 -15.2085 -15.1751 -15.1618
   -15.0409 -15.0036 -14.9790 -14.9696 -14.9519 -14.9116 -14.9060 -14.8990
   -14.8285 -14.8092 -14.8050 -14.7827 -14.7246 -14.7157 -14.7118 -14.7042
   -14.6536 -14.6500 -14.5692 -14.5594 -14.5561 -14.3761 -13.4367 -12.6729
   -12.6728  -9.7206  -6.5687  -6.0847  -4.5774  -3.2276  -2.9577  -2.6925
    -2.6875  -2.6596  -2.4586  -2.3958  -2.3651  -2.3594  -2.2623  -2.2257
    -2.2012  -2.1977  -2.1319  -2.1177  -2.0867  -2.0569  -2.0408  -2.0267
    -2.0106  -1.9964  -1.9715  -1.9342  -1.9261  -1.9176  -1.8854  -1.8643
    -1.8413  -1.8187  -1.8055  -1.7870  -1.7611  -1.7383  -1.6015  -1.5701
    -1.4997  -1.4544  -1.4135  -1.4092  -1.3374  -1.3009  -1.2508  -1.2387
    -1.2214  -1.0812  -1.0234  -0.9725  -0.9526  -0.9416  -0.8124  -0.7985
    -0.7251  -0.7078  -0.6915  -0.6155  -0.5658  -0.5275  -0.5140  -0.4206
    -0.4052  -0.3389  -0.2368  -0.2141  -0.2002  -0.1596  -0.1566  -0.1092
    -0.1022  -0.0181   0.0261   0.0611   0.0719   0.1078   0.3007   0.3168
     0.3267   0.4797   0.4956   0.6372   0.6808   0.7472   0.8061   0.8451
     0.9066   0.9439   1.0481   1.0852   1.1017   1.1088   1.1713   1.1833
     1.2459   1.2567   2.1925   2.1931   2.2812   2.2815   4.0407   4.1481
     4.1558   4.1974   4.3173   4.3476   4.4098   4.4370   4.4787   4.4819
     4.5451

     the Fermi energy is     3.9581 ev

!    total energy              =   -2942.84390613 Ry
     estimated scf accuracy    <       0.00000007 Ry
     smearing contrib. (-TS)   =      -0.03707782 Ry
     internal energy E=F+TS    =   -2942.80682831 Ry

     The total energy is F=E-TS. E is the sum of the following terms:
     one-electron contribution =  -23366.65485854 Ry
     hartree contribution      =   11777.50084948 Ry
     xc contribution           =    -487.73864138 Ry
     ewald contribution        =    9134.08159668 Ry
     electric field correction =       0.00422546 Ry

     convergence has been achieved in  71 iterations

     Forces acting on atoms (cartesian axes, Ry/au):

     atom    1 type  1   force =     0.00017677   -0.00032754    0.09327682
     atom    2 type  1   force =    -0.00006170   -0.00042615   -0.17825369
     atom    3 type  2   force =     0.00002674   -0.00032358   -0.02002777
     atom    4 type  2   force =     0.00002212   -0.00183257    0.05924393
     atom    5 type  2   force =    -0.01045362   -0.00026385    0.00865123
     atom    6 type  2   force =     0.01146865    0.00040716    0.00646354
     atom    7 type  1   force =    -0.00100366    0.00213075   -0.01397592
     atom    8 type  1   force =     0.00081585   -0.00094391   -0.00574001
     atom    9 type  2   force =    -0.00009912    0.00012673    0.00000283
     atom   10 type  2   force =    -0.00185513    0.00411145    0.00026685
     atom   11 type  2   force =    -0.00006044   -0.00064675    0.00028734
     atom   12 type  2   force =    -0.00001814   -0.00041573    0.00054334
     atom   13 type  1   force =     0.00004208    0.00009255    0.00032583
     atom   14 type  1   force =    -0.00037905   -0.00000254    0.00007658
     atom   15 type  2   force =     0.00052211    0.00025432   -0.00033083
     atom   16 type  2   force =     0.00032023   -0.00035219   -0.00007130
     atom   17 type  2   force =    -0.00057881   -0.00001864   -0.00001981
     atom   18 type  2   force =     0.00053149   -0.00018968    0.00001310
     atom   19 type  1   force =    -0.00001346   -0.00053326    0.00019459
     atom   20 type  1   force =     0.00068905    0.00011467    0.00092448
     atom   21 type  2   force =     0.00012569   -0.00012773    0.10400266
     atom   22 type  2   force =    -0.00039245    0.00020897   -0.00026178
     atom   23 type  2   force =    -0.07027811   -0.00022991   -0.02685937
     atom   24 type  2   force =     0.07027065    0.00020735   -0.02688126
     atom   25 type  1   force =     0.00007879   -0.00032205    0.09258959
     atom   26 type  1   force =    -0.00003862   -0.00058649   -0.17837131
     atom   27 type  2   force =     0.00013002   -0.00016362   -0.01907560
     atom   28 type  2   force =     0.00005226   -0.00163362    0.05860633
     atom   29 type  2   force =    -0.01105464   -0.00055961    0.00933156
     atom   30 type  2   force =     0.01197353   -0.00002264    0.00722153
     atom   31 type  1   force =    -0.00093077    0.00647696   -0.01504400
     atom   32 type  1   force =     0.00085866    0.00101823   -0.00587817
     atom   33 type  2   force =     0.00017673   -0.00057233   -0.00002991
     atom   34 type  2   force =    -0.00185785   -0.00052118   -0.00049509
     atom   35 type  2   force =    -0.00044685    0.00006813   -0.00043141
     atom   36 type  2   force =     0.00034778   -0.00011344    0.00018443
     atom   37 type  1   force =    -0.00051242   -0.00025382    0.00020343
     atom   38 type  1   force =    -0.00004455   -0.00015218   -0.00008462
     atom   39 type  2   force =     0.00029839   -0.00059599   -0.00000647
     atom   40 type  2   force =    -0.00060374   -0.00051133    0.00025697
     atom   41 type  2   force =    -0.00024733   -0.00072610   -0.00070409
     atom   42 type  2   force =     0.00045221   -0.00009924   -0.00009240
     atom   43 type  1   force =     0.00025069   -0.00020100   -0.00021410
     atom   44 type  1   force =     0.00049339   -0.00001409    0.00087128
     atom   45 type  2   force =     0.00013458   -0.00014134    0.10394302
     atom   46 type  2   force =    -0.07028172   -0.00015358   -0.02683152
     atom   47 type  2   force =     0.07025549    0.00026926   -0.02688922
     atom   48 type  3   force =    -0.00200743   -0.00244787    0.00324927
     atom   49 type  3   force =    -0.00038156   -0.00012008   -0.00140994
     atom   50 type  4   force =     0.00017139   -0.00163101    0.00055345
     atom   51 type  5   force =    -0.00068046    0.00148607    0.00061317
     atom   52 type  5   force =     0.00034712   -0.00025402   -0.00020766
     atom   53 type  5   force =     0.00078342    0.00028761   -0.00129146
     atom   54 type  5   force =     0.00332480    0.00136843   -0.00188085
     atom   55 type  5   force =     0.00011469   -0.00051021   -0.00026530
     atom   56 type  5   force =    -0.00097377    0.00031230   -0.00027230

     Total force =     0.366371     Total SCF correction =     0.000786
  @ DRIVER MODE: Message from server: STATUS
  @ DRIVER MODE: Message from server: GETFORCE
  @ DRIVER MODE: Returning v,forces,stress,ensemble

     Writing output data file ./calc.save/
  @ DRIVER MODE: Message from server: EXIT
  @ DRIVE MODE: Exiting

     General routines

     Parallel routines

   This run was terminated on:  13:39:16  25Aug2021

   JOB DONE.