     Program PWSCF v.6.7GPU starts on 23Sep2021 at  0:27:41

     R & G space division:  proc/nbgrp/npool/nimage =       8
     Reading input from /storage/home/hcoda1/3/ntian30/research/carbon/CxH_vib/H2O_calc/ads_slab/CH2NHHO_a/out_0006/pw.inp
Warning: card &CELL ignored
Warning: card   CELL_DYNAMICS='IPI', ignored
Warning: card / ignored

     Current dimensions of program PWSCF are:
     Max number of different atomic species (ntypx) = 10
     Max number of k-points (npk) =  40000
     Max angular momentum in pseudopotentials (lmaxx) =  3
     Presently no symmetry can be used with electric field

     Message from routine cell_base_init:
     DEPRECATED: use true lattice parameter, not A to a.u. conversion factor

     IMPORTANT: XC functional enforced from input :
     Exchange-correlation= BEEF-VDW
                           (   1   4  43  14   2   0   0)
     Any further DFT definition will be discarded
     Please, verify this is what you really want

  @ DRIVER MODE: Connecting to
 qe_1139763_2941012.sched-torque.pace.gatech.edustu94b0n_scratch
  using UNIX socket
  @ DRIVER MODE: Message from server: STATUS
  @ DRIVER MODE: Message from server: INIT
  @ DRIVER MODE: Receiving replica           0          -1
  @ DRIVER MODE: Receiving encoded integer          25
  @ DRIVER MODE:  SCF:  T  FORCE:  T  STRESS:  F  VC:  F  ENSEMBLE:  F
  @ DRIVER MODE:  SCF:  T  FORCE:  T  STRESS:  F  VC:  F  ENSEMBLE:  F

     Using Slab Decomposition

     bravais-lattice index     =            0
     lattice parameter (alat)  =       1.8897  a.u.
     unit-cell volume          =    6658.9804 (a.u.)^3
     number of atoms/cell      =           54
     number of atomic types    =            5
     number of electrons       =       397.00
     number of Kohn-Sham states=          208
     kinetic-energy cutoff     =      29.3995  Ry
     charge density cutoff     =     293.9946  Ry
     scf convergence threshold =      7.3E-08
     mixing beta               =       0.0500
     number of iterations used =            8  plain     mixing
     Exchange-correlation= BEEF-VDW
                           (   1   4  43  14   2   0   0)

     celldm(1)=   1.889726  celldm(2)=   0.000000  celldm(3)=   0.000000
     celldm(4)=   0.000000  celldm(5)=   0.000000  celldm(6)=   0.000000

     crystal axes: (cart. coord. in units of alat)
               a(1) = (   6.579727   0.000000   0.000000 )
               a(2) = (  -0.000775   5.961596   0.000000 )
               a(3) = (   0.000000   0.000000  25.155947 )

     reciprocal axes: (cart. coord. in units 2 pi/alat)
               b(1) = (  0.151982  0.000020  0.000000 )
               b(2) = (  0.000000  0.167740  0.000000 )
               b(3) = (  0.000000  0.000000  0.039752 )

     PseudoPot. # 1 for Ti read from file:
     /storage/coda1/p-amedford6/0/shared/rich_project_chbe-medford/medford-share/data/pseudos_module/espresso/nninc/pbe/van/Ti.UPF
     MD5 check sum: 8e4df49b7f0d34bbd5052bf3f5ea0213
     Pseudo is Ultrasoft, Zval = 12.0
     Generated by new atomic code, or converted to UPF format
     Using radial grid of  851 points,  6 beta functions with:
                l(1) =   0
                l(2) =   0
                l(3) =   1
                l(4) =   1
                l(5) =   2
                l(6) =   2
     Q(r) pseudized with  8 coefficients,  rinner =    1.000   1.000   1.000
                                                       1.000   1.000

     PseudoPot. # 2 for O  read from file:
     /storage/coda1/p-amedford6/0/shared/rich_project_chbe-medford/medford-share/data/pseudos_module/espresso/nninc/pbe/van/O.UPF
     MD5 check sum: 78c19812648e8988a0fe644b0f25305e
     Pseudo is Ultrasoft, Zval =  6.0
     Generated by new atomic code, or converted to UPF format
     Using radial grid of  737 points,  4 beta functions with:
                l(1) =   0
                l(2) =   0
                l(3) =   1
                l(4) =   1
     Q(r) pseudized with  8 coefficients,  rinner =    0.800   0.800   0.800

     PseudoPot. # 3 for N  read from file:
     /storage/coda1/p-amedford6/0/shared/rich_project_chbe-medford/medford-share/data/pseudos_module/espresso/nninc/pbe/van/N.UPF
     MD5 check sum: 90d10febe142ad51ac9d5be1deb811c4
     Pseudo is Ultrasoft, Zval =  5.0
     Generated by new atomic code, or converted to UPF format
     Using radial grid of  729 points,  4 beta functions with:
                l(1) =   0
                l(2) =   0
                l(3) =   1
                l(4) =   1
     Q(r) pseudized with  8 coefficients,  rinner =    0.800   0.800   0.800

     PseudoPot. # 4 for C  read from file:
     /storage/coda1/p-amedford6/0/shared/rich_project_chbe-medford/medford-share/data/pseudos_module/espresso/nninc/pbe/van/C.UPF
     MD5 check sum: 1a69bf6b8db32088f5b2163dbdb77a27
     Pseudo is Ultrasoft, Zval =  4.0
     Generated by new atomic code, or converted to UPF format
     Using radial grid of  721 points,  4 beta functions with:
                l(1) =   0
                l(2) =   0
                l(3) =   1
                l(4) =   1
     Q(r) pseudized with  8 coefficients,  rinner =    0.800   0.800   0.800

     PseudoPot. # 5 for H  read from file:
     /storage/coda1/p-amedford6/0/shared/rich_project_chbe-medford/medford-share/data/pseudos_module/espresso/nninc/pbe/van/H.UPF
     MD5 check sum: b5ee9d7bfd3a09ee7748110bda690ff7
     Pseudo is Ultrasoft, Zval =  1.0
     Generated by new atomic code, or converted to UPF format
     Using radial grid of  615 points,  1 beta functions with:
                l(1) =   0
     Q(r) pseudized with  8 coefficients,  rinner =    0.800

     atomic species   valence    mass     pseudopotential
        Ti1           12.00    47.86700     Ti( 1.00)
        O1             6.00    15.99900     O ( 1.00)
        N1             5.00    14.00700     N ( 1.00)
        C1             4.00    12.01100     C ( 1.00)
        H1             1.00     1.00800     H ( 1.00)

     No symmetry found

   Cartesian axes

     site n.     atom                  positions (alat units)
         1           Ti1 tau(   1) = (   0.0004258   2.9801865   6.0000000  )
         2           Ti1 tau(   2) = (   3.2906075   1.4906267   6.0002472  )
         3           O1  tau(   3) = (   0.0006271   0.0005054   7.9858123  )
         4           O1  tau(   4) = (   3.2906025   0.0005020   7.3038282  )
         5           O1  tau(   5) = (   4.5942328   1.4918067   9.2879030  )
         6           O1  tau(   6) = (   1.9868534   1.4903216   9.2879459  )
         7           Ti1 tau(   7) = (   3.2907910   2.8959150   9.1758416  )
         8           Ti1 tau(   8) = (   0.0015273   1.4827037   9.2680791  )
         9           O1  tau(   9) = (   3.2872377   5.9372537  11.3619719  )
        10           O1  tau(  10) = (   0.0116148   5.9584955  10.6183126  )
        11           O1  tau(  11) = (   1.2678424   1.4880610  12.6451974  )
        12           O1  tau(  12) = (   5.2928823   1.5036634  12.6399001  )
        13           Ti1 tau(  13) = (   6.5521701   2.9315368  12.5404127  )
        14           Ti1 tau(  14) = (   3.2895327   1.2997526  12.7137971  )
        15           O1  tau(  15) = (   6.5477037   0.0845492  14.6505624  )
        16           O1  tau(  16) = (   3.2827468   0.0880329  14.0175491  )
        17           O1  tau(  17) = (   4.5427558   1.5765460  16.1196870  )
        18           O1  tau(  18) = (   1.9971221   1.5491956  16.2097298  )
        19           Ti1 tau(  19) = (   3.2670693   3.0250103  15.6873951  )
        20           Ti1 tau(  20) = (   6.4806419   1.4532933  16.0069425  )
        21           O1  tau(  21) = (   3.2904802   0.0005063   4.7018136  )
        22           O1  tau(  22) = (   6.5100566   5.8635464  17.1664964  )
        23           O1  tau(  23) = (   1.3043587   1.4918075   6.0039043  )
        24           O1  tau(  24) = (   5.2767064   1.4903225   6.0039473  )
        25           Ti1 tau(  25) = (   0.0000382   5.9609847   6.0000000  )
        26           Ti1 tau(  26) = (   3.2902200   4.4714249   6.0002472  )
        27           O1  tau(  27) = (   0.0002396   2.9813036   7.9858123  )
        28           O1  tau(  28) = (   3.2902150   2.9813002   7.3038282  )
        29           O1  tau(  29) = (   4.5938453   4.4726049   9.2879030  )
        30           O1  tau(  30) = (   1.9864658   4.4711199   9.2879459  )
        31           Ti1 tau(  31) = (   3.2891106   5.8743827   9.1763621  )
        32           Ti1 tau(  32) = (   0.0006254   4.4649316   9.2693709  )
        33           O1  tau(  33) = (   3.2826969   3.0075535  11.3127327  )
        34           O1  tau(  34) = (   0.0092240   2.9805883  10.6323155  )
        35           O1  tau(  35) = (   1.2713698   4.4757098  12.6731835  )
        36           O1  tau(  36) = (   5.2977781   4.4601507  12.6712348  )
        37           Ti1 tau(  37) = (   0.0330522   5.9225719  12.5042524  )
        38           Ti1 tau(  38) = (   3.2990360   4.3766664  12.4405836  )
        39           O1  tau(  39) = (   0.0150134   2.9421642  14.8567636  )
        40           O1  tau(  40) = (   3.2596324   2.9836344  13.9148061  )
        41           O1  tau(  41) = (   4.5490916   4.3969069  16.0525170  )
        42           O1  tau(  42) = (   1.9960638   4.4622821  16.0939853  )
        43           Ti1 tau(  43) = (   3.1777156   0.0378257  16.2738330  )
        44           Ti1 tau(  44) = (   6.5243348   4.6462111  15.7996153  )
        45           O1  tau(  45) = (   3.2900926   2.9813045   4.7018136  )
        46           O1  tau(  46) = (   1.3039711   4.4726057   6.0039043  )
        47           O1  tau(  47) = (   5.2763189   4.4711207   6.0039473  )
        48           N1  tau(  48) = (   6.4646383   2.7559932  17.9372311  )
        49           C1  tau(  49) = (   0.7552072   2.7164238  18.8602713  )
        50           H1  tau(  50) = (   0.5916026   3.1878006  19.8266510  )
        51           H1  tau(  51) = (   1.6887153   2.1901376  18.6919226  )
        52           H1  tau(  52) = (   5.6107037   3.2511282  18.1874541  )
        53           O1  tau(  53) = (   3.4589997   5.9358250  18.1144358  )
        54           H1  tau(  54) = (   4.3999295   5.9567086  18.3589960  )

     number of k points=    10  Fermi-Dirac smearing, width (Ry)=  0.0073
                       cart. coord. in units 2pi/alat
        k(    1) = (   0.0000000   0.0000000   0.0000000), wk =   0.1250000
        k(    2) = (   0.0000000   0.0419351   0.0000000), wk =   0.2500000
        k(    3) = (   0.0000000  -0.0838702   0.0000000), wk =   0.1250000
        k(    4) = (   0.0379955   0.0000049   0.0000000), wk =   0.2500000
        k(    5) = (   0.0379955   0.0419400   0.0000000), wk =   0.2500000
        k(    6) = (   0.0379955  -0.0838652   0.0000000), wk =   0.2500000
        k(    7) = (   0.0379955  -0.0419301   0.0000000), wk =   0.2500000
        k(    8) = (  -0.0759910  -0.0000099   0.0000000), wk =   0.1250000
        k(    9) = (  -0.0759910   0.0419252   0.0000000), wk =   0.2500000
        k(   10) = (  -0.0759910  -0.0838800   0.0000000), wk =   0.1250000

     Initial potential from superposition of free atoms

     starting charge  380.99916, renormalised to  397.00000

     negative rho (up, down):  1.654E-02 0.000E+00

     %%%%%%%%%%%%%%%%%%%%%%%%%%%%%%%%%%%%%%%%%%%%%%%%%%%%%%%%%%%%%%%%%%%%%%%%
     %                                                                      %
     % You are using vdW-DF, which was implemented by the Thonhauser group. %
     % Please cite the following two papers that made this development      %
     % possible and the two reviews that describe the various versions:     %
     %                                                                      %
     %   T. Thonhauser et al., PRL 115, 136402 (2015).                      %
     %   T. Thonhauser et al., PRB 76, 125112 (2007).                       %
     %   K. Berland et al., Rep. Prog. Phys. 78, 066501 (2015).             %
     %   D.C. Langreth et al., J. Phys.: Condens. Matter 21, 084203 (2009). %
     %                                                                      %
     %                                                                      %
     % If you are calculating the stress with vdW-DF, please also cite:     %
     %                                                                      %
     %   R. Sabatini et al., J. Phys.: Condens. Matter 24, 424209 (2012).   %
     %                                                                      %
     %%%%%%%%%%%%%%%%%%%%%%%%%%%%%%%%%%%%%%%%%%%%%%%%%%%%%%%%%%%%%%%%%%%%%%%%

     Adding external electric field

     Computed dipole along edir(3) :
        Dipole               -9.3038 Ry au,        -23.6479 Debye
        Dipole field         -0.0176 Ry au,

        Potential amp.        1.6276 Ry
        Total length         46.3494 bohr

     Starting wfcs are  300 atomic wfcs
  @ DRIVER MODE: Message from server: STATUS
  @ DRIVER MODE: Message from server: POSDATA
  @ DRIVER MODE: Reading and sharing cell
  @ DRIVER MODE: Reading and sharing positions
  @ DRIVER MODE: Received positions

     Self-consistent Calculation

     iteration #  1     ecut=    29.40 Ry     beta= 0.05
     Davidson diagonalization with overlap
     c_bands:  1 eigenvalues not converged
     c_bands:  1 eigenvalues not converged
     c_bands:  2 eigenvalues not converged
     c_bands:  1 eigenvalues not converged
     c_bands:  1 eigenvalues not converged
     c_bands:  2 eigenvalues not converged
     c_bands:  1 eigenvalues not converged
     c_bands:  1 eigenvalues not converged
     c_bands:  3 eigenvalues not converged
     ethr =  1.00E-05,  avg # of iterations = 19.6

[...]

     total energy              =   -2534.80142255 Ry
     estimated scf accuracy    <    4639.26449784 Ry

     iteration #  2     ecut=    29.40 Ry     beta= 0.05
     Davidson diagonalization with overlap
     ethr =  1.00E-02,  avg # of iterations = 24.5

[...]

     iteration # 69     ecut=    29.40 Ry     beta= 0.05
     Davidson diagonalization with overlap
     c_bands:  2 eigenvalues not converged
     ethr =  5.46E-09,  avg # of iterations = 15.3

[...]

     total energy              =   -2952.74682236 Ry
     estimated scf accuracy    <       0.00000026 Ry

     iteration # 80     ecut=    29.40 Ry     beta= 0.05
     Davidson diagonalization with overlap
     ethr =  2.38E-11,  avg # of iterations =  7.4

     negative rho (up, down):  1.672E-02 0.000E+00

     Adding external electric field

     Computed dipole along edir(3) :
        Dipole                1.0902 Ry au,          2.7709 Debye
        Dipole field          0.0021 Ry au,

        Potential amp.       -0.1907 Ry
        Total length         46.3494 bohr

     End of self-consistent calculation

          k = 0.0000 0.0000 0.0000 ( 18029 PWs)   bands (ev):

   -55.6616 -55.6347 -55.6006 -55.4657 -55.4563 -55.4398 -55.4307 -55.4227
   -55.4107 -55.3947 -55.3454 -55.2397 -55.2304 -55.1726 -54.6005 -54.5664
   -32.1184 -31.9902 -31.9607 -31.9569 -31.9545 -31.9308 -31.9258 -31.8799
   -31.8784 -31.8676 -31.8342 -31.7872 -31.7528 -31.7404 -31.7311 -31.7309
   -31.7125 -31.6923 -31.6811 -31.6700 -31.6612 -31.6516 -31.6332 -31.6203
   -31.6171 -31.6071 -31.6011 -31.5861 -31.5849 -31.5830 -31.5715 -31.5662
   -31.5628 -31.5415 -31.5184 -31.5011 -31.4427 -31.4276 -31.4152 -31.3856
   -31.3851 -31.3782 -31.0061 -30.9208 -30.8983 -30.8237 -30.7373 -30.6255
   -16.7878 -16.4424 -16.2536 -16.0819 -15.8685 -15.7937 -15.7568 -15.5580
   -15.4724 -15.4056 -15.1805 -15.1671 -15.1641 -15.1348 -15.1096 -15.1029
   -15.0904 -15.0527 -15.0501 -15.0290 -15.0041 -14.9694 -14.9612 -14.9149
   -14.8667 -14.8528 -14.7655 -14.6935 -14.6479 -14.4477 -14.3303 -13.0988
   -12.9826  -9.3476  -6.3835  -4.7815  -3.9588  -3.6216  -3.5345  -3.5022
    -3.4328  -3.3761  -3.1415  -3.0059  -2.9611  -2.8751  -2.7639  -2.7390
    -2.6840  -2.6185  -2.5492  -2.5271  -2.4873  -2.4307  -2.4058  -2.3792
    -2.3682  -2.3391  -2.2830  -2.2278  -2.1586  -2.1358  -2.0803  -2.0024
    -1.9517  -1.9487  -1.9386  -1.9175  -1.8941  -1.8713  -1.8494  -1.8375
    -1.7359  -1.6838  -1.6636  -1.6092  -1.5592  -1.2981  -1.2292  -1.2141
    -1.1494  -1.1049  -1.0685  -1.0492  -1.0193  -0.9778  -0.9279  -0.8929
    -0.8117  -0.7566  -0.6995  -0.6829  -0.6366  -0.5659  -0.4783  -0.4232
    -0.4035  -0.3456  -0.3362  -0.3136  -0.1894  -0.1525  -0.1451  -0.0884
    -0.0620   0.0420   0.0867   0.1237   0.1561   0.2429   0.2676   0.3092
     0.3119   0.3470   0.3506   0.4413   0.4495   0.4774   0.5392   0.5641
     0.6435   0.7145   0.7216   0.8718   0.9212   1.0101   1.0499   1.1361
     1.3767   1.4261   1.4820   1.6199   1.9924   2.0374   3.4583   3.6036
     3.6211   3.7071   3.7178   3.8216   3.9345   3.9877   4.0315   4.1333

[...]

          k = 0.0380-0.0419 0.0000 ( 17876 PWs)   bands (ev):

[...]

          k =-0.0760-0.0000 0.0000 ( 17886 PWs)   bands (ev):

[...]

          k =-0.0760-0.0839 0.0000 ( 17948 PWs)   bands (ev):

   -55.6607 -55.6179 -55.6173 -55.4495 -55.4469 -55.4396 -55.4389 -55.4382
   -55.4114 -55.3880 -55.3521 -55.2354 -55.2318 -55.1768 -54.5838 -54.5829
   -31.9338 -31.9336 -31.9255 -31.9172 -31.9115 -31.9111 -31.8799 -31.8694
   -31.8051 -31.7737 -31.7717 -31.7622 -31.7570 -31.7378 -31.7372 -31.7311
   -31.7191 -31.7102 -31.6992 -31.6787 -31.6666 -31.6599 -31.6514 -31.6448
   -31.6417 -31.6403 -31.6312 -31.6220 -31.6127 -31.6084 -31.6057 -31.6055
   -31.5999 -31.5749 -31.5727 -31.5193 -31.5025 -31.4656 -31.4462 -31.4312
   -31.4239 -31.3825 -30.9113 -30.9107 -30.8196 -30.8184 -30.7809 -30.7802
   -16.7709 -16.4214 -15.8261 -15.7138 -15.5891 -15.5799 -15.4681 -15.3948
   -15.3648 -15.3334 -15.3166 -15.3082 -15.2815 -15.2460 -15.1936 -15.1764
   -15.1410 -15.1218 -15.1103 -15.0680 -15.0539 -15.0450 -15.0249 -14.9805
   -14.9675 -14.9360 -14.9231 -14.8008 -14.7400 -14.6433 -14.5644 -13.0847
   -13.0842  -9.3527  -6.3793  -4.7674  -3.9409  -3.0261  -2.9297  -2.7971
    -2.7047  -2.6769  -2.6335  -2.6172  -2.5827  -2.5400  -2.5219  -2.4714
    -2.4315  -2.4102  -2.4015  -2.3723  -2.3666  -2.3583  -2.3252  -2.3078
    -2.2960  -2.2852  -2.2611  -2.2494  -2.2335  -2.2096  -2.1953  -2.1681
    -2.1502  -2.1063  -1.9965  -1.9475  -1.9158  -1.7823  -1.7669  -1.7481
    -1.7333  -1.7126  -1.6946  -1.6786  -1.6125  -1.5934  -1.5678  -1.3943
    -1.3755  -1.2839  -1.2480  -1.2035  -1.1402  -1.1265  -1.0747  -1.0476
    -0.9983  -0.9713  -0.8761  -0.8225  -0.7893  -0.7550  -0.6320  -0.5792
    -0.5722  -0.5635  -0.5342  -0.5137  -0.4702  -0.4490  -0.4194  -0.3541
    -0.3223  -0.3052  -0.2629  -0.2522  -0.1274  -0.0095   0.0722   0.1174
     0.1808   0.1992   0.2392   0.3398   0.4193   0.4988   0.5456   0.5642
     0.5941   0.6874   0.7027   0.8387   0.8723   0.8742   0.9153   0.9469
     0.9763   1.0177   1.7893   1.7974   1.8576   1.8579   3.7079   3.8345
     3.9641   3.9851   3.9965   4.0301   4.0327   4.0579   4.1077   4.1426

     the Fermi energy is     3.4900 ev

!    total energy              =   -2952.74683555 Ry
     estimated scf accuracy    <       0.00000006 Ry
     smearing contrib. (-TS)   =      -0.02005117 Ry
     internal energy E=F+TS    =   -2952.72678438 Ry

     The total energy is F=E-TS. E is the sum of the following terms:
     one-electron contribution =  -23989.13714152 Ry
     hartree contribution      =   12086.07916264 Ry
     xc contribution           =    -488.04045984 Ry
     ewald contribution        =    9438.36941160 Ry
     electric field correction =       0.00224275 Ry

     convergence has been achieved in  80 iterations

     Forces acting on atoms (cartesian axes, Ry/au):

     atom    1 type  1   force =     0.00015072   -0.00027162    0.09475950
     atom    2 type  1   force =    -0.00000524    0.00038813   -0.17493293
     atom    3 type  2   force =    -0.00001546   -0.00013080   -0.02196531
     atom    4 type  2   force =     0.00006539   -0.00191672    0.05344475
     atom    5 type  2   force =    -0.00734308   -0.00240482    0.00312653
     atom    6 type  2   force =     0.00860824   -0.00198104    0.00184008
     atom    7 type  1   force =    -0.00058503   -0.00348136    0.00949922
     atom    8 type  1   force =     0.00060730    0.00468238    0.00854689
     atom    9 type  2   force =     0.00009280    0.00018660   -0.00008098
     atom   10 type  2   force =    -0.00268416   -0.00030907   -0.01286419
     atom   11 type  2   force =    -0.00036028   -0.00035829   -0.00004719
     atom   12 type  2   force =     0.00013970   -0.00019198    0.00036894
     atom   13 type  1   force =     0.00041534    0.00024055   -0.00105714
     atom   14 type  1   force =    -0.00015217    0.00008372   -0.00021568
     atom   15 type  2   force =     0.00021466   -0.00011383   -0.00000449
     atom   16 type  2   force =     0.00039861    0.00004749    0.00013949
     atom   17 type  2   force =     0.00014751    0.00009705    0.00052761
     atom   18 type  2   force =    -0.00021166   -0.00076537   -0.00011446
     atom   19 type  1   force =     0.00021435    0.00037080   -0.00012059
     atom   20 type  1   force =     0.00007795   -0.00014398    0.00012149
     atom   21 type  2   force =     0.00009977    0.00008050    0.10311714
     atom   22 type  2   force =     0.00005348   -0.00044070    0.00013088
     atom   23 type  2   force =    -0.07213305   -0.00014193   -0.02735874
     atom   24 type  2   force =     0.07208661    0.00027593   -0.02738135
     atom   25 type  1   force =     0.00003264   -0.00009380    0.09449971
     atom   26 type  1   force =    -0.00007286   -0.00132023   -0.17510349
     atom   27 type  2   force =     0.00014830   -0.00020232   -0.02073322
     atom   28 type  2   force =     0.00002513   -0.00018816    0.04903957
     atom   29 type  2   force =    -0.00616503    0.00258847    0.00156865
     atom   30 type  2   force =     0.00738786    0.00321037    0.00013172
     atom   31 type  1   force =    -0.00054747    0.00715913   -0.00099935
     atom   32 type  1   force =     0.00055555   -0.00650840    0.00779164
     atom   33 type  2   force =     0.00025805   -0.00025713   -0.00025002
     atom   34 type  2   force =    -0.00212796    0.00146745   -0.01165668
     atom   35 type  2   force =    -0.00006520   -0.00001561    0.00025224
     atom   36 type  2   force =    -0.00024476    0.00010568    0.00037740
     atom   37 type  1   force =     0.00052691   -0.00011009   -0.00061443
     atom   38 type  1   force =    -0.00018908   -0.00012613    0.00017017
     atom   39 type  2   force =     0.00011925    0.00029245    0.00018320
     atom   40 type  2   force =    -0.00015136    0.00028616   -0.00029498
     atom   41 type  2   force =     0.00050474    0.00032334   -0.00001243
     atom   42 type  2   force =    -0.00045076    0.00029268    0.00038348
     atom   43 type  1   force =    -0.00002903   -0.00089991   -0.00067827
     atom   44 type  1   force =     0.00021404    0.00104955   -0.00022264
     atom   45 type  2   force =     0.00010182   -0.00009239    0.10292150
     atom   46 type  2   force =    -0.07214609   -0.00005563   -0.02738736
     atom   47 type  2   force =     0.07215210    0.00040058   -0.02742191
     atom   48 type  3   force =    -0.00655566   -0.00312884   -0.01741126
     atom   49 type  4   force =     0.00826616    0.00039225    0.01243608
     atom   50 type  5   force =     0.00096345    0.00008387    0.00100394
     atom   51 type  5   force =     0.00044507   -0.00009510   -0.00066116
     atom   52 type  5   force =    -0.00247002    0.00163269    0.00271488
     atom   53 type  2   force =     0.00001910    0.00006276    0.00178369
     atom   54 type  5   force =    -0.00038717   -0.00005533   -0.00129014

     Total force =     0.363225     Total SCF correction =     0.000566
  @ DRIVER MODE: Message from server: STATUS
  @ DRIVER MODE: Message from server: GETFORCE
  @ DRIVER MODE: Returning v,forces,stress,ensemble

     Writing output data file ./calc.save/
  @ DRIVER MODE: Message from server: EXIT
  @ DRIVE MODE: Exiting

     General routines

     Parallel routines

   This run was terminated on:   0:56:55  23Sep2021

   JOB DONE.