     Program PWSCF v.6.7GPU starts on 18Oct2021 at 15: 9:17

     R & G space division:  proc/nbgrp/npool/nimage =       8
     Reading input from /storage/home/hcoda1/3/ntian30/research/carbon/CxH_vib/Thiel_calc/ads_slab/NH2NH2HH_perslab/out_0008/pw.inp
Warning: card &CELL ignored
Warning: card   CELL_DYNAMICS='IPI', ignored
Warning: card / ignored

     Current dimensions of program PWSCF are:
     Max number of different atomic species (ntypx) = 10
     Max number of k-points (npk) =  40000
     Max angular momentum in pseudopotentials (lmaxx) =  3
     Presently no symmetry can be used with electric field

     Message from routine cell_base_init:
     DEPRECATED: use true lattice parameter, not A to a.u. conversion factor

     IMPORTANT: XC functional enforced from input :
     Exchange-correlation= BEEF-VDW
                           (   1   4  43  14   2   0   0)
     Any further DFT definition will be discarded
     Please, verify this is what you really want

  @ DRIVER MODE: Connecting to
 qe_1139763_3255137.sched-torque.pace.gatech.eduuij9oq41_scratch
  using UNIX socket
  @ DRIVER MODE: Message from server: STATUS
  @ DRIVER MODE: Message from server: INIT
  @ DRIVER MODE: Receiving replica           0          -1
  @ DRIVER MODE: Receiving encoded integer          25
  @ DRIVER MODE:  SCF:  T  FORCE:  T  STRESS:  F  VC:  F  ENSEMBLE:  F
  @ DRIVER MODE:  SCF:  T  FORCE:  T  STRESS:  F  VC:  F  ENSEMBLE:  F

     Using Slab Decomposition

     bravais-lattice index     =            0
     lattice parameter (alat)  =       1.8897  a.u.
     unit-cell volume          =    9988.4706 (a.u.)^3
     number of atoms/cell      =           61
     number of atomic types    =            4
     number of electrons       =       442.00
     number of Kohn-Sham states=          231
     kinetic-energy cutoff     =      29.3995  Ry
     charge density cutoff     =     293.9946  Ry
     scf convergence threshold =      7.3E-08
     mixing beta               =       0.0500
     number of iterations used =            8  plain     mixing
     Exchange-correlation= BEEF-VDW
                           (   1   4  43  14   2   0   0)

     celldm(1)=   1.889726  celldm(2)=   0.000000  celldm(3)=   0.000000
     celldm(4)=   0.000000  celldm(5)=   0.000000  celldm(6)=   0.000000

     crystal axes: (cart. coord. in units of alat)
               a(1) = (   6.579727   0.000000   0.000000 )
               a(2) = (  -0.001163   8.942395   0.000000 )
               a(3) = (   0.000000   0.000000  25.155947 )

     reciprocal axes: (cart. coord. in units 2 pi/alat)
               b(1) = (  0.151982  0.000020  0.000000 )
               b(2) = (  0.000000  0.111827  0.000000 )
               b(3) = (  0.000000  0.000000  0.039752 )

     PseudoPot. # 1 for O  read from file:
     /storage/coda1/p-amedford6/0/shared/rich_project_chbe-medford/medford-share/data/pseudos_module/espresso/nninc/pbe/van/O.UPF
     MD5 check sum: 78c19812648e8988a0fe644b0f25305e
     Pseudo is Ultrasoft, Zval =  6.0
     Generated by new atomic code, or converted to UPF format
     Using radial grid of  737 points,  4 beta functions with:
                l(1) =   0
                l(2) =   0
                l(3) =   1
                l(4) =   1
     Q(r) pseudized with  8 coefficients,  rinner =    0.800   0.800   0.800

     PseudoPot. # 2 for Ti read from file:
     /storage/coda1/p-amedford6/0/shared/rich_project_chbe-medford/medford-share/data/pseudos_module/espresso/nninc/pbe/van/Ti.UPF
     MD5 check sum: 8e4df49b7f0d34bbd5052bf3f5ea0213
     Pseudo is Ultrasoft, Zval = 12.0
     Generated by new atomic code, or converted to UPF format
     Using radial grid of  851 points,  6 beta functions with:
                l(1) =   0
                l(2) =   0
                l(3) =   1
                l(4) =   1
                l(5) =   2
                l(6) =   2
     Q(r) pseudized with  8 coefficients,  rinner =    1.000   1.000   1.000
                                                       1.000   1.000

     PseudoPot. # 3 for N  read from file:
     /storage/coda1/p-amedford6/0/shared/rich_project_chbe-medford/medford-share/data/pseudos_module/espresso/nninc/pbe/van/N.UPF
     MD5 check sum: 90d10febe142ad51ac9d5be1deb811c4
     Pseudo is Ultrasoft, Zval =  5.0
     Generated by new atomic code, or converted to UPF format
     Using radial grid of  729 points,  4 beta functions with:
                l(1) =   0
                l(2) =   0
                l(3) =   1
                l(4) =   1
     Q(r) pseudized with  8 coefficients,  rinner =    0.800   0.800   0.800

     PseudoPot. # 4 for H  read from file:
     /storage/coda1/p-amedford6/0/shared/rich_project_chbe-medford/medford-share/data/pseudos_module/espresso/nninc/pbe/van/H.UPF
     MD5 check sum: b5ee9d7bfd3a09ee7748110bda690ff7
     Pseudo is Ultrasoft, Zval =  1.0
     Generated by new atomic code, or converted to UPF format
     Using radial grid of  615 points,  1 beta functions with:
                l(1) =   0
     Q(r) pseudized with  8 coefficients,  rinner =    0.800

     atomic species   valence    mass     pseudopotential
        O1             6.00    15.99900     O ( 1.00)
        Ti1           12.00    47.86700     Ti( 1.00)
        N1             5.00    14.00700     N ( 1.00)
        H1             1.00     1.00800     H ( 1.00)

     No symmetry found

   Cartesian axes

     site n.     atom                  positions (alat units)
         1           O1  tau(   1) = (   0.0007354   0.0005023  10.5931620  )
         2           O1  tau(   2) = (   3.2456387   0.0208629  13.8623892  )
         3           O1  tau(   3) = (   6.5569189   0.0555649  17.3369326  )
         4           O1  tau(   4) = (   0.0006271   0.0005054   7.9858123  )
         5           O1  tau(   5) = (   3.2933513   8.9300833  11.1812556  )
         6           O1  tau(   6) = (   0.0337597   0.0712708  14.6279364  )
         7           O1  tau(   7) = (   1.9868534   1.4903216   9.2879459  )
         8           O1  tau(   8) = (   5.2215124   1.6184176  12.5791628  )
         9           O1  tau(   9) = (   1.9922958   1.5902288  16.0980526  )
        10           Ti1 tau(  10) = (   0.0007404   1.4906270   9.2895810  )
        11           Ti1 tau(  11) = (   3.2860490   1.3455809  12.4359399  )
        12           Ti1 tau(  12) = (   6.5618936   1.3602716  15.8812525  )
        13           O1  tau(  13) = (   4.5942328   1.4918067   9.2879030  )
        14           O1  tau(  14) = (   1.3307156   1.5887400  12.5381291  )
        15           O1  tau(  15) = (   4.5725103   1.6118788  16.0006659  )
        16           Ti1 tau(  16) = (   3.2902859   2.9801868   9.2893338  )
        17           Ti1 tau(  17) = (   0.0046584   2.8227806  12.4510757  )
        18           Ti1 tau(  18) = (   3.2555632   2.8898243  15.6661830  )
        19           O1  tau(  19) = (   0.0003479   2.9813005  10.5931620  )
        20           O1  tau(  20) = (   3.2279248   2.9553539  13.8813459  )
        21           O1  tau(  21) = (   0.0002396   2.9813036   7.9858123  )
        22           O1  tau(  22) = (   3.2889556   2.9859946  11.1941525  )
        23           O1  tau(  23) = (   0.0559812   2.9852445  14.6488683  )
        24           O1  tau(  24) = (   1.9864658   4.4711199   9.2879459  )
        25           O1  tau(  25) = (   5.2314886   4.5920767  12.6107679  )
        26           O1  tau(  26) = (   1.9969377   4.5324570  16.1535429  )
        27           Ti1 tau(  27) = (   0.0003529   4.4714252   9.2895810  )
        28           Ti1 tau(  28) = (   3.2845268   4.3564118  12.5295435  )
        29           Ti1 tau(  29) = (   6.5676402   4.3565080  15.8255799  )
        30           O1  tau(  30) = (   4.5938453   4.4726049   9.2879030  )
        31           O1  tau(  31) = (   1.3315080   4.5776727  12.5731030  )
        32           O1  tau(  32) = (   4.5871741   4.4544688  15.9274438  )
        33           Ti1 tau(  33) = (   3.2898983   5.9609850   9.2893338  )
        34           Ti1 tau(  34) = (   6.5783773   5.8108302  12.4536689  )
        35           Ti1 tau(  35) = (   3.3162440   5.8110762  16.0333210  )
        36           O1  tau(  36) = (  -0.0000397   5.9620987  10.5931620  )
        37           O1  tau(  37) = (   3.2636778   5.9869953  13.9790019  )
        38           O1  tau(  38) = (   6.4104969   6.0475349  17.2872242  )
        39           O1  tau(  39) = (  -0.0001480   5.9621018   7.9858123  )
        40           O1  tau(  40) = (   3.2905218   5.9516507  11.2202175  )
        41           O1  tau(  41) = (   0.0617018   5.9803669  14.6637187  )
        42           O1  tau(  42) = (   1.9860782   7.4519181   9.2879459  )
        43           O1  tau(  43) = (   5.2407037   7.5572870  12.6049163  )
        44           O1  tau(  44) = (   1.9881273   7.5959696  16.0809372  )
        45           Ti1 tau(  45) = (  -0.0000347   7.4522234   9.2895810  )
        46           Ti1 tau(  46) = (   3.2912638   7.2305267  12.6172466  )
        47           Ti1 tau(  47) = (   0.0232661   7.3094817  15.9177444  )
        48           O1  tau(  48) = (   4.5934577   7.4534031   9.2879030  )
        49           O1  tau(  49) = (   1.3287160   7.5404973  12.5734398  )
        50           O1  tau(  50) = (   4.6507959   7.6754627  15.9163669  )
        51           Ti1 tau(  51) = (   3.2895107   8.9417832   9.2893338  )
        52           Ti1 tau(  52) = (   0.0077981   8.7799231  12.4640552  )
        53           Ti1 tau(  53) = (   3.2910717   8.8534038  15.6608489  )
        54           N1  tau(  54) = (   3.7626148   6.0985185  18.0019073  )
        55           H1  tau(  55) = (   3.4763780   5.3841571  18.6619304  )
        56           H1  tau(  56) = (   3.5565419   6.9988739  18.4208443  )
        57           N1  tau(  57) = (   6.5319303   3.0529623  17.4095181  )
        58           H1  tau(  58) = (   5.7013393   3.0140474  17.9904383  )
        59           H1  tau(  59) = (   0.7603229   3.1006543  18.0203722  )
        60           H1  tau(  60) = (   5.4974376   6.0468821  17.7423635  )
        61           H1  tau(  61) = (   0.7324116   0.0679216  17.9402240  )

     number of k points=    10  Fermi-Dirac smearing, width (Ry)=  0.0073
                       cart. coord. in units 2pi/alat
        k(    1) = (   0.0000000   0.0000000   0.0000000), wk =   0.1250000
        k(    2) = (   0.0000000   0.0279567   0.0000000), wk =   0.2500000
        k(    3) = (   0.0000000  -0.0559134   0.0000000), wk =   0.1250000
        k(    4) = (   0.0379955   0.0000049   0.0000000), wk =   0.2500000
        k(    5) = (   0.0379955   0.0279617   0.0000000), wk =   0.2500000
        k(    6) = (   0.0379955  -0.0559085   0.0000000), wk =   0.2500000
        k(    7) = (   0.0379955  -0.0279518   0.0000000), wk =   0.2500000
        k(    8) = (  -0.0759910  -0.0000099   0.0000000), wk =   0.1250000
        k(    9) = (  -0.0759910   0.0279468   0.0000000), wk =   0.2500000
        k(   10) = (  -0.0759910  -0.0559233   0.0000000), wk =   0.1250000

     Initial potential from superposition of free atoms

     starting charge  423.99908, renormalised to  442.00000

     negative rho (up, down):  3.745E-02 0.000E+00

     %%%%%%%%%%%%%%%%%%%%%%%%%%%%%%%%%%%%%%%%%%%%%%%%%%%%%%%%%%%%%%%%%%%%%%%%
     %                                                                      %
     % You are using vdW-DF, which was implemented by the Thonhauser group. %
     % Please cite the following two papers that made this development      %
     % possible and the two reviews that describe the various versions:     %
     %                                                                      %
     %   T. Thonhauser et al., PRL 115, 136402 (2015).                      %
     %   T. Thonhauser et al., PRB 76, 125112 (2007).                       %
     %   K. Berland et al., Rep. Prog. Phys. 78, 066501 (2015).             %
     %   D.C. Langreth et al., J. Phys.: Condens. Matter 21, 084203 (2009). %
     %                                                                      %
     %                                                                      %
     % If you are calculating the stress with vdW-DF, please also cite:     %
     %                                                                      %
     %   R. Sabatini et al., J. Phys.: Condens. Matter 24, 424209 (2012).   %
     %                                                                      %
     %%%%%%%%%%%%%%%%%%%%%%%%%%%%%%%%%%%%%%%%%%%%%%%%%%%%%%%%%%%%%%%%%%%%%%%%

     Adding external electric field

     Computed dipole along edir(3) :
        Dipole               -5.9687 Ry au,        -15.1708 Debye
        Dipole field         -0.0075 Ry au,

        Potential amp.        0.6961 Ry
        Total length         46.3494 bohr

     Starting wfcs are  334 atomic wfcs
  @ DRIVER MODE: Message from server: STATUS
  @ DRIVER MODE: Message from server: POSDATA
  @ DRIVER MODE: Reading and sharing cell
  @ DRIVER MODE: Reading and sharing positions
  @ DRIVER MODE: Received positions

     Self-consistent Calculation

     iteration #  1     ecut=    29.40 Ry     beta= 0.05
     Davidson diagonalization with overlap
     c_bands:  1 eigenvalues not converged
     c_bands:  3 eigenvalues not converged
     c_bands:  5 eigenvalues not converged
     c_bands:  2 eigenvalues not converged
     c_bands:  4 eigenvalues not converged
     c_bands:  4 eigenvalues not converged
     c_bands:  4 eigenvalues not converged
     c_bands:  2 eigenvalues not converged
     c_bands:  4 eigenvalues not converged
     ethr =  1.00E-05,  avg # of iterations = 21.0

[...]

     total energy              =   -3277.93959746 Ry
     estimated scf accuracy    <     239.54933711 Ry

     iteration #  2     ecut=    29.40 Ry     beta= 0.05
     Davidson diagonalization with overlap
     ethr =  1.00E-02,  avg # of iterations = 16.5

[...]

     iteration # 41     ecut=    29.40 Ry     beta= 0.05
     Davidson diagonalization with overlap
     c_bands:  1 eigenvalues not converged
     ethr =  1.78E-08,  avg # of iterations = 16.9

[...]

     total energy              =   -3295.80750849 Ry
     estimated scf accuracy    <       0.00000012 Ry

     iteration # 55     ecut=    29.40 Ry     beta= 0.05
     Davidson diagonalization with overlap
     ethr =  2.69E-11,  avg # of iterations = 11.2

     negative rho (up, down):  3.607E-02 0.000E+00

     Adding external electric field

     Computed dipole along edir(3) :
        Dipole                1.5116 Ry au,          3.8420 Debye
        Dipole field          0.0019 Ry au,

        Potential amp.       -0.1763 Ry
        Total length         46.3494 bohr

     End of self-consistent calculation

          k = 0.0000 0.0000 0.0000 ( 26871 PWs)   bands (ev):

   -57.7244 -57.6987 -57.6883 -57.6620 -57.6531 -57.6194 -57.6061 -57.5982
   -57.5703 -57.5571 -57.5080 -57.4773 -57.4610 -57.4547 -57.4466 -56.7465
   -56.7224 -56.7179 -34.1059 -34.1030 -34.0940 -34.0851 -34.0729 -34.0563
   -34.0556 -34.0416 -34.0285 -34.0172 -33.9873 -33.9691 -33.9495 -33.9434
   -33.9356 -33.9173 -33.9118 -33.9104 -33.8921 -33.8869 -33.8648 -33.8625
   -33.8424 -33.8326 -33.8286 -33.8225 -33.8116 -33.8097 -33.8041 -33.7947
   -33.7833 -33.7814 -33.7671 -33.7318 -33.7223 -33.7183 -33.7035 -33.7028
   -33.6952 -33.6942 -33.6829 -33.6744 -33.6676 -33.6617 -33.6393 -33.0617
   -33.0607 -33.0562 -33.0446 -33.0404 -32.9726 -32.9105 -32.9052 -32.7723
   -19.3019 -18.7602 -18.5252 -18.2265 -18.0159 -17.9735 -17.9405 -17.8191
   -17.7835 -17.7595 -17.6619 -17.6504 -17.5872 -17.5335 -17.5054 -17.4567
   -17.4384 -17.3782 -17.3642 -17.3559 -17.3506 -17.3404 -17.3302 -17.2646
   -17.2374 -17.2095 -17.1704 -17.1548 -17.1482 -17.1408 -17.1182 -16.8457
   -15.5016 -15.2128 -15.1548 -15.1534 -15.0926  -6.9855  -6.8127  -6.6470
    -6.3583  -5.8599  -5.7861  -5.6370  -5.5130  -5.2209  -5.1932  -5.1417
    -5.1150  -5.0862  -5.0215  -5.0015  -4.9885  -4.9333  -4.9157  -4.8432
    -4.8204  -4.7789  -4.7550  -4.7293  -4.6844  -4.6442  -4.6169  -4.6051
    -4.5744  -4.5669  -4.5104  -4.4868  -4.4573  -4.4517  -4.4355  -4.3261
    -4.2942  -4.2379  -4.1688  -4.0916  -4.0389  -4.0307  -3.9743  -3.9548
    -3.9026  -3.8629  -3.8258  -3.8170  -3.7805  -3.7420  -3.6421  -3.6109
    -3.5874  -3.5217  -3.4999  -3.4311  -3.4136  -3.3802  -3.3386  -3.3325
    -3.2956  -3.1978  -3.1637  -3.0834  -3.0268  -2.9732  -2.9343  -2.8895
    -2.8433  -2.8100  -2.7849  -2.7029  -2.6270  -2.5430  -2.4929  -2.4802
    -2.4682  -2.4178  -2.4106  -2.4081  -2.3514  -2.3252  -2.3146  -2.2766
    -2.2255  -2.2026  -2.1404  -2.0955  -2.0603  -1.9927  -1.9771  -1.8963
    -1.8876  -1.8264  -1.7831  -1.7438  -1.6321  -1.5973  -1.5650  -1.5624
    -1.4436  -1.4073  -1.1444  -1.0041  -0.7849  -0.7526  -0.4998  -0.4510
    -0.4483  -0.1853  -0.1819  -0.0536   1.3226   1.5113   1.6451   1.7005
     1.7054   1.7388   1.8050   1.8914   1.9168   1.9638   1.9955

[...]

          k = 0.0380-0.0280 0.0000 ( 26873 PWs)   bands (ev):

[...]

          k =-0.0760-0.0000 0.0000 ( 26902 PWs)   bands (ev):

[...]

          k =-0.0760-0.0559 0.0000 ( 26868 PWs)   bands (ev):

   -57.7208 -57.7063 -57.6841 -57.6609 -57.6530 -57.6201 -57.6074 -57.5979
   -57.5697 -57.5569 -57.5082 -57.4723 -57.4648 -57.4605 -57.4419 -56.7403
   -56.7349 -56.7115 -34.1933 -34.1563 -34.1535 -34.0940 -34.0598 -34.0521
   -34.0414 -34.0388 -34.0013 -33.9674 -33.9334 -33.9198 -33.9144 -33.9131
   -33.9019 -33.8996 -33.8798 -33.8726 -33.8680 -33.8680 -33.8641 -33.8586
   -33.8534 -33.8451 -33.8310 -33.8260 -33.8234 -33.8182 -33.8139 -33.7931
   -33.7924 -33.7701 -33.7634 -33.7558 -33.7501 -33.7318 -33.7253 -33.7202
   -33.7003 -33.7002 -33.6981 -33.6948 -33.6857 -33.6674 -33.6506 -33.1505
   -33.0615 -33.0562 -33.0339 -32.9541 -32.9481 -32.8864 -32.8718 -32.8665
   -19.2883 -18.7345 -18.2715 -18.1347 -17.9631 -17.9210 -17.8473 -17.8344
   -17.8225 -17.7930 -17.7013 -17.6779 -17.6514 -17.5685 -17.5496 -17.4999
   -17.4560 -17.4427 -17.4245 -17.4136 -17.4054 -17.3887 -17.3548 -17.3227
   -17.2899 -17.2381 -17.1763 -17.1573 -17.1090 -17.0942 -17.0635 -16.8794
   -15.4962 -15.2109 -15.2087 -15.0939 -15.0919  -6.9902  -6.8448  -6.6393
    -6.3393  -5.5166  -5.4536  -5.3703  -5.3557  -5.2378  -5.2054  -5.0139
    -5.0038  -4.9890  -4.9570  -4.9250  -4.8888  -4.8621  -4.8380  -4.8245
    -4.8105  -4.7892  -4.7634  -4.7513  -4.7350  -4.6908  -4.6442  -4.6379
    -4.6268  -4.6044  -4.5502  -4.5051  -4.4773  -4.4247  -4.4214  -4.3410
    -4.3176  -4.2996  -4.2253  -4.2172  -4.0969  -3.9478  -3.8867  -3.8668
    -3.8425  -3.7951  -3.7849  -3.7314  -3.7096  -3.6922  -3.5561  -3.4736
    -3.4502  -3.4155  -3.3842  -3.3611  -3.3255  -3.2982  -3.2760  -3.2506
    -3.2345  -3.1816  -3.1653  -3.1222  -3.0797  -2.9981  -2.9539  -2.8964
    -2.8735  -2.8548  -2.8367  -2.8329  -2.8130  -2.7795  -2.7504  -2.6945
    -2.6855  -2.6553  -2.5836  -2.5297  -2.5012  -2.4764  -2.4343  -2.4273
    -2.2723  -2.2530  -2.2197  -2.2079  -2.1344  -2.0908  -1.9992  -1.9728
    -1.9500  -1.8787  -1.8068  -1.7634  -1.7073  -1.5106  -1.5019  -1.3829
    -1.3461  -1.2973  -1.2717  -1.2291  -1.0689  -0.7317  -0.6624  -0.3791
    -0.3679  -0.3419  -0.1865  -0.1802   1.4297   1.4534   1.5384   1.5948
     1.6136   1.6513   1.6641   1.7032   1.7237   1.7804   1.9159

     the Fermi energy is     1.3735 ev

!    total energy              =   -3295.80757338 Ry
     estimated scf accuracy    <       0.00000004 Ry
     smearing contrib. (-TS)   =      -0.03571836 Ry
     internal energy E=F+TS    =   -3295.77185501 Ry

     The total energy is F=E-TS. E is the sum of the following terms:
     one-electron contribution =  -34705.82559828 Ry
     hartree contribution      =   17418.83720251 Ry
     xc contribution           =    -543.86738458 Ry
     ewald contribution        =   14535.08105084 Ry
     electric field correction =       0.00287449 Ry

     convergence has been achieved in  55 iterations

     Forces acting on atoms (cartesian axes, Ry/au):

     atom    1 type  1   force =    -0.00168697    0.00376949    0.05471071
     atom    2 type  1   force =     0.00024275   -0.00250130   -0.00841719
     atom    3 type  1   force =     0.00046155   -0.00350630    0.00034279
     atom    4 type  1   force =     0.00004490   -0.00003221    0.10677274
     atom    5 type  1   force =    -0.00020331    0.00066248    0.00658927
     atom    6 type  1   force =     0.00003709   -0.00443276    0.00375773
     atom    7 type  1   force =     0.06648795    0.00079061   -0.02967041
     atom    8 type  1   force =     0.00659605   -0.02712341    0.00194965
     atom    9 type  1   force =     0.00662939   -0.02256230    0.00513826
     atom   10 type  2   force =    -0.00011490   -0.00451851   -0.18345104
     atom   11 type  2   force =     0.00067289    0.02087566   -0.00415309
     atom   12 type  2   force =    -0.00177268    0.02769908   -0.00659800
     atom   13 type  1   force =    -0.06654613    0.00044511   -0.02981482
     atom   14 type  1   force =    -0.00433953   -0.02769915    0.00252907
     atom   15 type  1   force =    -0.00658007   -0.02336013    0.00503429
     atom   16 type  2   force =     0.00008539    0.00068659    0.06700472
     atom   17 type  2   force =    -0.00237797    0.03352769    0.00349132
     atom   18 type  2   force =     0.00123697    0.02455961   -0.00362108
     atom   19 type  1   force =    -0.00169746    0.00674757    0.05327169
     atom   20 type  1   force =     0.00024256   -0.00116310   -0.00661925
     atom   21 type  1   force =     0.00003449    0.00109648    0.10723346
     atom   22 type  1   force =    -0.00025203   -0.00198384    0.00722801
     atom   23 type  1   force =     0.00071419   -0.00584754    0.00416938
     atom   24 type  1   force =     0.06751895    0.00137721   -0.02907344
     atom   25 type  1   force =     0.00528140   -0.03015730    0.00244609
     atom   26 type  1   force =     0.00671762   -0.02615819   -0.00419894
     atom   27 type  2   force =     0.00011265   -0.00120685   -0.18673437
     atom   28 type  2   force =     0.00007646    0.02385332   -0.00248861
     atom   29 type  2   force =    -0.00104036    0.02214977    0.00088265
     atom   30 type  1   force =    -0.06762350    0.00087209   -0.02892535
     atom   31 type  1   force =    -0.00537455   -0.02961939    0.00278460
     atom   32 type  1   force =    -0.00433253   -0.02245916    0.00266090
     atom   33 type  2   force =    -0.00004882    0.00131791    0.07477272
     atom   34 type  2   force =     0.00092675    0.03692176    0.00405653
     atom   35 type  2   force =    -0.00211415    0.03480066    0.00522995
     atom   36 type  1   force =    -0.00186604    0.00288289    0.05589468
     atom   37 type  1   force =     0.00131705    0.00401045   -0.01136061
     atom   38 type  1   force =     0.00026220   -0.00408272    0.00416480
     atom   39 type  1   force =     0.00002214   -0.00063604    0.10725778
     atom   40 type  1   force =     0.00015608   -0.00141133    0.00716261
     atom   41 type  1   force =    -0.00025796   -0.00396395    0.00183155
     atom   42 type  1   force =     0.06785411   -0.00221696   -0.02971141
     atom   43 type  1   force =     0.00369268   -0.02635759    0.00151945
     atom   44 type  1   force =     0.01008545   -0.01799988    0.00270907
     atom   45 type  2   force =     0.00003123    0.00217828   -0.18330745
     atom   46 type  2   force =    -0.00023334    0.01478292    0.00204208
     atom   47 type  2   force =     0.00292025    0.02642808   -0.00873004
     atom   48 type  1   force =    -0.06791781   -0.00284487   -0.02986752
     atom   49 type  1   force =    -0.00375715   -0.02550187    0.00182319
     atom   50 type  1   force =    -0.00794268   -0.02359985    0.00520640
     atom   51 type  2   force =     0.00045195   -0.00350468    0.06842539
     atom   52 type  2   force =    -0.00011187    0.03118440    0.00594119
     atom   53 type  2   force =    -0.00207728    0.02594092   -0.00056109
     atom   54 type  3   force =     0.00229816    0.00117826   -0.00406524
     atom   55 type  4   force =    -0.00233035   -0.00259488    0.00247726
     atom   56 type  4   force =     0.00023855    0.00058272    0.00141228
     atom   57 type  3   force =     0.00130472   -0.00272437   -0.00026364
     atom   58 type  4   force =     0.00050207    0.00100939   -0.00007465
     atom   59 type  4   force =     0.00007201    0.00029283    0.00070704
     atom   60 type  4   force =    -0.00149353    0.00026677   -0.00002942
     atom   61 type  4   force =    -0.00123564   -0.00112059    0.00110535

     Total force =     0.459582     Total SCF correction =     0.000681
  @ DRIVER MODE: Message from server: STATUS
  @ DRIVER MODE: Message from server: GETFORCE
  @ DRIVER MODE: Returning v,forces,stress,ensemble

     Writing output data file ./calc.save/
  @ DRIVER MODE: Message from server: EXIT
  @ DRIVE MODE: Exiting

     General routines

     Parallel routines

   This run was terminated on:  15:39:27  18Oct2021

   JOB DONE.