     Program PWSCF v.6.7GPU starts on  9Sep2021 at  1:16:10

     R & G space division:  proc/nbgrp/npool/nimage =      10
     Reading input from /storage/home/hcoda1/3/ntian30/research/carbon/CxH_vib/CH_calc/ads_slab/CHN2_c/out_0011/pw.inp
Warning: card &CELL ignored
Warning: card   CELL_DYNAMICS='IPI', ignored
Warning: card / ignored

     Current dimensions of program PWSCF are:
     Max number of different atomic species (ntypx) = 10
     Max number of k-points (npk) =  40000
     Max angular momentum in pseudopotentials (lmaxx) =  3
     Presently no symmetry can be used with electric field

     Message from routine cell_base_init:
     DEPRECATED: use true lattice parameter, not A to a.u. conversion factor

     IMPORTANT: XC functional enforced from input :
     Exchange-correlation= BEEF-VDW
                           (   1   4  43  14   2   0   0)
     Any further DFT definition will be discarded
     Please, verify this is what you really want

  @ DRIVER MODE: Connecting to
 qe_1139763_2767377.sched-torque.pace.gatech.edu5jmsgv8i_scratch
  using UNIX socket
  @ DRIVER MODE: Message from server: STATUS
  @ DRIVER MODE: Message from server: INIT
  @ DRIVER MODE: Receiving replica           0          -1
  @ DRIVER MODE: Receiving encoded integer          25
  @ DRIVER MODE:  SCF:  T  FORCE:  T  STRESS:  F  VC:  F  ENSEMBLE:  F
  @ DRIVER MODE:  SCF:  T  FORCE:  T  STRESS:  F  VC:  F  ENSEMBLE:  F

     Using Slab Decomposition

     bravais-lattice index     =            0
     lattice parameter (alat)  =       1.8897  a.u.
     unit-cell volume          =    6658.9804 (a.u.)^3
     number of atoms/cell      =           51
     number of atomic types    =            5
     number of electrons       =       393.00
     number of Kohn-Sham states=          206
     kinetic-energy cutoff     =      29.3995  Ry
     charge density cutoff     =     293.9946  Ry
     scf convergence threshold =      7.3E-08
     mixing beta               =       0.0500
     number of iterations used =            8  plain     mixing
     Exchange-correlation= BEEF-VDW
                           (   1   4  43  14   2   0   0)

     celldm(1)=   1.889726  celldm(2)=   0.000000  celldm(3)=   0.000000
     celldm(4)=   0.000000  celldm(5)=   0.000000  celldm(6)=   0.000000

     crystal axes: (cart. coord. in units of alat)
               a(1) = (   6.579727   0.000000   0.000000 )
               a(2) = (  -0.000775   5.961596   0.000000 )
               a(3) = (   0.000000   0.000000  25.155947 )

     reciprocal axes: (cart. coord. in units 2 pi/alat)
               b(1) = (  0.151982  0.000020  0.000000 )
               b(2) = (  0.000000  0.167740  0.000000 )
               b(3) = (  0.000000  0.000000  0.039752 )

     PseudoPot. # 1 for Ti read from file:
     /storage/coda1/p-amedford6/0/shared/rich_project_chbe-medford/medford-share/data/pseudos_module/espresso/nninc/pbe/van/Ti.UPF
     MD5 check sum: 8e4df49b7f0d34bbd5052bf3f5ea0213
     Pseudo is Ultrasoft, Zval = 12.0
     Generated by new atomic code, or converted to UPF format
     Using radial grid of  851 points,  6 beta functions with:
                l(1) =   0
                l(2) =   0
                l(3) =   1
                l(4) =   1
                l(5) =   2
                l(6) =   2
     Q(r) pseudized with  8 coefficients,  rinner =    1.000   1.000   1.000
                                                       1.000   1.000

     PseudoPot. # 2 for O  read from file:
     /storage/coda1/p-amedford6/0/shared/rich_project_chbe-medford/medford-share/data/pseudos_module/espresso/nninc/pbe/van/O.UPF
     MD5 check sum: 78c19812648e8988a0fe644b0f25305e
     Pseudo is Ultrasoft, Zval =  6.0
     Generated by new atomic code, or converted to UPF format
     Using radial grid of  737 points,  4 beta functions with:
                l(1) =   0
                l(2) =   0
                l(3) =   1
                l(4) =   1
     Q(r) pseudized with  8 coefficients,  rinner =    0.800   0.800   0.800

     PseudoPot. # 3 for C  read from file:
     /storage/coda1/p-amedford6/0/shared/rich_project_chbe-medford/medford-share/data/pseudos_module/espresso/nninc/pbe/van/C.UPF
     MD5 check sum: 1a69bf6b8db32088f5b2163dbdb77a27
     Pseudo is Ultrasoft, Zval =  4.0
     Generated by new atomic code, or converted to UPF format
     Using radial grid of  721 points,  4 beta functions with:
                l(1) =   0
                l(2) =   0
                l(3) =   1
                l(4) =   1
     Q(r) pseudized with  8 coefficients,  rinner =    0.800   0.800   0.800

     PseudoPot. # 4 for H  read from file:
     /storage/coda1/p-amedford6/0/shared/rich_project_chbe-medford/medford-share/data/pseudos_module/espresso/nninc/pbe/van/H.UPF
     MD5 check sum: b5ee9d7bfd3a09ee7748110bda690ff7
     Pseudo is Ultrasoft, Zval =  1.0
     Generated by new atomic code, or converted to UPF format
     Using radial grid of  615 points,  1 beta functions with:
                l(1) =   0
     Q(r) pseudized with  8 coefficients,  rinner =    0.800

     PseudoPot. # 5 for N  read from file:
     /storage/coda1/p-amedford6/0/shared/rich_project_chbe-medford/medford-share/data/pseudos_module/espresso/nninc/pbe/van/N.UPF
     MD5 check sum: 90d10febe142ad51ac9d5be1deb811c4
     Pseudo is Ultrasoft, Zval =  5.0
     Generated by new atomic code, or converted to UPF format
     Using radial grid of  729 points,  4 beta functions with:
                l(1) =   0
                l(2) =   0
                l(3) =   1
                l(4) =   1
     Q(r) pseudized with  8 coefficients,  rinner =    0.800   0.800   0.800

     atomic species   valence    mass     pseudopotential
        Ti1           12.00    47.86700     Ti( 1.00)
        O1             6.00    15.99900     O ( 1.00)
        C1             4.00    12.01100     C ( 1.00)
        H1             1.00     1.00800     H ( 1.00)
        N1             5.00    14.00700     N ( 1.00)

     No symmetry found

   Cartesian axes

     site n.     atom                  positions (alat units)
         1           Ti1 tau(   1) = (   0.0004258   2.9801865   6.0000000  )
         2           Ti1 tau(   2) = (   3.2906075   1.4906267   6.0002472  )
         3           O1  tau(   3) = (   0.0006271   0.0005054   7.9858123  )
         4           O1  tau(   4) = (   3.2906025   0.0005020   7.3038282  )
         5           O1  tau(   5) = (   4.5942328   1.4918067   9.2879030  )
         6           O1  tau(   6) = (   1.9868534   1.4903216   9.2879459  )
         7           Ti1 tau(   7) = (   3.2907910   2.8959150   9.1758416  )
         8           Ti1 tau(   8) = (   0.0015273   1.4827037   9.2680791  )
         9           O1  tau(   9) = (   3.2947523   5.9577806  11.3289702  )
        10           O1  tau(  10) = (   0.0116148   5.9584955  10.6183126  )
        11           O1  tau(  11) = (   1.2923655   1.4808044  12.6140338  )
        12           O1  tau(  12) = (   5.2760440   1.4916827  12.6110895  )
        13           Ti1 tau(  13) = (   0.0641422   2.9468446  12.6204329  )
        14           Ti1 tau(  14) = (   3.3828727   1.4858934  12.4752560  )
        15           O1  tau(  15) = (   0.0059231   0.0169234  14.6319368  )
        16           O1  tau(  16) = (   3.2943198   0.0056150  13.9184638  )
        17           O1  tau(  17) = (   4.5468153   1.5236546  16.0329375  )
        18           O1  tau(  18) = (   2.0515374   1.5217879  16.0554076  )
        19           Ti1 tau(  19) = (   3.2830080   3.0033146  15.6914404  )
        20           Ti1 tau(  20) = (   0.0154850   1.5188701  15.8391361  )
        21           O1  tau(  21) = (   3.2904802   0.0005063   4.7018136  )
        22           O1  tau(  22) = (   6.5736218   0.0255948  17.1842280  )
        23           O1  tau(  23) = (   1.3043587   1.4918075   6.0039043  )
        24           O1  tau(  24) = (   5.2767064   1.4903225   6.0039473  )
        25           Ti1 tau(  25) = (   0.0000382   5.9609847   6.0000000  )
        26           Ti1 tau(  26) = (   3.2902200   4.4714249   6.0002472  )
        27           O1  tau(  27) = (   0.0002396   2.9813036   7.9858123  )
        28           O1  tau(  28) = (   3.2902150   2.9813002   7.3038282  )
        29           O1  tau(  29) = (   4.5938453   4.4726049   9.2879030  )
        30           O1  tau(  30) = (   1.9864658   4.4711199   9.2879459  )
        31           Ti1 tau(  31) = (   3.2891106   5.8743827   9.1763621  )
        32           Ti1 tau(  32) = (   0.0006254   4.4649316   9.2693709  )
        33           O1  tau(  33) = (   3.2953046   2.9833475  11.3259646  )
        34           O1  tau(  34) = (   0.0092240   2.9805883  10.6323155  )
        35           O1  tau(  35) = (   1.2912205   4.4696366  12.6263023  )
        36           O1  tau(  36) = (   5.2799819   4.4751186  12.6219323  )
        37           Ti1 tau(  37) = (   0.0684868   5.9252938  12.5505524  )
        38           Ti1 tau(  38) = (   3.3848087   4.4651122  12.4793038  )
        39           O1  tau(  39) = (   0.0176302   2.9443755  14.6544446  )
        40           O1  tau(  40) = (   3.2854840   2.9900965  13.8959901  )
        41           O1  tau(  41) = (   4.5427396   4.4796010  16.0582459  )
        42           O1  tau(  42) = (   2.0519076   4.4830995  16.0738147  )
        43           Ti1 tau(  43) = (   3.3192208   0.0178015  15.7165103  )
        44           Ti1 tau(  44) = (   0.0190484   4.6579992  16.0750729  )
        45           O1  tau(  45) = (   3.2900926   2.9813045   4.7018136  )
        46           O1  tau(  46) = (   1.3039711   4.4726057   6.0039043  )
        47           O1  tau(  47) = (   5.2763189   4.4711207   6.0039473  )
        48           C1  tau(  48) = (   0.0285071   2.9528277  17.6086602  )
        49           H1  tau(  49) = (   0.9556717   2.9086103  18.1659260  )
        50           N1  tau(  50) = (   5.5646879   2.9115633  18.3869838  )
        51           N1  tau(  51) = (   4.5815072   2.8727048  18.9619008  )

     number of k points=    10  Fermi-Dirac smearing, width (Ry)=  0.0073
                       cart. coord. in units 2pi/alat
        k(    1) = (   0.0000000   0.0000000   0.0000000), wk =   0.1250000
        k(    2) = (   0.0000000   0.0419351   0.0000000), wk =   0.2500000
        k(    3) = (   0.0000000  -0.0838702   0.0000000), wk =   0.1250000
        k(    4) = (   0.0379955   0.0000049   0.0000000), wk =   0.2500000
        k(    5) = (   0.0379955   0.0419400   0.0000000), wk =   0.2500000
        k(    6) = (   0.0379955  -0.0838652   0.0000000), wk =   0.2500000
        k(    7) = (   0.0379955  -0.0419301   0.0000000), wk =   0.2500000
        k(    8) = (  -0.0759910  -0.0000099   0.0000000), wk =   0.1250000
        k(    9) = (  -0.0759910   0.0419252   0.0000000), wk =   0.2500000
        k(   10) = (  -0.0759910  -0.0838800   0.0000000), wk =   0.1250000

     Initial potential from superposition of free atoms

     starting charge  376.99918, renormalised to  393.00000

     negative rho (up, down):  1.909E-02 0.000E+00

     %%%%%%%%%%%%%%%%%%%%%%%%%%%%%%%%%%%%%%%%%%%%%%%%%%%%%%%%%%%%%%%%%%%%%%%%
     %                                                                      %
     % You are using vdW-DF, which was implemented by the Thonhauser group. %
     % Please cite the following two papers that made this development      %
     % possible and the two reviews that describe the various versions:     %
     %                                                                      %
     %   T. Thonhauser et al., PRL 115, 136402 (2015).                      %
     %   T. Thonhauser et al., PRB 76, 125112 (2007).                       %
     %   K. Berland et al., Rep. Prog. Phys. 78, 066501 (2015).             %
     %   D.C. Langreth et al., J. Phys.: Condens. Matter 21, 084203 (2009). %
     %                                                                      %
     %                                                                      %
     % If you are calculating the stress with vdW-DF, please also cite:     %
     %                                                                      %
     %   R. Sabatini et al., J. Phys.: Condens. Matter 24, 424209 (2012).   %
     %                                                                      %
     %%%%%%%%%%%%%%%%%%%%%%%%%%%%%%%%%%%%%%%%%%%%%%%%%%%%%%%%%%%%%%%%%%%%%%%%

     Adding external electric field

     Computed dipole along edir(3) :
        Dipole               -7.1721 Ry au,        -18.2296 Debye
        Dipole field         -0.0135 Ry au,

        Potential amp.        1.2546 Ry
        Total length         46.3494 bohr

     Starting wfcs are  297 atomic wfcs
  @ DRIVER MODE: Message from server: STATUS
  @ DRIVER MODE: Message from server: POSDATA
  @ DRIVER MODE: Reading and sharing cell
  @ DRIVER MODE: Reading and sharing positions
  @ DRIVER MODE: Received positions

     Self-consistent Calculation

     iteration #  1     ecut=    29.40 Ry     beta= 0.05
     Davidson diagonalization with overlap
     c_bands:  1 eigenvalues not converged
     c_bands:  1 eigenvalues not converged
     c_bands:  1 eigenvalues not converged
     c_bands:  1 eigenvalues not converged
     c_bands:  2 eigenvalues not converged
     c_bands:  1 eigenvalues not converged
     c_bands:  2 eigenvalues not converged
     ethr =  1.00E-05,  avg # of iterations = 19.2

[...]

     total energy              =   -2708.70614432 Ry
     estimated scf accuracy    <    2525.85864353 Ry

[...]

     iteration #  4     ecut=    29.40 Ry     beta= 0.05
     Davidson diagonalization with overlap
     ethr =  1.00E-02,  avg # of iterations =  5.0

[...]

     iteration # 48     ecut=    29.40 Ry     beta= 0.05
     Davidson diagonalization with overlap
     c_bands:  2 eigenvalues not converged
     ethr =  1.07E-09,  avg # of iterations = 16.5

[...]

     total energy              =   -2936.64837021 Ry
     estimated scf accuracy    <       0.00000010 Ry

     iteration # 57     ecut=    29.40 Ry     beta= 0.05
     Davidson diagonalization with overlap
     ethr =  2.50E-11,  avg # of iterations =  8.9

     negative rho (up, down):  1.867E-02 0.000E+00

     Adding external electric field

     Computed dipole along edir(3) :
        Dipole                0.3002 Ry au,          0.7630 Debye
        Dipole field          0.0006 Ry au,

        Potential amp.       -0.0525 Ry
        Total length         46.3494 bohr

     End of self-consistent calculation

          k = 0.0000 0.0000 0.0000 ( 18029 PWs)   bands (ev):

   -56.1904 -56.1821 -56.1563 -56.1455 -56.0933 -56.0344 -56.0236 -55.9991
   -55.9974 -55.9650 -55.9618 -55.9281 -55.7109 -55.4392 -55.1666 -55.1325
   -32.7374 -32.6727 -32.5358 -32.5349 -32.5017 -32.4979 -32.4832 -32.4528
   -32.4329 -32.4218 -32.4051 -32.3850 -32.3628 -32.3426 -32.3354 -32.3217
   -32.3190 -32.2946 -32.2797 -32.2476 -32.2451 -32.2426 -32.2068 -32.1926
   -32.1918 -32.1891 -32.1872 -32.1773 -32.1642 -32.1487 -32.1446 -32.1380
   -32.1330 -32.1299 -32.1151 -32.1054 -32.0743 -31.9697 -31.8970 -31.7092
   -31.7004 -31.6531 -31.5736 -31.4855 -31.4630 -31.3904 -31.3039 -31.1928
   -20.6525 -16.9421 -16.6671 -16.4476 -16.3450 -16.3194 -16.2059 -16.0319
   -15.9125 -15.8689 -15.7659 -15.7496 -15.7261 -15.6939 -15.6858 -15.6788
   -15.6444 -15.6327 -15.6163 -15.6032 -15.5487 -15.5275 -15.5092 -15.4142
   -15.3695 -15.3271 -15.3176 -15.2511 -15.2450 -14.7402 -13.6692 -13.6372
   -13.5528  -5.9009  -4.8101  -4.5811  -4.3137  -4.1504  -4.0962  -4.0494
    -3.9980  -3.8093  -3.7475  -3.4322  -3.4052  -3.3777  -3.3620  -3.3490
    -3.3140  -3.1046  -3.0579  -3.0226  -3.0001  -2.9758  -2.9687  -2.9613
    -2.9529  -2.9100  -2.8565  -2.7774  -2.7377  -2.6453  -2.6049  -2.5825
    -2.5020  -2.4876  -2.4643  -2.4331  -2.4279  -2.4234  -2.3900  -2.3744
    -2.2424  -2.1840  -2.0548  -1.9950  -1.9673  -1.7960  -1.7631  -1.6596
    -1.6495  -1.6174  -1.5942  -1.5810  -1.4929  -1.3715  -1.3491  -1.3302
    -1.2869  -1.2108  -1.1725  -1.0795  -1.0458  -0.9734  -0.9544  -0.9524
    -0.9412  -0.8949  -0.7435  -0.6773  -0.6442  -0.5973  -0.5772  -0.5285
    -0.4889  -0.4658  -0.3530  -0.3208  -0.3169  -0.2610  -0.2526  -0.2156
    -0.2106  -0.1966  -0.1813  -0.1600   0.0009   0.0864   0.1496   0.1642
     0.3003   0.3508   0.4123   0.4686   0.5679   0.7822   0.8554   0.9437
     1.0477   1.4264   1.4719   1.6351   2.9450   3.0304   3.0777   3.0942
     3.1881   3.1954   3.3991   3.4206   3.4280   3.6017

[...]

          k = 0.0380-0.0419 0.0000 ( 17876 PWs)   bands (ev):

[...]

          k =-0.0760-0.0000 0.0000 ( 17886 PWs)   bands (ev):

[...]

          k =-0.0760-0.0839 0.0000 ( 17948 PWs)   bands (ev):

   -56.1737 -56.1728 -56.1670 -56.1604 -56.0886 -56.0280 -56.0227 -56.0092
   -55.9829 -55.9806 -55.9457 -55.9444 -55.7099 -55.4401 -55.1496 -55.1494
   -32.5423 -32.5388 -32.4882 -32.4877 -32.4690 -32.4682 -32.4670 -32.4438
   -32.3904 -32.3869 -32.3843 -32.3821 -32.3513 -32.3175 -32.3145 -32.3094
   -32.3011 -32.2946 -32.2933 -32.2923 -32.2884 -32.2852 -32.2829 -32.2420
   -32.2295 -32.2277 -32.2134 -32.2016 -32.1818 -32.1811 -32.1773 -32.1764
   -32.1606 -32.1599 -32.1553 -32.1530 -32.0662 -31.9722 -31.8922 -31.7696
   -31.7057 -31.6740 -31.4758 -31.4757 -31.3865 -31.3863 -31.3472 -31.3472
   -20.6521 -16.3808 -16.3524 -16.1411 -16.1122 -16.1055 -16.0962 -15.9870
   -15.9009 -15.8859 -15.8839 -15.8193 -15.7957 -15.7793 -15.7351 -15.7215
   -15.7169 -15.7101 -15.7032 -15.6514 -15.6464 -15.6270 -15.6198 -15.5443
   -15.5055 -15.5020 -15.4868 -15.3637 -15.2296 -14.9160 -13.6547 -13.6545
   -13.6449  -5.8994  -4.7493  -4.5711  -3.6741  -3.6393  -3.4622  -3.3841
    -3.3585  -3.3456  -3.2805  -3.1155  -3.0948  -3.0730  -3.0617  -3.0231
    -3.0212  -3.0068  -2.9971  -2.9794  -2.9413  -2.9105  -2.8871  -2.8590
    -2.8565  -2.8466  -2.8183  -2.8041  -2.7784  -2.7630  -2.7428  -2.7284
    -2.7087  -2.6961  -2.5794  -2.4244  -2.3928  -2.3274  -2.3186  -2.2938
    -2.2608  -2.2538  -2.2390  -2.1898  -2.0610  -1.9300  -1.8925  -1.8747
    -1.8212  -1.7975  -1.7660  -1.6517  -1.6144  -1.5755  -1.5422  -1.4801
    -1.4486  -1.4103  -1.3613  -1.3352  -1.2682  -1.2463  -1.1869  -1.1517
    -1.1470  -1.1158  -1.0336  -0.9589  -0.9577  -0.9371  -0.9120  -0.8829
    -0.8291  -0.8036  -0.6990  -0.6736  -0.5740  -0.5017  -0.4680  -0.2235
    -0.1546  -0.1281  -0.1121  -0.0582   0.0163   0.0952   0.1201   0.1307
     0.1861   0.2615   0.2622   0.3513   0.3602   0.3939   0.5186   1.2193
     1.2201   1.2916   1.2919   1.6050   3.2292   3.2342   3.2821   3.3045
     3.4468   3.4547   3.4780   3.4789   3.5908   3.6155

     the Fermi energy is     2.9434 ev

!    total energy              =   -2936.64842884 Ry
     estimated scf accuracy    <       0.00000005 Ry
     smearing contrib. (-TS)   =      -0.02175747 Ry
     internal energy E=F+TS    =   -2936.62667137 Ry

     The total energy is F=E-TS. E is the sum of the following terms:
     one-electron contribution =  -24545.75239474 Ry
     hartree contribution      =   12355.91703153 Ry
     xc contribution           =    -483.53441270 Ry
     ewald contribution        =    9736.74293448 Ry
     electric field correction =       0.00017005 Ry

     convergence has been achieved in  57 iterations

     Forces acting on atoms (cartesian axes, Ry/au):

     atom    1 type  1   force =     0.00022271   -0.00015905    0.09656300
     atom    2 type  1   force =    -0.00008260   -0.00055438   -0.17534628
     atom    3 type  2   force =    -0.00002198   -0.00007278   -0.02487805
     atom    4 type  2   force =     0.00006973   -0.00141067    0.05270275
     atom    5 type  2   force =    -0.01182438   -0.00063949    0.00343202
     atom    6 type  2   force =     0.01355177    0.00002714    0.00245552
     atom    7 type  1   force =    -0.00105236    0.00056145   -0.01190838
     atom    8 type  1   force =     0.00048705    0.00952659    0.02771612
     atom    9 type  2   force =     0.00003637    0.00091806   -0.00043330
     atom   10 type  2   force =    -0.00161592    0.00102125   -0.01733529
     atom   11 type  2   force =     0.00043533    0.00014186    0.00024800
     atom   12 type  2   force =    -0.00049586   -0.00017266    0.00011545
     atom   13 type  1   force =     0.00091185    0.00137119   -0.00032441
     atom   14 type  1   force =    -0.00068493   -0.00000119   -0.00005812
     atom   15 type  2   force =     0.00005052   -0.00024777    0.00010908
     atom   16 type  2   force =     0.00027318    0.00026266    0.00104087
     atom   17 type  2   force =     0.00005245   -0.00035661    0.00026313
     atom   18 type  2   force =    -0.00018480   -0.00014906    0.00053012
     atom   19 type  1   force =    -0.00003123   -0.00087692    0.00073490
     atom   20 type  1   force =    -0.00007989   -0.00008184    0.00090154
     atom   21 type  2   force =     0.00008228   -0.00005104    0.10315839
     atom   22 type  2   force =     0.00010530   -0.00030942   -0.00063134
     atom   23 type  2   force =    -0.07153255   -0.00011928   -0.02772897
     atom   24 type  2   force =     0.07148680    0.00028862   -0.02774342
     atom   25 type  1   force =     0.00000314   -0.00019164    0.09611106
     atom   26 type  1   force =    -0.00018887   -0.00028548   -0.17547124
     atom   27 type  2   force =     0.00005924   -0.00023592   -0.02384285
     atom   28 type  2   force =     0.00011157   -0.00115966    0.05258385
     atom   29 type  2   force =    -0.01195164    0.00045077    0.00310178
     atom   30 type  2   force =     0.01359366    0.00085508    0.00215371
     atom   31 type  1   force =    -0.00088837    0.00310315   -0.01277855
     atom   32 type  1   force =     0.00046348   -0.01168360    0.02818565
     atom   33 type  2   force =     0.00030316   -0.00090700   -0.00020645
     atom   34 type  2   force =    -0.00077271    0.00070599   -0.02379179
     atom   35 type  2   force =    -0.00067542   -0.00003727    0.00006139
     atom   36 type  2   force =     0.00035237   -0.00021662    0.00000598
     atom   37 type  1   force =     0.00091382   -0.00125240   -0.00038874
     atom   38 type  1   force =    -0.00090619    0.00019721    0.00030635
     atom   39 type  2   force =    -0.00008876    0.00048353    0.00006234
     atom   40 type  2   force =     0.00011774   -0.00031186    0.00027899
     atom   41 type  2   force =     0.00001503    0.00051076    0.00027845
     atom   42 type  2   force =    -0.00006688    0.00040102    0.00037160
     atom   43 type  1   force =    -0.00021882    0.00107627   -0.00000810
     atom   44 type  1   force =    -0.00020696   -0.00037101    0.00050980
     atom   45 type  2   force =     0.00007283   -0.00007982    0.10314310
     atom   46 type  2   force =    -0.07154594   -0.00010315   -0.02774635
     atom   47 type  2   force =     0.07152319    0.00033096   -0.02776899
     atom   48 type  3   force =    -0.00638616    0.00105096   -0.00404959
     atom   49 type  4   force =     0.00522321   -0.00067282    0.00535430
     atom   50 type  5   force =     0.00144193   -0.00086225    0.00088787
     atom   51 type  5   force =    -0.00045650    0.00028815   -0.00092690

     Total force =     0.368040     Total SCF correction =     0.000654
  @ DRIVER MODE: Message from server: STATUS
  @ DRIVER MODE: Message from server: GETFORCE
  @ DRIVER MODE: Returning v,forces,stress,ensemble

     Writing output data file ./calc.save/
  @ DRIVER MODE: Message from server: EXIT
  @ DRIVE MODE: Exiting

     General routines

     Parallel routines

   This run was terminated on:   1:31:59   9Sep2021

   JOB DONE.