     Program PWSCF v.6.7GPU starts on 22Sep2021 at 23:28: 1

     R & G space division:  proc/nbgrp/npool/nimage =       8
     Reading input from /storage/home/hcoda1/3/ntian30/research/carbon/CxH_vib/H2O_calc/ads_slab/CH3HO_a/out_0004/pw.inp
Warning: card &CELL ignored
Warning: card   CELL_DYNAMICS='IPI', ignored
Warning: card / ignored

     Current dimensions of program PWSCF are:
     Max number of different atomic species (ntypx) = 10
     Max number of k-points (npk) =  40000
     Max angular momentum in pseudopotentials (lmaxx) =  3
     Presently no symmetry can be used with electric field

     Message from routine cell_base_init:
     DEPRECATED: use true lattice parameter, not A to a.u. conversion factor

     IMPORTANT: XC functional enforced from input :
     Exchange-correlation= BEEF-VDW
                           (   1   4  43  14   2   0   0)
     Any further DFT definition will be discarded
     Please, verify this is what you really want

  @ DRIVER MODE: Connecting to
 qe_1139763_2941010.sched-torque.pace.gatech.eduh0pvd9p5_scratch
  using UNIX socket
  @ DRIVER MODE: Message from server: STATUS
  @ DRIVER MODE: Message from server: INIT
  @ DRIVER MODE: Receiving replica           0          -1
  @ DRIVER MODE: Receiving encoded integer          25
  @ DRIVER MODE:  SCF:  T  FORCE:  T  STRESS:  F  VC:  F  ENSEMBLE:  F
  @ DRIVER MODE:  SCF:  T  FORCE:  T  STRESS:  F  VC:  F  ENSEMBLE:  F

     Using Slab Decomposition

     bravais-lattice index     =            0
     lattice parameter (alat)  =       1.8897  a.u.
     unit-cell volume          =    6658.9804 (a.u.)^3
     number of atoms/cell      =           53
     number of atomic types    =            4
     number of electrons       =       392.00
     number of Kohn-Sham states=          206
     kinetic-energy cutoff     =      29.3995  Ry
     charge density cutoff     =     293.9946  Ry
     scf convergence threshold =      7.3E-08
     mixing beta               =       0.0500
     number of iterations used =            8  plain     mixing
     Exchange-correlation= BEEF-VDW
                           (   1   4  43  14   2   0   0)

     celldm(1)=   1.889726  celldm(2)=   0.000000  celldm(3)=   0.000000
     celldm(4)=   0.000000  celldm(5)=   0.000000  celldm(6)=   0.000000

     crystal axes: (cart. coord. in units of alat)
               a(1) = (   6.579727   0.000000   0.000000 )
               a(2) = (  -0.000775   5.961596   0.000000 )
               a(3) = (   0.000000   0.000000  25.155947 )

     reciprocal axes: (cart. coord. in units 2 pi/alat)
               b(1) = (  0.151982  0.000020  0.000000 )
               b(2) = (  0.000000  0.167740  0.000000 )
               b(3) = (  0.000000  0.000000  0.039752 )

     PseudoPot. # 1 for Ti read from file:
     /storage/coda1/p-amedford6/0/shared/rich_project_chbe-medford/medford-share/data/pseudos_module/espresso/nninc/pbe/van/Ti.UPF
     MD5 check sum: 8e4df49b7f0d34bbd5052bf3f5ea0213
     Pseudo is Ultrasoft, Zval = 12.0
     Generated by new atomic code, or converted to UPF format
     Using radial grid of  851 points,  6 beta functions with:
                l(1) =   0
                l(2) =   0
                l(3) =   1
                l(4) =   1
                l(5) =   2
                l(6) =   2
     Q(r) pseudized with  8 coefficients,  rinner =    1.000   1.000   1.000
                                                       1.000   1.000

     PseudoPot. # 2 for O  read from file:
     /storage/coda1/p-amedford6/0/shared/rich_project_chbe-medford/medford-share/data/pseudos_module/espresso/nninc/pbe/van/O.UPF
     MD5 check sum: 78c19812648e8988a0fe644b0f25305e
     Pseudo is Ultrasoft, Zval =  6.0
     Generated by new atomic code, or converted to UPF format
     Using radial grid of  737 points,  4 beta functions with:
                l(1) =   0
                l(2) =   0
                l(3) =   1
                l(4) =   1
     Q(r) pseudized with  8 coefficients,  rinner =    0.800   0.800   0.800

     PseudoPot. # 3 for C  read from file:
     /storage/coda1/p-amedford6/0/shared/rich_project_chbe-medford/medford-share/data/pseudos_module/espresso/nninc/pbe/van/C.UPF
     MD5 check sum: 1a69bf6b8db32088f5b2163dbdb77a27
     Pseudo is Ultrasoft, Zval =  4.0
     Generated by new atomic code, or converted to UPF format
     Using radial grid of  721 points,  4 beta functions with:
                l(1) =   0
                l(2) =   0
                l(3) =   1
                l(4) =   1
     Q(r) pseudized with  8 coefficients,  rinner =    0.800   0.800   0.800

     PseudoPot. # 4 for H  read from file:
     /storage/coda1/p-amedford6/0/shared/rich_project_chbe-medford/medford-share/data/pseudos_module/espresso/nninc/pbe/van/H.UPF
     MD5 check sum: b5ee9d7bfd3a09ee7748110bda690ff7
     Pseudo is Ultrasoft, Zval =  1.0
     Generated by new atomic code, or converted to UPF format
     Using radial grid of  615 points,  1 beta functions with:
                l(1) =   0
     Q(r) pseudized with  8 coefficients,  rinner =    0.800

     atomic species   valence    mass     pseudopotential
        Ti1           12.00    47.86700     Ti( 1.00)
        O1             6.00    15.99900     O ( 1.00)
        C1             4.00    12.01100     C ( 1.00)
        H1             1.00     1.00800     H ( 1.00)

     No symmetry found

   Cartesian axes

     site n.     atom                  positions (alat units)
         1           Ti1 tau(   1) = (   0.0004258   2.9801865   6.0000000  )
         2           Ti1 tau(   2) = (   3.2906075   1.4906267   6.0002472  )
         3           O1  tau(   3) = (   0.0006271   0.0005054   7.9858123  )
         4           O1  tau(   4) = (   3.2906025   0.0005020   7.3038282  )
         5           O1  tau(   5) = (   4.5942328   1.4918067   9.2879030  )
         6           O1  tau(   6) = (   1.9868534   1.4903216   9.2879459  )
         7           Ti1 tau(   7) = (   3.2776386   2.8603028   9.2190116  )
         8           Ti1 tau(   8) = (   6.5598479   1.4304724   9.3580194  )
         9           O1  tau(   9) = (   3.2889234   5.9509398  11.3217173  )
        10           O1  tau(  10) = (   6.5764018   5.9495644  10.5876710  )
        11           O1  tau(  11) = (   1.2812264   1.4943635  12.6442538  )
        12           O1  tau(  12) = (   5.3065913   1.4950901  12.6410841  )
        13           Ti1 tau(  13) = (   0.0201148   2.8652118  12.8170930  )
        14           Ti1 tau(  14) = (   3.2957237   1.3106547  12.6889287  )
        15           O1  tau(  15) = (   6.5548780   5.9443598  14.6367865  )
        16           O1  tau(  16) = (   3.2877845   0.0417723  13.9217912  )
        17           O1  tau(  17) = (   4.5532326   1.5761655  16.0783859  )
        18           O1  tau(  18) = (   2.0366504   1.5601698  16.0762102  )
        19           Ti1 tau(  19) = (   3.2678531   3.0297845  15.6708759  )
        20           Ti1 tau(  20) = (   6.4629285   1.5188837  16.1410570  )
        21           O1  tau(  21) = (   3.2904802   0.0005063   4.7018136  )
        22           O1  tau(  22) = (   6.5629482   0.0231895  17.1619738  )
        23           O1  tau(  23) = (   1.3043587   1.4918075   6.0039043  )
        24           O1  tau(  24) = (   5.2767064   1.4903225   6.0039473  )
        25           Ti1 tau(  25) = (   0.0000382   5.9609847   6.0000000  )
        26           Ti1 tau(  26) = (   3.2902200   4.4714249   6.0002472  )
        27           O1  tau(  27) = (   0.0002396   2.9813036   7.9858123  )
        28           O1  tau(  28) = (   3.2902150   2.9813002   7.3038282  )
        29           O1  tau(  29) = (   4.5938453   4.4726049   9.2879030  )
        30           O1  tau(  30) = (   1.9864658   4.4711199   9.2879459  )
        31           Ti1 tau(  31) = (   3.2699525   5.8470351   9.1790592  )
        32           Ti1 tau(  32) = (   6.5580068   4.3764721   9.3475679  )
        33           O1  tau(  33) = (   3.2877686   3.0124297  11.2895287  )
        34           O1  tau(  34) = (   0.0005883   2.9642609  10.5504472  )
        35           O1  tau(  35) = (   1.2748618   4.4645017  12.6259732  )
        36           O1  tau(  36) = (   5.2954498   4.4639995  12.6225180  )
        37           Ti1 tau(  37) = (   6.5558271   5.8472513  12.6028672  )
        38           Ti1 tau(  38) = (   3.2807834   4.4064534  12.4217905  )
        39           O1  tau(  39) = (   6.5786029   2.9813041  14.7145626  )
        40           O1  tau(  40) = (   3.2869290   2.9992676  13.8921391  )
        41           O1  tau(  41) = (   4.5413935   4.4541386  16.0960746  )
        42           O1  tau(  42) = (   2.0104822   4.4576224  16.0708021  )
        43           Ti1 tau(  43) = (   3.1667734   0.0431258  16.3165854  )
        44           Ti1 tau(  44) = (   6.5007865   4.6242813  15.9014112  )
        45           O1  tau(  45) = (   3.2900926   2.9813045   4.7018136  )
        46           O1  tau(  46) = (   1.3039711   4.4726057   6.0039043  )
        47           O1  tau(  47) = (   5.2763189   4.4711207   6.0039473  )
        48           C1  tau(  48) = (   0.0287742   2.9259372  17.8309569  )
        49           H1  tau(  49) = (   0.0209232   3.9694834  18.1111783  )
        50           H1  tau(  50) = (   0.9459818   2.5003430  18.2552837  )
        51           H1  tau(  51) = (   5.7514102   2.4667126  18.3442606  )
        52           O1  tau(  52) = (   3.2249103   0.0683284  18.1361362  )
        53           H1  tau(  53) = (   3.4857875   5.2839856  18.6954204  )

     number of k points=    10  Fermi-Dirac smearing, width (Ry)=  0.0073
                       cart. coord. in units 2pi/alat
        k(    1) = (   0.0000000   0.0000000   0.0000000), wk =   0.1250000
        k(    2) = (   0.0000000   0.0419351   0.0000000), wk =   0.2500000
        k(    3) = (   0.0000000  -0.0838702   0.0000000), wk =   0.1250000
        k(    4) = (   0.0379955   0.0000049   0.0000000), wk =   0.2500000
        k(    5) = (   0.0379955   0.0419400   0.0000000), wk =   0.2500000
        k(    6) = (   0.0379955  -0.0838652   0.0000000), wk =   0.2500000
        k(    7) = (   0.0379955  -0.0419301   0.0000000), wk =   0.2500000
        k(    8) = (  -0.0759910  -0.0000099   0.0000000), wk =   0.1250000
        k(    9) = (  -0.0759910   0.0419252   0.0000000), wk =   0.2500000
        k(   10) = (  -0.0759910  -0.0838800   0.0000000), wk =   0.1250000

     Initial potential from superposition of free atoms

     starting charge  375.99917, renormalised to  392.00000

     negative rho (up, down):  1.891E-02 0.000E+00

     %%%%%%%%%%%%%%%%%%%%%%%%%%%%%%%%%%%%%%%%%%%%%%%%%%%%%%%%%%%%%%%%%%%%%%%%
     %                                                                      %
     % You are using vdW-DF, which was implemented by the Thonhauser group. %
     % Please cite the following two papers that made this development      %
     % possible and the two reviews that describe the various versions:     %
     %                                                                      %
     %   T. Thonhauser et al., PRL 115, 136402 (2015).                      %
     %   T. Thonhauser et al., PRB 76, 125112 (2007).                       %
     %   K. Berland et al., Rep. Prog. Phys. 78, 066501 (2015).             %
     %   D.C. Langreth et al., J. Phys.: Condens. Matter 21, 084203 (2009). %
     %                                                                      %
     %                                                                      %
     % If you are calculating the stress with vdW-DF, please also cite:     %
     %                                                                      %
     %   R. Sabatini et al., J. Phys.: Condens. Matter 24, 424209 (2012).   %
     %                                                                      %
     %%%%%%%%%%%%%%%%%%%%%%%%%%%%%%%%%%%%%%%%%%%%%%%%%%%%%%%%%%%%%%%%%%%%%%%%

     Adding external electric field

     Computed dipole along edir(3) :
        Dipole               -5.0034 Ry au,        -12.7174 Debye
        Dipole field         -0.0094 Ry au,

        Potential amp.        0.8753 Ry
        Total length         46.3494 bohr

     Starting wfcs are  296 atomic wfcs
  @ DRIVER MODE: Message from server: STATUS
  @ DRIVER MODE: Message from server: POSDATA
  @ DRIVER MODE: Reading and sharing cell
  @ DRIVER MODE: Reading and sharing positions
  @ DRIVER MODE: Received positions

     Self-consistent Calculation

     iteration #  1     ecut=    29.40 Ry     beta= 0.05
     Davidson diagonalization with overlap
     c_bands:  5 eigenvalues not converged
     c_bands:  4 eigenvalues not converged
     c_bands:  5 eigenvalues not converged
     c_bands:  3 eigenvalues not converged
     c_bands:  1 eigenvalues not converged
     c_bands:  2 eigenvalues not converged
     c_bands:  1 eigenvalues not converged
     c_bands:  2 eigenvalues not converged
     c_bands:  3 eigenvalues not converged
     ethr =  1.00E-05,  avg # of iterations = 19.7

[...]

     total energy              =   -2842.09896415 Ry
     estimated scf accuracy    <    1001.02759352 Ry

     iteration #  2     ecut=    29.40 Ry     beta= 0.05
     Davidson diagonalization with overlap
     ethr =  1.00E-02,  avg # of iterations = 16.0

[...]

     iteration # 36     ecut=    29.40 Ry     beta= 0.05
     Davidson diagonalization with overlap
     c_bands:  1 eigenvalues not converged
     c_bands:  1 eigenvalues not converged
     ethr =  2.19E-07,  avg # of iterations =  8.9

[...]

     total energy              =   -2932.63096182 Ry
     estimated scf accuracy    <       0.00000014 Ry

     iteration # 59     ecut=    29.40 Ry     beta= 0.05
     Davidson diagonalization with overlap
     ethr =  3.46E-11,  avg # of iterations =  5.0

     negative rho (up, down):  1.832E-02 0.000E+00

     Adding external electric field

     Computed dipole along edir(3) :
        Dipole                0.4026 Ry au,          1.0233 Debye
        Dipole field          0.0008 Ry au,

        Potential amp.       -0.0704 Ry
        Total length         46.3494 bohr

     End of self-consistent calculation

          k = 0.0000 0.0000 0.0000 ( 18029 PWs)   bands (ev):

   -56.6139 -56.5638 -56.0784 -56.0401 -56.0052 -55.9345 -55.9079 -55.8955
   -55.8529 -55.8484 -55.8059 -55.7830 -55.7357 -55.6359 -55.2254 -55.1914
   -33.0257 -32.8789 -32.8246 -32.7926 -32.6969 -32.6518 -32.5040 -32.4886
   -32.4509 -32.3441 -32.3255 -32.3191 -32.3133 -32.3058 -32.2866 -32.2693
   -32.2461 -32.2251 -32.2190 -32.1436 -32.1394 -32.1386 -32.1251 -32.1147
   -32.1078 -32.1039 -32.0932 -32.0899 -32.0854 -32.0542 -32.0404 -32.0390
   -32.0101 -32.0074 -31.9959 -31.9838 -31.9681 -31.9581 -31.8925 -31.8594
   -31.8456 -31.8448 -31.6199 -31.5655 -31.5412 -31.4367 -31.3519 -31.2410
   -16.9227 -16.7702 -16.6319 -16.4094 -16.2692 -16.1585 -15.9409 -15.9298
   -15.8080 -15.8044 -15.7622 -15.6367 -15.6222 -15.5864 -15.5746 -15.5508
   -15.5369 -15.5264 -15.5221 -15.4978 -15.4620 -15.4394 -15.3961 -15.3248
   -15.2598 -15.2423 -15.2035 -15.1402 -15.1089 -14.8733 -13.7271 -13.6185
    -9.3813  -4.6682  -4.2964  -4.0807  -3.9664  -3.9251  -3.7869  -3.6410
    -3.4679  -3.3766  -3.2413  -3.2363  -3.1645  -3.1238  -3.1121  -3.1099
    -3.0219  -2.9751  -2.9408  -2.9191  -2.9062  -2.8526  -2.8188  -2.7759
    -2.7568  -2.7532  -2.7088  -2.6848  -2.5344  -2.5034  -2.4857  -2.4747
    -2.4454  -2.4248  -2.3887  -2.3728  -2.2898  -2.2125  -2.1967  -2.1311
    -2.0664  -2.0122  -1.8280  -1.8159  -1.7169  -1.6403  -1.6167  -1.5696
    -1.5303  -1.4892  -1.4219  -1.3927  -1.3078  -1.2539  -1.2014  -1.1875
    -1.1565  -1.1213  -1.0808  -0.9761  -0.9282  -0.9218  -0.8118  -0.7584
    -0.6931  -0.6883  -0.6327  -0.6021  -0.4969  -0.4799  -0.4459  -0.4103
    -0.3782  -0.3544  -0.2970  -0.2772  -0.2475  -0.1865  -0.1467  -0.1271
    -0.0977  -0.0839  -0.0187   0.0380   0.0574   0.1632   0.1817   0.2177
     0.2889   0.3789   0.4324   0.5199   0.6929   0.7919   0.8260   0.9434
     1.0068   1.0527   1.3434   1.3894   2.6876   2.8497   3.1290   3.2811
     3.3037   3.3596   3.4065   3.4618   3.6212   3.6515

[...]

          k = 0.0380-0.0419 0.0000 ( 17876 PWs)   bands (ev):

[...]

          k =-0.0760-0.0000 0.0000 ( 17886 PWs)   bands (ev):

[...]

          k =-0.0760-0.0839 0.0000 ( 17948 PWs)   bands (ev):

   -56.6074 -56.5701 -56.0773 -56.0379 -56.0005 -55.9390 -55.9100 -55.8963
   -55.8507 -55.8400 -55.8143 -55.7811 -55.7378 -55.6376 -55.2086 -55.2080
   -32.8747 -32.8582 -32.8286 -32.8262 -32.7592 -32.7275 -32.3833 -32.3580
   -32.3444 -32.3233 -32.2929 -32.2906 -32.2681 -32.2636 -32.2502 -32.2429
   -32.2199 -32.2177 -32.2079 -32.1894 -32.1843 -32.1663 -32.1612 -32.1368
   -32.1339 -32.1330 -32.1202 -32.1046 -32.1003 -32.0709 -32.0624 -32.0490
   -32.0481 -32.0413 -32.0143 -32.0049 -31.9966 -31.9878 -31.9692 -31.8936
   -31.8904 -31.8491 -31.5544 -31.5540 -31.4356 -31.4338 -31.3940 -31.3931
   -16.9080 -16.1672 -16.0834 -16.0770 -16.0663 -16.0364 -15.9914 -15.9220
   -15.9191 -15.8268 -15.7941 -15.7592 -15.7249 -15.7089 -15.6552 -15.6507
   -15.6334 -15.5691 -15.5266 -15.5001 -15.4820 -15.4778 -15.4494 -15.4300
   -15.4183 -15.3992 -15.3335 -15.3021 -15.2232 -15.0134 -13.7229 -13.7216
    -9.3959  -4.6755  -3.3954  -3.3257  -3.2542  -3.2351  -3.1571  -3.1151
    -3.0985  -3.0715  -3.0566  -3.0198  -2.9870  -2.9796  -2.9307  -2.9174
    -2.9100  -2.9077  -2.8982  -2.8851  -2.8595  -2.8065  -2.7962  -2.7900
    -2.7691  -2.7630  -2.7472  -2.7278  -2.6805  -2.6665  -2.6226  -2.4548
    -2.4305  -2.4230  -2.3747  -2.3530  -2.3032  -2.2729  -2.1932  -2.1810
    -2.1749  -2.1396  -2.0278  -1.9170  -1.7805  -1.7710  -1.7337  -1.6649
    -1.6308  -1.5641  -1.5371  -1.5128  -1.4884  -1.4459  -1.4262  -1.3386
    -1.3275  -1.2880  -1.2731  -1.2580  -1.1755  -1.1137  -1.0856  -1.0626
    -1.0240  -0.9885  -0.9303  -0.8826  -0.8699  -0.8404  -0.8224  -0.7049
    -0.6708  -0.6406  -0.4931  -0.4625  -0.4509  -0.4043  -0.2513  -0.2083
    -0.1580  -0.1134  -0.0835   0.0456   0.0901   0.1375   0.1450   0.1988
     0.3180   0.3412   0.3855   0.4524   0.4755   0.4861   0.5262   1.0343
     1.1849   1.1877   1.1960   1.2013   3.2291   3.2534   3.2660   3.2970
     3.4692   3.5392   3.5733   3.6036   3.6496   3.7109

     the Fermi energy is     2.0967 ev

!    total energy              =   -2932.63101517 Ry
     estimated scf accuracy    <       0.00000003 Ry
     smearing contrib. (-TS)   =      -0.00015690 Ry
     internal energy E=F+TS    =   -2932.63085828 Ry

     The total energy is F=E-TS. E is the sum of the following terms:
     one-electron contribution =  -24308.03786905 Ry
     hartree contribution      =   12238.18465401 Ry
     xc contribution           =    -482.65100043 Ry
     ewald contribution        =    9619.87305133 Ry
     electric field correction =       0.00030586 Ry

     convergence has been achieved in  59 iterations

     Forces acting on atoms (cartesian axes, Ry/au):

     atom    1 type  1   force =     0.00035644   -0.00030764    0.13238465
     atom    2 type  1   force =     0.00005250    0.00688020   -0.15774894
     atom    3 type  2   force =     0.00014689    0.00441229   -0.05306433
     atom    4 type  2   force =    -0.00038357   -0.00086949    0.04047404
     atom    5 type  2   force =    -0.00906923   -0.00265249    0.00215382
     atom    6 type  2   force =     0.00917137   -0.00496626    0.00182398
     atom    7 type  1   force =     0.00069074    0.00107453    0.00046543
     atom    8 type  1   force =    -0.00078944   -0.00013634   -0.00011645
     atom    9 type  2   force =     0.00000555   -0.00017346    0.00052198
     atom   10 type  2   force =     0.00004967   -0.00006630   -0.00010351
     atom   11 type  2   force =    -0.00057187    0.00020569   -0.00038952
     atom   12 type  2   force =    -0.00053064   -0.00055896   -0.00059271
     atom   13 type  1   force =     0.00096440   -0.00086914    0.00000550
     atom   14 type  1   force =    -0.00105931   -0.00092683    0.00005485
     atom   15 type  2   force =     0.00000476    0.00088453   -0.00081714
     atom   16 type  2   force =     0.00009618    0.00004947   -0.00040962
     atom   17 type  2   force =     0.00025140   -0.00018523    0.00011875
     atom   18 type  2   force =    -0.00022808   -0.00008346    0.00025605
     atom   19 type  1   force =     0.00005961    0.00004270   -0.00090355
     atom   20 type  1   force =    -0.00005620    0.00064558    0.00072290
     atom   21 type  2   force =     0.00016206    0.00008787    0.09920751
     atom   22 type  2   force =     0.00016019    0.00076069   -0.00003291
     atom   23 type  2   force =    -0.08040959    0.00141710   -0.03414563
     atom   24 type  2   force =     0.08049584    0.00191761   -0.03418793
     atom   25 type  1   force =     0.00021634   -0.00004289    0.14218337
     atom   26 type  1   force =     0.00010164   -0.00848091   -0.15822123
     atom   27 type  2   force =    -0.00011010   -0.00043635   -0.05129120
     atom   28 type  2   force =    -0.00024870   -0.00030519    0.04226613
     atom   29 type  2   force =    -0.00856469    0.00487281    0.00031869
     atom   30 type  2   force =     0.00771272    0.00352085    0.00002278
     atom   31 type  1   force =     0.00054164   -0.00128739    0.00088166
     atom   32 type  1   force =    -0.00091723    0.00037170   -0.00076409
     atom   33 type  2   force =     0.00001981   -0.00028641   -0.00016553
     atom   34 type  2   force =     0.00000281   -0.00100430    0.00034982
     atom   35 type  2   force =    -0.00039243    0.00006904   -0.00018090
     atom   36 type  2   force =     0.00021251   -0.00020577   -0.00020582
     atom   37 type  1   force =     0.00101844    0.00083086    0.00039535
     atom   38 type  1   force =    -0.00048139    0.00001010    0.00017894
     atom   39 type  2   force =    -0.00026435   -0.00029967   -0.00039679
     atom   40 type  2   force =     0.00024996   -0.00028758   -0.00001787
     atom   41 type  2   force =     0.00002599   -0.00004804   -0.00012457
     atom   42 type  2   force =     0.00014792    0.00038308   -0.00007222
     atom   43 type  1   force =    -0.00001902    0.00019058   -0.00078537
     atom   44 type  1   force =     0.00018844   -0.00057749    0.00016088
     atom   45 type  2   force =     0.00015763    0.00004376    0.09874091
     atom   46 type  2   force =    -0.08044579   -0.00101264   -0.03415259
     atom   47 type  2   force =     0.08053744   -0.00053033   -0.03418674
     atom   48 type  3   force =    -0.00012888   -0.01835447   -0.00020716
     atom   49 type  4   force =    -0.00009900    0.01108796    0.00426688
     atom   50 type  4   force =    -0.00294430    0.00253644   -0.00156261
     atom   51 type  4   force =     0.00250080    0.00284733   -0.00226408
     atom   52 type  2   force =     0.00065084   -0.00164617   -0.00051323
     atom   53 type  4   force =     0.00076127    0.00145841   -0.00033061

     Total force =     0.384399     Total SCF correction =     0.000500
  @ DRIVER MODE: Message from server: STATUS
  @ DRIVER MODE: Message from server: GETFORCE
  @ DRIVER MODE: Returning v,forces,stress,ensemble

     Writing output data file ./calc.save/
  @ DRIVER MODE: Message from server: EXIT
  @ DRIVE MODE: Exiting

     General routines

     Parallel routines

   This run was terminated on:  23:46:50  22Sep2021

   JOB DONE.