     Program PWSCF v.6.7GPU starts on 23Sep2021 at  8:24:48

     R & G space division:  proc/nbgrp/npool/nimage =      10
     Reading input from /storage/home/hcoda1/3/ntian30/research/carbon/CxH_vib/H2O_calc/ads_slab/CH2NHHHO_a/out_0047/pw.inp
Warning: card &CELL ignored
Warning: card   CELL_DYNAMICS='IPI', ignored
Warning: card / ignored

     Current dimensions of program PWSCF are:
     Max number of different atomic species (ntypx) = 10
     Max number of k-points (npk) =  40000
     Max angular momentum in pseudopotentials (lmaxx) =  3
     Presently no symmetry can be used with electric field

     Message from routine cell_base_init:
     DEPRECATED: use true lattice parameter, not A to a.u. conversion factor

     IMPORTANT: XC functional enforced from input :
     Exchange-correlation= BEEF-VDW
                           (   1   4  43  14   2   0   0)
     Any further DFT definition will be discarded
     Please, verify this is what you really want

  @ DRIVER MODE: Connecting to
 qe_1139763_2937325.sched-torque.pace.gatech.edu5lrurkfk_scratch
  using UNIX socket
  @ DRIVER MODE: Message from server: STATUS
  @ DRIVER MODE: Message from server: INIT
  @ DRIVER MODE: Receiving replica           0          -1
  @ DRIVER MODE: Receiving encoded integer          25
  @ DRIVER MODE:  SCF:  T  FORCE:  T  STRESS:  F  VC:  F  ENSEMBLE:  F
  @ DRIVER MODE:  SCF:  T  FORCE:  T  STRESS:  F  VC:  F  ENSEMBLE:  F

     Using Slab Decomposition

     bravais-lattice index     =            0
     lattice parameter (alat)  =       1.8897  a.u.
     unit-cell volume          =    6658.9804 (a.u.)^3
     number of atoms/cell      =           55
     number of atomic types    =            5
     number of electrons       =       398.00
     number of Kohn-Sham states=          209
     kinetic-energy cutoff     =      29.3995  Ry
     charge density cutoff     =     293.9946  Ry
     scf convergence threshold =      7.3E-08
     mixing beta               =       0.0500
     number of iterations used =            8  plain     mixing
     Exchange-correlation= BEEF-VDW
                           (   1   4  43  14   2   0   0)

     celldm(1)=   1.889726  celldm(2)=   0.000000  celldm(3)=   0.000000
     celldm(4)=   0.000000  celldm(5)=   0.000000  celldm(6)=   0.000000

     crystal axes: (cart. coord. in units of alat)
               a(1) = (   6.579727   0.000000   0.000000 )
               a(2) = (  -0.000775   5.961596   0.000000 )
               a(3) = (   0.000000   0.000000  25.155947 )

     reciprocal axes: (cart. coord. in units 2 pi/alat)
               b(1) = (  0.151982  0.000020  0.000000 )
               b(2) = (  0.000000  0.167740  0.000000 )
               b(3) = (  0.000000  0.000000  0.039752 )

     PseudoPot. # 1 for Ti read from file:
     /storage/coda1/p-amedford6/0/shared/rich_project_chbe-medford/medford-share/data/pseudos_module/espresso/nninc/pbe/van/Ti.UPF
     MD5 check sum: 8e4df49b7f0d34bbd5052bf3f5ea0213
     Pseudo is Ultrasoft, Zval = 12.0
     Generated by new atomic code, or converted to UPF format
     Using radial grid of  851 points,  6 beta functions with:
                l(1) =   0
                l(2) =   0
                l(3) =   1
                l(4) =   1
                l(5) =   2
                l(6) =   2
     Q(r) pseudized with  8 coefficients,  rinner =    1.000   1.000   1.000
                                                       1.000   1.000

     PseudoPot. # 2 for O  read from file:
     /storage/coda1/p-amedford6/0/shared/rich_project_chbe-medford/medford-share/data/pseudos_module/espresso/nninc/pbe/van/O.UPF
     MD5 check sum: 78c19812648e8988a0fe644b0f25305e
     Pseudo is Ultrasoft, Zval =  6.0
     Generated by new atomic code, or converted to UPF format
     Using radial grid of  737 points,  4 beta functions with:
                l(1) =   0
                l(2) =   0
                l(3) =   1
                l(4) =   1
     Q(r) pseudized with  8 coefficients,  rinner =    0.800   0.800   0.800

     PseudoPot. # 3 for N  read from file:
     /storage/coda1/p-amedford6/0/shared/rich_project_chbe-medford/medford-share/data/pseudos_module/espresso/nninc/pbe/van/N.UPF
     MD5 check sum: 90d10febe142ad51ac9d5be1deb811c4
     Pseudo is Ultrasoft, Zval =  5.0
     Generated by new atomic code, or converted to UPF format
     Using radial grid of  729 points,  4 beta functions with:
                l(1) =   0
                l(2) =   0
                l(3) =   1
                l(4) =   1
     Q(r) pseudized with  8 coefficients,  rinner =    0.800   0.800   0.800

     PseudoPot. # 4 for C  read from file:
     /storage/coda1/p-amedford6/0/shared/rich_project_chbe-medford/medford-share/data/pseudos_module/espresso/nninc/pbe/van/C.UPF
     MD5 check sum: 1a69bf6b8db32088f5b2163dbdb77a27
     Pseudo is Ultrasoft, Zval =  4.0
     Generated by new atomic code, or converted to UPF format
     Using radial grid of  721 points,  4 beta functions with:
                l(1) =   0
                l(2) =   0
                l(3) =   1
                l(4) =   1
     Q(r) pseudized with  8 coefficients,  rinner =    0.800   0.800   0.800

     PseudoPot. # 5 for H  read from file:
     /storage/coda1/p-amedford6/0/shared/rich_project_chbe-medford/medford-share/data/pseudos_module/espresso/nninc/pbe/van/H.UPF
     MD5 check sum: b5ee9d7bfd3a09ee7748110bda690ff7
     Pseudo is Ultrasoft, Zval =  1.0
     Generated by new atomic code, or converted to UPF format
     Using radial grid of  615 points,  1 beta functions with:
                l(1) =   0
     Q(r) pseudized with  8 coefficients,  rinner =    0.800

     atomic species   valence    mass     pseudopotential
        Ti1           12.00    47.86700     Ti( 1.00)
        O1             6.00    15.99900     O ( 1.00)
        N1             5.00    14.00700     N ( 1.00)
        C1             4.00    12.01100     C ( 1.00)
        H1             1.00     1.00800     H ( 1.00)

     No symmetry found

   Cartesian axes

     site n.     atom                  positions (alat units)
         1           Ti1 tau(   1) = (   0.0004258   2.9801865   6.0000000  )
         2           Ti1 tau(   2) = (   3.2906075   1.4906267   6.0002472  )
         3           O1  tau(   3) = (   0.0006271   0.0005054   7.9858123  )
         4           O1  tau(   4) = (   3.2906025   0.0005020   7.3038282  )
         5           O1  tau(   5) = (   4.5942328   1.4918067   9.2879030  )
         6           O1  tau(   6) = (   1.9868534   1.4903216   9.2879459  )
         7           Ti1 tau(   7) = (   3.2907910   2.8959150   9.1758416  )
         8           Ti1 tau(   8) = (   0.0015273   1.4827037   9.2680791  )
         9           O1  tau(   9) = (   3.3134935   5.9450930  11.3716456  )
        10           O1  tau(  10) = (   0.0116148   5.9584955  10.6183126  )
        11           O1  tau(  11) = (   1.3009377   1.4930576  12.6823270  )
        12           O1  tau(  12) = (   5.3410967   1.4903504  12.6863499  )
        13           Ti1 tau(  13) = (   0.0342001   2.9430440  12.5112676  )
        14           Ti1 tau(  14) = (   3.3297267   1.2953541  12.7310232  )
        15           O1  tau(  15) = (   0.0493764   5.9086628  14.6689690  )
        16           O1  tau(  16) = (   3.3288597   0.0714287  14.0177558  )
        17           O1  tau(  17) = (   4.6153468   1.5975901  16.1787110  )
        18           O1  tau(  18) = (   2.0592605   1.5839887  16.0909148  )
        19           Ti1 tau(  19) = (   3.3163104   3.0362344  15.7082748  )
        20           Ti1 tau(  20) = (   0.1120434   1.3330501  15.8434463  )
        21           O1  tau(  21) = (   3.2904802   0.0005063   4.7018136  )
        22           O1  tau(  22) = (   0.0690725   0.1374024  17.2087871  )
        23           O1  tau(  23) = (   1.3043587   1.4918075   6.0039043  )
        24           O1  tau(  24) = (   5.2767064   1.4903225   6.0039473  )
        25           Ti1 tau(  25) = (   0.0000382   5.9609847   6.0000000  )
        26           Ti1 tau(  26) = (   3.2902200   4.4714249   6.0002472  )
        27           O1  tau(  27) = (   0.0002396   2.9813036   7.9858123  )
        28           O1  tau(  28) = (   3.2902150   2.9813002   7.3038282  )
        29           O1  tau(  29) = (   4.5938453   4.4726049   9.2879030  )
        30           O1  tau(  30) = (   1.9864658   4.4711199   9.2879459  )
        31           Ti1 tau(  31) = (   3.2891106   5.8743827   9.1763621  )
        32           Ti1 tau(  32) = (   0.0006254   4.4649316   9.2693709  )
        33           O1  tau(  33) = (   3.3165203   3.0043058  11.3207354  )
        34           O1  tau(  34) = (   0.0092240   2.9805883  10.6323155  )
        35           O1  tau(  35) = (   1.3050136   4.4578615  12.6552238  )
        36           O1  tau(  36) = (   5.3353050   4.4620295  12.6594116  )
        37           Ti1 tau(  37) = (   0.0330755   5.9154870  12.5003292  )
        38           Ti1 tau(  38) = (   3.3291962   4.3779952  12.4454333  )
        39           O1  tau(  39) = (   0.0233967   3.0352723  14.9286183  )
        40           O1  tau(  40) = (   3.3272303   3.0068708  13.9347379  )
        41           O1  tau(  41) = (   4.5962338   4.4808180  16.1645836  )
        42           O1  tau(  42) = (   2.0526765   4.4464907  16.1857218  )
        43           Ti1 tau(  43) = (   3.4309460   0.0633718  16.3216252  )
        44           Ti1 tau(  44) = (   0.1034465   4.5521166  15.9739525  )
        45           O1  tau(  45) = (   3.2900926   2.9813045   4.7018136  )
        46           O1  tau(  46) = (   1.3039711   4.4726057   6.0039043  )
        47           O1  tau(  47) = (   5.2763189   4.4711207   6.0039473  )
        48           N1  tau(  48) = (   6.1597698   3.4535781  18.2989460  )
        49           C1  tau(  49) = (   0.6557129   3.1470513  19.0816575  )
        50           H1  tau(  50) = (   1.2037892   3.9510289  19.5415217  )
        51           H1  tau(  51) = (   1.0557295   2.1499681  19.0337936  )
        52           H1  tau(  52) = (   5.6880836   4.3337965  18.4846543  )
        53           H1  tau(  53) = (   5.5056413   2.7003945  18.1017309  )
        54           O1  tau(  54) = (   3.2744276   0.0793712  18.1757868  )
        55           H1  tau(  55) = (   2.3604784   5.9194474  18.4705682  )

     number of k points=    10  Fermi-Dirac smearing, width (Ry)=  0.0073
                       cart. coord. in units 2pi/alat
        k(    1) = (   0.0000000   0.0000000   0.0000000), wk =   0.1250000
        k(    2) = (   0.0000000   0.0419351   0.0000000), wk =   0.2500000
        k(    3) = (   0.0000000  -0.0838702   0.0000000), wk =   0.1250000
        k(    4) = (   0.0379955   0.0000049   0.0000000), wk =   0.2500000
        k(    5) = (   0.0379955   0.0419400   0.0000000), wk =   0.2500000
        k(    6) = (   0.0379955  -0.0838652   0.0000000), wk =   0.2500000
        k(    7) = (   0.0379955  -0.0419301   0.0000000), wk =   0.2500000
        k(    8) = (  -0.0759910  -0.0000099   0.0000000), wk =   0.1250000
        k(    9) = (  -0.0759910   0.0419252   0.0000000), wk =   0.2500000
        k(   10) = (  -0.0759910  -0.0838800   0.0000000), wk =   0.1250000

     Initial potential from superposition of free atoms

     starting charge  381.99915, renormalised to  398.00000

     negative rho (up, down):  1.645E-02 0.000E+00

     %%%%%%%%%%%%%%%%%%%%%%%%%%%%%%%%%%%%%%%%%%%%%%%%%%%%%%%%%%%%%%%%%%%%%%%%
     %                                                                      %
     % You are using vdW-DF, which was implemented by the Thonhauser group. %
     % Please cite the following two papers that made this development      %
     % possible and the two reviews that describe the various versions:     %
     %                                                                      %
     %   T. Thonhauser et al., PRL 115, 136402 (2015).                      %
     %   T. Thonhauser et al., PRB 76, 125112 (2007).                       %
     %   K. Berland et al., Rep. Prog. Phys. 78, 066501 (2015).             %
     %   D.C. Langreth et al., J. Phys.: Condens. Matter 21, 084203 (2009). %
     %                                                                      %
     %                                                                      %
     % If you are calculating the stress with vdW-DF, please also cite:     %
     %                                                                      %
     %   R. Sabatini et al., J. Phys.: Condens. Matter 24, 424209 (2012).   %
     %                                                                      %
     %%%%%%%%%%%%%%%%%%%%%%%%%%%%%%%%%%%%%%%%%%%%%%%%%%%%%%%%%%%%%%%%%%%%%%%%

     Adding external electric field

     Computed dipole along edir(3) :
        Dipole              -10.2314 Ry au,        -26.0055 Debye
        Dipole field         -0.0193 Ry au,

        Potential amp.        1.7898 Ry
        Total length         46.3494 bohr

     Starting wfcs are  301 atomic wfcs
  @ DRIVER MODE: Message from server: STATUS
  @ DRIVER MODE: Message from server: POSDATA
  @ DRIVER MODE: Reading and sharing cell
  @ DRIVER MODE: Reading and sharing positions
  @ DRIVER MODE: Received positions

     Self-consistent Calculation

     iteration #  1     ecut=    29.40 Ry     beta= 0.05
     Davidson diagonalization with overlap
     c_bands:  1 eigenvalues not converged
     c_bands:  3 eigenvalues not converged
     c_bands:  2 eigenvalues not converged
     c_bands:  1 eigenvalues not converged
     c_bands:  4 eigenvalues not converged
     c_bands:  4 eigenvalues not converged
     c_bands:  4 eigenvalues not converged
     c_bands:  2 eigenvalues not converged
     c_bands:  3 eigenvalues not converged
     c_bands:  4 eigenvalues not converged
     ethr =  1.00E-05,  avg # of iterations = 20.0

[...]

     total energy              =   -2477.32824060 Ry
     estimated scf accuracy    <    5313.85853676 Ry

     iteration #  2     ecut=    29.40 Ry     beta= 0.05
     Davidson diagonalization with overlap
     ethr =  1.00E-02,  avg # of iterations = 23.7

[...]

     iteration # 62     ecut=    29.40 Ry     beta= 0.05
     Davidson diagonalization with overlap
     c_bands:  1 eigenvalues not converged
     ethr =  6.95E-08,  avg # of iterations = 14.0

[...]

     total energy              =   -2953.88664452 Ry
     estimated scf accuracy    <       0.00000010 Ry

     iteration # 81     ecut=    29.40 Ry     beta= 0.05
     Davidson diagonalization with overlap
     ethr =  2.19E-11,  avg # of iterations = 10.4

     negative rho (up, down):  1.575E-02 0.000E+00

     Adding external electric field

     Computed dipole along edir(3) :
        Dipole                0.8526 Ry au,          2.1672 Debye
        Dipole field          0.0016 Ry au,

        Potential amp.       -0.1492 Ry
        Total length         46.3494 bohr

     End of self-consistent calculation

          k = 0.0000 0.0000 0.0000 ( 18029 PWs)   bands (ev):

   -55.7667 -55.7142 -55.6801 -55.5831 -55.5443 -55.5432 -55.5294 -55.5094
   -55.5007 -55.4509 -55.4498 -55.3381 -55.3098 -55.2651 -54.6925 -54.6585
   -32.1999 -32.0855 -32.0682 -32.0624 -32.0468 -32.0333 -32.0046 -31.9836
   -31.9826 -31.9600 -31.9458 -31.8668 -31.8521 -31.8516 -31.8296 -31.8229
   -31.8218 -31.7924 -31.7717 -31.7464 -31.7447 -31.7373 -31.7277 -31.7242
   -31.7228 -31.7159 -31.6873 -31.6785 -31.6702 -31.6689 -31.6624 -31.6567
   -31.6458 -31.6384 -31.6158 -31.6057 -31.5325 -31.5303 -31.5106 -31.4777
   -31.4697 -31.4625 -31.0986 -31.0119 -30.9894 -30.9162 -30.8298 -30.7179
   -16.8825 -16.6337 -16.3797 -16.2144 -15.9913 -15.9395 -15.8784 -15.7058
   -15.5907 -15.5353 -15.3518 -15.2835 -15.2542 -15.2417 -15.2382 -15.2197
   -15.2069 -15.1636 -15.1460 -15.1439 -15.1381 -15.1039 -15.0764 -15.0352
   -14.9894 -14.9526 -14.8560 -14.8010 -14.7613 -14.5170 -14.4848 -13.1908
   -13.0743  -9.8003  -7.0641  -5.3377  -4.1437  -3.7424  -3.6289  -3.6178
    -3.5579  -3.5020  -3.3362  -3.2241  -3.1429  -3.1264  -2.9742  -2.8606
    -2.8151  -2.7494  -2.7149  -2.6750  -2.6379  -2.6270  -2.5947  -2.5028
    -2.4814  -2.4668  -2.4053  -2.3802  -2.3136  -2.2904  -2.2577  -2.2448
    -2.1384  -2.0871  -2.0524  -2.0438  -2.0274  -1.9998  -1.9727  -1.9656
    -1.9383  -1.8545  -1.8005  -1.7456  -1.7188  -1.7033  -1.4000  -1.3272
    -1.2925  -1.2561  -1.1656  -1.1481  -1.1125  -1.0952  -1.0793  -1.0721
    -0.9577  -0.8892  -0.8299  -0.8000  -0.7567  -0.7272  -0.6110  -0.5602
    -0.5084  -0.4686  -0.4554  -0.4304  -0.3440  -0.3166  -0.3010  -0.2001
    -0.1568  -0.0921  -0.0221  -0.0082   0.0409   0.0703   0.1084   0.1459
     0.2042   0.2368   0.2544   0.2983   0.3373   0.3481   0.4062   0.4224
     0.5183   0.6024   0.6213   0.6908   0.7800   0.8263   0.9466   1.0088
     1.2804   1.3344   1.3472   1.5259   1.9016   1.9472   3.3631   3.4006
     3.5165   3.5295   3.6048   3.6162   3.7009   3.8565   3.9051   4.0159
     4.0528

[...]

          k = 0.0380-0.0419 0.0000 ( 17876 PWs)   bands (ev):

[...]

          k =-0.0760-0.0000 0.0000 ( 17886 PWs)   bands (ev):

[...]

          k =-0.0760-0.0839 0.0000 ( 17948 PWs)   bands (ev):

   -55.7658 -55.6973 -55.6968 -55.5724 -55.5546 -55.5301 -55.5269 -55.5255
   -55.4945 -55.4561 -55.4484 -55.3343 -55.3122 -55.2688 -54.6759 -54.6750
   -32.0308 -32.0153 -32.0150 -32.0145 -31.9903 -31.9898 -31.9867 -31.9752
   -31.9162 -31.8902 -31.8726 -31.8595 -31.8549 -31.8346 -31.8205 -31.8172
   -31.8166 -31.8138 -31.8099 -31.8049 -31.7797 -31.7536 -31.7447 -31.7380
   -31.7307 -31.7281 -31.7139 -31.7116 -31.7102 -31.7019 -31.7011 -31.6819
   -31.6791 -31.6747 -31.6450 -31.6137 -31.5950 -31.5590 -31.5365 -31.5324
   -31.5183 -31.4733 -31.0025 -31.0018 -30.9121 -30.9108 -30.8734 -30.8726
   -16.8641 -16.6242 -16.0528 -15.8031 -15.7104 -15.7001 -15.5679 -15.5011
   -15.4896 -15.4480 -15.4289 -15.4076 -15.4013 -15.3760 -15.3364 -15.2814
   -15.2519 -15.2251 -15.2188 -15.1792 -15.1719 -15.1533 -15.1508 -15.1291
   -15.0793 -15.0382 -15.0247 -15.0102 -14.8248 -14.7731 -14.6404 -13.1764
   -13.1759  -9.8010  -7.0559  -5.3223  -4.1278  -3.3637  -3.1767  -3.0134
    -2.9419  -2.8857  -2.7931  -2.7505  -2.7358  -2.6908  -2.6676  -2.6448
    -2.5646  -2.5507  -2.5211  -2.5094  -2.4803  -2.4655  -2.4589  -2.4492
    -2.4051  -2.3963  -2.3868  -2.3545  -2.3465  -2.3366  -2.2970  -2.2758
    -2.2658  -2.2553  -2.2068  -2.1832  -2.1055  -2.0659  -1.9680  -1.8848
    -1.8741  -1.8508  -1.8033  -1.7915  -1.7492  -1.7335  -1.6907  -1.6161
    -1.5320  -1.4647  -1.3519  -1.3092  -1.2980  -1.2388  -1.2209  -1.1646
    -1.1316  -1.1009  -1.0713  -0.9709  -0.9384  -0.8817  -0.7649  -0.7008
    -0.6882  -0.6653  -0.6551  -0.6192  -0.5990  -0.5837  -0.5528  -0.4715
    -0.4331  -0.4187  -0.4086  -0.3722  -0.2466  -0.1259  -0.0811  -0.0213
     0.0452   0.0611   0.1155   0.1537   0.3096   0.3438   0.4414   0.4563
     0.4771   0.5906   0.5978   0.6778   0.7193   0.7652   0.7937   0.8260
     0.8309   0.8706   1.6957   1.7041   1.7675   1.7677   3.3724   3.7441
     3.8465   3.8633   3.8809   3.9218   3.9356   3.9647   3.9703   4.0496
     4.0535

     the Fermi energy is     3.4052 ev

!    total energy              =   -2953.88666433 Ry
     estimated scf accuracy    <       0.00000004 Ry
     smearing contrib. (-TS)   =      -0.02909407 Ry
     internal energy E=F+TS    =   -2953.85757026 Ry

     The total energy is F=E-TS. E is the sum of the following terms:
     one-electron contribution =  -23670.29243087 Ry
     hartree contribution      =   11926.08966418 Ry
     xc contribution           =    -488.85571594 Ry
     ewald contribution        =    9279.19954043 Ry
     electric field correction =       0.00137195 Ry

     convergence has been achieved in  81 iterations

     Forces acting on atoms (cartesian axes, Ry/au):

     atom    1 type  1   force =    -0.00001828   -0.00030278    0.09376788
     atom    2 type  1   force =    -0.00009933    0.00049097   -0.17552011
     atom    3 type  2   force =     0.00011011   -0.00024727   -0.02088678
     atom    4 type  2   force =     0.00001420   -0.00197510    0.05497308
     atom    5 type  2   force =    -0.00644470   -0.00243917    0.00277052
     atom    6 type  2   force =     0.00860322   -0.00177000    0.00361029
     atom    7 type  1   force =     0.00059098   -0.00336511    0.00968092
     atom    8 type  1   force =    -0.00066518    0.00048056    0.00109918
     atom    9 type  2   force =    -0.00001380    0.00059295   -0.00096915
     atom   10 type  2   force =    -0.00024873    0.00115120   -0.00781342
     atom   11 type  2   force =    -0.00013304   -0.00001340    0.00016848
     atom   12 type  2   force =    -0.00040543   -0.00017820    0.00003042
     atom   13 type  1   force =    -0.00027892    0.00001895   -0.00043949
     atom   14 type  1   force =    -0.00062057    0.00038818    0.00042846
     atom   15 type  2   force =    -0.00005488    0.00105611   -0.00004043
     atom   16 type  2   force =    -0.00007798    0.00008143   -0.00030855
     atom   17 type  2   force =    -0.00041162    0.00052546   -0.00034327
     atom   18 type  2   force =     0.00014759    0.00065056   -0.00017887
     atom   19 type  1   force =     0.00010040   -0.00017556    0.00058442
     atom   20 type  1   force =    -0.00016558   -0.00044508    0.00003469
     atom   21 type  2   force =     0.00001451    0.00008595    0.10331991
     atom   22 type  2   force =    -0.00001055    0.00022513   -0.00007125
     atom   23 type  2   force =    -0.07186290   -0.00017351   -0.02713865
     atom   24 type  2   force =     0.07172878    0.00029854   -0.02721799
     atom   25 type  1   force =     0.00009512   -0.00019811    0.09357510
     atom   26 type  1   force =    -0.00025467   -0.00138158   -0.17564483
     atom   27 type  2   force =     0.00015153   -0.00015822   -0.01963840
     atom   28 type  2   force =     0.00011002   -0.00028362    0.05021810
     atom   29 type  2   force =    -0.00550633    0.00259375    0.00166512
     atom   30 type  2   force =     0.00765262    0.00268770    0.00255820
     atom   31 type  1   force =     0.00070598    0.00798937   -0.00206395
     atom   32 type  1   force =    -0.00070955   -0.00206492    0.00020701
     atom   33 type  2   force =    -0.00017027   -0.00073331   -0.00012034
     atom   34 type  2   force =     0.00011521   -0.00173070   -0.00873505
     atom   35 type  2   force =    -0.00004974   -0.00011906   -0.00058577
     atom   36 type  2   force =    -0.00018133   -0.00019530   -0.00039631
     atom   37 type  1   force =     0.00045006    0.00067141   -0.00072738
     atom   38 type  1   force =    -0.00062593   -0.00049658    0.00020102
     atom   39 type  2   force =    -0.00001166    0.00011673    0.00024001
     atom   40 type  2   force =     0.00011409    0.00002101    0.00066248
     atom   41 type  2   force =    -0.00058750   -0.00021738    0.00005790
     atom   42 type  2   force =     0.00064345    0.00015928   -0.00063046
     atom   43 type  1   force =     0.00018967    0.00051118   -0.00075028
     atom   44 type  1   force =    -0.00010522   -0.00121940    0.00018749
     atom   45 type  2   force =     0.00001845   -0.00005474    0.10310500
     atom   46 type  2   force =    -0.07187519   -0.00001854   -0.02715098
     atom   47 type  2   force =     0.07177962    0.00040393   -0.02724089
     atom   48 type  3   force =     0.00043213   -0.00012551   -0.00027782
     atom   49 type  4   force =     0.00091120    0.00027113    0.00063204
     atom   50 type  5   force =    -0.00041640    0.00019564    0.00016284
     atom   51 type  5   force =    -0.00004266   -0.00062419    0.00069494
     atom   52 type  5   force =    -0.00001593    0.00063809   -0.00058912
     atom   53 type  5   force =    -0.00062726   -0.00115088    0.00002328
     atom   54 type  2   force =     0.00416709    0.00011514   -0.00273767
     atom   55 type  5   force =    -0.00615491   -0.00056315    0.00355845

     Total force =     0.362137     Total SCF correction =     0.000540
  @ DRIVER MODE: Message from server: STATUS
  @ DRIVER MODE: Message from server: GETFORCE
  @ DRIVER MODE: Returning v,forces,stress,ensemble

     Writing output data file ./calc.save/
  @ DRIVER MODE: Message from server: EXIT
  @ DRIVE MODE: Exiting

     General routines

     Parallel routines

   This run was terminated on:   8:45: 0  23Sep2021

   JOB DONE.