     Program PWSCF v.6.7GPU starts on 23Sep2021 at  8:28: 1

     R & G space division:  proc/nbgrp/npool/nimage =      10
     Reading input from /storage/home/hcoda1/3/ntian30/research/carbon/CxH_vib/H2O_calc/ads_slab/CH3NNH3HO_a/out_0047/pw.inp
Warning: card &CELL ignored
Warning: card   CELL_DYNAMICS='IPI', ignored
Warning: card / ignored

     Current dimensions of program PWSCF are:
     Max number of different atomic species (ntypx) = 10
     Max number of k-points (npk) =  40000
     Max angular momentum in pseudopotentials (lmaxx) =  3
     Presently no symmetry can be used with electric field

     Message from routine cell_base_init:
     DEPRECATED: use true lattice parameter, not A to a.u. conversion factor

     IMPORTANT: XC functional enforced from input :
     Exchange-correlation= BEEF-VDW
                           (   1   4  43  14   2   0   0)
     Any further DFT definition will be discarded
     Please, verify this is what you really want

  @ DRIVER MODE: Connecting to
 qe_1139763_2937318.sched-torque.pace.gatech.edus75xm0pv_scratch
  using UNIX socket
  @ DRIVER MODE: Message from server: STATUS
  @ DRIVER MODE: Message from server: INIT
  @ DRIVER MODE: Receiving replica           0          -1
  @ DRIVER MODE: Receiving encoded integer          25
  @ DRIVER MODE:  SCF:  T  FORCE:  T  STRESS:  F  VC:  F  ENSEMBLE:  F
  @ DRIVER MODE:  SCF:  T  FORCE:  T  STRESS:  F  VC:  F  ENSEMBLE:  F

     Using Slab Decomposition

     bravais-lattice index     =            0
     lattice parameter (alat)  =       1.8897  a.u.
     unit-cell volume          =    6658.9804 (a.u.)^3
     number of atoms/cell      =           58
     number of atomic types    =            5
     number of electrons       =       405.00
     number of Kohn-Sham states=          212
     kinetic-energy cutoff     =      29.3995  Ry
     charge density cutoff     =     293.9946  Ry
     scf convergence threshold =      7.3E-08
     mixing beta               =       0.0500
     number of iterations used =            8  plain     mixing
     Exchange-correlation= BEEF-VDW
                           (   1   4  43  14   2   0   0)

     celldm(1)=   1.889726  celldm(2)=   0.000000  celldm(3)=   0.000000
     celldm(4)=   0.000000  celldm(5)=   0.000000  celldm(6)=   0.000000

     crystal axes: (cart. coord. in units of alat)
               a(1) = (   6.579727   0.000000   0.000000 )
               a(2) = (  -0.000775   5.961596   0.000000 )
               a(3) = (   0.000000   0.000000  25.155947 )

     reciprocal axes: (cart. coord. in units 2 pi/alat)
               b(1) = (  0.151982  0.000020  0.000000 )
               b(2) = (  0.000000  0.167740  0.000000 )
               b(3) = (  0.000000  0.000000  0.039752 )

     PseudoPot. # 1 for Ti read from file:
     /storage/coda1/p-amedford6/0/shared/rich_project_chbe-medford/medford-share/data/pseudos_module/espresso/nninc/pbe/van/Ti.UPF
     MD5 check sum: 8e4df49b7f0d34bbd5052bf3f5ea0213
     Pseudo is Ultrasoft, Zval = 12.0
     Generated by new atomic code, or converted to UPF format
     Using radial grid of  851 points,  6 beta functions with:
                l(1) =   0
                l(2) =   0
                l(3) =   1
                l(4) =   1
                l(5) =   2
                l(6) =   2
     Q(r) pseudized with  8 coefficients,  rinner =    1.000   1.000   1.000
                                                       1.000   1.000

     PseudoPot. # 2 for O  read from file:
     /storage/coda1/p-amedford6/0/shared/rich_project_chbe-medford/medford-share/data/pseudos_module/espresso/nninc/pbe/van/O.UPF
     MD5 check sum: 78c19812648e8988a0fe644b0f25305e
     Pseudo is Ultrasoft, Zval =  6.0
     Generated by new atomic code, or converted to UPF format
     Using radial grid of  737 points,  4 beta functions with:
                l(1) =   0
                l(2) =   0
                l(3) =   1
                l(4) =   1
     Q(r) pseudized with  8 coefficients,  rinner =    0.800   0.800   0.800

     PseudoPot. # 3 for N  read from file:
     /storage/coda1/p-amedford6/0/shared/rich_project_chbe-medford/medford-share/data/pseudos_module/espresso/nninc/pbe/van/N.UPF
     MD5 check sum: 90d10febe142ad51ac9d5be1deb811c4
     Pseudo is Ultrasoft, Zval =  5.0
     Generated by new atomic code, or converted to UPF format
     Using radial grid of  729 points,  4 beta functions with:
                l(1) =   0
                l(2) =   0
                l(3) =   1
                l(4) =   1
     Q(r) pseudized with  8 coefficients,  rinner =    0.800   0.800   0.800

     PseudoPot. # 4 for C  read from file:
     /storage/coda1/p-amedford6/0/shared/rich_project_chbe-medford/medford-share/data/pseudos_module/espresso/nninc/pbe/van/C.UPF
     MD5 check sum: 1a69bf6b8db32088f5b2163dbdb77a27
     Pseudo is Ultrasoft, Zval =  4.0
     Generated by new atomic code, or converted to UPF format
     Using radial grid of  721 points,  4 beta functions with:
                l(1) =   0
                l(2) =   0
                l(3) =   1
                l(4) =   1
     Q(r) pseudized with  8 coefficients,  rinner =    0.800   0.800   0.800

     PseudoPot. # 5 for H  read from file:
     /storage/coda1/p-amedford6/0/shared/rich_project_chbe-medford/medford-share/data/pseudos_module/espresso/nninc/pbe/van/H.UPF
     MD5 check sum: b5ee9d7bfd3a09ee7748110bda690ff7
     Pseudo is Ultrasoft, Zval =  1.0
     Generated by new atomic code, or converted to UPF format
     Using radial grid of  615 points,  1 beta functions with:
                l(1) =   0
     Q(r) pseudized with  8 coefficients,  rinner =    0.800

     atomic species   valence    mass     pseudopotential
        Ti1           12.00    47.86700     Ti( 1.00)
        O1             6.00    15.99900     O ( 1.00)
        N1             5.00    14.00700     N ( 1.00)
        C1             4.00    12.01100     C ( 1.00)
        H1             1.00     1.00800     H ( 1.00)

     No symmetry found

   Cartesian axes

     site n.     atom                  positions (alat units)
         1           Ti1 tau(   1) = (   0.0004258   2.9801865   6.0000000  )
         2           Ti1 tau(   2) = (   3.2906075   1.4906267   6.0002472  )
         3           O1  tau(   3) = (   0.0006271   0.0005054   7.9858123  )
         4           O1  tau(   4) = (   3.2906025   0.0005020   7.3038282  )
         5           O1  tau(   5) = (   4.5942328   1.4918067   9.2879030  )
         6           O1  tau(   6) = (   1.9868534   1.4903216   9.2879459  )
         7           Ti1 tau(   7) = (   3.2907910   2.8959150   9.1758416  )
         8           Ti1 tau(   8) = (   0.0015273   1.4827037   9.2680791  )
         9           O1  tau(   9) = (   3.2949357   5.9297256  11.2770696  )
        10           O1  tau(  10) = (   0.0116148   5.9584955  10.6183126  )
        11           O1  tau(  11) = (   1.2901270   1.4659759  12.6218969  )
        12           O1  tau(  12) = (   5.3029181   1.4690452  12.6271982  )
        13           Ti1 tau(  13) = (   6.5637346   3.0486055  12.7052252  )
        14           Ti1 tau(  14) = (   3.3207578   1.2909511  12.6638180  )
        15           O1  tau(  15) = (   0.0081040   5.9567798  14.6379979  )
        16           O1  tau(  16) = (   3.2944190   0.0149942  13.8863584  )
        17           O1  tau(  17) = (   4.5334936   1.5584448  16.0391558  )
        18           O1  tau(  18) = (   2.0244848   1.5379376  16.0854781  )
        19           Ti1 tau(  19) = (   3.2579824   3.0118882  15.6538344  )
        20           Ti1 tau(  20) = (   6.4918182   1.5199401  15.8876453  )
        21           O1  tau(  21) = (   3.2904802   0.0005063   4.7018136  )
        22           O1  tau(  22) = (   6.5166677   0.0216046  17.1949088  )
        23           O1  tau(  23) = (   1.3043587   1.4918075   6.0039043  )
        24           O1  tau(  24) = (   5.2767064   1.4903225   6.0039473  )
        25           Ti1 tau(  25) = (   0.0000382   5.9609847   6.0000000  )
        26           Ti1 tau(  26) = (   3.2902200   4.4714249   6.0002472  )
        27           O1  tau(  27) = (   0.0002396   2.9813036   7.9858123  )
        28           O1  tau(  28) = (   3.2902150   2.9813002   7.3038282  )
        29           O1  tau(  29) = (   4.5938453   4.4726049   9.2879030  )
        30           O1  tau(  30) = (   1.9864658   4.4711199   9.2879459  )
        31           Ti1 tau(  31) = (   3.2891106   5.8743827   9.1763621  )
        32           Ti1 tau(  32) = (   0.0006254   4.4649316   9.2693709  )
        33           O1  tau(  33) = (   3.2959121   3.0085915  11.2438341  )
        34           O1  tau(  34) = (   0.0092240   2.9805883  10.6323155  )
        35           O1  tau(  35) = (   1.2849535   4.4488585  12.6204231  )
        36           O1  tau(  36) = (   5.2878833   4.4365118  12.6243745  )
        37           Ti1 tau(  37) = (   0.0500071   0.0677371  12.6535751  )
        38           Ti1 tau(  38) = (   3.3027700   4.3871210  12.4110406  )
        39           O1  tau(  39) = (   6.5685058   2.9535060  14.6525041  )
        40           O1  tau(  40) = (   3.2696111   2.9719761  13.8704823  )
        41           O1  tau(  41) = (   4.5209813   4.4409030  16.0696701  )
        42           O1  tau(  42) = (   2.0131998   4.4599944  16.0916020  )
        43           Ti1 tau(  43) = (   3.2138439   0.0230873  16.3295100  )
        44           Ti1 tau(  44) = (   6.5234412   4.6200706  16.0754176  )
        45           O1  tau(  45) = (   3.2900926   2.9813045   4.7018136  )
        46           O1  tau(  46) = (   1.3039711   4.4726057   6.0039043  )
        47           O1  tau(  47) = (   5.2763189   4.4711207   6.0039473  )
        48           N1  tau(  48) = (   0.0251376   2.9556585  17.3246074  )
        49           N1  tau(  49) = (   6.3772498   2.5461882  22.2688425  )
        50           C1  tau(  50) = (   0.2111848   2.8484408  18.7116211  )
        51           H1  tau(  51) = (   0.3920758   3.8074029  19.2116250  )
        52           H1  tau(  52) = (   5.9044209   2.3708277  19.1722604  )
        53           H1  tau(  53) = (   1.0233575   2.1342068  18.9364007  )
        54           H1  tau(  54) = (   6.0930523   3.2289774  22.9628454  )
        55           H1  tau(  55) = (   0.2277240   1.7755739  22.7585771  )
        56           H1  tau(  56) = (   0.5282093   2.9785696  21.7129995  )
        57           O1  tau(  57) = (   3.3838229   0.0530270  18.1522483  )
        58           H1  tau(  58) = (   4.2718821   5.8932998  18.5223319  )

     number of k points=    10  Fermi-Dirac smearing, width (Ry)=  0.0073
                       cart. coord. in units 2pi/alat
        k(    1) = (   0.0000000   0.0000000   0.0000000), wk =   0.1250000
        k(    2) = (   0.0000000   0.0419351   0.0000000), wk =   0.2500000
        k(    3) = (   0.0000000  -0.0838702   0.0000000), wk =   0.1250000
        k(    4) = (   0.0379955   0.0000049   0.0000000), wk =   0.2500000
        k(    5) = (   0.0379955   0.0419400   0.0000000), wk =   0.2500000
        k(    6) = (   0.0379955  -0.0838652   0.0000000), wk =   0.2500000
        k(    7) = (   0.0379955  -0.0419301   0.0000000), wk =   0.2500000
        k(    8) = (  -0.0759910  -0.0000099   0.0000000), wk =   0.1250000
        k(    9) = (  -0.0759910   0.0419252   0.0000000), wk =   0.2500000
        k(   10) = (  -0.0759910  -0.0838800   0.0000000), wk =   0.1250000

     Initial potential from superposition of free atoms

     starting charge  388.99913, renormalised to  405.00000

     negative rho (up, down):  7.838E-03 0.000E+00

     %%%%%%%%%%%%%%%%%%%%%%%%%%%%%%%%%%%%%%%%%%%%%%%%%%%%%%%%%%%%%%%%%%%%%%%%
     %                                                                      %
     % You are using vdW-DF, which was implemented by the Thonhauser group. %
     % Please cite the following two papers that made this development      %
     % possible and the two reviews that describe the various versions:     %
     %                                                                      %
     %   T. Thonhauser et al., PRL 115, 136402 (2015).                      %
     %   T. Thonhauser et al., PRB 76, 125112 (2007).                       %
     %   K. Berland et al., Rep. Prog. Phys. 78, 066501 (2015).             %
     %   D.C. Langreth et al., J. Phys.: Condens. Matter 21, 084203 (2009). %
     %                                                                      %
     %                                                                      %
     % If you are calculating the stress with vdW-DF, please also cite:     %
     %                                                                      %
     %   R. Sabatini et al., J. Phys.: Condens. Matter 24, 424209 (2012).   %
     %                                                                      %
     %%%%%%%%%%%%%%%%%%%%%%%%%%%%%%%%%%%%%%%%%%%%%%%%%%%%%%%%%%%%%%%%%%%%%%%%

     Adding external electric field

     Computed dipole along edir(3) :
        Dipole              -15.1926 Ry au,        -38.6157 Debye
        Dipole field         -0.0287 Ry au,

        Potential amp.        2.6577 Ry
        Total length         46.3494 bohr

     Starting wfcs are  307 atomic wfcs
  @ DRIVER MODE: Message from server: STATUS
  @ DRIVER MODE: Message from server: POSDATA
  @ DRIVER MODE: Reading and sharing cell
  @ DRIVER MODE: Reading and sharing positions
  @ DRIVER MODE: Received positions

     Self-consistent Calculation

     iteration #  1     ecut=    29.40 Ry     beta= 0.05
     Davidson diagonalization with overlap
     c_bands:  4 eigenvalues not converged
     c_bands:  1 eigenvalues not converged
     c_bands:  1 eigenvalues not converged
     c_bands:  2 eigenvalues not converged
     c_bands:  1 eigenvalues not converged
     c_bands:  2 eigenvalues not converged
     ethr =  1.00E-05,  avg # of iterations = 31.5

[...]

     total energy              =   -2295.05488667 Ry
     estimated scf accuracy    <    7743.74804081 Ry

     iteration #  2     ecut=    29.40 Ry     beta= 0.05
     Davidson diagonalization with overlap
     ethr =  1.00E-02,  avg # of iterations = 23.2

[...]

     iteration # 65     ecut=    29.40 Ry     beta= 0.05
     Davidson diagonalization with overlap
     c_bands:  1 eigenvalues not converged
     ethr =  5.32E-07,  avg # of iterations =  6.7

[...]

     total energy              =   -2976.42349686 Ry
     estimated scf accuracy    <       0.00000010 Ry

     iteration # 87     ecut=    29.40 Ry     beta= 0.05
     Davidson diagonalization with overlap
     ethr =  2.47E-11,  avg # of iterations =  5.0

     negative rho (up, down):  9.603E-03 0.000E+00

     Adding external electric field

     Computed dipole along edir(3) :
        Dipole                0.6328 Ry au,          1.6084 Debye
        Dipole field          0.0012 Ry au,

        Potential amp.       -0.1107 Ry
        Total length         46.3494 bohr

     End of self-consistent calculation

          k = 0.0000 0.0000 0.0000 ( 18029 PWs)   bands (ev):

   -56.5660 -56.5325 -55.6417 -55.6066 -55.4258 -55.3594 -55.2311 -55.1174
   -55.0836 -55.0357 -55.0036 -54.9693 -54.9107 -54.8179 -54.7459 -54.6140
   -32.9847 -32.8365 -32.8084 -32.7455 -32.6553 -32.6118 -32.1235 -31.9007
   -31.8620 -31.8405 -31.7859 -31.7781 -31.7528 -31.6592 -31.6388 -31.5943
   -31.5625 -31.5467 -31.5227 -31.5105 -31.5052 -31.4950 -31.4645 -31.4631
   -31.4400 -31.4208 -31.3556 -31.3214 -31.2990 -31.2932 -31.2411 -31.2332
   -31.2163 -31.1946 -31.1820 -31.1664 -31.1596 -31.1297 -31.1239 -31.0918
   -31.0482 -31.0033 -31.0026 -30.9809 -30.9481 -30.8882 -30.8515 -30.8011
   -16.6694 -16.1113 -16.0880 -15.8826 -15.7601 -15.7548 -15.7115 -15.6428
   -15.4737 -15.4051 -15.3765 -15.3155 -15.1710 -15.0554 -14.9582 -14.7785
   -14.7047 -14.6996 -14.6806 -14.6732 -14.6561 -14.6353 -14.5764 -14.5178
   -14.4754 -14.4105 -14.3671 -14.2209 -14.0205 -13.9952 -13.9657 -13.6147
   -13.5078 -13.5031  -7.7380  -4.2449  -4.0713  -4.0022  -3.6986  -3.5780
    -3.4054  -3.2528  -3.2023  -3.1442  -3.0849  -3.0754  -2.9278  -2.9261
    -2.9144  -2.9074  -2.8294  -2.7707  -2.7058  -2.6189  -2.6033  -2.5087
    -2.4620  -2.3027  -2.2767  -2.1758  -2.1037  -2.0982  -2.0319  -2.0092
    -1.9619  -1.9168  -1.9075  -1.8728  -1.8291  -1.7822  -1.7639  -1.6526
    -1.6451  -1.5803  -1.5736  -1.5508  -1.4374  -1.4174  -1.3474  -1.2024
    -1.1810  -1.1777  -1.1306  -1.1132  -1.0315  -0.9355  -0.8682  -0.8416
    -0.7856  -0.6970  -0.6504  -0.6286  -0.5561  -0.5367  -0.4626  -0.4189
    -0.4059  -0.3854  -0.3434  -0.2289  -0.1422  -0.1093  -0.0555  -0.0301
     0.0026   0.0295   0.0487   0.0973   0.1671   0.2529   0.2740   0.4127
     0.4648   0.5016   0.5772   0.6115   0.6178   0.7071   0.7386   0.7682
     0.8147   0.8894   0.9038   0.9048   0.9638   1.0479   1.1026   1.1601
     1.1672   1.2029   1.2111   1.2618   1.3504   1.3711   1.4403   1.4953
     1.8192   1.8815   2.4837   2.7283   2.8998   3.1767   3.3687   3.6721
     3.7142   3.7321   3.7323   4.0381

[...]

          k = 0.0380-0.0419 0.0000 ( 17876 PWs)   bands (ev):

[...]

          k =-0.0760-0.0000 0.0000 ( 17886 PWs)   bands (ev):

[...]

          k =-0.0760-0.0839 0.0000 ( 17948 PWs)   bands (ev):

   -56.5498 -56.5485 -55.6293 -55.6189 -55.4211 -55.3639 -55.2303 -55.1009
   -55.1000 -55.0308 -55.0043 -54.9740 -54.9091 -54.8164 -54.7475 -54.6153
   -32.8230 -32.8214 -32.8027 -32.8013 -32.6995 -32.6984 -31.9480 -31.9388
   -31.8238 -31.8185 -31.8126 -31.8109 -31.7206 -31.6778 -31.6524 -31.6393
   -31.5898 -31.5881 -31.5020 -31.4747 -31.4651 -31.4533 -31.4527 -31.3698
   -31.3505 -31.3210 -31.3198 -31.3020 -31.2946 -31.2848 -31.2813 -31.2807
   -31.2523 -31.2333 -31.2153 -31.2006 -31.1968 -31.1587 -31.1582 -31.1021
   -31.0910 -31.0512 -31.0069 -30.9960 -30.9596 -30.9528 -30.8535 -30.8365
   -16.0759 -16.0278 -16.0259 -15.9825 -15.9809 -15.7191 -15.7146 -15.4644
   -15.4351 -15.2555 -15.1517 -15.1277 -15.0842 -15.0426 -14.9715 -14.9172
   -14.8875 -14.8556 -14.8295 -14.7674 -14.7377 -14.6329 -14.6002 -14.5529
   -14.5166 -14.4547 -14.4137 -14.3644 -14.1771 -14.1334 -13.9651 -13.6123
   -13.6118 -13.5280  -7.7371  -4.0827  -4.0015  -3.6897  -3.1589  -3.1038
    -3.0995  -3.0669  -3.0597  -2.9744  -2.8532  -2.8501  -2.7551  -2.6480
    -2.6216  -2.5986  -2.5380  -2.5286  -2.4285  -2.3788  -2.3740  -2.3596
    -2.3233  -2.2937  -2.2872  -2.2273  -2.0889  -2.0728  -2.0235  -1.9695
    -1.8951  -1.8866  -1.8773  -1.8404  -1.7988  -1.7734  -1.7624  -1.7352
    -1.7305  -1.7259  -1.6167  -1.5117  -1.4644  -1.3707  -1.3666  -1.3576
    -1.3198  -1.2927  -1.2591  -1.2528  -1.2240  -1.1439  -1.1178  -1.0479
    -0.9343  -0.9163  -0.8745  -0.8262  -0.7225  -0.7042  -0.6145  -0.5782
    -0.5668  -0.5074  -0.4784  -0.4623  -0.4042  -0.3650  -0.2333  -0.1934
    -0.1819  -0.1649  -0.1426  -0.1063  -0.0451   0.0163   0.0482   0.0501
     0.1547   0.2544   0.3422   0.4115   0.4208   0.4440   0.5304   0.6358
     0.6769   0.7016   0.7499   0.8735   0.9914   1.0211   1.1275   1.1542
     1.1634   1.2628   1.2806   1.2857   1.3057   1.3148   1.3500   1.4164
     1.4773   1.7639   2.3167   3.3209   3.3240   3.3822   3.3878   3.6985
     3.7009   3.8121   3.8172   4.1438

     the Fermi energy is     2.3936 ev

!    total energy              =   -2976.42351114 Ry
     estimated scf accuracy    <       0.00000005 Ry
     smearing contrib. (-TS)   =      -0.01083978 Ry
     internal energy E=F+TS    =   -2976.41267137 Ry

     The total energy is F=E-TS. E is the sum of the following terms:
     one-electron contribution =  -22707.69216571 Ry
     hartree contribution      =   11450.19913796 Ry
     xc contribution           =    -495.34748357 Ry
     ewald contribution        =    8776.42708431 Ry
     electric field correction =       0.00075564 Ry

     convergence has been achieved in  87 iterations

     Forces acting on atoms (cartesian axes, Ry/au):

     atom    1 type  1   force =     0.00002181   -0.00052798    0.12630367
     atom    2 type  1   force =    -0.00009573    0.00041640   -0.15470837
     atom    3 type  2   force =     0.00002711    0.00002804   -0.06829804
     atom    4 type  2   force =     0.00005873   -0.00010083    0.01705678
     atom    5 type  2   force =    -0.00487411   -0.00242903   -0.01324353
     atom    6 type  2   force =     0.00655519   -0.00180635   -0.01376054
     atom    7 type  1   force =    -0.00029335   -0.00662100    0.05923938
     atom    8 type  1   force =     0.00038818    0.00686919    0.10029572
     atom    9 type  2   force =    -0.00002543    0.00065900    0.00130449
     atom   10 type  2   force =    -0.00261418   -0.00001434   -0.06338064
     atom   11 type  2   force =     0.00045349   -0.00068956   -0.00028691
     atom   12 type  2   force =    -0.00086758   -0.00112893   -0.00109979
     atom   13 type  1   force =    -0.00029575    0.00071619   -0.00139491
     atom   14 type  1   force =    -0.00033399   -0.00038658   -0.00025308
     atom   15 type  2   force =    -0.00065703   -0.00039507   -0.00060303
     atom   16 type  2   force =     0.00019641    0.00092202   -0.00031124
     atom   17 type  2   force =     0.00078219    0.00008685   -0.00054809
     atom   18 type  2   force =    -0.00023177   -0.00015589   -0.00003706
     atom   19 type  1   force =    -0.00020406   -0.00010731   -0.00093934
     atom   20 type  1   force =     0.00069081    0.00084027   -0.00046532
     atom   21 type  2   force =     0.00006146    0.00015935    0.09780891
     atom   22 type  2   force =     0.00041063   -0.00033742    0.00143217
     atom   23 type  2   force =    -0.08276301    0.00005676   -0.03312553
     atom   24 type  2   force =     0.08270313    0.00050391   -0.03320222
     atom   25 type  1   force =     0.00007023   -0.00035384    0.12645107
     atom   26 type  1   force =    -0.00011390   -0.00149925   -0.15487906
     atom   27 type  2   force =     0.00011453   -0.00047075   -0.06667410
     atom   28 type  2   force =     0.00004795    0.00166487    0.01199338
     atom   29 type  2   force =    -0.00342673    0.00422234   -0.01621357
     atom   30 type  2   force =     0.00505398    0.00456580   -0.01661616
     atom   31 type  1   force =    -0.00015730    0.00217640    0.04257789
     atom   32 type  1   force =     0.00044245   -0.00893512    0.10087165
     atom   33 type  2   force =    -0.00048591   -0.00013199   -0.00039856
     atom   34 type  2   force =    -0.00212580   -0.00026321   -0.07624354
     atom   35 type  2   force =    -0.00008207    0.00070209    0.00086042
     atom   36 type  2   force =    -0.00051359    0.00051997    0.00038570
     atom   37 type  1   force =     0.00043368    0.00061194   -0.00019973
     atom   38 type  1   force =    -0.00042433   -0.00067200   -0.00067032
     atom   39 type  2   force =     0.00044762   -0.00031047   -0.00042879
     atom   40 type  2   force =     0.00036752   -0.00062069   -0.00003011
     atom   41 type  2   force =     0.00026182    0.00048929   -0.00003610
     atom   42 type  2   force =    -0.00020432   -0.00018453    0.00011535
     atom   43 type  1   force =     0.00051522    0.00135026   -0.00096326
     atom   44 type  1   force =    -0.00025201   -0.00105876    0.00084440
     atom   45 type  2   force =     0.00009341   -0.00001832    0.09765823
     atom   46 type  2   force =    -0.08281805    0.00003631   -0.03317460
     atom   47 type  2   force =     0.08272582    0.00045506   -0.03318292
     atom   48 type  3   force =     0.00001769    0.00038954    0.00038101
     atom   49 type  3   force =    -0.00209752    0.00623083   -0.00618575
     atom   50 type  4   force =     0.00075066    0.00038239    0.00059480
     atom   51 type  5   force =    -0.00001140   -0.00029934   -0.00055967
     atom   52 type  5   force =     0.00009702    0.00091891   -0.00055021
     atom   53 type  5   force =    -0.00017775    0.00032781    0.00040049
     atom   54 type  5   force =     0.00034362   -0.00105302    0.00049484
     atom   55 type  5   force =     0.00273425   -0.00571939    0.00534675
     atom   56 type  5   force =    -0.00044829    0.00056336   -0.00024754
     atom   57 type  2   force =    -0.00182087   -0.00056993    0.00036419
     atom   58 type  5   force =     0.00154919   -0.00000424    0.00013033

     Total force =     0.420870     Total SCF correction =     0.000508
  @ DRIVER MODE: Message from server: STATUS
  @ DRIVER MODE: Message from server: GETFORCE
  @ DRIVER MODE: Returning v,forces,stress,ensemble

     Writing output data file ./calc.save/
  @ DRIVER MODE: Message from server: EXIT
  @ DRIVE MODE: Exiting

     General routines

     Parallel routines

   This run was terminated on:   8:51:11  23Sep2021

   JOB DONE.