     Program PWSCF v.6.7GPU starts on  2Aug2021 at 16:32:23

     R & G space division:  proc/nbgrp/npool/nimage =      16
     Reading input from /storage/home/hcoda1/3/ntian30/research/carbon/02Aug_vib_paired/ads_slab/CH3NNHH_a/out_0012/pw.inp
Warning: card &CELL ignored
Warning: card   CELL_DYNAMICS='IPI', ignored
Warning: card / ignored

     Current dimensions of program PWSCF are:
     Max number of different atomic species (ntypx) = 10
     Max number of k-points (npk) =  40000
     Max angular momentum in pseudopotentials (lmaxx) =  3
     Presently no symmetry can be used with electric field

     Message from routine cell_base_init:
     DEPRECATED: use true lattice parameter, not A to a.u. conversion factor

     IMPORTANT: XC functional enforced from input :
     Exchange-correlation= BEEF-VDW
                           (   1   4  43  14   2   0   0)
     Any further DFT definition will be discarded
     Please, verify this is what you really want

  @ DRIVER MODE: Connecting to
 qe_1139763_2482543.sched-torque.pace.gatech.edu528al0ut_scratch
  using UNIX socket
  @ DRIVER MODE: Message from server: STATUS
  @ DRIVER MODE: Message from server: INIT
  @ DRIVER MODE: Receiving replica           0          -1
  @ DRIVER MODE: Receiving encoded integer          25
  @ DRIVER MODE:  SCF:  T  FORCE:  T  STRESS:  F  VC:  F  ENSEMBLE:  F
  @ DRIVER MODE:  SCF:  T  FORCE:  T  STRESS:  F  VC:  F  ENSEMBLE:  F

     Using Slab Decomposition

     bravais-lattice index     =            0
     lattice parameter (alat)  =       1.8897  a.u.
     unit-cell volume          =    6658.9804 (a.u.)^3
     number of atoms/cell      =           55
     number of atomic types    =            5
     number of electrons       =       397.00
     number of Kohn-Sham states=          208
     kinetic-energy cutoff     =      29.3995  Ry
     charge density cutoff     =     293.9946  Ry
     scf convergence threshold =      7.3E-08
     mixing beta               =       0.0500
     number of iterations used =            8  plain     mixing
     Exchange-correlation= BEEF-VDW
                           (   1   4  43  14   2   0   0)

     celldm(1)=   1.889726  celldm(2)=   0.000000  celldm(3)=   0.000000
     celldm(4)=   0.000000  celldm(5)=   0.000000  celldm(6)=   0.000000

     crystal axes: (cart. coord. in units of alat)
               a(1) = (   6.579727   0.000000   0.000000 )
               a(2) = (  -0.000775   5.961596   0.000000 )
               a(3) = (   0.000000   0.000000  25.155947 )

     reciprocal axes: (cart. coord. in units 2 pi/alat)
               b(1) = (  0.151982  0.000020  0.000000 )
               b(2) = (  0.000000  0.167740  0.000000 )
               b(3) = (  0.000000  0.000000  0.039752 )

     PseudoPot. # 1 for Ti read from file:
     /storage/coda1/p-amedford6/0/shared/rich_project_chbe-medford/medford-share/data/pseudos_module/espresso/nninc/pbe/van/Ti.UPF
     MD5 check sum: 8e4df49b7f0d34bbd5052bf3f5ea0213
     Pseudo is Ultrasoft, Zval = 12.0
     Generated by new atomic code, or converted to UPF format
     Using radial grid of  851 points,  6 beta functions with:
                l(1) =   0
                l(2) =   0
                l(3) =   1
                l(4) =   1
                l(5) =   2
                l(6) =   2
     Q(r) pseudized with  8 coefficients,  rinner =    1.000   1.000   1.000
                                                       1.000   1.000

     PseudoPot. # 2 for O  read from file:
     /storage/coda1/p-amedford6/0/shared/rich_project_chbe-medford/medford-share/data/pseudos_module/espresso/nninc/pbe/van/O.UPF
     MD5 check sum: 78c19812648e8988a0fe644b0f25305e
     Pseudo is Ultrasoft, Zval =  6.0
     Generated by new atomic code, or converted to UPF format
     Using radial grid of  737 points,  4 beta functions with:
                l(1) =   0
                l(2) =   0
                l(3) =   1
                l(4) =   1
     Q(r) pseudized with  8 coefficients,  rinner =    0.800   0.800   0.800

     PseudoPot. # 3 for N  read from file:
     /storage/coda1/p-amedford6/0/shared/rich_project_chbe-medford/medford-share/data/pseudos_module/espresso/nninc/pbe/van/N.UPF
     MD5 check sum: 90d10febe142ad51ac9d5be1deb811c4
     Pseudo is Ultrasoft, Zval =  5.0
     Generated by new atomic code, or converted to UPF format
     Using radial grid of  729 points,  4 beta functions with:
                l(1) =   0
                l(2) =   0
                l(3) =   1
                l(4) =   1
     Q(r) pseudized with  8 coefficients,  rinner =    0.800   0.800   0.800

     PseudoPot. # 4 for C  read from file:
     /storage/coda1/p-amedford6/0/shared/rich_project_chbe-medford/medford-share/data/pseudos_module/espresso/nninc/pbe/van/C.UPF
     MD5 check sum: 1a69bf6b8db32088f5b2163dbdb77a27
     Pseudo is Ultrasoft, Zval =  4.0
     Generated by new atomic code, or converted to UPF format
     Using radial grid of  721 points,  4 beta functions with:
                l(1) =   0
                l(2) =   0
                l(3) =   1
                l(4) =   1
     Q(r) pseudized with  8 coefficients,  rinner =    0.800   0.800   0.800

     PseudoPot. # 5 for H  read from file:
     /storage/coda1/p-amedford6/0/shared/rich_project_chbe-medford/medford-share/data/pseudos_module/espresso/nninc/pbe/van/H.UPF
     MD5 check sum: b5ee9d7bfd3a09ee7748110bda690ff7
     Pseudo is Ultrasoft, Zval =  1.0
     Generated by new atomic code, or converted to UPF format
     Using radial grid of  615 points,  1 beta functions with:
                l(1) =   0
     Q(r) pseudized with  8 coefficients,  rinner =    0.800

     atomic species   valence    mass     pseudopotential
        Ti1           12.00    47.86700     Ti( 1.00)
        O1             6.00    15.99900     O ( 1.00)
        N1             5.00    14.00700     N ( 1.00)
        C1             4.00    12.01100     C ( 1.00)
        H1             1.00     1.00800     H ( 1.00)

     No symmetry found

   Cartesian axes

     site n.     atom                  positions (alat units)
         1           Ti1 tau(   1) = (   0.0004258   2.9801865   6.0000000  )
         2           Ti1 tau(   2) = (   3.2906075   1.4906267   6.0002472  )
         3           O1  tau(   3) = (   0.0006271   0.0005054   7.9858123  )
         4           O1  tau(   4) = (   3.2906025   0.0005020   7.3038282  )
         5           O1  tau(   5) = (   4.5942328   1.4918067   9.2879030  )
         6           O1  tau(   6) = (   1.9868534   1.4903216   9.2879459  )
         7           Ti1 tau(   7) = (   3.2907910   2.8959150   9.1758416  )
         8           Ti1 tau(   8) = (   0.0015273   1.4827037   9.2680791  )
         9           O1  tau(   9) = (   3.3049802   0.0007868  11.3057318  )
        10           O1  tau(  10) = (   0.0116148   5.9584955  10.6183126  )
        11           O1  tau(  11) = (   1.3244024   1.4905818  12.6109357  )
        12           O1  tau(  12) = (   5.3168099   1.4893704  12.6271843  )
        13           Ti1 tau(  13) = (   6.5373159   3.0114403  12.6515439  )
        14           Ti1 tau(  14) = (   3.2156784   1.4952808  12.4541107  )
        15           O1  tau(  15) = (   0.0550716   5.9579553  14.6769760  )
        16           O1  tau(  16) = (   3.3119233   0.0240268  13.8744051  )
        17           O1  tau(  17) = (   4.5754650   1.5399768  16.1198157  )
        18           O1  tau(  18) = (   2.0928293   1.5118261  15.9950610  )
        19           Ti1 tau(  19) = (   3.3312717   3.0210965  15.6459898  )
        20           Ti1 tau(  20) = (   0.0837956   1.4057146  15.8023643  )
        21           O1  tau(  21) = (   3.2904802   0.0005063   4.7018136  )
        22           O1  tau(  22) = (   0.0662678   0.0194342  17.2484716  )
        23           O1  tau(  23) = (   1.3043587   1.4918075   6.0039043  )
        24           O1  tau(  24) = (   5.2767064   1.4903225   6.0039473  )
        25           Ti1 tau(  25) = (   0.0000382   5.9609847   6.0000000  )
        26           Ti1 tau(  26) = (   3.2902200   4.4714249   6.0002472  )
        27           O1  tau(  27) = (   0.0002396   2.9813036   7.9858123  )
        28           O1  tau(  28) = (   3.2902150   2.9813002   7.3038282  )
        29           O1  tau(  29) = (   4.5938453   4.4726049   9.2879030  )
        30           O1  tau(  30) = (   1.9864658   4.4711199   9.2879459  )
        31           Ti1 tau(  31) = (   3.2891106   5.8743827   9.1763621  )
        32           Ti1 tau(  32) = (   0.0006254   4.4649316   9.2693709  )
        33           O1  tau(  33) = (   3.3066024   2.9928613  11.3071500  )
        34           O1  tau(  34) = (   0.0092240   2.9805883  10.6323155  )
        35           O1  tau(  35) = (   1.3207996   4.4694119  12.6241097  )
        36           O1  tau(  36) = (   5.3140488   4.4801720  12.6365454  )
        37           Ti1 tau(  37) = (   6.5381296   0.0208815  12.5444857  )
        38           Ti1 tau(  38) = (   3.2183512   4.4801350  12.4586296  )
        39           O1  tau(  39) = (   0.0202472   2.9427232  14.7250097  )
        40           O1  tau(  40) = (   3.3152672   2.9848540  13.8607131  )
        41           O1  tau(  41) = (   4.5737023   4.5140360  15.9163038  )
        42           O1  tau(  42) = (   2.1295162   4.4918226  16.0779194  )
        43           Ti1 tau(  43) = (   3.3279662   0.0229233  15.6733299  )
        44           Ti1 tau(  44) = (   6.5520288   4.5036137  16.2892914  )
        45           O1  tau(  45) = (   3.2900926   2.9813045   4.7018136  )
        46           O1  tau(  46) = (   1.3039711   4.4726057   6.0039043  )
        47           O1  tau(  47) = (   5.2763189   4.4711207   6.0039473  )
        48           N1  tau(  48) = (   0.3708600   2.9881754  17.6030774  )
        49           C1  tau(  49) = (   1.3543844   2.7351176  18.6531602  )
        50           H1  tau(  50) = (   1.5086739   3.6319226  19.2591966  )
        51           H1  tau(  51) = (   1.0320479   1.9069190  19.2840631  )
        52           H1  tau(  52) = (   2.3019873   2.4496563  18.1994378  )
        53           N1  tau(  53) = (   5.7269228   3.4566738  18.1314761  )
        54           H1  tau(  54) = (   5.8315057   4.0292447  18.9662490  )
        55           H1  tau(  55) = (   5.0361168   2.7172796  18.2515220  )

     number of k points=    10  Fermi-Dirac smearing, width (Ry)=  0.0073
                       cart. coord. in units 2pi/alat
        k(    1) = (   0.0000000   0.0000000   0.0000000), wk =   0.1250000
        k(    2) = (   0.0000000   0.0419351   0.0000000), wk =   0.2500000
        k(    3) = (   0.0000000  -0.0838702   0.0000000), wk =   0.1250000
        k(    4) = (   0.0379955   0.0000049   0.0000000), wk =   0.2500000
        k(    5) = (   0.0379955   0.0419400   0.0000000), wk =   0.2500000
        k(    6) = (   0.0379955  -0.0838652   0.0000000), wk =   0.2500000
        k(    7) = (   0.0379955  -0.0419301   0.0000000), wk =   0.2500000
        k(    8) = (  -0.0759910  -0.0000099   0.0000000), wk =   0.1250000
        k(    9) = (  -0.0759910   0.0419252   0.0000000), wk =   0.2500000
        k(   10) = (  -0.0759910  -0.0838800   0.0000000), wk =   0.1250000

     Initial potential from superposition of free atoms

     starting charge  380.99914, renormalised to  397.00000

     negative rho (up, down):  1.665E-02 0.000E+00

     %%%%%%%%%%%%%%%%%%%%%%%%%%%%%%%%%%%%%%%%%%%%%%%%%%%%%%%%%%%%%%%%%%%%%%%%
     %                                                                      %
     % You are using vdW-DF, which was implemented by the Thonhauser group. %
     % Please cite the following two papers that made this development      %
     % possible and the two reviews that describe the various versions:     %
     %                                                                      %
     %   T. Thonhauser et al., PRL 115, 136402 (2015).                      %
     %   T. Thonhauser et al., PRB 76, 125112 (2007).                       %
     %   K. Berland et al., Rep. Prog. Phys. 78, 066501 (2015).             %
     %   D.C. Langreth et al., J. Phys.: Condens. Matter 21, 084203 (2009). %
     %                                                                      %
     %                                                                      %
     % If you are calculating the stress with vdW-DF, please also cite:     %
     %                                                                      %
     %   R. Sabatini et al., J. Phys.: Condens. Matter 24, 424209 (2012).   %
     %                                                                      %
     %%%%%%%%%%%%%%%%%%%%%%%%%%%%%%%%%%%%%%%%%%%%%%%%%%%%%%%%%%%%%%%%%%%%%%%%

     Adding external electric field

     Computed dipole along edir(3) :
        Dipole               -9.2572 Ry au,        -23.5294 Debye
        Dipole field         -0.0175 Ry au,

        Potential amp.        1.6194 Ry
        Total length         46.3494 bohr

     Starting wfcs are  301 atomic wfcs
  @ DRIVER MODE: Message from server: STATUS
  @ DRIVER MODE: Message from server: POSDATA
  @ DRIVER MODE: Reading and sharing cell
  @ DRIVER MODE: Reading and sharing positions
  @ DRIVER MODE: Received positions

     Self-consistent Calculation

     iteration #  1     ecut=    29.40 Ry     beta= 0.05
     Davidson diagonalization with overlap
     c_bands:  1 eigenvalues not converged
     c_bands:  2 eigenvalues not converged
     c_bands:  1 eigenvalues not converged
     c_bands:  2 eigenvalues not converged
     c_bands:  2 eigenvalues not converged
     c_bands:  1 eigenvalues not converged
     c_bands:  2 eigenvalues not converged
     c_bands:  2 eigenvalues not converged
     c_bands:  4 eigenvalues not converged
     ethr =  1.00E-05,  avg # of iterations = 19.7

[...]

     total energy              =   -2525.56782087 Ry
     estimated scf accuracy    <    4612.99522607 Ry

     iteration #  2     ecut=    29.40 Ry     beta= 0.05
     Davidson diagonalization with overlap
     ethr =  1.00E-02,  avg # of iterations = 23.2

[...]

     iteration # 68     ecut=    29.40 Ry     beta= 0.05
     Davidson diagonalization with overlap
     ethr =  2.52E-11,  avg # of iterations =  1.7

[...]

     total energy              =   -2941.63735497 Ry
     estimated scf accuracy    <       0.00000009 Ry

     iteration # 69     ecut=    29.40 Ry     beta= 0.05
     Davidson diagonalization with overlap
     c_bands:  1 eigenvalues not converged
     ethr =  2.25E-11,  avg # of iterations =  8.5

     negative rho (up, down):  1.675E-02 0.000E+00

     Adding external electric field

     Computed dipole along edir(3) :
        Dipole                1.1548 Ry au,          2.9353 Debye
        Dipole field          0.0022 Ry au,

        Potential amp.       -0.2020 Ry
        Total length         46.3494 bohr

     End of self-consistent calculation

          k = 0.0000 0.0000 0.0000 ( 18029 PWs)   bands (ev):

   -55.5692 -55.5664 -55.5324 -55.5323 -55.4556 -55.4192 -55.4177 -55.3840
   -55.3668 -55.3327 -55.3215 -55.2877 -55.0288 -54.8844 -54.5329 -54.4989
   -32.1320 -32.0477 -31.9529 -31.8885 -31.8836 -31.8688 -31.8589 -31.8141
   -31.8069 -31.8006 -31.7801 -31.7550 -31.7512 -31.7218 -31.7187 -31.7111
   -31.6697 -31.6562 -31.6535 -31.6444 -31.6436 -31.6237 -31.6075 -31.5918
   -31.5649 -31.5639 -31.5623 -31.5544 -31.5519 -31.5254 -31.5018 -31.5009
   -31.4955 -31.4884 -31.4761 -31.4702 -31.4352 -31.3050 -31.2537 -31.1554
   -31.1372 -31.0450 -30.9392 -30.8527 -30.8302 -30.7563 -30.6699 -30.5585
   -17.5758 -16.3579 -16.0447 -15.8334 -15.7224 -15.7179 -15.6340 -15.4130
   -15.2929 -15.2774 -15.1612 -15.1563 -15.0977 -15.0569 -15.0504 -15.0447
   -15.0100 -14.9980 -14.9797 -14.9493 -14.9108 -14.8932 -14.8733 -14.7670
   -14.7052 -14.6953 -14.6789 -14.6126 -14.5687 -14.2047 -13.0349 -12.9188
   -12.5102  -9.2194  -6.3431  -5.0707  -4.1820  -3.7362  -3.5452  -3.4696
    -3.4350  -3.3947  -3.3690  -3.1794  -3.1712  -2.7931  -2.7723  -2.7532
    -2.7316  -2.7289  -2.4610  -2.4079  -2.3920  -2.3894  -2.3721  -2.3538
    -2.3328  -2.3221  -2.2936  -2.2875  -2.1517  -2.1073  -2.0283  -1.9979
    -1.9883  -1.8746  -1.8511  -1.8298  -1.8189  -1.8043  -1.7763  -1.7682
    -1.7480  -1.6387  -1.5304  -1.4570  -1.4116  -1.3576  -1.3425  -1.1584
    -1.1070  -1.0497  -1.0238  -0.9986  -0.9838  -0.9502  -0.8758  -0.8516
    -0.7101  -0.6718  -0.6191  -0.5930  -0.5620  -0.5065  -0.4713  -0.4437
    -0.3489  -0.3342  -0.3225  -0.3096  -0.2505  -0.0616  -0.0141   0.0039
     0.0196   0.1197   0.1591   0.1830   0.2185   0.2741   0.3005   0.3671
     0.3974   0.4169   0.4266   0.4508   0.4732   0.6048   0.6334   0.6622
     0.7215   0.7754   0.8525   0.9642   1.0500   1.1030   1.2042   1.4225
     1.4896   1.5736   1.6834   1.7038   2.0591   2.1041   3.5689   3.6591
     3.6975   3.7114   3.8184   3.8702   4.0177   4.0276   4.0703   4.0992

[...]

          k = 0.0380-0.0419 0.0000 ( 17876 PWs)   bands (ev):

[...]

          k =-0.0760-0.0000 0.0000 ( 17886 PWs)   bands (ev):

[...]

          k =-0.0760-0.0839 0.0000 ( 17948 PWs)   bands (ev):

   -55.5540 -55.5498 -55.5488 -55.5474 -55.4448 -55.4285 -55.4041 -55.3990
   -55.3512 -55.3478 -55.3063 -55.3031 -55.0273 -54.8858 -54.5158 -54.5158
   -31.9370 -31.9281 -31.8633 -31.8627 -31.8448 -31.8439 -31.8390 -31.8239
   -31.7971 -31.7834 -31.7638 -31.7451 -31.7170 -31.7084 -31.7031 -31.6782
   -31.6760 -31.6695 -31.6683 -31.6637 -31.6608 -31.6477 -31.6445 -31.6407
   -31.6215 -31.6093 -31.5992 -31.5974 -31.5485 -31.5463 -31.5392 -31.5374
   -31.5305 -31.5270 -31.5216 -31.5200 -31.4106 -31.3174 -31.2555 -31.2165
   -31.1428 -31.0569 -30.8429 -30.8428 -30.7521 -30.7520 -30.7132 -30.7130
   -17.5640 -15.8156 -15.7800 -15.5222 -15.5148 -15.5130 -15.4714 -15.3487
   -15.3001 -15.2734 -15.2620 -15.2431 -15.2367 -15.1319 -15.1193 -15.1020
   -15.0923 -15.0661 -15.0226 -15.0168 -15.0092 -14.9994 -14.9875 -14.9231
   -14.8681 -14.8643 -14.7556 -14.6612 -14.5187 -14.4349 -13.0208 -13.0205
   -12.5297  -9.1807  -6.3032  -5.0978  -4.1111  -3.4670  -3.1167  -3.0728
    -2.7842  -2.7650  -2.7512  -2.6349  -2.5147  -2.5060  -2.4811  -2.4583
    -2.4251  -2.4112  -2.4026  -2.3943  -2.3760  -2.3570  -2.3458  -2.3074
    -2.2384  -2.2312  -2.2231  -2.2132  -2.1967  -2.1729  -2.1630  -2.1348
    -2.1108  -2.0776  -2.0185  -1.9867  -1.8369  -1.7901  -1.7380  -1.6917
    -1.6835  -1.6542  -1.6207  -1.6131  -1.5060  -1.4918  -1.4547  -1.3257
    -1.2636  -1.2559  -1.2232  -1.1380  -1.0987  -0.9693  -0.9570  -0.9207
    -0.8674  -0.8554  -0.8185  -0.7810  -0.7280  -0.6769  -0.6324  -0.6087
    -0.5935  -0.5201  -0.5194  -0.4738  -0.4156  -0.3478  -0.3225  -0.3149
    -0.2835  -0.2397  -0.1935  -0.1285  -0.0541  -0.0337  -0.0181   0.0797
     0.1556   0.3722   0.4174   0.5195   0.5389   0.5648   0.6273   0.6762
     0.7456   0.7596   0.7890   0.8631   0.8854   0.9758   0.9864   1.0030
     1.1814   1.6367   1.8551   1.8560   1.9237   1.9243   3.8630   3.8766
     3.9027   3.9267   4.0881   4.0919   4.1040   4.1067   4.2271   4.2576

     the Fermi energy is     3.5676 ev

!    total energy              =   -2941.63737424 Ry
     estimated scf accuracy    <       0.00000005 Ry
     smearing contrib. (-TS)   =      -0.02170626 Ry
     internal energy E=F+TS    =   -2941.61566798 Ry

     The total energy is F=E-TS. E is the sum of the following terms:
     one-electron contribution =  -24403.34710396 Ry
     hartree contribution      =   12293.66120705 Ry
     xc contribution           =    -486.94409269 Ry
     ewald contribution        =    9655.01180482 Ry
     electric field correction =       0.00251680 Ry

     convergence has been achieved in  69 iterations

     Forces acting on atoms (cartesian axes, Ry/au):

     atom    1 type  1   force =     0.00002120   -0.00019014    0.09684050
     atom    2 type  1   force =     0.00010645   -0.00067294   -0.17454507
     atom    3 type  2   force =     0.00019976   -0.00005039   -0.02507610
     atom    4 type  2   force =     0.00001401   -0.00121941    0.05108156
     atom    5 type  2   force =    -0.01107617   -0.00078557    0.00212549
     atom    6 type  2   force =     0.01302744   -0.00028500    0.00280265
     atom    7 type  1   force =     0.00113780    0.00019651   -0.01336863
     atom    8 type  1   force =    -0.00018659    0.01540853    0.02796528
     atom    9 type  2   force =    -0.00011574    0.00044998    0.00001876
     atom   10 type  2   force =    -0.00221813    0.00097914   -0.01127925
     atom   11 type  2   force =     0.00029292   -0.00011382    0.00016958
     atom   12 type  2   force =    -0.00025280   -0.00012180    0.00039761
     atom   13 type  1   force =    -0.00008293   -0.00027651    0.00009458
     atom   14 type  1   force =     0.00012361    0.00013445   -0.00004899
     atom   15 type  2   force =     0.00011146   -0.00053148   -0.00031642
     atom   16 type  2   force =    -0.00044413    0.00017306    0.00028623
     atom   17 type  2   force =    -0.00018048   -0.00004694   -0.00009083
     atom   18 type  2   force =    -0.00034347    0.00002285    0.00029500
     atom   19 type  1   force =    -0.00004735    0.00038765   -0.00020915
     atom   20 type  1   force =    -0.00025498    0.00005823    0.00036269
     atom   21 type  2   force =     0.00004930   -0.00009507    0.10296485
     atom   22 type  2   force =    -0.00074692   -0.00039732    0.00045844
     atom   23 type  2   force =    -0.07182202   -0.00022078   -0.02778978
     atom   24 type  2   force =     0.07178959    0.00023326   -0.02784621
     atom   25 type  1   force =     0.00004689   -0.00022506    0.09638158
     atom   26 type  1   force =    -0.00001459   -0.00030348   -0.17480838
     atom   27 type  2   force =     0.00020264   -0.00025342   -0.02391868
     atom   28 type  2   force =     0.00007568   -0.00096616    0.05130584
     atom   29 type  2   force =    -0.01107510    0.00095971    0.00148918
     atom   30 type  2   force =     0.01287846    0.00120263    0.00211927
     atom   31 type  1   force =     0.00115180    0.00257130   -0.01568007
     atom   32 type  1   force =    -0.00001961   -0.01668460    0.02888495
     atom   33 type  2   force =    -0.00017890   -0.00045188    0.00044239
     atom   34 type  2   force =    -0.00258469    0.00114505   -0.01891742
     atom   35 type  2   force =    -0.00011147   -0.00010924    0.00003883
     atom   36 type  2   force =    -0.00002516   -0.00018780    0.00022625
     atom   37 type  1   force =    -0.00024558   -0.00016531    0.00048435
     atom   38 type  1   force =     0.00010123   -0.00053667    0.00034469
     atom   39 type  2   force =     0.00005232    0.00046020    0.00025370
     atom   40 type  2   force =    -0.00032199   -0.00013535   -0.00070535
     atom   41 type  2   force =     0.00015846    0.00002711    0.00004438
     atom   42 type  2   force =    -0.00008341    0.00023397    0.00019219
     atom   43 type  1   force =     0.00006243   -0.00048371   -0.00081493
     atom   44 type  1   force =    -0.00038394    0.00126368   -0.00002941
     atom   45 type  2   force =     0.00006123   -0.00011286    0.10296604
     atom   46 type  2   force =    -0.07184336   -0.00016399   -0.02780218
     atom   47 type  2   force =     0.07179948    0.00021771   -0.02784840
     atom   48 type  3   force =     0.00254943   -0.00194234    0.00561993
     atom   49 type  4   force =     0.00292540    0.00020730   -0.01771513
     atom   50 type  5   force =     0.00048236    0.00386979    0.00445709
     atom   51 type  5   force =    -0.00271966   -0.00455413    0.00443928
     atom   52 type  5   force =    -0.00212970    0.00074670    0.00362388
     atom   53 type  3   force =    -0.00027791    0.00060545    0.00039693
     atom   54 type  5   force =     0.00045877   -0.00022105    0.00097890
     atom   55 type  5   force =    -0.00009330    0.00094999   -0.00174249

     Total force =     0.367714     Total SCF correction =     0.000486
  @ DRIVER MODE: Message from server: STATUS
  @ DRIVER MODE: Message from server: GETFORCE
  @ DRIVER MODE: Returning v,forces,stress,ensemble

     Writing output data file ./calc.save/
  @ DRIVER MODE: Message from server: EXIT
  @ DRIVE MODE: Exiting

     General routines

     Parallel routines

   This run was terminated on:  16:46:30   2Aug2021

   JOB DONE.