     Program PWSCF v.6.7GPU starts on 24Aug2021 at  0:20:25

     R & G space division:  proc/nbgrp/npool/nimage =       6
     Reading input from /storage/home/hcoda1/3/ntian30/research/carbon/CH_vib/ads_slab/CHNNH3_a/out_0023/pw.inp
Warning: card &CELL ignored
Warning: card   CELL_DYNAMICS='IPI', ignored
Warning: card / ignored

     Current dimensions of program PWSCF are:
     Max number of different atomic species (ntypx) = 10
     Max number of k-points (npk) =  40000
     Max angular momentum in pseudopotentials (lmaxx) =  3
     Presently no symmetry can be used with electric field

     Message from routine cell_base_init:
     DEPRECATED: use true lattice parameter, not A to a.u. conversion factor

     IMPORTANT: XC functional enforced from input :
     Exchange-correlation= BEEF-VDW
                           (   1   4  43  14   2   0   0)
     Any further DFT definition will be discarded
     Please, verify this is what you really want

  @ DRIVER MODE: Connecting to
 qe_1139763_2632800.sched-torque.pace.gatech.edul6uw829n_scratch
  using UNIX socket
  @ DRIVER MODE: Message from server: STATUS
  @ DRIVER MODE: Message from server: INIT
  @ DRIVER MODE: Receiving replica           0          -1
  @ DRIVER MODE: Receiving encoded integer          25
  @ DRIVER MODE:  SCF:  T  FORCE:  T  STRESS:  F  VC:  F  ENSEMBLE:  F
  @ DRIVER MODE:  SCF:  T  FORCE:  T  STRESS:  F  VC:  F  ENSEMBLE:  F

     Using Slab Decomposition

     bravais-lattice index     =            0
     lattice parameter (alat)  =       1.8897  a.u.
     unit-cell volume          =    6658.9804 (a.u.)^3
     number of atoms/cell      =           54
     number of atomic types    =            5
     number of electrons       =       396.00
     number of Kohn-Sham states=          208
     kinetic-energy cutoff     =      29.3995  Ry
     charge density cutoff     =     293.9946  Ry
     scf convergence threshold =      7.3E-08
     mixing beta               =       0.0500
     number of iterations used =            8  plain     mixing
     Exchange-correlation= BEEF-VDW
                           (   1   4  43  14   2   0   0)

     celldm(1)=   1.889726  celldm(2)=   0.000000  celldm(3)=   0.000000
     celldm(4)=   0.000000  celldm(5)=   0.000000  celldm(6)=   0.000000

     crystal axes: (cart. coord. in units of alat)
               a(1) = (   6.579727   0.000000   0.000000 )
               a(2) = (  -0.000775   5.961596   0.000000 )
               a(3) = (   0.000000   0.000000  25.155947 )

     reciprocal axes: (cart. coord. in units 2 pi/alat)
               b(1) = (  0.151982  0.000020  0.000000 )
               b(2) = (  0.000000  0.167740  0.000000 )
               b(3) = (  0.000000  0.000000  0.039752 )

     PseudoPot. # 1 for Ti read from file:
     /storage/coda1/p-amedford6/0/shared/rich_project_chbe-medford/medford-share/data/pseudos_module/espresso/nninc/pbe/van/Ti.UPF
     MD5 check sum: 8e4df49b7f0d34bbd5052bf3f5ea0213
     Pseudo is Ultrasoft, Zval = 12.0
     Generated by new atomic code, or converted to UPF format
     Using radial grid of  851 points,  6 beta functions with:
                l(1) =   0
                l(2) =   0
                l(3) =   1
                l(4) =   1
                l(5) =   2
                l(6) =   2
     Q(r) pseudized with  8 coefficients,  rinner =    1.000   1.000   1.000
                                                       1.000   1.000

     PseudoPot. # 2 for O  read from file:
     /storage/coda1/p-amedford6/0/shared/rich_project_chbe-medford/medford-share/data/pseudos_module/espresso/nninc/pbe/van/O.UPF
     MD5 check sum: 78c19812648e8988a0fe644b0f25305e
     Pseudo is Ultrasoft, Zval =  6.0
     Generated by new atomic code, or converted to UPF format
     Using radial grid of  737 points,  4 beta functions with:
                l(1) =   0
                l(2) =   0
                l(3) =   1
                l(4) =   1
     Q(r) pseudized with  8 coefficients,  rinner =    0.800   0.800   0.800

     PseudoPot. # 3 for N  read from file:
     /storage/coda1/p-amedford6/0/shared/rich_project_chbe-medford/medford-share/data/pseudos_module/espresso/nninc/pbe/van/N.UPF
     MD5 check sum: 90d10febe142ad51ac9d5be1deb811c4
     Pseudo is Ultrasoft, Zval =  5.0
     Generated by new atomic code, or converted to UPF format
     Using radial grid of  729 points,  4 beta functions with:
                l(1) =   0
                l(2) =   0
                l(3) =   1
                l(4) =   1
     Q(r) pseudized with  8 coefficients,  rinner =    0.800   0.800   0.800

     PseudoPot. # 4 for C  read from file:
     /storage/coda1/p-amedford6/0/shared/rich_project_chbe-medford/medford-share/data/pseudos_module/espresso/nninc/pbe/van/C.UPF
     MD5 check sum: 1a69bf6b8db32088f5b2163dbdb77a27
     Pseudo is Ultrasoft, Zval =  4.0
     Generated by new atomic code, or converted to UPF format
     Using radial grid of  721 points,  4 beta functions with:
                l(1) =   0
                l(2) =   0
                l(3) =   1
                l(4) =   1
     Q(r) pseudized with  8 coefficients,  rinner =    0.800   0.800   0.800

     PseudoPot. # 5 for H  read from file:
     /storage/coda1/p-amedford6/0/shared/rich_project_chbe-medford/medford-share/data/pseudos_module/espresso/nninc/pbe/van/H.UPF
     MD5 check sum: b5ee9d7bfd3a09ee7748110bda690ff7
     Pseudo is Ultrasoft, Zval =  1.0
     Generated by new atomic code, or converted to UPF format
     Using radial grid of  615 points,  1 beta functions with:
                l(1) =   0
     Q(r) pseudized with  8 coefficients,  rinner =    0.800

     atomic species   valence    mass     pseudopotential
        Ti1           12.00    47.86700     Ti( 1.00)
        O1             6.00    15.99900     O ( 1.00)
        N1             5.00    14.00700     N ( 1.00)
        C1             4.00    12.01100     C ( 1.00)
        H1             1.00     1.00800     H ( 1.00)

     No symmetry found

   Cartesian axes

     site n.     atom                  positions (alat units)
         1           Ti1 tau(   1) = (   0.0004258   2.9801865   6.0000000  )
         2           Ti1 tau(   2) = (   3.2906075   1.4906267   6.0002472  )
         3           O1  tau(   3) = (   0.0006271   0.0005054   7.9858123  )
         4           O1  tau(   4) = (   3.2906025   0.0005020   7.3038282  )
         5           O1  tau(   5) = (   4.5942328   1.4918067   9.2879030  )
         6           O1  tau(   6) = (   1.9868534   1.4903216   9.2879459  )
         7           Ti1 tau(   7) = (   3.2907910   2.8959150   9.1758416  )
         8           Ti1 tau(   8) = (   0.0015273   1.4827037   9.2680791  )
         9           O1  tau(   9) = (   3.2881108   5.9505233  11.3735460  )
        10           O1  tau(  10) = (   0.0116148   5.9584955  10.6183126  )
        11           O1  tau(  11) = (   1.2866665   1.4805866  12.6825740  )
        12           O1  tau(  12) = (   5.2924821   1.4818622  12.6792165  )
        13           Ti1 tau(  13) = (   0.0021322   2.9639872  12.5157261  )
        14           Ti1 tau(  14) = (   3.2862601   1.4710115  12.5283183  )
        15           O1  tau(  15) = (   6.5551702   5.8950557  14.7042857  )
        16           O1  tau(  16) = (   3.2890300   5.9388001  13.9877656  )
        17           O1  tau(  17) = (   4.5349758   1.4880922  16.1718967  )
        18           O1  tau(  18) = (   2.0258431   1.4790072  16.1496753  )
        19           Ti1 tau(  19) = (   3.2732025   2.9690136  15.7622034  )
        20           Ti1 tau(  20) = (   6.5610264   1.3286824  15.8731419  )
        21           O1  tau(  21) = (   3.2904802   0.0005063   4.7018136  )
        22           O1  tau(  22) = (   6.5785393   0.0648448  17.2431192  )
        23           O1  tau(  23) = (   1.3043587   1.4918075   6.0039043  )
        24           O1  tau(  24) = (   5.2767064   1.4903225   6.0039473  )
        25           Ti1 tau(  25) = (   0.0000382   5.9609847   6.0000000  )
        26           Ti1 tau(  26) = (   3.2902200   4.4714249   6.0002472  )
        27           O1  tau(  27) = (   0.0002396   2.9813036   7.9858123  )
        28           O1  tau(  28) = (   3.2902150   2.9813002   7.3038282  )
        29           O1  tau(  29) = (   4.5938453   4.4726049   9.2879030  )
        30           O1  tau(  30) = (   1.9864658   4.4711199   9.2879459  )
        31           Ti1 tau(  31) = (   3.2891106   5.8743827   9.1763621  )
        32           Ti1 tau(  32) = (   0.0006254   4.4649316   9.2693709  )
        33           O1  tau(  33) = (   3.2883663   2.9615298  11.3703760  )
        34           O1  tau(  34) = (   0.0092240   2.9805883  10.6323155  )
        35           O1  tau(  35) = (   1.2870507   4.4533538  12.6624524  )
        36           O1  tau(  36) = (   5.2892318   4.4513974  12.6520950  )
        37           Ti1 tau(  37) = (   6.5724215   5.9362995  12.5032772  )
        38           Ti1 tau(  38) = (   3.2850067   4.4496593  12.5237361  )
        39           O1  tau(  39) = (   6.5755915   2.9911963  14.9688396  )
        40           O1  tau(  40) = (   3.2879019   2.9755095  13.9706832  )
        41           O1  tau(  41) = (   4.5370027   4.4458050  16.2043726  )
        42           O1  tau(  42) = (   2.0318725   4.4540161  16.1993262  )
        43           Ti1 tau(  43) = (   3.2771836   5.9440081  15.7837661  )
        44           Ti1 tau(  44) = (   6.5399960   4.5546841  16.0715688  )
        45           O1  tau(  45) = (   3.2900926   2.9813045   4.7018136  )
        46           O1  tau(  46) = (   1.3039711   4.4726057   6.0039043  )
        47           O1  tau(  47) = (   5.2763189   4.4711207   6.0039473  )
        48           N1  tau(  48) = (   0.1065663   3.2111123  17.9981644  )
        49           C1  tau(  49) = (   0.5134299   2.5375629  18.8400175  )
        50           H1  tau(  50) = (   1.0173682   1.8396193  19.5020221  )
        51           N1  tau(  51) = (   2.4304062   0.3108210  19.4419584  )
        52           H1  tau(  52) = (   3.2527645   0.6626300  18.9680575  )
        53           H1  tau(  53) = (   1.8610457   5.7841108  18.7610151  )
        54           H1  tau(  54) = (   2.7602249   5.5844085  20.1185638  )

     number of k points=    10  Fermi-Dirac smearing, width (Ry)=  0.0073
                       cart. coord. in units 2pi/alat
        k(    1) = (   0.0000000   0.0000000   0.0000000), wk =   0.1250000
        k(    2) = (   0.0000000   0.0419351   0.0000000), wk =   0.2500000
        k(    3) = (   0.0000000  -0.0838702   0.0000000), wk =   0.1250000
        k(    4) = (   0.0379955   0.0000049   0.0000000), wk =   0.2500000
        k(    5) = (   0.0379955   0.0419400   0.0000000), wk =   0.2500000
        k(    6) = (   0.0379955  -0.0838652   0.0000000), wk =   0.2500000
        k(    7) = (   0.0379955  -0.0419301   0.0000000), wk =   0.2500000
        k(    8) = (  -0.0759910  -0.0000099   0.0000000), wk =   0.1250000
        k(    9) = (  -0.0759910   0.0419252   0.0000000), wk =   0.2500000
        k(   10) = (  -0.0759910  -0.0838800   0.0000000), wk =   0.1250000

     Initial potential from superposition of free atoms

     starting charge  379.99915, renormalised to  396.00000

     negative rho (up, down):  1.529E-02 0.000E+00

     %%%%%%%%%%%%%%%%%%%%%%%%%%%%%%%%%%%%%%%%%%%%%%%%%%%%%%%%%%%%%%%%%%%%%%%%
     %                                                                      %
     % You are using vdW-DF, which was implemented by the Thonhauser group. %
     % Please cite the following two papers that made this development      %
     % possible and the two reviews that describe the various versions:     %
     %                                                                      %
     %   T. Thonhauser et al., PRL 115, 136402 (2015).                      %
     %   T. Thonhauser et al., PRB 76, 125112 (2007).                       %
     %   K. Berland et al., Rep. Prog. Phys. 78, 066501 (2015).             %
     %   D.C. Langreth et al., J. Phys.: Condens. Matter 21, 084203 (2009). %
     %                                                                      %
     %                                                                      %
     % If you are calculating the stress with vdW-DF, please also cite:     %
     %                                                                      %
     %   R. Sabatini et al., J. Phys.: Condens. Matter 24, 424209 (2012).   %
     %                                                                      %
     %%%%%%%%%%%%%%%%%%%%%%%%%%%%%%%%%%%%%%%%%%%%%%%%%%%%%%%%%%%%%%%%%%%%%%%%

     Adding external electric field

     Computed dipole along edir(3) :
        Dipole              -10.1977 Ry au,        -25.9199 Debye
        Dipole field         -0.0192 Ry au,

        Potential amp.        1.7839 Ry
        Total length         46.3494 bohr

     Starting wfcs are  300 atomic wfcs
  @ DRIVER MODE: Message from server: STATUS
  @ DRIVER MODE: Message from server: POSDATA
  @ DRIVER MODE: Reading and sharing cell
  @ DRIVER MODE: Reading and sharing positions
  @ DRIVER MODE: Received positions

     Self-consistent Calculation

     iteration #  1     ecut=    29.40 Ry     beta= 0.05
     Davidson diagonalization with overlap
     c_bands:  1 eigenvalues not converged
     c_bands:  2 eigenvalues not converged
     c_bands:  2 eigenvalues not converged
     c_bands:  1 eigenvalues not converged
     c_bands:  2 eigenvalues not converged
     c_bands:  2 eigenvalues not converged
     c_bands:  2 eigenvalues not converged
     c_bands:  3 eigenvalues not converged
     c_bands:  2 eigenvalues not converged
     c_bands:  1 eigenvalues not converged
     ethr =  1.00E-05,  avg # of iterations = 20.0

[...]

     total energy              =   -2543.54750141 Ry
     estimated scf accuracy    <    4454.97744941 Ry

     iteration #  2     ecut=    29.40 Ry     beta= 0.05
     Davidson diagonalization with overlap
     ethr =  1.00E-02,  avg # of iterations = 28.4

[...]

     iteration # 76     ecut=    29.40 Ry     beta= 0.05
     Davidson diagonalization with overlap
     c_bands:  1 eigenvalues not converged
     ethr =  8.16E-11,  avg # of iterations = 13.5

[...]

     total energy              =   -2940.42000506 Ry
     estimated scf accuracy    <       0.00000008 Ry

     iteration # 79     ecut=    29.40 Ry     beta= 0.05
     Davidson diagonalization with overlap
     ethr =  1.95E-11,  avg # of iterations =  3.7

     negative rho (up, down):  1.581E-02 0.000E+00

     Adding external electric field

     Computed dipole along edir(3) :
        Dipole                1.3125 Ry au,          3.3361 Debye
        Dipole field          0.0025 Ry au,

        Potential amp.       -0.2296 Ry
        Total length         46.3494 bohr

     End of self-consistent calculation

          k = 0.0000 0.0000 0.0000 ( 18029 PWs)   bands (ev):

   -55.3684 -55.3324 -55.3203 -55.2862 -55.2446 -55.2389 -55.2139 -55.2098
   -55.1859 -55.1691 -55.1516 -55.1496 -55.1160 -55.0848 -54.3477 -54.3136
   -31.9360 -31.8126 -31.8022 -31.7326 -31.6784 -31.6754 -31.6678 -31.6549
   -31.6093 -31.5991 -31.5768 -31.5690 -31.5649 -31.5381 -31.5233 -31.5173
   -31.5046 -31.4935 -31.4830 -31.4805 -31.4728 -31.4582 -31.4340 -31.4227
   -31.4225 -31.4165 -31.3884 -31.3883 -31.3775 -31.3753 -31.3677 -31.3486
   -31.3469 -31.3414 -31.3357 -31.3336 -31.2998 -31.2861 -31.2836 -31.2776
   -31.2606 -31.2087 -30.7570 -30.6630 -30.6410 -30.5734 -30.4866 -30.3757
   -16.9949 -16.1898 -15.9221 -15.7746 -15.6629 -15.5634 -15.4401 -15.4210
   -15.2900 -15.2021 -15.0821 -15.0383 -15.0154 -15.0017 -14.9865 -14.9802
   -14.9089 -14.9038 -14.8844 -14.8787 -14.8604 -14.8462 -14.8045 -14.8024
   -14.7623 -14.7417 -14.6919 -14.6043 -14.5230 -14.4541 -14.1608 -12.8502
   -12.7328  -8.1806  -4.9804  -4.9584  -4.3213  -3.5304  -3.3809  -3.2840
    -3.2654  -3.2597  -3.1163  -3.0682  -2.9599  -2.8766  -2.7589  -2.6955
    -2.6209  -2.5688  -2.5550  -2.5368  -2.3609  -2.3281  -2.2853  -2.2387
    -2.2074  -2.1732  -2.1519  -2.1246  -2.1119  -2.1054  -2.0724  -1.9287
    -1.8878  -1.8380  -1.7875  -1.7640  -1.7078  -1.6901  -1.6532  -1.6469
    -1.6415  -1.5959  -1.5768  -1.5474  -1.4560  -1.3885  -1.2735  -1.2155
    -1.0743  -1.0033  -0.9489  -0.9351  -0.8534  -0.8501  -0.8229  -0.7456
    -0.7384  -0.7056  -0.5846  -0.4858  -0.4489  -0.3980  -0.3495  -0.3209
    -0.2792  -0.1938  -0.1435  -0.1304  -0.1205  -0.0170   0.0282   0.0398
     0.1146   0.1601   0.1767   0.1819   0.2958   0.3098   0.3761   0.4251
     0.4547   0.5233   0.5715   0.5759   0.5859   0.6209   0.6225   0.7138
     0.7352   0.7437   0.8181   0.9636   1.1834   1.2398   1.2478   1.5816
     1.5837   1.6751   1.8589   2.2510   2.2991   3.7303   3.8025   3.8758
     3.8825   3.9076   3.9681   4.2069   4.2108   4.2342   4.2359   4.2646

[...]

          k = 0.0380-0.0419 0.0000 ( 17876 PWs)   bands (ev):

[...]

          k =-0.0760-0.0000 0.0000 ( 17886 PWs)   bands (ev):

[...]

          k =-0.0760-0.0839 0.0000 ( 17948 PWs)   bands (ev):

   -55.3518 -55.3487 -55.3033 -55.3031 -55.2342 -55.2299 -55.2246 -55.2114
   -55.1735 -55.1696 -55.1675 -55.1333 -55.1325 -55.0873 -54.3307 -54.3305
   -31.7408 -31.7383 -31.7225 -31.6438 -31.6277 -31.6276 -31.6221 -31.5946
   -31.5945 -31.5749 -31.5683 -31.5639 -31.5554 -31.5075 -31.5027 -31.5006
   -31.4995 -31.4990 -31.4931 -31.4883 -31.4662 -31.4626 -31.4422 -31.4406
   -31.4392 -31.4345 -31.4233 -31.4230 -31.4228 -31.4170 -31.4024 -31.4005
   -31.3968 -31.3828 -31.3804 -31.3648 -31.3622 -31.3617 -31.3138 -31.3133
   -31.3003 -31.2914 -30.6537 -30.6535 -30.5695 -30.5694 -30.5300 -30.5299
   -16.9872 -15.6956 -15.5936 -15.5749 -15.3831 -15.3667 -15.3351 -15.3311
   -15.1794 -15.1500 -15.1425 -15.1250 -15.0764 -15.0686 -15.0629 -15.0517
   -14.9722 -14.9613 -14.9591 -14.9420 -14.8820 -14.8809 -14.8710 -14.8679
   -14.8581 -14.8159 -14.8122 -14.7185 -14.7155 -14.6304 -14.5237 -12.8343
   -12.8342  -8.1824  -4.9901  -4.9473  -4.3203  -2.9966  -2.8935  -2.8515
    -2.8390  -2.7999  -2.5950  -2.5627  -2.5343  -2.4775  -2.4100  -2.3684
    -2.3579  -2.3380  -2.2784  -2.2299  -2.2253  -2.2073  -2.1871  -2.1853
    -2.1618  -2.1344  -2.0943  -2.0841  -2.0650  -2.0468  -2.0181  -1.9988
    -1.9702  -1.9518  -1.9296  -1.9230  -1.8140  -1.8001  -1.7237  -1.6896
    -1.6333  -1.5702  -1.5651  -1.4679  -1.4606  -1.4039  -1.3944  -1.3773
    -1.2586  -1.1728  -1.1187  -1.1078  -1.1002  -0.9890  -0.9386  -0.9084
    -0.8737  -0.8506  -0.7724  -0.7092  -0.6890  -0.6487  -0.5730  -0.5631
    -0.5032  -0.3903  -0.3605  -0.3398  -0.3227  -0.3171  -0.2633  -0.2516
    -0.1786  -0.1327  -0.0987  -0.0883  -0.0522  -0.0114   0.1583   0.1703
     0.2108   0.3257   0.3852   0.4993   0.5740   0.5885   0.6682   0.7030
     0.7466   0.8070   0.8982   0.9396   0.9441   1.0228   1.0484   1.0909
     1.0990   2.0321   2.0324   2.1191   2.1192   3.8685   3.9820   3.9916
     4.0382   4.1379   4.1626   4.2498   4.2691   4.3159   4.3176   4.3861

     the Fermi energy is     3.7930 ev

!    total energy              =   -2940.42001249 Ry
     estimated scf accuracy    <       0.00000007 Ry
     smearing contrib. (-TS)   =      -0.03734296 Ry
     internal energy E=F+TS    =   -2940.38266953 Ry

     The total energy is F=E-TS. E is the sum of the following terms:
     one-electron contribution =  -23619.51975975 Ry
     hartree contribution      =   11901.63262864 Ry
     xc contribution           =    -485.97799090 Ry
     ewald contribution        =    9263.47920155 Ry
     electric field correction =       0.00325094 Ry

     convergence has been achieved in  79 iterations

     Forces acting on atoms (cartesian axes, Ry/au):

     atom    1 type  1   force =     0.00014465   -0.00016057    0.09344546
     atom    2 type  1   force =    -0.00006043   -0.00032626   -0.17810845
     atom    3 type  2   force =     0.00009506   -0.00033403   -0.02051559
     atom    4 type  2   force =     0.00002691   -0.00189876    0.05841743
     atom    5 type  2   force =    -0.01038240   -0.00109006    0.00772289
     atom    6 type  2   force =     0.01183515   -0.00047858    0.00667868
     atom    7 type  1   force =    -0.00029062    0.00213450   -0.01418976
     atom    8 type  1   force =     0.00033654    0.00049459   -0.00324586
     atom    9 type  2   force =    -0.00006748    0.00009213   -0.00002511
     atom   10 type  2   force =    -0.00246731    0.00081940    0.00005969
     atom   11 type  2   force =    -0.00017428   -0.00028712    0.00029763
     atom   12 type  2   force =    -0.00012163   -0.00014036   -0.00056109
     atom   13 type  1   force =    -0.00001328   -0.00006729   -0.00000603
     atom   14 type  1   force =     0.00009123    0.00018216    0.00008616
     atom   15 type  2   force =     0.00029467    0.00005090   -0.00025077
     atom   16 type  2   force =     0.00028150   -0.00000463   -0.00005095
     atom   17 type  2   force =     0.00018483   -0.00014954   -0.00048635
     atom   18 type  2   force =     0.00021072    0.00035084   -0.00009776
     atom   19 type  1   force =    -0.00005270    0.00004657   -0.00009537
     atom   20 type  1   force =    -0.00060739    0.00031892   -0.00026931
     atom   21 type  2   force =     0.00010270    0.00000185    0.10392864
     atom   22 type  2   force =     0.00039187    0.00046590    0.00012368
     atom   23 type  2   force =    -0.07039983   -0.00011402   -0.02695709
     atom   24 type  2   force =     0.07038044    0.00035357   -0.02700691
     atom   25 type  1   force =     0.00020477   -0.00015686    0.09275739
     atom   26 type  1   force =    -0.00009568   -0.00029775   -0.17831375
     atom   27 type  2   force =     0.00012719   -0.00023868   -0.01951352
     atom   28 type  2   force =     0.00007402   -0.00167591    0.05799950
     atom   29 type  2   force =    -0.01079348   -0.00122362    0.00799584
     atom   30 type  2   force =     0.01213444   -0.00083827    0.00703557
     atom   31 type  1   force =    -0.00035477    0.00574266   -0.01492668
     atom   32 type  1   force =     0.00038634   -0.00106964   -0.00337700
     atom   33 type  2   force =    -0.00030988    0.00005322   -0.00020672
     atom   34 type  2   force =    -0.00155352   -0.00229606    0.00038644
     atom   35 type  2   force =    -0.00007473    0.00013805   -0.00003612
     atom   36 type  2   force =     0.00009406    0.00010392    0.00012086
     atom   37 type  1   force =     0.00024941   -0.00002310   -0.00004843
     atom   38 type  1   force =     0.00005023    0.00014321   -0.00014607
     atom   39 type  2   force =     0.00009945    0.00017508    0.00009437
     atom   40 type  2   force =     0.00014525    0.00001503   -0.00003663
     atom   41 type  2   force =    -0.00001020    0.00017807    0.00002895
     atom   42 type  2   force =     0.00038455   -0.00001189    0.00016220
     atom   43 type  1   force =    -0.00030571    0.00021744    0.00039795
     atom   44 type  1   force =    -0.00019164   -0.00025286   -0.00016922
     atom   45 type  2   force =     0.00009683   -0.00002096    0.10386381
     atom   46 type  2   force =    -0.07039512   -0.00004805   -0.02693690
     atom   47 type  2   force =     0.07035286    0.00036807   -0.02696652
     atom   48 type  3   force =    -0.00102405    0.00063664   -0.00012836
     atom   49 type  4   force =     0.00048242    0.00047398    0.00026188
     atom   50 type  5   force =     0.00027899   -0.00032405   -0.00021717
     atom   51 type  3   force =     0.00242683   -0.00450433    0.02015082
     atom   52 type  5   force =     0.00517560    0.00172618   -0.00528701
     atom   53 type  5   force =    -0.00372692   -0.00320504   -0.00807236
     atom   54 type  5   force =    -0.00366645    0.00595539   -0.00576694

     Total force =     0.366950     Total SCF correction =     0.000980
  @ DRIVER MODE: Message from server: STATUS
  @ DRIVER MODE: Message from server: GETFORCE
  @ DRIVER MODE: Returning v,forces,stress,ensemble

     Writing output data file ./calc.save/
  @ DRIVER MODE: Message from server: EXIT
  @ DRIVE MODE: Exiting

     General routines

     Parallel routines

   This run was terminated on:   0:52:43  24Aug2021

   JOB DONE.