     Program PWSCF v.6.7GPU starts on 23Jul2021 at  6:29: 8

     R & G space division:  proc/nbgrp/npool/nimage =      16
     Reading input from /storage/home/hcoda1/3/ntian30/research/carbon/1Jul_vib/slab/rutile_O_br_vacant/out_0031/pw.inp
Warning: card &CELL ignored
Warning: card   CELL_DYNAMICS='IPI', ignored
Warning: card / ignored

     Current dimensions of program PWSCF are:
     Max number of different atomic species (ntypx) = 10
     Max number of k-points (npk) =  40000
     Max angular momentum in pseudopotentials (lmaxx) =  3
     Presently no symmetry can be used with electric field

     Message from routine cell_base_init:
     DEPRECATED: use true lattice parameter, not A to a.u. conversion factor

     IMPORTANT: XC functional enforced from input :
     Exchange-correlation= BEEF-VDW
                           (   1   4  43  14   2   0   0)
     Any further DFT definition will be discarded
     Please, verify this is what you really want

  @ DRIVER MODE: Connecting to
 qe_1139763_2402406.sched-torque.pace.gatech.edufckmcq4n_scratch
  using UNIX socket
  @ DRIVER MODE: Message from server: STATUS
  @ DRIVER MODE: Message from server: INIT
  @ DRIVER MODE: Receiving replica           0          -1
  @ DRIVER MODE: Receiving encoded integer          25
  @ DRIVER MODE:  SCF:  T  FORCE:  T  STRESS:  F  VC:  F  ENSEMBLE:  F
  @ DRIVER MODE:  SCF:  T  FORCE:  T  STRESS:  F  VC:  F  ENSEMBLE:  F

     Using Slab Decomposition

     bravais-lattice index     =            0
     lattice parameter (alat)  =       1.8897  a.u.
     unit-cell volume          =    6658.9804 (a.u.)^3
     number of atoms/cell      =           47
     number of atomic types    =            2
     number of electrons       =       378.00
     number of Kohn-Sham states=          199
     kinetic-energy cutoff     =      29.3995  Ry
     charge density cutoff     =     293.9946  Ry
     scf convergence threshold =      7.3E-08
     mixing beta               =       0.0500
     number of iterations used =            8  plain     mixing
     Exchange-correlation= BEEF-VDW
                           (   1   4  43  14   2   0   0)

     celldm(1)=   1.889726  celldm(2)=   0.000000  celldm(3)=   0.000000
     celldm(4)=   0.000000  celldm(5)=   0.000000  celldm(6)=   0.000000

     crystal axes: (cart. coord. in units of alat)
               a(1) = (   6.579727   0.000000   0.000000 )
               a(2) = (  -0.000775   5.961596   0.000000 )
               a(3) = (   0.000000   0.000000  25.155947 )

     reciprocal axes: (cart. coord. in units 2 pi/alat)
               b(1) = (  0.151982  0.000020  0.000000 )
               b(2) = (  0.000000  0.167740  0.000000 )
               b(3) = (  0.000000  0.000000  0.039752 )

     PseudoPot. # 1 for Ti read from file:
     /storage/coda1/p-amedford6/0/shared/rich_project_chbe-medford/medford-share/data/pseudos_module/espresso/nninc/pbe/van/Ti.UPF
     MD5 check sum: 8e4df49b7f0d34bbd5052bf3f5ea0213
     Pseudo is Ultrasoft, Zval = 12.0
     Generated by new atomic code, or converted to UPF format
     Using radial grid of  851 points,  6 beta functions with:
                l(1) =   0
                l(2) =   0
                l(3) =   1
                l(4) =   1
                l(5) =   2
                l(6) =   2
     Q(r) pseudized with  8 coefficients,  rinner =    1.000   1.000   1.000
                                                       1.000   1.000

     PseudoPot. # 2 for O  read from file:
     /storage/coda1/p-amedford6/0/shared/rich_project_chbe-medford/medford-share/data/pseudos_module/espresso/nninc/pbe/van/O.UPF
     MD5 check sum: 78c19812648e8988a0fe644b0f25305e
     Pseudo is Ultrasoft, Zval =  6.0
     Generated by new atomic code, or converted to UPF format
     Using radial grid of  737 points,  4 beta functions with:
                l(1) =   0
                l(2) =   0
                l(3) =   1
                l(4) =   1
     Q(r) pseudized with  8 coefficients,  rinner =    0.800   0.800   0.800

     atomic species   valence    mass     pseudopotential
        Ti1           12.00    47.86700     Ti( 1.00)
        O1             6.00    15.99900     O ( 1.00)

     Starting magnetic structure
     atomic species   magnetization
        Ti1          0.000
        O1           0.000

     No symmetry found

   Cartesian axes

     site n.     atom                  positions (alat units)
         1           Ti1 tau(   1) = (   0.0004258   2.9801865   6.0000000  )
         2           Ti1 tau(   2) = (   3.2906075   1.4906267   6.0002472  )
         3           O1  tau(   3) = (   0.0006271   0.0005054   7.9858123  )
         4           O1  tau(   4) = (   3.2906025   0.0005020   7.3038282  )
         5           O1  tau(   5) = (   4.5942328   1.4918067   9.2879030  )
         6           O1  tau(   6) = (   1.9868534   1.4903216   9.2879459  )
         7           Ti1 tau(   7) = (   3.2895655   2.9803496   9.1561551  )
         8           Ti1 tau(   8) = (   6.5792279   1.4901203   9.2542590  )
         9           O1  tau(   9) = (   3.2908496   0.0003861  11.3974292  )
        10           O1  tau(  10) = (   0.0009741   0.0005107  10.6121890  )
        11           O1  tau(  11) = (   1.2851668   1.4970119  12.6717501  )
        12           O1  tau(  12) = (   5.2960956   1.4969944  12.6716611  )
        13           Ti1 tau(  13) = (   0.0014209   2.9817635  12.4865077  )
        14           Ti1 tau(  14) = (   3.2920103   1.4923710  12.5431595  )
        15           O1  tau(  15) = (   0.0005111   0.0003601  14.6908606  )
        16           O1  tau(  16) = (   3.2907661   0.0003422  14.0280135  )
        17           O1  tau(  17) = (   4.5563287   1.5043111  16.1972802  )
        18           O1  tau(  18) = (   2.0238984   1.5042417  16.1969189  )
        19           Ti1 tau(  19) = (   3.2900530   2.9812534  15.7923096  )
        20           Ti1 tau(  20) = (   0.0002900   1.3462356  15.9516996  )
        21           O1  tau(  21) = (   3.2904802   0.0005063   4.7018136  )
        22           O1  tau(  22) = (   0.0005067   0.0002908  17.2230471  )
        23           O1  tau(  23) = (   1.3043587   1.4918075   6.0039043  )
        24           O1  tau(  24) = (   5.2767064   1.4903225   6.0039473  )
        25           Ti1 tau(  25) = (   0.0000382   5.9609847   6.0000000  )
        26           Ti1 tau(  26) = (   3.2902200   4.4714249   6.0002472  )
        27           O1  tau(  27) = (   0.0002396   2.9813036   7.9858123  )
        28           O1  tau(  28) = (   3.2902150   2.9813002   7.3038282  )
        29           O1  tau(  29) = (   4.5938453   4.4726049   9.2879030  )
        30           O1  tau(  30) = (   1.9864658   4.4711199   9.2879459  )
        31           Ti1 tau(  31) = (   3.2890184   5.9611387   9.1545655  )
        32           Ti1 tau(  32) = (   6.5788211   4.4731772   9.2541010  )
        33           O1  tau(  33) = (   3.2904314   2.9811918  11.3932170  )
        34           O1  tau(  34) = (   0.0006808   2.9813391  10.6259032  )
        35           O1  tau(  35) = (   1.2847872   4.4655815  12.6717948  )
        36           O1  tau(  36) = (   5.2956760   4.4653813  12.6716352  )
        37           Ti1 tau(  37) = (   0.0020938   0.0010105  12.4782417  )
        38           Ti1 tau(  38) = (   3.2917349   4.4701355  12.5431901  )
        39           O1  tau(  39) = (   0.0000992   2.9811129  15.0245885  )
        40           O1  tau(  40) = (   3.2903432   2.9811263  13.9978513  )
        41           O1  tau(  41) = (   4.5559250   4.4580163  16.1971803  )
        42           O1  tau(  42) = (   2.0234811   4.4579909  16.1969720  )
        43           Ti1 tau(  43) = (   3.2904469   0.0004528  15.8318627  )
        44           Ti1 tau(  44) = (   0.0000435   4.6159127  15.9515978  )
        45           O1  tau(  45) = (   3.2900926   2.9813045   4.7018136  )
        46           O1  tau(  46) = (   1.3039711   4.4726057   6.0039043  )
        47           O1  tau(  47) = (   5.2663189   4.4711207   6.0039473  )

     number of k points=    10  Fermi-Dirac smearing, width (Ry)=  0.0073
                       cart. coord. in units 2pi/alat
        k(    1) = (   0.0000000   0.0000000   0.0000000), wk =   0.0625000
        k(    2) = (   0.0000000   0.0419351   0.0000000), wk =   0.1250000
        k(    3) = (   0.0000000  -0.0838702   0.0000000), wk =   0.0625000
        k(    4) = (   0.0379955   0.0000049   0.0000000), wk =   0.1250000
        k(    5) = (   0.0379955   0.0419400   0.0000000), wk =   0.1250000
        k(    6) = (   0.0379955  -0.0838652   0.0000000), wk =   0.1250000
        k(    7) = (   0.0379955  -0.0419301   0.0000000), wk =   0.1250000
        k(    8) = (  -0.0759910  -0.0000099   0.0000000), wk =   0.0625000
        k(    9) = (  -0.0759910   0.0419252   0.0000000), wk =   0.1250000
        k(   10) = (  -0.0759910  -0.0838800   0.0000000), wk =   0.0625000

     Initial potential from superposition of free atoms

     starting charge  361.99925, renormalised to  378.00000

     negative rho (up, down):  1.184E-02 1.184E-02

     %%%%%%%%%%%%%%%%%%%%%%%%%%%%%%%%%%%%%%%%%%%%%%%%%%%%%%%%%%%%%%%%%%%%%%%%
     %                                                                      %
     % You are using vdW-DF, which was implemented by the Thonhauser group. %
     % Please cite the following two papers that made this development      %
     % possible and the two reviews that describe the various versions:     %
     %                                                                      %
     %   T. Thonhauser et al., PRL 115, 136402 (2015).                      %
     %   T. Thonhauser et al., PRB 76, 125112 (2007).                       %
     %   K. Berland et al., Rep. Prog. Phys. 78, 066501 (2015).             %
     %   D.C. Langreth et al., J. Phys.: Condens. Matter 21, 084203 (2009). %
     %                                                                      %
     %                                                                      %
     % If you are calculating the stress with vdW-DF, please also cite:     %
     %                                                                      %
     %   R. Sabatini et al., J. Phys.: Condens. Matter 24, 424209 (2012).   %
     %                                                                      %
     %%%%%%%%%%%%%%%%%%%%%%%%%%%%%%%%%%%%%%%%%%%%%%%%%%%%%%%%%%%%%%%%%%%%%%%%

     Adding external electric field

     Computed dipole along edir(3) :
        Dipole                1.1416 Ry au,          2.9015 Debye
        Dipole field          0.0022 Ry au,

        Potential amp.       -0.1997 Ry
        Total length         46.3494 bohr

[...]

     Starting wfcs are  284 atomic wfcs
  @ DRIVER MODE: Message from server: STATUS
  @ DRIVER MODE: Message from server: POSDATA
  @ DRIVER MODE: Reading and sharing cell
  @ DRIVER MODE: Reading and sharing positions
  @ DRIVER MODE: Received positions

     Self-consistent Calculation

     iteration #  1     ecut=    29.40 Ry     beta= 0.05
     Davidson diagonalization with overlap
     c_bands:  2 eigenvalues not converged
     c_bands:  3 eigenvalues not converged
     c_bands:  2 eigenvalues not converged
     c_bands:  4 eigenvalues not converged
     c_bands:  1 eigenvalues not converged
     c_bands:  2 eigenvalues not converged
     c_bands:  1 eigenvalues not converged
     c_bands:  1 eigenvalues not converged
     c_bands:  3 eigenvalues not converged
     c_bands:  2 eigenvalues not converged
     c_bands:  2 eigenvalues not converged
     c_bands:  3 eigenvalues not converged
     c_bands:  2 eigenvalues not converged
     c_bands:  4 eigenvalues not converged
     c_bands:  1 eigenvalues not converged
     c_bands:  2 eigenvalues not converged
     c_bands:  1 eigenvalues not converged
     c_bands:  1 eigenvalues not converged
     c_bands:  3 eigenvalues not converged
     c_bands:  2 eigenvalues not converged
     ethr =  1.00E-05,  avg # of iterations = 20.0

[...]

     total energy              =   -2885.09479128 Ry
     estimated scf accuracy    <      12.51592430 Ry

     total magnetization       =     0.00 Bohr mag/cell
     absolute magnetization    =     0.00 Bohr mag/cell

     iteration #  2     ecut=    29.40 Ry     beta= 0.05
     Davidson diagonalization with overlap
     ethr =  3.31E-03,  avg # of iterations =  1.0

[...]

     iteration # 49     ecut=    29.40 Ry     beta= 0.05
     Davidson diagonalization with overlap
     c_bands:  1 eigenvalues not converged
     c_bands:  1 eigenvalues not converged
     ethr =  8.92E-11,  avg # of iterations = 14.2

[...]

     total energy              =   -2883.85187151 Ry
     estimated scf accuracy    <       0.00000013 Ry

[...]

     iteration # 51     ecut=    29.40 Ry     beta= 0.05
     Davidson diagonalization with overlap
     ethr =  3.48E-11,  avg # of iterations =  9.6

     negative rho (up, down):  1.071E-02 1.071E-02

[...]

     Adding external electric field

     Computed dipole along edir(3) :
        Dipole                0.5608 Ry au,          1.4254 Debye
        Dipole field          0.0011 Ry au,

        Potential amp.       -0.0981 Ry
        Total length         46.3494 bohr

     Magnetic moment per site  (integrated on atomic sphere of radius R)
     atom   1 (R=0.740)  charge=  8.0664  magn=  0.0000
     atom   2 (R=0.740)  charge=  8.0463  magn=  0.0000
     atom   3 (R=0.740)  charge=  5.0351  magn=  0.0000
     atom   4 (R=0.740)  charge=  5.0740  magn=  0.0000
     atom   5 (R=0.740)  charge=  5.0338  magn= -0.0000
     atom   6 (R=0.740)  charge=  5.0338  magn=  0.0000
     atom   7 (R=0.740)  charge=  8.0460  magn= -0.0000
     atom   8 (R=0.740)  charge=  8.0493  magn= -0.0000
     atom   9 (R=0.740)  charge=  5.0395  magn=  0.0000
     atom  10 (R=0.740)  charge=  5.0477  magn=  0.0000
     atom  11 (R=0.740)  charge=  5.0325  magn= -0.0000
     atom  12 (R=0.740)  charge=  5.0326  magn= -0.0000
     atom  13 (R=0.740)  charge=  8.0561  magn= -0.0000
     atom  14 (R=0.740)  charge=  8.0499  magn= -0.0000
     atom  15 (R=0.740)  charge=  5.0483  magn=  0.0000
     atom  16 (R=0.740)  charge=  5.0335  magn=  0.0000
     atom  17 (R=0.740)  charge=  5.0152  magn=  0.0000
     atom  18 (R=0.740)  charge=  5.0151  magn=  0.0000
     atom  19 (R=0.740)  charge=  8.0776  magn=  0.0000
     atom  20 (R=0.740)  charge=  8.0902  magn=  0.0000
     atom  21 (R=0.740)  charge=  4.9132  magn= -0.0000
     atom  22 (R=0.740)  charge=  4.9956  magn= -0.0000
     atom  23 (R=0.740)  charge=  5.0271  magn=  0.0000
     atom  24 (R=0.740)  charge=  5.0273  magn= -0.0000
     atom  25 (R=0.740)  charge=  8.0666  magn= -0.0000
     atom  26 (R=0.740)  charge=  8.0465  magn=  0.0000
     atom  27 (R=0.740)  charge=  5.0345  magn=  0.0000
     atom  28 (R=0.740)  charge=  5.0735  magn=  0.0000
     atom  29 (R=0.740)  charge=  5.0337  magn=  0.0000
     atom  30 (R=0.740)  charge=  5.0338  magn=  0.0000
     atom  31 (R=0.740)  charge=  8.0464  magn= -0.0000
     atom  32 (R=0.740)  charge=  8.0494  magn=  0.0000
     atom  33 (R=0.740)  charge=  5.0395  magn= -0.0000
     atom  34 (R=0.740)  charge=  5.0426  magn=  0.0000
     atom  35 (R=0.740)  charge=  5.0324  magn=  0.0000
     atom  36 (R=0.740)  charge=  5.0325  magn= -0.0000
     atom  37 (R=0.740)  charge=  8.0519  magn= -0.0000
     atom  38 (R=0.740)  charge=  8.0499  magn=  0.0000
     atom  39 (R=0.740)  charge=  5.0311  magn= -0.0000
     atom  40 (R=0.740)  charge=  5.0467  magn= -0.0000
     atom  41 (R=0.740)  charge=  5.0152  magn= -0.0000
     atom  42 (R=0.740)  charge=  5.0152  magn=  0.0000
     atom  43 (R=0.740)  charge=  8.0771  magn= -0.0000
     atom  44 (R=0.740)  charge=  8.0902  magn= -0.0000
     atom  45 (R=0.740)  charge=  4.9132  magn= -0.0000
     atom  46 (R=0.740)  charge=  5.0273  magn=  0.0000
     atom  47 (R=0.740)  charge=  5.0263  magn=  0.0000

     End of self-consistent calculation

 ------ SPIN UP ------------

          k = 0.0000 0.0000 0.0000 ( 18029 PWs)   bands (ev):

   -56.2772 -56.2413 -56.2269 -56.1927 -56.1576 -56.1443 -56.1133 -56.1096
   -56.0921 -56.0827 -56.0792 -56.0550 -56.0281 -56.0211 -55.3265 -55.2917
   -32.8392 -32.7941 -32.7268 -32.6291 -32.5863 -32.5827 -32.5795 -32.5698
   -32.5177 -32.5033 -32.4826 -32.4763 -32.4726 -32.4474 -32.4469 -32.4270
   -32.4148 -32.4133 -32.4005 -32.3899 -32.3787 -32.3765 -32.3739 -32.3722
   -32.3487 -32.3441 -32.3247 -32.2805 -32.2748 -32.2657 -32.2650 -32.2590
   -32.2511 -32.2434 -32.2423 -32.2381 -32.2334 -32.2107 -32.2034 -32.1879
   -32.1703 -32.1104 -31.7394 -31.6366 -31.6148 -31.5552 -31.4685 -31.3579
   -17.1082 -16.8843 -16.7428 -16.6063 -16.5009 -16.4008 -16.2780 -16.2265
   -16.1741 -16.0273 -15.9656 -15.9364 -15.9030 -15.8782 -15.8713 -15.8566
   -15.8261 -15.8159 -15.7924 -15.7882 -15.7715 -15.7697 -15.7208 -15.6689
   -15.5779 -15.5101 -15.4366 -15.3798 -15.0576 -13.8287 -13.7088  -4.4284
    -4.2928  -4.2185  -4.1983  -4.1530  -4.0415  -3.8217  -3.7986  -3.7320
    -3.5761  -3.5258  -3.4709  -3.4116  -3.3407  -3.2841  -3.2737  -3.1655
    -3.1471  -3.1427  -3.1317  -3.0558  -3.0530  -3.0314  -3.0042  -2.9656
    -2.8726  -2.7541  -2.7088  -2.6761  -2.6551  -2.6460  -2.6237  -2.5812
    -2.5623  -2.5263  -2.5230  -2.4891  -2.4504  -2.3257  -2.1780  -2.1348
    -2.0564  -1.9738  -1.9014  -1.8370  -1.7968  -1.7589  -1.7330  -1.6838
    -1.6535  -1.6186  -1.5421  -1.4548  -1.4094  -1.3085  -1.2921  -1.2253
    -1.1897  -1.1165  -1.0716  -1.0642  -1.0281  -0.9404  -0.9134  -0.7899
    -0.7625  -0.7543  -0.7402  -0.7323  -0.6210  -0.5185  -0.4861  -0.4793
    -0.4755  -0.3928  -0.3432  -0.3368  -0.3215  -0.3113  -0.2649  -0.1895
    -0.1485  -0.0973   0.0445   0.2710   0.2798   0.3365   0.5796   0.6414
     0.6985   0.8542   1.2854   1.3371   2.8200   2.8870   2.9173   2.9521
     2.9787   3.0228   3.3172   3.3313   3.3553   3.3824   3.4015

[...]

          k =-0.0760-0.0000 0.0000 ( 17886 PWs)   bands (ev):

[...]

 ------ SPIN DOWN ----------

[...]

          k = 0.0380-0.0419 0.0000 ( 17876 PWs)   bands (ev):

[...]

          k =-0.0760-0.0839 0.0000 ( 17948 PWs)   bands (ev):

   -56.2594 -56.2589 -56.2099 -56.2095 -56.1534 -56.1292 -56.1246 -56.0968
   -56.0955 -56.0868 -56.0855 -56.0383 -56.0379 -56.0346 -55.3125 -55.3055
   -32.7176 -32.6449 -32.6420 -32.5430 -32.5427 -32.5414 -32.5282 -32.5030
   -32.5030 -32.4749 -32.4711 -32.4707 -32.4645 -32.4220 -32.4199 -32.4190
   -32.4118 -32.4111 -32.3988 -32.3931 -32.3923 -32.3884 -32.3766 -32.3586
   -32.3554 -32.3553 -32.3536 -32.3491 -32.3261 -32.3255 -32.3218 -32.3173
   -32.2929 -32.2919 -32.2680 -32.2678 -32.2678 -32.2666 -32.2370 -32.2238
   -32.2235 -32.2152 -31.6297 -31.6253 -31.5548 -31.5490 -31.5151 -31.5086
   -16.8164 -16.4613 -16.4224 -16.3367 -16.3291 -16.2286 -16.2087 -16.1209
   -16.0792 -16.0536 -16.0529 -16.0026 -15.9827 -15.9624 -15.9600 -15.8967
   -15.8811 -15.8530 -15.8500 -15.7941 -15.7917 -15.7902 -15.7814 -15.7527
   -15.7482 -15.7088 -15.7052 -15.6080 -15.4412 -13.8098 -13.8096  -3.8327
    -3.7303  -3.6756  -3.5601  -3.4862  -3.4499  -3.4030  -3.3943  -3.3201
    -3.2765  -3.2719  -3.1852  -3.1786  -3.1740  -3.1658  -3.1033  -3.0883
    -3.0638  -3.0394  -3.0138  -2.9847  -2.9723  -2.9698  -2.9504  -2.9378
    -2.9224  -2.9169  -2.8852  -2.8651  -2.8441  -2.8251  -2.6673  -2.6629
    -2.5775  -2.5167  -2.5153  -2.4367  -2.4273  -2.3808  -2.3462  -2.2932
    -2.2560  -2.0999  -2.0743  -2.0720  -2.0097  -1.9838  -1.9132  -1.8562
    -1.8397  -1.7927  -1.7366  -1.6183  -1.6000  -1.5756  -1.4693  -1.4689
    -1.3941  -1.3191  -1.2755  -1.2739  -1.2618  -1.2373  -1.2334  -1.2303
    -1.1200  -1.0661  -1.0186  -1.0109  -0.9991  -0.7982  -0.7357  -0.7243
    -0.6090  -0.5581  -0.3741  -0.3663  -0.3279  -0.2110  -0.2104  -0.2066
    -0.1533  -0.0301  -0.0190   0.0448   0.0880   0.1013   0.1439   0.1456
     1.0457   1.0475   1.1564   1.1588   2.9917   3.0739   3.0796   3.1288
     3.2698   3.3201   3.3262   3.3684   3.3729   3.3774   3.4539

     the Fermi energy is     2.8863 ev

!    total energy              =   -2883.85195837 Ry
     estimated scf accuracy    <       0.00000006 Ry
     smearing contrib. (-TS)   =      -0.03660972 Ry
     internal energy E=F+TS    =   -2883.81534865 Ry

     The total energy is F=E-TS. E is the sum of the following terms:
     one-electron contribution =  -24914.65561143 Ry
     hartree contribution      =   12532.17515133 Ry
     xc contribution           =    -468.94486334 Ry
     ewald contribution        =    9967.60938128 Ry
     electric field correction =       0.00059351 Ry

     total magnetization       =    -0.00 Bohr mag/cell
     absolute magnetization    =     0.00 Bohr mag/cell

     convergence has been achieved in  51 iterations

     Forces acting on atoms (cartesian axes, Ry/au):

     atom    1 type  1   force =    -0.00070202    0.00021157    0.08985027
     atom    2 type  1   force =     0.00028849    0.00030943   -0.18511824
     atom    3 type  2   force =     0.00001343   -0.00007314   -0.02441352
     atom    4 type  2   force =    -0.00036085    0.00033734    0.05268584
     atom    5 type  2   force =    -0.01329234   -0.00027455    0.00590564
     atom    6 type  2   force =     0.01322806    0.00020834    0.00587767
     atom    7 type  1   force =    -0.00000219    0.00003149   -0.00015674
     atom    8 type  1   force =     0.00001973    0.00043847    0.00045088
     atom    9 type  2   force =     0.00001497    0.00001702    0.00090492
     atom   10 type  2   force =    -0.00000194    0.00000449   -0.00040735
     atom   11 type  2   force =     0.00015495   -0.00023572    0.00049264
     atom   12 type  2   force =    -0.00018048   -0.00025454    0.00049180
     atom   13 type  1   force =    -0.00000272   -0.00000032   -0.00079557
     atom   14 type  1   force =     0.00004005   -0.00074875    0.00050193
     atom   15 type  2   force =    -0.00000156   -0.00001486   -0.00069320
     atom   16 type  2   force =     0.00002007    0.00001217    0.00015759
     atom   17 type  2   force =    -0.00003583    0.00022881    0.00002361
     atom   18 type  2   force =     0.00005404    0.00022818    0.00002727
     atom   19 type  1   force =    -0.00001855   -0.00000250   -0.00078364
     atom   20 type  1   force =     0.00002816    0.00016819   -0.00002153
     atom   21 type  2   force =    -0.00040996    0.00080083    0.10516604
     atom   22 type  2   force =    -0.00001457   -0.00000387    0.00048671
     atom   23 type  2   force =    -0.06869411   -0.00027338   -0.02596363
     atom   24 type  2   force =     0.06764987    0.00017080   -0.02604903
     atom   25 type  1   force =    -0.00070667   -0.00020929    0.08891744
     atom   26 type  1   force =    -0.00043492   -0.00039689   -0.18455542
     atom   27 type  2   force =     0.00001252    0.00004629   -0.02336687
     atom   28 type  2   force =    -0.00035966   -0.00038263    0.05274524
     atom   29 type  2   force =    -0.01329225   -0.00027026    0.00591353
     atom   30 type  2   force =     0.01325747    0.00022702    0.00586921
     atom   31 type  1   force =    -0.00000705    0.00000604    0.00020335
     atom   32 type  1   force =    -0.00003078   -0.00043118    0.00039904
     atom   33 type  2   force =     0.00001443    0.00000998   -0.00025224
     atom   34 type  2   force =    -0.00001186    0.00000520    0.00010192
     atom   35 type  2   force =     0.00015021    0.00026025    0.00049070
     atom   36 type  2   force =    -0.00017502    0.00025477    0.00049701
     atom   37 type  1   force =     0.00000384   -0.00002181    0.00077739
     atom   38 type  1   force =     0.00002806    0.00076939    0.00049660
     atom   39 type  2   force =    -0.00001605   -0.00000011   -0.00039348
     atom   40 type  2   force =     0.00001743    0.00001225   -0.00048330
     atom   41 type  2   force =    -0.00003512   -0.00021787    0.00002047
     atom   42 type  2   force =     0.00005928   -0.00022607    0.00002785
     atom   43 type  1   force =    -0.00000868   -0.00000589    0.00043250
     atom   44 type  1   force =    -0.00003166   -0.00015758   -0.00001562
     atom   45 type  2   force =    -0.00040952   -0.00065179    0.10512100
     atom   46 type  2   force =    -0.07028866   -0.00017242   -0.02605052
     atom   47 type  2   force =     0.07446994    0.00026709   -0.02551618

     Total force =     0.369376     Total SCF correction =     0.000663
  @ DRIVER MODE: Message from server: STATUS
  @ DRIVER MODE: Message from server: GETFORCE
  @ DRIVER MODE: Returning v,forces,stress,ensemble

     Writing output data file ./calc.save/
  @ DRIVER MODE: Message from server: EXIT
  @ DRIVE MODE: Exiting

     General routines

     Parallel routines

   This run was terminated on:   7: 4:48  23Jul2021

   JOB DONE.