     Program PWSCF v.6.7GPU starts on 25Aug2021 at  2:40:36

     R & G space division:  proc/nbgrp/npool/nimage =       6
     Reading input from /storage/home/hcoda1/3/ntian30/research/carbon/CH3_vib_end_on/ads_slab/CH3N2H2_f/out_0019/pw.inp
Warning: card &CELL ignored
Warning: card   CELL_DYNAMICS='IPI', ignored
Warning: card / ignored

     Current dimensions of program PWSCF are:
     Max number of different atomic species (ntypx) = 10
     Max number of k-points (npk) =  40000
     Max angular momentum in pseudopotentials (lmaxx) =  3
     Presently no symmetry can be used with electric field

     Message from routine cell_base_init:
     DEPRECATED: use true lattice parameter, not A to a.u. conversion factor

     IMPORTANT: XC functional enforced from input :
     Exchange-correlation= BEEF-VDW
                           (   1   4  43  14   2   0   0)
     Any further DFT definition will be discarded
     Please, verify this is what you really want

  @ DRIVER MODE: Connecting to
 qe_1139763_2643870.sched-torque.pace.gatech.edu83lflj1m_scratch
  using UNIX socket
  @ DRIVER MODE: Message from server: STATUS
  @ DRIVER MODE: Message from server: INIT
  @ DRIVER MODE: Receiving replica           0          -1
  @ DRIVER MODE: Receiving encoded integer          25
  @ DRIVER MODE:  SCF:  T  FORCE:  T  STRESS:  F  VC:  F  ENSEMBLE:  F
  @ DRIVER MODE:  SCF:  T  FORCE:  T  STRESS:  F  VC:  F  ENSEMBLE:  F

     Using Slab Decomposition

     bravais-lattice index     =            0
     lattice parameter (alat)  =       1.8897  a.u.
     unit-cell volume          =    6658.9804 (a.u.)^3
     number of atoms/cell      =           55
     number of atomic types    =            5
     number of electrons       =       397.00
     number of Kohn-Sham states=          208
     kinetic-energy cutoff     =      29.3995  Ry
     charge density cutoff     =     293.9946  Ry
     scf convergence threshold =      7.3E-08
     mixing beta               =       0.0500
     number of iterations used =            8  plain     mixing
     Exchange-correlation= BEEF-VDW
                           (   1   4  43  14   2   0   0)

     celldm(1)=   1.889726  celldm(2)=   0.000000  celldm(3)=   0.000000
     celldm(4)=   0.000000  celldm(5)=   0.000000  celldm(6)=   0.000000

     crystal axes: (cart. coord. in units of alat)
               a(1) = (   6.579727   0.000000   0.000000 )
               a(2) = (  -0.000775   5.961596   0.000000 )
               a(3) = (   0.000000   0.000000  25.155947 )

     reciprocal axes: (cart. coord. in units 2 pi/alat)
               b(1) = (  0.151982  0.000020  0.000000 )
               b(2) = (  0.000000  0.167740  0.000000 )
               b(3) = (  0.000000  0.000000  0.039752 )

     PseudoPot. # 1 for Ti read from file:
     /storage/coda1/p-amedford6/0/shared/rich_project_chbe-medford/medford-share/data/pseudos_module/espresso/nninc/pbe/van/Ti.UPF
     MD5 check sum: 8e4df49b7f0d34bbd5052bf3f5ea0213
     Pseudo is Ultrasoft, Zval = 12.0
     Generated by new atomic code, or converted to UPF format
     Using radial grid of  851 points,  6 beta functions with:
                l(1) =   0
                l(2) =   0
                l(3) =   1
                l(4) =   1
                l(5) =   2
                l(6) =   2
     Q(r) pseudized with  8 coefficients,  rinner =    1.000   1.000   1.000
                                                       1.000   1.000

     PseudoPot. # 2 for O  read from file:
     /storage/coda1/p-amedford6/0/shared/rich_project_chbe-medford/medford-share/data/pseudos_module/espresso/nninc/pbe/van/O.UPF
     MD5 check sum: 78c19812648e8988a0fe644b0f25305e
     Pseudo is Ultrasoft, Zval =  6.0
     Generated by new atomic code, or converted to UPF format
     Using radial grid of  737 points,  4 beta functions with:
                l(1) =   0
                l(2) =   0
                l(3) =   1
                l(4) =   1
     Q(r) pseudized with  8 coefficients,  rinner =    0.800   0.800   0.800

     PseudoPot. # 3 for N  read from file:
     /storage/coda1/p-amedford6/0/shared/rich_project_chbe-medford/medford-share/data/pseudos_module/espresso/nninc/pbe/van/N.UPF
     MD5 check sum: 90d10febe142ad51ac9d5be1deb811c4
     Pseudo is Ultrasoft, Zval =  5.0
     Generated by new atomic code, or converted to UPF format
     Using radial grid of  729 points,  4 beta functions with:
                l(1) =   0
                l(2) =   0
                l(3) =   1
                l(4) =   1
     Q(r) pseudized with  8 coefficients,  rinner =    0.800   0.800   0.800

     PseudoPot. # 4 for C  read from file:
     /storage/coda1/p-amedford6/0/shared/rich_project_chbe-medford/medford-share/data/pseudos_module/espresso/nninc/pbe/van/C.UPF
     MD5 check sum: 1a69bf6b8db32088f5b2163dbdb77a27
     Pseudo is Ultrasoft, Zval =  4.0
     Generated by new atomic code, or converted to UPF format
     Using radial grid of  721 points,  4 beta functions with:
                l(1) =   0
                l(2) =   0
                l(3) =   1
                l(4) =   1
     Q(r) pseudized with  8 coefficients,  rinner =    0.800   0.800   0.800

     PseudoPot. # 5 for H  read from file:
     /storage/coda1/p-amedford6/0/shared/rich_project_chbe-medford/medford-share/data/pseudos_module/espresso/nninc/pbe/van/H.UPF
     MD5 check sum: b5ee9d7bfd3a09ee7748110bda690ff7
     Pseudo is Ultrasoft, Zval =  1.0
     Generated by new atomic code, or converted to UPF format
     Using radial grid of  615 points,  1 beta functions with:
                l(1) =   0
     Q(r) pseudized with  8 coefficients,  rinner =    0.800

     atomic species   valence    mass     pseudopotential
        Ti1           12.00    47.86700     Ti( 1.00)
        O1             6.00    15.99900     O ( 1.00)
        N1             5.00    14.00700     N ( 1.00)
        C1             4.00    12.01100     C ( 1.00)
        H1             1.00     1.00800     H ( 1.00)

     No symmetry found

   Cartesian axes

     site n.     atom                  positions (alat units)
         1           Ti1 tau(   1) = (   0.0004258   2.9801865   6.0000000  )
         2           Ti1 tau(   2) = (   3.2906075   1.4906267   6.0002472  )
         3           O1  tau(   3) = (   0.0006271   0.0005054   7.9858123  )
         4           O1  tau(   4) = (   3.2906025   0.0005020   7.3038282  )
         5           O1  tau(   5) = (   4.5942328   1.4918067   9.2879030  )
         6           O1  tau(   6) = (   1.9868534   1.4903216   9.2879459  )
         7           Ti1 tau(   7) = (   3.2907910   2.8959150   9.1758416  )
         8           Ti1 tau(   8) = (   0.0015273   1.4827037   9.2680791  )
         9           O1  tau(   9) = (   3.2830128   5.9597860  11.3344455  )
        10           O1  tau(  10) = (   0.0116148   5.9584955  10.6183126  )
        11           O1  tau(  11) = (   1.2885291   1.4855062  12.6376555  )
        12           O1  tau(  12) = (   5.2724004   1.4911608  12.5936499  )
        13           Ti1 tau(  13) = (   0.0410009   3.0319447  12.6084003  )
        14           Ti1 tau(  14) = (   3.3739341   1.4916561  12.4823474  )
        15           O1  tau(  15) = (   6.4862162   0.0153916  14.6455093  )
        16           O1  tau(  16) = (   3.3439542   5.9611638  13.9051029  )
        17           O1  tau(  17) = (   4.4933269   1.5483200  16.1231154  )
        18           O1  tau(  18) = (   1.9964937   1.4536654  15.9127221  )
        19           Ti1 tau(  19) = (   3.1412959   3.0017366  15.7441667  )
        20           Ti1 tau(  20) = (   6.4823597   1.5369342  15.8006069  )
        21           O1  tau(  21) = (   3.2904802   0.0005063   4.7018136  )
        22           O1  tau(  22) = (   6.5709111   0.0522475  17.2082838  )
        23           O1  tau(  23) = (   1.3043587   1.4918075   6.0039043  )
        24           O1  tau(  24) = (   5.2767064   1.4903225   6.0039473  )
        25           Ti1 tau(  25) = (   0.0000382   5.9609847   6.0000000  )
        26           Ti1 tau(  26) = (   3.2902200   4.4714249   6.0002472  )
        27           O1  tau(  27) = (   0.0002396   2.9813036   7.9858123  )
        28           O1  tau(  28) = (   3.2902150   2.9813002   7.3038282  )
        29           O1  tau(  29) = (   4.5938453   4.4726049   9.2879030  )
        30           O1  tau(  30) = (   1.9864658   4.4711199   9.2879459  )
        31           Ti1 tau(  31) = (   3.2891106   5.8743827   9.1763621  )
        32           Ti1 tau(  32) = (   0.0006254   4.4649316   9.2693709  )
        33           O1  tau(  33) = (   3.2833609   2.9822938  11.3349093  )
        34           O1  tau(  34) = (   0.0092240   2.9805883  10.6323155  )
        35           O1  tau(  35) = (   1.2838611   4.4860338  12.6468719  )
        36           O1  tau(  36) = (   5.2760156   4.4607002  12.6015494  )
        37           Ti1 tau(  37) = (   0.0673138   0.0440259  12.5461749  )
        38           Ti1 tau(  38) = (   3.3712377   4.4654930  12.4933830  )
        39           O1  tau(  39) = (   6.5217465   2.9589972  14.6412948  )
        40           O1  tau(  40) = (   3.2809526   2.9956502  13.9333893  )
        41           O1  tau(  41) = (   4.4911989   4.4583117  16.1637052  )
        42           O1  tau(  42) = (   1.9937212   4.5427850  15.9740970  )
        43           Ti1 tau(  43) = (   3.2955853   0.0167752  15.6963065  )
        44           Ti1 tau(  44) = (   6.5082246   4.6715011  16.1069148  )
        45           O1  tau(  45) = (   3.2900926   2.9813045   4.7018136  )
        46           O1  tau(  46) = (   1.3039711   4.4726057   6.0039043  )
        47           O1  tau(  47) = (   5.2763189   4.4711207   6.0039473  )
        48           N1  tau(  48) = (   1.3945086   2.8365607  18.1849301  )
        49           N1  tau(  49) = (   0.1777896   2.9650562  17.4211889  )
        50           C1  tau(  50) = (   1.4118813   3.7128676  19.3556819  )
        51           H1  tau(  51) = (   0.5071711   3.5996102  19.9880000  )
        52           H1  tau(  52) = (   2.2935099   3.4681107  19.9517681  )
        53           H1  tau(  53) = (   1.4703795   4.7520035  19.0319817  )
        54           H1  tau(  54) = (   1.4579882   1.8621926  18.4823179  )
        55           H1  tau(  55) = (   5.9558665   2.8747675  18.0551794  )

     number of k points=    10  Fermi-Dirac smearing, width (Ry)=  0.0073
                       cart. coord. in units 2pi/alat
        k(    1) = (   0.0000000   0.0000000   0.0000000), wk =   0.1250000
        k(    2) = (   0.0000000   0.0419351   0.0000000), wk =   0.2500000
        k(    3) = (   0.0000000  -0.0838702   0.0000000), wk =   0.1250000
        k(    4) = (   0.0379955   0.0000049   0.0000000), wk =   0.2500000
        k(    5) = (   0.0379955   0.0419400   0.0000000), wk =   0.2500000
        k(    6) = (   0.0379955  -0.0838652   0.0000000), wk =   0.2500000
        k(    7) = (   0.0379955  -0.0419301   0.0000000), wk =   0.2500000
        k(    8) = (  -0.0759910  -0.0000099   0.0000000), wk =   0.1250000
        k(    9) = (  -0.0759910   0.0419252   0.0000000), wk =   0.2500000
        k(   10) = (  -0.0759910  -0.0838800   0.0000000), wk =   0.1250000

     Initial potential from superposition of free atoms

     starting charge  380.99914, renormalised to  397.00000

     negative rho (up, down):  1.540E-02 0.000E+00

     %%%%%%%%%%%%%%%%%%%%%%%%%%%%%%%%%%%%%%%%%%%%%%%%%%%%%%%%%%%%%%%%%%%%%%%%
     %                                                                      %
     % You are using vdW-DF, which was implemented by the Thonhauser group. %
     % Please cite the following two papers that made this development      %
     % possible and the two reviews that describe the various versions:     %
     %                                                                      %
     %   T. Thonhauser et al., PRL 115, 136402 (2015).                      %
     %   T. Thonhauser et al., PRB 76, 125112 (2007).                       %
     %   K. Berland et al., Rep. Prog. Phys. 78, 066501 (2015).             %
     %   D.C. Langreth et al., J. Phys.: Condens. Matter 21, 084203 (2009). %
     %                                                                      %
     %                                                                      %
     % If you are calculating the stress with vdW-DF, please also cite:     %
     %                                                                      %
     %   R. Sabatini et al., J. Phys.: Condens. Matter 24, 424209 (2012).   %
     %                                                                      %
     %%%%%%%%%%%%%%%%%%%%%%%%%%%%%%%%%%%%%%%%%%%%%%%%%%%%%%%%%%%%%%%%%%%%%%%%

     Adding external electric field

     Computed dipole along edir(3) :
        Dipole               -9.6180 Ry au,        -24.4465 Debye
        Dipole field         -0.0182 Ry au,

        Potential amp.        1.6825 Ry
        Total length         46.3494 bohr

     Starting wfcs are  301 atomic wfcs
  @ DRIVER MODE: Message from server: STATUS
  @ DRIVER MODE: Message from server: POSDATA
  @ DRIVER MODE: Reading and sharing cell
  @ DRIVER MODE: Reading and sharing positions
  @ DRIVER MODE: Received positions

     Self-consistent Calculation

     iteration #  1     ecut=    29.40 Ry     beta= 0.05
     Davidson diagonalization with overlap
     c_bands:  1 eigenvalues not converged
     c_bands:  1 eigenvalues not converged
     c_bands:  1 eigenvalues not converged
     c_bands:  1 eigenvalues not converged
     c_bands:  1 eigenvalues not converged
     c_bands:  1 eigenvalues not converged
     c_bands:  2 eigenvalues not converged
     ethr =  1.00E-05,  avg # of iterations = 18.8

[...]

     total energy              =   -2533.41894996 Ry
     estimated scf accuracy    <    4541.16139989 Ry

     iteration #  2     ecut=    29.40 Ry     beta= 0.05
     Davidson diagonalization with overlap
     ethr =  1.00E-02,  avg # of iterations = 24.3

[...]

     iteration # 70     ecut=    29.40 Ry     beta= 0.05
     Davidson diagonalization with overlap
     c_bands:  1 eigenvalues not converged
     ethr =  3.77E-11,  avg # of iterations = 16.1

[...]

     total energy              =   -2941.66149134 Ry
     estimated scf accuracy    <       0.00000014 Ry

     iteration # 73     ecut=    29.40 Ry     beta= 0.05
     Davidson diagonalization with overlap
     ethr =  3.45E-11,  avg # of iterations = 10.2

     negative rho (up, down):  1.605E-02 0.000E+00

     Adding external electric field

     Computed dipole along edir(3) :
        Dipole                0.9383 Ry au,          2.3849 Debye
        Dipole field          0.0018 Ry au,

        Potential amp.       -0.1641 Ry
        Total length         46.3494 bohr

     End of self-consistent calculation

          k = 0.0000 0.0000 0.0000 ( 18029 PWs)   bands (ev):

   -55.6888 -55.6717 -55.6547 -55.6351 -55.5943 -55.5401 -55.5332 -55.5032
   -55.4971 -55.4692 -55.4672 -55.4331 -55.2603 -55.0360 -54.6690 -54.6349
   -32.2227 -32.1720 -32.0447 -32.0348 -32.0016 -31.9867 -31.9815 -31.9576
   -31.9328 -31.9008 -31.8985 -31.8922 -31.8492 -31.8411 -31.8270 -31.8254
   -31.8088 -31.7938 -31.7849 -31.7497 -31.7460 -31.7389 -31.7232 -31.7196
   -31.6969 -31.6924 -31.6897 -31.6820 -31.6678 -31.6655 -31.6579 -31.6488
   -31.6433 -31.6337 -31.6203 -31.6108 -31.5794 -31.5106 -31.4668 -31.3023
   -31.2929 -31.2387 -31.0762 -30.9877 -30.9653 -30.8930 -30.8065 -30.6954
   -16.7743 -16.4194 -16.1647 -15.9352 -15.8442 -15.8138 -15.6614 -15.5298
   -15.4205 -15.3387 -15.2537 -15.2347 -15.2276 -15.2166 -15.1907 -15.1847
   -15.1377 -15.1330 -15.1136 -15.1007 -15.0506 -15.0340 -15.0306 -14.9358
   -14.8719 -14.8366 -14.8220 -14.7871 -14.7499 -14.3355 -13.1715 -13.0551
   -11.8051  -8.9687  -5.4321  -4.3595  -3.8336  -3.7902  -3.6468  -3.5964
    -3.5359  -3.4958  -3.3193  -3.2170  -2.9442  -2.8868  -2.8578  -2.8486
    -2.7896  -2.7567  -2.6033  -2.5773  -2.5066  -2.4972  -2.4824  -2.4534
    -2.4449  -2.4378  -2.3992  -2.3780  -2.3492  -2.2454  -2.1057  -2.0964
    -2.0736  -2.0402  -2.0029  -1.9541  -1.9378  -1.9175  -1.8991  -1.8863
    -1.8738  -1.7389  -1.7038  -1.5874  -1.4981  -1.4507  -1.3709  -1.3009
    -1.2694  -1.1601  -1.1204  -1.1072  -1.0936  -1.0831  -0.9834  -0.8774
    -0.8602  -0.8225  -0.7672  -0.7116  -0.6410  -0.5961  -0.5450  -0.4928
    -0.4685  -0.4534  -0.4506  -0.4154  -0.3237  -0.1826  -0.1307  -0.0963
    -0.0741   0.0026   0.0377   0.0938   0.1184   0.1417   0.1775   0.2305
     0.2741   0.2805   0.2940   0.3085   0.3132   0.4877   0.5372   0.5789
     0.6122   0.6582   0.8194   0.8417   0.9632   1.0375   1.2002   1.2785
     1.3531   1.4311   1.5448   1.6198   1.9244   1.9701   3.4420   3.5295
     3.5741   3.5880   3.6833   3.7253   3.8948   3.9253   3.9398   3.9999

[...]

          k = 0.0380-0.0419 0.0000 ( 17876 PWs)   bands (ev):

[...]

          k =-0.0760-0.0000 0.0000 ( 17886 PWs)   bands (ev):

[...]

          k =-0.0760-0.0839 0.0000 ( 17948 PWs)   bands (ev):

   -55.6719 -55.6714 -55.6570 -55.6496 -55.5883 -55.5460 -55.5206 -55.5097
   -55.4867 -55.4852 -55.4531 -55.4474 -55.2592 -55.0371 -54.6519 -54.6518
   -32.0318 -32.0222 -31.9874 -31.9870 -31.9672 -31.9666 -31.9463 -31.9399
   -31.8870 -31.8864 -31.8762 -31.8710 -31.8540 -31.8360 -31.8115 -31.8068
   -31.8024 -31.7988 -31.7922 -31.7919 -31.7910 -31.7906 -31.7868 -31.7469
   -31.7387 -31.7271 -31.7189 -31.7077 -31.6872 -31.6862 -31.6841 -31.6774
   -31.6675 -31.6635 -31.6601 -31.6577 -31.6164 -31.5131 -31.4635 -31.3646
   -31.2950 -31.2647 -30.9780 -30.9779 -30.8890 -30.8889 -30.8498 -30.8497
   -16.7481 -15.8666 -15.8056 -15.6477 -15.6125 -15.5929 -15.5579 -15.4972
   -15.4140 -15.3869 -15.3823 -15.3351 -15.3094 -15.2766 -15.2385 -15.2241
   -15.2170 -15.1981 -15.1857 -15.1520 -15.1425 -15.1309 -15.1237 -15.0481
   -15.0105 -15.0062 -15.0006 -14.8970 -14.7704 -14.5033 -13.1569 -13.1567
   -11.8114  -8.9831  -5.4460  -4.3461  -3.7548  -3.1594  -3.0724  -2.8976
    -2.8421  -2.8133  -2.7974  -2.6311  -2.6190  -2.6055  -2.5560  -2.5381
    -2.5267  -2.5191  -2.5107  -2.4897  -2.4768  -2.4419  -2.4321  -2.3969
    -2.3821  -2.3650  -2.3481  -2.3312  -2.3114  -2.2972  -2.2809  -2.2398
    -2.2202  -2.2089  -2.1880  -2.1446  -1.9345  -1.8844  -1.8381  -1.8346
    -1.8241  -1.8045  -1.7497  -1.7447  -1.7107  -1.6595  -1.5808  -1.4360
    -1.3907  -1.3743  -1.2811  -1.2594  -1.2066  -1.1348  -1.0891  -1.0720
    -1.0370  -0.9730  -0.9365  -0.8994  -0.8330  -0.8084  -0.8025  -0.7087
    -0.6879  -0.6519  -0.6452  -0.5665  -0.5156  -0.4531  -0.4377  -0.4213
    -0.3897  -0.3562  -0.3381  -0.2700  -0.1782  -0.1771  -0.1540  -0.0449
     0.0459   0.2741   0.3369   0.3738   0.4187   0.5124   0.5808   0.6054
     0.6213   0.6430   0.6624   0.7107   0.8375   0.8475   0.8818   0.9947
     1.0991   1.6362   1.7165   1.7174   1.7899   1.7901   3.7437   3.7619
     3.7824   3.8289   3.9480   3.9551   3.9772   3.9794   4.1020   4.1147

     the Fermi energy is     3.4436 ev

!    total energy              =   -2941.66150511 Ry
     estimated scf accuracy    <       0.00000004 Ry
     smearing contrib. (-TS)   =      -0.02151636 Ry
     internal energy E=F+TS    =   -2941.63998875 Ry

     The total energy is F=E-TS. E is the sum of the following terms:
     one-electron contribution =  -24275.95235603 Ry
     hartree contribution      =   12228.41744640 Ry
     xc contribution           =    -486.86754625 Ry
     ewald contribution        =    9592.76080568 Ry
     electric field correction =       0.00166144 Ry

     convergence has been achieved in  73 iterations

     Forces acting on atoms (cartesian axes, Ry/au):

     atom    1 type  1   force =     0.00017709   -0.00011528    0.09633407
     atom    2 type  1   force =    -0.00021680   -0.00062928   -0.17552273
     atom    3 type  2   force =    -0.00004240   -0.00003645   -0.02420279
     atom    4 type  2   force =     0.00004975   -0.00143811    0.05289365
     atom    5 type  2   force =    -0.01181641   -0.00049426    0.00395248
     atom    6 type  2   force =     0.01312921    0.00023344    0.00228976
     atom    7 type  1   force =    -0.00140166    0.00080362   -0.01150122
     atom    8 type  1   force =     0.00053209    0.00921274    0.02522267
     atom    9 type  2   force =    -0.00011046    0.00017490    0.00037851
     atom   10 type  2   force =    -0.00086531    0.00148537   -0.01580385
     atom   11 type  2   force =    -0.00018285   -0.00049383    0.00039797
     atom   12 type  2   force =    -0.00013590   -0.00025851    0.00002951
     atom   13 type  1   force =     0.00054953   -0.00091894    0.00008945
     atom   14 type  1   force =    -0.00008781   -0.00040778    0.00027099
     atom   15 type  2   force =     0.00017490    0.00003099   -0.00030907
     atom   16 type  2   force =     0.00006822    0.00024581    0.00004069
     atom   17 type  2   force =    -0.00051940    0.00035013    0.00048584
     atom   18 type  2   force =     0.00012521    0.00011067    0.00028684
     atom   19 type  1   force =     0.00010793   -0.00055408    0.00023566
     atom   20 type  1   force =     0.00015872    0.00034335    0.00060922
     atom   21 type  2   force =     0.00007408   -0.00008042    0.10321086
     atom   22 type  2   force =    -0.00042378   -0.00026344    0.00022952
     atom   23 type  2   force =    -0.07147825   -0.00018523   -0.02771097
     atom   24 type  2   force =     0.07139964    0.00025011   -0.02771207
     atom   25 type  1   force =     0.00002977   -0.00027527    0.09579116
     atom   26 type  1   force =    -0.00014798   -0.00023833   -0.17569780
     atom   27 type  2   force =     0.00009173   -0.00012611   -0.02330501
     atom   28 type  2   force =     0.00007972   -0.00129546    0.05331887
     atom   29 type  2   force =    -0.01194586   -0.00006081    0.00375015
     atom   30 type  2   force =     0.01319618    0.00042626    0.00212668
     atom   31 type  1   force =    -0.00141605    0.00344822   -0.01082333
     atom   32 type  1   force =     0.00064104   -0.01009694    0.02563412
     atom   33 type  2   force =    -0.00039197    0.00005069    0.00004116
     atom   34 type  2   force =     0.00074998    0.00089802   -0.02307411
     atom   35 type  2   force =    -0.00010197    0.00029562   -0.00001989
     atom   36 type  2   force =    -0.00022482    0.00060028   -0.00028546
     atom   37 type  1   force =    -0.00082012   -0.00102727   -0.00012056
     atom   38 type  1   force =    -0.00003646   -0.00009853   -0.00000933
     atom   39 type  2   force =    -0.00035110    0.00005203    0.00056462
     atom   40 type  2   force =     0.00048984    0.00025126    0.00026259
     atom   41 type  2   force =     0.00005026    0.00050099    0.00026192
     atom   42 type  2   force =     0.00007862    0.00028260   -0.00018773
     atom   43 type  1   force =     0.00019914    0.00009331   -0.00018336
     atom   44 type  1   force =    -0.00025980   -0.00059824    0.00004169
     atom   45 type  2   force =     0.00007146   -0.00008778    0.10324259
     atom   46 type  2   force =    -0.07148073   -0.00016909   -0.02770648
     atom   47 type  2   force =     0.07140677    0.00030803   -0.02772188
     atom   48 type  3   force =    -0.00063052   -0.00000725   -0.00001744
     atom   49 type  3   force =     0.00066066   -0.00019658    0.00027718
     atom   50 type  4   force =    -0.00676309   -0.00100077    0.00452816
     atom   51 type  5   force =     0.00914412    0.00134607   -0.00482227
     atom   52 type  5   force =    -0.00103334    0.00056436   -0.00015081
     atom   53 type  5   force =    -0.00032456   -0.00168069    0.00058017
     atom   54 type  5   force =     0.00002581    0.00072569   -0.00043573
     atom   55 type  5   force =    -0.00025211   -0.00024984   -0.00005486

     Total force =     0.367560     Total SCF correction =     0.000453
  @ DRIVER MODE: Message from server: STATUS
  @ DRIVER MODE: Message from server: GETFORCE
  @ DRIVER MODE: Returning v,forces,stress,ensemble

     Writing output data file ./calc.save/
  @ DRIVER MODE: Message from server: EXIT
  @ DRIVE MODE: Exiting

     General routines

     Parallel routines

   This run was terminated on:   3:12:32  25Aug2021

   JOB DONE.