     Program PWSCF v.6.7GPU starts on  2Aug2021 at 17: 2: 6

     R & G space division:  proc/nbgrp/npool/nimage =      16
     Reading input from /storage/home/hcoda1/3/ntian30/research/carbon/02Aug_vib_paired/ads_slab/CH3NH_a/out_0021/pw.inp
Warning: card &CELL ignored
Warning: card   CELL_DYNAMICS='IPI', ignored
Warning: card / ignored

     Current dimensions of program PWSCF are:
     Max number of different atomic species (ntypx) = 10
     Max number of k-points (npk) =  40000
     Max angular momentum in pseudopotentials (lmaxx) =  3
     Presently no symmetry can be used with electric field

     Message from routine cell_base_init:
     DEPRECATED: use true lattice parameter, not A to a.u. conversion factor

     IMPORTANT: XC functional enforced from input :
     Exchange-correlation= BEEF-VDW
                           (   1   4  43  14   2   0   0)
     Any further DFT definition will be discarded
     Please, verify this is what you really want

  @ DRIVER MODE: Connecting to
 qe_1139763_2482540.sched-torque.pace.gatech.edud4v9hfax_scratch
  using UNIX socket
  @ DRIVER MODE: Message from server: STATUS
  @ DRIVER MODE: Message from server: INIT
  @ DRIVER MODE: Receiving replica           0          -1
  @ DRIVER MODE: Receiving encoded integer          25
  @ DRIVER MODE:  SCF:  T  FORCE:  T  STRESS:  F  VC:  F  ENSEMBLE:  F
  @ DRIVER MODE:  SCF:  T  FORCE:  T  STRESS:  F  VC:  F  ENSEMBLE:  F

     Using Slab Decomposition

     bravais-lattice index     =            0
     lattice parameter (alat)  =       1.8897  a.u.
     unit-cell volume          =    6658.9804 (a.u.)^3
     number of atoms/cell      =           53
     number of atomic types    =            5
     number of electrons       =       391.00
     number of Kohn-Sham states=          205
     kinetic-energy cutoff     =      29.3995  Ry
     charge density cutoff     =     293.9946  Ry
     scf convergence threshold =      7.3E-08
     mixing beta               =       0.0500
     number of iterations used =            8  plain     mixing
     Exchange-correlation= BEEF-VDW
                           (   1   4  43  14   2   0   0)

     celldm(1)=   1.889726  celldm(2)=   0.000000  celldm(3)=   0.000000
     celldm(4)=   0.000000  celldm(5)=   0.000000  celldm(6)=   0.000000

     crystal axes: (cart. coord. in units of alat)
               a(1) = (   6.579727   0.000000   0.000000 )
               a(2) = (  -0.000775   5.961596   0.000000 )
               a(3) = (   0.000000   0.000000  25.155947 )

     reciprocal axes: (cart. coord. in units 2 pi/alat)
               b(1) = (  0.151982  0.000020  0.000000 )
               b(2) = (  0.000000  0.167740  0.000000 )
               b(3) = (  0.000000  0.000000  0.039752 )

     PseudoPot. # 1 for Ti read from file:
     /storage/coda1/p-amedford6/0/shared/rich_project_chbe-medford/medford-share/data/pseudos_module/espresso/nninc/pbe/van/Ti.UPF
     MD5 check sum: 8e4df49b7f0d34bbd5052bf3f5ea0213
     Pseudo is Ultrasoft, Zval = 12.0
     Generated by new atomic code, or converted to UPF format
     Using radial grid of  851 points,  6 beta functions with:
                l(1) =   0
                l(2) =   0
                l(3) =   1
                l(4) =   1
                l(5) =   2
                l(6) =   2
     Q(r) pseudized with  8 coefficients,  rinner =    1.000   1.000   1.000
                                                       1.000   1.000

     PseudoPot. # 2 for O  read from file:
     /storage/coda1/p-amedford6/0/shared/rich_project_chbe-medford/medford-share/data/pseudos_module/espresso/nninc/pbe/van/O.UPF
     MD5 check sum: 78c19812648e8988a0fe644b0f25305e
     Pseudo is Ultrasoft, Zval =  6.0
     Generated by new atomic code, or converted to UPF format
     Using radial grid of  737 points,  4 beta functions with:
                l(1) =   0
                l(2) =   0
                l(3) =   1
                l(4) =   1
     Q(r) pseudized with  8 coefficients,  rinner =    0.800   0.800   0.800

     PseudoPot. # 3 for H  read from file:
     /storage/coda1/p-amedford6/0/shared/rich_project_chbe-medford/medford-share/data/pseudos_module/espresso/nninc/pbe/van/H.UPF
     MD5 check sum: b5ee9d7bfd3a09ee7748110bda690ff7
     Pseudo is Ultrasoft, Zval =  1.0
     Generated by new atomic code, or converted to UPF format
     Using radial grid of  615 points,  1 beta functions with:
                l(1) =   0
     Q(r) pseudized with  8 coefficients,  rinner =    0.800

     PseudoPot. # 4 for N  read from file:
     /storage/coda1/p-amedford6/0/shared/rich_project_chbe-medford/medford-share/data/pseudos_module/espresso/nninc/pbe/van/N.UPF
     MD5 check sum: 90d10febe142ad51ac9d5be1deb811c4
     Pseudo is Ultrasoft, Zval =  5.0
     Generated by new atomic code, or converted to UPF format
     Using radial grid of  729 points,  4 beta functions with:
                l(1) =   0
                l(2) =   0
                l(3) =   1
                l(4) =   1
     Q(r) pseudized with  8 coefficients,  rinner =    0.800   0.800   0.800

     PseudoPot. # 5 for C  read from file:
     /storage/coda1/p-amedford6/0/shared/rich_project_chbe-medford/medford-share/data/pseudos_module/espresso/nninc/pbe/van/C.UPF
     MD5 check sum: 1a69bf6b8db32088f5b2163dbdb77a27
     Pseudo is Ultrasoft, Zval =  4.0
     Generated by new atomic code, or converted to UPF format
     Using radial grid of  721 points,  4 beta functions with:
                l(1) =   0
                l(2) =   0
                l(3) =   1
                l(4) =   1
     Q(r) pseudized with  8 coefficients,  rinner =    0.800   0.800   0.800

     atomic species   valence    mass     pseudopotential
        Ti1           12.00    47.86700     Ti( 1.00)
        O1             6.00    15.99900     O ( 1.00)
        H1             1.00     1.00800     H ( 1.00)
        N1             5.00    14.00700     N ( 1.00)
        C1             4.00    12.01100     C ( 1.00)

     No symmetry found

   Cartesian axes

     site n.     atom                  positions (alat units)
         1           Ti1 tau(   1) = (   0.0004258   2.9801865   6.0000000  )
         2           Ti1 tau(   2) = (   3.2906075   1.4906267   6.0002472  )
         3           O1  tau(   3) = (   0.0006271   0.0005054   7.9858123  )
         4           O1  tau(   4) = (   3.2906025   0.0005020   7.3038282  )
         5           O1  tau(   5) = (   4.5942328   1.4918067   9.2879030  )
         6           O1  tau(   6) = (   1.9868534   1.4903216   9.2879459  )
         7           Ti1 tau(   7) = (   3.2907910   2.8959150   9.1758416  )
         8           Ti1 tau(   8) = (   0.0015273   1.4827037   9.2680791  )
         9           O1  tau(   9) = (   3.2884659   0.0075485  11.3235732  )
        10           O1  tau(  10) = (   0.0116148   5.9584955  10.6183126  )
        11           O1  tau(  11) = (   1.3171120   1.5008813  12.6157184  )
        12           O1  tau(  12) = (   5.2946386   1.4924346  12.6071097  )
        13           Ti1 tau(  13) = (   6.5241923   2.9548932  12.6217359  )
        14           Ti1 tau(  14) = (   3.2094326   1.4975571  12.4685497  )
        15           O1  tau(  15) = (   6.5712017   0.0435206  14.6415704  )
        16           O1  tau(  16) = (   3.3105969   0.0188825  13.9167609  )
        17           O1  tau(  17) = (   4.5276945   1.5520673  16.0775932  )
        18           O1  tau(  18) = (   2.0451199   1.5488911  16.0433559  )
        19           Ti1 tau(  19) = (   3.3056363   3.0248959  15.6834923  )
        20           Ti1 tau(  20) = (   0.0598299   1.5678558  15.8702049  )
        21           O1  tau(  21) = (   3.2904802   0.0005063   4.7018136  )
        22           O1  tau(  22) = (   0.0261329   0.0581799  17.1997403  )
        23           O1  tau(  23) = (   1.3043587   1.4918075   6.0039043  )
        24           O1  tau(  24) = (   5.2767064   1.4903225   6.0039473  )
        25           Ti1 tau(  25) = (   0.0000382   5.9609847   6.0000000  )
        26           Ti1 tau(  26) = (   3.2902200   4.4714249   6.0002472  )
        27           O1  tau(  27) = (   0.0002396   2.9813036   7.9858123  )
        28           O1  tau(  28) = (   3.2902150   2.9813002   7.3038282  )
        29           O1  tau(  29) = (   4.5938453   4.4726049   9.2879030  )
        30           O1  tau(  30) = (   1.9864658   4.4711199   9.2879459  )
        31           Ti1 tau(  31) = (   3.2891106   5.8743827   9.1763621  )
        32           Ti1 tau(  32) = (   0.0006254   4.4649316   9.2693709  )
        33           O1  tau(  33) = (   3.2900467   2.9919642  11.3219399  )
        34           O1  tau(  34) = (   0.0092240   2.9805883  10.6323155  )
        35           O1  tau(  35) = (   1.3109590   4.4888342  12.6262493  )
        36           O1  tau(  36) = (   5.2962169   4.4808628  12.6191006  )
        37           Ti1 tau(  37) = (   6.5213093   5.9327278  12.5667326  )
        38           Ti1 tau(  38) = (   3.2063601   4.4772876  12.4706241  )
        39           O1  tau(  39) = (   6.5765807   2.9606619  14.6437028  )
        40           O1  tau(  40) = (   3.3047873   3.0036736  13.8926904  )
        41           O1  tau(  41) = (   4.5386289   4.5058657  16.0833063  )
        42           O1  tau(  42) = (   2.0584685   4.5123608  16.0729366  )
        43           Ti1 tau(  43) = (   3.3398093   0.0384087  15.7085799  )
        44           Ti1 tau(  44) = (   0.0478225   4.6849499  16.0879628  )
        45           O1  tau(  45) = (   3.2900926   2.9813045   4.7018136  )
        46           O1  tau(  46) = (   1.3039711   4.4726057   6.0039043  )
        47           O1  tau(  47) = (   5.2763189   4.4711207   6.0039473  )
        48           H1  tau(  48) = (   5.6109407   2.9912845  17.7881963  )
        49           N1  tau(  49) = (   6.5652763   3.0051276  17.4431066  )
        50           C1  tau(  50) = (   0.8863280   2.9891452  18.6126320  )
        51           H1  tau(  51) = (   1.3596840   3.9517220  18.7724638  )
        52           H1  tau(  52) = (   0.3315535   2.7344040  19.5171108  )
        53           H1  tau(  53) = (   1.6705027   2.2407838  18.4910999  )

     number of k points=    10  Fermi-Dirac smearing, width (Ry)=  0.0073
                       cart. coord. in units 2pi/alat
        k(    1) = (   0.0000000   0.0000000   0.0000000), wk =   0.1250000
        k(    2) = (   0.0000000   0.0419351   0.0000000), wk =   0.2500000
        k(    3) = (   0.0000000  -0.0838702   0.0000000), wk =   0.1250000
        k(    4) = (   0.0379955   0.0000049   0.0000000), wk =   0.2500000
        k(    5) = (   0.0379955   0.0419400   0.0000000), wk =   0.2500000
        k(    6) = (   0.0379955  -0.0838652   0.0000000), wk =   0.2500000
        k(    7) = (   0.0379955  -0.0419301   0.0000000), wk =   0.2500000
        k(    8) = (  -0.0759910  -0.0000099   0.0000000), wk =   0.1250000
        k(    9) = (  -0.0759910   0.0419252   0.0000000), wk =   0.2500000
        k(   10) = (  -0.0759910  -0.0838800   0.0000000), wk =   0.1250000

     Initial potential from superposition of free atoms

     starting charge  374.99916, renormalised to  391.00000

     negative rho (up, down):  1.779E-02 0.000E+00

     %%%%%%%%%%%%%%%%%%%%%%%%%%%%%%%%%%%%%%%%%%%%%%%%%%%%%%%%%%%%%%%%%%%%%%%%
     %                                                                      %
     % You are using vdW-DF, which was implemented by the Thonhauser group. %
     % Please cite the following two papers that made this development      %
     % possible and the two reviews that describe the various versions:     %
     %                                                                      %
     %   T. Thonhauser et al., PRL 115, 136402 (2015).                      %
     %   T. Thonhauser et al., PRB 76, 125112 (2007).                       %
     %   K. Berland et al., Rep. Prog. Phys. 78, 066501 (2015).             %
     %   D.C. Langreth et al., J. Phys.: Condens. Matter 21, 084203 (2009). %
     %                                                                      %
     %                                                                      %
     % If you are calculating the stress with vdW-DF, please also cite:     %
     %                                                                      %
     %   R. Sabatini et al., J. Phys.: Condens. Matter 24, 424209 (2012).   %
     %                                                                      %
     %%%%%%%%%%%%%%%%%%%%%%%%%%%%%%%%%%%%%%%%%%%%%%%%%%%%%%%%%%%%%%%%%%%%%%%%

     Adding external electric field

     Computed dipole along edir(3) :
        Dipole               -5.8084 Ry au,        -14.7635 Debye
        Dipole field         -0.0110 Ry au,

        Potential amp.        1.0161 Ry
        Total length         46.3494 bohr

     Starting wfcs are  296 atomic wfcs
  @ DRIVER MODE: Message from server: STATUS
  @ DRIVER MODE: Message from server: POSDATA
  @ DRIVER MODE: Reading and sharing cell
  @ DRIVER MODE: Reading and sharing positions
  @ DRIVER MODE: Received positions

     Self-consistent Calculation

     iteration #  1     ecut=    29.40 Ry     beta= 0.05
     Davidson diagonalization with overlap
     c_bands:  1 eigenvalues not converged
     c_bands:  1 eigenvalues not converged
     c_bands:  1 eigenvalues not converged
     c_bands:  2 eigenvalues not converged
     c_bands:  4 eigenvalues not converged
     c_bands:  2 eigenvalues not converged
     c_bands:  1 eigenvalues not converged
     c_bands:  1 eigenvalues not converged
     c_bands:  2 eigenvalues not converged
     ethr =  1.00E-05,  avg # of iterations = 19.5

[...]

     total energy              =   -2770.93067089 Ry
     estimated scf accuracy    <    1638.35215232 Ry

     iteration #  2     ecut=    29.40 Ry     beta= 0.05
     Davidson diagonalization with overlap
     ethr =  1.00E-02,  avg # of iterations = 18.4

[...]

     iteration # 62     ecut=    29.40 Ry     beta= 0.05
     Davidson diagonalization with overlap
     ethr =  3.91E-11,  avg # of iterations =  7.9

[...]

     total energy              =   -2920.41979995 Ry
     estimated scf accuracy    <       0.00000010 Ry

     iteration # 63     ecut=    29.40 Ry     beta= 0.05
     Davidson diagonalization with overlap
     c_bands:  1 eigenvalues not converged
     ethr =  2.45E-11,  avg # of iterations = 10.1

     negative rho (up, down):  1.826E-02 0.000E+00

     Adding external electric field

     Computed dipole along edir(3) :
        Dipole                0.6967 Ry au,          1.7707 Debye
        Dipole field          0.0013 Ry au,

        Potential amp.       -0.1219 Ry
        Total length         46.3494 bohr

     End of self-consistent calculation

          k = 0.0000 0.0000 0.0000 ( 18029 PWs)   bands (ev):

   -55.9818 -55.9732 -55.9477 -55.9371 -55.8849 -55.8243 -55.8196 -55.7866
   -55.7849 -55.7527 -55.7458 -55.7121 -55.5549 -55.2746 -54.9542 -54.9201
   -32.5332 -32.4633 -32.3340 -32.3208 -32.3004 -32.2859 -32.2749 -32.2369
   -32.2233 -32.2205 -32.1962 -32.1892 -32.1564 -32.1339 -32.1249 -32.1178
   -32.1162 -32.0853 -32.0646 -32.0389 -32.0308 -32.0266 -32.0108 -31.9892
   -31.9796 -31.9775 -31.9729 -31.9628 -31.9493 -31.9426 -31.9403 -31.9349
   -31.9228 -31.9169 -31.8991 -31.8935 -31.8584 -31.8197 -31.7239 -31.5490
   -31.5425 -31.4714 -31.3611 -31.2733 -31.2508 -31.1778 -31.0913 -30.9803
   -16.7424 -16.4590 -16.2798 -16.1367 -16.1035 -16.0185 -15.8180 -15.6928
   -15.6798 -15.5767 -15.5389 -15.5161 -15.5083 -15.4813 -15.4782 -15.4192
   -15.4162 -15.4038 -15.3915 -15.3353 -15.3113 -15.2715 -15.1774 -15.1534
   -15.1379 -15.1115 -15.0303 -15.0231 -14.5830 -14.1032 -13.4569 -13.3406
    -8.9541  -4.3697  -4.1131  -3.9363  -3.8978  -3.8842  -3.8354  -3.5838
    -3.5677  -3.3235  -3.1920  -3.1826  -3.1672  -3.1528  -3.1373  -3.1185
    -2.8805  -2.8108  -2.7966  -2.7745  -2.7670  -2.7639  -2.7520  -2.7477
    -2.7053  -2.6452  -2.5291  -2.5144  -2.4087  -2.3614  -2.3399  -2.2913
    -2.2479  -2.2409  -2.2292  -2.2114  -2.1981  -2.1776  -2.1597  -2.0253
    -1.9620  -1.8335  -1.7862  -1.7803  -1.5822  -1.5373  -1.4478  -1.4244
    -1.4080  -1.4005  -1.3684  -1.2881  -1.1974  -1.1396  -1.1261  -1.0733
    -0.9967  -0.9851  -0.8747  -0.8700  -0.8065  -0.7504  -0.7411  -0.7317
    -0.6869  -0.6132  -0.5410  -0.4660  -0.4164  -0.3950  -0.3678  -0.2892
    -0.2591  -0.1625  -0.1440  -0.0978  -0.0941  -0.0451  -0.0033   0.0067
     0.0132   0.0279   0.0457   0.1943   0.3014   0.3579   0.3915   0.4024
     0.5578   0.5938   0.6817   0.7694   0.9945   1.0675   1.1617   1.2606
     1.3227   1.6384   1.6838   3.1614   3.2403   3.2936   3.3021   3.4036
     3.4061   3.6112   3.6238   3.6343   3.7024

[...]

          k = 0.0380-0.0419 0.0000 ( 17876 PWs)   bands (ev):

[...]

          k =-0.0760-0.0000 0.0000 ( 17886 PWs)   bands (ev):

[...]

          k =-0.0760-0.0839 0.0000 ( 17948 PWs)   bands (ev):

   -55.9650 -55.9643 -55.9561 -55.9540 -55.8795 -55.8296 -55.8044 -55.8001
   -55.7703 -55.7685 -55.7296 -55.7284 -55.5540 -55.2755 -54.9372 -54.9370
   -32.3375 -32.3346 -32.2789 -32.2784 -32.2658 -32.2607 -32.2599 -32.2455
   -32.1831 -32.1821 -32.1756 -32.1718 -32.1485 -32.1203 -32.1018 -32.0977
   -32.0870 -32.0844 -32.0837 -32.0834 -32.0815 -32.0695 -32.0671 -32.0357
   -32.0248 -32.0190 -31.9946 -31.9853 -31.9671 -31.9666 -31.9626 -31.9615
   -31.9446 -31.9439 -31.9419 -31.9401 -31.8879 -31.8224 -31.7191 -31.6122
   -31.5446 -31.4968 -31.2636 -31.2635 -31.1739 -31.1738 -31.1346 -31.1346
   -16.1943 -16.1609 -15.9254 -15.9158 -15.9069 -15.8907 -15.7461 -15.6942
   -15.6858 -15.6792 -15.6547 -15.6311 -15.5798 -15.5495 -15.5156 -15.5090
   -15.5024 -15.4970 -15.4407 -15.4342 -15.4119 -15.4045 -15.2909 -15.2868
   -15.2852 -15.2091 -15.1448 -15.0115 -14.7530 -14.1242 -13.4427 -13.4423
    -8.9579  -4.3809  -3.4889  -3.4507  -3.2865  -3.2024  -3.1658  -3.1522
    -3.1308  -3.0523  -2.8918  -2.8772  -2.8587  -2.8461  -2.8056  -2.8006
    -2.7889  -2.7748  -2.7678  -2.7501  -2.7162  -2.6755  -2.6478  -2.6405
    -2.6312  -2.6065  -2.5943  -2.5678  -2.5624  -2.5296  -2.5214  -2.5026
    -2.4787  -2.2183  -2.1987  -2.1811  -2.1118  -2.1049  -2.0705  -2.0619
    -2.0431  -2.0297  -1.9776  -1.8764  -1.7132  -1.6803  -1.6674  -1.6508
    -1.5857  -1.5649  -1.4164  -1.3883  -1.3710  -1.3312  -1.2824  -1.2526
    -1.2156  -1.1760  -1.1387  -1.0781  -1.0701  -0.9912  -0.9411  -0.9406
    -0.9133  -0.8435  -0.7646  -0.7474  -0.7357  -0.6946  -0.6809  -0.5993
    -0.5767  -0.4784  -0.4655  -0.3955  -0.3641  -0.2981  -0.0944   0.0037
     0.0626   0.0862   0.1394   0.2367   0.2909   0.3048   0.3381   0.3430
     0.4030   0.4439   0.5581   0.5657   0.6342   0.7377   1.2713   1.4319
     1.4326   1.5035   1.5037   3.4234   3.4292   3.4785   3.5094   3.6610
     3.6655   3.6881   3.6892   3.8105   3.8301

     the Fermi energy is     3.1546 ev

!    total energy              =   -2920.41983136 Ry
     estimated scf accuracy    <       0.00000006 Ry
     smearing contrib. (-TS)   =      -0.02202873 Ry
     internal energy E=F+TS    =   -2920.39780263 Ry

     The total energy is F=E-TS. E is the sum of the following terms:
     one-electron contribution =  -24727.76418557 Ry
     hartree contribution      =   12448.54481270 Ry
     xc contribution           =    -480.88175185 Ry
     ewald contribution        =    9839.70240619 Ry
     electric field correction =       0.00091590 Ry

     convergence has been achieved in  63 iterations

     Forces acting on atoms (cartesian axes, Ry/au):

     atom    1 type  1   force =     0.00011873   -0.00017468    0.09688363
     atom    2 type  1   force =     0.00004985   -0.00046520   -0.17503166
     atom    3 type  2   force =     0.00012802    0.00000775   -0.02534755
     atom    4 type  2   force =    -0.00003628   -0.00128085    0.05234804
     atom    5 type  2   force =    -0.01223027   -0.00000212    0.00298441
     atom    6 type  2   force =     0.01366719    0.00059076    0.00231855
     atom    7 type  1   force =     0.00057088    0.00033751   -0.01302180
     atom    8 type  1   force =     0.00045939    0.00731251    0.03072388
     atom    9 type  2   force =     0.00055971    0.00003002   -0.00021750
     atom   10 type  2   force =    -0.00267772    0.00211113   -0.01739853
     atom   11 type  2   force =    -0.00014850    0.00007381   -0.00003339
     atom   12 type  2   force =     0.00047717    0.00033928    0.00017510
     atom   13 type  1   force =    -0.00009383   -0.00054521   -0.00016232
     atom   14 type  1   force =    -0.00043198    0.00003370    0.00079375
     atom   15 type  2   force =     0.00000235   -0.00076568    0.00078206
     atom   16 type  2   force =     0.00025681    0.00062719   -0.00046807
     atom   17 type  2   force =     0.00063602    0.00008075    0.00063950
     atom   18 type  2   force =    -0.00009851   -0.00007485    0.00002983
     atom   19 type  1   force =     0.00001843    0.00043432   -0.00029616
     atom   20 type  1   force =    -0.00025103   -0.00056265    0.00007752
     atom   21 type  2   force =     0.00006151   -0.00002637    0.10309074
     atom   22 type  2   force =     0.00014390   -0.00089198    0.00100148
     atom   23 type  2   force =    -0.07165548   -0.00015016   -0.02780433
     atom   24 type  2   force =     0.07155061    0.00034630   -0.02786216
     atom   25 type  1   force =     0.00007889   -0.00013872    0.09661026
     atom   26 type  1   force =     0.00009254   -0.00020733   -0.17515936
     atom   27 type  2   force =     0.00011611   -0.00011317   -0.02440988
     atom   28 type  2   force =     0.00004473   -0.00103864    0.05225915
     atom   29 type  2   force =    -0.01242947    0.00064162    0.00277470
     atom   30 type  2   force =     0.01373680    0.00098507    0.00211974
     atom   31 type  1   force =     0.00045778    0.00315758   -0.01357613
     atom   32 type  1   force =     0.00031866   -0.00952370    0.03109957
     atom   33 type  2   force =    -0.00007062    0.00031297   -0.00061088
     atom   34 type  2   force =    -0.00206514    0.00182344   -0.02539626
     atom   35 type  2   force =    -0.00018555   -0.00028902    0.00036697
     atom   36 type  2   force =     0.00027014   -0.00077939    0.00039674
     atom   37 type  1   force =     0.00004792    0.00026659    0.00103862
     atom   38 type  1   force =    -0.00021579    0.00038167    0.00075326
     atom   39 type  2   force =    -0.00006020   -0.00017334   -0.00063525
     atom   40 type  2   force =     0.00042052    0.00007378    0.00058691
     atom   41 type  2   force =     0.00026901   -0.00024432   -0.00003366
     atom   42 type  2   force =    -0.00050047   -0.00041891   -0.00028191
     atom   43 type  1   force =    -0.00077241   -0.00017594    0.00041267
     atom   44 type  1   force =    -0.00035138   -0.00069566    0.00058310
     atom   45 type  2   force =     0.00004103   -0.00004997    0.10312604
     atom   46 type  2   force =    -0.07164535   -0.00007538   -0.02780038
     atom   47 type  2   force =     0.07156419    0.00034597   -0.02787047
     atom   48 type  3   force =    -0.00000914   -0.00046521   -0.00005837
     atom   49 type  4   force =    -0.00024756    0.00014343   -0.00059114
     atom   50 type  5   force =    -0.00310254   -0.01008428   -0.00045799
     atom   51 type  3   force =     0.00311695    0.01055776    0.00137139
     atom   52 type  3   force =     0.00014396   -0.00081667   -0.00042216
     atom   53 type  3   force =    -0.00014059   -0.00078553   -0.00040032

     Total force =     0.368735     Total SCF correction =     0.000698
  @ DRIVER MODE: Message from server: STATUS
  @ DRIVER MODE: Message from server: GETFORCE
  @ DRIVER MODE: Returning v,forces,stress,ensemble

     Writing output data file ./calc.save/
  @ DRIVER MODE: Message from server: EXIT
  @ DRIVE MODE: Exiting

     General routines

     Parallel routines

   This run was terminated on:  17:14:39   2Aug2021

   JOB DONE.