     Program PWSCF v.6.7GPU starts on 25Sep2021 at 18:54: 9

     R & G space division:  proc/nbgrp/npool/nimage =       8
     Reading input from /storage/home/hcoda1/3/ntian30/research/carbon/CxH_vib/H2O_calc/ads_slab/CH2OHN2HO_a/out_0008/pw.inp
Warning: card &CELL ignored
Warning: card   CELL_DYNAMICS='IPI', ignored
Warning: card / ignored

     Current dimensions of program PWSCF are:
     Max number of different atomic species (ntypx) = 10
     Max number of k-points (npk) =  40000
     Max angular momentum in pseudopotentials (lmaxx) =  3
     Presently no symmetry can be used with electric field

     Message from routine cell_base_init:
     DEPRECATED: use true lattice parameter, not A to a.u. conversion factor

     IMPORTANT: XC functional enforced from input :
     Exchange-correlation= BEEF-VDW
                           (   1   4  43  14   2   0   0)
     Any further DFT definition will be discarded
     Please, verify this is what you really want

  @ DRIVER MODE: Connecting to
 qe_1139763_2971670.sched-torque.pace.gatech.edu3o21fcg0_scratch
  using UNIX socket
  @ DRIVER MODE: Message from server: STATUS
  @ DRIVER MODE: Message from server: INIT
  @ DRIVER MODE: Receiving replica           0          -1
  @ DRIVER MODE: Receiving encoded integer          25
  @ DRIVER MODE:  SCF:  T  FORCE:  T  STRESS:  F  VC:  F  ENSEMBLE:  F
  @ DRIVER MODE:  SCF:  T  FORCE:  T  STRESS:  F  VC:  F  ENSEMBLE:  F

     Using Slab Decomposition

     bravais-lattice index     =            0
     lattice parameter (alat)  =       1.8897  a.u.
     unit-cell volume          =    6658.9804 (a.u.)^3
     number of atoms/cell      =           56
     number of atomic types    =            5
     number of electrons       =       408.00
     number of Kohn-Sham states=          214
     kinetic-energy cutoff     =      29.3995  Ry
     charge density cutoff     =     293.9946  Ry
     scf convergence threshold =      7.3E-08
     mixing beta               =       0.0500
     number of iterations used =            8  plain     mixing
     Exchange-correlation= BEEF-VDW
                           (   1   4  43  14   2   0   0)

     celldm(1)=   1.889726  celldm(2)=   0.000000  celldm(3)=   0.000000
     celldm(4)=   0.000000  celldm(5)=   0.000000  celldm(6)=   0.000000

     crystal axes: (cart. coord. in units of alat)
               a(1) = (   6.579727   0.000000   0.000000 )
               a(2) = (  -0.000775   5.961596   0.000000 )
               a(3) = (   0.000000   0.000000  25.155947 )

     reciprocal axes: (cart. coord. in units 2 pi/alat)
               b(1) = (  0.151982  0.000020  0.000000 )
               b(2) = (  0.000000  0.167740  0.000000 )
               b(3) = (  0.000000  0.000000  0.039752 )

     PseudoPot. # 1 for C  read from file:
     /storage/coda1/p-amedford6/0/shared/rich_project_chbe-medford/medford-share/data/pseudos_module/espresso/nninc/pbe/van/C.UPF
     MD5 check sum: 1a69bf6b8db32088f5b2163dbdb77a27
     Pseudo is Ultrasoft, Zval =  4.0
     Generated by new atomic code, or converted to UPF format
     Using radial grid of  721 points,  4 beta functions with:
                l(1) =   0
                l(2) =   0
                l(3) =   1
                l(4) =   1
     Q(r) pseudized with  8 coefficients,  rinner =    0.800   0.800   0.800

     PseudoPot. # 2 for H  read from file:
     /storage/coda1/p-amedford6/0/shared/rich_project_chbe-medford/medford-share/data/pseudos_module/espresso/nninc/pbe/van/H.UPF
     MD5 check sum: b5ee9d7bfd3a09ee7748110bda690ff7
     Pseudo is Ultrasoft, Zval =  1.0
     Generated by new atomic code, or converted to UPF format
     Using radial grid of  615 points,  1 beta functions with:
                l(1) =   0
     Q(r) pseudized with  8 coefficients,  rinner =    0.800

     PseudoPot. # 3 for O  read from file:
     /storage/coda1/p-amedford6/0/shared/rich_project_chbe-medford/medford-share/data/pseudos_module/espresso/nninc/pbe/van/O.UPF
     MD5 check sum: 78c19812648e8988a0fe644b0f25305e
     Pseudo is Ultrasoft, Zval =  6.0
     Generated by new atomic code, or converted to UPF format
     Using radial grid of  737 points,  4 beta functions with:
                l(1) =   0
                l(2) =   0
                l(3) =   1
                l(4) =   1
     Q(r) pseudized with  8 coefficients,  rinner =    0.800   0.800   0.800

     PseudoPot. # 4 for Ti read from file:
     /storage/coda1/p-amedford6/0/shared/rich_project_chbe-medford/medford-share/data/pseudos_module/espresso/nninc/pbe/van/Ti.UPF
     MD5 check sum: 8e4df49b7f0d34bbd5052bf3f5ea0213
     Pseudo is Ultrasoft, Zval = 12.0
     Generated by new atomic code, or converted to UPF format
     Using radial grid of  851 points,  6 beta functions with:
                l(1) =   0
                l(2) =   0
                l(3) =   1
                l(4) =   1
                l(5) =   2
                l(6) =   2
     Q(r) pseudized with  8 coefficients,  rinner =    1.000   1.000   1.000
                                                       1.000   1.000

     PseudoPot. # 5 for N  read from file:
     /storage/coda1/p-amedford6/0/shared/rich_project_chbe-medford/medford-share/data/pseudos_module/espresso/nninc/pbe/van/N.UPF
     MD5 check sum: 90d10febe142ad51ac9d5be1deb811c4
     Pseudo is Ultrasoft, Zval =  5.0
     Generated by new atomic code, or converted to UPF format
     Using radial grid of  729 points,  4 beta functions with:
                l(1) =   0
                l(2) =   0
                l(3) =   1
                l(4) =   1
     Q(r) pseudized with  8 coefficients,  rinner =    0.800   0.800   0.800

     atomic species   valence    mass     pseudopotential
        C1             4.00    12.01100     C ( 1.00)
        H1             1.00     1.00800     H ( 1.00)
        O1             6.00    15.99900     O ( 1.00)
        Ti1           12.00    47.86700     Ti( 1.00)
        N1             5.00    14.00700     N ( 1.00)

     No symmetry found

   Cartesian axes

     site n.     atom                  positions (alat units)
         1           C1  tau(   1) = (   4.4694424   3.1333252  19.5683752  )
         2           H1  tau(   2) = (   3.5225350   3.1610456  19.0510688  )
         3           H1  tau(   3) = (   5.8501665   2.9975095  17.9951248  )
         4           H1  tau(   4) = (   4.8161173   2.2403860  20.0673745  )
         5           O1  tau(   5) = (   0.0006271   0.0005054   7.9858123  )
         6           O1  tau(   6) = (   3.2906025   0.0005020   7.3038282  )
         7           O1  tau(   7) = (   4.5942328   1.4918067   9.2879030  )
         8           O1  tau(   8) = (   1.9868534   1.4903216   9.2879459  )
         9           O1  tau(   9) = (   3.2658522   0.0207364  11.3165592  )
        10           O1  tau(  10) = (   0.0022773   0.0111808  10.5833539  )
        11           O1  tau(  11) = (   1.2584498   1.5025451  12.6333345  )
        12           O1  tau(  12) = (   5.2827793   1.4879884  12.6049259  )
        13           O1  tau(  13) = (   6.5229081   0.0016576  14.6697044  )
        14           O1  tau(  14) = (   3.2671471   5.9223268  13.9212949  )
        15           O1  tau(  15) = (   4.5038562   1.5078053  16.0770842  )
        16           O1  tau(  16) = (   1.9713840   1.5400684  15.9915579  )
        17           O1  tau(  17) = (   3.2904802   0.0005063   4.7018136  )
        18           O1  tau(  18) = (   0.0083768   5.9574009  17.1899481  )
        19           O1  tau(  19) = (   1.3043587   1.4918075   6.0039043  )
        20           O1  tau(  20) = (   5.2767064   1.4903225   6.0039473  )
        21           O1  tau(  21) = (   0.0002396   2.9813036   7.9858123  )
        22           O1  tau(  22) = (   3.2902150   2.9813002   7.3038282  )
        23           O1  tau(  23) = (   4.5938453   4.4726049   9.2879030  )
        24           O1  tau(  24) = (   1.9864658   4.4711199   9.2879459  )
        25           O1  tau(  25) = (   3.2699439   2.9592623  11.2883102  )
        26           O1  tau(  26) = (   0.0014687   2.9942081  10.5424492  )
        27           O1  tau(  27) = (   1.2624719   4.4656417  12.6394791  )
        28           O1  tau(  28) = (   5.2897987   4.4902883  12.6063686  )
        29           O1  tau(  29) = (   6.5205774   2.9949485  14.6561412  )
        30           O1  tau(  30) = (   3.3050662   2.9767913  13.8748461  )
        31           O1  tau(  31) = (   4.4950179   4.4323158  16.0974573  )
        32           O1  tau(  32) = (   1.9671975   4.4064719  15.9829847  )
        33           O1  tau(  33) = (   3.2900926   2.9813045   4.7018136  )
        34           O1  tau(  34) = (   1.3039711   4.4726057   6.0039043  )
        35           O1  tau(  35) = (   5.2763189   4.4711207   6.0039473  )
        36           O1  tau(  36) = (   6.5424668   2.9800173  17.2949776  )
        37           Ti1 tau(  37) = (   0.0004258   2.9801865   6.0000000  )
        38           Ti1 tau(  38) = (   3.2906075   1.4906267   6.0002472  )
        39           Ti1 tau(  39) = (   3.3167600   3.1006338   9.2159236  )
        40           Ti1 tau(  40) = (   0.0391818   1.5627686   9.3440282  )
        41           Ti1 tau(  41) = (   6.5783755   3.0458713  12.7937554  )
        42           Ti1 tau(  42) = (   3.2318486   1.5634082  12.4209175  )
        43           Ti1 tau(  43) = (   3.2670811   2.9501284  15.6494465  )
        44           Ti1 tau(  44) = (   0.0280251   1.4030395  16.0254105  )
        45           Ti1 tau(  45) = (   0.0000382   5.9609847   6.0000000  )
        46           Ti1 tau(  46) = (   3.2902200   4.4714249   6.0002472  )
        47           Ti1 tau(  47) = (   3.3194908   0.1157174   9.1781592  )
        48           Ti1 tau(  48) = (   0.0398790   4.5135925   9.3581580  )
        49           Ti1 tau(  49) = (   6.5107586   0.0629955  12.6074658  )
        50           Ti1 tau(  50) = (   3.2510718   4.6571100  12.6672192  )
        51           Ti1 tau(  51) = (   3.3282601   5.9350673  16.2366838  )
        52           Ti1 tau(  52) = (   0.0495319   4.5308688  15.9870001  )
        53           N1  tau(  53) = (   5.2748021   5.2735043  20.4272172  )
        54           N1  tau(  54) = (   4.8779203   4.2732533  20.0576380  )
        55           O1  tau(  55) = (   3.0402417   5.9484128  18.0530970  )
        56           H1  tau(  56) = (   2.1234608   0.1014992  18.3542784  )

     number of k points=    10  Fermi-Dirac smearing, width (Ry)=  0.0073
                       cart. coord. in units 2pi/alat
        k(    1) = (   0.0000000   0.0000000   0.0000000), wk =   0.1250000
        k(    2) = (   0.0000000   0.0419351   0.0000000), wk =   0.2500000
        k(    3) = (   0.0000000  -0.0838702   0.0000000), wk =   0.1250000
        k(    4) = (   0.0379955   0.0000049   0.0000000), wk =   0.2500000
        k(    5) = (   0.0379955   0.0419400   0.0000000), wk =   0.2500000
        k(    6) = (   0.0379955  -0.0838652   0.0000000), wk =   0.2500000
        k(    7) = (   0.0379955  -0.0419301   0.0000000), wk =   0.2500000
        k(    8) = (  -0.0759910  -0.0000099   0.0000000), wk =   0.1250000
        k(    9) = (  -0.0759910   0.0419252   0.0000000), wk =   0.2500000
        k(   10) = (  -0.0759910  -0.0838800   0.0000000), wk =   0.1250000

     Initial potential from superposition of free atoms

     starting charge  391.99915, renormalised to  408.00000

     negative rho (up, down):  1.413E-02 0.000E+00

     %%%%%%%%%%%%%%%%%%%%%%%%%%%%%%%%%%%%%%%%%%%%%%%%%%%%%%%%%%%%%%%%%%%%%%%%
     %                                                                      %
     % You are using vdW-DF, which was implemented by the Thonhauser group. %
     % Please cite the following two papers that made this development      %
     % possible and the two reviews that describe the various versions:     %
     %                                                                      %
     %   T. Thonhauser et al., PRL 115, 136402 (2015).                      %
     %   T. Thonhauser et al., PRB 76, 125112 (2007).                       %
     %   K. Berland et al., Rep. Prog. Phys. 78, 066501 (2015).             %
     %   D.C. Langreth et al., J. Phys.: Condens. Matter 21, 084203 (2009). %
     %                                                                      %
     %                                                                      %
     % If you are calculating the stress with vdW-DF, please also cite:     %
     %                                                                      %
     %   R. Sabatini et al., J. Phys.: Condens. Matter 24, 424209 (2012).   %
     %                                                                      %
     %%%%%%%%%%%%%%%%%%%%%%%%%%%%%%%%%%%%%%%%%%%%%%%%%%%%%%%%%%%%%%%%%%%%%%%%

     Adding external electric field

     Computed dipole along edir(3) :
        Dipole              -15.5929 Ry au,        -39.6331 Debye
        Dipole field         -0.0294 Ry au,

        Potential amp.        2.7277 Ry
        Total length         46.3494 bohr

     Starting wfcs are  308 atomic wfcs
  @ DRIVER MODE: Message from server: STATUS
  @ DRIVER MODE: Message from server: POSDATA
  @ DRIVER MODE: Reading and sharing cell
  @ DRIVER MODE: Reading and sharing positions
  @ DRIVER MODE: Received positions

     Self-consistent Calculation

     iteration #  1     ecut=    29.40 Ry     beta= 0.05
     Davidson diagonalization with overlap
     c_bands:  3 eigenvalues not converged
     c_bands:  1 eigenvalues not converged
     c_bands:  1 eigenvalues not converged
     c_bands:  2 eigenvalues not converged
     c_bands:  4 eigenvalues not converged
     c_bands:  2 eigenvalues not converged
     ethr =  1.00E-05,  avg # of iterations = 30.2

[...]

     total energy              =   -2234.27097074 Ry
     estimated scf accuracy    <    8817.49752868 Ry

     iteration #  2     ecut=    29.40 Ry     beta= 0.05
     Davidson diagonalization with overlap
     ethr =  1.00E-02,  avg # of iterations = 29.7

[...]

     iteration # 68     ecut=    29.40 Ry     beta= 0.05
     Davidson diagonalization with overlap
     c_bands:  1 eigenvalues not converged
     c_bands:  1 eigenvalues not converged
     c_bands:  1 eigenvalues not converged
     ethr =  1.24E-07,  avg # of iterations = 12.2

[...]

     total energy              =   -3005.15891855 Ry
     estimated scf accuracy    <       0.00000030 Ry

     iteration # 87     ecut=    29.40 Ry     beta= 0.05
     Davidson diagonalization with overlap
     ethr =  3.81E-11,  avg # of iterations =  5.0

     negative rho (up, down):  1.446E-02 0.000E+00

     Adding external electric field

     Computed dipole along edir(3) :
        Dipole                0.4965 Ry au,          1.2619 Debye
        Dipole field          0.0009 Ry au,

        Potential amp.       -0.0869 Ry
        Total length         46.3494 bohr

     End of self-consistent calculation

          k = 0.0000 0.0000 0.0000 ( 18029 PWs)   bands (ev):

   -56.1961 -56.1497 -55.6506 -55.6502 -55.6274 -55.5821 -55.5691 -55.5299
   -55.5167 -55.4889 -55.4456 -55.4031 -55.3986 -55.2746 -54.8205 -54.7866
   -32.6102 -32.4593 -32.4106 -32.3764 -32.2820 -32.2366 -32.1455 -32.0872
   -32.0786 -32.0212 -31.9542 -31.9429 -31.9416 -31.8877 -31.8868 -31.8776
   -31.8620 -31.8453 -31.8284 -31.8116 -31.8038 -31.7925 -31.7563 -31.7337
   -31.7304 -31.7118 -31.7061 -31.7026 -31.7021 -31.6943 -31.6885 -31.6792
   -31.6693 -31.6514 -31.6482 -31.6069 -31.5979 -31.5905 -31.5650 -31.5285
   -31.4883 -31.4763 -31.2153 -31.1597 -31.1354 -31.0323 -30.9473 -30.8363
   -20.6078 -16.8431 -16.4166 -16.3585 -16.2150 -15.9852 -15.8474 -15.7634
   -15.5333 -15.5170 -15.4025 -15.3953 -15.3521 -15.2399 -15.2249 -15.1884
   -15.1803 -15.1681 -15.1559 -15.1215 -15.1160 -15.1099 -15.0422 -15.0145
   -14.9866 -14.9429 -14.8870 -14.8474 -14.7772 -14.7713 -14.7272 -14.5235
   -13.7526 -13.3211 -13.2121  -6.3496  -5.3675  -4.8357  -4.2690  -4.0106
    -3.8843  -3.6669  -3.5721  -3.5635  -3.3968  -3.3721  -3.2752  -3.0557
    -2.9227  -2.8402  -2.8100  -2.7499  -2.7267  -2.6581  -2.6227  -2.6137
    -2.5734  -2.5216  -2.4719  -2.4566  -2.4436  -2.3993  -2.3900  -2.3535
    -2.3399  -2.3359  -2.2949  -2.1482  -2.1353  -2.0765  -2.0698  -2.0245
    -2.0153  -1.9880  -1.9766  -1.9316  -1.8933  -1.7550  -1.7370  -1.7232
    -1.6557  -1.4376  -1.4033  -1.3064  -1.2461  -1.2101  -1.1165  -1.1143
    -1.0804  -1.0514  -1.0036  -0.9222  -0.8896  -0.8332  -0.7871  -0.7790
    -0.7320  -0.6647  -0.6132  -0.5577  -0.5205  -0.4781  -0.4033  -0.3504
    -0.2839  -0.2662  -0.2156  -0.1765  -0.0864  -0.0514  -0.0221   0.0304
     0.0566   0.1205   0.1238   0.1604   0.1829   0.2613   0.2914   0.3077
     0.3596   0.3821   0.3981   0.4623   0.5249   0.5658   0.6119   0.7154
     0.7601   0.7837   0.8554   0.9308   1.0999   1.1981   1.2269   1.4235
     1.4548   1.7518   1.7998   1.8566   3.1020   3.2667   3.5546   3.6450
     3.6787   3.7115   3.8093   3.8397   3.9968   4.0392

[...]

          k = 0.0380-0.0419 0.0000 ( 17876 PWs)   bands (ev):

[...]

          k =-0.0760-0.0000 0.0000 ( 17886 PWs)   bands (ev):

[...]

          k =-0.0760-0.0839 0.0000 ( 17948 PWs)   bands (ev):

   -56.1888 -56.1567 -55.6488 -55.6484 -55.6220 -55.5753 -55.5746 -55.5364
   -55.5181 -55.4906 -55.4372 -55.4115 -55.3963 -55.2768 -54.8037 -54.8033
   -32.4546 -32.4407 -32.4148 -32.4132 -32.3414 -32.3141 -32.0348 -31.9552
   -31.9515 -31.9235 -31.9209 -31.8865 -31.8849 -31.8724 -31.8672 -31.8536
   -31.8429 -31.8311 -31.8186 -31.8091 -31.8033 -31.7993 -31.7915 -31.7889
   -31.7831 -31.7823 -31.7693 -31.7539 -31.7243 -31.7194 -31.7108 -31.7015
   -31.7010 -31.6763 -31.6596 -31.6493 -31.6446 -31.6250 -31.5955 -31.5893
   -31.5282 -31.4799 -31.1485 -31.1483 -31.0308 -31.0291 -30.9896 -30.9887
   -20.6071 -16.7667 -16.3917 -15.7988 -15.6703 -15.6624 -15.6615 -15.6263
   -15.5849 -15.5318 -15.5051 -15.4508 -15.3815 -15.3569 -15.3381 -15.3128
   -15.2658 -15.2365 -15.2246 -15.1494 -15.1129 -15.0986 -15.0847 -15.0769
   -15.0302 -15.0288 -15.0095 -15.0017 -14.9942 -14.9390 -14.8408 -14.6640
   -13.7598 -13.3162 -13.3151  -6.2817  -5.4106  -4.7846  -4.2396  -3.9836
    -3.4903  -3.0267  -2.9266  -2.8472  -2.8396  -2.7520  -2.7105  -2.6802
    -2.6586  -2.6415  -2.6151  -2.5654  -2.5423  -2.5063  -2.4966  -2.4882
    -2.4763  -2.4694  -2.4508  -2.4262  -2.4087  -2.3964  -2.3823  -2.3573
    -2.3489  -2.3388  -2.3227  -2.2905  -2.2460  -2.2264  -2.0498  -2.0193
    -2.0114  -2.0109  -1.9433  -1.9399  -1.8806  -1.8093  -1.7920  -1.7708
    -1.7538  -1.6386  -1.5009  -1.4554  -1.3980  -1.3757  -1.3061  -1.2549
    -1.1576  -1.1402  -1.1290  -1.1113  -1.0669  -1.0643  -0.9776  -0.9238
    -0.8810  -0.8769  -0.8548  -0.8105  -0.6928  -0.6825  -0.6444  -0.6218
    -0.6081  -0.5061  -0.4746  -0.4538  -0.4380  -0.4276  -0.3252  -0.2711
    -0.2284  -0.1799  -0.1188  -0.0594   0.0622   0.0877   0.1836   0.2124
     0.2514   0.3876   0.4120   0.4631   0.4974   0.5532   0.5877   0.6007
     0.7329   0.7842   0.8039   0.8730   0.8912   0.9281   0.9504   1.5905
     1.5966   1.6039   1.6064   1.7946   3.6444   3.6707   3.6770   3.7114
     3.8959   3.9241   4.0034   4.0269   4.0422   4.0515

     the Fermi energy is     2.5623 ev

!    total energy              =   -3005.15892934 Ry
     estimated scf accuracy    <       0.00000005 Ry
     smearing contrib. (-TS)   =      -0.00024122 Ry
     internal energy E=F+TS    =   -3005.15868812 Ry

     The total energy is F=E-TS. E is the sum of the following terms:
     one-electron contribution =  -22952.16894204 Ry
     hartree contribution      =   11571.99918486 Ry
     xc contribution           =    -500.30451963 Ry
     ewald contribution        =    8875.31512355 Ry
     electric field correction =       0.00046515 Ry

     convergence has been achieved in  87 iterations

     Forces acting on atoms (cartesian axes, Ry/au):

     atom    1 type  1   force =     0.00059375   -0.00029630    0.00017793
     atom    2 type  2   force =    -0.00021104    0.00021182   -0.00007151
     atom    3 type  2   force =    -0.00002033    0.00000865   -0.00027585
     atom    4 type  2   force =    -0.00039947   -0.00011038    0.00011635
     atom    5 type  3   force =     0.00027183   -0.00316637   -0.05386831
     atom    6 type  3   force =     0.00043707    0.00119951    0.04055391
     atom    7 type  3   force =    -0.00982193   -0.00222045    0.00039566
     atom    8 type  3   force =     0.00885085   -0.00511898   -0.00064288
     atom    9 type  3   force =    -0.00028767    0.00006794   -0.00000746
     atom   10 type  3   force =     0.00032694    0.00004410   -0.00000581
     atom   11 type  3   force =     0.00085323   -0.00005632   -0.00006144
     atom   12 type  3   force =     0.00139923   -0.00073258   -0.00000947
     atom   13 type  3   force =     0.00043805    0.00001800   -0.00003538
     atom   14 type  3   force =    -0.00031802   -0.00008929    0.00032501
     atom   15 type  3   force =    -0.00005949    0.00008620    0.00012987
     atom   16 type  3   force =    -0.00001555   -0.00010288   -0.00003366
     atom   17 type  3   force =    -0.00007122    0.00016554    0.09943207
     atom   18 type  3   force =     0.00007064   -0.00005270    0.00006939
     atom   19 type  3   force =    -0.08023207    0.00059371   -0.03416105
     atom   20 type  3   force =     0.07999836    0.00110690   -0.03418599
     atom   21 type  3   force =     0.00051953    0.00002275   -0.05293760
     atom   22 type  3   force =     0.00037347    0.00049330    0.04230695
     atom   23 type  3   force =    -0.01095418    0.00574641    0.00231264
     atom   24 type  3   force =     0.01003088    0.00213929    0.00122453
     atom   25 type  3   force =    -0.00027156   -0.00003444    0.00008210
     atom   26 type  3   force =     0.00021506    0.00006729   -0.00006237
     atom   27 type  3   force =     0.00050816    0.00074186   -0.00013981
     atom   28 type  3   force =     0.00091982   -0.00016877    0.00018632
     atom   29 type  3   force =     0.00041747   -0.00013297    0.00008944
     atom   30 type  3   force =    -0.00035360   -0.00007111    0.00001368
     atom   31 type  3   force =     0.00007193   -0.00007042   -0.00003837
     atom   32 type  3   force =    -0.00003695   -0.00018288    0.00012832
     atom   33 type  3   force =    -0.00008441    0.00025680    0.09901249
     atom   34 type  3   force =    -0.08022803   -0.00144694   -0.03415681
     atom   35 type  3   force =     0.08000427   -0.00092243   -0.03420547
     atom   36 type  3   force =     0.00006905   -0.00014384    0.00004123
     atom   37 type  4   force =     0.00020465    0.00015988    0.13338532
     atom   38 type  4   force =     0.00002316    0.00798801   -0.15914936
     atom   39 type  4   force =    -0.00001277   -0.00007217   -0.00000340
     atom   40 type  4   force =    -0.00018979    0.00022172    0.00003212
     atom   41 type  4   force =    -0.00423409    0.00001506   -0.00005246
     atom   42 type  4   force =     0.00287169    0.00012321   -0.00011811
     atom   43 type  4   force =     0.00020806   -0.00004443   -0.00000579
     atom   44 type  4   force =     0.00008059   -0.00002077   -0.00006955
     atom   45 type  4   force =    -0.00025921   -0.00007860    0.14213705
     atom   46 type  4   force =    -0.00018958   -0.00648092   -0.15860214
     atom   47 type  4   force =     0.00023752   -0.00007125    0.00007889
     atom   48 type  4   force =    -0.00026103    0.00009900    0.00011857
     atom   49 type  4   force =    -0.00463402    0.00029395    0.00022518
     atom   50 type  4   force =     0.00243321   -0.00001426   -0.00001208
     atom   51 type  4   force =     0.00026343    0.00007932    0.00018519
     atom   52 type  4   force =     0.00001510   -0.00006468    0.00015089
     atom   53 type  5   force =     0.00022413   -0.00004983   -0.00042746
     atom   54 type  5   force =    -0.00001222    0.00013385    0.00054073
     atom   55 type  3   force =    -0.00013313    0.00034237   -0.00045183
     atom   56 type  2   force =     0.00036022   -0.00040944    0.00033961

     Total force =     0.385111     Total SCF correction =     0.000520
  @ DRIVER MODE: Message from server: STATUS
  @ DRIVER MODE: Message from server: GETFORCE
  @ DRIVER MODE: Returning v,forces,stress,ensemble

     Writing output data file ./calc.save/
  @ DRIVER MODE: Message from server: EXIT
  @ DRIVE MODE: Exiting

     General routines

     Parallel routines

   This run was terminated on:  19:36: 4  25Sep2021

   JOB DONE.