     Program PWSCF v.6.7GPU starts on 10Sep2021 at 21:25:24

     R & G space division:  proc/nbgrp/npool/nimage =      10
     Reading input from /storage/home/hcoda1/3/ntian30/research/carbon/CxH_vib/CH2_calc/ads_slab/CH2O_c/out_0011/pw.inp
Warning: card &CELL ignored
Warning: card   CELL_DYNAMICS='IPI', ignored
Warning: card / ignored

     Current dimensions of program PWSCF are:
     Max number of different atomic species (ntypx) = 10
     Max number of k-points (npk) =  40000
     Max angular momentum in pseudopotentials (lmaxx) =  3
     Presently no symmetry can be used with electric field

     Message from routine cell_base_init:
     DEPRECATED: use true lattice parameter, not A to a.u. conversion factor

     IMPORTANT: XC functional enforced from input :
     Exchange-correlation= BEEF-VDW
                           (   1   4  43  14   2   0   0)
     Any further DFT definition will be discarded
     Please, verify this is what you really want

  @ DRIVER MODE: Connecting to
 qe_1139763_2792043.sched-torque.pace.gatech.eduj_kg7tn7_scratch
  using UNIX socket
  @ DRIVER MODE: Message from server: STATUS
  @ DRIVER MODE: Message from server: INIT
  @ DRIVER MODE: Receiving replica           0          -1
  @ DRIVER MODE: Receiving encoded integer          25
  @ DRIVER MODE:  SCF:  T  FORCE:  T  STRESS:  F  VC:  F  ENSEMBLE:  F
  @ DRIVER MODE:  SCF:  T  FORCE:  T  STRESS:  F  VC:  F  ENSEMBLE:  F

     Using Slab Decomposition

     bravais-lattice index     =            0
     lattice parameter (alat)  =       1.8897  a.u.
     unit-cell volume          =    6658.9804 (a.u.)^3
     number of atoms/cell      =           51
     number of atomic types    =            4
     number of electrons       =       390.00
     number of Kohn-Sham states=          205
     kinetic-energy cutoff     =      29.3995  Ry
     charge density cutoff     =     293.9946  Ry
     scf convergence threshold =      7.3E-08
     mixing beta               =       0.0500
     number of iterations used =            8  plain     mixing
     Exchange-correlation= BEEF-VDW
                           (   1   4  43  14   2   0   0)

     celldm(1)=   1.889726  celldm(2)=   0.000000  celldm(3)=   0.000000
     celldm(4)=   0.000000  celldm(5)=   0.000000  celldm(6)=   0.000000

     crystal axes: (cart. coord. in units of alat)
               a(1) = (   6.579727   0.000000   0.000000 )
               a(2) = (  -0.000775   5.961596   0.000000 )
               a(3) = (   0.000000   0.000000  25.155947 )

     reciprocal axes: (cart. coord. in units 2 pi/alat)
               b(1) = (  0.151982  0.000020  0.000000 )
               b(2) = (  0.000000  0.167740  0.000000 )
               b(3) = (  0.000000  0.000000  0.039752 )

     PseudoPot. # 1 for O  read from file:
     /storage/coda1/p-amedford6/0/shared/rich_project_chbe-medford/medford-share/data/pseudos_module/espresso/nninc/pbe/van/O.UPF
     MD5 check sum: 78c19812648e8988a0fe644b0f25305e
     Pseudo is Ultrasoft, Zval =  6.0
     Generated by new atomic code, or converted to UPF format
     Using radial grid of  737 points,  4 beta functions with:
                l(1) =   0
                l(2) =   0
                l(3) =   1
                l(4) =   1
     Q(r) pseudized with  8 coefficients,  rinner =    0.800   0.800   0.800

     PseudoPot. # 2 for Ti read from file:
     /storage/coda1/p-amedford6/0/shared/rich_project_chbe-medford/medford-share/data/pseudos_module/espresso/nninc/pbe/van/Ti.UPF
     MD5 check sum: 8e4df49b7f0d34bbd5052bf3f5ea0213
     Pseudo is Ultrasoft, Zval = 12.0
     Generated by new atomic code, or converted to UPF format
     Using radial grid of  851 points,  6 beta functions with:
                l(1) =   0
                l(2) =   0
                l(3) =   1
                l(4) =   1
                l(5) =   2
                l(6) =   2
     Q(r) pseudized with  8 coefficients,  rinner =    1.000   1.000   1.000
                                                       1.000   1.000

     PseudoPot. # 3 for C  read from file:
     /storage/coda1/p-amedford6/0/shared/rich_project_chbe-medford/medford-share/data/pseudos_module/espresso/nninc/pbe/van/C.UPF
     MD5 check sum: 1a69bf6b8db32088f5b2163dbdb77a27
     Pseudo is Ultrasoft, Zval =  4.0
     Generated by new atomic code, or converted to UPF format
     Using radial grid of  721 points,  4 beta functions with:
                l(1) =   0
                l(2) =   0
                l(3) =   1
                l(4) =   1
     Q(r) pseudized with  8 coefficients,  rinner =    0.800   0.800   0.800

     PseudoPot. # 4 for H  read from file:
     /storage/coda1/p-amedford6/0/shared/rich_project_chbe-medford/medford-share/data/pseudos_module/espresso/nninc/pbe/van/H.UPF
     MD5 check sum: b5ee9d7bfd3a09ee7748110bda690ff7
     Pseudo is Ultrasoft, Zval =  1.0
     Generated by new atomic code, or converted to UPF format
     Using radial grid of  615 points,  1 beta functions with:
                l(1) =   0
     Q(r) pseudized with  8 coefficients,  rinner =    0.800

     atomic species   valence    mass     pseudopotential
        O1             6.00    15.99900     O ( 1.00)
        Ti1           12.00    47.86700     Ti( 1.00)
        C1             4.00    12.01100     C ( 1.00)
        H1             1.00     1.00800     H ( 1.00)

     No symmetry found

   Cartesian axes

     site n.     atom                  positions (alat units)
         1           O1  tau(   1) = (   3.2904802   0.0005063   4.7018136  )
         2           O1  tau(   2) = (   3.2900926   2.9813045   4.7018136  )
         3           Ti1 tau(   3) = (   0.0004258   2.9801865   6.0000000  )
         4           Ti1 tau(   4) = (   0.0000382   5.9609847   6.0000000  )
         5           Ti1 tau(   5) = (   3.2906075   1.4906267   6.0002472  )
         6           Ti1 tau(   6) = (   3.2902200   4.4714249   6.0002472  )
         7           O1  tau(   7) = (   1.3043587   1.4918075   6.0039043  )
         8           O1  tau(   8) = (   1.3039711   4.4726057   6.0039043  )
         9           O1  tau(   9) = (   5.2767064   1.4903225   6.0039473  )
        10           O1  tau(  10) = (   5.2763189   4.4711207   6.0039473  )
        11           O1  tau(  11) = (   3.2906025   0.0005020   7.3038282  )
        12           O1  tau(  12) = (   3.2902150   2.9813002   7.3038282  )
        13           O1  tau(  13) = (   0.0006271   0.0005054   7.9858123  )
        14           O1  tau(  14) = (   0.0002396   2.9813036   7.9858123  )
        15           Ti1 tau(  15) = (   3.3026304   0.0558743   9.1529855  )
        16           Ti1 tau(  16) = (   3.3164045   3.0327615   9.1572159  )
        17           Ti1 tau(  17) = (   0.0278175   4.5359734   9.2551557  )
        18           Ti1 tau(  18) = (   0.0245227   1.6138560   9.3625275  )
        19           O1  tau(  19) = (   4.5942328   1.4918067   9.2879030  )
        20           O1  tau(  20) = (   4.5938453   4.4726049   9.2879030  )
        21           O1  tau(  21) = (   1.9868534   1.4903216   9.2879459  )
        22           O1  tau(  22) = (   1.9864658   4.4711199   9.2879459  )
        23           O1  tau(  23) = (   0.0082563   0.0105963  10.6032901  )
        24           O1  tau(  24) = (   0.0079484   2.9900140  10.5841352  )
        25           O1  tau(  25) = (   3.3038251   2.9929121  11.3473413  )
        26           O1  tau(  26) = (   3.3033308   0.0102956  11.3494618  )
        27           Ti1 tau(  27) = (   0.0317432   0.0173395  12.5007832  )
        28           Ti1 tau(  28) = (   3.3306627   4.4867663  12.4909107  )
        29           Ti1 tau(  29) = (   3.3307827   1.5098530  12.4883691  )
        30           Ti1 tau(  30) = (   0.0330478   2.9976760  12.7859357  )
        31           O1  tau(  31) = (   1.3012438   4.4818129  12.6408784  )
        32           O1  tau(  32) = (   1.3024292   1.5014896  12.6394904  )
        33           O1  tau(  33) = (   5.3013637   4.4812751  12.6442516  )
        34           O1  tau(  34) = (   5.3009141   1.5012301  12.6421300  )
        35           O1  tau(  35) = (   3.3022887   2.9886358  13.9251823  )
        36           O1  tau(  36) = (   3.3062039   0.0095056  13.9482717  )
        37           O1  tau(  37) = (   0.0260699   0.0177473  14.6866479  )
        38           O1  tau(  38) = (   0.0273203   2.9953000  14.7270975  )
        39           Ti1 tau(  39) = (   3.3120190   2.9903054  15.7171600  )
        40           Ti1 tau(  40) = (   3.3230935   0.0106652  15.7391692  )
        41           Ti1 tau(  41) = (   0.0328368   4.5824378  15.9539421  )
        42           Ti1 tau(  42) = (   0.0326753   1.3890416  16.0019494  )
        43           O1  tau(  43) = (   4.5622593   4.4711273  16.0916796  )
        44           O1  tau(  44) = (   4.5612194   1.5125715  16.1009491  )
        45           O1  tau(  45) = (   2.0595944   1.5153445  16.1103626  )
        46           O1  tau(  46) = (   2.0577381   4.4687033  16.1006481  )
        47           O1  tau(  47) = (   0.0167757   0.0040543  17.2075325  )
        48           O1  tau(  48) = (   6.5679879   3.0050237  17.4360139  )
        49           C1  tau(  49) = (   6.3840651   3.0748419  18.6881053  )
        50           H1  tau(  50) = (   6.3009919   4.0539401  19.1613311  )
        51           H1  tau(  51) = (   6.3054763   2.1576074  19.2739789  )

     number of k points=    10  Fermi-Dirac smearing, width (Ry)=  0.0073
                       cart. coord. in units 2pi/alat
        k(    1) = (   0.0000000   0.0000000   0.0000000), wk =   0.1250000
        k(    2) = (   0.0000000   0.0419351   0.0000000), wk =   0.2500000
        k(    3) = (   0.0000000  -0.0838702   0.0000000), wk =   0.1250000
        k(    4) = (   0.0379955   0.0000049   0.0000000), wk =   0.2500000
        k(    5) = (   0.0379955   0.0419400   0.0000000), wk =   0.2500000
        k(    6) = (   0.0379955  -0.0838652   0.0000000), wk =   0.2500000
        k(    7) = (   0.0379955  -0.0419301   0.0000000), wk =   0.2500000
        k(    8) = (  -0.0759910  -0.0000099   0.0000000), wk =   0.1250000
        k(    9) = (  -0.0759910   0.0419252   0.0000000), wk =   0.2500000
        k(   10) = (  -0.0759910  -0.0838800   0.0000000), wk =   0.1250000

     Initial potential from superposition of free atoms

     starting charge  373.99919, renormalised to  390.00000

     negative rho (up, down):  1.845E-02 0.000E+00

     %%%%%%%%%%%%%%%%%%%%%%%%%%%%%%%%%%%%%%%%%%%%%%%%%%%%%%%%%%%%%%%%%%%%%%%%
     %                                                                      %
     % You are using vdW-DF, which was implemented by the Thonhauser group. %
     % Please cite the following two papers that made this development      %
     % possible and the two reviews that describe the various versions:     %
     %                                                                      %
     %   T. Thonhauser et al., PRL 115, 136402 (2015).                      %
     %   T. Thonhauser et al., PRB 76, 125112 (2007).                       %
     %   K. Berland et al., Rep. Prog. Phys. 78, 066501 (2015).             %
     %   D.C. Langreth et al., J. Phys.: Condens. Matter 21, 084203 (2009). %
     %                                                                      %
     %                                                                      %
     % If you are calculating the stress with vdW-DF, please also cite:     %
     %                                                                      %
     %   R. Sabatini et al., J. Phys.: Condens. Matter 24, 424209 (2012).   %
     %                                                                      %
     %%%%%%%%%%%%%%%%%%%%%%%%%%%%%%%%%%%%%%%%%%%%%%%%%%%%%%%%%%%%%%%%%%%%%%%%

     Adding external electric field

     Computed dipole along edir(3) :
        Dipole               -5.1770 Ry au,        -13.1586 Debye
        Dipole field         -0.0098 Ry au,

        Potential amp.        0.9056 Ry
        Total length         46.3494 bohr

     Starting wfcs are  294 atomic wfcs
  @ DRIVER MODE: Message from server: STATUS
  @ DRIVER MODE: Message from server: POSDATA
  @ DRIVER MODE: Reading and sharing cell
  @ DRIVER MODE: Reading and sharing positions
  @ DRIVER MODE: Received positions

     Self-consistent Calculation

     iteration #  1     ecut=    29.40 Ry     beta= 0.05
     Davidson diagonalization with overlap
     c_bands:  5 eigenvalues not converged
     c_bands:  4 eigenvalues not converged
     c_bands:  2 eigenvalues not converged
     c_bands:  1 eigenvalues not converged
     c_bands:  2 eigenvalues not converged
     c_bands:  2 eigenvalues not converged
     c_bands:  3 eigenvalues not converged
     c_bands:  2 eigenvalues not converged
     ethr =  1.00E-05,  avg # of iterations = 21.8

[...]

     total energy              =   -2823.22399756 Ry
     estimated scf accuracy    <    1179.58193445 Ry

     iteration #  2     ecut=    29.40 Ry     beta= 0.05
     Davidson diagonalization with overlap
     ethr =  1.00E-02,  avg # of iterations = 16.6

[...]

     iteration # 87     ecut=    29.40 Ry     beta= 0.05
     Davidson diagonalization with overlap
     c_bands:  2 eigenvalues not converged
     c_bands:  2 eigenvalues not converged
     c_bands:  2 eigenvalues not converged
     ethr =  2.38E-11,  avg # of iterations = 15.7

[...]

     total energy              =   -2930.16706925 Ry
     estimated scf accuracy    <       0.00000013 Ry

     iteration # 89     ecut=    29.40 Ry     beta= 0.05
     Davidson diagonalization with overlap
     ethr =  2.38E-11,  avg # of iterations =  8.9

     negative rho (up, down):  1.728E-02 0.000E+00

     Adding external electric field

     Computed dipole along edir(3) :
        Dipole                0.9418 Ry au,          2.3937 Debye
        Dipole field          0.0018 Ry au,

        Potential amp.       -0.1647 Ry
        Total length         46.3494 bohr

     End of self-consistent calculation

          k = 0.0000 0.0000 0.0000 ( 18029 PWs)   bands (ev):

   -55.8122 -55.8006 -55.7757 -55.7643 -55.7030 -55.6896 -55.6659 -55.5941
   -55.5919 -55.5812 -55.5730 -55.5476 -55.5183 -55.4779 -54.8385 -54.8044
   -32.3704 -32.2847 -32.1794 -32.1659 -32.1189 -32.1149 -32.1068 -32.0877
   -32.0607 -32.0433 -32.0424 -32.0151 -31.9863 -31.9823 -31.9708 -31.9490
   -31.9331 -31.9328 -31.9241 -31.9065 -31.8849 -31.8778 -31.8753 -31.8634
   -31.8570 -31.8371 -31.8356 -31.8123 -31.8070 -31.8063 -31.7820 -31.7533
   -31.7511 -31.7263 -31.7255 -31.7229 -31.7019 -31.6999 -31.6861 -31.6722
   -31.6668 -31.6662 -31.2486 -31.1508 -31.1285 -31.0652 -30.9792 -30.8680
   -20.0015 -16.5833 -16.2892 -16.1461 -16.0088 -15.9593 -15.8445 -15.6868
   -15.6102 -15.5438 -15.4868 -15.4333 -15.3969 -15.3959 -15.3678 -15.3568
   -15.3456 -15.3382 -15.2641 -15.2622 -15.2273 -15.2096 -15.1988 -15.1097
   -15.0544 -14.9897 -14.9424 -14.8869 -14.8308 -14.8208 -13.3391 -13.2207
    -9.2955  -5.6021  -5.5705  -3.9317  -3.7549  -3.7153  -3.7100  -3.6433
    -3.6117  -3.4153  -3.3891  -3.0979  -3.0116  -2.9807  -2.9698  -2.9585
    -2.8192  -2.7716  -2.6576  -2.6548  -2.6423  -2.6392  -2.6196  -2.5844
    -2.5752  -2.5330  -2.5131  -2.4109  -2.3598  -2.2522  -2.2375  -2.2070
    -2.1503  -2.1226  -2.0924  -2.0807  -2.0504  -2.0485  -2.0434  -1.9989
    -1.8989  -1.8097  -1.7417  -1.6611  -1.6225  -1.5294  -1.3760  -1.3022
    -1.2612  -1.2252  -1.1758  -1.1577  -1.1301  -1.1086  -1.0836  -1.0743
    -0.9770  -0.8660  -0.8546  -0.7562  -0.6958  -0.6816  -0.6688  -0.5706
    -0.5516  -0.5410  -0.4568  -0.3070  -0.2976  -0.2928  -0.1744  -0.1428
    -0.1226  -0.0753  -0.0500  -0.0173   0.0133   0.0638   0.1148   0.1251
     0.1727   0.1898   0.2156   0.3163   0.3676   0.3801   0.4344   0.4722
     0.6496   0.6732   0.8158   0.8794   1.0879   1.1861   1.2410   1.3549
     1.7737   1.8316   3.3531   3.3847   3.4096   3.4575   3.5054   3.5500
     3.6000   3.7957   3.8129   3.8227   3.8465

[...]

          k = 0.0380-0.0419 0.0000 ( 17876 PWs)   bands (ev):

[...]

          k =-0.0760-0.0000 0.0000 ( 17886 PWs)   bands (ev):

[...]

          k =-0.0760-0.0839 0.0000 ( 17948 PWs)   bands (ev):

   -55.8005 -55.7873 -55.7827 -55.7820 -55.6934 -55.6863 -55.6754 -55.5971
   -55.5886 -55.5672 -55.5669 -55.5621 -55.5244 -55.4805 -54.8220 -54.8207
   -32.1718 -32.1716 -32.1083 -32.0945 -32.0931 -32.0890 -32.0730 -32.0714
   -32.0541 -32.0249 -32.0167 -32.0024 -31.9866 -31.9500 -31.9377 -31.9290
   -31.9275 -31.9248 -31.9164 -31.9131 -31.8960 -31.8935 -31.8899 -31.8887
   -31.8869 -31.8824 -31.8704 -31.8508 -31.8203 -31.8195 -31.8188 -31.7981
   -31.7920 -31.7744 -31.7714 -31.7686 -31.7646 -31.7612 -31.7362 -31.7078
   -31.7022 -31.6756 -31.1419 -31.1404 -31.0620 -31.0610 -31.0227 -31.0217
   -19.9942 -16.0152 -15.9846 -15.8693 -15.7546 -15.7420 -15.6987 -15.6567
   -15.6096 -15.5505 -15.5471 -15.5015 -15.4826 -15.4769 -15.4336 -15.4005
   -15.3499 -15.3438 -15.3329 -15.3322 -15.2773 -15.2737 -15.2272 -15.2235
   -15.1990 -15.1599 -15.1566 -15.0862 -15.0593 -14.9962 -13.3230 -13.3208
    -9.2966  -5.5801  -5.5534  -3.6426  -3.3040  -3.2704  -3.1011  -2.9720
    -2.9622  -2.9040  -2.8204  -2.7831  -2.7380  -2.6891  -2.6870  -2.6626
    -2.6510  -2.6379  -2.6343  -2.6252  -2.5815  -2.5594  -2.5203  -2.4778
    -2.4659  -2.4528  -2.4471  -2.4066  -2.3913  -2.3797  -2.3726  -2.3676
    -2.3067  -2.2273  -2.1482  -2.0732  -2.0232  -2.0021  -1.9680  -1.9334
    -1.8985  -1.8811  -1.8643  -1.7447  -1.7176  -1.5712  -1.5536  -1.5309
    -1.5232  -1.4689  -1.4650  -1.3452  -1.2633  -1.2576  -1.1912  -1.1710
    -1.1401  -1.0931  -1.0682  -0.9891  -0.9478  -0.9044  -0.8505  -0.7880
    -0.7760  -0.7118  -0.7016  -0.6204  -0.6057  -0.5774  -0.5727  -0.5020
    -0.4683  -0.3892  -0.3788  -0.3552  -0.2578  -0.1970  -0.1852   0.0100
     0.1822   0.1850   0.2056   0.3058   0.3347   0.3770   0.4322   0.4512
     0.5388   0.5933   0.6847   0.7049   0.7137   0.7943   1.5449   1.5459
     1.6369   1.6474   3.3080   3.5717   3.6077   3.6119   3.6734   3.8269
     3.8300   3.8471   3.8565   3.9826   3.9911

     the Fermi energy is     3.3384 ev

!    total energy              =   -2930.16707199 Ry
     estimated scf accuracy    <       0.00000004 Ry
     smearing contrib. (-TS)   =      -0.03349904 Ry
     internal energy E=F+TS    =   -2930.13357294 Ry

     The total energy is F=E-TS. E is the sum of the following terms:
     one-electron contribution =  -24670.38985137 Ry
     hartree contribution      =   12420.71253288 Ry
     xc contribution           =    -481.27696838 Ry
     ewald contribution        =    9800.81904019 Ry
     electric field correction =       0.00167373 Ry

     convergence has been achieved in  89 iterations

     Forces acting on atoms (cartesian axes, Ry/au):

     atom    1 type  1   force =    -0.00009994    0.00004858    0.10428090
     atom    2 type  1   force =    -0.00009505    0.00004991    0.10433720
     atom    3 type  2   force =    -0.00025425   -0.00196518    0.10279848
     atom    4 type  2   force =    -0.00014732    0.00160012    0.11372038
     atom    5 type  2   force =    -0.00033534    0.00058109   -0.18044516
     atom    6 type  2   force =    -0.00019593   -0.00014100   -0.18078057
     atom    7 type  1   force =    -0.06896070    0.00062809   -0.02909181
     atom    8 type  1   force =    -0.06848736   -0.00120416   -0.02913170
     atom    9 type  1   force =     0.06859777    0.00111615   -0.02916747
     atom   10 type  1   force =     0.06821575   -0.00080763   -0.02922101
     atom   11 type  1   force =     0.00037450    0.00051165    0.04557661
     atom   12 type  1   force =     0.00056920    0.00076229    0.04711543
     atom   13 type  1   force =     0.00028184   -0.00577109   -0.03306469
     atom   14 type  1   force =     0.00033200    0.00397677   -0.02584510
     atom   15 type  2   force =     0.00003285   -0.00027456    0.00028122
     atom   16 type  2   force =     0.00013487    0.00013803   -0.00007443
     atom   17 type  2   force =    -0.00022580   -0.00067395    0.00127622
     atom   18 type  2   force =    -0.00028490   -0.00037522    0.00064909
     atom   19 type  1   force =    -0.01792592    0.00015018    0.00393643
     atom   20 type  1   force =    -0.01644185    0.00130384    0.00320496
     atom   21 type  1   force =     0.01956197   -0.00097864    0.00433085
     atom   22 type  1   force =     0.01782110    0.00103131    0.00343671
     atom   23 type  1   force =    -0.00014158   -0.00026116    0.00013893
     atom   24 type  1   force =    -0.00022332    0.00004326    0.00003912
     atom   25 type  1   force =    -0.00002467   -0.00010399   -0.00086692
     atom   26 type  1   force =    -0.00011452    0.00023016   -0.00015908
     atom   27 type  2   force =    -0.00004305   -0.00076015   -0.00102995
     atom   28 type  2   force =     0.00013460    0.00066857    0.00002674
     atom   29 type  2   force =     0.00009096   -0.00088337    0.00040024
     atom   30 type  2   force =    -0.00025639    0.00136582   -0.00071510
     atom   31 type  1   force =    -0.00020801   -0.00035019    0.00044105
     atom   32 type  1   force =    -0.00025490    0.00037448    0.00004616
     atom   33 type  1   force =     0.00001352   -0.00039583    0.00054957
     atom   34 type  1   force =     0.00021790    0.00044576    0.00026135
     atom   35 type  1   force =     0.00014792   -0.00005218   -0.00123358
     atom   36 type  1   force =    -0.00006846    0.00032584    0.00003155
     atom   37 type  1   force =    -0.00074400    0.00009050    0.00072960
     atom   38 type  1   force =     0.00006869   -0.00023466   -0.00013572
     atom   39 type  2   force =    -0.00080644    0.00064219    0.00078754
     atom   40 type  2   force =    -0.00106468   -0.00005693    0.00012140
     atom   41 type  2   force =     0.00067827    0.00011171   -0.00246868
     atom   42 type  2   force =     0.00074435    0.00005792   -0.00242788
     atom   43 type  1   force =    -0.00001662    0.00002617    0.00087560
     atom   44 type  1   force =     0.00084718    0.00034026    0.00084653
     atom   45 type  1   force =    -0.00087432    0.00011804    0.00068509
     atom   46 type  1   force =    -0.00008039   -0.00000473    0.00085123
     atom   47 type  1   force =    -0.00043747    0.00076882    0.00193099
     atom   48 type  1   force =     0.00175269   -0.00083586   -0.01487807
     atom   49 type  3   force =    -0.00349875   -0.00029205    0.02501325
     atom   50 type  4   force =     0.00086840   -0.00421922   -0.00317211
     atom   51 type  4   force =     0.00082561    0.00313421   -0.00481144

     Total force =     0.375690     Total SCF correction =     0.000667
  @ DRIVER MODE: Message from server: STATUS
  @ DRIVER MODE: Message from server: GETFORCE
  @ DRIVER MODE: Returning v,forces,stress,ensemble

     Writing output data file ./calc.save/
  @ DRIVER MODE: Message from server: EXIT
  @ DRIVE MODE: Exiting

     General routines

     Parallel routines

   This run was terminated on:  21:47:47  10Sep2021

   JOB DONE.