     Program PWSCF v.6.7GPU starts on 26Sep2021 at 15:10:19

     R & G space division:  proc/nbgrp/npool/nimage =       8
     Reading input from /storage/home/hcoda1/3/ntian30/research/carbon/CxH_vib/CH_calc/ads_slab/CHONHNH_a/out_0008/pw.inp
Warning: card &CELL ignored
Warning: card   CELL_DYNAMICS='IPI', ignored
Warning: card / ignored

     Current dimensions of program PWSCF are:
     Max number of different atomic species (ntypx) = 10
     Max number of k-points (npk) =  40000
     Max angular momentum in pseudopotentials (lmaxx) =  3
     Presently no symmetry can be used with electric field

     Message from routine cell_base_init:
     DEPRECATED: use true lattice parameter, not A to a.u. conversion factor

     IMPORTANT: XC functional enforced from input :
     Exchange-correlation= BEEF-VDW
                           (   1   4  43  14   2   0   0)
     Any further DFT definition will be discarded
     Please, verify this is what you really want

  @ DRIVER MODE: Connecting to
 qe_1139763_2982671.sched-torque.pace.gatech.edu47xv9ltg_scratch
  using UNIX socket
  @ DRIVER MODE: Message from server: STATUS
  @ DRIVER MODE: Message from server: INIT
  @ DRIVER MODE: Receiving replica           0          -1
  @ DRIVER MODE: Receiving encoded integer          25
  @ DRIVER MODE:  SCF:  T  FORCE:  T  STRESS:  F  VC:  F  ENSEMBLE:  F
  @ DRIVER MODE:  SCF:  T  FORCE:  T  STRESS:  F  VC:  F  ENSEMBLE:  F

     Using Slab Decomposition

     bravais-lattice index     =            0
     lattice parameter (alat)  =       1.8897  a.u.
     unit-cell volume          =    6658.9804 (a.u.)^3
     number of atoms/cell      =           54
     number of atomic types    =            5
     number of electrons       =       401.00
     number of Kohn-Sham states=          210
     kinetic-energy cutoff     =      29.3995  Ry
     charge density cutoff     =     293.9946  Ry
     scf convergence threshold =      7.3E-08
     mixing beta               =       0.0500
     number of iterations used =            8  plain     mixing
     Exchange-correlation= BEEF-VDW
                           (   1   4  43  14   2   0   0)

     celldm(1)=   1.889726  celldm(2)=   0.000000  celldm(3)=   0.000000
     celldm(4)=   0.000000  celldm(5)=   0.000000  celldm(6)=   0.000000

     crystal axes: (cart. coord. in units of alat)
               a(1) = (   6.579727   0.000000   0.000000 )
               a(2) = (  -0.000775   5.961596   0.000000 )
               a(3) = (   0.000000   0.000000  25.155947 )

     reciprocal axes: (cart. coord. in units 2 pi/alat)
               b(1) = (  0.151982  0.000020  0.000000 )
               b(2) = (  0.000000  0.167740  0.000000 )
               b(3) = (  0.000000  0.000000  0.039752 )

     PseudoPot. # 1 for O  read from file:
     /storage/coda1/p-amedford6/0/shared/rich_project_chbe-medford/medford-share/data/pseudos_module/espresso/nninc/pbe/van/O.UPF
     MD5 check sum: 78c19812648e8988a0fe644b0f25305e
     Pseudo is Ultrasoft, Zval =  6.0
     Generated by new atomic code, or converted to UPF format
     Using radial grid of  737 points,  4 beta functions with:
                l(1) =   0
                l(2) =   0
                l(3) =   1
                l(4) =   1
     Q(r) pseudized with  8 coefficients,  rinner =    0.800   0.800   0.800

     PseudoPot. # 2 for Ti read from file:
     /storage/coda1/p-amedford6/0/shared/rich_project_chbe-medford/medford-share/data/pseudos_module/espresso/nninc/pbe/van/Ti.UPF
     MD5 check sum: 8e4df49b7f0d34bbd5052bf3f5ea0213
     Pseudo is Ultrasoft, Zval = 12.0
     Generated by new atomic code, or converted to UPF format
     Using radial grid of  851 points,  6 beta functions with:
                l(1) =   0
                l(2) =   0
                l(3) =   1
                l(4) =   1
                l(5) =   2
                l(6) =   2
     Q(r) pseudized with  8 coefficients,  rinner =    1.000   1.000   1.000
                                                       1.000   1.000

     PseudoPot. # 3 for N  read from file:
     /storage/coda1/p-amedford6/0/shared/rich_project_chbe-medford/medford-share/data/pseudos_module/espresso/nninc/pbe/van/N.UPF
     MD5 check sum: 90d10febe142ad51ac9d5be1deb811c4
     Pseudo is Ultrasoft, Zval =  5.0
     Generated by new atomic code, or converted to UPF format
     Using radial grid of  729 points,  4 beta functions with:
                l(1) =   0
                l(2) =   0
                l(3) =   1
                l(4) =   1
     Q(r) pseudized with  8 coefficients,  rinner =    0.800   0.800   0.800

     PseudoPot. # 4 for C  read from file:
     /storage/coda1/p-amedford6/0/shared/rich_project_chbe-medford/medford-share/data/pseudos_module/espresso/nninc/pbe/van/C.UPF
     MD5 check sum: 1a69bf6b8db32088f5b2163dbdb77a27
     Pseudo is Ultrasoft, Zval =  4.0
     Generated by new atomic code, or converted to UPF format
     Using radial grid of  721 points,  4 beta functions with:
                l(1) =   0
                l(2) =   0
                l(3) =   1
                l(4) =   1
     Q(r) pseudized with  8 coefficients,  rinner =    0.800   0.800   0.800

     PseudoPot. # 5 for H  read from file:
     /storage/coda1/p-amedford6/0/shared/rich_project_chbe-medford/medford-share/data/pseudos_module/espresso/nninc/pbe/van/H.UPF
     MD5 check sum: b5ee9d7bfd3a09ee7748110bda690ff7
     Pseudo is Ultrasoft, Zval =  1.0
     Generated by new atomic code, or converted to UPF format
     Using radial grid of  615 points,  1 beta functions with:
                l(1) =   0
     Q(r) pseudized with  8 coefficients,  rinner =    0.800

     atomic species   valence    mass     pseudopotential
        O1             6.00    15.99900     O ( 1.00)
        Ti1           12.00    47.86700     Ti( 1.00)
        N1             5.00    14.00700     N ( 1.00)
        C1             4.00    12.01100     C ( 1.00)
        H1             1.00     1.00800     H ( 1.00)

     No symmetry found

   Cartesian axes

     site n.     atom                  positions (alat units)
         1           O1  tau(   1) = (   3.2904802   0.0005063   4.7018136  )
         2           O1  tau(   2) = (   3.2900926   2.9813045   4.7018136  )
         3           Ti1 tau(   3) = (   0.0004258   2.9801865   6.0000000  )
         4           Ti1 tau(   4) = (   0.0000382   5.9609847   6.0000000  )
         5           Ti1 tau(   5) = (   3.2906075   1.4906267   6.0002472  )
         6           Ti1 tau(   6) = (   3.2902200   4.4714249   6.0002472  )
         7           O1  tau(   7) = (   1.3043587   1.4918075   6.0039043  )
         8           O1  tau(   8) = (   1.3039711   4.4726057   6.0039043  )
         9           O1  tau(   9) = (   5.2767064   1.4903225   6.0039473  )
        10           O1  tau(  10) = (   5.2763189   4.4711207   6.0039473  )
        11           O1  tau(  11) = (   3.2906025   0.0005020   7.3038282  )
        12           O1  tau(  12) = (   3.2902150   2.9813002   7.3038282  )
        13           O1  tau(  13) = (   0.0006271   0.0005054   7.9858123  )
        14           O1  tau(  14) = (   0.0002396   2.9813036   7.9858123  )
        15           Ti1 tau(  15) = (   3.2907910   2.8959150   9.1758416  )
        16           Ti1 tau(  16) = (   3.2891106   5.8743827   9.1763621  )
        17           Ti1 tau(  17) = (   0.0015273   1.4827037   9.2680791  )
        18           Ti1 tau(  18) = (   0.0006254   4.4649316   9.2693709  )
        19           O1  tau(  19) = (   4.5942328   1.4918067   9.2879030  )
        20           O1  tau(  20) = (   4.5938453   4.4726049   9.2879030  )
        21           O1  tau(  21) = (   1.9868534   1.4903216   9.2879459  )
        22           O1  tau(  22) = (   1.9864658   4.4711199   9.2879459  )
        23           O1  tau(  23) = (   0.0116148   5.9584955  10.6183126  )
        24           O1  tau(  24) = (   0.0092240   2.9805883  10.6323155  )
        25           O1  tau(  25) = (   3.2531556   2.9620241  11.3322950  )
        26           O1  tau(  26) = (   3.2474763   5.9435521  11.3438280  )
        27           Ti1 tau(  27) = (   3.3237694   4.3814390  12.5572636  )
        28           Ti1 tau(  28) = (   0.0094504   0.0092305  12.5172013  )
        29           Ti1 tau(  29) = (   3.3224445   1.4452456  12.4745429  )
        30           Ti1 tau(  30) = (   0.0090234   2.9988230  12.5821063  )
        31           O1  tau(  31) = (   5.2496676   1.4726344  12.6006421  )
        32           O1  tau(  32) = (   5.2531746   4.4496067  12.6010712  )
        33           O1  tau(  33) = (   1.2410339   1.4659728  12.6671891  )
        34           O1  tau(  34) = (   1.2387123   4.4686174  12.6665250  )
        35           O1  tau(  35) = (   3.3067986   5.9564546  13.9007842  )
        36           O1  tau(  36) = (   3.2420318   3.0005841  13.9279729  )
        37           O1  tau(  37) = (   6.4209026   5.9439257  14.7021623  )
        38           O1  tau(  38) = (   6.4587925   2.9577525  14.6988961  )
        39           Ti1 tau(  39) = (   3.2423495   0.0283394  15.6829305  )
        40           Ti1 tau(  40) = (   6.4236859   1.5154006  15.7784978  )
        41           Ti1 tau(  41) = (   3.0799157   3.0146384  15.8599260  )
        42           O1  tau(  42) = (   1.9357555   1.4358950  15.9107064  )
        43           O1  tau(  43) = (   1.9271111   4.5447382  15.9660097  )
        44           Ti1 tau(  44) = (   6.4519450   4.6669281  16.1370820  )
        45           O1  tau(  45) = (   4.4443926   1.5071054  16.1134243  )
        46           O1  tau(  46) = (   4.4397279   4.4733020  16.1527106  )
        47           O1  tau(  47) = (   6.5167551   0.0277669  17.2715591  )
        48           N1  tau(  48) = (   0.3759035   2.6095042  18.6336219  )
        49           C1  tau(  49) = (   2.8236782   2.9081565  18.1516972  )
        50           H1  tau(  50) = (   0.1656462   1.5987175  18.7006542  )
        51           N1  tau(  51) = (   1.8163940   2.6652851  18.9293397  )
        52           H1  tau(  52) = (   3.7261332   2.9868749  18.7514029  )
        53           H1  tau(  53) = (   1.8928842   2.5952305  19.9427491  )
        54           O1  tau(  54) = (   0.0982553   2.9165792  17.3165359  )

     number of k points=    10  Fermi-Dirac smearing, width (Ry)=  0.0073
                       cart. coord. in units 2pi/alat
        k(    1) = (   0.0000000   0.0000000   0.0000000), wk =   0.1250000
        k(    2) = (   0.0000000   0.0419351   0.0000000), wk =   0.2500000
        k(    3) = (   0.0000000  -0.0838702   0.0000000), wk =   0.1250000
        k(    4) = (   0.0379955   0.0000049   0.0000000), wk =   0.2500000
        k(    5) = (   0.0379955   0.0419400   0.0000000), wk =   0.2500000
        k(    6) = (   0.0379955  -0.0838652   0.0000000), wk =   0.2500000
        k(    7) = (   0.0379955  -0.0419301   0.0000000), wk =   0.2500000
        k(    8) = (  -0.0759910  -0.0000099   0.0000000), wk =   0.1250000
        k(    9) = (  -0.0759910   0.0419252   0.0000000), wk =   0.2500000
        k(   10) = (  -0.0759910  -0.0838800   0.0000000), wk =   0.1250000

     Initial potential from superposition of free atoms

     starting charge  384.99916, renormalised to  401.00000

     negative rho (up, down):  1.631E-02 0.000E+00

     %%%%%%%%%%%%%%%%%%%%%%%%%%%%%%%%%%%%%%%%%%%%%%%%%%%%%%%%%%%%%%%%%%%%%%%%
     %                                                                      %
     % You are using vdW-DF, which was implemented by the Thonhauser group. %
     % Please cite the following two papers that made this development      %
     % possible and the two reviews that describe the various versions:     %
     %                                                                      %
     %   T. Thonhauser et al., PRL 115, 136402 (2015).                      %
     %   T. Thonhauser et al., PRB 76, 125112 (2007).                       %
     %   K. Berland et al., Rep. Prog. Phys. 78, 066501 (2015).             %
     %   D.C. Langreth et al., J. Phys.: Condens. Matter 21, 084203 (2009). %
     %                                                                      %
     %                                                                      %
     % If you are calculating the stress with vdW-DF, please also cite:     %
     %                                                                      %
     %   R. Sabatini et al., J. Phys.: Condens. Matter 24, 424209 (2012).   %
     %                                                                      %
     %%%%%%%%%%%%%%%%%%%%%%%%%%%%%%%%%%%%%%%%%%%%%%%%%%%%%%%%%%%%%%%%%%%%%%%%

     Adding external electric field

     Computed dipole along edir(3) :
        Dipole              -11.6315 Ry au,        -29.5642 Debye
        Dipole field         -0.0220 Ry au,

        Potential amp.        2.0347 Ry
        Total length         46.3494 bohr

     Starting wfcs are  303 atomic wfcs
  @ DRIVER MODE: Message from server: STATUS
  @ DRIVER MODE: Message from server: POSDATA
  @ DRIVER MODE: Reading and sharing cell
  @ DRIVER MODE: Reading and sharing positions
  @ DRIVER MODE: Received positions

     Self-consistent Calculation

     iteration #  1     ecut=    29.40 Ry     beta= 0.05
     Davidson diagonalization with overlap
     c_bands:  3 eigenvalues not converged
     c_bands:  3 eigenvalues not converged
     c_bands:  4 eigenvalues not converged
     c_bands:  4 eigenvalues not converged
     c_bands:  3 eigenvalues not converged
     c_bands:  1 eigenvalues not converged
     c_bands:  2 eigenvalues not converged
     ethr =  1.00E-05,  avg # of iterations = 24.0

[...]

     total energy              =   -2394.07387057 Ry
     estimated scf accuracy    <    6497.61479704 Ry

     iteration #  2     ecut=    29.40 Ry     beta= 0.05
     Davidson diagonalization with overlap
     ethr =  1.00E-02,  avg # of iterations = 23.6

[...]

     iteration # 62     ecut=    29.40 Ry     beta= 0.05
     Davidson diagonalization with overlap
     c_bands:  3 eigenvalues not converged
     ethr =  1.98E-10,  avg # of iterations = 12.6

[...]

     total energy              =   -2971.36016795 Ry
     estimated scf accuracy    <       0.00000019 Ry

     iteration # 67     ecut=    29.40 Ry     beta= 0.05
     Davidson diagonalization with overlap
     ethr =  4.79E-11,  avg # of iterations =  7.1

     negative rho (up, down):  1.695E-02 0.000E+00

     Adding external electric field

     Computed dipole along edir(3) :
        Dipole                1.3736 Ry au,          3.4913 Debye
        Dipole field          0.0026 Ry au,

        Potential amp.       -0.2403 Ry
        Total length         46.3494 bohr

     End of self-consistent calculation

          k = 0.0000 0.0000 0.0000 ( 18029 PWs)   bands (ev):

   -55.3649 -55.3308 -55.2849 -55.2408 -55.2322 -55.2249 -55.1975 -55.1860
   -55.1520 -55.1439 -55.1306 -55.1087 -55.0350 -54.9952 -54.3447 -54.3107
   -31.8493 -31.8094 -31.7335 -31.6863 -31.6791 -31.6566 -31.6342 -31.6102
   -31.6003 -31.5697 -31.5418 -31.5172 -31.5018 -31.4965 -31.4711 -31.4680
   -31.4640 -31.4499 -31.4382 -31.4221 -31.4036 -31.4000 -31.3936 -31.3814
   -31.3794 -31.3785 -31.3746 -31.3655 -31.3423 -31.3420 -31.3352 -31.3258
   -31.3233 -31.3165 -31.2983 -31.2951 -31.2863 -31.2568 -31.2360 -31.2245
   -31.2095 -31.1799 -30.7515 -30.6637 -30.6413 -30.5686 -30.4821 -30.3707
   -20.1904 -17.3048 -16.0556 -15.8436 -15.6387 -15.5305 -15.4821 -15.2497
   -15.1325 -15.1020 -15.0153 -14.9447 -14.9286 -14.9048 -14.8933 -14.8751
   -14.8162 -14.8029 -14.7922 -14.7891 -14.7607 -14.7399 -14.7168 -14.7042
   -14.5832 -14.5691 -14.5401 -14.5088 -14.4864 -14.4258 -14.1671 -12.8454
   -12.7290 -12.7208  -9.0502  -7.2235  -5.7094  -4.9930  -3.4274  -3.3147
    -3.2810  -3.2715  -3.1851  -3.1448  -3.0231  -2.8065  -2.6584  -2.5573
    -2.5321  -2.4538  -2.3822  -2.3534  -2.3149  -2.2593  -2.2065  -2.1607
    -2.1352  -2.1104  -2.1031  -2.0970  -1.9992  -1.9849  -1.9447  -1.8901
    -1.8575  -1.7613  -1.7443  -1.6875  -1.6798  -1.6383  -1.6279  -1.6188
    -1.6093  -1.5915  -1.5082  -1.4917  -1.4446  -1.3680  -1.1764  -1.1253
    -1.0299  -0.9736  -0.8697  -0.8449  -0.8029  -0.7736  -0.7663  -0.7578
    -0.7125  -0.6174  -0.5750  -0.5227  -0.4617  -0.3838  -0.3146  -0.2745
    -0.1639  -0.1501  -0.1240  -0.1161  -0.0839   0.0582   0.1167   0.1673
     0.1917   0.2289   0.2953   0.3561   0.3698   0.4161   0.4402   0.5053
     0.5420   0.5614   0.5815   0.6087   0.6225   0.6516   0.6667   0.7142
     0.8411   0.8522   0.9005   0.9433   1.0006   1.1193   1.1272   1.2883
     1.3747   1.5571   1.6172   1.6793   1.7412   1.8710   2.2491   2.2948
     3.7408   3.8557   3.8878   3.9162   3.9996   4.0400   4.2092   4.2743
     4.2974   4.3351

[...]

          k = 0.0380-0.0419 0.0000 ( 17876 PWs)   bands (ev):

[...]

          k =-0.0760-0.0000 0.0000 ( 17886 PWs)   bands (ev):

[...]

          k =-0.0760-0.0839 0.0000 ( 17948 PWs)   bands (ev):

   -55.3480 -55.3476 -55.2789 -55.2323 -55.2307 -55.2291 -55.2060 -55.1691
   -55.1686 -55.1333 -55.1316 -55.1211 -55.0272 -55.0029 -54.3277 -54.3275
   -31.6647 -31.6644 -31.6508 -31.6422 -31.6419 -31.5917 -31.5692 -31.5488
   -31.5429 -31.5260 -31.5062 -31.4961 -31.4935 -31.4870 -31.4787 -31.4734
   -31.4675 -31.4673 -31.4646 -31.4607 -31.4569 -31.4406 -31.4386 -31.4318
   -31.4228 -31.4171 -31.4053 -31.3824 -31.3727 -31.3707 -31.3584 -31.3477
   -31.3477 -31.3448 -31.3422 -31.3419 -31.3388 -31.3320 -31.2635 -31.2499
   -31.2316 -31.2112 -30.6540 -30.6539 -30.5644 -30.5642 -30.5255 -30.5253
   -20.1853 -17.3021 -15.4872 -15.3750 -15.3715 -15.3048 -15.2505 -15.1792
   -15.1294 -15.0990 -15.0599 -15.0415 -15.0150 -14.9735 -14.9333 -14.9222
   -14.8975 -14.8884 -14.8672 -14.8234 -14.8147 -14.8064 -14.8003 -14.7738
   -14.7332 -14.7061 -14.6851 -14.6806 -14.6508 -14.5131 -14.3671 -12.8308
   -12.8307 -12.7254  -9.0426  -7.1665  -5.7202  -5.0160  -3.3128  -2.7522
    -2.6605  -2.5754  -2.5048  -2.4323  -2.3879  -2.3713  -2.3133  -2.3074
    -2.2729  -2.2186  -2.1997  -2.1839  -2.1681  -2.1377  -2.1301  -2.1077
    -2.0965  -2.0876  -2.0489  -2.0464  -2.0214  -2.0190  -1.9910  -1.9864
    -1.9561  -1.9280  -1.9069  -1.8677  -1.8213  -1.7242  -1.6383  -1.5673
    -1.5134  -1.5022  -1.4927  -1.4381  -1.4209  -1.3894  -1.3620  -1.3251
    -1.1911  -1.0531  -1.0432  -1.0077  -0.9431  -0.9116  -0.8739  -0.8511
    -0.7765  -0.7589  -0.7262  -0.6987  -0.6293  -0.5379  -0.4924  -0.4532
    -0.4213  -0.3670  -0.3393  -0.3195  -0.3023  -0.2881  -0.2528  -0.1866
    -0.1427  -0.1192  -0.0867  -0.0606  -0.0385  -0.0129   0.1585   0.1764
     0.2750   0.3433   0.4016   0.5370   0.6387   0.6771   0.7193   0.7784
     0.8453   0.8978   0.9317   0.9484   0.9669   1.0324   1.0872   1.1534
     1.1691   1.2017   1.2802   1.4419   2.0430   2.0453   2.1148   2.1150
     4.1113   4.1602   4.1855   4.1946   4.2620   4.2872   4.3040   4.3076
     4.4122   4.4282

     the Fermi energy is     3.7610 ev

!    total energy              =   -2971.36019198 Ry
     estimated scf accuracy    <       0.00000005 Ry
     smearing contrib. (-TS)   =      -0.02057840 Ry
     internal energy E=F+TS    =   -2971.33961358 Ry

     The total energy is F=E-TS. E is the sum of the following terms:
     one-electron contribution =  -24168.60681116 Ry
     hartree contribution      =   12179.94278986 Ry
     xc contribution           =    -492.42511090 Ry
     ewald contribution        =    9509.74595815 Ry
     electric field correction =       0.00356048 Ry

     convergence has been achieved in  67 iterations

     Forces acting on atoms (cartesian axes, Ry/au):

     atom    1 type  1   force =     0.00007328   -0.00011861    0.10311204
     atom    2 type  1   force =     0.00007641   -0.00010507    0.10314637
     atom    3 type  2   force =     0.00002569   -0.00019375    0.09530359
     atom    4 type  2   force =     0.00007554   -0.00048457    0.09487665
     atom    5 type  2   force =    -0.00021238   -0.00071203   -0.17563861
     atom    6 type  2   force =    -0.00005195   -0.00024035   -0.17576573
     atom    7 type  1   force =    -0.07170053   -0.00018373   -0.02757273
     atom    8 type  1   force =    -0.07168199   -0.00021320   -0.02750102
     atom    9 type  1   force =     0.07156654    0.00025967   -0.02757634
     atom   10 type  1   force =     0.07153367    0.00025940   -0.02755145
     atom   11 type  1   force =    -0.00007869   -0.00143845    0.05241015
     atom   12 type  1   force =    -0.00000289   -0.00150169    0.05287196
     atom   13 type  1   force =    -0.00013133   -0.00018097   -0.02269737
     atom   14 type  1   force =    -0.00005936   -0.00028716   -0.02182100
     atom   15 type  2   force =    -0.00221813    0.00205605   -0.00870961
     atom   16 type  2   force =    -0.00226183    0.00207134   -0.00149334
     atom   17 type  2   force =     0.00139703    0.00931829    0.01493442
     atom   18 type  2   force =     0.00154893   -0.01042621    0.01570588
     atom   19 type  1   force =    -0.01011085   -0.00094421    0.00484552
     atom   20 type  1   force =    -0.01048700   -0.00075554    0.00459245
     atom   21 type  1   force =     0.01028206   -0.00000823    0.00093911
     atom   22 type  1   force =     0.01055922   -0.00053333    0.00075891
     atom   23 type  1   force =    -0.00214361    0.00036863   -0.01185497
     atom   24 type  1   force =    -0.00061529   -0.00078138   -0.01485735
     atom   25 type  1   force =     0.00001957    0.00040003   -0.00001633
     atom   26 type  1   force =     0.00010344   -0.00025987   -0.00045927
     atom   27 type  2   force =     0.00054032   -0.00019599   -0.00065080
     atom   28 type  2   force =    -0.00021670   -0.00020978   -0.00003055
     atom   29 type  2   force =     0.00021679    0.00081280    0.00015146
     atom   30 type  2   force =    -0.00031142   -0.00027272    0.00000552
     atom   31 type  1   force =     0.00025118    0.00056795    0.00024285
     atom   32 type  1   force =    -0.00062656    0.00047025    0.00003411
     atom   33 type  1   force =     0.00043274    0.00052173    0.00010250
     atom   34 type  1   force =     0.00070356    0.00022974   -0.00016369
     atom   35 type  1   force =    -0.00011135   -0.00034975   -0.00003558
     atom   36 type  1   force =     0.00088896    0.00059571   -0.00100091
     atom   37 type  1   force =     0.00039431    0.00022233    0.00022526
     atom   38 type  1   force =     0.00057822    0.00069486    0.00067657
     atom   39 type  2   force =     0.00049662   -0.00020915   -0.00021152
     atom   40 type  2   force =    -0.00027160   -0.00035344   -0.00005646
     atom   41 type  2   force =     0.00089255    0.00016803    0.00036722
     atom   42 type  1   force =     0.00033527    0.00033766    0.00023291
     atom   43 type  1   force =     0.00031326   -0.00003624    0.00038938
     atom   44 type  2   force =    -0.00031477    0.00074501   -0.00039452
     atom   45 type  1   force =     0.00018926   -0.00022972   -0.00067057
     atom   46 type  1   force =     0.00022850    0.00086015    0.00004828
     atom   47 type  1   force =    -0.00034322    0.00041016    0.00003210
     atom   48 type  3   force =     0.00117005   -0.00063398   -0.00027101
     atom   49 type  4   force =    -0.02204437   -0.00375713    0.00216359
     atom   50 type  5   force =     0.00056525    0.00079653   -0.00049796
     atom   51 type  3   force =     0.01135321    0.00263668   -0.00820118
     atom   52 type  5   force =     0.00947229    0.00046221    0.00670825
     atom   53 type  5   force =    -0.00024780    0.00008519    0.00085397
     atom   54 type  1   force =    -0.00004012    0.00026585   -0.00003115

     Total force =     0.365597     Total SCF correction =     0.000542
  @ DRIVER MODE: Message from server: STATUS
  @ DRIVER MODE: Message from server: GETFORCE
  @ DRIVER MODE: Returning v,forces,stress,ensemble

     Writing output data file ./calc.save/
  @ DRIVER MODE: Message from server: EXIT
  @ DRIVE MODE: Exiting

     General routines

     Parallel routines

   This run was terminated on:  15:37: 5  26Sep2021

   JOB DONE.