     Program PWSCF v.6.7GPU starts on 15Sep2021 at 19: 1:19

     R & G space division:  proc/nbgrp/npool/nimage =      10
     Reading input from /storage/home/hcoda1/3/ntian30/research/carbon/CxH_vib/H2O_calc/ads_slab/CH3N2HH2O_a/out_0011/pw.inp
Warning: card &CELL ignored
Warning: card   CELL_DYNAMICS='IPI', ignored
Warning: card / ignored

     Current dimensions of program PWSCF are:
     Max number of different atomic species (ntypx) = 10
     Max number of k-points (npk) =  40000
     Max angular momentum in pseudopotentials (lmaxx) =  3
     Presently no symmetry can be used with electric field

     Message from routine cell_base_init:
     DEPRECATED: use true lattice parameter, not A to a.u. conversion factor

     IMPORTANT: XC functional enforced from input :
     Exchange-correlation= BEEF-VDW
                           (   1   4  43  14   2   0   0)
     Any further DFT definition will be discarded
     Please, verify this is what you really want

  @ DRIVER MODE: Connecting to
 qe_1139763_2852617.sched-torque.pace.gatech.edudfdzqmmb_scratch
  using UNIX socket
  @ DRIVER MODE: Message from server: STATUS
  @ DRIVER MODE: Message from server: INIT
  @ DRIVER MODE: Receiving replica           0          -1
  @ DRIVER MODE: Receiving encoded integer          25
  @ DRIVER MODE:  SCF:  T  FORCE:  T  STRESS:  F  VC:  F  ENSEMBLE:  F
  @ DRIVER MODE:  SCF:  T  FORCE:  T  STRESS:  F  VC:  F  ENSEMBLE:  F

     Using Slab Decomposition

     bravais-lattice index     =            0
     lattice parameter (alat)  =       1.8897  a.u.
     unit-cell volume          =    6658.9804 (a.u.)^3
     number of atoms/cell      =           57
     number of atomic types    =            5
     number of electrons       =       404.00
     number of Kohn-Sham states=          212
     kinetic-energy cutoff     =      29.3995  Ry
     charge density cutoff     =     293.9946  Ry
     scf convergence threshold =      7.3E-08
     mixing beta               =       0.0500
     number of iterations used =            8  plain     mixing
     Exchange-correlation= BEEF-VDW
                           (   1   4  43  14   2   0   0)

     celldm(1)=   1.889726  celldm(2)=   0.000000  celldm(3)=   0.000000
     celldm(4)=   0.000000  celldm(5)=   0.000000  celldm(6)=   0.000000

     crystal axes: (cart. coord. in units of alat)
               a(1) = (   6.579727   0.000000   0.000000 )
               a(2) = (  -0.000775   5.961596   0.000000 )
               a(3) = (   0.000000   0.000000  25.155947 )

     reciprocal axes: (cart. coord. in units 2 pi/alat)
               b(1) = (  0.151982  0.000020  0.000000 )
               b(2) = (  0.000000  0.167740  0.000000 )
               b(3) = (  0.000000  0.000000  0.039752 )

     PseudoPot. # 1 for Ti read from file:
     /storage/coda1/p-amedford6/0/shared/rich_project_chbe-medford/medford-share/data/pseudos_module/espresso/nninc/pbe/van/Ti.UPF
     MD5 check sum: 8e4df49b7f0d34bbd5052bf3f5ea0213
     Pseudo is Ultrasoft, Zval = 12.0
     Generated by new atomic code, or converted to UPF format
     Using radial grid of  851 points,  6 beta functions with:
                l(1) =   0
                l(2) =   0
                l(3) =   1
                l(4) =   1
                l(5) =   2
                l(6) =   2
     Q(r) pseudized with  8 coefficients,  rinner =    1.000   1.000   1.000
                                                       1.000   1.000

     PseudoPot. # 2 for O  read from file:
     /storage/coda1/p-amedford6/0/shared/rich_project_chbe-medford/medford-share/data/pseudos_module/espresso/nninc/pbe/van/O.UPF
     MD5 check sum: 78c19812648e8988a0fe644b0f25305e
     Pseudo is Ultrasoft, Zval =  6.0
     Generated by new atomic code, or converted to UPF format
     Using radial grid of  737 points,  4 beta functions with:
                l(1) =   0
                l(2) =   0
                l(3) =   1
                l(4) =   1
     Q(r) pseudized with  8 coefficients,  rinner =    0.800   0.800   0.800

     PseudoPot. # 3 for N  read from file:
     /storage/coda1/p-amedford6/0/shared/rich_project_chbe-medford/medford-share/data/pseudos_module/espresso/nninc/pbe/van/N.UPF
     MD5 check sum: 90d10febe142ad51ac9d5be1deb811c4
     Pseudo is Ultrasoft, Zval =  5.0
     Generated by new atomic code, or converted to UPF format
     Using radial grid of  729 points,  4 beta functions with:
                l(1) =   0
                l(2) =   0
                l(3) =   1
                l(4) =   1
     Q(r) pseudized with  8 coefficients,  rinner =    0.800   0.800   0.800

     PseudoPot. # 4 for C  read from file:
     /storage/coda1/p-amedford6/0/shared/rich_project_chbe-medford/medford-share/data/pseudos_module/espresso/nninc/pbe/van/C.UPF
     MD5 check sum: 1a69bf6b8db32088f5b2163dbdb77a27
     Pseudo is Ultrasoft, Zval =  4.0
     Generated by new atomic code, or converted to UPF format
     Using radial grid of  721 points,  4 beta functions with:
                l(1) =   0
                l(2) =   0
                l(3) =   1
                l(4) =   1
     Q(r) pseudized with  8 coefficients,  rinner =    0.800   0.800   0.800

     PseudoPot. # 5 for H  read from file:
     /storage/coda1/p-amedford6/0/shared/rich_project_chbe-medford/medford-share/data/pseudos_module/espresso/nninc/pbe/van/H.UPF
     MD5 check sum: b5ee9d7bfd3a09ee7748110bda690ff7
     Pseudo is Ultrasoft, Zval =  1.0
     Generated by new atomic code, or converted to UPF format
     Using radial grid of  615 points,  1 beta functions with:
                l(1) =   0
     Q(r) pseudized with  8 coefficients,  rinner =    0.800

     atomic species   valence    mass     pseudopotential
        Ti1           12.00    47.86700     Ti( 1.00)
        O1             6.00    15.99900     O ( 1.00)
        N1             5.00    14.00700     N ( 1.00)
        C1             4.00    12.01100     C ( 1.00)
        H1             1.00     1.00800     H ( 1.00)

     No symmetry found

   Cartesian axes

     site n.     atom                  positions (alat units)
         1           Ti1 tau(   1) = (   0.0004258   2.9801865   6.0000000  )
         2           Ti1 tau(   2) = (   3.2906075   1.4906267   6.0002472  )
         3           O1  tau(   3) = (   0.0006271   0.0005054   7.9858123  )
         4           O1  tau(   4) = (   3.2906025   0.0005020   7.3038282  )
         5           O1  tau(   5) = (   4.5942328   1.4918067   9.2879030  )
         6           O1  tau(   6) = (   1.9868534   1.4903216   9.2879459  )
         7           Ti1 tau(   7) = (   3.2907910   2.8959150   9.1758416  )
         8           Ti1 tau(   8) = (   0.0015273   1.4827037   9.2680791  )
         9           O1  tau(   9) = (   3.2846840   0.0164488  11.3171736  )
        10           O1  tau(  10) = (   0.0116148   5.9584955  10.6183126  )
        11           O1  tau(  11) = (   1.2780696   1.4966870  12.6228330  )
        12           O1  tau(  12) = (   5.2671132   1.5021727  12.6038655  )
        13           Ti1 tau(  13) = (   0.0814623   2.9703834  12.6092300  )
        14           Ti1 tau(  14) = (   3.3984034   1.5042134  12.4754612  )
        15           O1  tau(  15) = (   6.5611900   5.9602394  14.6246442  )
        16           O1  tau(  16) = (   3.2847170   0.0117735  13.9091713  )
        17           O1  tau(  17) = (   4.5127615   1.5439160  15.9886145  )
        18           O1  tau(  18) = (   2.0245574   1.5486524  15.9865356  )
        19           Ti1 tau(  19) = (   3.2678410   3.0292036  15.6627315  )
        20           Ti1 tau(  20) = (   6.5437773   1.5790868  15.8036792  )
        21           O1  tau(  21) = (   3.2904802   0.0005063   4.7018136  )
        22           O1  tau(  22) = (   6.5616667   0.0409992  17.2467836  )
        23           O1  tau(  23) = (   1.3043587   1.4918075   6.0039043  )
        24           O1  tau(  24) = (   5.2767064   1.4903225   6.0039473  )
        25           Ti1 tau(  25) = (   0.0000382   5.9609847   6.0000000  )
        26           Ti1 tau(  26) = (   3.2902200   4.4714249   6.0002472  )
        27           O1  tau(  27) = (   0.0002396   2.9813036   7.9858123  )
        28           O1  tau(  28) = (   3.2902150   2.9813002   7.3038282  )
        29           O1  tau(  29) = (   4.5938453   4.4726049   9.2879030  )
        30           O1  tau(  30) = (   1.9864658   4.4711199   9.2879459  )
        31           Ti1 tau(  31) = (   3.2891106   5.8743827   9.1763621  )
        32           Ti1 tau(  32) = (   0.0006254   4.4649316   9.2693709  )
        33           O1  tau(  33) = (   3.2886753   2.9955121  11.3174028  )
        34           O1  tau(  34) = (   0.0092240   2.9805883  10.6323155  )
        35           O1  tau(  35) = (   1.2771457   4.4765085  12.6200386  )
        36           O1  tau(  36) = (   5.2716127   4.4859779  12.5990880  )
        37           Ti1 tau(  37) = (   0.0719143   5.9417653  12.6408960  )
        38           Ti1 tau(  38) = (   3.4009286   4.4967646  12.4819834  )
        39           O1  tau(  39) = (   6.5633752   2.9851081  14.6229342  )
        40           O1  tau(  40) = (   3.2806164   3.0132077  13.8636590  )
        41           O1  tau(  41) = (   4.5054435   4.4842064  16.0752605  )
        42           O1  tau(  42) = (   2.0287922   4.4846499  16.0567397  )
        43           Ti1 tau(  43) = (   3.2585180   0.0608266  15.7494983  )
        44           Ti1 tau(  44) = (   6.5556145   4.6328118  16.1363011  )
        45           O1  tau(  45) = (   3.2900926   2.9813045   4.7018136  )
        46           O1  tau(  46) = (   1.3039711   4.4726057   6.0039043  )
        47           O1  tau(  47) = (   5.2763189   4.4711207   6.0039473  )
        48           N1  tau(  48) = (   6.4582227   2.6263240  18.5734135  )
        49           N1  tau(  49) = (   6.5493832   2.9496485  17.3003279  )
        50           C1  tau(  50) = (   0.1600853   3.5596473  19.6455425  )
        51           H1  tau(  51) = (   6.1911903   4.4878083  19.4849519  )
        52           H1  tau(  52) = (   6.4401482   3.1080517  20.5902855  )
        53           H1  tau(  53) = (   1.2308410   3.8049764  19.6956042  )
        54           H1  tau(  54) = (   6.5044843   1.6253530  18.7706356  )
        55           O1  tau(  55) = (   3.2415852   0.0755412  18.2049893  )
        56           H1  tau(  56) = (   4.0109045   5.4607113  18.3409029  )
        57           H1  tau(  57) = (   2.4534619   5.4803556  18.3240773  )

     number of k points=    10  Fermi-Dirac smearing, width (Ry)=  0.0073
                       cart. coord. in units 2pi/alat
        k(    1) = (   0.0000000   0.0000000   0.0000000), wk =   0.1250000
        k(    2) = (   0.0000000   0.0419351   0.0000000), wk =   0.2500000
        k(    3) = (   0.0000000  -0.0838702   0.0000000), wk =   0.1250000
        k(    4) = (   0.0379955   0.0000049   0.0000000), wk =   0.2500000
        k(    5) = (   0.0379955   0.0419400   0.0000000), wk =   0.2500000
        k(    6) = (   0.0379955  -0.0838652   0.0000000), wk =   0.2500000
        k(    7) = (   0.0379955  -0.0419301   0.0000000), wk =   0.2500000
        k(    8) = (  -0.0759910  -0.0000099   0.0000000), wk =   0.1250000
        k(    9) = (  -0.0759910   0.0419252   0.0000000), wk =   0.2500000
        k(   10) = (  -0.0759910  -0.0838800   0.0000000), wk =   0.1250000

     Initial potential from superposition of free atoms

     starting charge  387.99913, renormalised to  404.00000

     negative rho (up, down):  1.445E-02 0.000E+00

     %%%%%%%%%%%%%%%%%%%%%%%%%%%%%%%%%%%%%%%%%%%%%%%%%%%%%%%%%%%%%%%%%%%%%%%%
     %                                                                      %
     % You are using vdW-DF, which was implemented by the Thonhauser group. %
     % Please cite the following two papers that made this development      %
     % possible and the two reviews that describe the various versions:     %
     %                                                                      %
     %   T. Thonhauser et al., PRL 115, 136402 (2015).                      %
     %   T. Thonhauser et al., PRB 76, 125112 (2007).                       %
     %   K. Berland et al., Rep. Prog. Phys. 78, 066501 (2015).             %
     %   D.C. Langreth et al., J. Phys.: Condens. Matter 21, 084203 (2009). %
     %                                                                      %
     %                                                                      %
     % If you are calculating the stress with vdW-DF, please also cite:     %
     %                                                                      %
     %   R. Sabatini et al., J. Phys.: Condens. Matter 24, 424209 (2012).   %
     %                                                                      %
     %%%%%%%%%%%%%%%%%%%%%%%%%%%%%%%%%%%%%%%%%%%%%%%%%%%%%%%%%%%%%%%%%%%%%%%%

     Adding external electric field

     Computed dipole along edir(3) :
        Dipole              -13.5629 Ry au,        -34.4736 Debye
        Dipole field         -0.0256 Ry au,

        Potential amp.        2.3726 Ry
        Total length         46.3494 bohr

     Starting wfcs are  306 atomic wfcs
  @ DRIVER MODE: Message from server: STATUS
  @ DRIVER MODE: Message from server: POSDATA
  @ DRIVER MODE: Reading and sharing cell
  @ DRIVER MODE: Reading and sharing positions
  @ DRIVER MODE: Received positions

     Self-consistent Calculation

     iteration #  1     ecut=    29.40 Ry     beta= 0.05
     Davidson diagonalization with overlap
     c_bands:  4 eigenvalues not converged
     c_bands:  4 eigenvalues not converged
     c_bands:  4 eigenvalues not converged
     c_bands:  4 eigenvalues not converged
     c_bands:  3 eigenvalues not converged
     c_bands:  3 eigenvalues not converged
     ethr =  1.00E-05,  avg # of iterations = 25.2

[...]

     total energy              =   -2334.53247569 Ry
     estimated scf accuracy    <    7297.95310578 Ry

     iteration #  2     ecut=    29.40 Ry     beta= 0.05
     Davidson diagonalization with overlap
     ethr =  1.00E-02,  avg # of iterations = 23.9

[...]

     iteration # 41     ecut=    29.40 Ry     beta= 0.05
     Davidson diagonalization with overlap
     c_bands:  1 eigenvalues not converged
     ethr =  5.99E-08,  avg # of iterations = 10.0

[...]

     total energy              =   -2975.23031719 Ry
     estimated scf accuracy    <       0.00000011 Ry

     iteration # 60     ecut=    29.40 Ry     beta= 0.05
     Davidson diagonalization with overlap
     ethr =  2.18E-11,  avg # of iterations =  2.0

     negative rho (up, down):  1.509E-02 0.000E+00

     Adding external electric field

     Computed dipole along edir(3) :
        Dipole                1.1464 Ry au,          2.9137 Debye
        Dipole field          0.0022 Ry au,

        Potential amp.       -0.2005 Ry
        Total length         46.3494 bohr

     End of self-consistent calculation

          k = 0.0000 0.0000 0.0000 ( 18029 PWs)   bands (ev):

   -55.5213 -55.4873 -55.3418 -55.3053 -55.2775 -55.2438 -55.2103 -55.2018
   -55.1989 -55.1727 -55.1674 -55.0155 -54.5447 -54.4507 -54.4167 -54.3813
   -31.9941 -31.8769 -31.8156 -31.8003 -31.7366 -31.7201 -31.6908 -31.6746
   -31.6301 -31.6165 -31.6046 -31.5827 -31.5802 -31.5345 -31.5209 -31.5099
   -31.4962 -31.4815 -31.4647 -31.4531 -31.4273 -31.4255 -31.4245 -31.4076
   -31.3994 -31.3973 -31.3895 -31.3830 -31.3740 -31.3714 -31.3556 -31.3376
   -31.3253 -31.3142 -31.2074 -31.1798 -31.0392 -30.8557 -30.7727 -30.7699
   -30.7554 -30.7500 -30.7159 -30.6728 -30.5930 -30.5866 -30.5615 -30.4754
   -18.7769 -17.6127 -16.0834 -15.8935 -15.6213 -15.4859 -15.4671 -15.2841
   -15.2085 -15.1620 -15.0306 -14.9765 -14.9528 -14.9163 -14.9115 -14.8521
   -14.8202 -14.7933 -14.7612 -14.7512 -14.7428 -14.7063 -14.6641 -14.6255
   -14.5885 -14.5319 -14.4834 -14.4643 -14.3600 -14.3548 -13.9207 -12.9523
   -12.8368 -11.8594  -8.7806  -6.5465  -5.5634  -4.2990  -4.0472  -3.4686
    -3.3972  -3.3345  -3.2175  -3.1183  -3.0021  -2.9480  -2.8608  -2.7778
    -2.6173  -2.5573  -2.5282  -2.5017  -2.4148  -2.2864  -2.2768  -2.2228
    -2.1985  -2.1792  -2.1584  -2.1456  -2.0403  -2.0092  -1.9757  -1.8457
    -1.8166  -1.8109  -1.7853  -1.7779  -1.7530  -1.6989  -1.6647  -1.6432
    -1.6407  -1.6055  -1.5631  -1.5428  -1.4179  -1.4019  -1.2794  -1.1469
    -1.1136  -1.0680  -1.0608  -0.9034  -0.8863  -0.8631  -0.8300  -0.8256
    -0.7463  -0.6785  -0.6205  -0.5631  -0.4382  -0.4318  -0.3914  -0.2514
    -0.2449  -0.2246  -0.1869  -0.1753  -0.1177  -0.1060  -0.0626   0.0071
     0.0869   0.1669   0.2636   0.2732   0.3225   0.3593   0.3775   0.4318
     0.4437   0.4946   0.5040   0.5143   0.5668   0.6031   0.6154   0.6801
     0.7315   0.8443   0.9114   0.9389   0.9870   1.1043   1.1771   1.2253
     1.2407   1.4042   1.5171   1.5601   1.5716   1.7719   1.8100   2.1383
     2.1821   3.6534   3.6692   3.7595   3.8198   3.9349   4.0113   4.0933
     4.1891   4.2490   4.3423   4.3610

[...]

          k = 0.0380-0.0419 0.0000 ( 17876 PWs)   bands (ev):

[...]

          k =-0.0760-0.0000 0.0000 ( 17886 PWs)   bands (ev):

[...]

          k =-0.0760-0.0839 0.0000 ( 17948 PWs)   bands (ev):

   -55.5043 -55.5040 -55.3273 -55.3196 -55.2606 -55.2604 -55.1987 -55.1972
   -55.1879 -55.1842 -55.1813 -55.0171 -54.5431 -54.4337 -54.4336 -54.3827
   -31.8096 -31.8096 -31.8008 -31.8008 -31.6900 -31.6728 -31.6254 -31.6250
   -31.5789 -31.5739 -31.5730 -31.5703 -31.5696 -31.5577 -31.5309 -31.5258
   -31.4983 -31.4868 -31.4808 -31.4726 -31.4532 -31.4513 -31.4430 -31.4404
   -31.4232 -31.4157 -31.4123 -31.4079 -31.4076 -31.4033 -31.3974 -31.3912
   -31.3639 -31.3395 -31.3170 -31.2152 -30.9484 -30.7921 -30.7628 -30.7627
   -30.7584 -30.7383 -30.6688 -30.6687 -30.6297 -30.6297 -30.6117 -30.5931
   -18.7759 -17.6062 -15.5033 -15.4400 -15.3750 -15.3711 -15.2628 -15.2099
   -15.1159 -15.1017 -15.0948 -15.0906 -14.9960 -14.9923 -14.9190 -14.9096
   -14.8732 -14.8673 -14.8647 -14.8463 -14.8289 -14.8213 -14.8045 -14.7537
   -14.7529 -14.7473 -14.5788 -14.5477 -14.4340 -14.4107 -14.0440 -12.9389
   -12.9388 -11.8610  -8.7910  -6.5304  -5.5558  -4.2462  -4.0682  -2.9067
    -2.9007  -2.7952  -2.6664  -2.5414  -2.5302  -2.5042  -2.4690  -2.3029
    -2.2912  -2.2776  -2.2688  -2.2218  -2.2118  -2.1919  -2.1768  -2.1206
    -2.1052  -2.0929  -2.0857  -2.0741  -2.0612  -2.0541  -2.0444  -2.0405
    -2.0188  -1.9621  -1.9423  -1.8549  -1.7724  -1.7621  -1.6808  -1.5645
    -1.5601  -1.5505  -1.5494  -1.5314  -1.5209  -1.4786  -1.4287  -1.3906
    -1.2489  -1.1526  -1.1123  -1.0929  -1.0252  -1.0119  -0.9279  -0.8443
    -0.8154  -0.7957  -0.7107  -0.6638  -0.5791  -0.5621  -0.5258  -0.4733
    -0.4541  -0.4407  -0.4302  -0.4217  -0.3458  -0.3002  -0.2397  -0.2252
    -0.1747  -0.1435  -0.1112  -0.0885  -0.0453   0.0417   0.0513   0.0951
     0.1058   0.1205   0.2014   0.3534   0.3910   0.6231   0.6315   0.7102
     0.8387   0.8530   0.8633   0.9450   0.9607   0.9989   1.0187   1.1308
     1.1543   1.1936   1.3089   1.3444   1.4463   1.9415   1.9424   2.0011
     2.0015   3.5150   4.1238   4.1326   4.1479   4.1609   4.1848   4.1929
     4.2397   4.2521   4.3841   4.4034

     the Fermi energy is     3.6290 ev

!    total energy              =   -2975.23036597 Ry
     estimated scf accuracy    <       0.00000002 Ry
     smearing contrib. (-TS)   =      -0.02087929 Ry
     internal energy E=F+TS    =   -2975.20948668 Ry

     The total energy is F=E-TS. E is the sum of the following terms:
     one-electron contribution =  -23880.91981276 Ry
     hartree contribution      =   12037.81792583 Ry
     xc contribution           =    -494.91960611 Ry
     ewald contribution        =    9362.80952642 Ry
     electric field correction =       0.00247994 Ry

     convergence has been achieved in  60 iterations

     Forces acting on atoms (cartesian axes, Ry/au):

     atom    1 type  1   force =     0.00017041   -0.00023355    0.09953428
     atom    2 type  1   force =    -0.00014150   -0.00039250   -0.17304645
     atom    3 type  2   force =    -0.00006937   -0.00000262   -0.02920119
     atom    4 type  2   force =     0.00003900   -0.00102068    0.04883590
     atom    5 type  2   force =    -0.01223426    0.00100008    0.00042657
     atom    6 type  2   force =     0.01353657    0.00187320   -0.00116445
     atom    7 type  1   force =    -0.00136090   -0.00054329   -0.00276557
     atom    8 type  1   force =     0.00094402   -0.00608070    0.04567119
     atom    9 type  2   force =    -0.00001218   -0.00023597   -0.00022496
     atom   10 type  2   force =    -0.00157575    0.00261616   -0.03139755
     atom   11 type  2   force =    -0.00018122   -0.00045277   -0.00012025
     atom   12 type  2   force =     0.00000363   -0.00024021   -0.00001281
     atom   13 type  1   force =    -0.00014196   -0.00053886    0.00065637
     atom   14 type  1   force =     0.00036507   -0.00017857    0.00065222
     atom   15 type  2   force =     0.00004619   -0.00058100   -0.00165798
     atom   16 type  2   force =    -0.00020368    0.00002636   -0.00044368
     atom   17 type  2   force =    -0.00030698   -0.00048325   -0.00015661
     atom   18 type  2   force =     0.00040174   -0.00055408   -0.00027301
     atom   19 type  1   force =     0.00011592   -0.00025896    0.00102310
     atom   20 type  1   force =    -0.00003437   -0.00065843   -0.00017639
     atom   21 type  2   force =     0.00008543   -0.00000621    0.10256456
     atom   22 type  2   force =     0.00009517   -0.00058757   -0.00034308
     atom   23 type  2   force =    -0.07251788   -0.00008743   -0.02848496
     atom   24 type  2   force =     0.07248211    0.00034695   -0.02846649
     atom   25 type  1   force =     0.00008578   -0.00027425    0.09905712
     atom   26 type  1   force =    -0.00005650   -0.00041482   -0.17320363
     atom   27 type  2   force =    -0.00003284    0.00000315   -0.02851032
     atom   28 type  2   force =     0.00009385   -0.00075516    0.04800061
     atom   29 type  2   force =    -0.01260191    0.00063984    0.00046392
     atom   30 type  2   force =     0.01383329    0.00096791   -0.00110219
     atom   31 type  1   force =    -0.00146589    0.00225496   -0.00550385
     atom   32 type  1   force =     0.00112708    0.00382796    0.04619482
     atom   33 type  2   force =    -0.00007511   -0.00026740   -0.00031159
     atom   34 type  2   force =    -0.00098798    0.00133887   -0.03427749
     atom   35 type  2   force =    -0.00029615    0.00004375   -0.00040651
     atom   36 type  2   force =     0.00040901    0.00009784   -0.00019800
     atom   37 type  1   force =    -0.00026816    0.00008020    0.00132357
     atom   38 type  1   force =     0.00023674   -0.00028111    0.00047342
     atom   39 type  2   force =     0.00004258   -0.00041895   -0.00114919
     atom   40 type  2   force =    -0.00003923    0.00018399   -0.00077659
     atom   41 type  2   force =    -0.00049753   -0.00005875   -0.00021737
     atom   42 type  2   force =     0.00052938   -0.00000997   -0.00027649
     atom   43 type  1   force =     0.00011388    0.00017820    0.00046477
     atom   44 type  1   force =    -0.00009011    0.00040067   -0.00030743
     atom   45 type  2   force =     0.00009279   -0.00001093    0.10256408
     atom   46 type  2   force =    -0.07254251   -0.00000871   -0.02847696
     atom   47 type  2   force =     0.07249770    0.00037684   -0.02847120
     atom   48 type  3   force =    -0.00054181    0.00214301   -0.01186602
     atom   49 type  3   force =    -0.00025801   -0.00384745    0.01755099
     atom   50 type  4   force =     0.00053321   -0.00049344   -0.00195866
     atom   51 type  5   force =     0.00017122   -0.00002705    0.00037436
     atom   52 type  5   force =    -0.00017235    0.00014978    0.00008775
     atom   53 type  5   force =     0.00013926    0.00009015    0.00038531
     atom   54 type  5   force =     0.00060542    0.00104728   -0.00090742
     atom   55 type  2   force =     0.00058866    0.00049720   -0.00045315
     atom   56 type  5   force =    -0.00018844   -0.00038765   -0.00017061
     atom   57 type  5   force =    -0.00049054    0.00020797    0.00017518

     Total force =     0.372842     Total SCF correction =     0.000254
  @ DRIVER MODE: Message from server: STATUS
  @ DRIVER MODE: Message from server: GETFORCE
  @ DRIVER MODE: Returning v,forces,stress,ensemble

     Writing output data file ./calc.save/
  @ DRIVER MODE: Message from server: EXIT
  @ DRIVE MODE: Exiting

     General routines

     Parallel routines

   This run was terminated on:  19:18:32  15Sep2021

   JOB DONE.