     Program PWSCF v.6.7GPU starts on 16Sep2021 at  2:30: 2

     R & G space division:  proc/nbgrp/npool/nimage =      10
     Reading input from /storage/home/hcoda1/3/ntian30/research/carbon/CxH_vib/H2O_calc/ads_slab/CHOH2O_a/out_0034/pw.inp
Warning: card &CELL ignored
Warning: card   CELL_DYNAMICS='IPI', ignored
Warning: card / ignored

     Current dimensions of program PWSCF are:
     Max number of different atomic species (ntypx) = 10
     Max number of k-points (npk) =  40000
     Max angular momentum in pseudopotentials (lmaxx) =  3
     Presently no symmetry can be used with electric field

     Message from routine cell_base_init:
     DEPRECATED: use true lattice parameter, not A to a.u. conversion factor

     IMPORTANT: XC functional enforced from input :
     Exchange-correlation= BEEF-VDW
                           (   1   4  43  14   2   0   0)
     Any further DFT definition will be discarded
     Please, verify this is what you really want

  @ DRIVER MODE: Connecting to
 qe_1139763_2852631.sched-torque.pace.gatech.eduqp_td969_scratch
  using UNIX socket
  @ DRIVER MODE: Message from server: STATUS
  @ DRIVER MODE: Message from server: INIT
  @ DRIVER MODE: Receiving replica           0          -1
  @ DRIVER MODE: Receiving encoded integer          25
  @ DRIVER MODE:  SCF:  T  FORCE:  T  STRESS:  F  VC:  F  ENSEMBLE:  F
  @ DRIVER MODE:  SCF:  T  FORCE:  T  STRESS:  F  VC:  F  ENSEMBLE:  F

     Using Slab Decomposition

     bravais-lattice index     =            0
     lattice parameter (alat)  =       1.8897  a.u.
     unit-cell volume          =    6658.9804 (a.u.)^3
     number of atoms/cell      =           53
     number of atomic types    =            4
     number of electrons       =       397.00
     number of Kohn-Sham states=          208
     kinetic-energy cutoff     =      29.3995  Ry
     charge density cutoff     =     293.9946  Ry
     scf convergence threshold =      7.3E-08
     mixing beta               =       0.0500
     number of iterations used =            8  plain     mixing
     Exchange-correlation= BEEF-VDW
                           (   1   4  43  14   2   0   0)

     celldm(1)=   1.889726  celldm(2)=   0.000000  celldm(3)=   0.000000
     celldm(4)=   0.000000  celldm(5)=   0.000000  celldm(6)=   0.000000

     crystal axes: (cart. coord. in units of alat)
               a(1) = (   6.579727   0.000000   0.000000 )
               a(2) = (  -0.000775   5.961596   0.000000 )
               a(3) = (   0.000000   0.000000  25.155947 )

     reciprocal axes: (cart. coord. in units 2 pi/alat)
               b(1) = (  0.151982  0.000020  0.000000 )
               b(2) = (  0.000000  0.167740  0.000000 )
               b(3) = (  0.000000  0.000000  0.039752 )

     PseudoPot. # 1 for O  read from file:
     /storage/coda1/p-amedford6/0/shared/rich_project_chbe-medford/medford-share/data/pseudos_module/espresso/nninc/pbe/van/O.UPF
     MD5 check sum: 78c19812648e8988a0fe644b0f25305e
     Pseudo is Ultrasoft, Zval =  6.0
     Generated by new atomic code, or converted to UPF format
     Using radial grid of  737 points,  4 beta functions with:
                l(1) =   0
                l(2) =   0
                l(3) =   1
                l(4) =   1
     Q(r) pseudized with  8 coefficients,  rinner =    0.800   0.800   0.800

     PseudoPot. # 2 for Ti read from file:
     /storage/coda1/p-amedford6/0/shared/rich_project_chbe-medford/medford-share/data/pseudos_module/espresso/nninc/pbe/van/Ti.UPF
     MD5 check sum: 8e4df49b7f0d34bbd5052bf3f5ea0213
     Pseudo is Ultrasoft, Zval = 12.0
     Generated by new atomic code, or converted to UPF format
     Using radial grid of  851 points,  6 beta functions with:
                l(1) =   0
                l(2) =   0
                l(3) =   1
                l(4) =   1
                l(5) =   2
                l(6) =   2
     Q(r) pseudized with  8 coefficients,  rinner =    1.000   1.000   1.000
                                                       1.000   1.000

     PseudoPot. # 3 for C  read from file:
     /storage/coda1/p-amedford6/0/shared/rich_project_chbe-medford/medford-share/data/pseudos_module/espresso/nninc/pbe/van/C.UPF
     MD5 check sum: 1a69bf6b8db32088f5b2163dbdb77a27
     Pseudo is Ultrasoft, Zval =  4.0
     Generated by new atomic code, or converted to UPF format
     Using radial grid of  721 points,  4 beta functions with:
                l(1) =   0
                l(2) =   0
                l(3) =   1
                l(4) =   1
     Q(r) pseudized with  8 coefficients,  rinner =    0.800   0.800   0.800

     PseudoPot. # 4 for H  read from file:
     /storage/coda1/p-amedford6/0/shared/rich_project_chbe-medford/medford-share/data/pseudos_module/espresso/nninc/pbe/van/H.UPF
     MD5 check sum: b5ee9d7bfd3a09ee7748110bda690ff7
     Pseudo is Ultrasoft, Zval =  1.0
     Generated by new atomic code, or converted to UPF format
     Using radial grid of  615 points,  1 beta functions with:
                l(1) =   0
     Q(r) pseudized with  8 coefficients,  rinner =    0.800

     atomic species   valence    mass     pseudopotential
        O1             6.00    15.99900     O ( 1.00)
        Ti1           12.00    47.86700     Ti( 1.00)
        C1             4.00    12.01100     C ( 1.00)
        H1             1.00     1.00800     H ( 1.00)

     No symmetry found

   Cartesian axes

     site n.     atom                  positions (alat units)
         1           O1  tau(   1) = (   3.2904802   0.0005063   4.7018136  )
         2           O1  tau(   2) = (   3.2900926   2.9813045   4.7018136  )
         3           Ti1 tau(   3) = (   0.0004258   2.9801865   6.0000000  )
         4           Ti1 tau(   4) = (   0.0000382   5.9609847   6.0000000  )
         5           Ti1 tau(   5) = (   3.2906075   1.4906267   6.0002472  )
         6           Ti1 tau(   6) = (   3.2902200   4.4714249   6.0002472  )
         7           O1  tau(   7) = (   1.3043587   1.4918075   6.0039043  )
         8           O1  tau(   8) = (   1.3039711   4.4726057   6.0039043  )
         9           O1  tau(   9) = (   5.2767064   1.4903225   6.0039473  )
        10           O1  tau(  10) = (   5.2763189   4.4711207   6.0039473  )
        11           O1  tau(  11) = (   3.2906025   0.0005020   7.3038282  )
        12           O1  tau(  12) = (   3.2902150   2.9813002   7.3038282  )
        13           O1  tau(  13) = (   0.0006271   0.0005054   7.9858123  )
        14           O1  tau(  14) = (   0.0002396   2.9813036   7.9858123  )
        15           Ti1 tau(  15) = (   3.2898052   0.0549011   9.1556235  )
        16           Ti1 tau(  16) = (   3.3203827   3.0319468   9.1649589  )
        17           Ti1 tau(  17) = (   0.0233352   4.5284096   9.2575609  )
        18           Ti1 tau(  18) = (   0.0173867   1.6076536   9.3607995  )
        19           O1  tau(  19) = (   4.5942328   1.4918067   9.2879030  )
        20           O1  tau(  20) = (   4.5938453   4.4726049   9.2879030  )
        21           O1  tau(  21) = (   1.9868534   1.4903216   9.2879459  )
        22           O1  tau(  22) = (   1.9864658   4.4711199   9.2879459  )
        23           O1  tau(  23) = (   0.0034721   0.0125384  10.6021848  )
        24           O1  tau(  24) = (   0.0020335   2.9928551  10.5785608  )
        25           O1  tau(  25) = (   3.2937812   2.9995440  11.3622203  )
        26           O1  tau(  26) = (   3.2898347   0.0201518  11.3605052  )
        27           Ti1 tau(  27) = (   0.0300534   0.0302837  12.4945235  )
        28           Ti1 tau(  28) = (   3.3347356   4.5017157  12.5123549  )
        29           Ti1 tau(  29) = (   3.3349302   1.5071924  12.5110355  )
        30           Ti1 tau(  30) = (   0.0295963   3.0145660  12.7881340  )
        31           O1  tau(  31) = (   1.2797855   4.4923438  12.6426172  )
        32           O1  tau(  32) = (   1.2799313   1.5104473  12.6443552  )
        33           O1  tau(  33) = (   5.2866386   4.4922094  12.6434695  )
        34           O1  tau(  34) = (   5.2866683   1.5083124  12.6439979  )
        35           O1  tau(  35) = (   3.2814828   3.0070543  13.9178409  )
        36           O1  tau(  36) = (   3.2867003   0.0227894  13.9786966  )
        37           O1  tau(  37) = (   0.0021618   0.0175046  14.6784646  )
        38           O1  tau(  38) = (   0.0002945   3.0143855  14.7103493  )
        39           Ti1 tau(  39) = (   3.2869621   3.0144872  15.7052805  )
        40           Ti1 tau(  40) = (   3.3044863   0.0423327  15.8215216  )
        41           Ti1 tau(  41) = (   0.0135451   4.5796903  15.9522020  )
        42           Ti1 tau(  42) = (   0.0105102   1.3838334  15.9764479  )
        43           O1  tau(  43) = (   4.5519026   4.4709862  16.0573678  )
        44           O1  tau(  44) = (   4.5564327   1.5473262  16.0430495  )
        45           O1  tau(  45) = (   2.0152543   1.5518810  16.0555283  )
        46           O1  tau(  46) = (   2.0123771   4.4621050  16.0713562  )
        47           O1  tau(  47) = (   0.0008539   0.0298781  17.1953024  )
        48           O1  tau(  48) = (   6.5358978   3.0350243  17.4695059  )
        49           C1  tau(  49) = (   6.3916590   3.0774531  18.7359330  )
        50           H1  tau(  50) = (   6.4332689   2.0249999  19.1325638  )
        51           O1  tau(  51) = (   3.2941481   0.0813851  18.1811625  )
        52           H1  tau(  52) = (   4.0521942   5.5777154  18.5714528  )
        53           H1  tau(  53) = (   2.4879692   5.6655715  18.5615442  )

     number of k points=    10  Fermi-Dirac smearing, width (Ry)=  0.0073
                       cart. coord. in units 2pi/alat
        k(    1) = (   0.0000000   0.0000000   0.0000000), wk =   0.1250000
        k(    2) = (   0.0000000   0.0419351   0.0000000), wk =   0.2500000
        k(    3) = (   0.0000000  -0.0838702   0.0000000), wk =   0.1250000
        k(    4) = (   0.0379955   0.0000049   0.0000000), wk =   0.2500000
        k(    5) = (   0.0379955   0.0419400   0.0000000), wk =   0.2500000
        k(    6) = (   0.0379955  -0.0838652   0.0000000), wk =   0.2500000
        k(    7) = (   0.0379955  -0.0419301   0.0000000), wk =   0.2500000
        k(    8) = (  -0.0759910  -0.0000099   0.0000000), wk =   0.1250000
        k(    9) = (  -0.0759910   0.0419252   0.0000000), wk =   0.2500000
        k(   10) = (  -0.0759910  -0.0838800   0.0000000), wk =   0.1250000

     Initial potential from superposition of free atoms

     starting charge  380.99918, renormalised to  397.00000

     negative rho (up, down):  1.751E-02 0.000E+00

     %%%%%%%%%%%%%%%%%%%%%%%%%%%%%%%%%%%%%%%%%%%%%%%%%%%%%%%%%%%%%%%%%%%%%%%%
     %                                                                      %
     % You are using vdW-DF, which was implemented by the Thonhauser group. %
     % Please cite the following two papers that made this development      %
     % possible and the two reviews that describe the various versions:     %
     %                                                                      %
     %   T. Thonhauser et al., PRL 115, 136402 (2015).                      %
     %   T. Thonhauser et al., PRB 76, 125112 (2007).                       %
     %   K. Berland et al., Rep. Prog. Phys. 78, 066501 (2015).             %
     %   D.C. Langreth et al., J. Phys.: Condens. Matter 21, 084203 (2009). %
     %                                                                      %
     %                                                                      %
     % If you are calculating the stress with vdW-DF, please also cite:     %
     %                                                                      %
     %   R. Sabatini et al., J. Phys.: Condens. Matter 24, 424209 (2012).   %
     %                                                                      %
     %%%%%%%%%%%%%%%%%%%%%%%%%%%%%%%%%%%%%%%%%%%%%%%%%%%%%%%%%%%%%%%%%%%%%%%%

     Adding external electric field

     Computed dipole along edir(3) :
        Dipole               -8.9490 Ry au,        -22.7462 Debye
        Dipole field         -0.0169 Ry au,

        Potential amp.        1.5655 Ry
        Total length         46.3494 bohr

     Starting wfcs are  299 atomic wfcs
  @ DRIVER MODE: Message from server: STATUS
  @ DRIVER MODE: Message from server: POSDATA
  @ DRIVER MODE: Reading and sharing cell
  @ DRIVER MODE: Reading and sharing positions
  @ DRIVER MODE: Received positions

     Self-consistent Calculation

     iteration #  1     ecut=    29.40 Ry     beta= 0.05
     Davidson diagonalization with overlap
     c_bands:  1 eigenvalues not converged
     c_bands:  1 eigenvalues not converged
     c_bands:  1 eigenvalues not converged
     c_bands:  1 eigenvalues not converged
     c_bands:  2 eigenvalues not converged
     ethr =  1.00E-05,  avg # of iterations = 19.3

[...]

     total energy              =   -2583.14802284 Ry
     estimated scf accuracy    <    4233.84124896 Ry

     iteration #  2     ecut=    29.40 Ry     beta= 0.05
     Davidson diagonalization with overlap
     ethr =  1.00E-02,  avg # of iterations = 24.2

[...]

     iteration # 69     ecut=    29.40 Ry     beta= 0.05
     Davidson diagonalization with overlap
     c_bands:  1 eigenvalues not converged
     ethr =  4.72E-11,  avg # of iterations = 13.3

[...]

     total energy              =   -2963.67530498 Ry
     estimated scf accuracy    <       0.00000008 Ry

     iteration # 71     ecut=    29.40 Ry     beta= 0.05
     Davidson diagonalization with overlap
     ethr =  2.12E-11,  avg # of iterations =  6.4

     negative rho (up, down):  1.624E-02 0.000E+00

     Adding external electric field

     Computed dipole along edir(3) :
        Dipole                0.4635 Ry au,          1.1782 Debye
        Dipole field          0.0009 Ry au,

        Potential amp.       -0.0811 Ry
        Total length         46.3494 bohr

     End of self-consistent calculation

          k = 0.0000 0.0000 0.0000 ( 18029 PWs)   bands (ev):

   -56.0133 -55.9767 -55.9764 -55.9550 -55.9406 -55.8962 -55.8623 -55.8279
   -55.7960 -55.7912 -55.7802 -55.7542 -55.7466 -55.6865 -55.0224 -54.9883
   -32.5298 -32.4839 -32.4060 -32.3731 -32.3638 -32.3090 -32.2895 -32.2784
   -32.2587 -32.2458 -32.2074 -32.2005 -32.1905 -32.1717 -32.1705 -32.1590
   -32.1323 -32.1189 -32.1059 -32.1051 -32.0847 -32.0764 -32.0711 -32.0646
   -32.0505 -32.0421 -32.0392 -32.0276 -32.0114 -32.0016 -31.9978 -31.9847
   -31.9651 -31.9586 -31.9558 -31.9533 -31.9247 -31.9068 -31.8969 -31.8857
   -31.8729 -31.8690 -31.4318 -31.3359 -31.3136 -31.2483 -31.1621 -31.0511
   -19.4384 -19.1336 -16.7339 -16.4728 -16.3130 -16.1942 -16.1457 -15.9292
   -15.8453 -15.7951 -15.7074 -15.6317 -15.6028 -15.5859 -15.5528 -15.5381
   -15.5318 -15.5106 -15.4587 -15.4418 -15.4197 -15.4145 -15.4029 -15.3836
   -15.3024 -15.2294 -15.1669 -15.1347 -15.0622 -15.0228 -14.9852 -13.5234
   -13.4054  -7.8978  -6.9610  -4.6597  -4.0920  -3.9491  -3.9296  -3.9011
    -3.8302  -3.6534  -3.6151  -3.4702  -3.3157  -3.3048  -3.1850  -3.1482
    -3.1235  -3.0556  -3.0375  -2.9773  -2.8486  -2.8354  -2.8243  -2.8064
    -2.7960  -2.7523  -2.7303  -2.6940  -2.6532  -2.5870  -2.5162  -2.4906
    -2.4157  -2.4096  -2.3722  -2.3168  -2.3111  -2.2866  -2.2724  -2.2462
    -2.1957  -2.1813  -2.1703  -2.0668  -1.9791  -1.8672  -1.7063  -1.6796
    -1.6767  -1.5543  -1.5053  -1.4486  -1.4186  -1.4167  -1.3670  -1.3183
    -1.2722  -1.2535  -1.1487  -1.0352  -1.0031  -0.9436  -0.9161  -0.7913
    -0.7405  -0.7348  -0.7257  -0.7173  -0.6952  -0.6241  -0.5098  -0.4373
    -0.4281  -0.3368  -0.3146  -0.3018  -0.2433  -0.2341  -0.2129  -0.1583
    -0.1131  -0.0660  -0.0491  -0.0192   0.0180   0.0229   0.1532   0.2026
     0.2313   0.2522   0.2901   0.4587   0.5033   0.6332   0.7387   0.9092
     1.0016   1.0666   1.1761   1.5871   1.6445   2.8419   3.1642   3.2085
     3.2219   3.2365   3.2990   3.4015   3.5467   3.6172   3.6318   3.6668

[...]

          k = 0.0380-0.0419 0.0000 ( 17876 PWs)   bands (ev):

[...]

          k =-0.0760-0.0000 0.0000 ( 17886 PWs)   bands (ev):

[...]

          k =-0.0760-0.0839 0.0000 ( 17948 PWs)   bands (ev):

   -56.0019 -55.9876 -55.9598 -55.9574 -55.9530 -55.8841 -55.8743 -55.8236
   -55.7929 -55.7928 -55.7653 -55.7618 -55.7583 -55.6892 -55.0058 -55.0047
   -32.3447 -32.3241 -32.3185 -32.3080 -32.2954 -32.2923 -32.2724 -32.2456
   -32.2370 -32.2260 -32.2162 -32.2094 -32.1681 -32.1576 -32.1499 -32.1393
   -32.1262 -32.1221 -32.1171 -32.1155 -32.1115 -32.1100 -32.0923 -32.0880
   -32.0877 -32.0812 -32.0751 -32.0477 -32.0311 -32.0252 -32.0173 -32.0153
   -32.0072 -31.9944 -31.9831 -31.9767 -31.9741 -31.9713 -31.9609 -31.9474
   -31.9134 -31.8828 -31.3270 -31.3255 -31.2452 -31.2442 -31.2057 -31.2047
   -19.4299 -19.1329 -16.1864 -16.0789 -16.0702 -15.8952 -15.8813 -15.8587
   -15.8166 -15.8066 -15.7138 -15.7111 -15.6673 -15.6543 -15.6282 -15.5939
   -15.5890 -15.5280 -15.5270 -15.5226 -15.4676 -15.4618 -15.4399 -15.4247
   -15.4029 -15.3930 -15.3477 -15.3363 -15.2730 -15.2043 -15.1912 -13.5079
   -13.5057  -7.8987  -6.9544  -4.6048  -3.7192  -3.4684  -3.3209  -3.2896
    -3.2282  -3.1315  -3.1048  -3.0672  -3.0189  -2.9785  -2.9292  -2.8694
    -2.8459  -2.8424  -2.8315  -2.8258  -2.8065  -2.8001  -2.7609  -2.7360
    -2.7046  -2.6757  -2.6570  -2.6341  -2.6286  -2.6105  -2.5859  -2.5747
    -2.5619  -2.5529  -2.4839  -2.4538  -2.3312  -2.3235  -2.2432  -2.2102
    -2.1493  -2.1425  -2.1197  -2.0773  -2.0686  -2.0534  -1.8788  -1.8549
    -1.7458  -1.7382  -1.7173  -1.6879  -1.5986  -1.5304  -1.4936  -1.4759
    -1.4233  -1.4058  -1.3325  -1.2688  -1.2086  -1.1725  -1.1043  -1.0735
    -1.0571  -0.9794  -0.9696  -0.9345  -0.9086  -0.8907  -0.7715  -0.7646
    -0.7294  -0.6934  -0.6626  -0.6098  -0.5617  -0.5449  -0.5082  -0.4556
    -0.3832  -0.3593  -0.1697   0.0119   0.0185   0.0481   0.1388   0.1778
     0.2963   0.3285   0.3340   0.3692   0.4099   0.5037   0.5264   0.5338
     0.6075   1.3619   1.3628   1.4493   1.4603   2.7089   3.3537   3.4131
     3.4772   3.5132   3.6180   3.6352   3.6499   3.6612   3.6975   3.7969

     the Fermi energy is     3.1375 ev

!    total energy              =   -2963.67532086 Ry
     estimated scf accuracy    <       0.00000004 Ry
     smearing contrib. (-TS)   =      -0.02583134 Ry
     internal energy E=F+TS    =   -2963.64948952 Ry

     The total energy is F=E-TS. E is the sum of the following terms:
     one-electron contribution =  -24422.97803248 Ry
     hartree contribution      =   12298.90690758 Ry
     xc contribution           =    -489.19281699 Ry
     ewald contribution        =    9649.61404690 Ry
     electric field correction =       0.00040547 Ry

     convergence has been achieved in  71 iterations

     Forces acting on atoms (cartesian axes, Ry/au):

     atom    1 type  1   force =    -0.00006431    0.00006815    0.10404479
     atom    2 type  1   force =    -0.00005571    0.00005403    0.10406559
     atom    3 type  2   force =    -0.00018415   -0.00195792    0.10277897
     atom    4 type  2   force =    -0.00008029    0.00160805    0.11469257
     atom    5 type  2   force =    -0.00025984    0.00155816   -0.17902013
     atom    6 type  2   force =    -0.00014187   -0.00104464   -0.17939075
     atom    7 type  1   force =    -0.06953531    0.00066265   -0.02928846
     atom    8 type  1   force =    -0.06907788   -0.00122617   -0.02933291
     atom    9 type  1   force =     0.06921326    0.00119139   -0.02934359
     atom   10 type  1   force =     0.06883591   -0.00085908   -0.02941525
     atom   11 type  1   force =     0.00005950    0.00064099    0.04736963
     atom   12 type  1   force =     0.00063938    0.00090292    0.04973558
     atom   13 type  1   force =     0.00021823   -0.00563379   -0.03308726
     atom   14 type  1   force =     0.00028186    0.00398117   -0.02649419
     atom   15 type  2   force =    -0.00016093   -0.00004211   -0.00071032
     atom   16 type  2   force =    -0.00019944   -0.00005843   -0.00075913
     atom   17 type  2   force =     0.00009548   -0.00093140   -0.00006944
     atom   18 type  2   force =     0.00011675    0.00111010   -0.00008375
     atom   19 type  1   force =    -0.01880631   -0.00005921    0.00452526
     atom   20 type  1   force =    -0.01690390    0.00164844    0.00397853
     atom   21 type  1   force =     0.01838432   -0.00109749    0.00450853
     atom   22 type  1   force =     0.01749561    0.00197803    0.00383717
     atom   23 type  1   force =     0.00018178    0.00006071   -0.00074545
     atom   24 type  1   force =     0.00011297   -0.00023158   -0.00029599
     atom   25 type  1   force =    -0.00031777    0.00015967   -0.00070266
     atom   26 type  1   force =    -0.00019575   -0.00004254   -0.00087231
     atom   27 type  2   force =    -0.00020938    0.00045125    0.00034050
     atom   28 type  2   force =     0.00027216    0.00064992    0.00080113
     atom   29 type  2   force =     0.00028472   -0.00011682    0.00098117
     atom   30 type  2   force =    -0.00019501   -0.00023254    0.00018060
     atom   31 type  1   force =     0.00024342   -0.00007625   -0.00036882
     atom   32 type  1   force =     0.00002744    0.00011949   -0.00010097
     atom   33 type  1   force =    -0.00009666   -0.00017258   -0.00073127
     atom   34 type  1   force =     0.00004766    0.00011879   -0.00043481
     atom   35 type  1   force =     0.00010428   -0.00003892   -0.00116718
     atom   36 type  1   force =     0.00012693   -0.00052964    0.00035738
     atom   37 type  1   force =    -0.00019906    0.00016545    0.00005152
     atom   38 type  1   force =     0.00015760   -0.00003670   -0.00064509
     atom   39 type  2   force =    -0.00010216   -0.00044801    0.00081433
     atom   40 type  2   force =     0.00002088   -0.00080055    0.00001112
     atom   41 type  2   force =     0.00029123   -0.00085341   -0.00009964
     atom   42 type  2   force =    -0.00001841    0.00049319    0.00015314
     atom   43 type  1   force =    -0.00085512   -0.00042023    0.00014346
     atom   44 type  1   force =    -0.00016282   -0.00015453    0.00003753
     atom   45 type  1   force =     0.00013477   -0.00034784    0.00021584
     atom   46 type  1   force =     0.00076204   -0.00014738   -0.00000126
     atom   47 type  1   force =    -0.00028261    0.00038396    0.00019103
     atom   48 type  1   force =     0.00011719    0.00058316   -0.00008601
     atom   49 type  3   force =    -0.00009002   -0.00008843   -0.00043371
     atom   50 type  4   force =    -0.00055885    0.00074964   -0.00072749
     atom   51 type  1   force =     0.00638265    0.00357601   -0.00474155
     atom   52 type  4   force =     0.00009321   -0.00139671    0.00147976
     atom   53 type  4   force =    -0.00594767   -0.00387039    0.00385428

     Total force =     0.374548     Total SCF correction =     0.000670
  @ DRIVER MODE: Message from server: STATUS
  @ DRIVER MODE: Message from server: GETFORCE
  @ DRIVER MODE: Returning v,forces,stress,ensemble

     Writing output data file ./calc.save/
  @ DRIVER MODE: Message from server: EXIT
  @ DRIVE MODE: Exiting

     General routines

     Parallel routines

   This run was terminated on:   2:48:29  16Sep2021

   JOB DONE.