     Program PWSCF v.6.7GPU starts on 23Sep2021 at  2:56:19

     R & G space division:  proc/nbgrp/npool/nimage =      10
     Reading input from /storage/home/hcoda1/3/ntian30/research/carbon/CxH_vib/H2O_calc/ads_slab/CHNHNH2H2O_b/out_0030/pw.inp
Warning: card &CELL ignored
Warning: card   CELL_DYNAMICS='IPI', ignored
Warning: card / ignored

     Current dimensions of program PWSCF are:
     Max number of different atomic species (ntypx) = 10
     Max number of k-points (npk) =  40000
     Max angular momentum in pseudopotentials (lmaxx) =  3
     Presently no symmetry can be used with electric field

     Message from routine cell_base_init:
     DEPRECATED: use true lattice parameter, not A to a.u. conversion factor

     IMPORTANT: XC functional enforced from input :
     Exchange-correlation= BEEF-VDW
                           (   1   4  43  14   2   0   0)
     Any further DFT definition will be discarded
     Please, verify this is what you really want

  @ DRIVER MODE: Connecting to
 qe_1139763_2937312.sched-torque.pace.gatech.eduopvqjbf0_scratch
  using UNIX socket
  @ DRIVER MODE: Message from server: STATUS
  @ DRIVER MODE: Message from server: INIT
  @ DRIVER MODE: Receiving replica           0          -1
  @ DRIVER MODE: Receiving encoded integer          25
  @ DRIVER MODE:  SCF:  T  FORCE:  T  STRESS:  F  VC:  F  ENSEMBLE:  F
  @ DRIVER MODE:  SCF:  T  FORCE:  T  STRESS:  F  VC:  F  ENSEMBLE:  F

     Using Slab Decomposition

     bravais-lattice index     =            0
     lattice parameter (alat)  =       1.8897  a.u.
     unit-cell volume          =    6658.9804 (a.u.)^3
     number of atoms/cell      =           57
     number of atomic types    =            5
     number of electrons       =       404.00
     number of Kohn-Sham states=          212
     kinetic-energy cutoff     =      29.3995  Ry
     charge density cutoff     =     293.9946  Ry
     scf convergence threshold =      7.3E-08
     mixing beta               =       0.0500
     number of iterations used =            8  plain     mixing
     Exchange-correlation= BEEF-VDW
                           (   1   4  43  14   2   0   0)

     celldm(1)=   1.889726  celldm(2)=   0.000000  celldm(3)=   0.000000
     celldm(4)=   0.000000  celldm(5)=   0.000000  celldm(6)=   0.000000

     crystal axes: (cart. coord. in units of alat)
               a(1) = (   6.579727   0.000000   0.000000 )
               a(2) = (  -0.000775   5.961596   0.000000 )
               a(3) = (   0.000000   0.000000  25.155947 )

     reciprocal axes: (cart. coord. in units 2 pi/alat)
               b(1) = (  0.151982  0.000020  0.000000 )
               b(2) = (  0.000000  0.167740  0.000000 )
               b(3) = (  0.000000  0.000000  0.039752 )

     PseudoPot. # 1 for Ti read from file:
     /storage/coda1/p-amedford6/0/shared/rich_project_chbe-medford/medford-share/data/pseudos_module/espresso/nninc/pbe/van/Ti.UPF
     MD5 check sum: 8e4df49b7f0d34bbd5052bf3f5ea0213
     Pseudo is Ultrasoft, Zval = 12.0
     Generated by new atomic code, or converted to UPF format
     Using radial grid of  851 points,  6 beta functions with:
                l(1) =   0
                l(2) =   0
                l(3) =   1
                l(4) =   1
                l(5) =   2
                l(6) =   2
     Q(r) pseudized with  8 coefficients,  rinner =    1.000   1.000   1.000
                                                       1.000   1.000

     PseudoPot. # 2 for O  read from file:
     /storage/coda1/p-amedford6/0/shared/rich_project_chbe-medford/medford-share/data/pseudos_module/espresso/nninc/pbe/van/O.UPF
     MD5 check sum: 78c19812648e8988a0fe644b0f25305e
     Pseudo is Ultrasoft, Zval =  6.0
     Generated by new atomic code, or converted to UPF format
     Using radial grid of  737 points,  4 beta functions with:
                l(1) =   0
                l(2) =   0
                l(3) =   1
                l(4) =   1
     Q(r) pseudized with  8 coefficients,  rinner =    0.800   0.800   0.800

     PseudoPot. # 3 for N  read from file:
     /storage/coda1/p-amedford6/0/shared/rich_project_chbe-medford/medford-share/data/pseudos_module/espresso/nninc/pbe/van/N.UPF
     MD5 check sum: 90d10febe142ad51ac9d5be1deb811c4
     Pseudo is Ultrasoft, Zval =  5.0
     Generated by new atomic code, or converted to UPF format
     Using radial grid of  729 points,  4 beta functions with:
                l(1) =   0
                l(2) =   0
                l(3) =   1
                l(4) =   1
     Q(r) pseudized with  8 coefficients,  rinner =    0.800   0.800   0.800

     PseudoPot. # 4 for C  read from file:
     /storage/coda1/p-amedford6/0/shared/rich_project_chbe-medford/medford-share/data/pseudos_module/espresso/nninc/pbe/van/C.UPF
     MD5 check sum: 1a69bf6b8db32088f5b2163dbdb77a27
     Pseudo is Ultrasoft, Zval =  4.0
     Generated by new atomic code, or converted to UPF format
     Using radial grid of  721 points,  4 beta functions with:
                l(1) =   0
                l(2) =   0
                l(3) =   1
                l(4) =   1
     Q(r) pseudized with  8 coefficients,  rinner =    0.800   0.800   0.800

     PseudoPot. # 5 for H  read from file:
     /storage/coda1/p-amedford6/0/shared/rich_project_chbe-medford/medford-share/data/pseudos_module/espresso/nninc/pbe/van/H.UPF
     MD5 check sum: b5ee9d7bfd3a09ee7748110bda690ff7
     Pseudo is Ultrasoft, Zval =  1.0
     Generated by new atomic code, or converted to UPF format
     Using radial grid of  615 points,  1 beta functions with:
                l(1) =   0
     Q(r) pseudized with  8 coefficients,  rinner =    0.800

     atomic species   valence    mass     pseudopotential
        Ti1           12.00    47.86700     Ti( 1.00)
        O1             6.00    15.99900     O ( 1.00)
        N1             5.00    14.00700     N ( 1.00)
        C1             4.00    12.01100     C ( 1.00)
        H1             1.00     1.00800     H ( 1.00)

     No symmetry found

   Cartesian axes

     site n.     atom                  positions (alat units)
         1           Ti1 tau(   1) = (   0.0004258   2.9801865   6.0000000  )
         2           Ti1 tau(   2) = (   3.2906075   1.4906267   6.0002472  )
         3           O1  tau(   3) = (   0.0006271   0.0005054   7.9858123  )
         4           O1  tau(   4) = (   3.2906025   0.0005020   7.3038282  )
         5           O1  tau(   5) = (   4.5942328   1.4918067   9.2879030  )
         6           O1  tau(   6) = (   1.9868534   1.4903216   9.2879459  )
         7           Ti1 tau(   7) = (   3.2907910   2.8959150   9.1758416  )
         8           Ti1 tau(   8) = (   0.0015273   1.4827037   9.2680791  )
         9           O1  tau(   9) = (   3.3066417   5.9496923  11.3845403  )
        10           O1  tau(  10) = (   0.0116148   5.9584955  10.6183126  )
        11           O1  tau(  11) = (   1.3010148   1.4986442  12.6442229  )
        12           O1  tau(  12) = (   5.3085967   1.5001388  12.6592367  )
        13           Ti1 tau(  13) = (   0.0282779   2.9853959  12.5065338  )
        14           Ti1 tau(  14) = (   3.3279724   1.4707331  12.5413945  )
        15           O1  tau(  15) = (   0.0378505   0.0859181  14.6860672  )
        16           O1  tau(  16) = (   3.3018867   0.0259462  14.0338077  )
        17           O1  tau(  17) = (   4.5998927   1.5484098  16.1661054  )
        18           O1  tau(  18) = (   2.0454451   1.5021798  16.2221046  )
        19           Ti1 tau(  19) = (   3.3206312   2.9825829  15.7321521  )
        20           Ti1 tau(  20) = (   0.0140791   1.4435866  15.9983415  )
        21           O1  tau(  21) = (   3.2904802   0.0005063   4.7018136  )
        22           O1  tau(  22) = (   6.5273045   5.8164216  17.2577718  )
        23           O1  tau(  23) = (   1.3043587   1.4918075   6.0039043  )
        24           O1  tau(  24) = (   5.2767064   1.4903225   6.0039473  )
        25           Ti1 tau(  25) = (   0.0000382   5.9609847   6.0000000  )
        26           Ti1 tau(  26) = (   3.2902200   4.4714249   6.0002472  )
        27           O1  tau(  27) = (   0.0002396   2.9813036   7.9858123  )
        28           O1  tau(  28) = (   3.2902150   2.9813002   7.3038282  )
        29           O1  tau(  29) = (   4.5938453   4.4726049   9.2879030  )
        30           O1  tau(  30) = (   1.9864658   4.4711199   9.2879459  )
        31           Ti1 tau(  31) = (   3.2891106   5.8743827   9.1763621  )
        32           Ti1 tau(  32) = (   0.0006254   4.4649316   9.2693709  )
        33           O1  tau(  33) = (   3.3068470   2.9864458  11.3814114  )
        34           O1  tau(  34) = (   0.0092240   2.9805883  10.6323155  )
        35           O1  tau(  35) = (   1.2982948   4.4740332  12.6840172  )
        36           O1  tau(  36) = (   5.3097620   4.4704985  12.6972095  )
        37           Ti1 tau(  37) = (   0.0348817   0.0130325  12.4954113  )
        38           Ti1 tau(  38) = (   3.3270268   4.4633798  12.5435021  )
        39           O1  tau(  39) = (   0.0563025   2.9439880  14.9425960  )
        40           O1  tau(  40) = (   3.2900316   2.9661073  13.9503945  )
        41           O1  tau(  41) = (   4.5967999   4.4093095  16.0633277  )
        42           O1  tau(  42) = (   2.0412097   4.4536800  16.1303113  )
        43           Ti1 tau(  43) = (   3.2964201   5.9600488  15.8742613  )
        44           Ti1 tau(  44) = (   0.0241369   4.6516137  15.8518307  )
        45           O1  tau(  45) = (   3.2900926   2.9813045   4.7018136  )
        46           O1  tau(  46) = (   1.3039711   4.4726057   6.0039043  )
        47           O1  tau(  47) = (   5.2763189   4.4711207   6.0039473  )
        48           N1  tau(  48) = (   1.4509408   2.7109095  18.7602185  )
        49           N1  tau(  49) = (   0.0917387   2.5303350  18.2207845  )
        50           C1  tau(  50) = (   1.9503960   3.7723240  19.2784661  )
        51           H1  tau(  51) = (   1.1612915   4.5273475  19.4152495  )
        52           H1  tau(  52) = (   2.0208952   1.9183395  18.4764618  )
        53           H1  tau(  53) = (   6.1377449   3.3539424  18.4987646  )
        54           H1  tau(  54) = (   6.2616785   1.7135167  18.6767212  )
        55           O1  tau(  55) = (   3.7012217   5.9496235  18.2853534  )
        56           H1  tau(  56) = (   4.6684668   5.8470116  18.1670174  )
        57           H1  tau(  57) = (   3.3852657   5.1278045  18.7338684  )

     number of k points=    10  Fermi-Dirac smearing, width (Ry)=  0.0073
                       cart. coord. in units 2pi/alat
        k(    1) = (   0.0000000   0.0000000   0.0000000), wk =   0.1250000
        k(    2) = (   0.0000000   0.0419351   0.0000000), wk =   0.2500000
        k(    3) = (   0.0000000  -0.0838702   0.0000000), wk =   0.1250000
        k(    4) = (   0.0379955   0.0000049   0.0000000), wk =   0.2500000
        k(    5) = (   0.0379955   0.0419400   0.0000000), wk =   0.2500000
        k(    6) = (   0.0379955  -0.0838652   0.0000000), wk =   0.2500000
        k(    7) = (   0.0379955  -0.0419301   0.0000000), wk =   0.2500000
        k(    8) = (  -0.0759910  -0.0000099   0.0000000), wk =   0.1250000
        k(    9) = (  -0.0759910   0.0419252   0.0000000), wk =   0.2500000
        k(   10) = (  -0.0759910  -0.0838800   0.0000000), wk =   0.1250000

     Initial potential from superposition of free atoms

     starting charge  387.99913, renormalised to  404.00000

     negative rho (up, down):  1.598E-02 0.000E+00

     %%%%%%%%%%%%%%%%%%%%%%%%%%%%%%%%%%%%%%%%%%%%%%%%%%%%%%%%%%%%%%%%%%%%%%%%
     %                                                                      %
     % You are using vdW-DF, which was implemented by the Thonhauser group. %
     % Please cite the following two papers that made this development      %
     % possible and the two reviews that describe the various versions:     %
     %                                                                      %
     %   T. Thonhauser et al., PRL 115, 136402 (2015).                      %
     %   T. Thonhauser et al., PRB 76, 125112 (2007).                       %
     %   K. Berland et al., Rep. Prog. Phys. 78, 066501 (2015).             %
     %   D.C. Langreth et al., J. Phys.: Condens. Matter 21, 084203 (2009). %
     %                                                                      %
     %                                                                      %
     % If you are calculating the stress with vdW-DF, please also cite:     %
     %                                                                      %
     %   R. Sabatini et al., J. Phys.: Condens. Matter 24, 424209 (2012).   %
     %                                                                      %
     %%%%%%%%%%%%%%%%%%%%%%%%%%%%%%%%%%%%%%%%%%%%%%%%%%%%%%%%%%%%%%%%%%%%%%%%

     Adding external electric field

     Computed dipole along edir(3) :
        Dipole              -14.3593 Ry au,        -36.4977 Debye
        Dipole field         -0.0271 Ry au,

        Potential amp.        2.5119 Ry
        Total length         46.3494 bohr

     Starting wfcs are  306 atomic wfcs
  @ DRIVER MODE: Message from server: STATUS
  @ DRIVER MODE: Message from server: POSDATA
  @ DRIVER MODE: Reading and sharing cell
  @ DRIVER MODE: Reading and sharing positions
  @ DRIVER MODE: Received positions

     Self-consistent Calculation

     iteration #  1     ecut=    29.40 Ry     beta= 0.05
     Davidson diagonalization with overlap
     c_bands:  3 eigenvalues not converged
     c_bands:  4 eigenvalues not converged
     c_bands:  4 eigenvalues not converged
     c_bands:  4 eigenvalues not converged
     c_bands:  5 eigenvalues not converged
     c_bands:  3 eigenvalues not converged
     c_bands:  2 eigenvalues not converged
     c_bands:  4 eigenvalues not converged
     ethr =  1.00E-05,  avg # of iterations = 21.9

[...]

     total energy              =   -2220.92789337 Ry
     estimated scf accuracy    <    8587.45022915 Ry

     iteration #  2     ecut=    29.40 Ry     beta= 0.05
     Davidson diagonalization with overlap
     ethr =  1.00E-02,  avg # of iterations = 29.0

[...]

     iteration # 64     ecut=    29.40 Ry     beta= 0.05
     Davidson diagonalization with overlap
     c_bands:  1 eigenvalues not converged
     c_bands:  3 eigenvalues not converged
     c_bands:  1 eigenvalues not converged
     c_bands:  1 eigenvalues not converged
     ethr =  9.63E-10,  avg # of iterations = 19.4

[...]

     total energy              =   -2975.10526905 Ry
     estimated scf accuracy    <       0.00000012 Ry

     iteration # 73     ecut=    29.40 Ry     beta= 0.05
     Davidson diagonalization with overlap
     ethr =  2.96E-11,  avg # of iterations =  6.8

     negative rho (up, down):  1.579E-02 0.000E+00

     Adding external electric field

     Computed dipole along edir(3) :
        Dipole                1.0268 Ry au,          2.6099 Debye
        Dipole field          0.0019 Ry au,

        Potential amp.       -0.1796 Ry
        Total length         46.3494 bohr

     End of self-consistent calculation

          k = 0.0000 0.0000 0.0000 ( 18029 PWs)   bands (ev):

   -55.3830 -55.3472 -55.3431 -55.3089 -55.3059 -55.3003 -55.2650 -55.2297
   -55.2146 -55.1797 -55.1730 -55.1576 -55.1393 -55.1103 -54.3745 -54.3404
   -31.9420 -31.8782 -31.8358 -31.7547 -31.7057 -31.7032 -31.6789 -31.6760
   -31.6319 -31.5961 -31.5891 -31.5877 -31.5809 -31.5771 -31.5591 -31.5570
   -31.5324 -31.5243 -31.5214 -31.5101 -31.4957 -31.4893 -31.4704 -31.4658
   -31.4571 -31.4442 -31.4435 -31.4148 -31.4003 -31.3967 -31.3936 -31.3714
   -31.3675 -31.3634 -31.3599 -31.3387 -31.3277 -31.3156 -31.3008 -31.3007
   -31.2907 -31.2841 -30.7840 -30.6894 -30.6674 -30.6003 -30.5136 -30.4026
   -18.8889 -18.4580 -16.2178 -15.9705 -15.8345 -15.7298 -15.5927 -15.4945
   -15.3853 -15.2721 -15.2490 -15.1554 -15.0808 -15.0762 -15.0396 -15.0141
   -14.9515 -14.9302 -14.9064 -14.9004 -14.8859 -14.8756 -14.8391 -14.8282
   -14.7962 -14.7843 -14.7671 -14.6553 -14.6248 -14.5497 -14.4792 -14.3433
   -12.8771 -12.7596  -9.8471  -7.0120  -6.3803  -6.0931  -4.4259  -3.7436
    -3.5420  -3.4081  -3.3302  -3.3021  -3.2835  -3.1519  -3.0606  -2.9004
    -2.8615  -2.8054  -2.6715  -2.5956  -2.5893  -2.5014  -2.4290  -2.4055
    -2.3726  -2.2633  -2.2570  -2.2075  -2.1900  -2.1668  -2.1575  -2.1108
    -2.0651  -2.0378  -1.9526  -1.8512  -1.8075  -1.7876  -1.7512  -1.7286
    -1.7241  -1.6802  -1.6740  -1.6499  -1.6115  -1.5872  -1.5419  -1.4298
    -1.3894  -1.2295  -1.1921  -1.0380  -1.0177  -0.9783  -0.9578  -0.9229
    -0.8914  -0.8750  -0.8607  -0.7701  -0.7117  -0.6456  -0.5814  -0.4913
    -0.4803  -0.4057  -0.3805  -0.3152  -0.2285  -0.1832  -0.1736  -0.1488
    -0.1456  -0.0317   0.0132   0.0734   0.0925   0.1496   0.1654   0.1874
     0.2575   0.3114   0.3806   0.4112   0.4904   0.5085   0.5437   0.5529
     0.5851   0.5956   0.6718   0.6867   0.7149   0.8176   0.9152   1.0077
     1.2179   1.2205   1.2502   1.5530   1.5552   1.6483   1.8317   2.2247
     2.2731   3.7068   3.7852   3.8348   3.8524   3.8569   3.9417   4.1964
     4.2107   4.2233   4.2295   4.2702

[...]

          k = 0.0380-0.0419 0.0000 ( 17876 PWs)   bands (ev):

[...]

          k =-0.0760-0.0000 0.0000 ( 17886 PWs)   bands (ev):

[...]

          k =-0.0760-0.0839 0.0000 ( 17948 PWs)   bands (ev):

   -55.3661 -55.3638 -55.3260 -55.3258 -55.3030 -55.2994 -55.2513 -55.2434
   -55.2003 -55.1936 -55.1594 -55.1569 -55.1555 -55.1121 -54.3574 -54.3574
   -31.7929 -31.7544 -31.7403 -31.6509 -31.6508 -31.6363 -31.6245 -31.6172
   -31.6171 -31.5962 -31.5912 -31.5880 -31.5651 -31.5575 -31.5454 -31.5316
   -31.5285 -31.5258 -31.5219 -31.5138 -31.5091 -31.5071 -31.5060 -31.4985
   -31.4664 -31.4651 -31.4458 -31.4456 -31.4454 -31.4403 -31.4377 -31.4332
   -31.4238 -31.4124 -31.4066 -31.3898 -31.3883 -31.3785 -31.3369 -31.3360
   -31.3353 -31.3167 -30.6800 -30.6800 -30.5965 -30.5964 -30.5570 -30.5569
   -18.8831 -18.4604 -15.8375 -15.6506 -15.4993 -15.4276 -15.4073 -15.3240
   -15.2686 -15.2651 -15.1919 -15.1740 -15.1617 -15.1398 -15.1308 -15.0833
   -15.0461 -15.0095 -14.9908 -14.9681 -14.9249 -14.9023 -14.9007 -14.8939
   -14.8861 -14.8459 -14.8407 -14.8374 -14.7457 -14.7437 -14.7132 -14.5621
   -12.8611 -12.8610  -9.8565  -7.0008  -6.3554  -6.0692  -4.4391  -3.6740
    -3.0241  -2.9088  -2.8984  -2.6697  -2.6510  -2.5899  -2.5775  -2.4894
    -2.4738  -2.4132  -2.3896  -2.3395  -2.3166  -2.2789  -2.2649  -2.2432
    -2.2221  -2.2084  -2.1817  -2.1657  -2.1488  -2.1289  -2.1180  -2.1067
    -2.0516  -2.0461  -2.0370  -2.0117  -1.9885  -1.9524  -1.9426  -1.9262
    -1.7707  -1.7551  -1.7336  -1.5981  -1.5938  -1.5602  -1.5197  -1.4922
    -1.4344  -1.4257  -1.3975  -1.3390  -1.1452  -1.1345  -1.1223  -1.1048
    -1.0336  -0.9781  -0.9641  -0.9460  -0.8922  -0.8145  -0.7810  -0.7280
    -0.6396  -0.5868  -0.5771  -0.5515  -0.4303  -0.4075  -0.3648  -0.3468
    -0.3307  -0.2961  -0.2946  -0.2374  -0.1848  -0.1490  -0.1261  -0.1118
    -0.0747   0.0802   0.1319   0.1482   0.2623   0.2919   0.4704   0.5129
     0.5344   0.6396   0.7228   0.7511   0.7652   0.8905   0.9128   0.9153
     0.9837   1.0058   1.0660   1.0717   1.2064   2.0044   2.0057   2.0929
     2.0932   3.8319   3.9546   3.9990   4.0348   4.1105   4.1635   4.2206
     4.2797   4.2913   4.2948   4.3643

     the Fermi energy is     3.7688 ev

!    total energy              =   -2975.10528709 Ry
     estimated scf accuracy    <       0.00000005 Ry
     smearing contrib. (-TS)   =      -0.03672020 Ry
     internal energy E=F+TS    =   -2975.06856689 Ry

     The total energy is F=E-TS. E is the sum of the following terms:
     one-electron contribution =  -23505.00636167 Ry
     hartree contribution      =   11848.53977192 Ry
     xc contribution           =    -494.92024485 Ry
     ewald contribution        =    9176.31627796 Ry
     electric field correction =       0.00198976 Ry

     convergence has been achieved in  73 iterations

     Forces acting on atoms (cartesian axes, Ry/au):

     atom    1 type  1   force =     0.00002778   -0.00025015    0.09308764
     atom    2 type  1   force =    -0.00018732   -0.00032257   -0.17838617
     atom    3 type  2   force =     0.00006090   -0.00016764   -0.02024631
     atom    4 type  2   force =     0.00001723   -0.00203708    0.05925069
     atom    5 type  2   force =    -0.01034202   -0.00109962    0.00808273
     atom    6 type  2   force =     0.01218659   -0.00054446    0.00816177
     atom    7 type  1   force =     0.00015064    0.00329228   -0.01110939
     atom    8 type  1   force =    -0.00030362    0.00052898   -0.00561467
     atom    9 type  2   force =     0.00004102    0.00017677   -0.00014372
     atom   10 type  2   force =    -0.00146433   -0.00003423   -0.00172029
     atom   11 type  2   force =     0.00037579   -0.00004037   -0.00006947
     atom   12 type  2   force =    -0.00009811    0.00010089   -0.00009683
     atom   13 type  1   force =    -0.00009302   -0.00017146   -0.00025268
     atom   14 type  1   force =    -0.00021580   -0.00035984    0.00034244
     atom   15 type  2   force =     0.00005705   -0.00049081    0.00009397
     atom   16 type  2   force =     0.00022722    0.00008021    0.00024659
     atom   17 type  2   force =     0.00038686   -0.00017049    0.00021089
     atom   18 type  2   force =    -0.00003158   -0.00017052   -0.00030572
     atom   19 type  1   force =    -0.00041533   -0.00058412    0.00007005
     atom   20 type  1   force =     0.00029661    0.00025113    0.00050460
     atom   21 type  2   force =    -0.00000336   -0.00007498    0.10402015
     atom   22 type  2   force =    -0.00013879   -0.00004078    0.00000330
     atom   23 type  2   force =    -0.07035345   -0.00016417   -0.02683019
     atom   24 type  2   force =     0.07022246    0.00028181   -0.02690690
     atom   25 type  1   force =     0.00002257   -0.00016101    0.09275155
     atom   26 type  1   force =    -0.00015983   -0.00039691   -0.17833073
     atom   27 type  2   force =     0.00011164   -0.00031050   -0.01918822
     atom   28 type  2   force =     0.00004686   -0.00163379    0.05840135
     atom   29 type  2   force =    -0.01029805   -0.00063664    0.00728799
     atom   30 type  2   force =     0.01203335   -0.00030467    0.00742297
     atom   31 type  1   force =     0.00007657    0.00514871   -0.01465239
     atom   32 type  1   force =    -0.00013704   -0.00051688   -0.00595570
     atom   33 type  2   force =     0.00013002   -0.00039344   -0.00023111
     atom   34 type  2   force =    -0.00078834    0.00260602   -0.00104409
     atom   35 type  2   force =    -0.00007194   -0.00010971   -0.00012971
     atom   36 type  2   force =     0.00023587    0.00000734   -0.00015752
     atom   37 type  1   force =    -0.00044022    0.00008329    0.00001937
     atom   38 type  1   force =    -0.00002817   -0.00024408   -0.00024716
     atom   39 type  2   force =    -0.00031983   -0.00018398   -0.00014767
     atom   40 type  2   force =    -0.00012911   -0.00005099   -0.00005262
     atom   41 type  2   force =    -0.00011535   -0.00015051    0.00040923
     atom   42 type  2   force =    -0.00006871   -0.00024222    0.00015686
     atom   43 type  1   force =    -0.00011703   -0.00015728    0.00007945
     atom   44 type  1   force =     0.00002371   -0.00002639    0.00010796
     atom   45 type  2   force =     0.00000994   -0.00011007    0.10398841
     atom   46 type  2   force =    -0.07037810   -0.00011471   -0.02685165
     atom   47 type  2   force =     0.07022401    0.00032023   -0.02691295
     atom   48 type  3   force =    -0.00200777    0.00435892    0.00264449
     atom   49 type  3   force =    -0.00036955   -0.00120024    0.00020207
     atom   50 type  4   force =     0.00015827    0.00142652    0.00108528
     atom   51 type  5   force =     0.00010180   -0.00046048   -0.00083959
     atom   52 type  5   force =     0.00166335   -0.00452415   -0.00251100
     atom   53 type  5   force =     0.00004727    0.00009119    0.00002607
     atom   54 type  5   force =     0.00019868    0.00050192   -0.00008211
     atom   55 type  2   force =     0.00005835   -0.00013614    0.00070139
     atom   56 type  5   force =     0.00026797   -0.00037105   -0.00044554
     atom   57 type  5   force =    -0.00038464   -0.00009701    0.00010288

     Total force =     0.366282     Total SCF correction =     0.000680
  @ DRIVER MODE: Message from server: STATUS
  @ DRIVER MODE: Message from server: GETFORCE
  @ DRIVER MODE: Returning v,forces,stress,ensemble

     Writing output data file ./calc.save/
  @ DRIVER MODE: Message from server: EXIT
  @ DRIVE MODE: Exiting

     General routines

     Parallel routines

   This run was terminated on:   3:17:21  23Sep2021

   JOB DONE.