     Program PWSCF v.6.7GPU starts on 27Sep2021 at 22:49:56

     R & G space division:  proc/nbgrp/npool/nimage =       8
     Reading input from /storage/home/hcoda1/3/ntian30/research/carbon/CxH_vib/H2O_calc/ads_slab/CHNHO_a/out_0002/pw.inp
Warning: card &CELL ignored
Warning: card   CELL_DYNAMICS='IPI', ignored
Warning: card / ignored

     Current dimensions of program PWSCF are:
     Max number of different atomic species (ntypx) = 10
     Max number of k-points (npk) =  40000
     Max angular momentum in pseudopotentials (lmaxx) =  3
     Presently no symmetry can be used with electric field

     Message from routine cell_base_init:
     DEPRECATED: use true lattice parameter, not A to a.u. conversion factor

     IMPORTANT: XC functional enforced from input :
     Exchange-correlation= BEEF-VDW
                           (   1   4  43  14   2   0   0)
     Any further DFT definition will be discarded
     Please, verify this is what you really want

  @ DRIVER MODE: Connecting to
 qe_1139763_3003541.sched-torque.pace.gatech.edumvo2qj1p_scratch
  using UNIX socket
  @ DRIVER MODE: Message from server: STATUS
  @ DRIVER MODE: Message from server: INIT
  @ DRIVER MODE: Receiving replica           0          -1
  @ DRIVER MODE: Receiving encoded integer          25
  @ DRIVER MODE:  SCF:  T  FORCE:  T  STRESS:  F  VC:  F  ENSEMBLE:  F
  @ DRIVER MODE:  SCF:  T  FORCE:  T  STRESS:  F  VC:  F  ENSEMBLE:  F

     Using Slab Decomposition

     bravais-lattice index     =            0
     lattice parameter (alat)  =       1.8897  a.u.
     unit-cell volume          =    6658.9804 (a.u.)^3
     number of atoms/cell      =           52
     number of atomic types    =            5
     number of electrons       =       395.00
     number of Kohn-Sham states=          207
     kinetic-energy cutoff     =      29.3995  Ry
     charge density cutoff     =     293.9946  Ry
     scf convergence threshold =      7.3E-08
     mixing beta               =       0.0500
     number of iterations used =            8  plain     mixing
     Exchange-correlation= BEEF-VDW
                           (   1   4  43  14   2   0   0)

     celldm(1)=   1.889726  celldm(2)=   0.000000  celldm(3)=   0.000000
     celldm(4)=   0.000000  celldm(5)=   0.000000  celldm(6)=   0.000000

     crystal axes: (cart. coord. in units of alat)
               a(1) = (   6.579727   0.000000   0.000000 )
               a(2) = (  -0.000775   5.961596   0.000000 )
               a(3) = (   0.000000   0.000000  25.155947 )

     reciprocal axes: (cart. coord. in units 2 pi/alat)
               b(1) = (  0.151982  0.000020  0.000000 )
               b(2) = (  0.000000  0.167740  0.000000 )
               b(3) = (  0.000000  0.000000  0.039752 )

     PseudoPot. # 1 for Ti read from file:
     /storage/coda1/p-amedford6/0/shared/rich_project_chbe-medford/medford-share/data/pseudos_module/espresso/nninc/pbe/van/Ti.UPF
     MD5 check sum: 8e4df49b7f0d34bbd5052bf3f5ea0213
     Pseudo is Ultrasoft, Zval = 12.0
     Generated by new atomic code, or converted to UPF format
     Using radial grid of  851 points,  6 beta functions with:
                l(1) =   0
                l(2) =   0
                l(3) =   1
                l(4) =   1
                l(5) =   2
                l(6) =   2
     Q(r) pseudized with  8 coefficients,  rinner =    1.000   1.000   1.000
                                                       1.000   1.000

     PseudoPot. # 2 for O  read from file:
     /storage/coda1/p-amedford6/0/shared/rich_project_chbe-medford/medford-share/data/pseudos_module/espresso/nninc/pbe/van/O.UPF
     MD5 check sum: 78c19812648e8988a0fe644b0f25305e
     Pseudo is Ultrasoft, Zval =  6.0
     Generated by new atomic code, or converted to UPF format
     Using radial grid of  737 points,  4 beta functions with:
                l(1) =   0
                l(2) =   0
                l(3) =   1
                l(4) =   1
     Q(r) pseudized with  8 coefficients,  rinner =    0.800   0.800   0.800

     PseudoPot. # 3 for N  read from file:
     /storage/coda1/p-amedford6/0/shared/rich_project_chbe-medford/medford-share/data/pseudos_module/espresso/nninc/pbe/van/N.UPF
     MD5 check sum: 90d10febe142ad51ac9d5be1deb811c4
     Pseudo is Ultrasoft, Zval =  5.0
     Generated by new atomic code, or converted to UPF format
     Using radial grid of  729 points,  4 beta functions with:
                l(1) =   0
                l(2) =   0
                l(3) =   1
                l(4) =   1
     Q(r) pseudized with  8 coefficients,  rinner =    0.800   0.800   0.800

     PseudoPot. # 4 for C  read from file:
     /storage/coda1/p-amedford6/0/shared/rich_project_chbe-medford/medford-share/data/pseudos_module/espresso/nninc/pbe/van/C.UPF
     MD5 check sum: 1a69bf6b8db32088f5b2163dbdb77a27
     Pseudo is Ultrasoft, Zval =  4.0
     Generated by new atomic code, or converted to UPF format
     Using radial grid of  721 points,  4 beta functions with:
                l(1) =   0
                l(2) =   0
                l(3) =   1
                l(4) =   1
     Q(r) pseudized with  8 coefficients,  rinner =    0.800   0.800   0.800

     PseudoPot. # 5 for H  read from file:
     /storage/coda1/p-amedford6/0/shared/rich_project_chbe-medford/medford-share/data/pseudos_module/espresso/nninc/pbe/van/H.UPF
     MD5 check sum: b5ee9d7bfd3a09ee7748110bda690ff7
     Pseudo is Ultrasoft, Zval =  1.0
     Generated by new atomic code, or converted to UPF format
     Using radial grid of  615 points,  1 beta functions with:
                l(1) =   0
     Q(r) pseudized with  8 coefficients,  rinner =    0.800

     atomic species   valence    mass     pseudopotential
        Ti1           12.00    47.86700     Ti( 1.00)
        O1             6.00    15.99900     O ( 1.00)
        N1             5.00    14.00700     N ( 1.00)
        C1             4.00    12.01100     C ( 1.00)
        H1             1.00     1.00800     H ( 1.00)

     No symmetry found

   Cartesian axes

     site n.     atom                  positions (alat units)
         1           Ti1 tau(   1) = (   0.0004258   2.9801865   6.0000000  )
         2           Ti1 tau(   2) = (   3.2906075   1.4906267   6.0002472  )
         3           O1  tau(   3) = (   0.0006271   0.0005054   7.9858123  )
         4           O1  tau(   4) = (   3.2906025   0.0005020   7.3038282  )
         5           O1  tau(   5) = (   4.5942328   1.4918067   9.2879030  )
         6           O1  tau(   6) = (   1.9868534   1.4903216   9.2879459  )
         7           Ti1 tau(   7) = (   3.2907910   2.8959150   9.1758416  )
         8           Ti1 tau(   8) = (   0.0015273   1.4827037   9.2680791  )
         9           O1  tau(   9) = (   3.2959632   0.0395795  11.3506057  )
        10           O1  tau(  10) = (   0.0116148   5.9584955  10.6183126  )
        11           O1  tau(  11) = (   1.2788542   1.5152540  12.6826201  )
        12           O1  tau(  12) = (   5.3118026   1.5181145  12.6771052  )
        13           Ti1 tau(  13) = (   6.5565567   2.9614743  12.5245697  )
        14           Ti1 tau(  14) = (   3.2956814   1.5864178  12.4516600  )
        15           O1  tau(  15) = (   0.0252471   5.9065102  14.6673769  )
        16           O1  tau(  16) = (   3.3061784   5.9134112  13.9760755  )
        17           O1  tau(  17) = (   4.5493393   1.5513651  16.1111979  )
        18           O1  tau(  18) = (   2.0154464   1.5530992  16.0877549  )
        19           Ti1 tau(  19) = (   3.2773477   2.9896638  15.7021987  )
        20           Ti1 tau(  20) = (   0.0480268   1.3694702  15.7882682  )
        21           O1  tau(  21) = (   3.2904802   0.0005063   4.7018136  )
        22           O1  tau(  22) = (   6.5727385   0.1062933  17.1740559  )
        23           O1  tau(  23) = (   1.3043587   1.4918075   6.0039043  )
        24           O1  tau(  24) = (   5.2767064   1.4903225   6.0039473  )
        25           Ti1 tau(  25) = (   0.0000382   5.9609847   6.0000000  )
        26           Ti1 tau(  26) = (   3.2902200   4.4714249   6.0002472  )
        27           O1  tau(  27) = (   0.0002396   2.9813036   7.9858123  )
        28           O1  tau(  28) = (   3.2902150   2.9813002   7.3038282  )
        29           O1  tau(  29) = (   4.5938453   4.4726049   9.2879030  )
        30           O1  tau(  30) = (   1.9864658   4.4711199   9.2879459  )
        31           Ti1 tau(  31) = (   3.2891106   5.8743827   9.1763621  )
        32           Ti1 tau(  32) = (   0.0006254   4.4649316   9.2693709  )
        33           O1  tau(  33) = (   3.2965180   2.9598593  11.3174316  )
        34           O1  tau(  34) = (   0.0092240   2.9805883  10.6323155  )
        35           O1  tau(  35) = (   1.2824442   4.4846720  12.6503842  )
        36           O1  tau(  36) = (   5.3188658   4.4853930  12.6478368  )
        37           Ti1 tau(  37) = (   0.0485215   5.9261111  12.5025588  )
        38           Ti1 tau(  38) = (   3.3111372   4.6778342  12.7091208  )
        39           O1  tau(  39) = (   6.5585416   3.0335453  14.9077256  )
        40           O1  tau(  40) = (   3.2962521   3.0064119  13.9315977  )
        41           O1  tau(  41) = (   4.5433468   4.4479239  16.1972702  )
        42           O1  tau(  42) = (   2.0131479   4.4365031  16.1967174  )
        43           Ti1 tau(  43) = (   3.3705753   0.0290894  16.3529554  )
        44           Ti1 tau(  44) = (   0.0540424   4.5922997  16.0496824  )
        45           O1  tau(  45) = (   3.2900926   2.9813045   4.7018136  )
        46           O1  tau(  46) = (   1.3039711   4.4726057   6.0039043  )
        47           O1  tau(  47) = (   5.2763189   4.4711207   6.0039473  )
        48           N1  tau(  48) = (   0.0057429   3.2032128  17.9785674  )
        49           C1  tau(  49) = (   6.5468619   2.3444050  18.7439128  )
        50           H1  tau(  50) = (   6.5191205   1.5204410  19.4189644  )
        51           O1  tau(  51) = (   3.3183073   0.1146119  18.2142577  )
        52           H1  tau(  52) = (   3.2686675   5.2273609  18.6755658  )

     number of k points=    10  Fermi-Dirac smearing, width (Ry)=  0.0073
                       cart. coord. in units 2pi/alat
        k(    1) = (   0.0000000   0.0000000   0.0000000), wk =   0.1250000
        k(    2) = (   0.0000000   0.0419351   0.0000000), wk =   0.2500000
        k(    3) = (   0.0000000  -0.0838702   0.0000000), wk =   0.1250000
        k(    4) = (   0.0379955   0.0000049   0.0000000), wk =   0.2500000
        k(    5) = (   0.0379955   0.0419400   0.0000000), wk =   0.2500000
        k(    6) = (   0.0379955  -0.0838652   0.0000000), wk =   0.2500000
        k(    7) = (   0.0379955  -0.0419301   0.0000000), wk =   0.2500000
        k(    8) = (  -0.0759910  -0.0000099   0.0000000), wk =   0.1250000
        k(    9) = (  -0.0759910   0.0419252   0.0000000), wk =   0.2500000
        k(   10) = (  -0.0759910  -0.0838800   0.0000000), wk =   0.1250000

     Initial potential from superposition of free atoms

     starting charge  378.99918, renormalised to  395.00000

     negative rho (up, down):  1.718E-02 0.000E+00

     %%%%%%%%%%%%%%%%%%%%%%%%%%%%%%%%%%%%%%%%%%%%%%%%%%%%%%%%%%%%%%%%%%%%%%%%
     %                                                                      %
     % You are using vdW-DF, which was implemented by the Thonhauser group. %
     % Please cite the following two papers that made this development      %
     % possible and the two reviews that describe the various versions:     %
     %                                                                      %
     %   T. Thonhauser et al., PRL 115, 136402 (2015).                      %
     %   T. Thonhauser et al., PRB 76, 125112 (2007).                       %
     %   K. Berland et al., Rep. Prog. Phys. 78, 066501 (2015).             %
     %   D.C. Langreth et al., J. Phys.: Condens. Matter 21, 084203 (2009). %
     %                                                                      %
     %                                                                      %
     % If you are calculating the stress with vdW-DF, please also cite:     %
     %                                                                      %
     %   R. Sabatini et al., J. Phys.: Condens. Matter 24, 424209 (2012).   %
     %                                                                      %
     %%%%%%%%%%%%%%%%%%%%%%%%%%%%%%%%%%%%%%%%%%%%%%%%%%%%%%%%%%%%%%%%%%%%%%%%

     Adding external electric field

     Computed dipole along edir(3) :
        Dipole               -8.1496 Ry au,        -20.7143 Debye
        Dipole field         -0.0154 Ry au,

        Potential amp.        1.4257 Ry
        Total length         46.3494 bohr

     Starting wfcs are  298 atomic wfcs
  @ DRIVER MODE: Message from server: STATUS
  @ DRIVER MODE: Message from server: POSDATA
  @ DRIVER MODE: Reading and sharing cell
  @ DRIVER MODE: Reading and sharing positions
  @ DRIVER MODE: Received positions

     Self-consistent Calculation

     iteration #  1     ecut=    29.40 Ry     beta= 0.05
     Davidson diagonalization with overlap
     c_bands:  1 eigenvalues not converged
     c_bands:  2 eigenvalues not converged
     c_bands:  2 eigenvalues not converged
     c_bands:  3 eigenvalues not converged
     c_bands:  3 eigenvalues not converged
     c_bands:  1 eigenvalues not converged
     c_bands:  1 eigenvalues not converged
     ethr =  1.00E-05,  avg # of iterations = 19.3

[...]

     total energy              =   -2615.12159698 Ry
     estimated scf accuracy    <    3704.54419456 Ry

[...]

     iteration #  3     ecut=    29.40 Ry     beta= 0.05
     Davidson diagonalization with overlap
     ethr =  1.00E-02,  avg # of iterations = 14.6

[...]

     iteration # 72     ecut=    29.40 Ry     beta= 0.05
     Davidson diagonalization with overlap
     ethr =  2.48E-11,  avg # of iterations =  2.2

[...]

     total energy              =   -2950.24121401 Ry
     estimated scf accuracy    <       0.00000036 Ry

     iteration # 74     ecut=    29.40 Ry     beta= 0.05
     Davidson diagonalization with overlap
     c_bands:  1 eigenvalues not converged
     ethr =  2.11E-11,  avg # of iterations = 15.9

     negative rho (up, down):  1.736E-02 0.000E+00

     Adding external electric field

     Computed dipole along edir(3) :
        Dipole                1.2371 Ry au,          3.1443 Debye
        Dipole field          0.0023 Ry au,

        Potential amp.       -0.2164 Ry
        Total length         46.3494 bohr

     End of self-consistent calculation

          k = 0.0000 0.0000 0.0000 ( 18029 PWs)   bands (ev):

   -55.6684 -55.6172 -55.5832 -55.4460 -55.4419 -55.4411 -55.4094 -55.4088
   -55.4086 -55.3685 -55.3253 -55.2879 -55.2059 -55.0971 -54.5804 -54.5464
   -32.1009 -32.0167 -32.0128 -31.9457 -31.9334 -31.9083 -31.8911 -31.8813
   -31.8630 -31.8552 -31.8191 -31.7698 -31.7293 -31.7230 -31.7145 -31.7079
   -31.6975 -31.6910 -31.6749 -31.6535 -31.6494 -31.6407 -31.6380 -31.6210
   -31.6179 -31.5905 -31.5901 -31.5866 -31.5701 -31.5655 -31.5580 -31.5432
   -31.5413 -31.5214 -31.4898 -31.4788 -31.4756 -31.4193 -31.3994 -31.3486
   -31.3165 -31.3076 -30.9857 -30.9010 -30.8785 -30.8035 -30.7172 -30.6052
   -17.2589 -16.5946 -16.2425 -16.0791 -15.8602 -15.7798 -15.7483 -15.5620
   -15.4502 -15.4019 -15.1910 -15.1485 -15.1317 -15.1142 -15.0904 -15.0859
   -15.0713 -15.0320 -15.0319 -15.0148 -14.9955 -14.9610 -14.9444 -14.8954
   -14.8160 -14.8090 -14.7468 -14.6723 -14.6261 -14.3542 -14.3327 -13.0786
   -12.9624  -8.7393  -4.4756  -4.1507  -3.5980  -3.5148  -3.4864  -3.4401
    -3.3677  -3.2694  -3.0988  -3.0888  -2.9784  -2.9214  -2.8144  -2.7155
    -2.6450  -2.5988  -2.5411  -2.5082  -2.4708  -2.4279  -2.3915  -2.3514
    -2.3249  -2.3156  -2.2569  -2.2281  -2.1306  -2.1238  -2.0861  -1.9934
    -1.9757  -1.9288  -1.9213  -1.9177  -1.8637  -1.8487  -1.8322  -1.7977
    -1.6772  -1.6529  -1.6468  -1.5879  -1.5236  -1.2128  -1.2032  -1.1439
    -1.0677  -1.0365  -1.0102  -0.9922  -0.9310  -0.8930  -0.8782  -0.8611
    -0.7873  -0.6928  -0.6602  -0.6120  -0.4587  -0.4517  -0.3977  -0.3784
    -0.3515  -0.3123  -0.2598  -0.1908  -0.1635  -0.1405  -0.0091   0.0119
     0.0593   0.0731   0.1180   0.1665   0.2009   0.2674   0.3180   0.3394
     0.3569   0.3680   0.4006   0.4205   0.5123   0.5449   0.5946   0.6599
     0.7188   0.7359   0.7888   0.9467   1.0422   1.0700   1.1806   1.3994
     1.4462   1.4987   1.6423   2.0119   2.0568   3.4718   3.6211   3.6381
     3.7278   3.7391   3.8247   3.9592   4.0529   4.1737   4.2178

[...]

          k = 0.0380-0.0419 0.0000 ( 17876 PWs)   bands (ev):

[...]

          k =-0.0760-0.0000 0.0000 ( 17886 PWs)   bands (ev):

[...]

          k =-0.0760-0.0839 0.0000 ( 17948 PWs)   bands (ev):

   -55.6676 -55.6002 -55.6001 -55.4394 -55.4310 -55.4266 -55.4250 -55.4225
   -55.4093 -55.3604 -55.3334 -55.2899 -55.2033 -55.0996 -54.5634 -54.5633
   -31.9559 -31.9435 -31.9163 -31.9162 -31.8939 -31.8937 -31.8933 -31.8696
   -31.7992 -31.7570 -31.7553 -31.7479 -31.7349 -31.7202 -31.7200 -31.7078
   -31.7021 -31.6995 -31.6939 -31.6710 -31.6707 -31.6575 -31.6430 -31.6279
   -31.6265 -31.6238 -31.6154 -31.6060 -31.6046 -31.5981 -31.5953 -31.5800
   -31.5734 -31.5565 -31.5495 -31.5066 -31.4942 -31.4682 -31.4370 -31.4033
   -31.3544 -31.3120 -30.8912 -30.8912 -30.7989 -30.7985 -30.7605 -30.7602
   -17.2517 -16.5859 -15.8699 -15.6497 -15.5803 -15.5751 -15.4401 -15.3700
   -15.3475 -15.3181 -15.3020 -15.2656 -15.2408 -15.2253 -15.1819 -15.1590
   -15.1254 -15.1072 -15.0924 -15.0534 -15.0428 -15.0174 -15.0082 -14.9919
   -14.9348 -14.9130 -14.9039 -14.7710 -14.7362 -14.6643 -14.4728 -13.0644
   -13.0642  -8.7372  -4.4561  -4.1636  -3.3004  -3.1053  -3.0213  -2.8618
    -2.7958  -2.6735  -2.6491  -2.6130  -2.5461  -2.5296  -2.4990  -2.4541
    -2.3940  -2.3723  -2.3670  -2.3423  -2.3320  -2.3013  -2.2853  -2.2758
    -2.2707  -2.2447  -2.2298  -2.2169  -2.1921  -2.1619  -2.1594  -2.1428
    -2.1269  -2.0531  -1.9887  -1.9406  -1.8158  -1.7617  -1.7508  -1.7368
    -1.7218  -1.6840  -1.6773  -1.6387  -1.6132  -1.5015  -1.4214  -1.3778
    -1.3068  -1.1969  -1.1774  -1.1686  -1.1057  -1.0736  -1.0395  -1.0378
    -0.9324  -0.9020  -0.8165  -0.7624  -0.7275  -0.6619  -0.5710  -0.5559
    -0.5463  -0.5235  -0.5035  -0.4878  -0.4615  -0.4239  -0.3423  -0.3051
    -0.3002  -0.2993  -0.2480  -0.1736  -0.1100   0.0764   0.1643   0.1719
     0.2199   0.2577   0.4512   0.4859   0.5145   0.5293   0.5765   0.6289
     0.6927   0.7090   0.7570   0.8223   0.9123   0.9382   0.9710   0.9820
     1.0285   1.8105   1.8182   1.8771   1.8772   3.6416   3.9478   3.9868
     4.0050   4.0132   4.0517   4.0555   4.0750   4.1528   4.1627

     the Fermi energy is     3.5056 ev

!    total energy              =   -2950.24122970 Ry
     estimated scf accuracy    <       0.00000003 Ry
     smearing contrib. (-TS)   =      -0.01957052 Ry
     internal energy E=F+TS    =   -2950.22165918 Ry

     The total energy is F=E-TS. E is the sum of the following terms:
     one-electron contribution =  -23960.76744684 Ry
     hartree contribution      =   12071.36534817 Ry
     xc contribution           =    -486.32532116 Ry
     ewald contribution        =    9425.50287264 Ry
     electric field correction =       0.00288800 Ry

     convergence has been achieved in  74 iterations

     Forces acting on atoms (cartesian axes, Ry/au):

     atom    1 type  1   force =     0.00006763   -0.00024174    0.09445064
     atom    2 type  1   force =    -0.00000073    0.00017933   -0.17483299
     atom    3 type  2   force =     0.00002898   -0.00043382   -0.02144478
     atom    4 type  2   force =     0.00004245   -0.00080118    0.05272959
     atom    5 type  2   force =    -0.00430043   -0.00229169    0.00042568
     atom    6 type  2   force =     0.00596650   -0.00164051    0.00005748
     atom    7 type  1   force =    -0.00013733    0.00326401    0.01148920
     atom    8 type  1   force =     0.00013526    0.00254264    0.00476713
     atom    9 type  2   force =    -0.00017434    0.00026850   -0.00024046
     atom   10 type  2   force =    -0.00077560    0.00345377   -0.01163600
     atom   11 type  2   force =     0.00053224   -0.00039938    0.00027302
     atom   12 type  2   force =    -0.00002719   -0.00024636    0.00011143
     atom   13 type  1   force =    -0.00102907   -0.00039001    0.00001925
     atom   14 type  1   force =     0.00080360    0.00052893   -0.00016448
     atom   15 type  2   force =     0.00021768   -0.00008875   -0.00064027
     atom   16 type  2   force =    -0.00032066   -0.00073013    0.00084036
     atom   17 type  2   force =     0.00080143    0.00011961   -0.00052901
     atom   18 type  2   force =    -0.00035094   -0.00019592    0.00013370
     atom   19 type  1   force =     0.00044936    0.00086205    0.00029246
     atom   20 type  1   force =     0.00014458   -0.00027218   -0.00020502
     atom   21 type  2   force =     0.00009038    0.00000652    0.10303723
     atom   22 type  2   force =     0.00002384    0.00081131   -0.00018817
     atom   23 type  2   force =    -0.07227016   -0.00016950   -0.02735743
     atom   24 type  2   force =     0.07225011    0.00024514   -0.02740433
     atom   25 type  1   force =     0.00015101   -0.00024270    0.09436936
     atom   26 type  1   force =    -0.00008141   -0.00124209   -0.17480731
     atom   27 type  2   force =     0.00020784   -0.00006426   -0.02023142
     atom   28 type  2   force =     0.00009728   -0.00095956    0.04852908
     atom   29 type  2   force =    -0.00683730    0.00193366    0.00268478
     atom   30 type  2   force =     0.00839091    0.00226912    0.00215029
     atom   31 type  1   force =     0.00004216    0.00104204    0.00136863
     atom   32 type  1   force =     0.00010898   -0.00336190    0.00512047
     atom   33 type  2   force =    -0.00015734   -0.00022218    0.00011630
     atom   34 type  2   force =    -0.00192540   -0.00083900   -0.01111164
     atom   35 type  2   force =     0.00067485   -0.00019282    0.00001238
     atom   36 type  2   force =    -0.00004831    0.00011372    0.00001253
     atom   37 type  1   force =    -0.00124887   -0.00011174   -0.00036485
     atom   38 type  1   force =     0.00068213    0.00013670    0.00067236
     atom   39 type  2   force =     0.00022485   -0.00079478    0.00006554
     atom   40 type  2   force =    -0.00035038   -0.00014072    0.00021314
     atom   41 type  2   force =    -0.00063370   -0.00060534    0.00036855
     atom   42 type  2   force =     0.00061865   -0.00041106   -0.00038210
     atom   43 type  1   force =     0.00015156   -0.00007779    0.00005967
     atom   44 type  1   force =    -0.00061459   -0.00037554    0.00001780
     atom   45 type  2   force =     0.00008154    0.00003857    0.10288697
     atom   46 type  2   force =    -0.07220271   -0.00008955   -0.02728526
     atom   47 type  2   force =     0.07220458    0.00037214   -0.02734160
     atom   48 type  3   force =    -0.00128753   -0.00069120    0.00004406
     atom   49 type  4   force =     0.00106914    0.00035007   -0.00038383
     atom   50 type  5   force =    -0.00073675    0.00026413    0.00001835
     atom   51 type  2   force =    -0.00021675    0.00072881   -0.00133093
     atom   52 type  5   force =    -0.00053201   -0.00120740    0.00054446

     Total force =     0.361571     Total SCF correction =     0.000589
  @ DRIVER MODE: Message from server: STATUS
  @ DRIVER MODE: Message from server: GETFORCE
  @ DRIVER MODE: Returning v,forces,stress,ensemble

     Writing output data file ./calc.save/
  @ DRIVER MODE: Message from server: EXIT
  @ DRIVE MODE: Exiting

     General routines

     Parallel routines

   This run was terminated on:  23:15:24  27Sep2021

   JOB DONE.