     Program PWSCF v.6.7GPU starts on 23Sep2021 at  0:19:57

     R & G space division:  proc/nbgrp/npool/nimage =      10
     Reading input from /storage/home/hcoda1/3/ntian30/research/carbon/CxH_vib/H2O_calc/ads_slab/CH3NNH3HO_a/out_0023/pw.inp
Warning: card &CELL ignored
Warning: card   CELL_DYNAMICS='IPI', ignored
Warning: card / ignored

     Current dimensions of program PWSCF are:
     Max number of different atomic species (ntypx) = 10
     Max number of k-points (npk) =  40000
     Max angular momentum in pseudopotentials (lmaxx) =  3
     Presently no symmetry can be used with electric field

     Message from routine cell_base_init:
     DEPRECATED: use true lattice parameter, not A to a.u. conversion factor

     IMPORTANT: XC functional enforced from input :
     Exchange-correlation= BEEF-VDW
                           (   1   4  43  14   2   0   0)
     Any further DFT definition will be discarded
     Please, verify this is what you really want

  @ DRIVER MODE: Connecting to
 qe_1139763_2937318.sched-torque.pace.gatech.edu4942yumk_scratch
  using UNIX socket
  @ DRIVER MODE: Message from server: STATUS
  @ DRIVER MODE: Message from server: INIT
  @ DRIVER MODE: Receiving replica           0          -1
  @ DRIVER MODE: Receiving encoded integer          25
  @ DRIVER MODE:  SCF:  T  FORCE:  T  STRESS:  F  VC:  F  ENSEMBLE:  F
  @ DRIVER MODE:  SCF:  T  FORCE:  T  STRESS:  F  VC:  F  ENSEMBLE:  F

     Using Slab Decomposition

     bravais-lattice index     =            0
     lattice parameter (alat)  =       1.8897  a.u.
     unit-cell volume          =    6658.9804 (a.u.)^3
     number of atoms/cell      =           58
     number of atomic types    =            5
     number of electrons       =       405.00
     number of Kohn-Sham states=          212
     kinetic-energy cutoff     =      29.3995  Ry
     charge density cutoff     =     293.9946  Ry
     scf convergence threshold =      7.3E-08
     mixing beta               =       0.0500
     number of iterations used =            8  plain     mixing
     Exchange-correlation= BEEF-VDW
                           (   1   4  43  14   2   0   0)

     celldm(1)=   1.889726  celldm(2)=   0.000000  celldm(3)=   0.000000
     celldm(4)=   0.000000  celldm(5)=   0.000000  celldm(6)=   0.000000

     crystal axes: (cart. coord. in units of alat)
               a(1) = (   6.579727   0.000000   0.000000 )
               a(2) = (  -0.000775   5.961596   0.000000 )
               a(3) = (   0.000000   0.000000  25.155947 )

     reciprocal axes: (cart. coord. in units 2 pi/alat)
               b(1) = (  0.151982  0.000020  0.000000 )
               b(2) = (  0.000000  0.167740  0.000000 )
               b(3) = (  0.000000  0.000000  0.039752 )

     PseudoPot. # 1 for Ti read from file:
     /storage/coda1/p-amedford6/0/shared/rich_project_chbe-medford/medford-share/data/pseudos_module/espresso/nninc/pbe/van/Ti.UPF
     MD5 check sum: 8e4df49b7f0d34bbd5052bf3f5ea0213
     Pseudo is Ultrasoft, Zval = 12.0
     Generated by new atomic code, or converted to UPF format
     Using radial grid of  851 points,  6 beta functions with:
                l(1) =   0
                l(2) =   0
                l(3) =   1
                l(4) =   1
                l(5) =   2
                l(6) =   2
     Q(r) pseudized with  8 coefficients,  rinner =    1.000   1.000   1.000
                                                       1.000   1.000

     PseudoPot. # 2 for O  read from file:
     /storage/coda1/p-amedford6/0/shared/rich_project_chbe-medford/medford-share/data/pseudos_module/espresso/nninc/pbe/van/O.UPF
     MD5 check sum: 78c19812648e8988a0fe644b0f25305e
     Pseudo is Ultrasoft, Zval =  6.0
     Generated by new atomic code, or converted to UPF format
     Using radial grid of  737 points,  4 beta functions with:
                l(1) =   0
                l(2) =   0
                l(3) =   1
                l(4) =   1
     Q(r) pseudized with  8 coefficients,  rinner =    0.800   0.800   0.800

     PseudoPot. # 3 for N  read from file:
     /storage/coda1/p-amedford6/0/shared/rich_project_chbe-medford/medford-share/data/pseudos_module/espresso/nninc/pbe/van/N.UPF
     MD5 check sum: 90d10febe142ad51ac9d5be1deb811c4
     Pseudo is Ultrasoft, Zval =  5.0
     Generated by new atomic code, or converted to UPF format
     Using radial grid of  729 points,  4 beta functions with:
                l(1) =   0
                l(2) =   0
                l(3) =   1
                l(4) =   1
     Q(r) pseudized with  8 coefficients,  rinner =    0.800   0.800   0.800

     PseudoPot. # 4 for C  read from file:
     /storage/coda1/p-amedford6/0/shared/rich_project_chbe-medford/medford-share/data/pseudos_module/espresso/nninc/pbe/van/C.UPF
     MD5 check sum: 1a69bf6b8db32088f5b2163dbdb77a27
     Pseudo is Ultrasoft, Zval =  4.0
     Generated by new atomic code, or converted to UPF format
     Using radial grid of  721 points,  4 beta functions with:
                l(1) =   0
                l(2) =   0
                l(3) =   1
                l(4) =   1
     Q(r) pseudized with  8 coefficients,  rinner =    0.800   0.800   0.800

     PseudoPot. # 5 for H  read from file:
     /storage/coda1/p-amedford6/0/shared/rich_project_chbe-medford/medford-share/data/pseudos_module/espresso/nninc/pbe/van/H.UPF
     MD5 check sum: b5ee9d7bfd3a09ee7748110bda690ff7
     Pseudo is Ultrasoft, Zval =  1.0
     Generated by new atomic code, or converted to UPF format
     Using radial grid of  615 points,  1 beta functions with:
                l(1) =   0
     Q(r) pseudized with  8 coefficients,  rinner =    0.800

     atomic species   valence    mass     pseudopotential
        Ti1           12.00    47.86700     Ti( 1.00)
        O1             6.00    15.99900     O ( 1.00)
        N1             5.00    14.00700     N ( 1.00)
        C1             4.00    12.01100     C ( 1.00)
        H1             1.00     1.00800     H ( 1.00)

     No symmetry found

   Cartesian axes

     site n.     atom                  positions (alat units)
         1           Ti1 tau(   1) = (   0.0004258   2.9801865   6.0000000  )
         2           Ti1 tau(   2) = (   3.2906075   1.4906267   6.0002472  )
         3           O1  tau(   3) = (   0.0006271   0.0005054   7.9858123  )
         4           O1  tau(   4) = (   3.2906025   0.0005020   7.3038282  )
         5           O1  tau(   5) = (   4.5942328   1.4918067   9.2879030  )
         6           O1  tau(   6) = (   1.9868534   1.4903216   9.2879459  )
         7           Ti1 tau(   7) = (   3.2907910   2.8959150   9.1758416  )
         8           Ti1 tau(   8) = (   0.0015273   1.4827037   9.2680791  )
         9           O1  tau(   9) = (   3.2949357   5.9297256  11.2770696  )
        10           O1  tau(  10) = (   0.0116148   5.9584955  10.6183126  )
        11           O1  tau(  11) = (   1.2901270   1.4659759  12.6218969  )
        12           O1  tau(  12) = (   5.3029181   1.4690452  12.6271982  )
        13           Ti1 tau(  13) = (   6.5637346   3.0486055  12.7052252  )
        14           Ti1 tau(  14) = (   3.3207578   1.2909511  12.6638180  )
        15           O1  tau(  15) = (   0.0081040   5.9567798  14.6379979  )
        16           O1  tau(  16) = (   3.2944190   0.0149942  13.8863584  )
        17           O1  tau(  17) = (   4.5334936   1.5584448  16.0391558  )
        18           O1  tau(  18) = (   2.0244848   1.5379376  16.0854781  )
        19           Ti1 tau(  19) = (   3.2579824   3.0118882  15.6538344  )
        20           Ti1 tau(  20) = (   6.4918182   1.5199401  15.8876453  )
        21           O1  tau(  21) = (   3.2904802   0.0005063   4.7018136  )
        22           O1  tau(  22) = (   6.5166677   0.0216046  17.1949088  )
        23           O1  tau(  23) = (   1.3043587   1.4918075   6.0039043  )
        24           O1  tau(  24) = (   5.2767064   1.4903225   6.0039473  )
        25           Ti1 tau(  25) = (   0.0000382   5.9609847   6.0000000  )
        26           Ti1 tau(  26) = (   3.2902200   4.4714249   6.0002472  )
        27           O1  tau(  27) = (   0.0002396   2.9813036   7.9858123  )
        28           O1  tau(  28) = (   3.2902150   2.9813002   7.3038282  )
        29           O1  tau(  29) = (   4.5938453   4.4726049   9.2879030  )
        30           O1  tau(  30) = (   1.9864658   4.4711199   9.2879459  )
        31           Ti1 tau(  31) = (   3.2891106   5.8743827   9.1763621  )
        32           Ti1 tau(  32) = (   0.0006254   4.4649316   9.2693709  )
        33           O1  tau(  33) = (   3.2959121   3.0085915  11.2438341  )
        34           O1  tau(  34) = (   0.0092240   2.9805883  10.6323155  )
        35           O1  tau(  35) = (   1.2849535   4.4488585  12.6204231  )
        36           O1  tau(  36) = (   5.2878833   4.4365118  12.6243745  )
        37           Ti1 tau(  37) = (   0.0500071   0.0677371  12.6535751  )
        38           Ti1 tau(  38) = (   3.3027700   4.3871210  12.4110406  )
        39           O1  tau(  39) = (   6.5685058   2.9535060  14.6525041  )
        40           O1  tau(  40) = (   3.2696111   2.9719761  13.8704823  )
        41           O1  tau(  41) = (   4.5209813   4.4409030  16.0696701  )
        42           O1  tau(  42) = (   2.0131998   4.4599944  16.0916020  )
        43           Ti1 tau(  43) = (   3.2138439   0.0230873  16.3295100  )
        44           Ti1 tau(  44) = (   6.5234412   4.6200706  16.0754176  )
        45           O1  tau(  45) = (   3.2900926   2.9813045   4.7018136  )
        46           O1  tau(  46) = (   1.3039711   4.4726057   6.0039043  )
        47           O1  tau(  47) = (   5.2763189   4.4711207   6.0039473  )
        48           N1  tau(  48) = (   0.0251376   2.9556585  17.3246074  )
        49           N1  tau(  49) = (   6.3772498   2.5461882  22.2688425  )
        50           C1  tau(  50) = (   0.2111848   2.8484408  18.7116211  )
        51           H1  tau(  51) = (   0.3920758   3.8074029  19.2016250  )
        52           H1  tau(  52) = (   5.9044209   2.3708277  19.1722604  )
        53           H1  tau(  53) = (   1.0233575   2.1342068  18.9364007  )
        54           H1  tau(  54) = (   6.0930523   3.2289774  22.9628454  )
        55           H1  tau(  55) = (   0.2277240   1.7755739  22.7685771  )
        56           H1  tau(  56) = (   0.5282093   2.9785696  21.7129995  )
        57           O1  tau(  57) = (   3.3838229   0.0530270  18.1522483  )
        58           H1  tau(  58) = (   4.2718821   5.8932998  18.5223319  )

     number of k points=    10  Fermi-Dirac smearing, width (Ry)=  0.0073
                       cart. coord. in units 2pi/alat
        k(    1) = (   0.0000000   0.0000000   0.0000000), wk =   0.1250000
        k(    2) = (   0.0000000   0.0419351   0.0000000), wk =   0.2500000
        k(    3) = (   0.0000000  -0.0838702   0.0000000), wk =   0.1250000
        k(    4) = (   0.0379955   0.0000049   0.0000000), wk =   0.2500000
        k(    5) = (   0.0379955   0.0419400   0.0000000), wk =   0.2500000
        k(    6) = (   0.0379955  -0.0838652   0.0000000), wk =   0.2500000
        k(    7) = (   0.0379955  -0.0419301   0.0000000), wk =   0.2500000
        k(    8) = (  -0.0759910  -0.0000099   0.0000000), wk =   0.1250000
        k(    9) = (  -0.0759910   0.0419252   0.0000000), wk =   0.2500000
        k(   10) = (  -0.0759910  -0.0838800   0.0000000), wk =   0.1250000

     Initial potential from superposition of free atoms

     starting charge  388.99913, renormalised to  405.00000

     negative rho (up, down):  7.828E-03 0.000E+00

     %%%%%%%%%%%%%%%%%%%%%%%%%%%%%%%%%%%%%%%%%%%%%%%%%%%%%%%%%%%%%%%%%%%%%%%%
     %                                                                      %
     % You are using vdW-DF, which was implemented by the Thonhauser group. %
     % Please cite the following two papers that made this development      %
     % possible and the two reviews that describe the various versions:     %
     %                                                                      %
     %   T. Thonhauser et al., PRL 115, 136402 (2015).                      %
     %   T. Thonhauser et al., PRB 76, 125112 (2007).                       %
     %   K. Berland et al., Rep. Prog. Phys. 78, 066501 (2015).             %
     %   D.C. Langreth et al., J. Phys.: Condens. Matter 21, 084203 (2009). %
     %                                                                      %
     %                                                                      %
     % If you are calculating the stress with vdW-DF, please also cite:     %
     %                                                                      %
     %   R. Sabatini et al., J. Phys.: Condens. Matter 24, 424209 (2012).   %
     %                                                                      %
     %%%%%%%%%%%%%%%%%%%%%%%%%%%%%%%%%%%%%%%%%%%%%%%%%%%%%%%%%%%%%%%%%%%%%%%%

     Adding external electric field

     Computed dipole along edir(3) :
        Dipole              -15.1926 Ry au,        -38.6156 Debye
        Dipole field         -0.0287 Ry au,

        Potential amp.        2.6577 Ry
        Total length         46.3494 bohr

     Starting wfcs are  307 atomic wfcs
  @ DRIVER MODE: Message from server: STATUS
  @ DRIVER MODE: Message from server: POSDATA
  @ DRIVER MODE: Reading and sharing cell
  @ DRIVER MODE: Reading and sharing positions
  @ DRIVER MODE: Received positions

     Self-consistent Calculation

     iteration #  1     ecut=    29.40 Ry     beta= 0.05
     Davidson diagonalization with overlap
     c_bands:  4 eigenvalues not converged
     c_bands:  1 eigenvalues not converged
     c_bands:  1 eigenvalues not converged
     c_bands:  2 eigenvalues not converged
     c_bands:  1 eigenvalues not converged
     c_bands:  2 eigenvalues not converged
     ethr =  1.00E-05,  avg # of iterations = 31.5

[...]

     total energy              =   -2295.07006390 Ry
     estimated scf accuracy    <    7743.60740868 Ry

     iteration #  2     ecut=    29.40 Ry     beta= 0.05
     Davidson diagonalization with overlap
     ethr =  1.00E-02,  avg # of iterations = 22.8

[...]

     iteration # 50     ecut=    29.40 Ry     beta= 0.05
     Davidson diagonalization with overlap
     c_bands:  1 eigenvalues not converged
     ethr =  1.54E-06,  avg # of iterations =  6.9

[...]

     total energy              =   -2976.42351089 Ry
     estimated scf accuracy    <       0.00000008 Ry

     iteration # 74     ecut=    29.40 Ry     beta= 0.05
     Davidson diagonalization with overlap
     ethr =  2.09E-11,  avg # of iterations =  6.5

     negative rho (up, down):  9.594E-03 0.000E+00

     Adding external electric field

     Computed dipole along edir(3) :
        Dipole                0.6347 Ry au,          1.6133 Debye
        Dipole field          0.0012 Ry au,

        Potential amp.       -0.1110 Ry
        Total length         46.3494 bohr

     End of self-consistent calculation

          k = 0.0000 0.0000 0.0000 ( 18029 PWs)   bands (ev):

   -56.5648 -56.5313 -55.6406 -55.6055 -55.4247 -55.3582 -55.2300 -55.1163
   -55.0824 -55.0338 -55.0027 -54.9679 -54.9102 -54.8156 -54.7449 -54.6133
   -32.9835 -32.8353 -32.8073 -32.7442 -32.6540 -32.6106 -32.1223 -31.8996
   -31.8608 -31.8393 -31.7847 -31.7769 -31.7516 -31.6580 -31.6377 -31.5931
   -31.5613 -31.5456 -31.5215 -31.5089 -31.5041 -31.4938 -31.4633 -31.4620
   -31.4388 -31.4200 -31.3547 -31.3202 -31.2974 -31.2915 -31.2399 -31.2314
   -31.2153 -31.1936 -31.1806 -31.1657 -31.1583 -31.1285 -31.1224 -31.0910
   -31.0461 -31.0021 -31.0006 -30.9800 -30.9470 -30.8873 -30.8508 -30.8001
   -16.6679 -16.1101 -16.0878 -15.8811 -15.7586 -15.7536 -15.7103 -15.6417
   -15.4722 -15.4039 -15.3753 -15.3141 -15.1699 -15.0542 -14.9570 -14.7773
   -14.7035 -14.6985 -14.6793 -14.6722 -14.6550 -14.6341 -14.5750 -14.5166
   -14.4741 -14.4093 -14.3661 -14.2197 -14.0197 -13.9941 -13.9532 -13.6134
   -13.5065 -13.5062  -7.7395  -4.2434  -4.0331  -4.0136  -3.6985  -3.5768
    -3.4041  -3.2516  -3.2279  -3.1422  -3.0834  -3.0740  -2.9266  -2.9250
    -2.9134  -2.9074  -2.8280  -2.7679  -2.7044  -2.6176  -2.6021  -2.5076
    -2.4608  -2.3014  -2.2757  -2.1745  -2.1024  -2.0970  -2.0306  -2.0081
    -1.9608  -1.9161  -1.9064  -1.8716  -1.8278  -1.7811  -1.7624  -1.6516
    -1.6441  -1.5789  -1.5718  -1.5495  -1.4358  -1.4157  -1.3463  -1.2013
    -1.1797  -1.1763  -1.1292  -1.1118  -1.0303  -0.9346  -0.8671  -0.8404
    -0.7841  -0.6958  -0.6492  -0.6275  -0.5550  -0.5355  -0.4614  -0.4181
    -0.4045  -0.3842  -0.3427  -0.2277  -0.1409  -0.1081  -0.0543  -0.0290
     0.0038   0.0303   0.0496   0.0983   0.1682   0.2534   0.2752   0.4138
     0.4657   0.5025   0.5784   0.6127   0.6190   0.7081   0.7399   0.7694
     0.8159   0.8906   0.9051   0.9059   0.9650   1.0491   1.1036   1.1551
     1.1677   1.2040   1.2121   1.2629   1.3515   1.3723   1.4417   1.4967
     1.8214   1.8829   2.4850   2.7296   2.9010   3.1779   3.3698   3.6732
     3.7155   3.7334   3.7335   4.0395

[...]

          k = 0.0380-0.0419 0.0000 ( 17876 PWs)   bands (ev):

[...]

          k =-0.0760-0.0000 0.0000 ( 17886 PWs)   bands (ev):

[...]

          k =-0.0760-0.0839 0.0000 ( 17948 PWs)   bands (ev):

   -56.5486 -56.5473 -55.6281 -55.6177 -55.4201 -55.3627 -55.2292 -55.0999
   -55.0986 -55.0289 -55.0034 -54.9726 -54.9085 -54.8142 -54.7465 -54.6147
   -32.8218 -32.8203 -32.8014 -32.8001 -32.6983 -32.6972 -31.9468 -31.9377
   -31.8226 -31.8174 -31.8114 -31.8097 -31.7195 -31.6766 -31.6513 -31.6383
   -31.5886 -31.5868 -31.5009 -31.4737 -31.4640 -31.4523 -31.4514 -31.3689
   -31.3487 -31.3200 -31.3185 -31.3007 -31.2937 -31.2839 -31.2801 -31.2796
   -31.2505 -31.2314 -31.2143 -31.1993 -31.1951 -31.1576 -31.1572 -31.1015
   -31.0901 -31.0491 -31.0059 -30.9938 -30.9587 -30.9517 -30.8529 -30.8357
   -16.0758 -16.0264 -16.0245 -15.9810 -15.9794 -15.7178 -15.7133 -15.4630
   -15.4337 -15.2546 -15.1504 -15.1264 -15.0829 -15.0413 -14.9702 -14.9160
   -14.8863 -14.8546 -14.8284 -14.7664 -14.7366 -14.6318 -14.5990 -14.5515
   -14.5153 -14.4534 -14.4124 -14.3632 -14.1766 -14.1323 -13.9525 -13.6111
   -13.6105 -13.5312  -7.7387  -4.0438  -4.0137  -3.6905  -3.1847  -3.1024
    -3.0980  -3.0658  -3.0585  -2.9753  -2.8518  -2.8486  -2.7499  -2.6468
    -2.6203  -2.5973  -2.5368  -2.5269  -2.4273  -2.3774  -2.3725  -2.3584
    -2.3221  -2.2924  -2.2859  -2.2261  -2.0878  -2.0717  -2.0223  -1.9683
    -1.8937  -1.8854  -1.8761  -1.8393  -1.7976  -1.7721  -1.7613  -1.7340
    -1.7292  -1.7247  -1.6152  -1.5105  -1.4632  -1.3694  -1.3654  -1.3564
    -1.3185  -1.2913  -1.2579  -1.2514  -1.2226  -1.1425  -1.1164  -1.0467
    -0.9336  -0.9154  -0.8733  -0.8250  -0.7213  -0.7030  -0.6134  -0.5770
    -0.5656  -0.5068  -0.4772  -0.4613  -0.4031  -0.3640  -0.2322  -0.1922
    -0.1807  -0.1637  -0.1414  -0.1049  -0.0440   0.0174   0.0493   0.0513
     0.1559   0.2556   0.3426   0.4127   0.4220   0.4448   0.5314   0.6366
     0.6780   0.7027   0.7511   0.8746   0.9924   1.0223   1.1265   1.1526
     1.1620   1.2640   1.2819   1.2870   1.3070   1.3161   1.3513   1.4177
     1.4785   1.7662   2.3179   3.3221   3.3252   3.3834   3.3890   3.6998
     3.7021   3.8133   3.8184   4.1452

     the Fermi energy is     2.3949 ev

!    total energy              =   -2976.42353528 Ry
     estimated scf accuracy    <       0.00000007 Ry
     smearing contrib. (-TS)   =      -0.01084198 Ry
     internal energy E=F+TS    =   -2976.41269330 Ry

     The total energy is F=E-TS. E is the sum of the following terms:
     one-electron contribution =  -22708.00727190 Ry
     hartree contribution      =   11450.36091722 Ry
     xc contribution           =    -495.34680601 Ry
     ewald contribution        =    8776.57970716 Ry
     electric field correction =       0.00076023 Ry

     convergence has been achieved in  74 iterations

     Forces acting on atoms (cartesian axes, Ry/au):

     atom    1 type  1   force =     0.00002222   -0.00052275    0.12632123
     atom    2 type  1   force =    -0.00009936    0.00041332   -0.15469654
     atom    3 type  2   force =     0.00002686    0.00002611   -0.06828861
     atom    4 type  2   force =     0.00005848   -0.00010936    0.01705086
     atom    5 type  2   force =    -0.00488039   -0.00242549   -0.01323629
     atom    6 type  2   force =     0.00656241   -0.00180369   -0.01375363
     atom    7 type  1   force =    -0.00029657   -0.00661729    0.05922448
     atom    8 type  1   force =     0.00038795    0.00686682    0.10030763
     atom    9 type  2   force =    -0.00002188    0.00066542    0.00131659
     atom   10 type  2   force =    -0.00261564   -0.00001399   -0.06337495
     atom   11 type  2   force =     0.00043956   -0.00069327   -0.00028536
     atom   12 type  2   force =    -0.00085340   -0.00113503   -0.00109808
     atom   13 type  1   force =    -0.00029926    0.00071312   -0.00138481
     atom   14 type  1   force =    -0.00033060   -0.00039509   -0.00025764
     atom   15 type  2   force =    -0.00064968   -0.00044640   -0.00063570
     atom   16 type  2   force =     0.00019673    0.00093072   -0.00029952
     atom   17 type  2   force =     0.00075347    0.00007671   -0.00053532
     atom   18 type  2   force =    -0.00020994   -0.00016989   -0.00001582
     atom   19 type  1   force =    -0.00018929   -0.00013927   -0.00096132
     atom   20 type  1   force =     0.00067366    0.00098201   -0.00049826
     atom   21 type  2   force =     0.00006225    0.00015555    0.09780139
     atom   22 type  2   force =     0.00041925   -0.00035306    0.00154015
     atom   23 type  2   force =    -0.08278120    0.00005576   -0.03313625
     atom   24 type  2   force =     0.08272217    0.00050334   -0.03321087
     atom   25 type  1   force =     0.00006651   -0.00035959    0.12646941
     atom   26 type  1   force =    -0.00011308   -0.00149566   -0.15487683
     atom   27 type  2   force =     0.00011367   -0.00046907   -0.06666743
     atom   28 type  2   force =     0.00004851    0.00167508    0.01199079
     atom   29 type  2   force =    -0.00343144    0.00422510   -0.01621125
     atom   30 type  2   force =     0.00505955    0.00456835   -0.01661490
     atom   31 type  1   force =    -0.00015977    0.00217612    0.04255804
     atom   32 type  1   force =     0.00044338   -0.00893219    0.10087645
     atom   33 type  2   force =    -0.00048383   -0.00012446   -0.00038762
     atom   34 type  2   force =    -0.00212722   -0.00026284   -0.07624284
     atom   35 type  2   force =    -0.00010552    0.00070586    0.00085793
     atom   36 type  2   force =    -0.00048860    0.00052443    0.00038350
     atom   37 type  1   force =     0.00043477    0.00060220   -0.00016726
     atom   38 type  1   force =    -0.00041994   -0.00066792   -0.00068192
     atom   39 type  2   force =     0.00044765   -0.00031932   -0.00042528
     atom   40 type  2   force =     0.00036985   -0.00062991    0.00000587
     atom   41 type  2   force =     0.00024992    0.00049947   -0.00001882
     atom   42 type  2   force =    -0.00018936   -0.00016896    0.00014244
     atom   43 type  1   force =     0.00051918    0.00136717   -0.00104391
     atom   44 type  1   force =    -0.00026049   -0.00117077    0.00074837
     atom   45 type  2   force =     0.00009473   -0.00001448    0.09764774
     atom   46 type  2   force =    -0.08282701    0.00003746   -0.03318766
     atom   47 type  2   force =     0.08273424    0.00045519   -0.03319318
     atom   48 type  3   force =    -0.00027090   -0.00059595   -0.00091556
     atom   49 type  3   force =     0.00011818   -0.00003099   -0.00100593
     atom   50 type  4   force =     0.00011139   -0.00291326   -0.00243425
     atom   51 type  5   force =     0.00080388    0.00348194    0.00347951
     atom   52 type  5   force =     0.00015568    0.00129053   -0.00035561
     atom   53 type  5   force =    -0.00009796    0.00049508    0.00050859
     atom   54 type  5   force =    -0.00008337   -0.00005353    0.00004612
     atom   55 type  5   force =     0.00034625    0.00015150    0.00012454
     atom   56 type  5   force =     0.00012469   -0.00004293    0.00018419
     atom   57 type  2   force =    -0.00182014   -0.00056816    0.00039492
     atom   58 type  5   force =     0.00153881    0.00000019    0.00011850

     Total force =     0.420750     Total SCF correction =     0.000717
  @ DRIVER MODE: Message from server: STATUS
  @ DRIVER MODE: Message from server: GETFORCE
  @ DRIVER MODE: Returning v,forces,stress,ensemble

     Writing output data file ./calc.save/
  @ DRIVER MODE: Message from server: EXIT
  @ DRIVE MODE: Exiting

     General routines

     Parallel routines

   This run was terminated on:   0:40:11  23Sep2021

   JOB DONE.