     Program PWSCF v.6.7GPU starts on  9Sep2021 at  0:56:51

     R & G space division:  proc/nbgrp/npool/nimage =      10
     Reading input from /storage/home/hcoda1/3/ntian30/research/carbon/CxH_vib/CH3_calc/ads_slab/CH3NH2NH_c/out_0009/pw.inp
Warning: card &CELL ignored
Warning: card   CELL_DYNAMICS='IPI', ignored
Warning: card / ignored

     Current dimensions of program PWSCF are:
     Max number of different atomic species (ntypx) = 10
     Max number of k-points (npk) =  40000
     Max angular momentum in pseudopotentials (lmaxx) =  3
     Presently no symmetry can be used with electric field

     Message from routine cell_base_init:
     DEPRECATED: use true lattice parameter, not A to a.u. conversion factor

     IMPORTANT: XC functional enforced from input :
     Exchange-correlation= BEEF-VDW
                           (   1   4  43  14   2   0   0)
     Any further DFT definition will be discarded
     Please, verify this is what you really want

  @ DRIVER MODE: Connecting to
 qe_1139763_2767400.sched-torque.pace.gatech.edu8nwimm68_scratch
  using UNIX socket
  @ DRIVER MODE: Message from server: STATUS
  @ DRIVER MODE: Message from server: INIT
  @ DRIVER MODE: Receiving replica           0          -1
  @ DRIVER MODE: Receiving encoded integer          25
  @ DRIVER MODE:  SCF:  T  FORCE:  T  STRESS:  F  VC:  F  ENSEMBLE:  F
  @ DRIVER MODE:  SCF:  T  FORCE:  T  STRESS:  F  VC:  F  ENSEMBLE:  F

     Using Slab Decomposition

     bravais-lattice index     =            0
     lattice parameter (alat)  =       1.8897  a.u.
     unit-cell volume          =    6658.9804 (a.u.)^3
     number of atoms/cell      =           56
     number of atomic types    =            5
     number of electrons       =       398.00
     number of Kohn-Sham states=          209
     kinetic-energy cutoff     =      29.3995  Ry
     charge density cutoff     =     293.9946  Ry
     scf convergence threshold =      7.3E-08
     mixing beta               =       0.0500
     number of iterations used =            8  plain     mixing
     Exchange-correlation= BEEF-VDW
                           (   1   4  43  14   2   0   0)

     celldm(1)=   1.889726  celldm(2)=   0.000000  celldm(3)=   0.000000
     celldm(4)=   0.000000  celldm(5)=   0.000000  celldm(6)=   0.000000

     crystal axes: (cart. coord. in units of alat)
               a(1) = (   6.579727   0.000000   0.000000 )
               a(2) = (  -0.000775   5.961596   0.000000 )
               a(3) = (   0.000000   0.000000  25.155947 )

     reciprocal axes: (cart. coord. in units 2 pi/alat)
               b(1) = (  0.151982  0.000020  0.000000 )
               b(2) = (  0.000000  0.167740  0.000000 )
               b(3) = (  0.000000  0.000000  0.039752 )

     PseudoPot. # 1 for Ti read from file:
     /storage/coda1/p-amedford6/0/shared/rich_project_chbe-medford/medford-share/data/pseudos_module/espresso/nninc/pbe/van/Ti.UPF
     MD5 check sum: 8e4df49b7f0d34bbd5052bf3f5ea0213
     Pseudo is Ultrasoft, Zval = 12.0
     Generated by new atomic code, or converted to UPF format
     Using radial grid of  851 points,  6 beta functions with:
                l(1) =   0
                l(2) =   0
                l(3) =   1
                l(4) =   1
                l(5) =   2
                l(6) =   2
     Q(r) pseudized with  8 coefficients,  rinner =    1.000   1.000   1.000
                                                       1.000   1.000

     PseudoPot. # 2 for O  read from file:
     /storage/coda1/p-amedford6/0/shared/rich_project_chbe-medford/medford-share/data/pseudos_module/espresso/nninc/pbe/van/O.UPF
     MD5 check sum: 78c19812648e8988a0fe644b0f25305e
     Pseudo is Ultrasoft, Zval =  6.0
     Generated by new atomic code, or converted to UPF format
     Using radial grid of  737 points,  4 beta functions with:
                l(1) =   0
                l(2) =   0
                l(3) =   1
                l(4) =   1
     Q(r) pseudized with  8 coefficients,  rinner =    0.800   0.800   0.800

     PseudoPot. # 3 for N  read from file:
     /storage/coda1/p-amedford6/0/shared/rich_project_chbe-medford/medford-share/data/pseudos_module/espresso/nninc/pbe/van/N.UPF
     MD5 check sum: 90d10febe142ad51ac9d5be1deb811c4
     Pseudo is Ultrasoft, Zval =  5.0
     Generated by new atomic code, or converted to UPF format
     Using radial grid of  729 points,  4 beta functions with:
                l(1) =   0
                l(2) =   0
                l(3) =   1
                l(4) =   1
     Q(r) pseudized with  8 coefficients,  rinner =    0.800   0.800   0.800

     PseudoPot. # 4 for C  read from file:
     /storage/coda1/p-amedford6/0/shared/rich_project_chbe-medford/medford-share/data/pseudos_module/espresso/nninc/pbe/van/C.UPF
     MD5 check sum: 1a69bf6b8db32088f5b2163dbdb77a27
     Pseudo is Ultrasoft, Zval =  4.0
     Generated by new atomic code, or converted to UPF format
     Using radial grid of  721 points,  4 beta functions with:
                l(1) =   0
                l(2) =   0
                l(3) =   1
                l(4) =   1
     Q(r) pseudized with  8 coefficients,  rinner =    0.800   0.800   0.800

     PseudoPot. # 5 for H  read from file:
     /storage/coda1/p-amedford6/0/shared/rich_project_chbe-medford/medford-share/data/pseudos_module/espresso/nninc/pbe/van/H.UPF
     MD5 check sum: b5ee9d7bfd3a09ee7748110bda690ff7
     Pseudo is Ultrasoft, Zval =  1.0
     Generated by new atomic code, or converted to UPF format
     Using radial grid of  615 points,  1 beta functions with:
                l(1) =   0
     Q(r) pseudized with  8 coefficients,  rinner =    0.800

     atomic species   valence    mass     pseudopotential
        Ti1           12.00    47.86700     Ti( 1.00)
        O1             6.00    15.99900     O ( 1.00)
        N1             5.00    14.00700     N ( 1.00)
        C1             4.00    12.01100     C ( 1.00)
        H1             1.00     1.00800     H ( 1.00)

     No symmetry found

   Cartesian axes

     site n.     atom                  positions (alat units)
         1           Ti1 tau(   1) = (   0.0004258   2.9801865   6.0000000  )
         2           Ti1 tau(   2) = (   3.2906075   1.4906267   6.0002472  )
         3           O1  tau(   3) = (   0.0006271   0.0005054   7.9858123  )
         4           O1  tau(   4) = (   3.2906025   0.0005020   7.3038282  )
         5           O1  tau(   5) = (   4.5942328   1.4918067   9.2879030  )
         6           O1  tau(   6) = (   1.9868534   1.4903216   9.2879459  )
         7           Ti1 tau(   7) = (   3.2907910   2.8959150   9.1758416  )
         8           Ti1 tau(   8) = (   0.0015273   1.4827037   9.2680791  )
         9           O1  tau(   9) = (   3.3032705   0.0110091  11.3485381  )
        10           O1  tau(  10) = (   0.0116148   5.9584955  10.6183126  )
        11           O1  tau(  11) = (   1.3020657   1.4959176  12.6398190  )
        12           O1  tau(  12) = (   5.2896457   1.4919019  12.6612249  )
        13           Ti1 tau(  13) = (   0.0353884   3.0012823  12.5523301  )
        14           Ti1 tau(  14) = (   3.3275346   1.5008247  12.4978572  )
        15           O1  tau(  15) = (   0.0424128   0.0047235  14.7277795  )
        16           O1  tau(  16) = (   3.2762846   0.0047332  13.9819514  )
        17           O1  tau(  17) = (   4.5591522   1.5298593  16.0930730  )
        18           O1  tau(  18) = (   2.0612242   1.5646392  16.2256692  )
        19           Ti1 tau(  19) = (   3.3170857   3.0293758  15.7013767  )
        20           Ti1 tau(  20) = (   6.5267591   1.5471840  15.7818195  )
        21           O1  tau(  21) = (   3.2904802   0.0005063   4.7018136  )
        22           O1  tau(  22) = (   0.0258072   0.0396315  17.3287798  )
        23           O1  tau(  23) = (   1.3043587   1.4918075   6.0039043  )
        24           O1  tau(  24) = (   5.2767064   1.4903225   6.0039473  )
        25           Ti1 tau(  25) = (   0.0000382   5.9609847   6.0000000  )
        26           Ti1 tau(  26) = (   3.2902200   4.4714249   6.0002472  )
        27           O1  tau(  27) = (   0.0002396   2.9813036   7.9858123  )
        28           O1  tau(  28) = (   3.2902150   2.9813002   7.3038282  )
        29           O1  tau(  29) = (   4.5938453   4.4726049   9.2879030  )
        30           O1  tau(  30) = (   1.9864658   4.4711199   9.2879459  )
        31           Ti1 tau(  31) = (   3.2891106   5.8743827   9.1763621  )
        32           Ti1 tau(  32) = (   0.0006254   4.4649316   9.2693709  )
        33           O1  tau(  33) = (   3.3047253   2.9863606  11.3412877  )
        34           O1  tau(  34) = (   0.0092240   2.9805883  10.6323155  )
        35           O1  tau(  35) = (   1.3023160   4.4818153  12.6295520  )
        36           O1  tau(  36) = (   5.2910779   4.4839738  12.6480862  )
        37           Ti1 tau(  37) = (   0.0306270   0.0097343  12.5156175  )
        38           Ti1 tau(  38) = (   3.3295341   4.4791655  12.4867326  )
        39           O1  tau(  39) = (   0.0319336   2.9935560  14.7343221  )
        40           O1  tau(  40) = (   3.2835893   3.0037955  13.9224844  )
        41           O1  tau(  41) = (   4.5669158   4.4809188  16.1713821  )
        42           O1  tau(  42) = (   2.0542530   4.4668402  16.2247519  )
        43           Ti1 tau(  43) = (   3.3000170   0.0150779  15.7669526  )
        44           Ti1 tau(  44) = (   0.0416703   4.6955124  16.1636639  )
        45           O1  tau(  45) = (   3.2900926   2.9813045   4.7018136  )
        46           O1  tau(  46) = (   1.3039711   4.4726057   6.0039043  )
        47           O1  tau(  47) = (   5.2763189   4.4711207   6.0039473  )
        48           N1  tau(  48) = (   0.9019483   2.4226080  18.4567899  )
        49           N1  tau(  49) = (   6.4923839   2.9053054  17.5348467  )
        50           C1  tau(  50) = (   1.2734633   3.3482217  19.5544901  )
        51           H1  tau(  51) = (   0.3921683   3.5464126  20.1615046  )
        52           H1  tau(  52) = (   2.0553077   2.8833093  20.1573268  )
        53           H1  tau(  53) = (   1.6239766   4.2728770  19.1044814  )
        54           H1  tau(  54) = (   0.5870980   1.4942747  18.7832689  )
        55           H1  tau(  55) = (   5.5983569   2.8486818  18.0159164  )
        56           H1  tau(  56) = (   1.7025450   2.1792920  17.8234971  )

     number of k points=    10  Fermi-Dirac smearing, width (Ry)=  0.0073
                       cart. coord. in units 2pi/alat
        k(    1) = (   0.0000000   0.0000000   0.0000000), wk =   0.1250000
        k(    2) = (   0.0000000   0.0419351   0.0000000), wk =   0.2500000
        k(    3) = (   0.0000000  -0.0838702   0.0000000), wk =   0.1250000
        k(    4) = (   0.0379955   0.0000049   0.0000000), wk =   0.2500000
        k(    5) = (   0.0379955   0.0419400   0.0000000), wk =   0.2500000
        k(    6) = (   0.0379955  -0.0838652   0.0000000), wk =   0.2500000
        k(    7) = (   0.0379955  -0.0419301   0.0000000), wk =   0.2500000
        k(    8) = (  -0.0759910  -0.0000099   0.0000000), wk =   0.1250000
        k(    9) = (  -0.0759910   0.0419252   0.0000000), wk =   0.2500000
        k(   10) = (  -0.0759910  -0.0838800   0.0000000), wk =   0.1250000

     Initial potential from superposition of free atoms

     starting charge  381.99914, renormalised to  398.00000

     negative rho (up, down):  1.484E-02 0.000E+00

     %%%%%%%%%%%%%%%%%%%%%%%%%%%%%%%%%%%%%%%%%%%%%%%%%%%%%%%%%%%%%%%%%%%%%%%%
     %                                                                      %
     % You are using vdW-DF, which was implemented by the Thonhauser group. %
     % Please cite the following two papers that made this development      %
     % possible and the two reviews that describe the various versions:     %
     %                                                                      %
     %   T. Thonhauser et al., PRL 115, 136402 (2015).                      %
     %   T. Thonhauser et al., PRB 76, 125112 (2007).                       %
     %   K. Berland et al., Rep. Prog. Phys. 78, 066501 (2015).             %
     %   D.C. Langreth et al., J. Phys.: Condens. Matter 21, 084203 (2009). %
     %                                                                      %
     %                                                                      %
     % If you are calculating the stress with vdW-DF, please also cite:     %
     %                                                                      %
     %   R. Sabatini et al., J. Phys.: Condens. Matter 24, 424209 (2012).   %
     %                                                                      %
     %%%%%%%%%%%%%%%%%%%%%%%%%%%%%%%%%%%%%%%%%%%%%%%%%%%%%%%%%%%%%%%%%%%%%%%%

     Adding external electric field

     Computed dipole along edir(3) :
        Dipole              -10.9106 Ry au,        -27.7320 Debye
        Dipole field         -0.0206 Ry au,

        Potential amp.        1.9086 Ry
        Total length         46.3494 bohr

     Starting wfcs are  302 atomic wfcs
  @ DRIVER MODE: Message from server: STATUS
  @ DRIVER MODE: Message from server: POSDATA
  @ DRIVER MODE: Reading and sharing cell
  @ DRIVER MODE: Reading and sharing positions
  @ DRIVER MODE: Received positions

     Self-consistent Calculation

     iteration #  1     ecut=    29.40 Ry     beta= 0.05
     Davidson diagonalization with overlap
     c_bands:  5 eigenvalues not converged
     c_bands:  3 eigenvalues not converged
     c_bands:  1 eigenvalues not converged
     c_bands:  2 eigenvalues not converged
     c_bands:  3 eigenvalues not converged
     c_bands:  4 eigenvalues not converged
     c_bands:  4 eigenvalues not converged
     ethr =  1.00E-05,  avg # of iterations = 24.4

[...]

     total energy              =   -2445.35312893 Ry
     estimated scf accuracy    <    5568.59345205 Ry

     iteration #  2     ecut=    29.40 Ry     beta= 0.05
     Davidson diagonalization with overlap
     ethr =  1.00E-02,  avg # of iterations = 22.4

[...]

     iteration # 69     ecut=    29.40 Ry     beta= 0.05
     Davidson diagonalization with overlap
     ethr =  1.23E-10,  avg # of iterations =  7.5

[...]

     total energy              =   -2942.84148898 Ry
     estimated scf accuracy    <       0.00000009 Ry

     iteration # 73     ecut=    29.40 Ry     beta= 0.05
     Davidson diagonalization with overlap
     c_bands:  1 eigenvalues not converged
     c_bands:  1 eigenvalues not converged
     ethr =  2.18E-11,  avg # of iterations = 13.8

     negative rho (up, down):  1.046E-02 0.000E+00

     Adding external electric field

     Computed dipole along edir(3) :
        Dipole                1.5767 Ry au,          4.0076 Debye
        Dipole field          0.0030 Ry au,

        Potential amp.       -0.2758 Ry
        Total length         46.3494 bohr

     End of self-consistent calculation

          k = 0.0000 0.0000 0.0000 ( 18029 PWs)   bands (ev):

   -55.0912 -55.0556 -55.0521 -55.0215 -54.9686 -54.9661 -54.9286 -54.8916
   -54.8833 -54.8693 -54.8559 -54.8511 -54.8031 -54.7606 -54.0657 -54.0317
   -31.6652 -31.5450 -31.4555 -31.4256 -31.3865 -31.3820 -31.3803 -31.3506
   -31.3476 -31.3458 -31.3030 -31.3008 -31.3004 -31.2657 -31.2476 -31.2280
   -31.2081 -31.2046 -31.1952 -31.1935 -31.1666 -31.1497 -31.1481 -31.1219
   -31.1123 -31.0987 -31.0955 -31.0935 -31.0900 -31.0770 -31.0722 -31.0646
   -31.0522 -31.0415 -31.0218 -31.0150 -31.0073 -31.0018 -30.9973 -30.9913
   -30.9887 -30.9524 -30.4741 -30.3823 -30.3601 -30.2907 -30.2040 -30.0929
   -19.1880 -15.9341 -15.6596 -15.5369 -15.3263 -15.2767 -15.2037 -15.0085
   -14.9440 -14.8879 -14.8775 -14.8661 -14.8491 -14.7779 -14.6988 -14.6182
   -14.6155 -14.6090 -14.5983 -14.5803 -14.5730 -14.5104 -14.5032 -14.4712
   -14.4592 -14.4192 -14.3121 -14.2302 -14.1733 -14.0232 -13.3382 -12.5683
   -12.4513 -11.1077  -7.8877  -6.5556  -5.8899  -4.1183  -3.9501  -3.2791
    -3.0937  -3.0701  -3.0094  -2.9841  -2.8090  -2.7600  -2.5502  -2.4483
    -2.3610  -2.3221  -2.3095  -2.2931  -2.1430  -2.0749  -2.0407  -1.9943
    -1.9700  -1.9471  -1.9055  -1.8980  -1.8672  -1.8493  -1.8411  -1.6628
    -1.5871  -1.5358  -1.5090  -1.4712  -1.4219  -1.3956  -1.3747  -1.3702
    -1.3649  -1.3459  -1.3146  -1.2532  -1.2207  -1.1699  -1.0999  -1.0738
    -0.9845  -0.9027  -0.7145  -0.6693  -0.6515  -0.6152  -0.5551  -0.5070
    -0.4719  -0.4371  -0.4228  -0.3580  -0.2874  -0.2554  -0.1924  -0.1283
    -0.1174  -0.0547  -0.0474   0.1143   0.1259   0.1473   0.2377   0.3248
     0.3726   0.3805   0.4392   0.5130   0.5349   0.5448   0.5816   0.6022
     0.6783   0.7876   0.8123   0.8535   0.8655   0.8991   0.9213   0.9771
     1.0009   1.0636   1.0696   1.1737   1.2232   1.2556   1.5058   1.5389
     1.8694   1.9028   1.9568   2.1435   2.5306   2.5777   4.0172   4.0797
     4.0926   4.1427   4.1660   4.1850   4.2571   4.4779   4.5030   4.5093
     4.5167

[...]

          k = 0.0380-0.0419 0.0000 ( 17876 PWs)   bands (ev):

[...]

          k =-0.0760-0.0000 0.0000 ( 17886 PWs)   bands (ev):

[...]

          k =-0.0760-0.0839 0.0000 ( 17948 PWs)   bands (ev):

   -55.0791 -55.0639 -55.0385 -55.0385 -54.9655 -54.9550 -54.9396 -54.8746
   -54.8721 -54.8710 -54.8692 -54.8669 -54.7967 -54.7670 -54.0487 -54.0486
   -31.4729 -31.4632 -31.4006 -31.3602 -31.3602 -31.3591 -31.3313 -31.3311
   -31.3003 -31.2962 -31.2914 -31.2853 -31.2598 -31.2256 -31.2184 -31.2123
   -31.2102 -31.2064 -31.2057 -31.1969 -31.1648 -31.1637 -31.1601 -31.1577
   -31.1576 -31.1551 -31.1505 -31.1342 -31.1085 -31.1048 -31.0992 -31.0896
   -31.0877 -31.0857 -31.0846 -31.0686 -31.0502 -31.0489 -31.0368 -31.0312
   -31.0086 -30.9931 -30.3729 -30.3728 -30.2867 -30.2866 -30.2475 -30.2473
   -19.1841 -15.4173 -15.3269 -15.1788 -15.1590 -15.1100 -15.0618 -15.0454
   -15.0280 -14.9719 -14.9326 -14.8866 -14.8379 -14.7946 -14.7924 -14.7542
   -14.6819 -14.6604 -14.6583 -14.6438 -14.5928 -14.5821 -14.5546 -14.5358
   -14.5307 -14.4876 -14.4279 -14.4243 -14.3848 -14.2075 -13.3484 -12.5529
   -12.5528 -11.1103  -7.8979  -6.5393  -5.8789  -4.0900  -3.9436  -2.6862
    -2.5869  -2.5204  -2.4203  -2.3335  -2.2932  -2.2584  -2.1239  -2.1045
    -2.0856  -2.0599  -2.0468  -2.0126  -2.0049  -1.9567  -1.9280  -1.9176
    -1.9111  -1.8981  -1.8760  -1.8288  -1.8052  -1.7959  -1.7865  -1.7479
    -1.7340  -1.7019  -1.6960  -1.6571  -1.6357  -1.5499  -1.4615  -1.4218
    -1.3710  -1.3063  -1.2720  -1.2652  -1.1722  -1.1638  -1.1405  -1.1073
    -1.0609  -0.9416  -0.8845  -0.8202  -0.8172  -0.8026  -0.6972  -0.6600
    -0.6305  -0.5941  -0.5594  -0.5262  -0.4871  -0.4414  -0.3653  -0.3347
    -0.2939  -0.2577  -0.1858  -0.0988  -0.0784  -0.0472  -0.0430   0.0452
     0.0676   0.1056   0.1156   0.1348   0.1913   0.2043   0.2915   0.3818
     0.4468   0.5340   0.6476   0.6520   0.7288   0.8223   0.9094   0.9473
     0.9985   1.0645   1.0687   1.1008   1.2217   1.2289   1.3504   1.3892
     1.3980   1.4204   2.3158   2.3168   2.3979   2.3979   4.1461   4.2438
     4.2827   4.3239   4.3761   4.5213   4.5445   4.5900   4.5905   4.6611
     4.6744

     the Fermi energy is     4.0635 ev

!    total energy              =   -2942.84151449 Ry
     estimated scf accuracy    <       0.00000005 Ry
     smearing contrib. (-TS)   =      -0.03725091 Ry
     internal energy E=F+TS    =   -2942.80426357 Ry

     The total energy is F=E-TS. E is the sum of the following terms:
     one-electron contribution =  -23856.58493302 Ry
     hartree contribution      =   12023.62033207 Ry
     xc contribution           =    -487.75838581 Ry
     ewald contribution        =    9377.91403167 Ry
     electric field correction =       0.00469153 Ry

     convergence has been achieved in  73 iterations

     Forces acting on atoms (cartesian axes, Ry/au):

     atom    1 type  1   force =     0.00003081   -0.00022973    0.09434544
     atom    2 type  1   force =    -0.00016131   -0.00054616   -0.17708297
     atom    3 type  2   force =     0.00001716   -0.00024467   -0.02146391
     atom    4 type  2   force =    -0.00001496   -0.00166896    0.05641373
     atom    5 type  2   force =    -0.01049314   -0.00075399    0.00561640
     atom    6 type  2   force =     0.01225830   -0.00009914    0.00550976
     atom    7 type  1   force =    -0.00024069    0.00106990   -0.01571912
     atom    8 type  1   force =    -0.00006727    0.00524294    0.00654231
     atom    9 type  2   force =    -0.00030603    0.00055514    0.00022354
     atom   10 type  2   force =    -0.00199686    0.00266249   -0.00435201
     atom   11 type  2   force =     0.00040708   -0.00023534    0.00028199
     atom   12 type  2   force =    -0.00008677   -0.00030302   -0.00019272
     atom   13 type  1   force =    -0.00073705    0.00045029   -0.00002795
     atom   14 type  1   force =     0.00037683   -0.00016417    0.00002088
     atom   15 type  2   force =    -0.00014826   -0.00115725   -0.00023863
     atom   16 type  2   force =     0.00004667    0.00036561   -0.00030537
     atom   17 type  2   force =     0.00062919    0.00016540    0.00027239
     atom   18 type  2   force =    -0.00010206    0.00008434   -0.00010822
     atom   19 type  1   force =     0.00032139    0.00067810    0.00033897
     atom   20 type  1   force =    -0.00048229    0.00008899    0.00057830
     atom   21 type  2   force =    -0.00002251   -0.00011130    0.10367055
     atom   22 type  2   force =     0.00022817   -0.00079922    0.00055150
     atom   23 type  2   force =    -0.07090510   -0.00021870   -0.02720152
     atom   24 type  2   force =     0.07070280    0.00023288   -0.02724778
     atom   25 type  1   force =     0.00002703   -0.00026573    0.09400462
     atom   26 type  1   force =    -0.00024719   -0.00055370   -0.17735440
     atom   27 type  2   force =     0.00005627   -0.00008602   -0.02059241
     atom   28 type  2   force =     0.00002557   -0.00137420    0.05570696
     atom   29 type  2   force =    -0.01079992   -0.00000444    0.00591321
     atom   30 type  2   force =     0.01248852    0.00028208    0.00576619
     atom   31 type  1   force =    -0.00016840    0.00516945   -0.01630982
     atom   32 type  1   force =    -0.00009256   -0.00626029    0.00667769
     atom   33 type  2   force =    -0.00009770   -0.00047646    0.00025100
     atom   34 type  2   force =    -0.00163454    0.00066476   -0.00776539
     atom   35 type  2   force =    -0.00031782    0.00006393    0.00041715
     atom   36 type  2   force =     0.00056446    0.00006370   -0.00007573
     atom   37 type  1   force =    -0.00083174   -0.00079589   -0.00013004
     atom   38 type  1   force =     0.00048554    0.00001451    0.00042041
     atom   39 type  2   force =    -0.00030091   -0.00007390    0.00055557
     atom   40 type  2   force =    -0.00005710   -0.00018512   -0.00021881
     atom   41 type  2   force =     0.00021344   -0.00051122    0.00039316
     atom   42 type  2   force =    -0.00029795   -0.00031360    0.00059916
     atom   43 type  1   force =     0.00004773   -0.00059536   -0.00018638
     atom   44 type  1   force =     0.00013550    0.00010996    0.00035721
     atom   45 type  2   force =    -0.00002082   -0.00011723    0.10365508
     atom   46 type  2   force =    -0.07091565   -0.00013594   -0.02717086
     atom   47 type  2   force =     0.07071713    0.00028608   -0.02724105
     atom   48 type  3   force =     0.00038835   -0.00221705    0.00158869
     atom   49 type  3   force =    -0.00039057    0.00506539   -0.00215538
     atom   50 type  4   force =     0.00031555    0.00048597   -0.00038199
     atom   51 type  5   force =     0.00019543   -0.00053251    0.00069703
     atom   52 type  5   force =    -0.00050246    0.00033462   -0.00007588
     atom   53 type  5   force =     0.00042603   -0.00037245    0.00026569
     atom   54 type  5   force =     0.00122562   -0.00066375    0.00086029
     atom   55 type  5   force =    -0.00067838   -0.00123210    0.00102263
     atom   56 type  5   force =     0.00078749   -0.00083792    0.00008085

     Total force =     0.365717     Total SCF correction =     0.000754
  @ DRIVER MODE: Message from server: STATUS
  @ DRIVER MODE: Message from server: GETFORCE
  @ DRIVER MODE: Returning v,forces,stress,ensemble

     Writing output data file ./calc.save/
  @ DRIVER MODE: Message from server: EXIT
  @ DRIVE MODE: Exiting

     General routines

     Parallel routines

   This run was terminated on:   1:16:10   9Sep2021

   JOB DONE.