     Program PWSCF v.6.7GPU starts on 19Oct2021 at  2:51:36

     R & G space division:  proc/nbgrp/npool/nimage =       8
     Reading input from /storage/home/hcoda1/3/ntian30/research/carbon/CxH_vib/Thiel_calc/ads_slab/NH2NH2_perslab/out_0035/pw.inp
Warning: card &CELL ignored
Warning: card   CELL_DYNAMICS='IPI', ignored
Warning: card / ignored

     Current dimensions of program PWSCF are:
     Max number of different atomic species (ntypx) = 10
     Max number of k-points (npk) =  40000
     Max angular momentum in pseudopotentials (lmaxx) =  3
     Presently no symmetry can be used with electric field

     Message from routine cell_base_init:
     DEPRECATED: use true lattice parameter, not A to a.u. conversion factor

     IMPORTANT: XC functional enforced from input :
     Exchange-correlation= BEEF-VDW
                           (   1   4  43  14   2   0   0)
     Any further DFT definition will be discarded
     Please, verify this is what you really want

  @ DRIVER MODE: Connecting to
 qe_1139763_3255136.sched-torque.pace.gatech.eduoqumk4i2_scratch
  using UNIX socket
  @ DRIVER MODE: Message from server: STATUS
  @ DRIVER MODE: Message from server: INIT
  @ DRIVER MODE: Receiving replica           0          -1
  @ DRIVER MODE: Receiving encoded integer          25
  @ DRIVER MODE:  SCF:  T  FORCE:  T  STRESS:  F  VC:  F  ENSEMBLE:  F
  @ DRIVER MODE:  SCF:  T  FORCE:  T  STRESS:  F  VC:  F  ENSEMBLE:  F

     Using Slab Decomposition

     bravais-lattice index     =            0
     lattice parameter (alat)  =       1.8897  a.u.
     unit-cell volume          =    9988.4706 (a.u.)^3
     number of atoms/cell      =           59
     number of atomic types    =            4
     number of electrons       =       440.00
     number of Kohn-Sham states=          230
     kinetic-energy cutoff     =      29.3995  Ry
     charge density cutoff     =     293.9946  Ry
     scf convergence threshold =      7.3E-08
     mixing beta               =       0.0500
     number of iterations used =            8  plain     mixing
     Exchange-correlation= BEEF-VDW
                           (   1   4  43  14   2   0   0)

     celldm(1)=   1.889726  celldm(2)=   0.000000  celldm(3)=   0.000000
     celldm(4)=   0.000000  celldm(5)=   0.000000  celldm(6)=   0.000000

     crystal axes: (cart. coord. in units of alat)
               a(1) = (   6.579727   0.000000   0.000000 )
               a(2) = (  -0.001163   8.942395   0.000000 )
               a(3) = (   0.000000   0.000000  25.155947 )

     reciprocal axes: (cart. coord. in units 2 pi/alat)
               b(1) = (  0.151982  0.000020  0.000000 )
               b(2) = (  0.000000  0.111827  0.000000 )
               b(3) = (  0.000000  0.000000  0.039752 )

     PseudoPot. # 1 for O  read from file:
     /storage/coda1/p-amedford6/0/shared/rich_project_chbe-medford/medford-share/data/pseudos_module/espresso/nninc/pbe/van/O.UPF
     MD5 check sum: 78c19812648e8988a0fe644b0f25305e
     Pseudo is Ultrasoft, Zval =  6.0
     Generated by new atomic code, or converted to UPF format
     Using radial grid of  737 points,  4 beta functions with:
                l(1) =   0
                l(2) =   0
                l(3) =   1
                l(4) =   1
     Q(r) pseudized with  8 coefficients,  rinner =    0.800   0.800   0.800

     PseudoPot. # 2 for Ti read from file:
     /storage/coda1/p-amedford6/0/shared/rich_project_chbe-medford/medford-share/data/pseudos_module/espresso/nninc/pbe/van/Ti.UPF
     MD5 check sum: 8e4df49b7f0d34bbd5052bf3f5ea0213
     Pseudo is Ultrasoft, Zval = 12.0
     Generated by new atomic code, or converted to UPF format
     Using radial grid of  851 points,  6 beta functions with:
                l(1) =   0
                l(2) =   0
                l(3) =   1
                l(4) =   1
                l(5) =   2
                l(6) =   2
     Q(r) pseudized with  8 coefficients,  rinner =    1.000   1.000   1.000
                                                       1.000   1.000

     PseudoPot. # 3 for N  read from file:
     /storage/coda1/p-amedford6/0/shared/rich_project_chbe-medford/medford-share/data/pseudos_module/espresso/nninc/pbe/van/N.UPF
     MD5 check sum: 90d10febe142ad51ac9d5be1deb811c4
     Pseudo is Ultrasoft, Zval =  5.0
     Generated by new atomic code, or converted to UPF format
     Using radial grid of  729 points,  4 beta functions with:
                l(1) =   0
                l(2) =   0
                l(3) =   1
                l(4) =   1
     Q(r) pseudized with  8 coefficients,  rinner =    0.800   0.800   0.800

     PseudoPot. # 4 for H  read from file:
     /storage/coda1/p-amedford6/0/shared/rich_project_chbe-medford/medford-share/data/pseudos_module/espresso/nninc/pbe/van/H.UPF
     MD5 check sum: b5ee9d7bfd3a09ee7748110bda690ff7
     Pseudo is Ultrasoft, Zval =  1.0
     Generated by new atomic code, or converted to UPF format
     Using radial grid of  615 points,  1 beta functions with:
                l(1) =   0
     Q(r) pseudized with  8 coefficients,  rinner =    0.800

     atomic species   valence    mass     pseudopotential
        O1             6.00    15.99900     O ( 1.00)
        Ti1           12.00    47.86700     Ti( 1.00)
        N1             5.00    14.00700     N ( 1.00)
        H1             1.00     1.00800     H ( 1.00)

     No symmetry found

   Cartesian axes

     site n.     atom                  positions (alat units)
         1           O1  tau(   1) = (   0.0007354   0.0005023  10.5931620  )
         2           O1  tau(   2) = (   3.2892726   8.9022636  13.7900476  )
         3           O1  tau(   3) = (  -0.0000012   0.0159539  17.0845323  )
         4           O1  tau(   4) = (   0.0006271   0.0005054   7.9858123  )
         5           O1  tau(   5) = (   3.2903981   0.0001071  11.1466942  )
         6           O1  tau(   6) = (   6.5796972   0.0370899  14.4522764  )
         7           O1  tau(   7) = (   1.9868534   1.4903216   9.2879459  )
         8           O1  tau(   8) = (   5.2071659   1.5879261  12.5336177  )
         9           O1  tau(   9) = (   2.0150580   1.5800225  15.9505780  )
        10           Ti1 tau(  10) = (   0.0007404   1.4906270   9.2895810  )
        11           Ti1 tau(  11) = (   3.2907621   1.2831726  12.4565622  )
        12           Ti1 tau(  12) = (   6.5792216   1.1939559  15.8009323  )
        13           O1  tau(  13) = (   4.5942328   1.4918067   9.2879030  )
        14           O1  tau(  14) = (   1.3733293   1.5875306  12.5337771  )
        15           O1  tau(  15) = (   4.5635363   1.5794237  15.9511286  )
        16           Ti1 tau(  16) = (   3.2902859   2.9801868   9.2893338  )
        17           Ti1 tau(  17) = (   0.0006963   2.7899128  12.4910476  )
        18           Ti1 tau(  18) = (   3.2889055   2.8853182  15.6510148  )
        19           O1  tau(  19) = (   0.0003479   2.9813005  10.5931620  )
        20           O1  tau(  20) = (   3.2901137   2.9323735  13.8075185  )
        21           O1  tau(  21) = (   0.0002396   2.9813036   7.9858123  )
        22           O1  tau(  22) = (   3.2901566   2.9796509  11.1657827  )
        23           O1  tau(  23) = (  -0.0001005   3.0518452  14.6148139  )
        24           O1  tau(  24) = (   1.9864658   4.4711199   9.2879459  )
        25           O1  tau(  25) = (   5.2244327   4.5330399  12.5550231  )
        26           O1  tau(  26) = (   2.0317078   4.4891842  16.0144209  )
        27           Ti1 tau(  27) = (   0.0003529   4.4714252   9.2895810  )
        28           Ti1 tau(  28) = (   3.2908221   4.3047718  12.5439168  )
        29           Ti1 tau(  29) = (   0.0007318   4.2809743  15.9563396  )
        30           O1  tau(  30) = (   4.5938453   4.4726049   9.2879030  )
        31           O1  tau(  31) = (   1.3553747   4.5324408  12.5551093  )
        32           O1  tau(  32) = (   4.5484712   4.4888783  16.0159471  )
        33           Ti1 tau(  33) = (   3.2898983   5.9609850   9.2893338  )
        34           Ti1 tau(  34) = (   0.0004637   5.7541984  12.5654138  )
        35           Ti1 tau(  35) = (   3.2913524   5.8154114  16.2798070  )
        36           O1  tau(  36) = (  -0.0000397   5.9620987  10.5931620  )
        37           O1  tau(  37) = (   3.2897947   5.8994426  13.7907643  )
        38           O1  tau(  38) = (   0.0001798   5.9238570  17.1594641  )
        39           O1  tau(  39) = (  -0.0001480   5.9621018   7.9858123  )
        40           O1  tau(  40) = (   3.2896433   5.9245955  11.1661191  )
        41           O1  tau(  41) = (   0.0000838   5.9808129  14.5563373  )
        42           O1  tau(  42) = (   1.9860782   7.4519181   9.2879459  )
        43           O1  tau(  43) = (   5.2244350   7.5051086  12.5363475  )
        44           O1  tau(  44) = (   2.0177701   7.5673364  15.9764862  )
        45           Ti1 tau(  45) = (  -0.0000347   7.4522234   9.2895810  )
        46           Ti1 tau(  46) = (   3.2896674   7.1828241  12.5854878  )
        47           Ti1 tau(  47) = (   0.0003403   7.2137487  16.0183084  )
        48           O1  tau(  48) = (   4.5934577   7.4534031   9.2879030  )
        49           O1  tau(  49) = (   1.3543201   7.5047529  12.5365769  )
        50           O1  tau(  50) = (   4.5609347   7.5656990  15.9757490  )
        51           Ti1 tau(  51) = (   3.2895107   8.9417832   9.2893338  )
        52           Ti1 tau(  52) = (  -0.0005834   8.7067995  12.4790564  )
        53           Ti1 tau(  53) = (   3.2900135   8.8028796  15.6464995  )
        54           N1  tau(  54) = (   3.2900669   5.9334594  18.1702238  )
        55           H1  tau(  55) = (   3.2900466   5.1481598  18.8081281  )
        56           H1  tau(  56) = (   3.2872703   6.8047138  18.6863891  )
        57           N1  tau(  57) = (   0.0002662   3.1405291  17.5522950  )
        58           H1  tau(  58) = (   0.0007553   2.2326612  18.0099153  )
        59           H1  tau(  59) = (   6.5771877   3.8386968  18.2841669  )

     number of k points=    10  Fermi-Dirac smearing, width (Ry)=  0.0073
                       cart. coord. in units 2pi/alat
        k(    1) = (   0.0000000   0.0000000   0.0000000), wk =   0.1250000
        k(    2) = (   0.0000000   0.0279567   0.0000000), wk =   0.2500000
        k(    3) = (   0.0000000  -0.0559134   0.0000000), wk =   0.1250000
        k(    4) = (   0.0379955   0.0000049   0.0000000), wk =   0.2500000
        k(    5) = (   0.0379955   0.0279617   0.0000000), wk =   0.2500000
        k(    6) = (   0.0379955  -0.0559085   0.0000000), wk =   0.2500000
        k(    7) = (   0.0379955  -0.0279518   0.0000000), wk =   0.2500000
        k(    8) = (  -0.0759910  -0.0000099   0.0000000), wk =   0.1250000
        k(    9) = (  -0.0759910   0.0279468   0.0000000), wk =   0.2500000
        k(   10) = (  -0.0759910  -0.0559233   0.0000000), wk =   0.1250000

     Initial potential from superposition of free atoms

     starting charge  421.99910, renormalised to  440.00000

     negative rho (up, down):  3.742E-02 0.000E+00

     %%%%%%%%%%%%%%%%%%%%%%%%%%%%%%%%%%%%%%%%%%%%%%%%%%%%%%%%%%%%%%%%%%%%%%%%
     %                                                                      %
     % You are using vdW-DF, which was implemented by the Thonhauser group. %
     % Please cite the following two papers that made this development      %
     % possible and the two reviews that describe the various versions:     %
     %                                                                      %
     %   T. Thonhauser et al., PRL 115, 136402 (2015).                      %
     %   T. Thonhauser et al., PRB 76, 125112 (2007).                       %
     %   K. Berland et al., Rep. Prog. Phys. 78, 066501 (2015).             %
     %   D.C. Langreth et al., J. Phys.: Condens. Matter 21, 084203 (2009). %
     %                                                                      %
     %                                                                      %
     % If you are calculating the stress with vdW-DF, please also cite:     %
     %                                                                      %
     %   R. Sabatini et al., J. Phys.: Condens. Matter 24, 424209 (2012).   %
     %                                                                      %
     %%%%%%%%%%%%%%%%%%%%%%%%%%%%%%%%%%%%%%%%%%%%%%%%%%%%%%%%%%%%%%%%%%%%%%%%

     Adding external electric field

     Computed dipole along edir(3) :
        Dipole               -3.9759 Ry au,        -10.1058 Debye
        Dipole field         -0.0050 Ry au,

        Potential amp.        0.4637 Ry
        Total length         46.3494 bohr

     Starting wfcs are  332 atomic wfcs
  @ DRIVER MODE: Message from server: STATUS
  @ DRIVER MODE: Message from server: POSDATA
  @ DRIVER MODE: Reading and sharing cell
  @ DRIVER MODE: Reading and sharing positions
  @ DRIVER MODE: Received positions

     Self-consistent Calculation

     iteration #  1     ecut=    29.40 Ry     beta= 0.05
     Davidson diagonalization with overlap
     c_bands:  1 eigenvalues not converged
     c_bands:  2 eigenvalues not converged
     c_bands:  3 eigenvalues not converged
     c_bands:  4 eigenvalues not converged
     c_bands:  1 eigenvalues not converged
     c_bands:  4 eigenvalues not converged
     c_bands:  4 eigenvalues not converged
     c_bands:  3 eigenvalues not converged
     c_bands:  3 eigenvalues not converged
     ethr =  1.00E-05,  avg # of iterations = 19.2

[...]

     total energy              =   -3293.83404402 Ry
     estimated scf accuracy    <      27.75963799 Ry

     iteration #  2     ecut=    29.40 Ry     beta= 0.05
     Davidson diagonalization with overlap
     ethr =  6.31E-03,  avg # of iterations =  1.0

[...]

     iteration # 32     ecut=    29.40 Ry     beta= 0.05
     Davidson diagonalization with overlap
     c_bands:  1 eigenvalues not converged
     ethr =  1.67E-07,  avg # of iterations =  9.6

[...]

     total energy              =   -3293.29553177 Ry
     estimated scf accuracy    <       0.00000010 Ry

     iteration # 58     ecut=    29.40 Ry     beta= 0.05
     Davidson diagonalization with overlap
     ethr =  2.17E-11,  avg # of iterations =  5.0

     negative rho (up, down):  3.611E-02 0.000E+00

     Adding external electric field

     Computed dipole along edir(3) :
        Dipole                0.9473 Ry au,          2.4078 Debye
        Dipole field          0.0012 Ry au,

        Potential amp.       -0.1105 Ry
        Total length         46.3494 bohr

     End of self-consistent calculation

          k = 0.0000 0.0000 0.0000 ( 26871 PWs)   bands (ev):

   -58.4706 -58.4471 -58.4412 -58.4035 -58.3586 -58.0060 -57.9670 -57.9640
   -57.8798 -57.7600 -57.6869 -57.5736 -57.4764 -57.2242 -57.1442 -57.0735
   -57.0333 -57.0204 -34.8713 -34.8359 -34.8087 -34.7922 -34.7889 -34.7825
   -34.7338 -34.6733 -34.6462 -34.5955 -34.5830 -34.5803 -34.5745 -34.5528
   -34.5075 -34.4077 -34.3719 -34.3466 -34.3231 -34.3188 -34.2745 -34.2415
   -34.2293 -34.2249 -34.1902 -34.1874 -34.1546 -34.0574 -34.0462 -33.9876
   -33.9839 -33.9552 -33.8993 -33.8838 -33.8647 -33.8057 -33.7418 -33.7271
   -33.6864 -33.6733 -33.5828 -33.4628 -33.4486 -33.4179 -33.4169 -33.3812
   -33.3754 -33.3710 -33.3563 -33.3456 -33.2774 -33.2129 -33.1917 -33.0717
   -19.0228 -18.5595 -18.5009 -18.3513 -18.3023 -18.2821 -18.2759 -18.1251
   -17.9084 -17.8630 -17.8486 -17.8275 -17.7447 -17.7245 -17.7086 -17.6868
   -17.6716 -17.6508 -17.5623 -17.5566 -17.5356 -17.5112 -17.4912 -17.4365
   -17.3769 -17.3553 -17.2676 -17.1924 -17.1522 -16.9294 -16.6735 -16.5928
   -15.5392 -15.4980 -15.4896 -15.3017 -15.1464  -6.7906  -6.5963  -6.3576
    -6.1633  -5.9511  -5.8151  -5.6974  -5.6441  -5.5628  -5.4969  -5.4592
    -5.4571  -5.3965  -5.3497  -5.2557  -5.2495  -5.1575  -5.1078  -5.0916
    -5.0622  -5.0129  -4.9673  -4.9218  -4.9063  -4.8453  -4.8015  -4.7912
    -4.7415  -4.6802  -4.6762  -4.6555  -4.6537  -4.6194  -4.5841  -4.4644
    -4.4612  -4.4163  -4.3528  -4.3014  -4.2641  -4.2237  -4.1904  -4.1899
    -4.1733  -4.1284  -4.0942  -3.9207  -3.8678  -3.8308  -3.7986  -3.7192
    -3.6528  -3.5957  -3.5606  -3.5167  -3.4289  -3.3599  -3.3523  -3.3434
    -3.2771  -3.2338  -3.1963  -3.1646  -3.1465  -3.0835  -3.0306  -3.0304
    -2.9886  -2.9724  -2.9582  -2.9126  -2.8582  -2.8343  -2.8327  -2.7928
    -2.7860  -2.7436  -2.6463  -2.6168  -2.5562  -2.5180  -2.4632  -2.4153
    -2.4101  -2.3745  -2.3371  -2.2686  -2.1766  -2.1264  -1.9957  -1.9905
    -1.9131  -1.9028  -1.8362  -1.8076  -1.7915  -1.7448  -1.7172  -1.6034
    -1.5277  -1.4087  -1.1950  -0.9910  -0.8461  -0.7659  -0.7514  -0.7073
    -0.5683  -0.5493  -0.4646  -0.4526   0.8053   0.9408   1.1007   1.1185
     1.3185   1.4474   1.4654   1.5078   1.5646   1.7262

[...]

          k = 0.0380-0.0280 0.0000 ( 26873 PWs)   bands (ev):

[...]

          k =-0.0760-0.0000 0.0000 ( 26902 PWs)   bands (ev):

[...]

          k =-0.0760-0.0559 0.0000 ( 26868 PWs)   bands (ev):

   -58.4648 -58.4587 -58.4355 -58.4033 -58.3587 -58.0059 -57.9671 -57.9639
   -57.8797 -57.7603 -57.6867 -57.5736 -57.4764 -57.2243 -57.1441 -57.0723
   -57.0373 -57.0176 -34.8994 -34.8836 -34.8395 -34.8111 -34.7797 -34.6892
   -34.6726 -34.6242 -34.6178 -34.6056 -34.6032 -34.5920 -34.5776 -34.5561
   -34.5546 -34.4359 -34.3798 -34.3598 -34.3454 -34.3251 -34.2570 -34.2235
   -34.2198 -34.1895 -34.1811 -34.1648 -34.1184 -34.0653 -34.0575 -34.0312
   -33.9914 -33.9755 -33.9042 -33.8982 -33.8769 -33.7906 -33.7417 -33.7058
   -33.6841 -33.6589 -33.5708 -33.4827 -33.4527 -33.4514 -33.4195 -33.4178
   -33.3864 -33.3678 -33.3668 -33.2692 -33.2343 -33.1835 -33.1816 -33.1527
   -18.8096 -18.6611 -18.4156 -18.3169 -18.1538 -18.1064 -18.0534 -18.0431
   -18.0372 -17.9415 -17.9242 -17.8800 -17.8732 -17.8233 -17.7985 -17.7871
   -17.7801 -17.7482 -17.6812 -17.6251 -17.5396 -17.4473 -17.4348 -17.4189
   -17.4123 -17.3332 -17.2348 -17.1891 -17.1521 -16.9523 -16.6828 -16.5551
   -15.5510 -15.5379 -15.4283 -15.2968 -15.1472  -6.7883  -6.6052  -6.1215
    -5.9265  -5.8947  -5.8538  -5.5363  -5.4932  -5.3889  -5.3599  -5.3561
    -5.3289  -5.2847  -5.2464  -5.1912  -5.1558  -5.1381  -5.1295  -5.1119
    -5.0850  -5.0371  -5.0124  -4.9696  -4.9644  -4.9492  -4.9191  -4.8961
    -4.8469  -4.8381  -4.7665  -4.7568  -4.7228  -4.5277  -4.4748  -4.4124
    -4.3631  -4.2973  -4.2431  -4.1902  -4.1897  -4.1068  -4.1027  -4.0386
    -3.9789  -3.8921  -3.8117  -3.8040  -3.7814  -3.7533  -3.7202  -3.6878
    -3.6647  -3.6443  -3.6048  -3.5568  -3.5191  -3.4457  -3.4130  -3.4068
    -3.3661  -3.3466  -3.3354  -3.3313  -3.3148  -3.2107  -3.2039  -3.1440
    -3.1101  -3.1051  -3.0351  -3.0282  -2.9767  -2.9512  -2.8818  -2.8443
    -2.8348  -2.7463  -2.7387  -2.7349  -2.6536  -2.6439  -2.5439  -2.5108
    -2.4264  -2.3013  -2.1811  -2.1793  -2.1700  -2.0484  -2.0464  -2.0351
    -1.9906  -1.9279  -1.9032  -1.7204  -1.7167  -1.6721  -1.6016  -1.5802
    -1.5560  -1.5412  -1.4249  -1.4032  -0.9985  -0.7193  -0.6834  -0.6783
    -0.6444  -0.6157  -0.5826  -0.5738   0.8569   1.0175   1.0953   1.1609
     1.1865   1.2303   1.2620   1.4365   1.4991   1.5060

     the Fermi energy is     0.2176 ev

!    total energy              =   -3293.29557944 Ry
     estimated scf accuracy    <       0.00000005 Ry
     smearing contrib. (-TS)   =      -0.00052554 Ry
     internal energy E=F+TS    =   -3293.29505390 Ry

     The total energy is F=E-TS. E is the sum of the following terms:
     one-electron contribution =  -34586.79818060 Ry
     hartree contribution      =   17355.21563118 Ry
     xc contribution           =    -542.08269123 Ry
     ewald contribution        =   14480.36905779 Ry
     electric field correction =       0.00112896 Ry

     convergence has been achieved in  58 iterations

     Forces acting on atoms (cartesian axes, Ry/au):

     atom    1 type  1   force =    -0.00000721    0.00890915    0.04219951
     atom    2 type  1   force =     0.00002254   -0.00248655   -0.00297522
     atom    3 type  1   force =    -0.00003335   -0.00629612   -0.00116365
     atom    4 type  1   force =     0.00004757    0.00394954    0.10169535
     atom    5 type  1   force =     0.00002048   -0.00059247    0.00717557
     atom    6 type  1   force =    -0.00002497    0.00083567    0.00283794
     atom    7 type  1   force =     0.07636157    0.00119693   -0.03509548
     atom    8 type  1   force =     0.00753602   -0.02413328    0.00123334
     atom    9 type  1   force =     0.00791166   -0.02073962    0.00175433
     atom   10 type  2   force =    -0.00003628   -0.00384486   -0.16974784
     atom   11 type  2   force =    -0.00011488    0.02224817   -0.00323786
     atom   12 type  2   force =    -0.00000023    0.02036155   -0.00567388
     atom   13 type  1   force =    -0.07645539    0.00074421   -0.03504676
     atom   14 type  1   force =    -0.00761544   -0.02400883    0.00122760
     atom   15 type  1   force =    -0.00785851   -0.02082193    0.00176079
     atom   16 type  2   force =     0.00010333    0.00207803    0.07522132
     atom   17 type  2   force =     0.00020810    0.02912091    0.00188532
     atom   18 type  2   force =    -0.00009765    0.02410379    0.00016931
     atom   19 type  1   force =     0.00000440    0.00223148    0.05608871
     atom   20 type  1   force =     0.00000320   -0.00075014   -0.00270367
     atom   21 type  1   force =     0.00004783   -0.00273701    0.10233270
     atom   22 type  1   force =     0.00000947   -0.00165528    0.00633224
     atom   23 type  1   force =    -0.00001803   -0.00388622    0.00171907
     atom   24 type  1   force =     0.07835526   -0.00055758   -0.03677440
     atom   25 type  1   force =     0.00978282   -0.02948745   -0.00097556
     atom   26 type  1   force =     0.01101403   -0.02685866   -0.00656463
     atom   27 type  2   force =    -0.00005719    0.01458215   -0.15613332
     atom   28 type  2   force =    -0.00013370    0.02623890   -0.00048695
     atom   29 type  2   force =     0.00004310    0.02301473    0.00265487
     atom   30 type  1   force =    -0.07845102   -0.00098669   -0.03672320
     atom   31 type  1   force =    -0.00984441   -0.02934358   -0.00097718
     atom   32 type  1   force =    -0.01088686   -0.02692261   -0.00661767
     atom   33 type  2   force =     0.00010317   -0.00383037    0.07802024
     atom   34 type  2   force =     0.00019479    0.03435173    0.00328430
     atom   35 type  2   force =    -0.00012192    0.03158742    0.00681272
     atom   36 type  1   force =     0.00001853    0.00148948    0.05145385
     atom   37 type  1   force =     0.00002334   -0.00166237   -0.00238526
     atom   38 type  1   force =    -0.00002123   -0.00361653    0.00010036
     atom   39 type  1   force =     0.00004896    0.00037446    0.09994254
     atom   40 type  1   force =     0.00001745   -0.00068872    0.00653291
     atom   41 type  1   force =    -0.00002544   -0.00086585    0.00421890
     atom   42 type  1   force =     0.07943327    0.00172181   -0.03466377
     atom   43 type  1   force =     0.00606584   -0.02325986    0.00043880
     atom   44 type  1   force =     0.00710930   -0.02149722    0.00388015
     atom   45 type  2   force =    -0.00005586   -0.01582862   -0.15541609
     atom   46 type  2   force =    -0.00010850    0.01694184    0.00085572
     atom   47 type  2   force =     0.00002107    0.02057424   -0.00095737
     atom   48 type  1   force =    -0.07952482    0.00128317   -0.03461149
     atom   49 type  1   force =    -0.00617971   -0.02314579    0.00043029
     atom   50 type  1   force =    -0.00697082   -0.02152408    0.00387716
     atom   51 type  2   force =     0.00008410   -0.00447437    0.06173617
     atom   52 type  2   force =     0.00020149    0.02907501    0.00061672
     atom   53 type  2   force =    -0.00014299    0.02940996    0.00015440
     atom   54 type  3   force =     0.00001281    0.00161493   -0.00126185
     atom   55 type  4   force =     0.00002838   -0.00046200    0.00026499
     atom   56 type  4   force =    -0.00005380   -0.00006839   -0.00007139
     atom   57 type  3   force =     0.00002802   -0.00906612   -0.00811352
     atom   58 type  4   force =     0.00005796    0.00248518   -0.00020207
     atom   59 type  4   force =    -0.00007962    0.00557472    0.00967188

     Total force =     0.439403     Total SCF correction =     0.000584
  @ DRIVER MODE: Message from server: STATUS
  @ DRIVER MODE: Message from server: GETFORCE
  @ DRIVER MODE: Returning v,forces,stress,ensemble

     Writing output data file ./calc.save/
  @ DRIVER MODE: Message from server: EXIT
  @ DRIVE MODE: Exiting

     General routines

     Parallel routines

   This run was terminated on:   3:19:37  19Oct2021

   JOB DONE.