     Program PWSCF v.6.7GPU starts on 12Oct2021 at 11:34:24

     R & G space division:  proc/nbgrp/npool/nimage =       8
     Reading input from /storage/home/hcoda1/3/ntian30/research/carbon/ACS_vib/ads_slab/HNNH2/out_0008/pw.inp
Warning: card &CELL ignored
Warning: card   CELL_DYNAMICS='IPI', ignored
Warning: card / ignored

     Current dimensions of program PWSCF are:
     Max number of different atomic species (ntypx) = 10
     Max number of k-points (npk) =  40000
     Max angular momentum in pseudopotentials (lmaxx) =  3
     Presently no symmetry can be used with electric field

     Message from routine cell_base_init:
     DEPRECATED: use true lattice parameter, not A to a.u. conversion factor

     IMPORTANT: XC functional enforced from input :
     Exchange-correlation= BEEF-VDW
                           (   1   4  43  14   2   0   0)
     Any further DFT definition will be discarded
     Please, verify this is what you really want

  @ DRIVER MODE: Connecting to
 qe_1139763_3181312.sched-torque.pace.gatech.eduyled316y_scratch
  using UNIX socket
  @ DRIVER MODE: Message from server: STATUS
  @ DRIVER MODE: Message from server: INIT
  @ DRIVER MODE: Receiving replica           0          -1
  @ DRIVER MODE: Receiving encoded integer          25
  @ DRIVER MODE:  SCF:  T  FORCE:  T  STRESS:  F  VC:  F  ENSEMBLE:  F
  @ DRIVER MODE:  SCF:  T  FORCE:  T  STRESS:  F  VC:  F  ENSEMBLE:  F

     Using Slab Decomposition

     bravais-lattice index     =            0
     lattice parameter (alat)  =       1.8897  a.u.
     unit-cell volume          =    6658.9804 (a.u.)^3
     number of atoms/cell      =           52
     number of atomic types    =            4
     number of electrons       =       391.00
     number of Kohn-Sham states=          205
     kinetic-energy cutoff     =      29.3995  Ry
     charge density cutoff     =     293.9946  Ry
     scf convergence threshold =      7.3E-08
     mixing beta               =       0.0500
     number of iterations used =            8  plain     mixing
     Exchange-correlation= BEEF-VDW
                           (   1   4  43  14   2   0   0)

     celldm(1)=   1.889726  celldm(2)=   0.000000  celldm(3)=   0.000000
     celldm(4)=   0.000000  celldm(5)=   0.000000  celldm(6)=   0.000000

     crystal axes: (cart. coord. in units of alat)
               a(1) = (   6.579727   0.000000   0.000000 )
               a(2) = (  -0.000775   5.961596   0.000000 )
               a(3) = (   0.000000   0.000000  25.155947 )

     reciprocal axes: (cart. coord. in units 2 pi/alat)
               b(1) = (  0.151982  0.000020  0.000000 )
               b(2) = (  0.000000  0.167740  0.000000 )
               b(3) = (  0.000000  0.000000  0.039752 )

     PseudoPot. # 1 for Ti read from file:
     /storage/coda1/p-amedford6/0/shared/rich_project_chbe-medford/medford-share/data/pseudos_module/espresso/nninc/pbe/van/Ti.UPF
     MD5 check sum: 8e4df49b7f0d34bbd5052bf3f5ea0213
     Pseudo is Ultrasoft, Zval = 12.0
     Generated by new atomic code, or converted to UPF format
     Using radial grid of  851 points,  6 beta functions with:
                l(1) =   0
                l(2) =   0
                l(3) =   1
                l(4) =   1
                l(5) =   2
                l(6) =   2
     Q(r) pseudized with  8 coefficients,  rinner =    1.000   1.000   1.000
                                                       1.000   1.000

     PseudoPot. # 2 for O  read from file:
     /storage/coda1/p-amedford6/0/shared/rich_project_chbe-medford/medford-share/data/pseudos_module/espresso/nninc/pbe/van/O.UPF
     MD5 check sum: 78c19812648e8988a0fe644b0f25305e
     Pseudo is Ultrasoft, Zval =  6.0
     Generated by new atomic code, or converted to UPF format
     Using radial grid of  737 points,  4 beta functions with:
                l(1) =   0
                l(2) =   0
                l(3) =   1
                l(4) =   1
     Q(r) pseudized with  8 coefficients,  rinner =    0.800   0.800   0.800

     PseudoPot. # 3 for H  read from file:
     /storage/coda1/p-amedford6/0/shared/rich_project_chbe-medford/medford-share/data/pseudos_module/espresso/nninc/pbe/van/H.UPF
     MD5 check sum: b5ee9d7bfd3a09ee7748110bda690ff7
     Pseudo is Ultrasoft, Zval =  1.0
     Generated by new atomic code, or converted to UPF format
     Using radial grid of  615 points,  1 beta functions with:
                l(1) =   0
     Q(r) pseudized with  8 coefficients,  rinner =    0.800

     PseudoPot. # 4 for N  read from file:
     /storage/coda1/p-amedford6/0/shared/rich_project_chbe-medford/medford-share/data/pseudos_module/espresso/nninc/pbe/van/N.UPF
     MD5 check sum: 90d10febe142ad51ac9d5be1deb811c4
     Pseudo is Ultrasoft, Zval =  5.0
     Generated by new atomic code, or converted to UPF format
     Using radial grid of  729 points,  4 beta functions with:
                l(1) =   0
                l(2) =   0
                l(3) =   1
                l(4) =   1
     Q(r) pseudized with  8 coefficients,  rinner =    0.800   0.800   0.800

     atomic species   valence    mass     pseudopotential
        Ti1           12.00    47.86700     Ti( 1.00)
        O1             6.00    15.99900     O ( 1.00)
        H1             1.00     1.00800     H ( 1.00)
        N1             5.00    14.00700     N ( 1.00)

     No symmetry found

   Cartesian axes

     site n.     atom                  positions (alat units)
         1           Ti1 tau(   1) = (   0.0004258   2.9801865   6.0000000  )
         2           Ti1 tau(   2) = (   3.2906075   1.4906267   6.0002472  )
         3           O1  tau(   3) = (   0.0006271   0.0005054   7.9858123  )
         4           O1  tau(   4) = (   3.2906025   0.0005020   7.3038282  )
         5           O1  tau(   5) = (   4.5942328   1.4918067   9.2879030  )
         6           O1  tau(   6) = (   1.9868534   1.4903216   9.2879459  )
         7           Ti1 tau(   7) = (   3.2908112   2.9011704   9.1816539  )
         8           Ti1 tau(   8) = (   0.0015097   1.3932332   9.2931702  )
         9           O1  tau(   9) = (   3.2819087   5.9526348  11.3504271  )
        10           O1  tau(  10) = (   6.5772260   5.9545827  10.6088576  )
        11           O1  tau(  11) = (   1.2874804   1.4832564  12.6509691  )
        12           O1  tau(  12) = (   5.2781146   1.4858874  12.6440994  )
        13           Ti1 tau(  13) = (   6.5585775   2.9503744  12.8030734  )
        14           Ti1 tau(  14) = (   3.2696126   1.4733128  12.4944632  )
        15           O1  tau(  15) = (   6.5513721   5.9458199  14.6768215  )
        16           O1  tau(  16) = (   3.2879482   5.9481552  13.9547078  )
        17           O1  tau(  17) = (   4.5181657   1.4884665  16.1124167  )
        18           O1  tau(  18) = (   2.0188244   1.4835402  16.0984261  )
        19           Ti1 tau(  19) = (   3.2766105   2.9578040  15.7125626  )
        20           Ti1 tau(  20) = (   0.0270592   1.3580474  16.0627221  )
        21           O1  tau(  21) = (   3.2904802   0.0005063   4.7018136  )
        22           O1  tau(  22) = (   0.0072818   5.9434210  17.2237418  )
        23           O1  tau(  23) = (   1.3043587   1.4918075   6.0039043  )
        24           O1  tau(  24) = (   5.2767064   1.4903225   6.0039473  )
        25           Ti1 tau(  25) = (   0.0000382   5.9609847   6.0000000  )
        26           Ti1 tau(  26) = (   3.2902200   4.4714249   6.0002472  )
        27           O1  tau(  27) = (   0.0002396   2.9813036   7.9858123  )
        28           O1  tau(  28) = (   3.2902150   2.9813002   7.3038282  )
        29           O1  tau(  29) = (   4.5938453   4.4726049   9.2879030  )
        30           O1  tau(  30) = (   1.9864658   4.4711199   9.2879459  )
        31           Ti1 tau(  31) = (   3.2900885   5.8829342   9.1674613  )
        32           Ti1 tau(  32) = (   0.0009626   4.3321112   9.3579051  )
        33           O1  tau(  33) = (   3.2805539   2.9674959  11.3464436  )
        34           O1  tau(  34) = (   6.5791951   2.9642230  10.5753725  )
        35           O1  tau(  35) = (   1.2880645   4.4660911  12.6414962  )
        36           O1  tau(  36) = (   5.2770833   4.4616490  12.6331305  )
        37           Ti1 tau(  37) = (   6.5652171   5.9330851  12.5680926  )
        38           Ti1 tau(  38) = (   3.2703904   4.4534766  12.4879229  )
        39           O1  tau(  39) = (   6.5642693   2.9891374  14.6930774  )
        40           O1  tau(  40) = (   3.2814391   2.9717942  13.9260038  )
        41           O1  tau(  41) = (   4.5200678   4.4336085  16.1105754  )
        42           O1  tau(  42) = (   2.0169658   4.4359636  16.1171003  )
        43           Ti1 tau(  43) = (   3.3139371   5.9425984  15.7429620  )
        44           Ti1 tau(  44) = (   0.0173840   4.5100783  16.0001754  )
        45           O1  tau(  45) = (   3.2900926   2.9813045   4.7018136  )
        46           O1  tau(  46) = (   1.3039711   4.4726057   6.0039043  )
        47           O1  tau(  47) = (   5.2763189   4.4711207   6.0039473  )
        48           H1  tau(  48) = (   5.5810648   2.9993886  17.8866560  )
        49           N1  tau(  49) = (   6.5284219   2.9788514  17.4915934  )
        50           N1  tau(  50) = (   0.8269126   2.9775512  18.6276789  )
        51           H1  tau(  51) = (   1.2125983   2.0437984  18.7562651  )
        52           H1  tau(  52) = (   1.5963704   3.6133177  18.4401992  )

     number of k points=    10  Fermi-Dirac smearing, width (Ry)=  0.0073
                       cart. coord. in units 2pi/alat
        k(    1) = (   0.0000000   0.0000000   0.0000000), wk =   0.1250000
        k(    2) = (   0.0000000   0.0419351   0.0000000), wk =   0.2500000
        k(    3) = (   0.0000000  -0.0838702   0.0000000), wk =   0.1250000
        k(    4) = (   0.0379955   0.0000049   0.0000000), wk =   0.2500000
        k(    5) = (   0.0379955   0.0419400   0.0000000), wk =   0.2500000
        k(    6) = (   0.0379955  -0.0838652   0.0000000), wk =   0.2500000
        k(    7) = (   0.0379955  -0.0419301   0.0000000), wk =   0.2500000
        k(    8) = (  -0.0759910  -0.0000099   0.0000000), wk =   0.1250000
        k(    9) = (  -0.0759910   0.0419252   0.0000000), wk =   0.2500000
        k(   10) = (  -0.0759910  -0.0838800   0.0000000), wk =   0.1250000

     Initial potential from superposition of free atoms

     starting charge  374.99920, renormalised to  391.00000

     negative rho (up, down):  1.966E-02 0.000E+00

     %%%%%%%%%%%%%%%%%%%%%%%%%%%%%%%%%%%%%%%%%%%%%%%%%%%%%%%%%%%%%%%%%%%%%%%%
     %                                                                      %
     % You are using vdW-DF, which was implemented by the Thonhauser group. %
     % Please cite the following two papers that made this development      %
     % possible and the two reviews that describe the various versions:     %
     %                                                                      %
     %   T. Thonhauser et al., PRL 115, 136402 (2015).                      %
     %   T. Thonhauser et al., PRB 76, 125112 (2007).                       %
     %   K. Berland et al., Rep. Prog. Phys. 78, 066501 (2015).             %
     %   D.C. Langreth et al., J. Phys.: Condens. Matter 21, 084203 (2009). %
     %                                                                      %
     %                                                                      %
     % If you are calculating the stress with vdW-DF, please also cite:     %
     %                                                                      %
     %   R. Sabatini et al., J. Phys.: Condens. Matter 24, 424209 (2012).   %
     %                                                                      %
     %%%%%%%%%%%%%%%%%%%%%%%%%%%%%%%%%%%%%%%%%%%%%%%%%%%%%%%%%%%%%%%%%%%%%%%%

     Adding external electric field

     Computed dipole along edir(3) :
        Dipole               -5.4650 Ry au,        -13.8907 Debye
        Dipole field         -0.0103 Ry au,

        Potential amp.        0.9560 Ry
        Total length         46.3494 bohr

     Starting wfcs are  295 atomic wfcs
  @ DRIVER MODE: Message from server: STATUS
  @ DRIVER MODE: Message from server: POSDATA
  @ DRIVER MODE: Reading and sharing cell
  @ DRIVER MODE: Reading and sharing positions
  @ DRIVER MODE: Received positions

     Self-consistent Calculation

     iteration #  1     ecut=    29.40 Ry     beta= 0.05
     Davidson diagonalization with overlap
     c_bands:  2 eigenvalues not converged
     c_bands:  1 eigenvalues not converged
     c_bands:  3 eigenvalues not converged
     c_bands:  3 eigenvalues not converged
     c_bands:  4 eigenvalues not converged
     c_bands:  2 eigenvalues not converged
     c_bands:  1 eigenvalues not converged
     c_bands:  1 eigenvalues not converged
     c_bands:  2 eigenvalues not converged
     ethr =  1.00E-05,  avg # of iterations = 19.9

[...]

     total energy              =   -2794.88803742 Ry
     estimated scf accuracy    <    1458.15033140 Ry

     iteration #  2     ecut=    29.40 Ry     beta= 0.05
     Davidson diagonalization with overlap
     ethr =  1.00E-02,  avg # of iterations = 16.9

[...]

     iteration # 53     ecut=    29.40 Ry     beta= 0.05
     Davidson diagonalization with overlap
     c_bands:  1 eigenvalues not converged
     ethr =  4.35E-08,  avg # of iterations =  5.9

[...]

     total energy              =   -2927.71109633 Ry
     estimated scf accuracy    <       0.00000013 Ry

     iteration # 67     ecut=    29.40 Ry     beta= 0.05
     Davidson diagonalization with overlap
     ethr =  3.22E-11,  avg # of iterations =  8.0

     negative rho (up, down):  1.938E-02 0.000E+00

     Adding external electric field

     Computed dipole along edir(3) :
        Dipole                0.4611 Ry au,          1.1721 Debye
        Dipole field          0.0009 Ry au,

        Potential amp.       -0.0807 Ry
        Total length         46.3494 bohr

     End of self-consistent calculation

          k = 0.0000 0.0000 0.0000 ( 18029 PWs)   bands (ev):

   -56.1391 -56.1236 -56.1033 -56.0873 -56.0410 -56.0071 -55.9672 -55.9427
   -55.8918 -55.8800 -55.8659 -55.8298 -55.7588 -55.7546 -55.0759 -55.0419
   -32.6950 -32.5990 -32.4805 -32.4685 -32.4581 -32.4262 -32.4005 -32.3824
   -32.3715 -32.3516 -32.3463 -32.3427 -32.3292 -32.3050 -32.3012 -32.2803
   -32.2744 -32.2532 -32.2221 -32.2101 -32.2070 -32.1891 -32.1576 -32.1517
   -32.1504 -32.1303 -32.1279 -32.1048 -32.0978 -32.0932 -32.0930 -32.0714
   -32.0712 -32.0379 -32.0151 -32.0143 -31.9783 -31.9750 -31.9651 -31.9535
   -31.9393 -31.8954 -31.4831 -31.3945 -31.3717 -31.2993 -31.2130 -31.1024
   -16.9038 -16.6901 -16.5292 -16.3883 -16.2648 -16.2401 -16.1832 -15.9049
   -15.8378 -15.7763 -15.7575 -15.7366 -15.7267 -15.6620 -15.6611 -15.6270
   -15.5829 -15.5483 -15.5371 -15.5080 -15.5007 -15.4518 -15.4268 -15.3967
   -15.3621 -15.2782 -15.2238 -15.1527 -15.1163 -15.0769 -13.5796 -13.4635
   -11.2285  -5.2825  -4.6088  -4.2477  -4.1284  -4.0475  -3.9963  -3.9295
    -3.7857  -3.7233  -3.5895  -3.3378  -3.3004  -3.2862  -3.2564  -3.2191
    -3.0312  -2.9815  -2.9453  -2.9236  -2.9177  -2.9107  -2.8729  -2.8407
    -2.8331  -2.8304  -2.7142  -2.6432  -2.5558  -2.5497  -2.4751  -2.4380
    -2.4129  -2.4096  -2.3700  -2.3457  -2.3248  -2.3071  -2.2827  -2.1789
    -2.1532  -2.0710  -1.9823  -1.8969  -1.7733  -1.7120  -1.7001  -1.5724
    -1.5134  -1.5105  -1.4768  -1.4554  -1.4155  -1.3377  -1.3007  -1.2522
    -1.1740  -1.1291  -1.0601  -1.0315  -1.0147  -0.9737  -0.9007  -0.8523
    -0.8452  -0.8341  -0.6286  -0.6011  -0.5916  -0.5774  -0.4591  -0.3778
    -0.3603  -0.3308  -0.3139  -0.3014  -0.2477  -0.1568  -0.1280  -0.1161
    -0.0968  -0.0110   0.0589   0.0662   0.0997   0.1881   0.2115   0.3281
     0.3925   0.5683   0.6043   0.7239   0.8649   0.9439   0.9779   1.1381
     1.5242   1.5691   1.5749   3.0579   3.0756   3.1127   3.1336   3.2700
     3.3792   3.3845   3.4821   3.5029   3.5553

[...]

          k = 0.0380-0.0419 0.0000 ( 17876 PWs)   bands (ev):

[...]

          k =-0.0760-0.0000 0.0000 ( 17886 PWs)   bands (ev):

[...]

          k =-0.0760-0.0839 0.0000 ( 17948 PWs)   bands (ev):

   -56.1269 -56.1154 -56.1062 -56.1045 -56.0367 -56.0025 -55.9713 -55.9472
   -55.8897 -55.8770 -55.8548 -55.8412 -55.7609 -55.7569 -55.0591 -55.0585
   -32.4989 -32.4954 -32.4320 -32.4223 -32.4151 -32.4096 -32.3994 -32.3975
   -32.3362 -32.3355 -32.3321 -32.3026 -32.3004 -32.2834 -32.2695 -32.2559
   -32.2481 -32.2464 -32.2334 -32.2313 -32.2188 -32.2073 -32.1928 -32.1827
   -32.1746 -32.1660 -32.1629 -32.1577 -32.1401 -32.1062 -32.0857 -32.0838
   -32.0826 -32.0646 -32.0629 -32.0580 -32.0469 -32.0198 -32.0155 -31.9897
   -31.9475 -31.9450 -31.3848 -31.3841 -31.2964 -31.2956 -31.2565 -31.2557
   -16.5905 -16.3582 -16.3118 -16.0800 -16.0647 -16.0218 -15.9448 -15.8917
   -15.8864 -15.8627 -15.8551 -15.7945 -15.7841 -15.7720 -15.7447 -15.6469
   -15.6452 -15.6335 -15.6147 -15.5531 -15.5376 -15.5029 -15.4726 -15.4633
   -15.4366 -15.4087 -15.3786 -15.3566 -15.2952 -15.2781 -13.5657 -13.5650
   -11.2368  -5.2810  -4.5645  -3.7054  -3.6461  -3.5971  -3.2929  -3.2751
    -3.2462  -3.1320  -3.0637  -3.0377  -3.0049  -2.9760  -2.9402  -2.9288
    -2.9139  -2.9096  -2.9014  -2.8987  -2.8670  -2.8369  -2.8243  -2.7752
    -2.7470  -2.7365  -2.7221  -2.7055  -2.7011  -2.6517  -2.6478  -2.6430
    -2.6343  -2.5206  -2.3846  -2.3675  -2.3293  -2.2103  -2.1868  -2.1808
    -2.1511  -2.1402  -2.1344  -2.0770  -1.9729  -1.8681  -1.8187  -1.7982
    -1.7744  -1.7124  -1.5956  -1.5442  -1.5345  -1.5031  -1.4419  -1.4212
    -1.3714  -1.3645  -1.2588  -1.2323  -1.2099  -1.1346  -1.0734  -1.0557
    -1.0333  -0.9732  -0.9268  -0.9060  -0.8981  -0.8523  -0.7513  -0.7429
    -0.6942  -0.6837  -0.6315  -0.6258  -0.5728  -0.4441  -0.2032  -0.1651
    -0.0932  -0.0702   0.0214   0.0533   0.0807   0.1756   0.2040   0.3055
     0.3460   0.4407   0.4477   0.4632   0.5058   0.6723   1.3088   1.3114
     1.3851   1.3913   1.5719   3.2143   3.2512   3.2763   3.3401   3.5205
     3.5440   3.5449   3.5594   3.5921   3.6548

     the Fermi energy is     3.0161 ev

!    total energy              =   -2927.71111826 Ry
     estimated scf accuracy    <       0.00000005 Ry
     smearing contrib. (-TS)   =      -0.02327164 Ry
     internal energy E=F+TS    =   -2927.68784662 Ry

     The total energy is F=E-TS. E is the sum of the following terms:
     one-electron contribution =  -24559.94166770 Ry
     hartree contribution      =   12363.17399238 Ry
     xc contribution           =    -481.65150566 Ry
     ewald contribution        =    9750.73093306 Ry
     electric field correction =       0.00040130 Ry

     convergence has been achieved in  67 iterations

     Forces acting on atoms (cartesian axes, Ry/au):

     atom    1 type  1   force =     0.00026891    0.00112429    0.11027654
     atom    2 type  1   force =     0.00005922    0.00171612   -0.17426669
     atom    3 type  2   force =     0.00010835    0.00665870   -0.03420265
     atom    4 type  2   force =     0.00001375   -0.00085444    0.05078800
     atom    5 type  2   force =    -0.01744643   -0.00134525    0.00576345
     atom    6 type  2   force =     0.01689774   -0.00101688    0.00539021
     atom    7 type  1   force =     0.00006126    0.00259833   -0.01785154
     atom    8 type  1   force =    -0.00002090    0.00012687    0.00034230
     atom    9 type  2   force =    -0.00001230    0.00009308   -0.00040784
     atom   10 type  2   force =     0.00000560   -0.00051128   -0.00007953
     atom   11 type  2   force =     0.00011075   -0.00024634   -0.00006574
     atom   12 type  2   force =    -0.00010353   -0.00036778   -0.00021051
     atom   13 type  1   force =    -0.00036717   -0.00034271    0.00005096
     atom   14 type  1   force =    -0.00076450    0.00008276   -0.00012974
     atom   15 type  2   force =     0.00017231   -0.00028063    0.00056075
     atom   16 type  2   force =     0.00012013   -0.00014692   -0.00027026
     atom   17 type  2   force =     0.00037741   -0.00010211    0.00068813
     atom   18 type  2   force =     0.00116191   -0.00059531    0.00047670
     atom   19 type  1   force =    -0.00018627    0.00041836    0.00004619
     atom   20 type  1   force =    -0.00006785   -0.00094489    0.00084354
     atom   21 type  2   force =     0.00009764    0.00006443    0.10311357
     atom   22 type  2   force =     0.00001273    0.00057864   -0.00136073
     atom   23 type  2   force =    -0.07113063    0.00061520   -0.03028223
     atom   24 type  2   force =     0.07109533    0.00103369   -0.03029045
     atom   25 type  1   force =     0.00004736   -0.00109633    0.11742559
     atom   26 type  1   force =     0.00004681   -0.00255499   -0.17410113
     atom   27 type  2   force =     0.00006856   -0.00282110   -0.02991152
     atom   28 type  2   force =     0.00002452   -0.00148508    0.05395016
     atom   29 type  2   force =    -0.01860142    0.00056696    0.00666189
     atom   30 type  2   force =     0.01808173    0.00124027    0.00630480
     atom   31 type  1   force =     0.00039620   -0.00271532   -0.01222977
     atom   32 type  1   force =    -0.00000227    0.00039104    0.00071377
     atom   33 type  2   force =     0.00002438   -0.00009393   -0.00046022
     atom   34 type  2   force =     0.00006191    0.00031477    0.00040469
     atom   35 type  2   force =     0.00002541    0.00005054   -0.00029545
     atom   36 type  2   force =     0.00005111    0.00001717   -0.00032004
     atom   37 type  1   force =    -0.00048188   -0.00043433    0.00103825
     atom   38 type  1   force =    -0.00070543    0.00003522   -0.00014425
     atom   39 type  2   force =    -0.00032209   -0.00065044   -0.00037463
     atom   40 type  2   force =     0.00001710   -0.00010431   -0.00059034
     atom   41 type  2   force =    -0.00008886    0.00003807    0.00059192
     atom   42 type  2   force =     0.00107559    0.00050570   -0.00001114
     atom   43 type  1   force =     0.00014481   -0.00022361   -0.00002901
     atom   44 type  1   force =     0.00061316    0.00045777    0.00051998
     atom   45 type  2   force =     0.00008095    0.00013744    0.10302881
     atom   46 type  2   force =    -0.07141929   -0.00054058   -0.03021773
     atom   47 type  2   force =     0.07138560   -0.00010153   -0.03026804
     atom   48 type  3   force =     0.01264990   -0.00003569   -0.00619552
     atom   49 type  4   force =    -0.01903192    0.00034608    0.00190311
     atom   50 type  4   force =     0.00469926   -0.00056428    0.00154663
     atom   51 type  3   force =     0.00038792    0.00055089    0.00044624
     atom   52 type  3   force =     0.00030742    0.00041365    0.00169056

     Total force =     0.376803     Total SCF correction =     0.000442
  @ DRIVER MODE: Message from server: STATUS
  @ DRIVER MODE: Message from server: GETFORCE
  @ DRIVER MODE: Returning v,forces,stress,ensemble

     Writing output data file ./calc.save/
  @ DRIVER MODE: Message from server: EXIT
  @ DRIVE MODE: Exiting

     General routines

     Parallel routines

   This run was terminated on:  11:54:32  12Oct2021

   JOB DONE.