     Program PWSCF v.6.7GPU starts on 22Sep2021 at 19:52:34

     R & G space division:  proc/nbgrp/npool/nimage =      10
     Reading input from /storage/home/hcoda1/3/ntian30/research/carbon/CxH_vib/H2O_calc/ads_slab/CH3NNH3HO_a/out_0010/pw.inp
Warning: card &CELL ignored
Warning: card   CELL_DYNAMICS='IPI', ignored
Warning: card / ignored

     Current dimensions of program PWSCF are:
     Max number of different atomic species (ntypx) = 10
     Max number of k-points (npk) =  40000
     Max angular momentum in pseudopotentials (lmaxx) =  3
     Presently no symmetry can be used with electric field

     Message from routine cell_base_init:
     DEPRECATED: use true lattice parameter, not A to a.u. conversion factor

     IMPORTANT: XC functional enforced from input :
     Exchange-correlation= BEEF-VDW
                           (   1   4  43  14   2   0   0)
     Any further DFT definition will be discarded
     Please, verify this is what you really want

  @ DRIVER MODE: Connecting to
 qe_1139763_2937318.sched-torque.pace.gatech.edui3tv5hps_scratch
  using UNIX socket
  @ DRIVER MODE: Message from server: STATUS
  @ DRIVER MODE: Message from server: INIT
  @ DRIVER MODE: Receiving replica           0          -1
  @ DRIVER MODE: Receiving encoded integer          25
  @ DRIVER MODE:  SCF:  T  FORCE:  T  STRESS:  F  VC:  F  ENSEMBLE:  F
  @ DRIVER MODE:  SCF:  T  FORCE:  T  STRESS:  F  VC:  F  ENSEMBLE:  F

     Using Slab Decomposition

     bravais-lattice index     =            0
     lattice parameter (alat)  =       1.8897  a.u.
     unit-cell volume          =    6658.9804 (a.u.)^3
     number of atoms/cell      =           58
     number of atomic types    =            5
     number of electrons       =       405.00
     number of Kohn-Sham states=          212
     kinetic-energy cutoff     =      29.3995  Ry
     charge density cutoff     =     293.9946  Ry
     scf convergence threshold =      7.3E-08
     mixing beta               =       0.0500
     number of iterations used =            8  plain     mixing
     Exchange-correlation= BEEF-VDW
                           (   1   4  43  14   2   0   0)

     celldm(1)=   1.889726  celldm(2)=   0.000000  celldm(3)=   0.000000
     celldm(4)=   0.000000  celldm(5)=   0.000000  celldm(6)=   0.000000

     crystal axes: (cart. coord. in units of alat)
               a(1) = (   6.579727   0.000000   0.000000 )
               a(2) = (  -0.000775   5.961596   0.000000 )
               a(3) = (   0.000000   0.000000  25.155947 )

     reciprocal axes: (cart. coord. in units 2 pi/alat)
               b(1) = (  0.151982  0.000020  0.000000 )
               b(2) = (  0.000000  0.167740  0.000000 )
               b(3) = (  0.000000  0.000000  0.039752 )

     PseudoPot. # 1 for Ti read from file:
     /storage/coda1/p-amedford6/0/shared/rich_project_chbe-medford/medford-share/data/pseudos_module/espresso/nninc/pbe/van/Ti.UPF
     MD5 check sum: 8e4df49b7f0d34bbd5052bf3f5ea0213
     Pseudo is Ultrasoft, Zval = 12.0
     Generated by new atomic code, or converted to UPF format
     Using radial grid of  851 points,  6 beta functions with:
                l(1) =   0
                l(2) =   0
                l(3) =   1
                l(4) =   1
                l(5) =   2
                l(6) =   2
     Q(r) pseudized with  8 coefficients,  rinner =    1.000   1.000   1.000
                                                       1.000   1.000

     PseudoPot. # 2 for O  read from file:
     /storage/coda1/p-amedford6/0/shared/rich_project_chbe-medford/medford-share/data/pseudos_module/espresso/nninc/pbe/van/O.UPF
     MD5 check sum: 78c19812648e8988a0fe644b0f25305e
     Pseudo is Ultrasoft, Zval =  6.0
     Generated by new atomic code, or converted to UPF format
     Using radial grid of  737 points,  4 beta functions with:
                l(1) =   0
                l(2) =   0
                l(3) =   1
                l(4) =   1
     Q(r) pseudized with  8 coefficients,  rinner =    0.800   0.800   0.800

     PseudoPot. # 3 for N  read from file:
     /storage/coda1/p-amedford6/0/shared/rich_project_chbe-medford/medford-share/data/pseudos_module/espresso/nninc/pbe/van/N.UPF
     MD5 check sum: 90d10febe142ad51ac9d5be1deb811c4
     Pseudo is Ultrasoft, Zval =  5.0
     Generated by new atomic code, or converted to UPF format
     Using radial grid of  729 points,  4 beta functions with:
                l(1) =   0
                l(2) =   0
                l(3) =   1
                l(4) =   1
     Q(r) pseudized with  8 coefficients,  rinner =    0.800   0.800   0.800

     PseudoPot. # 4 for C  read from file:
     /storage/coda1/p-amedford6/0/shared/rich_project_chbe-medford/medford-share/data/pseudos_module/espresso/nninc/pbe/van/C.UPF
     MD5 check sum: 1a69bf6b8db32088f5b2163dbdb77a27
     Pseudo is Ultrasoft, Zval =  4.0
     Generated by new atomic code, or converted to UPF format
     Using radial grid of  721 points,  4 beta functions with:
                l(1) =   0
                l(2) =   0
                l(3) =   1
                l(4) =   1
     Q(r) pseudized with  8 coefficients,  rinner =    0.800   0.800   0.800

     PseudoPot. # 5 for H  read from file:
     /storage/coda1/p-amedford6/0/shared/rich_project_chbe-medford/medford-share/data/pseudos_module/espresso/nninc/pbe/van/H.UPF
     MD5 check sum: b5ee9d7bfd3a09ee7748110bda690ff7
     Pseudo is Ultrasoft, Zval =  1.0
     Generated by new atomic code, or converted to UPF format
     Using radial grid of  615 points,  1 beta functions with:
                l(1) =   0
     Q(r) pseudized with  8 coefficients,  rinner =    0.800

     atomic species   valence    mass     pseudopotential
        Ti1           12.00    47.86700     Ti( 1.00)
        O1             6.00    15.99900     O ( 1.00)
        N1             5.00    14.00700     N ( 1.00)
        C1             4.00    12.01100     C ( 1.00)
        H1             1.00     1.00800     H ( 1.00)

     No symmetry found

   Cartesian axes

     site n.     atom                  positions (alat units)
         1           Ti1 tau(   1) = (   0.0004258   2.9801865   6.0000000  )
         2           Ti1 tau(   2) = (   3.2906075   1.4906267   6.0002472  )
         3           O1  tau(   3) = (   0.0006271   0.0005054   7.9858123  )
         4           O1  tau(   4) = (   3.2906025   0.0005020   7.3038282  )
         5           O1  tau(   5) = (   4.5942328   1.4918067   9.2879030  )
         6           O1  tau(   6) = (   1.9868534   1.4903216   9.2879459  )
         7           Ti1 tau(   7) = (   3.2907910   2.8959150   9.1758416  )
         8           Ti1 tau(   8) = (   0.0015273   1.4827037   9.2680791  )
         9           O1  tau(   9) = (   3.2949357   5.9297256  11.2770696  )
        10           O1  tau(  10) = (   0.0116148   5.9584955  10.6183126  )
        11           O1  tau(  11) = (   1.2901270   1.4659759  12.6218969  )
        12           O1  tau(  12) = (   5.3029181   1.4690452  12.6271982  )
        13           Ti1 tau(  13) = (   6.5637346   3.0486055  12.7052252  )
        14           Ti1 tau(  14) = (   3.3207578   1.2909511  12.6638180  )
        15           O1  tau(  15) = (   0.0081040   5.9567798  14.6379979  )
        16           O1  tau(  16) = (   3.2944190   0.0149942  13.8863584  )
        17           O1  tau(  17) = (   4.5334936   1.5584448  16.0391558  )
        18           O1  tau(  18) = (   2.0244848   1.5379376  16.0854781  )
        19           Ti1 tau(  19) = (   3.2579824   3.0118882  15.6538344  )
        20           Ti1 tau(  20) = (   6.4918182   1.5199401  15.8876453  )
        21           O1  tau(  21) = (   3.2904802   0.0005063   4.7018136  )
        22           O1  tau(  22) = (   6.5166677   0.0216046  17.1949088  )
        23           O1  tau(  23) = (   1.3043587   1.4918075   6.0039043  )
        24           O1  tau(  24) = (   5.2767064   1.4903225   6.0039473  )
        25           Ti1 tau(  25) = (   0.0000382   5.9609847   6.0000000  )
        26           Ti1 tau(  26) = (   3.2902200   4.4714249   6.0002472  )
        27           O1  tau(  27) = (   0.0002396   2.9813036   7.9858123  )
        28           O1  tau(  28) = (   3.2902150   2.9813002   7.3038282  )
        29           O1  tau(  29) = (   4.5938453   4.4726049   9.2879030  )
        30           O1  tau(  30) = (   1.9864658   4.4711199   9.2879459  )
        31           Ti1 tau(  31) = (   3.2891106   5.8743827   9.1763621  )
        32           Ti1 tau(  32) = (   0.0006254   4.4649316   9.2693709  )
        33           O1  tau(  33) = (   3.2959121   3.0085915  11.2438341  )
        34           O1  tau(  34) = (   0.0092240   2.9805883  10.6323155  )
        35           O1  tau(  35) = (   1.2849535   4.4488585  12.6204231  )
        36           O1  tau(  36) = (   5.2878833   4.4365118  12.6243745  )
        37           Ti1 tau(  37) = (   0.0500071   0.0677371  12.6535751  )
        38           Ti1 tau(  38) = (   3.3027700   4.3871210  12.4110406  )
        39           O1  tau(  39) = (   6.5685058   2.9535060  14.6525041  )
        40           O1  tau(  40) = (   3.2696111   2.9719761  13.8704823  )
        41           O1  tau(  41) = (   4.5209813   4.4409030  16.0696701  )
        42           O1  tau(  42) = (   2.0131998   4.4599944  16.0916020  )
        43           Ti1 tau(  43) = (   3.2138439   0.0230873  16.3295100  )
        44           Ti1 tau(  44) = (   6.5234412   4.6200706  16.0754176  )
        45           O1  tau(  45) = (   3.2900926   2.9813045   4.7018136  )
        46           O1  tau(  46) = (   1.3039711   4.4726057   6.0039043  )
        47           O1  tau(  47) = (   5.2763189   4.4711207   6.0039473  )
        48           N1  tau(  48) = (   0.0251376   2.9556585  17.3246074  )
        49           N1  tau(  49) = (   6.3772498   2.5561882  22.2688425  )
        50           C1  tau(  50) = (   0.2111848   2.8484408  18.7116211  )
        51           H1  tau(  51) = (   0.3920758   3.8074029  19.2116250  )
        52           H1  tau(  52) = (   5.9044209   2.3708277  19.1722604  )
        53           H1  tau(  53) = (   1.0233575   2.1342068  18.9364007  )
        54           H1  tau(  54) = (   6.0930523   3.2289774  22.9628454  )
        55           H1  tau(  55) = (   0.2277240   1.7755739  22.7685771  )
        56           H1  tau(  56) = (   0.5282093   2.9785696  21.7129995  )
        57           O1  tau(  57) = (   3.3838229   0.0530270  18.1522483  )
        58           H1  tau(  58) = (   4.2718821   5.8932998  18.5223319  )

     number of k points=    10  Fermi-Dirac smearing, width (Ry)=  0.0073
                       cart. coord. in units 2pi/alat
        k(    1) = (   0.0000000   0.0000000   0.0000000), wk =   0.1250000
        k(    2) = (   0.0000000   0.0419351   0.0000000), wk =   0.2500000
        k(    3) = (   0.0000000  -0.0838702   0.0000000), wk =   0.1250000
        k(    4) = (   0.0379955   0.0000049   0.0000000), wk =   0.2500000
        k(    5) = (   0.0379955   0.0419400   0.0000000), wk =   0.2500000
        k(    6) = (   0.0379955  -0.0838652   0.0000000), wk =   0.2500000
        k(    7) = (   0.0379955  -0.0419301   0.0000000), wk =   0.2500000
        k(    8) = (  -0.0759910  -0.0000099   0.0000000), wk =   0.1250000
        k(    9) = (  -0.0759910   0.0419252   0.0000000), wk =   0.2500000
        k(   10) = (  -0.0759910  -0.0838800   0.0000000), wk =   0.1250000

     Initial potential from superposition of free atoms

     starting charge  388.99913, renormalised to  405.00000

     negative rho (up, down):  7.827E-03 0.000E+00

     %%%%%%%%%%%%%%%%%%%%%%%%%%%%%%%%%%%%%%%%%%%%%%%%%%%%%%%%%%%%%%%%%%%%%%%%
     %                                                                      %
     % You are using vdW-DF, which was implemented by the Thonhauser group. %
     % Please cite the following two papers that made this development      %
     % possible and the two reviews that describe the various versions:     %
     %                                                                      %
     %   T. Thonhauser et al., PRL 115, 136402 (2015).                      %
     %   T. Thonhauser et al., PRB 76, 125112 (2007).                       %
     %   K. Berland et al., Rep. Prog. Phys. 78, 066501 (2015).             %
     %   D.C. Langreth et al., J. Phys.: Condens. Matter 21, 084203 (2009). %
     %                                                                      %
     %                                                                      %
     % If you are calculating the stress with vdW-DF, please also cite:     %
     %                                                                      %
     %   R. Sabatini et al., J. Phys.: Condens. Matter 24, 424209 (2012).   %
     %                                                                      %
     %%%%%%%%%%%%%%%%%%%%%%%%%%%%%%%%%%%%%%%%%%%%%%%%%%%%%%%%%%%%%%%%%%%%%%%%

     Adding external electric field

     Computed dipole along edir(3) :
        Dipole              -15.1933 Ry au,        -38.6176 Debye
        Dipole field         -0.0287 Ry au,

        Potential amp.        2.6578 Ry
        Total length         46.3494 bohr

     Starting wfcs are  307 atomic wfcs
  @ DRIVER MODE: Message from server: STATUS
  @ DRIVER MODE: Message from server: POSDATA
  @ DRIVER MODE: Reading and sharing cell
  @ DRIVER MODE: Reading and sharing positions
  @ DRIVER MODE: Received positions

     Self-consistent Calculation

     iteration #  1     ecut=    29.40 Ry     beta= 0.05
     Davidson diagonalization with overlap
     c_bands:  4 eigenvalues not converged
     c_bands:  1 eigenvalues not converged
     c_bands:  1 eigenvalues not converged
     c_bands:  2 eigenvalues not converged
     c_bands:  1 eigenvalues not converged
     c_bands:  2 eigenvalues not converged
     ethr =  1.00E-05,  avg # of iterations = 31.5

[...]

     total energy              =   -2295.06047624 Ry
     estimated scf accuracy    <    7743.74474097 Ry

     iteration #  2     ecut=    29.40 Ry     beta= 0.05
     Davidson diagonalization with overlap
     ethr =  1.00E-02,  avg # of iterations = 24.1

[...]

     iteration # 40     ecut=    29.40 Ry     beta= 0.05
     Davidson diagonalization with overlap
     c_bands:  1 eigenvalues not converged
     ethr =  9.46E-06,  avg # of iterations =  9.9

[...]

     total energy              =   -2976.42329350 Ry
     estimated scf accuracy    <       0.00000012 Ry

     iteration # 66     ecut=    29.40 Ry     beta= 0.05
     Davidson diagonalization with overlap
     ethr =  2.95E-11,  avg # of iterations =  4.4

     negative rho (up, down):  9.593E-03 0.000E+00

     Adding external electric field

     Computed dipole along edir(3) :
        Dipole                0.6346 Ry au,          1.6129 Debye
        Dipole field          0.0012 Ry au,

        Potential amp.       -0.1110 Ry
        Total length         46.3494 bohr

     End of self-consistent calculation

          k = 0.0000 0.0000 0.0000 ( 18029 PWs)   bands (ev):

   -56.5654 -56.5319 -55.6413 -55.6061 -55.4254 -55.3588 -55.2305 -55.1167
   -55.0828 -55.0352 -55.0034 -54.9688 -54.9107 -54.8171 -54.7457 -54.6133
   -32.9842 -32.8359 -32.8078 -32.7449 -32.6547 -32.6113 -32.1230 -31.9003
   -31.8615 -31.8400 -31.7855 -31.7776 -31.7524 -31.6587 -31.6384 -31.5938
   -31.5620 -31.5462 -31.5222 -31.5101 -31.5045 -31.4943 -31.4637 -31.4624
   -31.4392 -31.4206 -31.3553 -31.3207 -31.2985 -31.2925 -31.2404 -31.2328
   -31.2160 -31.1943 -31.1815 -31.1663 -31.1591 -31.1289 -31.1235 -31.0916
   -31.0474 -31.0028 -31.0020 -30.9807 -30.9477 -30.8876 -30.8508 -30.8004
   -16.6689 -16.1109 -16.0873 -15.8821 -15.7595 -15.7544 -15.7112 -15.6424
   -15.4731 -15.4046 -15.3761 -15.3149 -15.1707 -15.0551 -14.9578 -14.7779
   -14.7043 -14.6990 -14.6802 -14.6726 -14.6558 -14.6350 -14.5760 -14.5175
   -14.4751 -14.4101 -14.3665 -14.2206 -14.0200 -13.9948 -13.9576 -13.6144
   -13.5075 -13.5023  -7.7375  -4.2443  -4.1007  -3.9726  -3.6979  -3.5777
    -3.4050  -3.2523  -3.2015  -3.1440  -3.0843  -3.0751  -2.9274  -2.9256
    -2.9139  -2.9069  -2.8289  -2.7703  -2.7052  -2.6185  -2.6029  -2.5083
    -2.4617  -2.3022  -2.2763  -2.1753  -2.1032  -2.0977  -2.0315  -2.0087
    -1.9615  -1.9163  -1.9070  -1.8723  -1.8286  -1.7818  -1.7633  -1.6522
    -1.6445  -1.5797  -1.5730  -1.5503  -1.4369  -1.4169  -1.3471  -1.2019
    -1.1805  -1.1772  -1.1301  -1.1127  -1.0311  -0.9350  -0.8677  -0.8412
    -0.7850  -0.6965  -0.6499  -0.6281  -0.5557  -0.5362  -0.4621  -0.4183
    -0.4054  -0.3850  -0.3429  -0.2285  -0.1416  -0.1088  -0.0550  -0.0297
     0.0031   0.0301   0.0491   0.0978   0.1676   0.2535   0.2744   0.4132
     0.4653   0.5021   0.5776   0.6119   0.6183   0.7076   0.7390   0.7686
     0.8151   0.8898   0.9043   0.9052   0.9642   1.0482   1.1032   1.1635
     1.1692   1.2032   1.2117   1.2623   1.3509   1.3715   1.4406   1.4957
     1.8199   1.8820   2.4843   2.7288   2.9004   3.1772   3.3691   3.6726
     3.7148   3.7327   3.7329   4.1523

[...]

          k = 0.0380-0.0419 0.0000 ( 17876 PWs)   bands (ev):

[...]

          k =-0.0760-0.0000 0.0000 ( 17886 PWs)   bands (ev):

[...]

          k =-0.0760-0.0839 0.0000 ( 17948 PWs)   bands (ev):

   -56.5493 -56.5479 -55.6288 -55.6184 -55.4207 -55.3634 -55.2297 -55.1003
   -55.0991 -55.0303 -55.0041 -54.9734 -54.9090 -54.8157 -54.7472 -54.6147
   -32.8224 -32.8209 -32.8021 -32.8007 -32.6990 -32.6979 -31.9476 -31.9384
   -31.8233 -31.8181 -31.8121 -31.8104 -31.7202 -31.6773 -31.6520 -31.6389
   -31.5893 -31.5875 -31.5013 -31.4742 -31.4644 -31.4527 -31.4518 -31.3696
   -31.3501 -31.3204 -31.3189 -31.3015 -31.2943 -31.2845 -31.2806 -31.2801
   -31.2518 -31.2328 -31.2150 -31.2001 -31.1962 -31.1582 -31.1580 -31.1020
   -31.0908 -31.0504 -31.0066 -30.9952 -30.9590 -30.9525 -30.8529 -30.8358
   -16.0752 -16.0273 -16.0254 -15.9819 -15.9804 -15.7187 -15.7142 -15.4639
   -15.4346 -15.2552 -15.1513 -15.1273 -15.0838 -15.0422 -14.9711 -14.9167
   -14.8871 -14.8550 -14.8290 -14.7669 -14.7371 -14.6327 -14.5999 -14.5525
   -14.5162 -14.4543 -14.4133 -14.3641 -14.1766 -14.1331 -13.9570 -13.6121
   -13.6115 -13.5272  -7.7367  -4.1016  -3.9828  -3.6890  -3.1581  -3.1033
    -3.0989  -3.0666  -3.0594  -2.9738  -2.8527  -2.8496  -2.7549  -2.6476
    -2.6211  -2.5981  -2.5376  -2.5282  -2.4281  -2.3783  -2.3734  -2.3592
    -2.3229  -2.2933  -2.2868  -2.2269  -2.0884  -2.0723  -2.0231  -1.9691
    -1.8945  -1.8861  -1.8768  -1.8400  -1.7983  -1.7729  -1.7619  -1.7348
    -1.7300  -1.7255  -1.6160  -1.5111  -1.4639  -1.3703  -1.3661  -1.3571
    -1.3193  -1.2921  -1.2588  -1.2523  -1.2235  -1.1434  -1.1172  -1.0475
    -0.9337  -0.9158  -0.8741  -0.8257  -0.7220  -0.7037  -0.6140  -0.5777
    -0.5663  -0.5069  -0.4779  -0.4619  -0.4037  -0.3644  -0.2328  -0.1930
    -0.1814  -0.1645  -0.1421  -0.1059  -0.0446   0.0168   0.0486   0.0505
     0.1551   0.2549   0.3427   0.4120   0.4213   0.4445   0.5310   0.6363
     0.6774   0.7021   0.7504   0.8740   0.9918   1.0214   1.1291   1.1558
     1.1663   1.2632   1.2809   1.2861   1.3061   1.3152   1.3503   1.4168
     1.4777   1.7646   2.3173   3.3214   3.3245   3.3827   3.3884   3.6990
     3.7013   3.8125   3.8176   4.1356

     the Fermi energy is     2.3943 ev

!    total energy              =   -2976.42335379 Ry
     estimated scf accuracy    <       0.00000006 Ry
     smearing contrib. (-TS)   =      -0.01084020 Ry
     internal energy E=F+TS    =   -2976.41251359 Ry

     The total energy is F=E-TS. E is the sum of the following terms:
     one-electron contribution =  -22707.55703041 Ry
     hartree contribution      =   11450.12881290 Ry
     xc contribution           =    -495.34596695 Ry
     ewald contribution        =    8776.36091096 Ry
     electric field correction =       0.00075991 Ry

     convergence has been achieved in  66 iterations

     Forces acting on atoms (cartesian axes, Ry/au):

     atom    1 type  1   force =     0.00002040   -0.00052669    0.12634056
     atom    2 type  1   force =    -0.00010144    0.00042654   -0.15467381
     atom    3 type  2   force =     0.00002533    0.00002478   -0.06829115
     atom    4 type  2   force =     0.00005838   -0.00010964    0.01703513
     atom    5 type  2   force =    -0.00487726   -0.00242846   -0.01324290
     atom    6 type  2   force =     0.00655676   -0.00180662   -0.01376043
     atom    7 type  1   force =    -0.00029431   -0.00659650    0.05921656
     atom    8 type  1   force =     0.00038788    0.00687027    0.10028574
     atom    9 type  2   force =    -0.00002568    0.00065956    0.00131093
     atom   10 type  2   force =    -0.00261542   -0.00001280   -0.06337316
     atom   11 type  2   force =     0.00044115   -0.00068461   -0.00027749
     atom   12 type  2   force =    -0.00085965   -0.00112284   -0.00109295
     atom   13 type  1   force =    -0.00029342    0.00071313   -0.00137240
     atom   14 type  1   force =    -0.00033015   -0.00038273   -0.00025079
     atom   15 type  2   force =    -0.00066362   -0.00039249   -0.00059341
     atom   16 type  2   force =     0.00019548    0.00092765   -0.00030142
     atom   17 type  2   force =     0.00078643    0.00008913   -0.00054588
     atom   18 type  2   force =    -0.00023340   -0.00015619   -0.00002778
     atom   19 type  1   force =    -0.00018627   -0.00011497   -0.00094076
     atom   20 type  1   force =     0.00068753    0.00084858   -0.00047865
     atom   21 type  2   force =     0.00005988    0.00015672    0.09777048
     atom   22 type  2   force =     0.00040869   -0.00033083    0.00143827
     atom   23 type  2   force =    -0.08277415    0.00005535   -0.03314537
     atom   24 type  2   force =     0.08271463    0.00050357   -0.03321998
     atom   25 type  1   force =     0.00006980   -0.00036302    0.12646941
     atom   26 type  1   force =    -0.00011495   -0.00150316   -0.15485585
     atom   27 type  2   force =     0.00011334   -0.00046743   -0.06667041
     atom   28 type  2   force =     0.00004767    0.00167196    0.01197395
     atom   29 type  2   force =    -0.00342877    0.00421685   -0.01621470
     atom   30 type  2   force =     0.00505440    0.00456279   -0.01661751
     atom   31 type  1   force =    -0.00016005    0.00218783    0.04256092
     atom   32 type  1   force =     0.00044140   -0.00894090    0.10086169
     atom   33 type  2   force =    -0.00048503   -0.00012788   -0.00038482
     atom   34 type  2   force =    -0.00212689   -0.00026241   -0.07624248
     atom   35 type  2   force =    -0.00009423    0.00070206    0.00086718
     atom   36 type  2   force =    -0.00050370    0.00052090    0.00039258
     atom   37 type  1   force =     0.00043702    0.00060120   -0.00019244
     atom   38 type  1   force =    -0.00041378   -0.00067248   -0.00066965
     atom   39 type  2   force =     0.00044786   -0.00031414   -0.00041638
     atom   40 type  2   force =     0.00036874   -0.00062518   -0.00000469
     atom   41 type  2   force =     0.00026669    0.00048262   -0.00002764
     atom   42 type  2   force =    -0.00020321   -0.00018333    0.00012719
     atom   43 type  1   force =     0.00051653    0.00134102   -0.00092845
     atom   44 type  1   force =    -0.00024801   -0.00105082    0.00082106
     atom   45 type  2   force =     0.00009105   -0.00001685    0.09762386
     atom   46 type  2   force =    -0.08281896    0.00003699   -0.03319440
     atom   47 type  2   force =     0.08272619    0.00045617   -0.03320341
     atom   48 type  3   force =     0.00002127    0.00039003    0.00041089
     atom   49 type  3   force =     0.00372065   -0.02214174    0.00132277
     atom   50 type  4   force =     0.00076059    0.00040439    0.00060840
     atom   51 type  5   force =    -0.00001802   -0.00030637   -0.00056858
     atom   52 type  5   force =     0.00008423    0.00092602   -0.00055968
     atom   53 type  5   force =    -0.00017026    0.00032399    0.00038966
     atom   54 type  5   force =    -0.00211295    0.00835774    0.00662198
     atom   55 type  5   force =    -0.00538385    0.00922028   -0.00584938
     atom   56 type  5   force =     0.00428867    0.00453824   -0.00274637
     atom   57 type  2   force =    -0.00180142   -0.00056912    0.00036507
     atom   58 type  5   force =     0.00154019   -0.00000616    0.00012085

     Total force =     0.421635     Total SCF correction =     0.000440
  @ DRIVER MODE: Message from server: STATUS
  @ DRIVER MODE: Message from server: GETFORCE
  @ DRIVER MODE: Returning v,forces,stress,ensemble

     Writing output data file ./calc.save/
  @ DRIVER MODE: Message from server: EXIT
  @ DRIVE MODE: Exiting

     General routines

     Parallel routines

   This run was terminated on:  20:10:45  22Sep2021

   JOB DONE.