     Program PWSCF v.6.7GPU starts on 19Oct2021 at  2:24:32

     R & G space division:  proc/nbgrp/npool/nimage =       8
     Reading input from /storage/home/hcoda1/3/ntian30/research/carbon/CxH_vib/Thiel_calc/ads_slab/NH2NH2_perslab/out_0034/pw.inp
Warning: card &CELL ignored
Warning: card   CELL_DYNAMICS='IPI', ignored
Warning: card / ignored

     Current dimensions of program PWSCF are:
     Max number of different atomic species (ntypx) = 10
     Max number of k-points (npk) =  40000
     Max angular momentum in pseudopotentials (lmaxx) =  3
     Presently no symmetry can be used with electric field

     Message from routine cell_base_init:
     DEPRECATED: use true lattice parameter, not A to a.u. conversion factor

     IMPORTANT: XC functional enforced from input :
     Exchange-correlation= BEEF-VDW
                           (   1   4  43  14   2   0   0)
     Any further DFT definition will be discarded
     Please, verify this is what you really want

  @ DRIVER MODE: Connecting to
 qe_1139763_3255136.sched-torque.pace.gatech.edu_l24dt7j_scratch
  using UNIX socket
  @ DRIVER MODE: Message from server: STATUS
  @ DRIVER MODE: Message from server: INIT
  @ DRIVER MODE: Receiving replica           0          -1
  @ DRIVER MODE: Receiving encoded integer          25
  @ DRIVER MODE:  SCF:  T  FORCE:  T  STRESS:  F  VC:  F  ENSEMBLE:  F
  @ DRIVER MODE:  SCF:  T  FORCE:  T  STRESS:  F  VC:  F  ENSEMBLE:  F

     Using Slab Decomposition

     bravais-lattice index     =            0
     lattice parameter (alat)  =       1.8897  a.u.
     unit-cell volume          =    9988.4706 (a.u.)^3
     number of atoms/cell      =           59
     number of atomic types    =            4
     number of electrons       =       440.00
     number of Kohn-Sham states=          230
     kinetic-energy cutoff     =      29.3995  Ry
     charge density cutoff     =     293.9946  Ry
     scf convergence threshold =      7.3E-08
     mixing beta               =       0.0500
     number of iterations used =            8  plain     mixing
     Exchange-correlation= BEEF-VDW
                           (   1   4  43  14   2   0   0)

     celldm(1)=   1.889726  celldm(2)=   0.000000  celldm(3)=   0.000000
     celldm(4)=   0.000000  celldm(5)=   0.000000  celldm(6)=   0.000000

     crystal axes: (cart. coord. in units of alat)
               a(1) = (   6.579727   0.000000   0.000000 )
               a(2) = (  -0.001163   8.942395   0.000000 )
               a(3) = (   0.000000   0.000000  25.155947 )

     reciprocal axes: (cart. coord. in units 2 pi/alat)
               b(1) = (  0.151982  0.000020  0.000000 )
               b(2) = (  0.000000  0.111827  0.000000 )
               b(3) = (  0.000000  0.000000  0.039752 )

     PseudoPot. # 1 for O  read from file:
     /storage/coda1/p-amedford6/0/shared/rich_project_chbe-medford/medford-share/data/pseudos_module/espresso/nninc/pbe/van/O.UPF
     MD5 check sum: 78c19812648e8988a0fe644b0f25305e
     Pseudo is Ultrasoft, Zval =  6.0
     Generated by new atomic code, or converted to UPF format
     Using radial grid of  737 points,  4 beta functions with:
                l(1) =   0
                l(2) =   0
                l(3) =   1
                l(4) =   1
     Q(r) pseudized with  8 coefficients,  rinner =    0.800   0.800   0.800

     PseudoPot. # 2 for Ti read from file:
     /storage/coda1/p-amedford6/0/shared/rich_project_chbe-medford/medford-share/data/pseudos_module/espresso/nninc/pbe/van/Ti.UPF
     MD5 check sum: 8e4df49b7f0d34bbd5052bf3f5ea0213
     Pseudo is Ultrasoft, Zval = 12.0
     Generated by new atomic code, or converted to UPF format
     Using radial grid of  851 points,  6 beta functions with:
                l(1) =   0
                l(2) =   0
                l(3) =   1
                l(4) =   1
                l(5) =   2
                l(6) =   2
     Q(r) pseudized with  8 coefficients,  rinner =    1.000   1.000   1.000
                                                       1.000   1.000

     PseudoPot. # 3 for N  read from file:
     /storage/coda1/p-amedford6/0/shared/rich_project_chbe-medford/medford-share/data/pseudos_module/espresso/nninc/pbe/van/N.UPF
     MD5 check sum: 90d10febe142ad51ac9d5be1deb811c4
     Pseudo is Ultrasoft, Zval =  5.0
     Generated by new atomic code, or converted to UPF format
     Using radial grid of  729 points,  4 beta functions with:
                l(1) =   0
                l(2) =   0
                l(3) =   1
                l(4) =   1
     Q(r) pseudized with  8 coefficients,  rinner =    0.800   0.800   0.800

     PseudoPot. # 4 for H  read from file:
     /storage/coda1/p-amedford6/0/shared/rich_project_chbe-medford/medford-share/data/pseudos_module/espresso/nninc/pbe/van/H.UPF
     MD5 check sum: b5ee9d7bfd3a09ee7748110bda690ff7
     Pseudo is Ultrasoft, Zval =  1.0
     Generated by new atomic code, or converted to UPF format
     Using radial grid of  615 points,  1 beta functions with:
                l(1) =   0
     Q(r) pseudized with  8 coefficients,  rinner =    0.800

     atomic species   valence    mass     pseudopotential
        O1             6.00    15.99900     O ( 1.00)
        Ti1           12.00    47.86700     Ti( 1.00)
        N1             5.00    14.00700     N ( 1.00)
        H1             1.00     1.00800     H ( 1.00)

     No symmetry found

   Cartesian axes

     site n.     atom                  positions (alat units)
         1           O1  tau(   1) = (   0.0007354   0.0005023  10.5931620  )
         2           O1  tau(   2) = (   3.2892726   8.9022636  13.7900476  )
         3           O1  tau(   3) = (  -0.0000012   0.0159539  17.0845323  )
         4           O1  tau(   4) = (   0.0006271   0.0005054   7.9858123  )
         5           O1  tau(   5) = (   3.2903981   0.0001071  11.1466942  )
         6           O1  tau(   6) = (   6.5796972   0.0370899  14.4522764  )
         7           O1  tau(   7) = (   1.9868534   1.4903216   9.2879459  )
         8           O1  tau(   8) = (   5.2071659   1.5879261  12.5336177  )
         9           O1  tau(   9) = (   2.0150580   1.5800225  15.9505780  )
        10           Ti1 tau(  10) = (   0.0007404   1.4906270   9.2895810  )
        11           Ti1 tau(  11) = (   3.2907621   1.2831726  12.4565622  )
        12           Ti1 tau(  12) = (   6.5792216   1.1939559  15.8009323  )
        13           O1  tau(  13) = (   4.5942328   1.4918067   9.2879030  )
        14           O1  tau(  14) = (   1.3733293   1.5875306  12.5337771  )
        15           O1  tau(  15) = (   4.5635363   1.5794237  15.9511286  )
        16           Ti1 tau(  16) = (   3.2902859   2.9801868   9.2893338  )
        17           Ti1 tau(  17) = (   0.0006963   2.7899128  12.4910476  )
        18           Ti1 tau(  18) = (   3.2889055   2.8853182  15.6510148  )
        19           O1  tau(  19) = (   0.0003479   2.9813005  10.5931620  )
        20           O1  tau(  20) = (   3.2901137   2.9323735  13.8075185  )
        21           O1  tau(  21) = (   0.0002396   2.9813036   7.9858123  )
        22           O1  tau(  22) = (   3.2901566   2.9796509  11.1657827  )
        23           O1  tau(  23) = (  -0.0001005   3.0518452  14.6148139  )
        24           O1  tau(  24) = (   1.9864658   4.4711199   9.2879459  )
        25           O1  tau(  25) = (   5.2244327   4.5330399  12.5550231  )
        26           O1  tau(  26) = (   2.0317078   4.4891842  16.0144209  )
        27           Ti1 tau(  27) = (   0.0003529   4.4714252   9.2895810  )
        28           Ti1 tau(  28) = (   3.2908221   4.3047718  12.5439168  )
        29           Ti1 tau(  29) = (   0.0007318   4.2809743  15.9563396  )
        30           O1  tau(  30) = (   4.5938453   4.4726049   9.2879030  )
        31           O1  tau(  31) = (   1.3553747   4.5324408  12.5551093  )
        32           O1  tau(  32) = (   4.5484712   4.4888783  16.0159471  )
        33           Ti1 tau(  33) = (   3.2898983   5.9609850   9.2893338  )
        34           Ti1 tau(  34) = (   0.0004637   5.7541984  12.5654138  )
        35           Ti1 tau(  35) = (   3.2913524   5.8154114  16.2798070  )
        36           O1  tau(  36) = (  -0.0000397   5.9620987  10.5931620  )
        37           O1  tau(  37) = (   3.2897947   5.8994426  13.7907643  )
        38           O1  tau(  38) = (   0.0001798   5.9238570  17.1594641  )
        39           O1  tau(  39) = (  -0.0001480   5.9621018   7.9858123  )
        40           O1  tau(  40) = (   3.2896433   5.9245955  11.1661191  )
        41           O1  tau(  41) = (   0.0000838   5.9808129  14.5563373  )
        42           O1  tau(  42) = (   1.9860782   7.4519181   9.2879459  )
        43           O1  tau(  43) = (   5.2244350   7.5051086  12.5363475  )
        44           O1  tau(  44) = (   2.0177701   7.5673364  15.9764862  )
        45           Ti1 tau(  45) = (  -0.0000347   7.4522234   9.2895810  )
        46           Ti1 tau(  46) = (   3.2896674   7.1828241  12.5854878  )
        47           Ti1 tau(  47) = (   0.0003403   7.2137487  16.0183084  )
        48           O1  tau(  48) = (   4.5934577   7.4534031   9.2879030  )
        49           O1  tau(  49) = (   1.3543201   7.5047529  12.5365769  )
        50           O1  tau(  50) = (   4.5609347   7.5656990  15.9757490  )
        51           Ti1 tau(  51) = (   3.2895107   8.9417832   9.2893338  )
        52           Ti1 tau(  52) = (  -0.0005834   8.7067995  12.4790564  )
        53           Ti1 tau(  53) = (   3.2900135   8.8028796  15.6464995  )
        54           N1  tau(  54) = (   3.2900669   5.9334594  18.1702238  )
        55           H1  tau(  55) = (   3.2900466   5.1481598  18.8081281  )
        56           H1  tau(  56) = (   3.2872703   6.8047138  18.6863891  )
        57           N1  tau(  57) = (   0.0002662   3.1405291  17.5522950  )
        58           H1  tau(  58) = (   0.0007553   2.2326612  18.0099153  )
        59           H1  tau(  59) = (   6.5771877   3.8486968  18.2941669  )

     number of k points=    10  Fermi-Dirac smearing, width (Ry)=  0.0073
                       cart. coord. in units 2pi/alat
        k(    1) = (   0.0000000   0.0000000   0.0000000), wk =   0.1250000
        k(    2) = (   0.0000000   0.0279567   0.0000000), wk =   0.2500000
        k(    3) = (   0.0000000  -0.0559134   0.0000000), wk =   0.1250000
        k(    4) = (   0.0379955   0.0000049   0.0000000), wk =   0.2500000
        k(    5) = (   0.0379955   0.0279617   0.0000000), wk =   0.2500000
        k(    6) = (   0.0379955  -0.0559085   0.0000000), wk =   0.2500000
        k(    7) = (   0.0379955  -0.0279518   0.0000000), wk =   0.2500000
        k(    8) = (  -0.0759910  -0.0000099   0.0000000), wk =   0.1250000
        k(    9) = (  -0.0759910   0.0279468   0.0000000), wk =   0.2500000
        k(   10) = (  -0.0759910  -0.0559233   0.0000000), wk =   0.1250000

     Initial potential from superposition of free atoms

     starting charge  421.99910, renormalised to  440.00000

     negative rho (up, down):  3.741E-02 0.000E+00

     %%%%%%%%%%%%%%%%%%%%%%%%%%%%%%%%%%%%%%%%%%%%%%%%%%%%%%%%%%%%%%%%%%%%%%%%
     %                                                                      %
     % You are using vdW-DF, which was implemented by the Thonhauser group. %
     % Please cite the following two papers that made this development      %
     % possible and the two reviews that describe the various versions:     %
     %                                                                      %
     %   T. Thonhauser et al., PRL 115, 136402 (2015).                      %
     %   T. Thonhauser et al., PRB 76, 125112 (2007).                       %
     %   K. Berland et al., Rep. Prog. Phys. 78, 066501 (2015).             %
     %   D.C. Langreth et al., J. Phys.: Condens. Matter 21, 084203 (2009). %
     %                                                                      %
     %                                                                      %
     % If you are calculating the stress with vdW-DF, please also cite:     %
     %                                                                      %
     %   R. Sabatini et al., J. Phys.: Condens. Matter 24, 424209 (2012).   %
     %                                                                      %
     %%%%%%%%%%%%%%%%%%%%%%%%%%%%%%%%%%%%%%%%%%%%%%%%%%%%%%%%%%%%%%%%%%%%%%%%

     Adding external electric field

     Computed dipole along edir(3) :
        Dipole               -3.9767 Ry au,        -10.1078 Debye
        Dipole field         -0.0050 Ry au,

        Potential amp.        0.4638 Ry
        Total length         46.3494 bohr

     Starting wfcs are  332 atomic wfcs
  @ DRIVER MODE: Message from server: STATUS
  @ DRIVER MODE: Message from server: POSDATA
  @ DRIVER MODE: Reading and sharing cell
  @ DRIVER MODE: Reading and sharing positions
  @ DRIVER MODE: Received positions

     Self-consistent Calculation

     iteration #  1     ecut=    29.40 Ry     beta= 0.05
     Davidson diagonalization with overlap
     c_bands:  1 eigenvalues not converged
     c_bands:  2 eigenvalues not converged
     c_bands:  3 eigenvalues not converged
     c_bands:  4 eigenvalues not converged
     c_bands:  1 eigenvalues not converged
     c_bands:  3 eigenvalues not converged
     c_bands:  4 eigenvalues not converged
     c_bands:  3 eigenvalues not converged
     c_bands:  3 eigenvalues not converged
     ethr =  1.00E-05,  avg # of iterations = 19.2

[...]

     total energy              =   -3293.76830367 Ry
     estimated scf accuracy    <      28.46821895 Ry

     iteration #  2     ecut=    29.40 Ry     beta= 0.05
     Davidson diagonalization with overlap
     ethr =  6.47E-03,  avg # of iterations =  1.1

[...]

     iteration # 25     ecut=    29.40 Ry     beta= 0.05
     Davidson diagonalization with overlap
     c_bands:  1 eigenvalues not converged
     ethr =  1.19E-06,  avg # of iterations =  8.7

[...]

     total energy              =   -3293.29551035 Ry
     estimated scf accuracy    <       0.00000008 Ry

     iteration # 58     ecut=    29.40 Ry     beta= 0.05
     Davidson diagonalization with overlap
     ethr =  1.84E-11,  avg # of iterations =  1.7

     negative rho (up, down):  3.609E-02 0.000E+00

     Adding external electric field

     Computed dipole along edir(3) :
        Dipole                0.9491 Ry au,          2.4124 Debye
        Dipole field          0.0012 Ry au,

        Potential amp.       -0.1107 Ry
        Total length         46.3494 bohr

     End of self-consistent calculation

          k = 0.0000 0.0000 0.0000 ( 26871 PWs)   bands (ev):

   -58.4698 -58.4463 -58.4404 -58.4026 -58.3577 -58.0051 -57.9663 -57.9630
   -57.8790 -57.7593 -57.6862 -57.5724 -57.4744 -57.2236 -57.1432 -57.0726
   -57.0325 -57.0196 -34.8704 -34.8350 -34.8078 -34.7914 -34.7880 -34.7816
   -34.7329 -34.6724 -34.6453 -34.5946 -34.5820 -34.5794 -34.5737 -34.5519
   -34.5067 -34.4069 -34.3711 -34.3458 -34.3223 -34.3178 -34.2736 -34.2406
   -34.2285 -34.2242 -34.1893 -34.1866 -34.1538 -34.0566 -34.0454 -33.9869
   -33.9832 -33.9540 -33.8986 -33.8831 -33.8632 -33.8044 -33.7407 -33.7266
   -33.6842 -33.6713 -33.5822 -33.4619 -33.4480 -33.4170 -33.4159 -33.3804
   -33.3746 -33.3702 -33.3554 -33.3449 -33.2765 -33.2120 -33.1910 -33.0710
   -19.0220 -18.5588 -18.5001 -18.3506 -18.3015 -18.2813 -18.2751 -18.1243
   -17.9076 -17.8623 -17.8479 -17.8267 -17.7438 -17.7237 -17.7079 -17.6860
   -17.6709 -17.6500 -17.5614 -17.5559 -17.5348 -17.5103 -17.4904 -17.4357
   -17.3762 -17.3545 -17.2667 -17.1917 -17.1513 -16.9285 -16.6727 -16.5923
   -15.5385 -15.4974 -15.4889 -15.2433 -15.1464  -6.7500  -6.5939  -6.3568
    -6.1626  -5.9503  -5.8142  -5.6966  -5.6432  -5.5621  -5.4961  -5.4584
    -5.4564  -5.3957  -5.3489  -5.2549  -5.2486  -5.1567  -5.1071  -5.0908
    -5.0615  -5.0118  -4.9665  -4.9209  -4.9056  -4.8445  -4.8007  -4.7903
    -4.7406  -4.6794  -4.6754  -4.6545  -4.6529  -4.6187  -4.5823  -4.4637
    -4.4604  -4.4154  -4.3519  -4.3006  -4.2633  -4.2229  -4.1896  -4.1891
    -4.1725  -4.1270  -4.0933  -3.9191  -3.8673  -3.8300  -3.7977  -3.7156
    -3.6515  -3.5950  -3.5597  -3.5150  -3.4282  -3.3591  -3.3515  -3.3418
    -3.2763  -3.2330  -3.1955  -3.1633  -3.1452  -3.0827  -3.0298  -3.0296
    -2.9878  -2.9717  -2.9575  -2.9119  -2.8573  -2.8334  -2.8309  -2.7920
    -2.7852  -2.7429  -2.6455  -2.6160  -2.5555  -2.5171  -2.4624  -2.4146
    -2.4082  -2.3738  -2.3363  -2.2679  -2.1756  -2.1256  -1.9949  -1.9894
    -1.9124  -1.9021  -1.8354  -1.8075  -1.7907  -1.7442  -1.7164  -1.6026
    -1.5269  -1.4081  -1.1942  -0.9903  -0.8438  -0.7652  -0.7507  -0.7067
    -0.5676  -0.5485  -0.4623  -0.4517   0.8061   0.9417   1.1015   1.1194
     1.3193   1.4481   1.4662   1.5087   1.5655   1.7162

[...]

          k = 0.0380-0.0280 0.0000 ( 26873 PWs)   bands (ev):

[...]

          k =-0.0760-0.0000 0.0000 ( 26902 PWs)   bands (ev):

[...]

          k =-0.0760-0.0559 0.0000 ( 26868 PWs)   bands (ev):

   -58.4639 -58.4578 -58.4346 -58.4024 -58.3578 -58.0050 -57.9664 -57.9629
   -57.8788 -57.7595 -57.6860 -57.5723 -57.4744 -57.2237 -57.1431 -57.0714
   -57.0365 -57.0168 -34.8985 -34.8828 -34.8386 -34.8102 -34.7789 -34.6883
   -34.6717 -34.6234 -34.6169 -34.6048 -34.6024 -34.5912 -34.5766 -34.5552
   -34.5538 -34.4351 -34.3789 -34.3591 -34.3445 -34.3242 -34.2559 -34.2227
   -34.2190 -34.1887 -34.1801 -34.1640 -34.1176 -34.0646 -34.0567 -34.0304
   -33.9907 -33.9743 -33.9031 -33.8974 -33.8760 -33.7895 -33.7405 -33.7043
   -33.6821 -33.6576 -33.5701 -33.4818 -33.4519 -33.4508 -33.4186 -33.4169
   -33.3856 -33.3670 -33.3659 -33.2683 -33.2336 -33.1827 -33.1808 -33.1519
   -18.8088 -18.6603 -18.4149 -18.3162 -18.1530 -18.1056 -18.0526 -18.0423
   -18.0365 -17.9408 -17.9235 -17.8790 -17.8725 -17.8226 -17.7978 -17.7863
   -17.7792 -17.7474 -17.6804 -17.6240 -17.5387 -17.4464 -17.4340 -17.4182
   -17.4115 -17.3324 -17.2341 -17.1882 -17.1512 -16.9515 -16.6821 -16.5543
   -15.5503 -15.5372 -15.4276 -15.2384 -15.1473  -6.7457  -6.6053  -6.1207
    -5.9257  -5.8939  -5.8530  -5.5355  -5.4925  -5.3881  -5.3591  -5.3553
    -5.3281  -5.2838  -5.2455  -5.1904  -5.1551  -5.1368  -5.1288  -5.1111
    -5.0842  -5.0364  -5.0114  -4.9689  -4.9637  -4.9484  -4.9181  -4.8951
    -4.8461  -4.8372  -4.7657  -4.7560  -4.7220  -4.5261  -4.4737  -4.4116
    -4.3624  -4.2959  -4.2396  -4.1894  -4.1889  -4.1057  -4.1023  -4.0375
    -3.9780  -3.8914  -3.8110  -3.8032  -3.7806  -3.7525  -3.7195  -3.6870
    -3.6638  -3.6434  -3.6039  -3.5560  -3.5183  -3.4449  -3.4122  -3.4060
    -3.3651  -3.3459  -3.3347  -3.3306  -3.3140  -3.2098  -3.2031  -3.1430
    -3.1092  -3.1006  -3.0334  -3.0275  -2.9756  -2.9503  -2.8811  -2.8429
    -2.8340  -2.7454  -2.7379  -2.7336  -2.6529  -2.6428  -2.5431  -2.5101
    -2.4254  -2.3004  -2.1803  -2.1786  -2.1690  -2.0477  -2.0456  -2.0344
    -1.9901  -1.9270  -1.9025  -1.7196  -1.7166  -1.6713  -1.6009  -1.5795
    -1.5552  -1.5404  -1.4241  -1.4025  -0.9978  -0.7147  -0.6825  -0.6776
    -0.6442  -0.6152  -0.5819  -0.5731   0.8577   1.0183   1.0962   1.1617
     1.1873   1.2311   1.2629   1.4373   1.4999   1.5068

     the Fermi energy is     0.2186 ev

!    total energy              =   -3293.29555692 Ry
     estimated scf accuracy    <       0.00000006 Ry
     smearing contrib. (-TS)   =      -0.00052628 Ry
     internal energy E=F+TS    =   -3293.29503064 Ry

     The total energy is F=E-TS. E is the sum of the following terms:
     one-electron contribution =  -34586.20397415 Ry
     hartree contribution      =   17354.92855023 Ry
     xc contribution           =    -542.07092485 Ry
     ewald contribution        =   14480.05018482 Ry
     electric field correction =       0.00113331 Ry

     convergence has been achieved in  58 iterations

     Forces acting on atoms (cartesian axes, Ry/au):

     atom    1 type  1   force =    -0.00000740    0.00891300    0.04220549
     atom    2 type  1   force =     0.00002260   -0.00249304   -0.00297809
     atom    3 type  1   force =    -0.00003331   -0.00627442   -0.00113455
     atom    4 type  1   force =     0.00004774    0.00395170    0.10168207
     atom    5 type  1   force =     0.00002027   -0.00060167    0.00718206
     atom    6 type  1   force =    -0.00002481    0.00084152    0.00285810
     atom    7 type  1   force =     0.07635917    0.00119666   -0.03508644
     atom    8 type  1   force =     0.00752919   -0.02413253    0.00123191
     atom    9 type  1   force =     0.00788461   -0.02074306    0.00176375
     atom   10 type  2   force =    -0.00003542   -0.00384201   -0.16974104
     atom   11 type  2   force =    -0.00011460    0.02225704   -0.00323083
     atom   12 type  2   force =    -0.00000071    0.02028166   -0.00580454
     atom   13 type  1   force =    -0.07645298    0.00074359   -0.03503775
     atom   14 type  1   force =    -0.00760888   -0.02400797    0.00122611
     atom   15 type  1   force =    -0.00783146   -0.02082530    0.00176978
     atom   16 type  2   force =     0.00010322    0.00207407    0.07522017
     atom   17 type  2   force =     0.00020794    0.02912005    0.00188890
     atom   18 type  2   force =    -0.00009727    0.02416023    0.00016812
     atom   19 type  1   force =     0.00000450    0.00222646    0.05609208
     atom   20 type  1   force =     0.00000327   -0.00075561   -0.00270937
     atom   21 type  1   force =     0.00004792   -0.00274001    0.10231980
     atom   22 type  1   force =     0.00000944   -0.00166343    0.00633636
     atom   23 type  1   force =    -0.00001810   -0.00391019    0.00170642
     atom   24 type  1   force =     0.07835479   -0.00055812   -0.03676555
     atom   25 type  1   force =     0.00977840   -0.02948654   -0.00097248
     atom   26 type  1   force =     0.01106883   -0.02682085   -0.00658485
     atom   27 type  2   force =    -0.00005733    0.01458399   -0.15612694
     atom   28 type  2   force =    -0.00013308    0.02623805   -0.00047529
     atom   29 type  2   force =     0.00004167    0.02290008    0.00315124
     atom   30 type  1   force =    -0.07845054   -0.00098734   -0.03671435
     atom   31 type  1   force =    -0.00983989   -0.02934239   -0.00097411
     atom   32 type  1   force =    -0.01094225   -0.02688409   -0.00663858
     atom   33 type  2   force =     0.00010302   -0.00383266    0.07802118
     atom   34 type  2   force =     0.00019474    0.03434455    0.00328218
     atom   35 type  2   force =    -0.00012279    0.03151586    0.00672488
     atom   36 type  1   force =     0.00001855    0.00148948    0.05145986
     atom   37 type  1   force =     0.00002316   -0.00165973   -0.00238020
     atom   38 type  1   force =    -0.00002102   -0.00332134    0.00007809
     atom   39 type  1   force =     0.00004902    0.00037402    0.09993439
     atom   40 type  1   force =     0.00001750   -0.00069189    0.00653522
     atom   41 type  1   force =    -0.00002531   -0.00087231    0.00424606
     atom   42 type  1   force =     0.07943358    0.00172188   -0.03465392
     atom   43 type  1   force =     0.00606516   -0.02325552    0.00044433
     atom   44 type  1   force =     0.00711646   -0.02150051    0.00387625
     atom   45 type  2   force =    -0.00005566   -0.01583310   -0.15540875
     atom   46 type  2   force =    -0.00010805    0.01694221    0.00086567
     atom   47 type  2   force =     0.00002067    0.02056272   -0.00096266
     atom   48 type  1   force =    -0.07952505    0.00128319   -0.03460171
     atom   49 type  1   force =    -0.00617908   -0.02314144    0.00043613
     atom   50 type  1   force =    -0.00697793   -0.02152776    0.00387312
     atom   51 type  2   force =     0.00008372   -0.00447002    0.06173389
     atom   52 type  2   force =     0.00020118    0.02907370    0.00060448
     atom   53 type  2   force =    -0.00014379    0.02939422    0.00014528
     atom   54 type  3   force =     0.00001280    0.00162009   -0.00119984
     atom   55 type  4   force =     0.00002848   -0.00045515    0.00025296
     atom   56 type  4   force =    -0.00005365   -0.00008133   -0.00008000
     atom   57 type  3   force =    -0.00002979    0.00649925    0.00711713
     atom   58 type  4   force =     0.00005525    0.00272954    0.00046672
     atom   59 type  4   force =    -0.00001665   -0.01032746   -0.00663832

     Total force =     0.439338     Total SCF correction =     0.000499
  @ DRIVER MODE: Message from server: STATUS
  @ DRIVER MODE: Message from server: GETFORCE
  @ DRIVER MODE: Returning v,forces,stress,ensemble

     Writing output data file ./calc.save/
  @ DRIVER MODE: Message from server: EXIT
  @ DRIVE MODE: Exiting

     General routines

     Parallel routines

   This run was terminated on:   2:51:35  19Oct2021

   JOB DONE.