     Program PWSCF v.6.7GPU starts on 21Jul2021 at  4: 7:11

     R & G space division:  proc/nbgrp/npool/nimage =      16
     Reading input from /storage/home/hcoda1/3/ntian30/research/carbon/15Jul_vib/ads_slab/CH3NHH_a/out_0024/pw.inp
Warning: card &CELL ignored
Warning: card   CELL_DYNAMICS='IPI', ignored
Warning: card / ignored

     Current dimensions of program PWSCF are:
     Max number of different atomic species (ntypx) = 10
     Max number of k-points (npk) =  40000
     Max angular momentum in pseudopotentials (lmaxx) =  3
     Presently no symmetry can be used with electric field

     Message from routine cell_base_init:
     DEPRECATED: use true lattice parameter, not A to a.u. conversion factor

     IMPORTANT: XC functional enforced from input :
     Exchange-correlation= BEEF-VDW
                           (   1   4  43  14   2   0   0)
     Any further DFT definition will be discarded
     Please, verify this is what you really want

  @ DRIVER MODE: Connecting to
 qe_1139763_2382402.sched-torque.pace.gatech.edu174aruxs_scratch
  using UNIX socket
  @ DRIVER MODE: Message from server: STATUS
  @ DRIVER MODE: Message from server: INIT
  @ DRIVER MODE: Receiving replica           0          -1
  @ DRIVER MODE: Receiving encoded integer          25
  @ DRIVER MODE:  SCF:  T  FORCE:  T  STRESS:  F  VC:  F  ENSEMBLE:  F
  @ DRIVER MODE:  SCF:  T  FORCE:  T  STRESS:  F  VC:  F  ENSEMBLE:  F

     Using Slab Decomposition

     bravais-lattice index     =            0
     lattice parameter (alat)  =       1.8897  a.u.
     unit-cell volume          =    6658.9804 (a.u.)^3
     number of atoms/cell      =           54
     number of atomic types    =            5
     number of electrons       =       392.00
     number of Kohn-Sham states=          206
     kinetic-energy cutoff     =      29.3995  Ry
     charge density cutoff     =     293.9946  Ry
     scf convergence threshold =      7.3E-08
     mixing beta               =       0.0500
     number of iterations used =            8  plain     mixing
     Exchange-correlation= BEEF-VDW
                           (   1   4  43  14   2   0   0)

     celldm(1)=   1.889726  celldm(2)=   0.000000  celldm(3)=   0.000000
     celldm(4)=   0.000000  celldm(5)=   0.000000  celldm(6)=   0.000000

     crystal axes: (cart. coord. in units of alat)
               a(1) = (   6.579727   0.000000   0.000000 )
               a(2) = (  -0.000775   5.961596   0.000000 )
               a(3) = (   0.000000   0.000000  25.155947 )

     reciprocal axes: (cart. coord. in units 2 pi/alat)
               b(1) = (  0.151982  0.000020  0.000000 )
               b(2) = (  0.000000  0.167740  0.000000 )
               b(3) = (  0.000000  0.000000  0.039752 )

     PseudoPot. # 1 for Ti read from file:
     /storage/coda1/p-amedford6/0/shared/rich_project_chbe-medford/medford-share/data/pseudos_module/espresso/nninc/pbe/van/Ti.UPF
     MD5 check sum: 8e4df49b7f0d34bbd5052bf3f5ea0213
     Pseudo is Ultrasoft, Zval = 12.0
     Generated by new atomic code, or converted to UPF format
     Using radial grid of  851 points,  6 beta functions with:
                l(1) =   0
                l(2) =   0
                l(3) =   1
                l(4) =   1
                l(5) =   2
                l(6) =   2
     Q(r) pseudized with  8 coefficients,  rinner =    1.000   1.000   1.000
                                                       1.000   1.000

     PseudoPot. # 2 for O  read from file:
     /storage/coda1/p-amedford6/0/shared/rich_project_chbe-medford/medford-share/data/pseudos_module/espresso/nninc/pbe/van/O.UPF
     MD5 check sum: 78c19812648e8988a0fe644b0f25305e
     Pseudo is Ultrasoft, Zval =  6.0
     Generated by new atomic code, or converted to UPF format
     Using radial grid of  737 points,  4 beta functions with:
                l(1) =   0
                l(2) =   0
                l(3) =   1
                l(4) =   1
     Q(r) pseudized with  8 coefficients,  rinner =    0.800   0.800   0.800

     PseudoPot. # 3 for N  read from file:
     /storage/coda1/p-amedford6/0/shared/rich_project_chbe-medford/medford-share/data/pseudos_module/espresso/nninc/pbe/van/N.UPF
     MD5 check sum: 90d10febe142ad51ac9d5be1deb811c4
     Pseudo is Ultrasoft, Zval =  5.0
     Generated by new atomic code, or converted to UPF format
     Using radial grid of  729 points,  4 beta functions with:
                l(1) =   0
                l(2) =   0
                l(3) =   1
                l(4) =   1
     Q(r) pseudized with  8 coefficients,  rinner =    0.800   0.800   0.800

     PseudoPot. # 4 for C  read from file:
     /storage/coda1/p-amedford6/0/shared/rich_project_chbe-medford/medford-share/data/pseudos_module/espresso/nninc/pbe/van/C.UPF
     MD5 check sum: 1a69bf6b8db32088f5b2163dbdb77a27
     Pseudo is Ultrasoft, Zval =  4.0
     Generated by new atomic code, or converted to UPF format
     Using radial grid of  721 points,  4 beta functions with:
                l(1) =   0
                l(2) =   0
                l(3) =   1
                l(4) =   1
     Q(r) pseudized with  8 coefficients,  rinner =    0.800   0.800   0.800

     PseudoPot. # 5 for H  read from file:
     /storage/coda1/p-amedford6/0/shared/rich_project_chbe-medford/medford-share/data/pseudos_module/espresso/nninc/pbe/van/H.UPF
     MD5 check sum: b5ee9d7bfd3a09ee7748110bda690ff7
     Pseudo is Ultrasoft, Zval =  1.0
     Generated by new atomic code, or converted to UPF format
     Using radial grid of  615 points,  1 beta functions with:
                l(1) =   0
     Q(r) pseudized with  8 coefficients,  rinner =    0.800

     atomic species   valence    mass     pseudopotential
        Ti1           12.00    47.86700     Ti( 1.00)
        O1             6.00    15.99900     O ( 1.00)
        N1             5.00    14.00700     N ( 1.00)
        C1             4.00    12.01100     C ( 1.00)
        H1             1.00     1.00800     H ( 1.00)

     Starting magnetic structure
     atomic species   magnetization
        Ti1          0.000
        O1           0.000
        N1           0.000
        C1           0.025
        H1           0.000

     No symmetry found

   Cartesian axes

     site n.     atom                  positions (alat units)
         1           Ti1 tau(   1) = (   0.0004258   2.9801865   6.0000000  )
         2           Ti1 tau(   2) = (   3.2906075   1.4906267   6.0002472  )
         3           O1  tau(   3) = (   0.0006271   0.0005054   7.9858123  )
         4           O1  tau(   4) = (   3.2906025   0.0005020   7.3038282  )
         5           O1  tau(   5) = (   4.5942328   1.4918067   9.2879030  )
         6           O1  tau(   6) = (   1.9868534   1.4903216   9.2879459  )
         7           Ti1 tau(   7) = (   3.2907910   2.8959150   9.1758416  )
         8           Ti1 tau(   8) = (   0.0015273   1.4827037   9.2680791  )
         9           O1  tau(   9) = (   3.2893523   5.9576907  11.3759447  )
        10           O1  tau(  10) = (   0.0116148   5.9584955  10.6183126  )
        11           O1  tau(  11) = (   1.2892553   1.4862333  12.6941169  )
        12           O1  tau(  12) = (   5.2958346   1.4833122  12.6807028  )
        13           Ti1 tau(  13) = (   0.0095698   2.9692159  12.5083673  )
        14           Ti1 tau(  14) = (   3.3108451   1.4743585  12.5306019  )
        15           O1  tau(  15) = (   6.5736105   5.8801748  14.6991865  )
        16           O1  tau(  16) = (   3.2979610   5.9450902  14.0010558  )
        17           O1  tau(  17) = (   4.5273680   1.5185660  16.1654609  )
        18           O1  tau(  18) = (   2.0122787   1.5163527  16.1384539  )
        19           Ti1 tau(  19) = (   3.2802752   2.9921964  15.7561315  )
        20           Ti1 tau(  20) = (   0.0093588   1.3049760  15.8672178  )
        21           O1  tau(  21) = (   3.2904802   0.0005063   4.7018136  )
        22           O1  tau(  22) = (   6.5538635   0.1342075  17.2452287  )
        23           O1  tau(  23) = (   1.3043587   1.4918075   6.0039043  )
        24           O1  tau(  24) = (   5.2767064   1.4903225   6.0039473  )
        25           Ti1 tau(  25) = (   0.0000382   5.9609847   6.0000000  )
        26           Ti1 tau(  26) = (   3.2902200   4.4714249   6.0002472  )
        27           O1  tau(  27) = (   0.0002396   2.9813036   7.9858123  )
        28           O1  tau(  28) = (   3.2902150   2.9813002   7.3038282  )
        29           O1  tau(  29) = (   4.5938453   4.4726049   9.2879030  )
        30           O1  tau(  30) = (   1.9864658   4.4711199   9.2879459  )
        31           Ti1 tau(  31) = (   3.2891106   5.8743827   9.1763621  )
        32           Ti1 tau(  32) = (   0.0006254   4.4649316   9.2693709  )
        33           O1  tau(  33) = (   3.2933707   2.9638296  11.3700534  )
        34           O1  tau(  34) = (   0.0092240   2.9805883  10.6323155  )
        35           O1  tau(  35) = (   1.2923283   4.4540072  12.6594629  )
        36           O1  tau(  36) = (   5.2938616   4.4568750  12.6477176  )
        37           Ti1 tau(  37) = (   0.0202681   5.9396231  12.5027719  )
        38           Ti1 tau(  38) = (   3.3116628   4.4527548  12.5215617  )
        39           O1  tau(  39) = (   6.5466975   3.0260875  14.9671898  )
        40           O1  tau(  40) = (   3.2966604   2.9917109  13.9679302  )
        41           O1  tau(  41) = (   4.5116687   4.4737236  16.2360857  )
        42           O1  tau(  42) = (   2.0028912   4.4646324  16.2202640  )
        43           Ti1 tau(  43) = (   3.2937213   0.0113368  15.7972781  )
        44           Ti1 tau(  44) = (   0.0208052   4.5175143  16.0574476  )
        45           O1  tau(  45) = (   3.2900926   2.9813045   4.7018136  )
        46           O1  tau(  46) = (   1.3039711   4.4726057   6.0039043  )
        47           O1  tau(  47) = (   5.2763189   4.4711207   6.0039473  )
        48           N1  tau(  48) = (   6.3337458   3.3624127  18.1270434  )
        49           C1  tau(  49) = (   0.8795605   3.2639204  19.0799812  )
        50           H1  tau(  50) = (   1.4196110   4.2071110  19.0760701  )
        51           H1  tau(  51) = (   0.5395241   3.0459488  20.1057609  )
        52           H1  tau(  52) = (   1.5475163   2.4696122  18.7548312  )
        53           H1  tau(  53) = (   5.6940081   4.0973896  18.4182617  )
        54           H1  tau(  54) = (   5.7906660   2.4998151  18.1411682  )

     number of k points=    10  Fermi-Dirac smearing, width (Ry)=  0.0073
                       cart. coord. in units 2pi/alat
        k(    1) = (   0.0000000   0.0000000   0.0000000), wk =   0.0625000
        k(    2) = (   0.0000000   0.0419351   0.0000000), wk =   0.1250000
        k(    3) = (   0.0000000  -0.0838702   0.0000000), wk =   0.0625000
        k(    4) = (   0.0379955   0.0000049   0.0000000), wk =   0.1250000
        k(    5) = (   0.0379955   0.0419400   0.0000000), wk =   0.1250000
        k(    6) = (   0.0379955  -0.0838652   0.0000000), wk =   0.1250000
        k(    7) = (   0.0379955  -0.0419301   0.0000000), wk =   0.1250000
[...]

     starting charge  375.99915, renormalised to  392.00000

     negative rho (up, down):  8.103E-03 8.109E-03

     %%%%%%%%%%%%%%%%%%%%%%%%%%%%%%%%%%%%%%%%%%%%%%%%%%%%%%%%%%%%%%%%%%%%%%%%
     %                                                                      %
     % You are using vdW-DF, which was implemented by the Thonhauser group. %
     % Please cite the following two papers that made this development      %
     % possible and the two reviews that describe the various versions:     %
     %                                                                      %
     %   T. Thonhauser et al., PRL 115, 136402 (2015).                      %
     %   T. Thonhauser et al., PRB 76, 125112 (2007).                       %
     %   K. Berland et al., Rep. Prog. Phys. 78, 066501 (2015).             %
     %   D.C. Langreth et al., J. Phys.: Condens. Matter 21, 084203 (2009). %
     %                                                                      %
     %                                                                      %
     % If you are calculating the stress with vdW-DF, please also cite:     %
     %                                                                      %
     %   R. Sabatini et al., J. Phys.: Condens. Matter 24, 424209 (2012).   %
     %                                                                      %
     %%%%%%%%%%%%%%%%%%%%%%%%%%%%%%%%%%%%%%%%%%%%%%%%%%%%%%%%%%%%%%%%%%%%%%%%

     Adding external electric field

     Computed dipole along edir(3) :
        Dipole               -7.5479 Ry au,        -19.1848 Debye
        Dipole field         -0.0142 Ry au,

        Potential amp.        1.3204 Ry
        Total length         46.3494 bohr

[...]

     Starting wfcs are  297 atomic wfcs
  @ DRIVER MODE: Message from server: STATUS
  @ DRIVER MODE: Message from server: POSDATA
  @ DRIVER MODE: Reading and sharing cell
  @ DRIVER MODE: Reading and sharing positions
  @ DRIVER MODE: Received positions

     Self-consistent Calculation

     iteration #  1     ecut=    29.40 Ry     beta= 0.05
     Davidson diagonalization with overlap
     c_bands:  1 eigenvalues not converged
     c_bands:  2 eigenvalues not converged
     c_bands:  1 eigenvalues not converged
     c_bands:  1 eigenvalues not converged
     c_bands:  1 eigenvalues not converged
     c_bands:  1 eigenvalues not converged
     c_bands:  1 eigenvalues not converged
     c_bands:  2 eigenvalues not converged
     c_bands:  1 eigenvalues not converged
     c_bands:  1 eigenvalues not converged
     c_bands:  1 eigenvalues not converged
     c_bands:  1 eigenvalues not converged
     ethr =  1.00E-05,  avg # of iterations = 19.6

[...]

     total energy              =   -2679.38987486 Ry
     estimated scf accuracy    <    2680.87730094 Ry

     total magnetization       =     0.00 Bohr mag/cell
     absolute magnetization    =     0.01 Bohr mag/cell

[...]

     iteration #  3     ecut=    29.40 Ry     beta= 0.05
     Davidson diagonalization with overlap
     ethr =  1.00E-02,  avg # of iterations = 15.4

[...]

     iteration # 72     ecut=    29.40 Ry     beta= 0.05
     Davidson diagonalization with overlap
     ethr =  2.25E-11,  avg # of iterations =  1.1

[...]

     total energy              =   -2921.63317475 Ry
     estimated scf accuracy    <       0.00000008 Ry

[...]

     iteration # 73     ecut=    29.40 Ry     beta= 0.05
     Davidson diagonalization with overlap
     c_bands:  2 eigenvalues not converged
     c_bands:  2 eigenvalues not converged
     c_bands:  1 eigenvalues not converged
     c_bands:  2 eigenvalues not converged
     c_bands:  2 eigenvalues not converged
     c_bands:  1 eigenvalues not converged
     ethr =  2.06E-11,  avg # of iterations = 17.0

     negative rho (up, down):  8.564E-03 8.565E-03

[...]

     Adding external electric field

     Computed dipole along edir(3) :
        Dipole                1.2942 Ry au,          3.2894 Debye
        Dipole field          0.0024 Ry au,

        Potential amp.       -0.2264 Ry
        Total length         46.3494 bohr

     Magnetic moment per site  (integrated on atomic sphere of radius R)
     atom   1 (R=0.738)  charge=  8.0426  magn=  0.0012
     atom   2 (R=0.738)  charge=  8.0243  magn=  0.0000
     atom   3 (R=0.738)  charge=  5.0120  magn= -0.0001
     atom   4 (R=0.738)  charge=  5.0490  magn=  0.0000
     atom   5 (R=0.738)  charge=  5.0182  magn= -0.0000
     atom   6 (R=0.738)  charge=  5.0186  magn= -0.0000
     atom   7 (R=0.738)  charge=  8.0244  magn=  0.0001
     atom   8 (R=0.738)  charge=  8.0255  magn=  0.0008
     atom   9 (R=0.738)  charge=  5.0259  magn=  0.0004
     atom  10 (R=0.738)  charge=  5.0261  magn=  0.0000
     atom  11 (R=0.738)  charge=  5.0131  magn=  0.0003
     atom  12 (R=0.738)  charge=  5.0142  magn=  0.0003
     atom  13 (R=0.738)  charge=  8.0323  magn= -0.0013
     atom  14 (R=0.738)  charge=  8.0300  magn= -0.0026
     atom  15 (R=0.738)  charge=  5.0263  magn= -0.0001
     atom  16 (R=0.738)  charge=  5.0222  magn=  0.0003
     atom  17 (R=0.738)  charge=  4.9995  magn=  0.0001
     atom  18 (R=0.738)  charge=  5.0035  magn=  0.0001
     atom  19 (R=0.738)  charge=  8.0637  magn= -0.0018
     atom  20 (R=0.738)  charge=  8.0765  magn= -0.0001
     atom  21 (R=0.738)  charge=  4.8972  magn= -0.0000
     atom  22 (R=0.738)  charge=  4.9758  magn= -0.0001
     atom  23 (R=0.738)  charge=  5.0093  magn= -0.0001
     atom  24 (R=0.738)  charge=  5.0095  magn= -0.0002
     atom  25 (R=0.738)  charge=  8.0426  magn=  0.0014
     atom  26 (R=0.738)  charge=  8.0244  magn=  0.0001
     atom  27 (R=0.738)  charge=  5.0118  magn= -0.0001
     atom  28 (R=0.738)  charge=  5.0493  magn= -0.0000
     atom  29 (R=0.738)  charge=  5.0191  magn= -0.0000
     atom  30 (R=0.738)  charge=  5.0194  magn= -0.0000
     atom  31 (R=0.738)  charge=  8.0246  magn= -0.0000
     atom  32 (R=0.738)  charge=  8.0257  magn=  0.0008
     atom  33 (R=0.738)  charge=  5.0253  magn=  0.0005
     atom  34 (R=0.738)  charge=  5.0228  magn=  0.0000
     atom  35 (R=0.738)  charge=  5.0162  magn=  0.0003
     atom  36 (R=0.738)  charge=  5.0179  magn=  0.0003
     atom  37 (R=0.738)  charge=  8.0280  magn= -0.0014
     atom  38 (R=0.738)  charge=  8.0303  magn= -0.0027
     atom  39 (R=0.738)  charge=  5.0062  magn= -0.0001
     atom  40 (R=0.738)  charge=  5.0343  magn=  0.0003
     atom  41 (R=0.738)  charge=  4.9975  magn=  0.0001
     atom  42 (R=0.738)  charge=  5.0021  magn=  0.0000
     atom  43 (R=0.738)  charge=  8.0613  magn= -0.0022
     atom  44 (R=0.738)  charge=  8.0414  magn=  0.0003
     atom  45 (R=0.738)  charge=  4.8972  magn= -0.0000
     atom  46 (R=0.738)  charge=  5.0093  magn= -0.0002
     atom  47 (R=0.738)  charge=  5.0095  magn= -0.0001
     atom  48 (R=0.420)  charge=  1.3384  magn= -0.0000
     atom  49 (R=0.448)  charge=  0.8428  magn=  0.0000
     atom  50 (R=0.420)  charge=  0.4443  magn= -0.0000
     atom  51 (R=0.420)  charge=  0.4397  magn= -0.0000
     atom  52 (R=0.420)  charge=  0.4441  magn= -0.0000
     atom  53 (R=0.420)  charge=  0.4504  magn=  0.0000
     atom  54 (R=0.420)  charge=  0.4502  magn= -0.0000

     End of self-consistent calculation

 ------ SPIN UP ------------

          k = 0.0000 0.0000 0.0000 ( 18029 PWs)   bands (ev):

   -55.4316 -55.3951 -55.3864 -55.3588 -55.3522 -55.3160 -55.3114 -55.2769
   -55.2540 -55.2369 -55.2196 -55.2166 -55.1830 -55.1170 -54.4147 -54.3807
   -32.0016 -31.8900 -31.8780 -31.7999 -31.7482 -31.7436 -31.7414 -31.7226
   -31.6754 -31.6738 -31.6428 -31.6415 -31.6312 -31.6200 -31.6012 -31.6004
   -31.5882 -31.5765 -31.5693 -31.5508 -31.5389 -31.5322 -31.5069 -31.4994
   -31.4886 -31.4870 -31.4846 -31.4565 -31.4436 -31.4420 -31.4352 -31.4158
   -31.4139 -31.4116 -31.4038 -31.4011 -31.3678 -31.3580 -31.3448 -31.3279
   -31.3232 -31.3004 -30.8239 -30.7297 -30.7077 -30.6403 -30.5535 -30.4426
   -16.2946 -16.1643 -15.9779 -15.8312 -15.7509 -15.6334 -15.5184 -15.5018
   -15.3655 -15.2834 -15.1644 -15.1391 -15.1199 -15.0972 -15.0859 -15.0698
   -14.9787 -14.9731 -14.9591 -14.9279 -14.9254 -14.8806 -14.8727 -14.8313
   -14.8110 -14.8086 -14.6851 -14.5935 -14.5208 -14.2814 -12.9171 -12.7996
   -10.2150  -6.2840  -4.8173  -3.9512  -3.6088  -3.4547  -3.3645  -3.3367
    -3.3260  -3.1910  -3.0450  -2.8966  -2.8471  -2.8382  -2.7217  -2.6485
    -2.6386  -2.6188  -2.4640  -2.4325  -2.3896  -2.3423  -2.2986  -2.2441
    -2.2250  -2.2187  -2.2038  -2.1816  -2.1713  -2.0545  -2.0017  -1.9180
    -1.8606  -1.8379  -1.7878  -1.7663  -1.7440  -1.7239  -1.7147  -1.6699
    -1.6588  -1.6289  -1.5730  -1.4628  -1.3633  -1.3103  -1.1925  -1.0714
    -1.0312  -1.0184  -0.9784  -0.9361  -0.9202  -0.8551  -0.8114  -0.7809
    -0.7176  -0.6641  -0.6018  -0.5537  -0.4832  -0.4685  -0.4212  -0.3676
    -0.2542  -0.2165  -0.2017  -0.1757  -0.0827  -0.0465  -0.0017   0.0813
     0.0915   0.1071   0.2077   0.2209   0.2907   0.3370   0.3545   0.4470
     0.4851   0.4947   0.5003   0.5243   0.5506   0.6023   0.6400   0.6681
     0.7383   0.8638   1.0801   1.1539   1.1784   1.5046   1.5138   1.6082
     1.7916   2.1843   2.2325   3.6629   3.7359   3.8079   3.8147   3.8343
     3.9005   4.1399   4.1620   4.1679   4.1755   4.1969

[...]

          k =-0.0760-0.0000 0.0000 ( 17886 PWs)   bands (ev):

[...]

 ------ SPIN DOWN ----------

[...]

          k = 0.0380-0.0419 0.0000 ( 17876 PWs)   bands (ev):

[...]

          k =-0.0760-0.0839 0.0000 ( 17948 PWs)   bands (ev):

   -55.4223 -55.4158 -55.3670 -55.3666 -55.3557 -55.3161 -55.2989 -55.2953
   -55.2437 -55.2384 -55.2347 -55.1989 -55.1981 -55.1183 -54.3977 -54.3974
   -31.8113 -31.8069 -31.8065 -31.7219 -31.6971 -31.6922 -31.6920 -31.6578
   -31.6576 -31.6457 -31.6385 -31.6364 -31.6305 -31.6003 -31.5936 -31.5749
   -31.5713 -31.5672 -31.5665 -31.5640 -31.5628 -31.5586 -31.5179 -31.5165
   -31.5094 -31.5087 -31.5065 -31.4917 -31.4874 -31.4864 -31.4860 -31.4715
   -31.4679 -31.4514 -31.4477 -31.4330 -31.4317 -31.4288 -31.3812 -31.3795
   -31.3771 -31.3284 -30.7203 -30.7201 -30.6365 -30.6362 -30.5969 -30.5967
   -16.1337 -15.7802 -15.6879 -15.6405 -15.4673 -15.4382 -15.4214 -15.4062
   -15.2741 -15.2560 -15.2321 -15.2040 -15.1820 -15.1473 -15.1378 -15.1352
   -15.0555 -15.0412 -15.0342 -15.0183 -14.9526 -14.9428 -14.9405 -14.9332
   -14.8831 -14.8794 -14.8166 -14.7867 -14.7836 -14.5720 -12.9012 -12.9011
   -10.2183  -6.2548  -4.8135  -3.9132  -2.9589  -2.9334  -2.8951  -2.8909
    -2.6828  -2.6416  -2.6062  -2.5805  -2.4906  -2.4510  -2.4360  -2.4278
    -2.3564  -2.3397  -2.3217  -2.2767  -2.2706  -2.2570  -2.2349  -2.2048
    -2.1826  -2.1634  -2.1539  -2.1353  -2.0891  -2.0779  -2.0529  -2.0381
    -2.0352  -2.0169  -1.9889  -1.9425  -1.8157  -1.8076  -1.7405  -1.6410
    -1.6363  -1.5597  -1.5464  -1.5108  -1.4860  -1.4668  -1.4241  -1.2509
    -1.2074  -1.1807  -1.1711  -1.1133  -1.0490  -1.0262  -0.9560  -0.9404
    -0.9218  -0.8179  -0.7733  -0.7586  -0.6688  -0.6563  -0.5781  -0.5127
    -0.4690  -0.4427  -0.3960  -0.3904  -0.3882  -0.3405  -0.3330  -0.2519
    -0.2048  -0.1685  -0.1544  -0.1245   0.0724   0.0831   0.1097   0.2499
     0.2790   0.4023   0.4360   0.4884   0.5636   0.5961   0.6776   0.7129
     0.8428   0.8717   0.8732   0.9458   0.9572   1.0190   1.0285   1.9647
     1.9654   2.0525   2.0527   3.8187   3.8966   3.9227   3.9645   4.0784
     4.1538   4.1794   4.1999   4.2490   4.2517   4.3137

     the Fermi energy is     3.7273 ev

!    total energy              =   -2921.63318771 Ry
     estimated scf accuracy    <       0.00000007 Ry
     smearing contrib. (-TS)   =      -0.03708859 Ry
     internal energy E=F+TS    =   -2921.59609911 Ry

     The total energy is F=E-TS. E is the sum of the following terms:
     one-electron contribution =  -24028.12212699 Ry
     hartree contribution      =   12103.12553140 Ry
     xc contribution           =    -481.74348947 Ry
     ewald contribution        =    9485.14082530 Ry
     electric field correction =       0.00316065 Ry

     total magnetization       =    -0.01 Bohr mag/cell
     absolute magnetization    =     0.03 Bohr mag/cell

     convergence has been achieved in  73 iterations

     Forces acting on atoms (cartesian axes, Ry/au):

     atom    1 type  1   force =     0.00003044   -0.00021534    0.09332340
     atom    2 type  1   force =    -0.00018860   -0.00036531   -0.17830608
     atom    3 type  2   force =     0.00002801   -0.00039366   -0.02022062
     atom    4 type  2   force =    -0.00002650   -0.00195052    0.05878343
     atom    5 type  2   force =    -0.01020554   -0.00111424    0.00777199
     atom    6 type  2   force =     0.01167911   -0.00039660    0.00693606
     atom    7 type  1   force =    -0.00049139    0.00210786   -0.01457467
     atom    8 type  1   force =     0.00024604   -0.00050184   -0.00480158
     atom    9 type  2   force =     0.00015265    0.00011427   -0.00005897
     atom   10 type  2   force =    -0.00113740    0.00137934    0.00051939
     atom   11 type  2   force =    -0.00011619    0.00015396    0.00004849
     atom   12 type  2   force =    -0.00002215    0.00035840    0.00022270
     atom   13 type  1   force =    -0.00005101   -0.00018727   -0.00019180
     atom   14 type  1   force =    -0.00014843    0.00011604    0.00028288
     atom   15 type  2   force =    -0.00020658   -0.00031690    0.00007083
     atom   16 type  2   force =    -0.00022346    0.00019412    0.00017237
     atom   17 type  2   force =     0.00012448   -0.00010567    0.00008302
     atom   18 type  2   force =    -0.00002867   -0.00019736    0.00018712
     atom   19 type  1   force =    -0.00030196    0.00031120    0.00042080
     atom   20 type  1   force =    -0.00001830   -0.00010706   -0.00030261
     atom   21 type  2   force =     0.00002851   -0.00006340    0.10394331
     atom   22 type  2   force =     0.00026424    0.00036341    0.00000336
     atom   23 type  2   force =    -0.07044410   -0.00015614   -0.02693647
     atom   24 type  2   force =     0.07028196    0.00027975   -0.02698166
     atom   25 type  1   force =    -0.00001164   -0.00014908    0.09284840
     atom   26 type  1   force =    -0.00021124   -0.00048426   -0.17831967
     atom   27 type  2   force =     0.00008611   -0.00027221   -0.01928111
     atom   28 type  2   force =     0.00004307   -0.00171611    0.05812744
     atom   29 type  2   force =    -0.01072902   -0.00111633    0.00833207
     atom   30 type  2   force =     0.01207479   -0.00084094    0.00745344
     atom   31 type  1   force =    -0.00039691    0.00595830   -0.01543624
     atom   32 type  1   force =     0.00022348   -0.00003844   -0.00517559
     atom   33 type  2   force =    -0.00007868    0.00001592    0.00008419
     atom   34 type  2   force =    -0.00101512   -0.00248645   -0.00002966
     atom   35 type  2   force =    -0.00006615    0.00024245   -0.00007359
     atom   36 type  2   force =    -0.00011843    0.00009882   -0.00001020
     atom   37 type  1   force =    -0.00002938    0.00006107   -0.00022393
     atom   38 type  1   force =    -0.00007704    0.00000286    0.00010181
     atom   39 type  2   force =     0.00021636   -0.00003330    0.00014905
     atom   40 type  2   force =    -0.00030298    0.00024410   -0.00004808
     atom   41 type  2   force =     0.00018983    0.00043330    0.00010902
     atom   42 type  2   force =    -0.00004918    0.00012348    0.00034785
     atom   43 type  1   force =    -0.00032288    0.00029131    0.00010574
     atom   44 type  1   force =    -0.00000136   -0.00016822    0.00004461
     atom   45 type  2   force =     0.00001866   -0.00007231    0.10392127
     atom   46 type  2   force =    -0.07041826   -0.00009495   -0.02689173
     atom   47 type  2   force =     0.07026503    0.00033052   -0.02694206
     atom   48 type  3   force =     0.00007376   -0.00144652    0.00047799
     atom   49 type  4   force =    -0.00314839   -0.00190248    0.00902245
     atom   50 type  5   force =     0.00063444    0.00097899   -0.00010754
     atom   51 type  5   force =     0.00310891    0.00207422   -0.01081405
     atom   52 type  5   force =    -0.00000704   -0.00049121    0.00034960
     atom   53 type  5   force =     0.00011395    0.00078173    0.00154897
     atom   54 type  5   force =     0.00071019    0.00036869   -0.00006511

     Total force =     0.366571     Total SCF correction =     0.000499
  @ DRIVER MODE: Message from server: STATUS
  @ DRIVER MODE: Message from server: GETFORCE
  @ DRIVER MODE: Returning v,forces,stress,ensemble

     Writing output data file ./calc.save/
  @ DRIVER MODE: Message from server: EXIT
  @ DRIVE MODE: Exiting

     General routines

     Parallel routines

   This run was terminated on:   4:36:37  21Jul2021

   JOB DONE.