     Program PWSCF v.6.7GPU starts on 15Sep2021 at 15:42: 3

     R & G space division:  proc/nbgrp/npool/nimage =      10
     Reading input from /storage/home/hcoda1/3/ntian30/research/carbon/CxH_vib/CH_calc/ads_slab/CHNHNH_b/out_0020/pw.inp
Warning: card &CELL ignored
Warning: card   CELL_DYNAMICS='IPI', ignored
Warning: card / ignored

     Current dimensions of program PWSCF are:
     Max number of different atomic species (ntypx) = 10
     Max number of k-points (npk) =  40000
     Max angular momentum in pseudopotentials (lmaxx) =  3
     Presently no symmetry can be used with electric field

     Message from routine cell_base_init:
     DEPRECATED: use true lattice parameter, not A to a.u. conversion factor

     IMPORTANT: XC functional enforced from input :
     Exchange-correlation= BEEF-VDW
                           (   1   4  43  14   2   0   0)
     Any further DFT definition will be discarded
     Please, verify this is what you really want

  @ DRIVER MODE: Connecting to
 qe_1139763_2850202.sched-torque.pace.gatech.edu5h0daa6e_scratch
  using UNIX socket
  @ DRIVER MODE: Message from server: STATUS
  @ DRIVER MODE: Message from server: INIT
  @ DRIVER MODE: Receiving replica           0          -1
  @ DRIVER MODE: Receiving encoded integer          25
  @ DRIVER MODE:  SCF:  T  FORCE:  T  STRESS:  F  VC:  F  ENSEMBLE:  F
  @ DRIVER MODE:  SCF:  T  FORCE:  T  STRESS:  F  VC:  F  ENSEMBLE:  F

     Using Slab Decomposition

     bravais-lattice index     =            0
     lattice parameter (alat)  =       1.8897  a.u.
     unit-cell volume          =    6658.9804 (a.u.)^3
     number of atoms/cell      =           53
     number of atomic types    =            5
     number of electrons       =       395.00
     number of Kohn-Sham states=          207
     kinetic-energy cutoff     =      29.3995  Ry
     charge density cutoff     =     293.9946  Ry
     scf convergence threshold =      7.3E-08
     mixing beta               =       0.0500
     number of iterations used =            8  plain     mixing
     Exchange-correlation= BEEF-VDW
                           (   1   4  43  14   2   0   0)

     celldm(1)=   1.889726  celldm(2)=   0.000000  celldm(3)=   0.000000
     celldm(4)=   0.000000  celldm(5)=   0.000000  celldm(6)=   0.000000

     crystal axes: (cart. coord. in units of alat)
               a(1) = (   6.579727   0.000000   0.000000 )
               a(2) = (  -0.000775   5.961596   0.000000 )
               a(3) = (   0.000000   0.000000  25.155947 )

     reciprocal axes: (cart. coord. in units 2 pi/alat)
               b(1) = (  0.151982  0.000020  0.000000 )
               b(2) = (  0.000000  0.167740  0.000000 )
               b(3) = (  0.000000  0.000000  0.039752 )

     PseudoPot. # 1 for Ti read from file:
     /storage/coda1/p-amedford6/0/shared/rich_project_chbe-medford/medford-share/data/pseudos_module/espresso/nninc/pbe/van/Ti.UPF
     MD5 check sum: 8e4df49b7f0d34bbd5052bf3f5ea0213
     Pseudo is Ultrasoft, Zval = 12.0
     Generated by new atomic code, or converted to UPF format
     Using radial grid of  851 points,  6 beta functions with:
                l(1) =   0
                l(2) =   0
                l(3) =   1
                l(4) =   1
                l(5) =   2
                l(6) =   2
     Q(r) pseudized with  8 coefficients,  rinner =    1.000   1.000   1.000
                                                       1.000   1.000

     PseudoPot. # 2 for O  read from file:
     /storage/coda1/p-amedford6/0/shared/rich_project_chbe-medford/medford-share/data/pseudos_module/espresso/nninc/pbe/van/O.UPF
     MD5 check sum: 78c19812648e8988a0fe644b0f25305e
     Pseudo is Ultrasoft, Zval =  6.0
     Generated by new atomic code, or converted to UPF format
     Using radial grid of  737 points,  4 beta functions with:
                l(1) =   0
                l(2) =   0
                l(3) =   1
                l(4) =   1
     Q(r) pseudized with  8 coefficients,  rinner =    0.800   0.800   0.800

     PseudoPot. # 3 for N  read from file:
     /storage/coda1/p-amedford6/0/shared/rich_project_chbe-medford/medford-share/data/pseudos_module/espresso/nninc/pbe/van/N.UPF
     MD5 check sum: 90d10febe142ad51ac9d5be1deb811c4
     Pseudo is Ultrasoft, Zval =  5.0
     Generated by new atomic code, or converted to UPF format
     Using radial grid of  729 points,  4 beta functions with:
                l(1) =   0
                l(2) =   0
                l(3) =   1
                l(4) =   1
     Q(r) pseudized with  8 coefficients,  rinner =    0.800   0.800   0.800

     PseudoPot. # 4 for C  read from file:
     /storage/coda1/p-amedford6/0/shared/rich_project_chbe-medford/medford-share/data/pseudos_module/espresso/nninc/pbe/van/C.UPF
     MD5 check sum: 1a69bf6b8db32088f5b2163dbdb77a27
     Pseudo is Ultrasoft, Zval =  4.0
     Generated by new atomic code, or converted to UPF format
     Using radial grid of  721 points,  4 beta functions with:
                l(1) =   0
                l(2) =   0
                l(3) =   1
                l(4) =   1
     Q(r) pseudized with  8 coefficients,  rinner =    0.800   0.800   0.800

     PseudoPot. # 5 for H  read from file:
     /storage/coda1/p-amedford6/0/shared/rich_project_chbe-medford/medford-share/data/pseudos_module/espresso/nninc/pbe/van/H.UPF
     MD5 check sum: b5ee9d7bfd3a09ee7748110bda690ff7
     Pseudo is Ultrasoft, Zval =  1.0
     Generated by new atomic code, or converted to UPF format
     Using radial grid of  615 points,  1 beta functions with:
                l(1) =   0
     Q(r) pseudized with  8 coefficients,  rinner =    0.800

     atomic species   valence    mass     pseudopotential
        Ti1           12.00    47.86700     Ti( 1.00)
        O1             6.00    15.99900     O ( 1.00)
        N1             5.00    14.00700     N ( 1.00)
        C1             4.00    12.01100     C ( 1.00)
        H1             1.00     1.00800     H ( 1.00)

     No symmetry found

   Cartesian axes

     site n.     atom                  positions (alat units)
         1           Ti1 tau(   1) = (   0.0004258   2.9801865   6.0000000  )
         2           Ti1 tau(   2) = (   3.2906075   1.4906267   6.0002472  )
         3           O1  tau(   3) = (   0.0006271   0.0005054   7.9858123  )
         4           O1  tau(   4) = (   3.2906025   0.0005020   7.3038282  )
         5           O1  tau(   5) = (   4.5942328   1.4918067   9.2879030  )
         6           O1  tau(   6) = (   1.9868534   1.4903216   9.2879459  )
         7           Ti1 tau(   7) = (   3.2907910   2.8959150   9.1758416  )
         8           Ti1 tau(   8) = (   0.0015273   1.4827037   9.2680791  )
         9           O1  tau(   9) = (   3.2799393   5.9535521  11.3540639  )
        10           O1  tau(  10) = (   0.0116148   5.9584955  10.6183126  )
        11           O1  tau(  11) = (   1.2974255   1.4613897  12.6506698  )
        12           O1  tau(  12) = (   5.3017888   1.4901577  12.6050164  )
        13           Ti1 tau(  13) = (   6.5221663   3.0180504  12.5986966  )
        14           Ti1 tau(  14) = (   3.2221172   1.5532140  12.5512791  )
        15           O1  tau(  15) = (   6.4783894   5.9520290  14.6579590  )
        16           O1  tau(  16) = (   3.3696489   5.9508513  13.9183136  )
        17           O1  tau(  17) = (   4.5179258   1.5103438  16.1624884  )
        18           O1  tau(  18) = (   1.9802590   1.4047766  15.9099196  )
        19           Ti1 tau(  19) = (   3.2637731   3.0080032  15.8837983  )
        20           Ti1 tau(  20) = (   6.5766856   1.4756295  15.8014380  )
        21           O1  tau(  21) = (   3.2904802   0.0005063   4.7018136  )
        22           O1  tau(  22) = (   0.0065935   5.9492922  17.2122405  )
        23           O1  tau(  23) = (   1.3043587   1.4918075   6.0039043  )
        24           O1  tau(  24) = (   5.2767064   1.4903225   6.0039473  )
        25           Ti1 tau(  25) = (   0.0000382   5.9609847   6.0000000  )
        26           Ti1 tau(  26) = (   3.2902200   4.4714249   6.0002472  )
        27           O1  tau(  27) = (   0.0002396   2.9813036   7.9858123  )
        28           O1  tau(  28) = (   3.2902150   2.9813002   7.3038282  )
        29           O1  tau(  29) = (   4.5938453   4.4726049   9.2879030  )
        30           O1  tau(  30) = (   1.9864658   4.4711199   9.2879459  )
        31           Ti1 tau(  31) = (   3.2891106   5.8743827   9.1763621  )
        32           Ti1 tau(  32) = (   0.0006254   4.4649316   9.2693709  )
        33           O1  tau(  33) = (   3.2772596   2.9828089  11.3369495  )
        34           O1  tau(  34) = (   0.0092240   2.9805883  10.6323155  )
        35           O1  tau(  35) = (   1.2916203   4.4718874  12.6594431  )
        36           O1  tau(  36) = (   5.2999639   4.4615573  12.6129894  )
        37           Ti1 tau(  37) = (   6.5361528   0.0312684  12.5125129  )
        38           Ti1 tau(  38) = (   3.2177194   4.4831555  12.4956785  )
        39           O1  tau(  39) = (   6.5168025   2.9395006  14.7032746  )
        40           O1  tau(  40) = (   3.2870264   2.9515371  13.9313172  )
        41           O1  tau(  41) = (   4.5204763   4.4345026  16.1736457  )
        42           O1  tau(  42) = (   1.9972348   4.5331091  15.9467552  )
        43           Ti1 tau(  43) = (   3.2981618   0.0182476  15.6956140  )
        44           Ti1 tau(  44) = (   0.0010288   4.6427453  16.0560918  )
        45           O1  tau(  45) = (   3.2900926   2.9813045   4.7018136  )
        46           O1  tau(  46) = (   1.3039711   4.4726057   6.0039043  )
        47           O1  tau(  47) = (   5.2763189   4.4711207   6.0039473  )
        48           N1  tau(  48) = (   1.3052520   2.8252889  18.3786263  )
        49           N1  tau(  49) = (   0.2128110   2.9323531  17.5195281  )
        50           C1  tau(  50) = (   2.5582938   2.8657590  18.0399718  )
        51           H1  tau(  51) = (   3.1786551   2.7122395  18.9297303  )
        52           H1  tau(  52) = (   1.0317423   2.6491596  19.3433462  )
        53           H1  tau(  53) = (   5.9645394   2.8535341  18.1048464  )

     number of k points=    10  Fermi-Dirac smearing, width (Ry)=  0.0073
                       cart. coord. in units 2pi/alat
        k(    1) = (   0.0000000   0.0000000   0.0000000), wk =   0.1250000
        k(    2) = (   0.0000000   0.0419351   0.0000000), wk =   0.2500000
        k(    3) = (   0.0000000  -0.0838702   0.0000000), wk =   0.1250000
        k(    4) = (   0.0379955   0.0000049   0.0000000), wk =   0.2500000
        k(    5) = (   0.0379955   0.0419400   0.0000000), wk =   0.2500000
        k(    6) = (   0.0379955  -0.0838652   0.0000000), wk =   0.2500000
        k(    7) = (   0.0379955  -0.0419301   0.0000000), wk =   0.2500000
        k(    8) = (  -0.0759910  -0.0000099   0.0000000), wk =   0.1250000
        k(    9) = (  -0.0759910   0.0419252   0.0000000), wk =   0.2500000
        k(   10) = (  -0.0759910  -0.0838800   0.0000000), wk =   0.1250000

     Initial potential from superposition of free atoms

     starting charge  378.99916, renormalised to  395.00000

     negative rho (up, down):  1.762E-02 0.000E+00

     %%%%%%%%%%%%%%%%%%%%%%%%%%%%%%%%%%%%%%%%%%%%%%%%%%%%%%%%%%%%%%%%%%%%%%%%
     %                                                                      %
     % You are using vdW-DF, which was implemented by the Thonhauser group. %
     % Please cite the following two papers that made this development      %
     % possible and the two reviews that describe the various versions:     %
     %                                                                      %
     %   T. Thonhauser et al., PRL 115, 136402 (2015).                      %
     %   T. Thonhauser et al., PRB 76, 125112 (2007).                       %
     %   K. Berland et al., Rep. Prog. Phys. 78, 066501 (2015).             %
     %   D.C. Langreth et al., J. Phys.: Condens. Matter 21, 084203 (2009). %
     %                                                                      %
     %                                                                      %
     % If you are calculating the stress with vdW-DF, please also cite:     %
     %                                                                      %
     %   R. Sabatini et al., J. Phys.: Condens. Matter 24, 424209 (2012).   %
     %                                                                      %
     %%%%%%%%%%%%%%%%%%%%%%%%%%%%%%%%%%%%%%%%%%%%%%%%%%%%%%%%%%%%%%%%%%%%%%%%

     Adding external electric field

     Computed dipole along edir(3) :
        Dipole               -7.9500 Ry au,        -20.2069 Debye
        Dipole field         -0.0150 Ry au,

        Potential amp.        1.3907 Ry
        Total length         46.3494 bohr

     Starting wfcs are  299 atomic wfcs
  @ DRIVER MODE: Message from server: STATUS
  @ DRIVER MODE: Message from server: POSDATA
  @ DRIVER MODE: Reading and sharing cell
  @ DRIVER MODE: Reading and sharing positions
  @ DRIVER MODE: Received positions

     Self-consistent Calculation

     iteration #  1     ecut=    29.40 Ry     beta= 0.05
     Davidson diagonalization with overlap
     c_bands:  1 eigenvalues not converged
     c_bands:  2 eigenvalues not converged
     c_bands:  2 eigenvalues not converged
     c_bands:  3 eigenvalues not converged
     c_bands:  3 eigenvalues not converged
     c_bands:  1 eigenvalues not converged
     c_bands:  1 eigenvalues not converged
     ethr =  1.00E-05,  avg # of iterations = 19.2

[...]

     total energy              =   -2627.21625015 Ry
     estimated scf accuracy    <    3450.03781257 Ry

[...]

     iteration #  3     ecut=    29.40 Ry     beta= 0.05
     Davidson diagonalization with overlap
     ethr =  1.00E-02,  avg # of iterations = 13.8

[...]

     iteration # 67     ecut=    29.40 Ry     beta= 0.05
     Davidson diagonalization with overlap
     c_bands:  1 eigenvalues not converged
     ethr =  1.63E-10,  avg # of iterations = 11.3

[...]

     total energy              =   -2939.10949643 Ry
     estimated scf accuracy    <       0.00000014 Ry

     iteration # 71     ecut=    29.40 Ry     beta= 0.05
     Davidson diagonalization with overlap
     ethr =  3.49E-11,  avg # of iterations =  5.0

     negative rho (up, down):  1.780E-02 0.000E+00

     Adding external electric field

     Computed dipole along edir(3) :
        Dipole                1.3683 Ry au,          3.4779 Debye
        Dipole field          0.0026 Ry au,

        Potential amp.       -0.2394 Ry
        Total length         46.3494 bohr

     End of self-consistent calculation

          k = 0.0000 0.0000 0.0000 ( 18029 PWs)   bands (ev):

   -55.4847 -55.4506 -55.3918 -55.3465 -55.3345 -55.3266 -55.3028 -55.2959
   -55.2917 -55.2688 -55.2613 -55.2265 -55.1462 -54.9914 -54.4645 -54.4305
   -31.9685 -31.9198 -31.8327 -31.8065 -31.8027 -31.7767 -31.7508 -31.7294
   -31.7154 -31.6567 -31.6475 -31.6370 -31.6365 -31.6028 -31.5903 -31.5838
   -31.5677 -31.5646 -31.5499 -31.5419 -31.5080 -31.4972 -31.4965 -31.4945
   -31.4944 -31.4858 -31.4813 -31.4794 -31.4529 -31.4435 -31.4420 -31.4418
   -31.4343 -31.4275 -31.4154 -31.4096 -31.3927 -31.3735 -31.3701 -31.2441
   -31.2305 -31.1962 -30.8714 -30.7833 -30.7609 -30.6883 -30.6018 -30.4907
   -18.7527 -16.1650 -15.9635 -15.7775 -15.6470 -15.5934 -15.3589 -15.2546
   -15.2201 -15.1370 -15.0920 -15.0632 -15.0241 -15.0097 -14.9939 -14.9866
   -14.9280 -14.9089 -14.9030 -14.8725 -14.8539 -14.8301 -14.8170 -14.7277
   -14.6429 -14.6387 -14.6269 -14.6021 -14.5393 -14.1500 -13.5014 -12.9657
   -12.8493  -8.8907  -7.3660  -4.4401  -3.6734  -3.5329  -3.4241  -3.4078
    -3.3892  -3.2640  -3.1473  -2.8977  -2.8854  -2.7501  -2.6631  -2.6223
    -2.5497  -2.4755  -2.4408  -2.3823  -2.3174  -2.2947  -2.2769  -2.2439
    -2.2220  -2.2120  -2.1824  -2.0387  -2.0200  -1.9538  -1.8659  -1.8571
    -1.7995  -1.7946  -1.7740  -1.7430  -1.7401  -1.7332  -1.7125  -1.6922
    -1.6225  -1.5442  -1.4992  -1.4584  -1.3197  -1.1905  -1.1349  -1.0957
    -1.0318  -0.9563  -0.9217  -0.9072  -0.8922  -0.8760  -0.7272  -0.6804
    -0.6573  -0.6204  -0.5021  -0.4206  -0.3649  -0.3178  -0.2849  -0.2564
    -0.2355  -0.2231  -0.1870  -0.0682   0.0004   0.0475   0.0799   0.1557
     0.2121   0.2467   0.2585   0.3233   0.3595   0.3850   0.4347   0.4732
     0.4873   0.5099   0.5430   0.5607   0.6375   0.7500   0.7730   0.7758
     0.8160   1.0061   1.0706   1.1312   1.1734   1.2923   1.3240   1.4939
     1.5590   1.6350   1.7516   2.1293   2.1751   3.6292   3.7360   3.7724
     3.8119   3.8470   3.8936   4.0924   4.1379   4.1829   4.2714

[...]

          k = 0.0380-0.0419 0.0000 ( 17876 PWs)   bands (ev):

[...]

          k =-0.0760-0.0000 0.0000 ( 17886 PWs)   bands (ev):

[...]

          k =-0.0760-0.0839 0.0000 ( 17948 PWs)   bands (ev):

   -55.4679 -55.4673 -55.3832 -55.3548 -55.3241 -55.3137 -55.3066 -55.3044
   -55.2862 -55.2849 -55.2485 -55.2394 -55.1444 -54.9931 -54.4475 -54.4474
   -31.7840 -31.7835 -31.7624 -31.7622 -31.7619 -31.7322 -31.6686 -31.6648
   -31.6500 -31.6295 -31.6223 -31.6124 -31.6017 -31.6010 -31.5914 -31.5875
   -31.5868 -31.5807 -31.5804 -31.5783 -31.5625 -31.5593 -31.5461 -31.5338
   -31.5327 -31.5146 -31.5110 -31.5092 -31.4879 -31.4861 -31.4759 -31.4638
   -31.4610 -31.4590 -31.4575 -31.4559 -31.4418 -31.3868 -31.3743 -31.2896
   -31.2466 -31.2340 -30.7736 -30.7735 -30.6844 -30.6841 -30.6452 -30.6451
   -18.7490 -15.6003 -15.5047 -15.4880 -15.4133 -15.3896 -15.2892 -15.2529
   -15.2129 -15.1886 -15.1818 -15.1497 -15.1005 -15.0864 -15.0475 -15.0361
   -15.0105 -14.9764 -14.9667 -14.9298 -14.9270 -14.9200 -14.8835 -14.8232
   -14.8064 -14.7987 -14.7967 -14.7165 -14.6102 -14.3552 -13.5210 -12.9512
   -12.9510  -8.8818  -7.2845  -4.5708  -3.6500  -2.8505  -2.7860  -2.7703
    -2.6725  -2.5935  -2.5283  -2.4864  -2.4608  -2.4041  -2.3953  -2.3409
    -2.3324  -2.3060  -2.2914  -2.2781  -2.2440  -2.2272  -2.2247  -2.1908
    -2.1838  -2.1602  -2.1337  -2.1113  -2.1003  -2.0845  -2.0691  -2.0444
    -2.0314  -1.9995  -1.9590  -1.8265  -1.7099  -1.6610  -1.6306  -1.6101
    -1.5872  -1.5562  -1.5389  -1.5275  -1.4945  -1.4527  -1.3114  -1.1733
    -1.1515  -1.0623  -1.0149  -0.9928  -0.9552  -0.9006  -0.8778  -0.8746
    -0.8167  -0.7917  -0.7067  -0.6577  -0.6168  -0.5911  -0.4594  -0.4514
    -0.4467  -0.4318  -0.4001  -0.3811  -0.3280  -0.2481  -0.2168  -0.2105
    -0.1649  -0.1625  -0.1504  -0.0089   0.0563   0.1006   0.1917   0.2395
     0.3883   0.5421   0.5666   0.6012   0.6927   0.7479   0.7896   0.8273
     0.8437   0.8955   0.9610   1.0294   1.0413   1.0954   1.1170   1.1969
     1.2356   1.9233   1.9241   1.9948   1.9952   3.9944   4.0013   4.0168
     4.0864   4.1478   4.1543   4.1874   4.1885   4.2907   4.3186

     the Fermi energy is     3.6437 ev

!    total energy              =   -2939.10951357 Ry
     estimated scf accuracy    <       0.00000007 Ry
     smearing contrib. (-TS)   =      -0.02093448 Ry
     internal energy E=F+TS    =   -2939.08857908 Ry

     The total energy is F=E-TS. E is the sum of the following terms:
     one-electron contribution =  -24577.72946408 Ry
     hartree contribution      =   12380.43753869 Ry
     xc contribution           =    -485.20721944 Ry
     ewald contribution        =    9743.40703246 Ry
     electric field correction =       0.00353330 Ry

     convergence has been achieved in  71 iterations

     Forces acting on atoms (cartesian axes, Ry/au):

     atom    1 type  1   force =     0.00005429   -0.00022057    0.09561555
     atom    2 type  1   force =    -0.00001574   -0.00052430   -0.17550112
     atom    3 type  2   force =     0.00008940   -0.00008866   -0.02325484
     atom    4 type  2   force =    -0.00003395   -0.00149203    0.05267555
     atom    5 type  2   force =    -0.01058197   -0.00050485    0.00373063
     atom    6 type  2   force =     0.01177660   -0.00006837    0.00225345
     atom    7 type  1   force =    -0.00003344   -0.00027950   -0.00806142
     atom    8 type  1   force =     0.00049418    0.01258343    0.01818069
     atom    9 type  2   force =    -0.00031680    0.00004806    0.00009255
     atom   10 type  2   force =    -0.00242665    0.00020430   -0.01642513
     atom   11 type  2   force =    -0.00028721    0.00019986    0.00002412
     atom   12 type  2   force =    -0.00046090   -0.00014169   -0.00012488
     atom   13 type  1   force =     0.00022432   -0.00008402    0.00002783
     atom   14 type  1   force =     0.00033722    0.00004102   -0.00006716
     atom   15 type  2   force =     0.00014618    0.00025470    0.00004610
     atom   16 type  2   force =    -0.00016094   -0.00019528    0.00019810
     atom   17 type  2   force =    -0.00003456   -0.00022408   -0.00025910
     atom   18 type  2   force =     0.00005505   -0.00003239   -0.00031144
     atom   19 type  1   force =     0.00022957    0.00015384   -0.00073191
     atom   20 type  1   force =     0.00031638    0.00008997   -0.00040053
     atom   21 type  2   force =     0.00005568   -0.00006455    0.10314389
     atom   22 type  2   force =     0.00003969    0.00014661    0.00000532
     atom   23 type  2   force =    -0.07156846   -0.00016448   -0.02754717
     atom   24 type  2   force =     0.07149715    0.00027805   -0.02760471
     atom   25 type  1   force =     0.00016842   -0.00025836    0.09532337
     atom   26 type  1   force =     0.00004976   -0.00030337   -0.17589128
     atom   27 type  2   force =     0.00008958   -0.00019300   -0.02223680
     atom   28 type  2   force =    -0.00001568   -0.00114707    0.05315542
     atom   29 type  2   force =    -0.01041047   -0.00022215    0.00333072
     atom   30 type  2   force =     0.01141391    0.00019847    0.00190327
     atom   31 type  1   force =    -0.00014210    0.00481946   -0.00022996
     atom   32 type  1   force =     0.00058436   -0.01317367    0.01871889
     atom   33 type  2   force =    -0.00015237    0.00013492   -0.00006875
     atom   34 type  2   force =    -0.00059823    0.00042791   -0.01724701
     atom   35 type  2   force =    -0.00035503   -0.00015036    0.00014786
     atom   36 type  2   force =    -0.00020985   -0.00033730    0.00021000
     atom   37 type  1   force =     0.00032971   -0.00017025    0.00006105
     atom   38 type  1   force =     0.00016214    0.00021035    0.00017898
     atom   39 type  2   force =    -0.00029986   -0.00006243   -0.00026685
     atom   40 type  2   force =    -0.00012719   -0.00011168    0.00044947
     atom   41 type  2   force =    -0.00007718    0.00011922   -0.00004184
     atom   42 type  2   force =     0.00032334   -0.00003060    0.00007835
     atom   43 type  1   force =    -0.00012599    0.00007504    0.00011134
     atom   44 type  1   force =     0.00031868    0.00014167    0.00020865
     atom   45 type  2   force =     0.00006676   -0.00009430    0.10316141
     atom   46 type  2   force =    -0.07162806   -0.00011499   -0.02758413
     atom   47 type  2   force =     0.07151293    0.00027684   -0.02762549
     atom   48 type  3   force =     0.00004128   -0.00029305   -0.00021103
     atom   49 type  3   force =     0.00005435    0.00008779   -0.00025239
     atom   50 type  4   force =     0.00029550   -0.00144690    0.00106947
     atom   51 type  5   force =    -0.00064652    0.00104628   -0.00088380
     atom   52 type  5   force =    -0.00030815    0.00090572   -0.00061144
     atom   53 type  5   force =     0.00029088   -0.00024927   -0.00066180

     Total force =     0.365543     Total SCF correction =     0.000742
  @ DRIVER MODE: Message from server: STATUS
  @ DRIVER MODE: Message from server: GETFORCE
  @ DRIVER MODE: Returning v,forces,stress,ensemble

     Writing output data file ./calc.save/
  @ DRIVER MODE: Message from server: EXIT
  @ DRIVE MODE: Exiting

     General routines

     Parallel routines

   This run was terminated on:  16: 1:37  15Sep2021

   JOB DONE.