     Program PWSCF v.6.7GPU starts on 14Sep2021 at 22:47: 2

     R & G space division:  proc/nbgrp/npool/nimage =      10
     Reading input from /storage/home/hcoda1/3/ntian30/research/carbon/CxH_vib/CH2_calc/ads_slab/CH2ON2_b/out_0027/pw.inp
Warning: card &CELL ignored
Warning: card   CELL_DYNAMICS='IPI', ignored
Warning: card / ignored

     Current dimensions of program PWSCF are:
     Max number of different atomic species (ntypx) = 10
     Max number of k-points (npk) =  40000
     Max angular momentum in pseudopotentials (lmaxx) =  3
     Presently no symmetry can be used with electric field

     Message from routine cell_base_init:
     DEPRECATED: use true lattice parameter, not A to a.u. conversion factor

     IMPORTANT: XC functional enforced from input :
     Exchange-correlation= BEEF-VDW
                           (   1   4  43  14   2   0   0)
     Any further DFT definition will be discarded
     Please, verify this is what you really want

  @ DRIVER MODE: Connecting to
 qe_1139763_2840441.sched-torque.pace.gatech.edue091pi70_scratch
  using UNIX socket
  @ DRIVER MODE: Message from server: STATUS
  @ DRIVER MODE: Message from server: INIT
  @ DRIVER MODE: Receiving replica           0          -1
  @ DRIVER MODE: Receiving encoded integer          25
  @ DRIVER MODE:  SCF:  T  FORCE:  T  STRESS:  F  VC:  F  ENSEMBLE:  F
  @ DRIVER MODE:  SCF:  T  FORCE:  T  STRESS:  F  VC:  F  ENSEMBLE:  F

     Using Slab Decomposition

     bravais-lattice index     =            0
     lattice parameter (alat)  =       1.8897  a.u.
     unit-cell volume          =    6658.9804 (a.u.)^3
     number of atoms/cell      =           53
     number of atomic types    =            5
     number of electrons       =       400.00
     number of Kohn-Sham states=          210
     kinetic-energy cutoff     =      29.3995  Ry
     charge density cutoff     =     293.9946  Ry
     scf convergence threshold =      7.3E-08
     mixing beta               =       0.0500
     number of iterations used =            8  plain     mixing
     Exchange-correlation= BEEF-VDW
                           (   1   4  43  14   2   0   0)

     celldm(1)=   1.889726  celldm(2)=   0.000000  celldm(3)=   0.000000
     celldm(4)=   0.000000  celldm(5)=   0.000000  celldm(6)=   0.000000

     crystal axes: (cart. coord. in units of alat)
               a(1) = (   6.579727   0.000000   0.000000 )
               a(2) = (  -0.000775   5.961596   0.000000 )
               a(3) = (   0.000000   0.000000  25.155947 )

     reciprocal axes: (cart. coord. in units 2 pi/alat)
               b(1) = (  0.151982  0.000020  0.000000 )
               b(2) = (  0.000000  0.167740  0.000000 )
               b(3) = (  0.000000  0.000000  0.039752 )

     PseudoPot. # 1 for C  read from file:
     /storage/coda1/p-amedford6/0/shared/rich_project_chbe-medford/medford-share/data/pseudos_module/espresso/nninc/pbe/van/C.UPF
     MD5 check sum: 1a69bf6b8db32088f5b2163dbdb77a27
     Pseudo is Ultrasoft, Zval =  4.0
     Generated by new atomic code, or converted to UPF format
     Using radial grid of  721 points,  4 beta functions with:
                l(1) =   0
                l(2) =   0
                l(3) =   1
                l(4) =   1
     Q(r) pseudized with  8 coefficients,  rinner =    0.800   0.800   0.800

     PseudoPot. # 2 for H  read from file:
     /storage/coda1/p-amedford6/0/shared/rich_project_chbe-medford/medford-share/data/pseudos_module/espresso/nninc/pbe/van/H.UPF
     MD5 check sum: b5ee9d7bfd3a09ee7748110bda690ff7
     Pseudo is Ultrasoft, Zval =  1.0
     Generated by new atomic code, or converted to UPF format
     Using radial grid of  615 points,  1 beta functions with:
                l(1) =   0
     Q(r) pseudized with  8 coefficients,  rinner =    0.800

     PseudoPot. # 3 for O  read from file:
     /storage/coda1/p-amedford6/0/shared/rich_project_chbe-medford/medford-share/data/pseudos_module/espresso/nninc/pbe/van/O.UPF
     MD5 check sum: 78c19812648e8988a0fe644b0f25305e
     Pseudo is Ultrasoft, Zval =  6.0
     Generated by new atomic code, or converted to UPF format
     Using radial grid of  737 points,  4 beta functions with:
                l(1) =   0
                l(2) =   0
                l(3) =   1
                l(4) =   1
     Q(r) pseudized with  8 coefficients,  rinner =    0.800   0.800   0.800

     PseudoPot. # 4 for Ti read from file:
     /storage/coda1/p-amedford6/0/shared/rich_project_chbe-medford/medford-share/data/pseudos_module/espresso/nninc/pbe/van/Ti.UPF
     MD5 check sum: 8e4df49b7f0d34bbd5052bf3f5ea0213
     Pseudo is Ultrasoft, Zval = 12.0
     Generated by new atomic code, or converted to UPF format
     Using radial grid of  851 points,  6 beta functions with:
                l(1) =   0
                l(2) =   0
                l(3) =   1
                l(4) =   1
                l(5) =   2
                l(6) =   2
     Q(r) pseudized with  8 coefficients,  rinner =    1.000   1.000   1.000
                                                       1.000   1.000

     PseudoPot. # 5 for N  read from file:
     /storage/coda1/p-amedford6/0/shared/rich_project_chbe-medford/medford-share/data/pseudos_module/espresso/nninc/pbe/van/N.UPF
     MD5 check sum: 90d10febe142ad51ac9d5be1deb811c4
     Pseudo is Ultrasoft, Zval =  5.0
     Generated by new atomic code, or converted to UPF format
     Using radial grid of  729 points,  4 beta functions with:
                l(1) =   0
                l(2) =   0
                l(3) =   1
                l(4) =   1
     Q(r) pseudized with  8 coefficients,  rinner =    0.800   0.800   0.800

     atomic species   valence    mass     pseudopotential
        C1             4.00    12.01100     C ( 1.00)
        H1             1.00     1.00800     H ( 1.00)
        O1             6.00    15.99900     O ( 1.00)
        Ti1           12.00    47.86700     Ti( 1.00)
        N1             5.00    14.00700     N ( 1.00)

     No symmetry found

   Cartesian axes

     site n.     atom                  positions (alat units)
         1           C1  tau(   1) = (   6.4247902   2.9910588  18.6917704  )
         2           H1  tau(   2) = (   6.3980358   3.9338040  19.2291268  )
         3           H1  tau(   3) = (   6.3671137   2.0386567  19.2103458  )
         4           O1  tau(   4) = (   3.2904802   0.0005063   4.7018136  )
         5           O1  tau(   5) = (   3.2900926   2.9813045   4.7018136  )
         6           O1  tau(   6) = (   1.3043587   1.4918075   6.0039043  )
         7           O1  tau(   7) = (   1.3039711   4.4726057   6.0039043  )
         8           O1  tau(   8) = (   5.2767064   1.4903225   6.0039473  )
         9           O1  tau(   9) = (   5.2763189   4.4711207   6.0039473  )
        10           O1  tau(  10) = (   3.2906025   0.0005020   7.3038282  )
        11           O1  tau(  11) = (   3.2902150   2.9813002   7.3038282  )
        12           O1  tau(  12) = (   0.0006271   0.0005054   7.9858123  )
        13           O1  tau(  13) = (   0.0002396   2.9813036   7.9858123  )
        14           O1  tau(  14) = (   4.5942328   1.4918067   9.2879030  )
        15           O1  tau(  15) = (   4.5938453   4.4726049   9.2879030  )
        16           O1  tau(  16) = (   1.9868534   1.4903216   9.2879459  )
        17           O1  tau(  17) = (   1.9864658   4.4711199   9.2879459  )
        18           O1  tau(  18) = (   0.0058113   2.9878523  10.5832334  )
        19           O1  tau(  19) = (   0.0062988   0.0093020  10.6005518  )
        20           O1  tau(  20) = (   3.2955317   2.9954032  11.3404818  )
        21           O1  tau(  21) = (   3.2944299   0.0136787  11.3445968  )
        22           O1  tau(  22) = (   5.2904553   1.5027675  12.6317203  )
        23           O1  tau(  23) = (   5.2914467   4.4836083  12.6349631  )
        24           O1  tau(  24) = (   1.2933861   1.5040032  12.6362007  )
        25           O1  tau(  25) = (   1.2922507   4.4849626  12.6395598  )
        26           O1  tau(  26) = (   3.2955364   2.9961609  13.9180299  )
        27           O1  tau(  27) = (   3.2969677   0.0155663  13.9438287  )
        28           O1  tau(  28) = (   0.0016464   0.0229801  14.6780835  )
        29           O1  tau(  29) = (   0.0078505   2.9966620  14.7218711  )
        30           O1  tau(  30) = (   4.5417949   4.4807699  16.1031406  )
        31           O1  tau(  31) = (   4.5422182   1.5234006  16.1020929  )
        32           O1  tau(  32) = (   2.0382733   4.4802786  16.1011463  )
        33           O1  tau(  33) = (   2.0385641   1.5240134  16.0993588  )
        34           O1  tau(  34) = (   6.5794991   0.0244991  17.1995468  )
        35           O1  tau(  35) = (   6.5588415   3.0026814  17.4289308  )
        36           Ti1 tau(  36) = (   0.0004258   2.9801865   6.0000000  )
        37           Ti1 tau(  37) = (   0.0000382   5.9609847   6.0000000  )
        38           Ti1 tau(  38) = (   3.2906075   1.4906267   6.0002472  )
        39           Ti1 tau(  39) = (   3.2902200   4.4714249   6.0002472  )
        40           Ti1 tau(  40) = (   3.2947477   0.0499856   9.1537742  )
        41           Ti1 tau(  41) = (   3.3215383   3.0289251   9.1580241  )
        42           Ti1 tau(  42) = (   0.0276872   4.5181110   9.2597866  )
        43           Ti1 tau(  43) = (   0.0223396   1.5961087   9.3523429  )
        44           Ti1 tau(  44) = (   3.3278215   4.4891914  12.4850086  )
        45           Ti1 tau(  45) = (   3.3277968   1.5111787  12.4828596  )
        46           Ti1 tau(  46) = (   0.0250534   0.0277200  12.4935153  )
        47           Ti1 tau(  47) = (   0.0290128   3.0118426  12.7617797  )
        48           Ti1 tau(  48) = (   3.2948489   3.0033751  15.7103116  )
        49           Ti1 tau(  49) = (   3.2995243   0.0226186  15.7353524  )
        50           Ti1 tau(  50) = (   0.0095488   1.4190105  15.9501391  )
        51           Ti1 tau(  51) = (   0.0117608   4.6113996  15.9785021  )
        52           N1  tau(  52) = (   3.7826193   3.0401191  20.3090129  )
        53           N1  tau(  53) = (   2.7364546   2.9530354  19.9655958  )

     number of k points=    10  Fermi-Dirac smearing, width (Ry)=  0.0073
                       cart. coord. in units 2pi/alat
        k(    1) = (   0.0000000   0.0000000   0.0000000), wk =   0.1250000
        k(    2) = (   0.0000000   0.0419351   0.0000000), wk =   0.2500000
        k(    3) = (   0.0000000  -0.0838702   0.0000000), wk =   0.1250000
        k(    4) = (   0.0379955   0.0000049   0.0000000), wk =   0.2500000
        k(    5) = (   0.0379955   0.0419400   0.0000000), wk =   0.2500000
        k(    6) = (   0.0379955  -0.0838652   0.0000000), wk =   0.2500000
        k(    7) = (   0.0379955  -0.0419301   0.0000000), wk =   0.2500000
        k(    8) = (  -0.0759910  -0.0000099   0.0000000), wk =   0.1250000
        k(    9) = (  -0.0759910   0.0419252   0.0000000), wk =   0.2500000
        k(   10) = (  -0.0759910  -0.0838800   0.0000000), wk =   0.1250000

     Initial potential from superposition of free atoms

     starting charge  383.99917, renormalised to  400.00000

     negative rho (up, down):  1.498E-02 0.000E+00

     %%%%%%%%%%%%%%%%%%%%%%%%%%%%%%%%%%%%%%%%%%%%%%%%%%%%%%%%%%%%%%%%%%%%%%%%
     %                                                                      %
     % You are using vdW-DF, which was implemented by the Thonhauser group. %
     % Please cite the following two papers that made this development      %
     % possible and the two reviews that describe the various versions:     %
     %                                                                      %
     %   T. Thonhauser et al., PRL 115, 136402 (2015).                      %
     %   T. Thonhauser et al., PRB 76, 125112 (2007).                       %
     %   K. Berland et al., Rep. Prog. Phys. 78, 066501 (2015).             %
     %   D.C. Langreth et al., J. Phys.: Condens. Matter 21, 084203 (2009). %
     %                                                                      %
     %                                                                      %
     % If you are calculating the stress with vdW-DF, please also cite:     %
     %                                                                      %
     %   R. Sabatini et al., J. Phys.: Condens. Matter 24, 424209 (2012).   %
     %                                                                      %
     %%%%%%%%%%%%%%%%%%%%%%%%%%%%%%%%%%%%%%%%%%%%%%%%%%%%%%%%%%%%%%%%%%%%%%%%

     Adding external electric field

     Computed dipole along edir(3) :
        Dipole              -12.3567 Ry au,        -31.4077 Debye
        Dipole field         -0.0233 Ry au,

        Potential amp.        2.1616 Ry
        Total length         46.3494 bohr

     Starting wfcs are  302 atomic wfcs
  @ DRIVER MODE: Message from server: STATUS
  @ DRIVER MODE: Message from server: POSDATA
  @ DRIVER MODE: Reading and sharing cell
  @ DRIVER MODE: Reading and sharing positions
  @ DRIVER MODE: Received positions

     Self-consistent Calculation

     iteration #  1     ecut=    29.40 Ry     beta= 0.05
     Davidson diagonalization with overlap
     c_bands:  2 eigenvalues not converged
     c_bands:  2 eigenvalues not converged
     c_bands:  2 eigenvalues not converged
     c_bands:  2 eigenvalues not converged
     c_bands:  4 eigenvalues not converged
     c_bands:  2 eigenvalues not converged
     c_bands:  5 eigenvalues not converged
     c_bands:  1 eigenvalues not converged
     c_bands:  3 eigenvalues not converged
     ethr =  1.00E-05,  avg # of iterations = 23.3

[...]

     total energy              =   -2430.18717375 Ry
     estimated scf accuracy    <    6093.24394843 Ry

     iteration #  2     ecut=    29.40 Ry     beta= 0.05
     Davidson diagonalization with overlap
     ethr =  1.00E-02,  avg # of iterations = 22.0

[...]

     iteration # 74     ecut=    29.40 Ry     beta= 0.05
     Davidson diagonalization with overlap
     ethr =  6.82E-11,  avg # of iterations =  5.5

[...]

     total energy              =   -2970.35124919 Ry
     estimated scf accuracy    <       0.00000008 Ry

     iteration # 75     ecut=    29.40 Ry     beta= 0.05
     Davidson diagonalization with overlap
     c_bands:  2 eigenvalues not converged
     c_bands:  1 eigenvalues not converged
     ethr =  2.09E-11,  avg # of iterations = 14.7

     negative rho (up, down):  1.508E-02 0.000E+00

     Adding external electric field

     Computed dipole along edir(3) :
        Dipole                0.9975 Ry au,          2.5353 Debye
        Dipole field          0.0019 Ry au,

        Potential amp.       -0.1745 Ry
        Total length         46.3494 bohr

     End of self-consistent calculation

          k = 0.0000 0.0000 0.0000 ( 18029 PWs)   bands (ev):

   -55.5207 -55.5117 -55.4836 -55.4754 -55.4167 -55.3998 -55.3745 -55.3110
   -55.3050 -55.2949 -55.2925 -55.2592 -55.2398 -55.2157 -54.5460 -54.5120
   -32.0828 -31.9937 -31.8946 -31.8845 -31.8306 -31.8265 -31.8191 -31.7993
   -31.7717 -31.7553 -31.7533 -31.7280 -31.7044 -31.6937 -31.6787 -31.6608
   -31.6456 -31.6454 -31.6360 -31.6155 -31.5958 -31.5917 -31.5832 -31.5782
   -31.5732 -31.5469 -31.5457 -31.5244 -31.5188 -31.5178 -31.4963 -31.4736
   -31.4688 -31.4456 -31.4370 -31.4369 -31.4291 -31.4239 -31.4027 -31.3984
   -31.3924 -31.3853 -30.9560 -30.8585 -30.8363 -30.7727 -30.6866 -30.5753
   -21.4205 -19.7403 -16.3048 -16.0042 -15.8625 -15.7321 -15.6755 -15.5642
   -15.4073 -15.3476 -15.2505 -15.2013 -15.1508 -15.1165 -15.1097 -15.0875
   -15.0794 -15.0540 -15.0511 -14.9834 -14.9725 -14.9361 -14.9231 -14.9226
   -14.8254 -14.7767 -14.7104 -14.6512 -14.5974 -14.5440 -14.5192 -13.0466
   -12.9282  -9.1228  -6.6638  -5.3884  -5.3862  -4.5680  -4.5575  -3.6537
    -3.4753  -3.4331  -3.4260  -3.3711  -3.3612  -3.2663  -3.1440  -3.1080
    -2.8230  -2.7339  -2.7007  -2.6871  -2.6788  -2.5495  -2.4888  -2.3714
    -2.3652  -2.3514  -2.3499  -2.3410  -2.2974  -2.2938  -2.2505  -2.2183
    -2.1330  -2.0726  -1.9631  -1.9519  -1.9266  -1.8640  -1.8309  -1.8084
    -1.8060  -1.7603  -1.7580  -1.7551  -1.7105  -1.6228  -1.5185  -1.4772
    -1.3817  -1.3479  -1.2360  -1.1039  -1.0262  -0.9860  -0.9335  -0.8833
    -0.8778  -0.8567  -0.8370  -0.8208  -0.8055  -0.6894  -0.5748  -0.5725
    -0.4716  -0.4190  -0.3931  -0.3805  -0.2817  -0.2632  -0.2558  -0.1779
    -0.0215  -0.0177  -0.0053   0.1139   0.1423   0.1590   0.2092   0.2308
     0.2717   0.2956   0.3495   0.4058   0.4151   0.4645   0.4731   0.4944
     0.6001   0.6586   0.6645   0.7229   0.7669   0.9523   0.9669   1.1074
     1.1659   1.3820   1.4788   1.5293   1.6478   2.0658   2.1249   3.6393
     3.6748   3.6950   3.7435   3.7760   3.8101   3.8745   4.0816   4.0991
     4.1012   4.1284

[...]

          k = 0.0380-0.0419 0.0000 ( 17876 PWs)   bands (ev):

[...]

          k =-0.0760-0.0000 0.0000 ( 17886 PWs)   bands (ev):

[...]

          k =-0.0760-0.0839 0.0000 ( 17948 PWs)   bands (ev):

   -55.5095 -55.4947 -55.4947 -55.4922 -55.4089 -55.3962 -55.3822 -55.3142
   -55.3010 -55.2888 -55.2763 -55.2758 -55.2460 -55.2190 -54.5294 -54.5285
   -31.8854 -31.8826 -31.8177 -31.8040 -31.8017 -31.7997 -31.7897 -31.7791
   -31.7677 -31.7425 -31.7262 -31.7135 -31.7010 -31.6617 -31.6500 -31.6436
   -31.6384 -31.6333 -31.6279 -31.6237 -31.6121 -31.6061 -31.6033 -31.6003
   -31.5969 -31.5948 -31.5767 -31.5703 -31.5425 -31.5333 -31.5288 -31.5149
   -31.5032 -31.4937 -31.4889 -31.4819 -31.4791 -31.4751 -31.4575 -31.4373
   -31.4261 -31.4131 -30.8495 -30.8483 -30.7693 -30.7685 -30.7302 -30.7293
   -21.4203 -19.7331 -15.7358 -15.7056 -15.6062 -15.4724 -15.4617 -15.4208
   -15.3797 -15.3208 -15.2628 -15.2600 -15.2180 -15.2022 -15.1891 -15.1524
   -15.1200 -15.0740 -15.0610 -15.0562 -15.0443 -14.9894 -14.9827 -14.9430
   -14.9248 -14.9177 -14.8735 -14.8660 -14.7913 -14.7515 -14.7287 -13.0308
   -13.0282  -9.1354  -6.6475  -5.3645  -5.3179  -4.5726  -4.5674  -3.5728
    -3.1709  -3.0253  -2.9893  -2.8301  -2.6945  -2.6837  -2.6289  -2.5388
    -2.5052  -2.4616  -2.4093  -2.3955  -2.3725  -2.3679  -2.3582  -2.3545
    -2.3463  -2.2953  -2.2768  -2.2402  -2.1857  -2.1781  -2.1649  -2.1585
    -2.1155  -2.0999  -2.0918  -2.0862  -2.0797  -2.0134  -1.9431  -1.8709
    -1.7806  -1.7403  -1.7187  -1.6823  -1.6465  -1.6115  -1.5898  -1.5720
    -1.4607  -1.4325  -1.2896  -1.2653  -1.2485  -1.2379  -1.1970  -1.1929
    -1.0600  -0.9829  -0.9728  -0.9494  -0.8945  -0.8605  -0.8160  -0.7904
    -0.7024  -0.6673  -0.6261  -0.5754  -0.4958  -0.4858  -0.4344  -0.4186
    -0.3371  -0.3228  -0.2917  -0.2887  -0.2226  -0.1771  -0.1030  -0.0964
    -0.0706   0.0362   0.0917   0.1058   0.2883   0.4621   0.4752   0.4861
     0.5979   0.6084   0.6537   0.7285   0.7390   0.8234   0.8790   0.9762
     0.9954   1.0051   1.0842   1.8378   1.8388   1.9283   1.9398   3.6364
     3.8554   3.8872   3.9074   3.9598   4.1163   4.1210   4.1342   4.1469
     4.2598   4.2775

     the Fermi energy is     3.6280 ev

!    total energy              =   -2970.35126006 Ry
     estimated scf accuracy    <       0.00000007 Ry
     smearing contrib. (-TS)   =      -0.03416631 Ry
     internal energy E=F+TS    =   -2970.31709374 Ry

     The total energy is F=E-TS. E is the sum of the following terms:
     one-electron contribution =  -23485.60271816 Ry
     hartree contribution      =   11835.44002494 Ry
     xc contribution           =    -491.50985409 Ry
     ewald contribution        =    9171.35357593 Ry
     electric field correction =       0.00187763 Ry

     convergence has been achieved in  75 iterations

     Forces acting on atoms (cartesian axes, Ry/au):

     atom    1 type  1   force =    -0.00029005    0.00002977   -0.00013155
     atom    2 type  2   force =    -0.00046691    0.00080473    0.00027641
     atom    3 type  2   force =     0.00016348   -0.00056758   -0.00030365
     atom    4 type  3   force =    -0.00007253    0.00001645    0.10421842
     atom    5 type  3   force =    -0.00005748   -0.00001518    0.10427173
     atom    6 type  3   force =    -0.06902093    0.00075896   -0.02905939
     atom    7 type  3   force =    -0.06857169   -0.00136229   -0.02906715
     atom    8 type  3   force =     0.06868657    0.00128444   -0.02913225
     atom    9 type  3   force =     0.06834102   -0.00098613   -0.02914105
     atom   10 type  3   force =     0.00017025    0.00038778    0.04599565
     atom   11 type  3   force =     0.00058549    0.00071624    0.04717339
     atom   12 type  3   force =     0.00031274   -0.00529077   -0.03192474
     atom   13 type  3   force =     0.00036268    0.00311248   -0.02590934
     atom   14 type  3   force =    -0.01815967   -0.00008174    0.00387866
     atom   15 type  3   force =    -0.01657356    0.00120544    0.00342025
     atom   16 type  3   force =     0.01842457   -0.00126351    0.00384766
     atom   17 type  3   force =     0.01758150    0.00141792    0.00328452
     atom   18 type  3   force =     0.00002372    0.00030789    0.00042041
     atom   19 type  3   force =     0.00003945   -0.00012351    0.00013605
     atom   20 type  3   force =    -0.00005715    0.00027514    0.00036836
     atom   21 type  3   force =    -0.00007915   -0.00029766   -0.00036036
     atom   22 type  3   force =     0.00035001    0.00029203    0.00030660
     atom   23 type  3   force =     0.00028721   -0.00026293    0.00029539
     atom   24 type  3   force =    -0.00034383    0.00036652    0.00017510
     atom   25 type  3   force =    -0.00024905   -0.00030682    0.00015495
     atom   26 type  3   force =    -0.00017990    0.00013102    0.00033137
     atom   27 type  3   force =    -0.00013442   -0.00008782    0.00019888
     atom   28 type  3   force =     0.00008322   -0.00002485   -0.00015126
     atom   29 type  3   force =     0.00001278    0.00020445   -0.00049104
     atom   30 type  3   force =    -0.00024003   -0.00043211    0.00001574
     atom   31 type  3   force =    -0.00047612    0.00050237    0.00005959
     atom   32 type  3   force =     0.00045497   -0.00054553    0.00029517
     atom   33 type  3   force =     0.00066682    0.00060080    0.00031356
     atom   34 type  3   force =    -0.00014394    0.00000977    0.00082870
     atom   35 type  3   force =    -0.00034296   -0.00055514   -0.00024016
     atom   36 type  4   force =    -0.00024893   -0.00176501    0.10175101
     atom   37 type  4   force =    -0.00008610    0.00135789    0.11449142
     atom   38 type  4   force =    -0.00032882    0.00052744   -0.18033073
     atom   39 type  4   force =    -0.00021917   -0.00040014   -0.18064747
     atom   40 type  4   force =     0.00026187    0.00082120   -0.00113464
     atom   41 type  4   force =     0.00020702   -0.00077652   -0.00090774
     atom   42 type  4   force =    -0.00022564    0.00087347   -0.00021754
     atom   43 type  4   force =    -0.00017193   -0.00020080    0.00002101
     atom   44 type  4   force =     0.00000731   -0.00008470    0.00028817
     atom   45 type  4   force =     0.00005820    0.00009253    0.00037358
     atom   46 type  4   force =    -0.00017974    0.00049297   -0.00009104
     atom   47 type  4   force =    -0.00030158   -0.00043806    0.00042899
     atom   48 type  4   force =    -0.00057079   -0.00004180    0.00085109
     atom   49 type  4   force =    -0.00049919    0.00006930    0.00021522
     atom   50 type  4   force =     0.00021320    0.00030151   -0.00025135
     atom   51 type  4   force =     0.00016893   -0.00056021   -0.00045268
     atom   52 type  5   force =     0.00562178    0.00079551    0.00284455
     atom   53 type  5   force =    -0.00479354   -0.00128522   -0.00158648

     Total force =     0.374251     Total SCF correction =     0.000638
  @ DRIVER MODE: Message from server: STATUS
  @ DRIVER MODE: Message from server: GETFORCE
  @ DRIVER MODE: Returning v,forces,stress,ensemble

     Writing output data file ./calc.save/
  @ DRIVER MODE: Message from server: EXIT
  @ DRIVE MODE: Exiting

     General routines

     Parallel routines

   This run was terminated on:  23: 7:23  14Sep2021

   JOB DONE.