     Program PWSCF v.6.7GPU starts on 19Oct2021 at  3:13: 7

     R & G space division:  proc/nbgrp/npool/nimage =       8
     Reading input from /storage/home/hcoda1/3/ntian30/research/carbon/CxH_vib/Thiel_calc/ads_slab/NH2NHH_perslab/out_0034/pw.inp
Warning: card &CELL ignored
Warning: card   CELL_DYNAMICS='IPI', ignored
Warning: card / ignored

     Current dimensions of program PWSCF are:
     Max number of different atomic species (ntypx) = 10
     Max number of k-points (npk) =  40000
     Max angular momentum in pseudopotentials (lmaxx) =  3
     Presently no symmetry can be used with electric field

     Message from routine cell_base_init:
     DEPRECATED: use true lattice parameter, not A to a.u. conversion factor

     IMPORTANT: XC functional enforced from input :
     Exchange-correlation= BEEF-VDW
                           (   1   4  43  14   2   0   0)
     Any further DFT definition will be discarded
     Please, verify this is what you really want

  @ DRIVER MODE: Connecting to
 qe_1139763_3255134.sched-torque.pace.gatech.edu243ek9gy_scratch
  using UNIX socket
  @ DRIVER MODE: Message from server: STATUS
  @ DRIVER MODE: Message from server: INIT
  @ DRIVER MODE: Receiving replica           0          -1
  @ DRIVER MODE: Receiving encoded integer          25
  @ DRIVER MODE:  SCF:  T  FORCE:  T  STRESS:  F  VC:  F  ENSEMBLE:  F
  @ DRIVER MODE:  SCF:  T  FORCE:  T  STRESS:  F  VC:  F  ENSEMBLE:  F

     Using Slab Decomposition

     bravais-lattice index     =            0
     lattice parameter (alat)  =       1.8897  a.u.
     unit-cell volume          =    9988.4706 (a.u.)^3
     number of atoms/cell      =           59
     number of atomic types    =            4
     number of electrons       =       440.00
     number of Kohn-Sham states=          230
     kinetic-energy cutoff     =      29.3995  Ry
     charge density cutoff     =     293.9946  Ry
     scf convergence threshold =      7.3E-08
     mixing beta               =       0.0500
     number of iterations used =            8  plain     mixing
     Exchange-correlation= BEEF-VDW
                           (   1   4  43  14   2   0   0)

     celldm(1)=   1.889726  celldm(2)=   0.000000  celldm(3)=   0.000000
     celldm(4)=   0.000000  celldm(5)=   0.000000  celldm(6)=   0.000000

     crystal axes: (cart. coord. in units of alat)
               a(1) = (   6.579727   0.000000   0.000000 )
               a(2) = (  -0.001163   8.942395   0.000000 )
               a(3) = (   0.000000   0.000000  25.155947 )

     reciprocal axes: (cart. coord. in units 2 pi/alat)
               b(1) = (  0.151982  0.000020  0.000000 )
               b(2) = (  0.000000  0.111827  0.000000 )
               b(3) = (  0.000000  0.000000  0.039752 )

     PseudoPot. # 1 for O  read from file:
     /storage/coda1/p-amedford6/0/shared/rich_project_chbe-medford/medford-share/data/pseudos_module/espresso/nninc/pbe/van/O.UPF
     MD5 check sum: 78c19812648e8988a0fe644b0f25305e
     Pseudo is Ultrasoft, Zval =  6.0
     Generated by new atomic code, or converted to UPF format
     Using radial grid of  737 points,  4 beta functions with:
                l(1) =   0
                l(2) =   0
                l(3) =   1
                l(4) =   1
     Q(r) pseudized with  8 coefficients,  rinner =    0.800   0.800   0.800

     PseudoPot. # 2 for Ti read from file:
     /storage/coda1/p-amedford6/0/shared/rich_project_chbe-medford/medford-share/data/pseudos_module/espresso/nninc/pbe/van/Ti.UPF
     MD5 check sum: 8e4df49b7f0d34bbd5052bf3f5ea0213
     Pseudo is Ultrasoft, Zval = 12.0
     Generated by new atomic code, or converted to UPF format
     Using radial grid of  851 points,  6 beta functions with:
                l(1) =   0
                l(2) =   0
                l(3) =   1
                l(4) =   1
                l(5) =   2
                l(6) =   2
     Q(r) pseudized with  8 coefficients,  rinner =    1.000   1.000   1.000
                                                       1.000   1.000

     PseudoPot. # 3 for H  read from file:
     /storage/coda1/p-amedford6/0/shared/rich_project_chbe-medford/medford-share/data/pseudos_module/espresso/nninc/pbe/van/H.UPF
     MD5 check sum: b5ee9d7bfd3a09ee7748110bda690ff7
     Pseudo is Ultrasoft, Zval =  1.0
     Generated by new atomic code, or converted to UPF format
     Using radial grid of  615 points,  1 beta functions with:
                l(1) =   0
     Q(r) pseudized with  8 coefficients,  rinner =    0.800

     PseudoPot. # 4 for N  read from file:
     /storage/coda1/p-amedford6/0/shared/rich_project_chbe-medford/medford-share/data/pseudos_module/espresso/nninc/pbe/van/N.UPF
     MD5 check sum: 90d10febe142ad51ac9d5be1deb811c4
     Pseudo is Ultrasoft, Zval =  5.0
     Generated by new atomic code, or converted to UPF format
     Using radial grid of  729 points,  4 beta functions with:
                l(1) =   0
                l(2) =   0
                l(3) =   1
                l(4) =   1
     Q(r) pseudized with  8 coefficients,  rinner =    0.800   0.800   0.800

     atomic species   valence    mass     pseudopotential
        O1             6.00    15.99900     O ( 1.00)
        Ti1           12.00    47.86700     Ti( 1.00)
        H1             1.00     1.00800     H ( 1.00)
        N1             5.00    14.00700     N ( 1.00)

     No symmetry found

   Cartesian axes

     site n.     atom                  positions (alat units)
         1           O1  tau(   1) = (   0.0007354   0.0005023  10.5931620  )
         2           O1  tau(   2) = (   3.2887669   8.9343558  13.7857904  )
         3           O1  tau(   3) = (  -0.0004435   8.9037079  17.1656601  )
         4           O1  tau(   4) = (   0.0006271   0.0005054   7.9858123  )
         5           O1  tau(   5) = (   3.2907596   0.0056730  11.1454013  )
         6           O1  tau(   6) = (   0.0000918   8.9024801  14.5153886  )
         7           O1  tau(   7) = (   1.9868534   1.4903216   9.2879459  )
         8           O1  tau(   8) = (   5.2129768   1.5767634  12.5412193  )
         9           O1  tau(   9) = (   2.0410104   1.4081166  15.9738913  )
        10           Ti1 tau(  10) = (   0.0007404   1.4906270   9.2895810  )
        11           Ti1 tau(  11) = (   3.2923993   1.3029312  12.4395176  )
        12           Ti1 tau(  12) = (   6.5786190   1.6682186  16.0479855  )
        13           O1  tau(  13) = (   4.5942328   1.4918067   9.2879030  )
        14           O1  tau(  14) = (   1.3693608   1.5763615  12.5409223  )
        15           O1  tau(  15) = (   4.5388119   1.4066068  15.9736107  )
        16           Ti1 tau(  16) = (   3.2902859   2.9801868   9.2893338  )
        17           Ti1 tau(  17) = (   0.0025983   2.7818652  12.5490862  )
        18           Ti1 tau(  18) = (   3.2890997   3.0957086  15.6341045  )
        19           O1  tau(  19) = (   0.0003479   2.9813005  10.5931620  )
        20           O1  tau(  20) = (   3.2906043   2.9558292  13.7911244  )
        21           O1  tau(  21) = (   0.0002396   2.9813036   7.9858123  )
        22           O1  tau(  22) = (   3.2907828   2.9846389  11.1656624  )
        23           O1  tau(  23) = (   0.0000664   2.9755257  14.5967958  )
        24           O1  tau(  24) = (   1.9864658   4.4711199   9.2879459  )
        25           O1  tau(  25) = (   5.2254851   4.5442098  12.5530165  )
        26           O1  tau(  26) = (   2.0413797   4.3804877  15.9810922  )
        27           Ti1 tau(  27) = (   0.0003529   4.4714252   9.2895810  )
        28           Ti1 tau(  28) = (   3.2927641   4.3249026  12.5337624  )
        29           Ti1 tau(  29) = (  -0.0001393   4.3779101  16.0758329  )
        30           O1  tau(  30) = (   4.5938453   4.4726049   9.2879030  )
        31           O1  tau(  31) = (   1.3554856   4.5423027  12.5528228  )
        32           O1  tau(  32) = (   4.5375453   4.3808357  15.9816482  )
        33           Ti1 tau(  33) = (   3.2898983   5.9609850   9.2893338  )
        34           Ti1 tau(  34) = (   0.0022780   5.7553130  12.5179661  )
        35           Ti1 tau(  35) = (   3.2911749   6.0723021  16.2828521  )
        36           O1  tau(  36) = (  -0.0000397   5.9620987  10.5931620  )
        37           O1  tau(  37) = (   3.2898444   5.9099340  13.7874885  )
        38           O1  tau(  38) = (  -0.0002305   5.9963729  17.1613877  )
        39           O1  tau(  39) = (  -0.0001480   5.9621018   7.9858123  )
        40           O1  tau(  40) = (   3.2898933   5.9403142  11.1650959  )
        41           O1  tau(  41) = (   0.0001730   6.0398540  14.5337486  )
        42           O1  tau(  42) = (   1.9860782   7.4519181   9.2879459  )
        43           O1  tau(  43) = (   5.2203866   7.5240042  12.5266709  )
        44           O1  tau(  44) = (   2.0308607   7.4363189  15.9936472  )
        45           Ti1 tau(  45) = (  -0.0000347   7.4522234   9.2895810  )
        46           Ti1 tau(  46) = (   3.2897547   7.2013570  12.5904776  )
        47           Ti1 tau(  47) = (  -0.0001197   7.5007381  15.6461876  )
        48           O1  tau(  48) = (   4.5934577   7.4534031   9.2879030  )
        49           O1  tau(  49) = (   1.3580612   7.5226468  12.5263262  )
        50           O1  tau(  50) = (   4.5486487   7.4363691  15.9933312  )
        51           Ti1 tau(  51) = (   3.2895107   8.9417832   9.2893338  )
        52           Ti1 tau(  52) = (  -0.0005051   8.7269297  12.4809553  )
        53           Ti1 tau(  53) = (   3.2886672   0.0795926  15.6360096  )
        54           H1  tau(  54) = (   6.5784023   6.0277306  18.1241331  )
        55           H1  tau(  55) = (   6.5784455   8.8634660  18.1266539  )
        56           N1  tau(  56) = (   6.5791914   3.0063145  17.2269018  )
        57           N1  tau(  57) = (   3.2902358   5.9939226  18.1904466  )
        58           H1  tau(  58) = (   3.2886139   5.1344262  18.7255412  )
        59           H1  tau(  59) = (   3.2892998   6.8058846  18.8069972  )

     number of k points=    10  Fermi-Dirac smearing, width (Ry)=  0.0073
                       cart. coord. in units 2pi/alat
        k(    1) = (   0.0000000   0.0000000   0.0000000), wk =   0.1250000
        k(    2) = (   0.0000000   0.0279567   0.0000000), wk =   0.2500000
        k(    3) = (   0.0000000  -0.0559134   0.0000000), wk =   0.1250000
        k(    4) = (   0.0379955   0.0000049   0.0000000), wk =   0.2500000
        k(    5) = (   0.0379955   0.0279617   0.0000000), wk =   0.2500000
        k(    6) = (   0.0379955  -0.0559085   0.0000000), wk =   0.2500000
        k(    7) = (   0.0379955  -0.0279518   0.0000000), wk =   0.2500000
        k(    8) = (  -0.0759910  -0.0000099   0.0000000), wk =   0.1250000
        k(    9) = (  -0.0759910   0.0279468   0.0000000), wk =   0.2500000
        k(   10) = (  -0.0759910  -0.0559233   0.0000000), wk =   0.1250000

     Initial potential from superposition of free atoms

     starting charge  421.99910, renormalised to  440.00000

     negative rho (up, down):  3.748E-02 0.000E+00

     %%%%%%%%%%%%%%%%%%%%%%%%%%%%%%%%%%%%%%%%%%%%%%%%%%%%%%%%%%%%%%%%%%%%%%%%
     %                                                                      %
     % You are using vdW-DF, which was implemented by the Thonhauser group. %
     % Please cite the following two papers that made this development      %
     % possible and the two reviews that describe the various versions:     %
     %                                                                      %
     %   T. Thonhauser et al., PRL 115, 136402 (2015).                      %
     %   T. Thonhauser et al., PRB 76, 125112 (2007).                       %
     %   K. Berland et al., Rep. Prog. Phys. 78, 066501 (2015).             %
     %   D.C. Langreth et al., J. Phys.: Condens. Matter 21, 084203 (2009). %
     %                                                                      %
     %                                                                      %
     % If you are calculating the stress with vdW-DF, please also cite:     %
     %                                                                      %
     %   R. Sabatini et al., J. Phys.: Condens. Matter 24, 424209 (2012).   %
     %                                                                      %
     %%%%%%%%%%%%%%%%%%%%%%%%%%%%%%%%%%%%%%%%%%%%%%%%%%%%%%%%%%%%%%%%%%%%%%%%

     Adding external electric field

     Computed dipole along edir(3) :
        Dipole               -3.9322 Ry au,         -9.9948 Debye
        Dipole field         -0.0049 Ry au,

        Potential amp.        0.4586 Ry
        Total length         46.3494 bohr

     Starting wfcs are  332 atomic wfcs
  @ DRIVER MODE: Message from server: STATUS
  @ DRIVER MODE: Message from server: POSDATA
  @ DRIVER MODE: Reading and sharing cell
  @ DRIVER MODE: Reading and sharing positions
  @ DRIVER MODE: Received positions

     Self-consistent Calculation

     iteration #  1     ecut=    29.40 Ry     beta= 0.05
     Davidson diagonalization with overlap
     c_bands:  2 eigenvalues not converged
     c_bands:  3 eigenvalues not converged
     c_bands:  1 eigenvalues not converged
     c_bands:  5 eigenvalues not converged
     c_bands:  4 eigenvalues not converged
     c_bands:  2 eigenvalues not converged
     c_bands:  4 eigenvalues not converged
     c_bands:  5 eigenvalues not converged
     c_bands:  3 eigenvalues not converged
     c_bands:  3 eigenvalues not converged
     ethr =  1.00E-05,  avg # of iterations = 20.0

[...]

     total energy              =   -3294.69964737 Ry
     estimated scf accuracy    <      19.95932865 Ry

     iteration #  2     ecut=    29.40 Ry     beta= 0.05
     Davidson diagonalization with overlap
     ethr =  4.54E-03,  avg # of iterations =  1.7

[...]

     iteration # 21     ecut=    29.40 Ry     beta= 0.05
     Davidson diagonalization with overlap
     c_bands:  1 eigenvalues not converged
     c_bands:  1 eigenvalues not converged
     ethr =  9.42E-06,  avg # of iterations = 15.1

[...]

     total energy              =   -3293.27256590 Ry
     estimated scf accuracy    <       0.00000010 Ry

     iteration # 47     ecut=    29.40 Ry     beta= 0.05
     Davidson diagonalization with overlap
     ethr =  2.22E-11,  avg # of iterations =  3.1

     negative rho (up, down):  3.594E-02 0.000E+00

     Adding external electric field

     Computed dipole along edir(3) :
        Dipole                1.3182 Ry au,          3.3504 Debye
        Dipole field          0.0017 Ry au,

        Potential amp.       -0.1537 Ry
        Total length         46.3494 bohr

     End of self-consistent calculation

          k = 0.0000 0.0000 0.0000 ( 26871 PWs)   bands (ev):

   -58.2795 -58.2562 -58.2508 -58.2261 -58.1666 -57.7775 -57.7737 -57.7538
   -57.6689 -57.5706 -57.5680 -57.5455 -57.3357 -56.8614 -56.8374 -56.8207
   -56.7384 -56.6383 -34.6895 -34.6499 -34.6172 -34.6016 -34.5974 -34.5960
   -34.5468 -34.4922 -34.4547 -34.4112 -34.4050 -34.3888 -34.3838 -34.3636
   -34.3160 -34.1918 -34.1408 -34.1343 -34.1256 -34.1210 -34.0760 -34.0544
   -34.0535 -34.0132 -34.0007 -33.9570 -33.9556 -33.8575 -33.8524 -33.8260
   -33.8187 -33.8031 -33.7674 -33.7569 -33.7493 -33.7322 -33.6836 -33.5757
   -33.5439 -33.2335 -33.2062 -33.1880 -33.1713 -33.1652 -33.1480 -33.0695
   -33.0566 -33.0110 -32.9925 -32.9835 -32.9506 -32.8878 -32.8700 -32.7663
   -18.9497 -18.8270 -18.7368 -18.3602 -18.3008 -18.1681 -18.1110 -18.1041
   -18.0105 -17.9414 -17.7176 -17.6696 -17.6577 -17.6331 -17.5375 -17.5246
   -17.5154 -17.4834 -17.4590 -17.4530 -17.3505 -17.3132 -17.2987 -17.2937
   -17.2621 -17.1836 -17.1342 -17.0391 -17.0061 -17.0037 -16.8342 -16.7942
   -15.3383 -15.2973 -15.2885 -15.2144 -11.6040  -6.9828  -6.8106  -6.6893
    -6.1797  -5.9689  -5.7724  -5.6103  -5.5131  -5.4465  -5.3767  -5.3100
    -5.2750  -5.2538  -5.2027  -5.1625  -5.0623  -5.0540  -4.9615  -4.9053
    -4.8758  -4.8445  -4.7661  -4.7441  -4.7276  -4.6782  -4.6175  -4.6079
    -4.5688  -4.4933  -4.4848  -4.4701  -4.4315  -4.4254  -4.3705  -4.2822
    -4.1936  -4.1631  -4.1531  -4.1124  -4.0402  -4.0241  -4.0081  -3.9801
    -3.9745  -3.9424  -3.8678  -3.8420  -3.7351  -3.6443  -3.6148  -3.5997
    -3.5090  -3.4294  -3.3728  -3.3463  -3.1719  -3.1453  -3.1025  -3.0390
    -3.0284  -2.9669  -2.9434  -2.9195  -2.8901  -2.8676  -2.8029  -2.7940
    -2.7928  -2.7724  -2.7477  -2.7005  -2.6507  -2.6300  -2.5676  -2.5378
    -2.5235  -2.4992  -2.4540  -2.4339  -2.3186  -2.2682  -2.2559  -2.2370
    -2.2318  -2.1525  -2.0749  -2.0173  -1.9987  -1.8713  -1.8660  -1.7508
    -1.7078  -1.7019  -1.6488  -1.5760  -1.5303  -1.4827  -1.3717  -1.2403
    -1.1752  -1.0926  -1.0276  -0.7637  -0.6696  -0.5544  -0.5475  -0.5347
    -0.5147  -0.3662  -0.3518  -0.2554   0.9957   1.1317   1.2898   1.3131
     1.5135   1.6015   1.6248   1.6670   1.7673   1.8612

[...]

          k = 0.0380-0.0280 0.0000 ( 26873 PWs)   bands (ev):

[...]

          k =-0.0760-0.0000 0.0000 ( 26902 PWs)   bands (ev):

[...]

          k =-0.0760-0.0559 0.0000 ( 26868 PWs)   bands (ev):

   -58.2731 -58.2685 -58.2448 -58.2260 -58.1667 -57.7772 -57.7736 -57.7542
   -57.6687 -57.5706 -57.5689 -57.5447 -57.3357 -56.8582 -56.8434 -56.8178
   -56.7384 -56.6383 -34.7177 -34.6924 -34.6506 -34.6229 -34.5913 -34.5056
   -34.4911 -34.4321 -34.4272 -34.4174 -34.4096 -34.4060 -34.4012 -34.3651
   -34.3635 -34.2318 -34.1723 -34.1583 -34.1286 -34.1208 -34.0601 -34.0074
   -33.9933 -33.9890 -33.9662 -33.9581 -33.9255 -33.8997 -33.8828 -33.8746
   -33.8303 -33.8027 -33.7678 -33.7543 -33.7481 -33.7331 -33.6855 -33.5753
   -33.5486 -33.2485 -33.2205 -33.2071 -33.1933 -33.1686 -33.0591 -33.0558
   -33.0387 -32.9833 -32.9811 -32.9732 -32.9581 -32.9510 -32.8883 -32.7733
   -18.9096 -18.7524 -18.6277 -18.4706 -18.2341 -18.1314 -17.9699 -17.8863
   -17.8621 -17.8593 -17.8435 -17.7440 -17.7381 -17.7026 -17.6452 -17.6183
   -17.6077 -17.6033 -17.5543 -17.5513 -17.3563 -17.3467 -17.2916 -17.2501
   -17.2257 -17.2034 -17.1033 -17.1018 -17.0314 -16.9565 -16.8532 -16.7701
   -15.3489 -15.3382 -15.2273 -15.2148 -11.6009  -6.9232  -6.8338  -6.6899
    -5.9552  -5.7454  -5.7179  -5.6687  -5.3502  -5.2963  -5.1954  -5.1674
    -5.1288  -5.1124  -5.0720  -5.0700  -5.0000  -4.9557  -4.9417  -4.9147
    -4.9007  -4.8710  -4.8405  -4.8158  -4.7533  -4.7492  -4.7343  -4.6909
    -4.6434  -4.5589  -4.5361  -4.5177  -4.4671  -4.4279  -4.2534  -4.2073
    -4.1809  -4.1662  -4.0740  -4.0558  -3.9790  -3.9445  -3.9056  -3.8298
    -3.7338  -3.6879  -3.6381  -3.5827  -3.5572  -3.5265  -3.5211  -3.4683
    -3.4400  -3.3905  -3.3578  -3.3524  -3.3014  -3.2446  -3.1987  -3.1798
    -3.1537  -3.1486  -3.1256  -3.0998  -3.0693  -3.0466  -3.0418  -2.9840
    -2.9364  -2.9236  -2.8490  -2.8167  -2.7630  -2.7099  -2.6863  -2.6302
    -2.6230  -2.5692  -2.5635  -2.4992  -2.4711  -2.4226  -2.4097  -2.3384
    -2.1596  -2.0956  -1.9907  -1.9460  -1.9350  -1.8659  -1.8327  -1.8203
    -1.6810  -1.6704  -1.6072  -1.6041  -1.5791  -1.3670  -1.3395  -1.3034
    -1.2733  -1.2352  -1.2020  -1.0898  -0.7973  -0.7084  -0.6737  -0.4836
    -0.4616  -0.4175  -0.3867  -0.3724   1.0408   1.2093   1.2777   1.3589
     1.3800   1.4222   1.4520   1.6383   1.6694   1.7004

     the Fermi energy is     0.3956 ev

!    total energy              =   -3293.27271236 Ry
     estimated scf accuracy    <       0.00000006 Ry
     smearing contrib. (-TS)   =      -0.00047489 Ry
     internal energy E=F+TS    =   -3293.27223747 Ry

     The total energy is F=E-TS. E is the sum of the following terms:
     one-electron contribution =  -34645.80952065 Ry
     hartree contribution      =   17387.43290932 Ry
     xc contribution           =    -542.12301760 Ry
     ewald contribution        =   14507.22520546 Ry
     electric field correction =       0.00218600 Ry

     convergence has been achieved in  47 iterations

     Forces acting on atoms (cartesian axes, Ry/au):

     atom    1 type  1   force =     0.00002359    0.00608605    0.04335749
     atom    2 type  1   force =     0.00000637   -0.00401629   -0.00309049
     atom    3 type  1   force =     0.00001812    0.00281172   -0.00203453
     atom    4 type  1   force =     0.00005067   -0.00045174    0.10163455
     atom    5 type  1   force =    -0.00000395    0.00014352    0.00747630
     atom    6 type  1   force =    -0.00000791    0.00310095    0.00047911
     atom    7 type  1   force =     0.07787000    0.00122524   -0.03552748
     atom    8 type  1   force =     0.00796155   -0.02604331    0.00024660
     atom    9 type  1   force =     0.00931178    0.01907546    0.00059064
     atom   10 type  2   force =    -0.00006875    0.00811956   -0.15938585
     atom   11 type  2   force =    -0.00006520    0.02225722   -0.00327279
     atom   12 type  2   force =     0.00002509   -0.02374420   -0.00521637
     atom   13 type  1   force =    -0.07795823    0.00076013   -0.03551835
     atom   14 type  1   force =    -0.00808733   -0.02591917    0.00026324
     atom   15 type  1   force =    -0.00940841    0.01915837    0.00063167
     atom   16 type  2   force =     0.00009877    0.00151352    0.07237794
     atom   17 type  2   force =     0.00009002    0.03129670    0.00146771
     atom   18 type  2   force =     0.00001838   -0.02629603    0.00305883
     atom   19 type  1   force =     0.00005390    0.00277334    0.05722057
     atom   20 type  1   force =     0.00000729   -0.00177461    0.00097405
     atom   21 type  1   force =     0.00004817   -0.00089439    0.10057006
     atom   22 type  1   force =     0.00000607   -0.00255706    0.00650750
     atom   23 type  1   force =    -0.00003114    0.00310462    0.00437653
     atom   24 type  1   force =     0.07898882    0.00059567   -0.03634684
     atom   25 type  1   force =     0.00962885   -0.02996288    0.00062981
     atom   26 type  1   force =     0.01029359    0.01556491    0.00402079
     atom   27 type  2   force =    -0.00008894   -0.00571011   -0.15461842
     atom   28 type  2   force =     0.00001969    0.02797847   -0.00280694
     atom   29 type  2   force =     0.00003146   -0.01127945   -0.01284875
     atom   30 type  1   force =    -0.07906920    0.00019359   -0.03635075
     atom   31 type  1   force =    -0.00971328   -0.02979648    0.00063382
     atom   32 type  1   force =    -0.01027869    0.01552420    0.00401965
     atom   33 type  2   force =     0.00011889   -0.00295952    0.07720465
     atom   34 type  2   force =     0.00003981    0.03528238    0.00329240
     atom   35 type  2   force =    -0.00006005   -0.01757259   -0.00022842
     atom   36 type  1   force =     0.00008496    0.00416434    0.05150754
     atom   37 type  1   force =    -0.00000148   -0.00283148   -0.00289859
     atom   38 type  1   force =     0.00001018    0.00202238    0.00347059
     atom   39 type  1   force =     0.00004484    0.00293713    0.10097045
     atom   40 type  1   force =    -0.00000515   -0.00195039    0.00748375
     atom   41 type  1   force =    -0.00000096    0.00064440    0.00074576
     atom   42 type  1   force =     0.07839547    0.00162671   -0.03444720
     atom   43 type  1   force =     0.00610199   -0.02321997   -0.00032874
     atom   44 type  1   force =     0.01007612    0.01588120   -0.00668458
     atom   45 type  2   force =    -0.00005345   -0.00740518   -0.16393591
     atom   46 type  2   force =    -0.00003263    0.01846227    0.00056184
     atom   47 type  2   force =     0.00001713   -0.01469547    0.01688588
     atom   48 type  1   force =    -0.07849700    0.00118245   -0.03443186
     atom   49 type  1   force =    -0.00609032   -0.02324562   -0.00032595
     atom   50 type  1   force =    -0.01006610    0.01590076   -0.00666474
     atom   51 type  2   force =     0.00010339   -0.00344272    0.06019651
     atom   52 type  2   force =     0.00004645    0.02831033    0.00340028
     atom   53 type  2   force =     0.00009451   -0.02112119    0.00080749
     atom   54 type  3   force =    -0.00003506    0.00068332   -0.00179080
     atom   55 type  3   force =    -0.00002407   -0.00074296   -0.00042815
     atom   56 type  4   force =    -0.00002638    0.00035351    0.00165228
     atom   57 type  4   force =     0.00000413    0.00971540    0.00668783
     atom   58 type  3   force =    -0.00002479    0.00034771    0.00057049
     atom   59 type  3   force =     0.00000843   -0.01116478   -0.00679210

     Total force =     0.435144     Total SCF correction =     0.000672
  @ DRIVER MODE: Message from server: STATUS
  @ DRIVER MODE: Message from server: GETFORCE
  @ DRIVER MODE: Returning v,forces,stress,ensemble

     Writing output data file ./calc.save/
  @ DRIVER MODE: Message from server: EXIT
  @ DRIVE MODE: Exiting

     General routines

     Parallel routines

   This run was terminated on:   3:36:23  19Oct2021

   JOB DONE.