     Program PWSCF v.6.7GPU starts on 26Sep2021 at 16: 8:23

     R & G space division:  proc/nbgrp/npool/nimage =       8
     Reading input from /storage/home/hcoda1/3/ntian30/research/carbon/CxH_vib/H2O_calc/ads_slab/CH3ON2H2O_a/out_0051/pw.inp
Warning: card &CELL ignored
Warning: card   CELL_DYNAMICS='IPI', ignored
Warning: card / ignored

     Current dimensions of program PWSCF are:
     Max number of different atomic species (ntypx) = 10
     Max number of k-points (npk) =  40000
     Max angular momentum in pseudopotentials (lmaxx) =  3
     Presently no symmetry can be used with electric field

     Message from routine cell_base_init:
     DEPRECATED: use true lattice parameter, not A to a.u. conversion factor

     IMPORTANT: XC functional enforced from input :
     Exchange-correlation= BEEF-VDW
                           (   1   4  43  14   2   0   0)
     Any further DFT definition will be discarded
     Please, verify this is what you really want

  @ DRIVER MODE: Connecting to
 qe_1139763_2971672.sched-torque.pace.gatech.eduvwoto0fp_scratch
  using UNIX socket
  @ DRIVER MODE: Message from server: STATUS
  @ DRIVER MODE: Message from server: INIT
  @ DRIVER MODE: Receiving replica           0          -1
  @ DRIVER MODE: Receiving encoded integer          25
  @ DRIVER MODE:  SCF:  T  FORCE:  T  STRESS:  F  VC:  F  ENSEMBLE:  F
  @ DRIVER MODE:  SCF:  T  FORCE:  T  STRESS:  F  VC:  F  ENSEMBLE:  F

     Using Slab Decomposition

     bravais-lattice index     =            0
     lattice parameter (alat)  =       1.8897  a.u.
     unit-cell volume          =    6658.9804 (a.u.)^3
     number of atoms/cell      =           57
     number of atomic types    =            5
     number of electrons       =       409.00
     number of Kohn-Sham states=          214
     kinetic-energy cutoff     =      29.3995  Ry
     charge density cutoff     =     293.9946  Ry
     scf convergence threshold =      7.3E-08
     mixing beta               =       0.0500
     number of iterations used =            8  plain     mixing
     Exchange-correlation= BEEF-VDW
                           (   1   4  43  14   2   0   0)

     celldm(1)=   1.889726  celldm(2)=   0.000000  celldm(3)=   0.000000
     celldm(4)=   0.000000  celldm(5)=   0.000000  celldm(6)=   0.000000

     crystal axes: (cart. coord. in units of alat)
               a(1) = (   6.579727   0.000000   0.000000 )
               a(2) = (  -0.000775   5.961596   0.000000 )
               a(3) = (   0.000000   0.000000  25.155947 )

     reciprocal axes: (cart. coord. in units 2 pi/alat)
               b(1) = (  0.151982  0.000020  0.000000 )
               b(2) = (  0.000000  0.167740  0.000000 )
               b(3) = (  0.000000  0.000000  0.039752 )

     PseudoPot. # 1 for Ti read from file:
     /storage/coda1/p-amedford6/0/shared/rich_project_chbe-medford/medford-share/data/pseudos_module/espresso/nninc/pbe/van/Ti.UPF
     MD5 check sum: 8e4df49b7f0d34bbd5052bf3f5ea0213
     Pseudo is Ultrasoft, Zval = 12.0
     Generated by new atomic code, or converted to UPF format
     Using radial grid of  851 points,  6 beta functions with:
                l(1) =   0
                l(2) =   0
                l(3) =   1
                l(4) =   1
                l(5) =   2
                l(6) =   2
     Q(r) pseudized with  8 coefficients,  rinner =    1.000   1.000   1.000
                                                       1.000   1.000

     PseudoPot. # 2 for O  read from file:
     /storage/coda1/p-amedford6/0/shared/rich_project_chbe-medford/medford-share/data/pseudos_module/espresso/nninc/pbe/van/O.UPF
     MD5 check sum: 78c19812648e8988a0fe644b0f25305e
     Pseudo is Ultrasoft, Zval =  6.0
     Generated by new atomic code, or converted to UPF format
     Using radial grid of  737 points,  4 beta functions with:
                l(1) =   0
                l(2) =   0
                l(3) =   1
                l(4) =   1
     Q(r) pseudized with  8 coefficients,  rinner =    0.800   0.800   0.800

     PseudoPot. # 3 for C  read from file:
     /storage/coda1/p-amedford6/0/shared/rich_project_chbe-medford/medford-share/data/pseudos_module/espresso/nninc/pbe/van/C.UPF
     MD5 check sum: 1a69bf6b8db32088f5b2163dbdb77a27
     Pseudo is Ultrasoft, Zval =  4.0
     Generated by new atomic code, or converted to UPF format
     Using radial grid of  721 points,  4 beta functions with:
                l(1) =   0
                l(2) =   0
                l(3) =   1
                l(4) =   1
     Q(r) pseudized with  8 coefficients,  rinner =    0.800   0.800   0.800

     PseudoPot. # 4 for H  read from file:
     /storage/coda1/p-amedford6/0/shared/rich_project_chbe-medford/medford-share/data/pseudos_module/espresso/nninc/pbe/van/H.UPF
     MD5 check sum: b5ee9d7bfd3a09ee7748110bda690ff7
     Pseudo is Ultrasoft, Zval =  1.0
     Generated by new atomic code, or converted to UPF format
     Using radial grid of  615 points,  1 beta functions with:
                l(1) =   0
     Q(r) pseudized with  8 coefficients,  rinner =    0.800

     PseudoPot. # 5 for N  read from file:
     /storage/coda1/p-amedford6/0/shared/rich_project_chbe-medford/medford-share/data/pseudos_module/espresso/nninc/pbe/van/N.UPF
     MD5 check sum: 90d10febe142ad51ac9d5be1deb811c4
     Pseudo is Ultrasoft, Zval =  5.0
     Generated by new atomic code, or converted to UPF format
     Using radial grid of  729 points,  4 beta functions with:
                l(1) =   0
                l(2) =   0
                l(3) =   1
                l(4) =   1
     Q(r) pseudized with  8 coefficients,  rinner =    0.800   0.800   0.800

     atomic species   valence    mass     pseudopotential
        Ti1           12.00    47.86700     Ti( 1.00)
        O1             6.00    15.99900     O ( 1.00)
        C1             4.00    12.01100     C ( 1.00)
        H1             1.00     1.00800     H ( 1.00)
        N1             5.00    14.00700     N ( 1.00)

     No symmetry found

   Cartesian axes

     site n.     atom                  positions (alat units)
         1           Ti1 tau(   1) = (   0.0004258   2.9801865   6.0000000  )
         2           Ti1 tau(   2) = (   3.2906075   1.4906267   6.0002472  )
         3           O1  tau(   3) = (   0.0006271   0.0005054   7.9858123  )
         4           O1  tau(   4) = (   3.2906025   0.0005020   7.3038282  )
         5           O1  tau(   5) = (   4.5942328   1.4918067   9.2879030  )
         6           O1  tau(   6) = (   1.9868534   1.4903216   9.2879459  )
         7           Ti1 tau(   7) = (   3.3113259   3.0354369   9.1618307  )
         8           Ti1 tau(   8) = (   0.0141821   1.6139659   9.3625064  )
         9           O1  tau(   9) = (   3.2964399   0.0287090  11.3517035  )
        10           O1  tau(  10) = (   0.0046459   0.0167322  10.6079620  )
        11           O1  tau(  11) = (   1.2916403   1.5142126  12.6509924  )
        12           O1  tau(  12) = (   5.2954765   1.5212855  12.6445515  )
        13           Ti1 tau(  13) = (   0.0303381   3.0181167  12.7741416  )
        14           Ti1 tau(  14) = (   3.3376880   1.5190318  12.5019279  )
        15           O1  tau(  15) = (   6.5702980   0.0162101  14.7136675  )
        16           O1  tau(  16) = (   3.3118210   0.0215951  13.9605728  )
        17           O1  tau(  17) = (   4.5586303   1.5408398  16.0643691  )
        18           O1  tau(  18) = (   2.0376984   1.5397913  16.0346728  )
        19           Ti1 tau(  19) = (   3.2806018   3.0126274  15.6982083  )
        20           Ti1 tau(  20) = (   0.0204579   1.3876160  16.0921805  )
        21           O1  tau(  21) = (   3.2904802   0.0005063   4.7018136  )
        22           O1  tau(  22) = (   0.0362274   0.0182013  17.2505027  )
        23           O1  tau(  23) = (   1.3043587   1.4918075   6.0039043  )
        24           O1  tau(  24) = (   5.2767064   1.4903225   6.0039473  )
        25           Ti1 tau(  25) = (   0.0000382   5.9609847   6.0000000  )
        26           Ti1 tau(  26) = (   3.2902200   4.4714249   6.0002472  )
        27           O1  tau(  27) = (   0.0002396   2.9813036   7.9858123  )
        28           O1  tau(  28) = (   3.2902150   2.9813002   7.3038282  )
        29           O1  tau(  29) = (   4.5938453   4.4726049   9.2879030  )
        30           O1  tau(  30) = (   1.9864658   4.4711199   9.2879459  )
        31           Ti1 tau(  31) = (   3.2918133   0.0584897   9.1554610  )
        32           Ti1 tau(  32) = (   0.0176696   4.5429683   9.2683582  )
        33           O1  tau(  33) = (   3.2944385   3.0046939  11.3531965  )
        34           O1  tau(  34) = (   0.0071923   2.9964285  10.5824339  )
        35           O1  tau(  35) = (   1.2923070   4.5060354  12.6395470  )
        36           O1  tau(  36) = (   5.2930342   4.4972821  12.6335129  )
        37           Ti1 tau(  37) = (   0.0360028   0.0369787  12.5252624  )
        38           Ti1 tau(  38) = (   3.3378333   4.5109478  12.5016189  )
        39           O1  tau(  39) = (   0.0182598   3.0415135  14.6926035  )
        40           O1  tau(  40) = (   3.2973286   3.0139918  13.9115332  )
        41           O1  tau(  41) = (   4.5518717   4.4752506  16.0920674  )
        42           O1  tau(  42) = (   2.0385343   4.4722040  16.0556704  )
        43           Ti1 tau(  43) = (   3.3273276   0.0437280  15.7880462  )
        44           Ti1 tau(  44) = (   0.0148993   4.5306414  15.9319406  )
        45           O1  tau(  45) = (   3.2900926   2.9813045   4.7018136  )
        46           O1  tau(  46) = (   1.3039711   4.4726057   6.0039043  )
        47           O1  tau(  47) = (   5.2763189   4.4711207   6.0039473  )
        48           C1  tau(  48) = (   6.0619278   3.0088867  18.6555636  )
        49           O1  tau(  49) = (   6.5788924   2.9994598  17.3400993  )
        50           H1  tau(  50) = (   4.9713474   2.8828304  18.6515055  )
        51           H1  tau(  51) = (   6.4909130   2.1836263  19.2313859  )
        52           H1  tau(  52) = (   6.3070107   3.9563896  19.1453893  )
        53           N1  tau(  53) = (   5.9950546   3.0301018  22.7159517  )
        54           N1  tau(  54) = (   5.2276613   3.1827328  21.9368001  )
        55           O1  tau(  55) = (   3.1818816   0.0591848  18.2205797  )
        56           H1  tau(  56) = (   3.8437189   5.3838241  18.5518935  )
        57           H1  tau(  57) = (   2.3086839   5.6188137  18.3735615  )

     number of k points=    10  Fermi-Dirac smearing, width (Ry)=  0.0073
                       cart. coord. in units 2pi/alat
        k(    1) = (   0.0000000   0.0000000   0.0000000), wk =   0.1250000
        k(    2) = (   0.0000000   0.0419351   0.0000000), wk =   0.2500000
        k(    3) = (   0.0000000  -0.0838702   0.0000000), wk =   0.1250000
        k(    4) = (   0.0379955   0.0000049   0.0000000), wk =   0.2500000
        k(    5) = (   0.0379955   0.0419400   0.0000000), wk =   0.2500000
        k(    6) = (   0.0379955  -0.0838652   0.0000000), wk =   0.2500000
        k(    7) = (   0.0379955  -0.0419301   0.0000000), wk =   0.2500000
        k(    8) = (  -0.0759910  -0.0000099   0.0000000), wk =   0.1250000
        k(    9) = (  -0.0759910   0.0419252   0.0000000), wk =   0.2500000
        k(   10) = (  -0.0759910  -0.0838800   0.0000000), wk =   0.1250000

     Initial potential from superposition of free atoms

     starting charge  392.99914, renormalised to  409.00000

     negative rho (up, down):  9.746E-03 0.000E+00

     %%%%%%%%%%%%%%%%%%%%%%%%%%%%%%%%%%%%%%%%%%%%%%%%%%%%%%%%%%%%%%%%%%%%%%%%
     %                                                                      %
     % You are using vdW-DF, which was implemented by the Thonhauser group. %
     % Please cite the following two papers that made this development      %
     % possible and the two reviews that describe the various versions:     %
     %                                                                      %
     %   T. Thonhauser et al., PRL 115, 136402 (2015).                      %
     %   T. Thonhauser et al., PRB 76, 125112 (2007).                       %
     %   K. Berland et al., Rep. Prog. Phys. 78, 066501 (2015).             %
     %   D.C. Langreth et al., J. Phys.: Condens. Matter 21, 084203 (2009). %
     %                                                                      %
     %                                                                      %
     % If you are calculating the stress with vdW-DF, please also cite:     %
     %                                                                      %
     %   R. Sabatini et al., J. Phys.: Condens. Matter 24, 424209 (2012).   %
     %                                                                      %
     %%%%%%%%%%%%%%%%%%%%%%%%%%%%%%%%%%%%%%%%%%%%%%%%%%%%%%%%%%%%%%%%%%%%%%%%

     Adding external electric field

     Computed dipole along edir(3) :
        Dipole              -18.5715 Ry au,        -47.2041 Debye
        Dipole field         -0.0350 Ry au,

        Potential amp.        3.2488 Ry
        Total length         46.3494 bohr

     Starting wfcs are  309 atomic wfcs
  @ DRIVER MODE: Message from server: STATUS
  @ DRIVER MODE: Message from server: POSDATA
  @ DRIVER MODE: Reading and sharing cell
  @ DRIVER MODE: Reading and sharing positions
  @ DRIVER MODE: Received positions

     Self-consistent Calculation

     iteration #  1     ecut=    29.40 Ry     beta= 0.05
     Davidson diagonalization with overlap
     c_bands:  3 eigenvalues not converged
     c_bands:  2 eigenvalues not converged
     c_bands:  2 eigenvalues not converged
     c_bands:  5 eigenvalues not converged
     c_bands:  5 eigenvalues not converged
     c_bands:  5 eigenvalues not converged
     c_bands:  1 eigenvalues not converged
     c_bands:  3 eigenvalues not converged
     ethr =  1.00E-05,  avg # of iterations = 28.5

[...]

     total energy              =   -2113.13595204 Ry
     estimated scf accuracy    <   10297.58439149 Ry

     iteration #  2     ecut=    29.40 Ry     beta= 0.05
     Davidson diagonalization with overlap
     ethr =  1.00E-02,  avg # of iterations = 30.2

[...]

     iteration # 88     ecut=    29.40 Ry     beta= 0.05
     Davidson diagonalization with overlap
     c_bands:  1 eigenvalues not converged
     ethr =  2.34E-10,  avg # of iterations = 16.3

[...]

     total energy              =   -3006.52126719 Ry
     estimated scf accuracy    <       0.00000013 Ry

     iteration # 93     ecut=    29.40 Ry     beta= 0.05
     Davidson diagonalization with overlap
     ethr =  3.15E-11,  avg # of iterations = 12.9

     negative rho (up, down):  1.093E-02 0.000E+00

     Adding external electric field

     Computed dipole along edir(3) :
        Dipole                0.9955 Ry au,          2.5303 Debye
        Dipole field          0.0019 Ry au,

        Potential amp.       -0.1741 Ry
        Total length         46.3494 bohr

     End of self-consistent calculation

          k = 0.0000 0.0000 0.0000 ( 18029 PWs)   bands (ev):

   -55.2860 -55.2517 -55.2501 -55.2153 -55.1924 -55.1772 -55.1694 -55.1338
   -55.0832 -55.0646 -55.0496 -55.0415 -55.0077 -54.9536 -54.2929 -54.2589
   -31.8087 -31.7551 -31.6785 -31.6465 -31.6250 -31.5778 -31.5606 -31.5571
   -31.5209 -31.5157 -31.4791 -31.4653 -31.4591 -31.4500 -31.4457 -31.4330
   -31.4268 -31.3908 -31.3855 -31.3774 -31.3734 -31.3547 -31.3507 -31.3417
   -31.3339 -31.3277 -31.3121 -31.2905 -31.2800 -31.2747 -31.2714 -31.2642
   -31.2609 -31.2456 -31.2328 -31.2227 -31.2207 -31.1861 -31.1710 -31.1507
   -31.1383 -31.1370 -30.7022 -30.6064 -30.5841 -30.5188 -30.4327 -30.3216
   -21.4233 -18.7033 -17.1988 -16.0008 -15.7303 -15.5701 -15.4390 -15.4038
   -15.2168 -15.0951 -14.9623 -14.9383 -14.8845 -14.8574 -14.8229 -14.8122
   -14.8072 -14.7950 -14.7871 -14.7402 -14.7056 -14.6882 -14.6877 -14.6644
   -14.6157 -14.5622 -14.4973 -14.4321 -14.4035 -14.3616 -14.2925 -14.2846
   -12.7935 -12.6756  -9.1242  -6.6004  -6.4779  -4.5616  -4.5507  -3.9173
    -3.7671  -3.4725  -3.3645  -3.2844  -3.2127  -3.1904  -3.1687  -3.0938
    -2.9867  -2.8463  -2.7514  -2.5116  -2.4562  -2.4134  -2.3819  -2.3530
    -2.1962  -2.1713  -2.1025  -2.0914  -2.0826  -2.0720  -2.0450  -2.0159
    -1.9901  -1.9585  -1.8994  -1.8753  -1.8047  -1.6739  -1.6655  -1.6331
    -1.5868  -1.5708  -1.5690  -1.5423  -1.4982  -1.4794  -1.4548  -1.4494
    -1.3525  -1.2595  -1.2171  -1.1231  -1.0436  -0.9705  -0.8471  -0.8095
    -0.7360  -0.7029  -0.6866  -0.6330  -0.5837  -0.5730  -0.5148  -0.4680
    -0.3604  -0.3177  -0.2758  -0.2377  -0.1875  -0.1433  -0.0724  -0.0389
    -0.0068  -0.0020   0.0189   0.2171   0.2283   0.2797   0.2926   0.3896
     0.4421   0.4766   0.4899   0.4991   0.5371   0.6126   0.6682   0.6767
     0.7086   0.7444   0.7637   0.8101   0.8508   0.9031   0.9326   0.9673
     1.0340   1.0744   1.2283   1.3230   1.3670   1.4830   1.6400   1.7313
     1.8050   1.9053   2.3181   2.3754   3.8954   3.9295   3.9563   3.9745
     4.0427   4.1417   4.2583   4.3491   4.3588   4.3891

[...]

          k = 0.0380-0.0419 0.0000 ( 17876 PWs)   bands (ev):

[...]

          k =-0.0760-0.0000 0.0000 ( 17886 PWs)   bands (ev):

[...]

          k =-0.0760-0.0839 0.0000 ( 17948 PWs)   bands (ev):

   -55.2738 -55.2621 -55.2357 -55.2310 -55.1893 -55.1750 -55.1588 -55.1446
   -55.0859 -55.0616 -55.0518 -55.0269 -55.0224 -54.9562 -54.2764 -54.2753
   -31.6205 -31.6040 -31.5779 -31.5763 -31.5660 -31.5646 -31.5473 -31.5145
   -31.5073 -31.4906 -31.4872 -31.4768 -31.4417 -31.4314 -31.4108 -31.4067
   -31.4016 -31.3996 -31.3981 -31.3920 -31.3892 -31.3858 -31.3743 -31.3658
   -31.3596 -31.3511 -31.3501 -31.3486 -31.3431 -31.3176 -31.2916 -31.2790
   -31.2761 -31.2750 -31.2720 -31.2632 -31.2548 -31.2420 -31.2326 -31.2232
   -31.1815 -31.1477 -30.5974 -30.5960 -30.5156 -30.5147 -30.4763 -30.4753
   -21.4232 -18.7023 -17.1684 -15.4689 -15.3597 -15.2307 -15.1662 -15.1434
   -15.1168 -15.0639 -15.0476 -14.9920 -14.9878 -14.9374 -14.9310 -14.8881
   -14.8810 -14.8271 -14.7989 -14.7899 -14.7609 -14.7282 -14.7122 -14.7113
   -14.6713 -14.6498 -14.6412 -14.6107 -14.6035 -14.5414 -14.5036 -14.4710
   -12.7778 -12.7760  -9.1261  -6.6012  -6.4711  -4.5620  -4.5579  -3.8272
    -3.7256  -3.4990  -3.2710  -3.0076  -2.7544  -2.5726  -2.4803  -2.4115
    -2.3583  -2.3403  -2.2308  -2.2062  -2.1764  -2.1416  -2.1192  -2.1085
    -2.0909  -2.0819  -2.0747  -2.0571  -2.0235  -2.0033  -1.9779  -1.9531
    -1.9379  -1.9144  -1.8968  -1.8893  -1.8646  -1.8367  -1.8300  -1.8271
    -1.7646  -1.7245  -1.5662  -1.5214  -1.5008  -1.4100  -1.3906  -1.3740
    -1.3485  -1.3344  -1.3178  -1.1989  -1.1479  -1.1187  -1.0115  -0.9935
    -0.9675  -0.8290  -0.8052  -0.7720  -0.7446  -0.7027  -0.6320  -0.6096
    -0.5541  -0.5409  -0.4398  -0.4028  -0.3777  -0.3642  -0.2683  -0.2464
    -0.2408  -0.2148  -0.1519  -0.1201  -0.0748  -0.0449  -0.0142   0.0106
     0.0563   0.0762   0.1701   0.1903   0.2266   0.2695   0.3634   0.5303
     0.6232   0.7333   0.7591   0.8060   0.8666   0.9085   0.9589   1.0128
     1.0600   1.0669   1.1294   1.1666   1.2515   1.2653   1.2687   1.3371
     2.0926   2.0929   2.1807   2.1898   4.1368   4.1452   4.2022   4.2218
     4.3612   4.3673   4.3808   4.3885   4.4832   4.5410

     the Fermi energy is     3.8654 ev

!    total energy              =   -3006.52127203 Ry
     estimated scf accuracy    <       0.00000005 Ry
     smearing contrib. (-TS)   =      -0.02294655 Ry
     internal energy E=F+TS    =   -3006.49832548 Ry

     The total energy is F=E-TS. E is the sum of the following terms:
     one-electron contribution =  -22563.04090739 Ry
     hartree contribution      =   11380.86195175 Ry
     xc contribution           =    -501.14006144 Ry
     ewald contribution        =    8676.81882150 Ry
     electric field correction =       0.00187011 Ry

     convergence has been achieved in  93 iterations

     Forces acting on atoms (cartesian axes, Ry/au):

     atom    1 type  1   force =    -0.00014696   -0.00167633    0.10540456
     atom    2 type  1   force =    -0.00022181    0.00113460   -0.17918033
     atom    3 type  2   force =     0.00020583   -0.00553802   -0.03234931
     atom    4 type  2   force =     0.00010314    0.00072055    0.04630194
     atom    5 type  2   force =    -0.01804072    0.00052569    0.00423648
     atom    6 type  2   force =     0.01843664   -0.00044577    0.00410541
     atom    7 type  1   force =     0.00007793    0.00020082    0.00005349
     atom    8 type  1   force =     0.00007271    0.00030853   -0.00013263
     atom    9 type  2   force =     0.00017651    0.00035128   -0.00008603
     atom   10 type  2   force =     0.00017122   -0.00000706    0.00003199
     atom   11 type  2   force =     0.00004847   -0.00034512   -0.00037861
     atom   12 type  2   force =    -0.00005825   -0.00051923   -0.00052072
     atom   13 type  1   force =     0.00047638    0.00024381    0.00007170
     atom   14 type  1   force =    -0.00026463   -0.00048170   -0.00043877
     atom   15 type  2   force =     0.00004272   -0.00055562    0.00030956
     atom   16 type  2   force =    -0.00008933    0.00030079   -0.00023361
     atom   17 type  2   force =    -0.00044753   -0.00060223    0.00007010
     atom   18 type  2   force =     0.00007125   -0.00049844    0.00023911
     atom   19 type  1   force =     0.00041822   -0.00029769   -0.00016472
     atom   20 type  1   force =    -0.00012188   -0.00081860   -0.00080461
     atom   21 type  2   force =    -0.00003456    0.00010000    0.10394921
     atom   22 type  2   force =    -0.00000900   -0.00052570    0.00046005
     atom   23 type  2   force =    -0.06943980    0.00052252   -0.02947007
     atom   24 type  2   force =     0.06919451    0.00098000   -0.02952493
     atom   25 type  1   force =    -0.00003317    0.00156589    0.11481078
     atom   26 type  1   force =    -0.00022152   -0.00047549   -0.17919180
     atom   27 type  2   force =     0.00021467    0.00414836   -0.02605312
     atom   28 type  2   force =     0.00042760    0.00092952    0.04808910
     atom   29 type  2   force =    -0.01631108    0.00162573    0.00384671
     atom   30 type  2   force =     0.01736275    0.00217714    0.00361503
     atom   31 type  1   force =    -0.00014435    0.00010879   -0.00023279
     atom   32 type  1   force =     0.00010864   -0.00009053    0.00025160
     atom   33 type  2   force =     0.00028666   -0.00051171    0.00018198
     atom   34 type  2   force =    -0.00004102   -0.00030495   -0.00026922
     atom   35 type  2   force =    -0.00046206   -0.00013673    0.00001349
     atom   36 type  2   force =     0.00054339    0.00001738    0.00000471
     atom   37 type  1   force =     0.00046842   -0.00073177   -0.00004884
     atom   38 type  1   force =    -0.00037338   -0.00002035   -0.00037699
     atom   39 type  2   force =    -0.00042026   -0.00049135   -0.00049432
     atom   40 type  2   force =     0.00035689   -0.00040689   -0.00023965
     atom   41 type  2   force =    -0.00018567   -0.00006098    0.00009705
     atom   42 type  2   force =    -0.00031737   -0.00024281    0.00005401
     atom   43 type  1   force =     0.00026711    0.00012034    0.00143674
     atom   44 type  1   force =     0.00004366   -0.00029067   -0.00076636
     atom   45 type  2   force =    -0.00003684    0.00007835    0.10399218
     atom   46 type  2   force =    -0.06904642   -0.00107268   -0.02952353
     atom   47 type  2   force =     0.06886092   -0.00062925   -0.02960255
     atom   48 type  3   force =    -0.00018186    0.00003294    0.00030487
     atom   49 type  2   force =    -0.00000937    0.00027467   -0.00081523
     atom   50 type  4   force =    -0.00044821   -0.00009713    0.00003600
     atom   51 type  4   force =     0.00026540   -0.00027905    0.00014910
     atom   52 type  4   force =    -0.00003389    0.00037258   -0.00042806
     atom   53 type  5   force =    -0.00106068   -0.00018331   -0.00109825
     atom   54 type  5   force =     0.00051418    0.00037791    0.00080518
     atom   55 type  2   force =     0.00904250   -0.00856138    0.00485314
     atom   56 type  4   force =    -0.00921891    0.00840570   -0.00492435
     atom   57 type  4   force =    -0.00083779    0.00127462   -0.00042587

     Total force =     0.375041     Total SCF correction =     0.000447
  @ DRIVER MODE: Message from server: STATUS
  @ DRIVER MODE: Message from server: GETFORCE
  @ DRIVER MODE: Returning v,forces,stress,ensemble

     Writing output data file ./calc.save/
  @ DRIVER MODE: Message from server: EXIT
  @ DRIVE MODE: Exiting

     General routines

     Parallel routines

   This run was terminated on:  16:45:15  26Sep2021

   JOB DONE.