     Program PWSCF v.6.7GPU starts on 16Jul2021 at 19:15:30

     R & G space division:  proc/nbgrp/npool/nimage =      16
     Reading input from /storage/home/hcoda1/3/ntian30/research/carbon/15Jul_vib/ads_slab/CH3N2H_a/out_0037/pw.inp
Warning: card &CELL ignored
Warning: card   CELL_DYNAMICS='IPI', ignored
Warning: card / ignored

     Current dimensions of program PWSCF are:
     Max number of different atomic species (ntypx) = 10
     Max number of k-points (npk) =  40000
     Max angular momentum in pseudopotentials (lmaxx) =  3
     Presently no symmetry can be used with electric field

     Message from routine cell_base_init:
     DEPRECATED: use true lattice parameter, not A to a.u. conversion factor

     IMPORTANT: XC functional enforced from input :
     Exchange-correlation= BEEF-VDW
                           (   1   4  43  14   2   0   0)
     Any further DFT definition will be discarded
     Please, verify this is what you really want

  @ DRIVER MODE: Connecting to
 qe_1139763_2351646.sched-torque.pace.gatech.eduoz6bmemy_scratch
  using UNIX socket
  @ DRIVER MODE: Message from server: STATUS
  @ DRIVER MODE: Message from server: INIT
  @ DRIVER MODE: Receiving replica           0          -1
  @ DRIVER MODE: Receiving encoded integer          25
  @ DRIVER MODE:  SCF:  T  FORCE:  T  STRESS:  F  VC:  F  ENSEMBLE:  F
  @ DRIVER MODE:  SCF:  T  FORCE:  T  STRESS:  F  VC:  F  ENSEMBLE:  F

     Using Slab Decomposition

     bravais-lattice index     =            0
     lattice parameter (alat)  =       1.8897  a.u.
     unit-cell volume          =    6658.9804 (a.u.)^3
     number of atoms/cell      =           54
     number of atomic types    =            5
     number of electrons       =       396.00
     number of Kohn-Sham states=          208
     kinetic-energy cutoff     =      29.3995  Ry
     charge density cutoff     =     293.9946  Ry
     scf convergence threshold =      7.3E-08
     mixing beta               =       0.0500
     number of iterations used =            8  plain     mixing
     Exchange-correlation= BEEF-VDW
                           (   1   4  43  14   2   0   0)

     celldm(1)=   1.889726  celldm(2)=   0.000000  celldm(3)=   0.000000
     celldm(4)=   0.000000  celldm(5)=   0.000000  celldm(6)=   0.000000

     crystal axes: (cart. coord. in units of alat)
               a(1) = (   6.579727   0.000000   0.000000 )
               a(2) = (  -0.000775   5.961596   0.000000 )
               a(3) = (   0.000000   0.000000  25.155947 )

     reciprocal axes: (cart. coord. in units 2 pi/alat)
               b(1) = (  0.151982  0.000020  0.000000 )
               b(2) = (  0.000000  0.167740  0.000000 )
               b(3) = (  0.000000  0.000000  0.039752 )

     PseudoPot. # 1 for Ti read from file:
     /storage/coda1/p-amedford6/0/shared/rich_project_chbe-medford/medford-share/data/pseudos_module/espresso/nninc/pbe/van/Ti.UPF
     MD5 check sum: 8e4df49b7f0d34bbd5052bf3f5ea0213
     Pseudo is Ultrasoft, Zval = 12.0
     Generated by new atomic code, or converted to UPF format
     Using radial grid of  851 points,  6 beta functions with:
                l(1) =   0
                l(2) =   0
                l(3) =   1
                l(4) =   1
                l(5) =   2
                l(6) =   2
     Q(r) pseudized with  8 coefficients,  rinner =    1.000   1.000   1.000
                                                       1.000   1.000

     PseudoPot. # 2 for O  read from file:
     /storage/coda1/p-amedford6/0/shared/rich_project_chbe-medford/medford-share/data/pseudos_module/espresso/nninc/pbe/van/O.UPF
     MD5 check sum: 78c19812648e8988a0fe644b0f25305e
     Pseudo is Ultrasoft, Zval =  6.0
     Generated by new atomic code, or converted to UPF format
     Using radial grid of  737 points,  4 beta functions with:
                l(1) =   0
                l(2) =   0
                l(3) =   1
                l(4) =   1
     Q(r) pseudized with  8 coefficients,  rinner =    0.800   0.800   0.800

     PseudoPot. # 3 for N  read from file:
     /storage/coda1/p-amedford6/0/shared/rich_project_chbe-medford/medford-share/data/pseudos_module/espresso/nninc/pbe/van/N.UPF
     MD5 check sum: 90d10febe142ad51ac9d5be1deb811c4
     Pseudo is Ultrasoft, Zval =  5.0
     Generated by new atomic code, or converted to UPF format
     Using radial grid of  729 points,  4 beta functions with:
                l(1) =   0
                l(2) =   0
                l(3) =   1
                l(4) =   1
     Q(r) pseudized with  8 coefficients,  rinner =    0.800   0.800   0.800

     PseudoPot. # 4 for C  read from file:
     /storage/coda1/p-amedford6/0/shared/rich_project_chbe-medford/medford-share/data/pseudos_module/espresso/nninc/pbe/van/C.UPF
     MD5 check sum: 1a69bf6b8db32088f5b2163dbdb77a27
     Pseudo is Ultrasoft, Zval =  4.0
     Generated by new atomic code, or converted to UPF format
     Using radial grid of  721 points,  4 beta functions with:
                l(1) =   0
                l(2) =   0
                l(3) =   1
                l(4) =   1
     Q(r) pseudized with  8 coefficients,  rinner =    0.800   0.800   0.800

     PseudoPot. # 5 for H  read from file:
     /storage/coda1/p-amedford6/0/shared/rich_project_chbe-medford/medford-share/data/pseudos_module/espresso/nninc/pbe/van/H.UPF
     MD5 check sum: b5ee9d7bfd3a09ee7748110bda690ff7
     Pseudo is Ultrasoft, Zval =  1.0
     Generated by new atomic code, or converted to UPF format
     Using radial grid of  615 points,  1 beta functions with:
                l(1) =   0
     Q(r) pseudized with  8 coefficients,  rinner =    0.800

     atomic species   valence    mass     pseudopotential
        Ti1           12.00    47.86700     Ti( 1.00)
        O1             6.00    15.99900     O ( 1.00)
        N1             5.00    14.00700     N ( 1.00)
        C1             4.00    12.01100     C ( 1.00)
        H1             1.00     1.00800     H ( 1.00)

     Starting magnetic structure
     atomic species   magnetization
        Ti1          0.000
        O1           0.000
        N1           0.000
        C1           0.025
        H1           0.000

     No symmetry found

   Cartesian axes

     site n.     atom                  positions (alat units)
         1           Ti1 tau(   1) = (   0.0004258   2.9801865   6.0000000  )
         2           Ti1 tau(   2) = (   3.2906075   1.4906267   6.0002472  )
         3           O1  tau(   3) = (   0.0006271   0.0005054   7.9858123  )
         4           O1  tau(   4) = (   3.2906025   0.0005020   7.3038282  )
         5           O1  tau(   5) = (   4.5942328   1.4918067   9.2879030  )
         6           O1  tau(   6) = (   1.9868534   1.4903216   9.2879459  )
         7           Ti1 tau(   7) = (   3.2907910   2.8959150   9.1758416  )
         8           Ti1 tau(   8) = (   0.0015273   1.4827037   9.2680791  )
         9           O1  tau(   9) = (   3.3106937   0.0084137  11.2927479  )
        10           O1  tau(  10) = (   0.0116148   5.9584955  10.6183126  )
        11           O1  tau(  11) = (   1.3255326   1.5151957  12.5859258  )
        12           O1  tau(  12) = (   5.3246634   1.4871208  12.6441624  )
        13           Ti1 tau(  13) = (   6.5358624   2.9940264  12.7507449  )
        14           Ti1 tau(  14) = (   3.1828407   1.5032771  12.4528579  )
        15           O1  tau(  15) = (   0.1336207   0.0073438  14.6266748  )
        16           O1  tau(  16) = (   3.2550344   0.0288700  13.8306396  )
        17           O1  tau(  17) = (   4.6334483   1.5013943  15.9792279  )
        18           O1  tau(  18) = (   2.1409664   1.5470880  15.9954950  )
        19           Ti1 tau(  19) = (   3.4798582   3.0305884  15.6593850  )
        20           Ti1 tau(  20) = (   0.1386493   1.3724552  15.8613965  )
        21           O1  tau(  21) = (   3.2904802   0.0005063   4.7018136  )
        22           O1  tau(  22) = (   0.1429122   0.0333940  17.1908172  )
        23           O1  tau(  23) = (   1.3043587   1.4918075   6.0039043  )
        24           O1  tau(  24) = (   5.2767064   1.4903225   6.0039473  )
        25           Ti1 tau(  25) = (   0.0000382   5.9609847   6.0000000  )
        26           Ti1 tau(  26) = (   3.2902200   4.4714249   6.0002472  )
        27           O1  tau(  27) = (   0.0002396   2.9813036   7.9858123  )
        28           O1  tau(  28) = (   3.2902150   2.9813002   7.3038282  )
        29           O1  tau(  29) = (   4.5938453   4.4726049   9.2879030  )
        30           O1  tau(  30) = (   1.9864658   4.4711199   9.2879459  )
        31           Ti1 tau(  31) = (   3.2891106   5.8743827   9.1763621  )
        32           Ti1 tau(  32) = (   0.0006254   4.4649316   9.2693709  )
        33           O1  tau(  33) = (   3.3137399   2.9960163  11.2943833  )
        34           O1  tau(  34) = (   0.0092240   2.9805883  10.6323155  )
        35           O1  tau(  35) = (   1.3234708   4.4688006  12.5930975  )
        36           O1  tau(  36) = (   5.3222282   4.4932535  12.6449723  )
        37           Ti1 tau(  37) = (   6.5041614   0.0053836  12.5833808  )
        38           Ti1 tau(  38) = (   3.1843229   4.4812189  12.4522442  )
        39           O1  tau(  39) = (   0.0584892   2.9792810  14.6723703  )
        40           O1  tau(  40) = (   3.3232524   2.9928384  13.8523860  )
        41           O1  tau(  41) = (   4.6237859   4.5837569  15.7472905  )
        42           O1  tau(  42) = (   2.1882403   4.4693611  16.1038286  )
        43           Ti1 tau(  43) = (   3.3015484   0.0242660  15.6383815  )
        44           Ti1 tau(  44) = (   0.0181797   4.4930750  16.1931172  )
        45           O1  tau(  45) = (   3.2900926   2.9813045   4.7018136  )
        46           O1  tau(  46) = (   1.3039711   4.4726057   6.0039043  )
        47           O1  tau(  47) = (   5.2763189   4.4711207   6.0039473  )
        48           N1  tau(  48) = (   0.2677213   2.8760844  17.5655548  )
        49           C1  tau(  49) = (   1.2271684   2.7639891  18.6598760  )
        50           H1  tau(  50) = (   1.2930054   3.7106696  19.2072709  )
        51           H1  tau(  51) = (   0.8976878   1.9730418  19.3402421  )
        52           H1  tau(  52) = (   2.2102292   2.4972526  18.2850250  )
        53           N1  tau(  53) = (   5.6732178   3.4927010  17.8452151  )
        54           H1  tau(  54) = (   5.7245573   4.0058295  18.7343860  )

     number of k points=    10  Fermi-Dirac smearing, width (Ry)=  0.0073
                       cart. coord. in units 2pi/alat
        k(    1) = (   0.0000000   0.0000000   0.0000000), wk =   0.0625000
        k(    2) = (   0.0000000   0.0419351   0.0000000), wk =   0.1250000
        k(    3) = (   0.0000000  -0.0838702   0.0000000), wk =   0.0625000
        k(    4) = (   0.0379955   0.0000049   0.0000000), wk =   0.1250000
        k(    5) = (   0.0379955   0.0419400   0.0000000), wk =   0.1250000
        k(    6) = (   0.0379955  -0.0838652   0.0000000), wk =   0.1250000
        k(    7) = (   0.0379955  -0.0419301   0.0000000), wk =   0.1250000
[...]
     %                                                                      %
     % You are using vdW-DF, which was implemented by the Thonhauser group. %
     % Please cite the following two papers that made this development      %
     % possible and the two reviews that describe the various versions:     %
     %                                                                      %
     %   T. Thonhauser et al., PRL 115, 136402 (2015).                      %
     %   T. Thonhauser et al., PRB 76, 125112 (2007).                       %
     %   K. Berland et al., Rep. Prog. Phys. 78, 066501 (2015).             %
     %   D.C. Langreth et al., J. Phys.: Condens. Matter 21, 084203 (2009). %
     %                                                                      %
     %                                                                      %
     % If you are calculating the stress with vdW-DF, please also cite:     %
     %                                                                      %
     %   R. Sabatini et al., J. Phys.: Condens. Matter 24, 424209 (2012).   %
     %                                                                      %
     %%%%%%%%%%%%%%%%%%%%%%%%%%%%%%%%%%%%%%%%%%%%%%%%%%%%%%%%%%%%%%%%%%%%%%%%

     Adding external electric field

     Computed dipole along edir(3) :
        Dipole               -8.2222 Ry au,        -20.8988 Debye
        Dipole field         -0.0155 Ry au,

        Potential amp.        1.4384 Ry
        Total length         46.3494 bohr

[...]

     Starting wfcs are  300 atomic wfcs
  @ DRIVER MODE: Message from server: STATUS
  @ DRIVER MODE: Message from server: POSDATA
  @ DRIVER MODE: Reading and sharing cell
  @ DRIVER MODE: Reading and sharing positions
  @ DRIVER MODE: Received positions

     Self-consistent Calculation

     iteration #  1     ecut=    29.40 Ry     beta= 0.05
     Davidson diagonalization with overlap
     c_bands:  1 eigenvalues not converged
     c_bands:  1 eigenvalues not converged
     c_bands:  1 eigenvalues not converged
     c_bands:  1 eigenvalues not converged
     c_bands:  4 eigenvalues not converged
     c_bands:  1 eigenvalues not converged
     c_bands:  4 eigenvalues not converged
     c_bands:  2 eigenvalues not converged
     c_bands:  1 eigenvalues not converged
     c_bands:  1 eigenvalues not converged
     c_bands:  1 eigenvalues not converged
     c_bands:  1 eigenvalues not converged
     c_bands:  1 eigenvalues not converged
     c_bands:  1 eigenvalues not converged
     c_bands:  4 eigenvalues not converged
     c_bands:  1 eigenvalues not converged
     c_bands:  4 eigenvalues not converged
     c_bands:  2 eigenvalues not converged
     c_bands:  1 eigenvalues not converged
     c_bands:  1 eigenvalues not converged
     ethr =  1.00E-05,  avg # of iterations = 20.0

[...]

     total energy              =   -2607.57733902 Ry
     estimated scf accuracy    <    3675.39427485 Ry

     total magnetization       =     0.00 Bohr mag/cell
     absolute magnetization    =     0.03 Bohr mag/cell

[...]

     iteration #  3     ecut=    29.40 Ry     beta= 0.05
     Davidson diagonalization with overlap
     ethr =  1.00E-02,  avg # of iterations = 14.3

[...]

     iteration # 85     ecut=    29.40 Ry     beta= 0.05
     Davidson diagonalization with overlap
     c_bands:  1 eigenvalues not converged
     c_bands:  1 eigenvalues not converged
     ethr =  1.44E-09,  avg # of iterations = 10.1

[...]

     total energy              =   -2940.35373839 Ry
     estimated scf accuracy    <       0.00000008 Ry

[...]

     iteration # 99     ecut=    29.40 Ry     beta= 0.05
     Davidson diagonalization with overlap
     ethr =  1.90E-11,  avg # of iterations =  6.5

     negative rho (up, down):  8.770E-03 8.758E-03

[...]

     Adding external electric field

     Computed dipole along edir(3) :
        Dipole                0.7828 Ry au,          1.9896 Debye
        Dipole field          0.0015 Ry au,

        Potential amp.       -0.1369 Ry
        Total length         46.3494 bohr

     Magnetic moment per site  (integrated on atomic sphere of radius R)
     atom   1 (R=0.746)  charge=  8.1025  magn= -0.0001
     atom   2 (R=0.746)  charge=  8.0882  magn=  0.0000
     atom   3 (R=0.746)  charge=  5.0689  magn=  0.0000
     atom   4 (R=0.746)  charge=  5.1050  magn=  0.0000
     atom   5 (R=0.746)  charge=  5.0706  magn=  0.0000
     atom   6 (R=0.746)  charge=  5.0718  magn=  0.0000
     atom   7 (R=0.746)  charge=  8.0837  magn= -0.0000
     atom   8 (R=0.746)  charge=  8.0704  magn= -0.0002
     atom   9 (R=0.746)  charge=  5.0891  magn=  0.0001
     atom  10 (R=0.746)  charge=  5.0576  magn=  0.0001
     atom  11 (R=0.746)  charge=  5.0764  magn=  0.0002
     atom  12 (R=0.746)  charge=  5.0718  magn=  0.0001
     atom  13 (R=0.746)  charge=  8.0706  magn= -0.0006
     atom  14 (R=0.746)  charge=  8.0894  magn= -0.0006
     atom  15 (R=0.746)  charge=  5.0552  magn=  0.0036
     atom  16 (R=0.746)  charge=  5.0985  magn=  0.0002
     atom  17 (R=0.746)  charge=  5.0496  magn=  0.0009
     atom  18 (R=0.746)  charge=  5.0674  magn=  0.0005
     atom  19 (R=0.746)  charge=  8.1079  magn= -0.0000
     atom  20 (R=0.746)  charge=  8.0958  magn=  0.0017
     atom  21 (R=0.746)  charge=  4.9489  magn= -0.0000
     atom  22 (R=0.746)  charge=  5.0411  magn=  0.0053
     atom  23 (R=0.746)  charge=  5.0611  magn= -0.0000
     atom  24 (R=0.746)  charge=  5.0612  magn= -0.0000
     atom  25 (R=0.746)  charge=  8.1024  magn= -0.0000
     atom  26 (R=0.746)  charge=  8.0882  magn=  0.0000
     atom  27 (R=0.746)  charge=  5.0670  magn=  0.0000
     atom  28 (R=0.746)  charge=  5.1051  magn= -0.0000
     atom  29 (R=0.746)  charge=  5.0715  magn=  0.0000
     atom  30 (R=0.746)  charge=  5.0726  magn=  0.0000
     atom  31 (R=0.746)  charge=  8.0846  magn= -0.0000
     atom  32 (R=0.746)  charge=  8.0708  magn= -0.0001
     atom  33 (R=0.746)  charge=  5.0887  magn=  0.0001
     atom  34 (R=0.746)  charge=  5.0201  magn=  0.0002
     atom  35 (R=0.746)  charge=  5.0760  magn=  0.0002
     atom  36 (R=0.746)  charge=  5.0724  magn=  0.0002
     atom  37 (R=0.746)  charge=  8.0778  magn= -0.0013
     atom  38 (R=0.746)  charge=  8.0895  magn= -0.0004
     atom  39 (R=0.746)  charge=  5.0528  magn=  0.0009
     atom  40 (R=0.746)  charge=  5.0890  magn=  0.0006
     atom  41 (R=0.746)  charge=  5.0853  magn= -0.0001
     atom  42 (R=0.746)  charge=  5.0441  magn=  0.0041
     atom  43 (R=0.746)  charge=  8.1146  magn=  0.0001
     atom  44 (R=0.746)  charge=  8.1334  magn=  0.0571
     atom  45 (R=0.746)  charge=  4.9489  magn= -0.0000
     atom  46 (R=0.746)  charge=  5.0611  magn= -0.0000
     atom  47 (R=0.746)  charge=  5.0612  magn= -0.0000
     atom  48 (R=0.424)  charge=  1.3484  magn=  0.0466
     atom  49 (R=0.448)  charge=  0.8422  magn= -0.0017
     atom  50 (R=0.424)  charge=  0.4502  magn=  0.0023
     atom  51 (R=0.424)  charge=  0.4488  magn=  0.0033
     atom  52 (R=0.424)  charge=  0.4554  magn=  0.0002
     atom  53 (R=0.424)  charge=  1.3491  magn=  0.0559
     atom  54 (R=0.424)  charge=  0.4589  magn=  0.0012

     End of self-consistent calculation

 ------ SPIN UP ------------

          k = 0.0000 0.0000 0.0000 ( 18029 PWs)   bands (ev):

   -55.9691 -55.9351 -55.7861 -55.7476 -55.6784 -55.6508 -55.6440 -55.6167
   -55.5981 -55.5969 -55.5622 -55.5156 -55.2792 -54.9045 -54.8710 -54.8370
   -32.4366 -32.3292 -32.2629 -32.2401 -32.1539 -32.1448 -32.1236 -32.0866
   -32.0840 -32.0593 -32.0417 -32.0296 -32.0287 -31.9661 -31.9558 -31.9382
   -31.9311 -31.9135 -31.8972 -31.8794 -31.8723 -31.8506 -31.8253 -31.8242
   -31.8237 -31.8173 -31.8093 -31.7976 -31.7879 -31.7855 -31.7729 -31.7638
   -31.7508 -31.7143 -31.7095 -31.7058 -31.6385 -31.5067 -31.5020 -31.2745
   -31.2741 -31.1946 -31.1717 -31.1185 -31.0917 -31.0430 -31.0057 -30.8944
   -17.4461 -16.5409 -16.3314 -16.0446 -15.9238 -15.9101 -15.7810 -15.6595
   -15.5677 -15.4632 -15.4469 -15.3629 -15.3567 -15.3435 -15.2978 -15.2486
   -15.2367 -15.2033 -15.1896 -15.1550 -15.1431 -15.0827 -15.0712 -15.0572
   -14.9733 -14.9211 -14.8655 -14.7764 -14.5923 -14.4761 -13.3718 -13.2569
   -11.6650  -8.4688  -5.1084  -4.0953  -3.9702  -3.9219  -3.8301  -3.7547
    -3.6636  -3.4533  -3.3967  -3.3520  -3.0317  -3.0015  -2.9811  -2.9697
    -2.8841  -2.7144  -2.6924  -2.6480  -2.6324  -2.6096  -2.5995  -2.5762
    -2.5318  -2.5097  -2.4812  -2.4067  -2.2862  -2.2465  -2.2431  -2.2333
    -2.1748  -2.1480  -2.0859  -2.0548  -2.0344  -2.0042  -1.9918  -1.8816
    -1.8351  -1.7845  -1.7126  -1.5873  -1.5277  -1.4730  -1.4347  -1.4022
    -1.3356  -1.2615  -1.2191  -1.1774  -1.1149  -1.0893  -1.0646  -0.9786
    -0.8866  -0.8695  -0.8218  -0.7594  -0.6989  -0.6773  -0.6371  -0.6205
    -0.6077  -0.5931  -0.5826  -0.4330  -0.3512  -0.2168  -0.1733  -0.1566
    -0.1084  -0.0831  -0.0337   0.0047   0.0098   0.0656   0.0828   0.1145
     0.1450   0.1674   0.2041   0.2709   0.3041   0.3694   0.4992   0.5223
     0.5990   0.6811   0.7386   0.8185   0.8449   0.9428   1.0584   1.1081
     1.1516   1.3560   1.4314   1.7162   1.7588   2.7545   3.2216   3.3138
     3.4186   3.5345   3.5854   3.6593   3.7934   3.8013   3.8653   3.9587

[...]

          k =-0.0760-0.0000 0.0000 ( 17886 PWs)   bands (ev):

[...]

 ------ SPIN DOWN ----------

[...]

          k = 0.0380-0.0419 0.0000 ( 17876 PWs)   bands (ev):

[...]

          k =-0.0760-0.0839 0.0000 ( 17948 PWs)   bands (ev):

   -55.9530 -55.9510 -55.7744 -55.7608 -55.6651 -55.6577 -55.6359 -55.6348
   -55.5941 -55.5836 -55.5756 -55.5190 -55.2754 -54.8539 -54.8538 -54.8087
   -32.2530 -32.2519 -32.2489 -32.2471 -32.1366 -32.1257 -32.0755 -32.0734
   -32.0360 -32.0238 -32.0122 -32.0007 -31.9779 -31.9699 -31.9421 -31.9316
   -31.9289 -31.9277 -31.9210 -31.8953 -31.8682 -31.8638 -31.8608 -31.8591
   -31.8454 -31.8412 -31.8362 -31.8188 -31.8138 -31.8069 -31.8017 -31.7980
   -31.7930 -31.7887 -31.7835 -31.7260 -31.6403 -31.5033 -31.4998 -31.2989
   -31.1845 -31.1843 -31.0878 -31.0875 -31.0488 -31.0487 -31.0160 -30.9242
   -17.2591 -15.9665 -15.9370 -15.7953 -15.7743 -15.7090 -15.6939 -15.5735
   -15.5668 -15.5585 -15.5002 -15.4321 -15.4208 -15.3854 -15.3403 -15.3286
   -15.2945 -15.2764 -15.2702 -15.2660 -15.2581 -15.2100 -15.1537 -15.1484
   -15.1323 -15.0664 -14.9218 -14.8756 -14.7014 -14.5880 -13.3594 -13.3590
   -11.5600  -8.3194  -5.0489  -3.9327  -3.8221  -3.2687  -3.2328  -2.9893
    -2.9795  -2.9579  -2.9063  -2.7382  -2.7319  -2.7110  -2.6914  -2.6874
    -2.6576  -2.6411  -2.6281  -2.5681  -2.5573  -2.5199  -2.5036  -2.4988
    -2.4938  -2.4754  -2.4720  -2.4489  -2.4416  -2.4115  -2.3595  -2.3289
    -2.2987  -2.2059  -2.0923  -2.0204  -1.9842  -1.9757  -1.9640  -1.9535
    -1.9305  -1.9197  -1.8301  -1.6866  -1.6317  -1.5519  -1.5201  -1.5177
    -1.4633  -1.4114  -1.3657  -1.2687  -1.2329  -1.1582  -1.1502  -1.1151
    -1.0738  -1.0135  -0.9675  -0.9468  -0.9271  -0.8850  -0.8615  -0.8566
    -0.8015  -0.7262  -0.6777  -0.6344  -0.6151  -0.5865  -0.5745  -0.5532
    -0.4656  -0.3774  -0.3324  -0.2942  -0.2656  -0.2102  -0.0969  -0.0751
     0.1032   0.2009   0.2332   0.2817   0.3825   0.4261   0.4477   0.4688
     0.5493   0.6060   0.6330   0.6951   0.7393   0.7576   0.8168   1.0157
     1.0972   1.5250   1.5265   1.5770   1.5780   3.1562   3.6932   3.7134
     3.7180   3.7360   3.7504   3.7619   3.8051   3.8375   3.9679   3.9876

     the Fermi energy is     3.1876 ev

!    total energy              =   -2940.35373935 Ry
     estimated scf accuracy    <       0.00000004 Ry
     smearing contrib. (-TS)   =      -0.01700502 Ry
     internal energy E=F+TS    =   -2940.33673432 Ry

     The total energy is F=E-TS. E is the sum of the following terms:
     one-electron contribution =  -24661.94258639 Ry
     hartree contribution      =   12420.25497992 Ry
     xc contribution           =    -486.05828246 Ry
     ewald contribution        =    9787.40799836 Ry
     electric field correction =       0.00115624 Ry

     total magnetization       =     0.47 Bohr mag/cell
     absolute magnetization    =     0.52 Bohr mag/cell

     convergence has been achieved in  99 iterations

     Forces acting on atoms (cartesian axes, Ry/au):

     atom    1 type  1   force =     0.00023305   -0.00036321    0.10117902
     atom    2 type  1   force =     0.00001462   -0.00086240   -0.17166183
     atom    3 type  2   force =     0.00029593    0.00021157   -0.03273275
     atom    4 type  2   force =     0.00003168   -0.00081416    0.04528008
     atom    5 type  2   force =    -0.01203064   -0.00024442   -0.00204784
     atom    6 type  2   force =     0.01444800    0.00034159   -0.00084171
     atom    7 type  1   force =     0.00140521   -0.00124759   -0.00547473
     atom    8 type  1   force =    -0.00075983    0.02225756    0.05490911
     atom    9 type  2   force =    -0.00003128   -0.00028394    0.00153799
     atom   10 type  2   force =    -0.00272647    0.00206182   -0.02387656
     atom   11 type  2   force =    -0.00017076    0.00025125    0.00057586
     atom   12 type  2   force =    -0.00000781    0.00081032    0.00060857
     atom   13 type  1   force =     0.00002241    0.00022594   -0.00335051
     atom   14 type  1   force =     0.00046821    0.00028204   -0.00192305
     atom   15 type  2   force =     0.00032549    0.00026622    0.00276395
     atom   16 type  2   force =     0.00002175   -0.00015113    0.00301574
     atom   17 type  2   force =     0.00013653   -0.00075647    0.00054073
     atom   18 type  2   force =     0.00006256   -0.00061761    0.00078683
     atom   19 type  1   force =    -0.00039812   -0.00084413   -0.00235272
     atom   20 type  1   force =    -0.00006371   -0.00058497   -0.00340144
     atom   21 type  2   force =     0.00006462   -0.00001185    0.10218745
     atom   22 type  2   force =    -0.00036399   -0.00109919    0.00063225
     atom   23 type  2   force =    -0.07316202   -0.00016484   -0.02881711
     atom   24 type  2   force =     0.07311517    0.00033463   -0.02886464
     atom   25 type  1   force =    -0.00026581   -0.00029493    0.10161249
     atom   26 type  1   force =     0.00003494   -0.00019683   -0.17165994
     atom   27 type  2   force =     0.00035625   -0.00023030   -0.03146078
     atom   28 type  2   force =     0.00009243   -0.00059853    0.04590555
     atom   29 type  2   force =    -0.01217458    0.00210477   -0.00260211
     atom   30 type  2   force =     0.01447346    0.00227017   -0.00133792
     atom   31 type  1   force =     0.00159120    0.00099700   -0.00677914
     atom   32 type  1   force =    -0.00058803   -0.02477717    0.05593796
     atom   33 type  2   force =     0.00011403    0.00033182    0.00171735
     atom   34 type  2   force =    -0.00425201    0.00210063   -0.04651733
     atom   35 type  2   force =     0.00037754   -0.00061275    0.00060987
     atom   36 type  2   force =    -0.00049031   -0.00083915    0.00072665
     atom   37 type  1   force =     0.00016736    0.00058778   -0.00364922
     atom   38 type  1   force =     0.00025089   -0.00004036   -0.00194358
     atom   39 type  2   force =     0.00033464   -0.00015905    0.00244477
     atom   40 type  2   force =     0.00006025   -0.00003259    0.00212187
     atom   41 type  2   force =     0.00065329    0.00059279    0.00024910
     atom   42 type  2   force =    -0.00061819    0.00031889    0.00122259
     atom   43 type  1   force =    -0.00023468    0.00024524   -0.00194537
     atom   44 type  1   force =    -0.00035342    0.00060875   -0.00155530
     atom   45 type  2   force =     0.00004659   -0.00005108    0.10224670
     atom   46 type  2   force =    -0.07316853   -0.00009365   -0.02878754
     atom   47 type  2   force =     0.07312186    0.00027513   -0.02882543
     atom   48 type  3   force =    -0.00130305    0.00262369    0.00281003
     atom   49 type  4   force =    -0.00014766   -0.00077824    0.00097616
     atom   50 type  5   force =    -0.00001336   -0.00032375   -0.00028481
     atom   51 type  5   force =    -0.00038885   -0.00039349    0.00045367
     atom   52 type  5   force =    -0.00026753   -0.00044252    0.00010364
     atom   53 type  3   force =     0.00009548   -0.00121172   -0.00089410
     atom   54 type  5   force =     0.00156521   -0.00097761    0.00043148

     Total force =     0.377231     Total SCF correction =     0.000437
  @ DRIVER MODE: Message from server: STATUS
  @ DRIVER MODE: Message from server: GETFORCE
  @ DRIVER MODE: Returning v,forces,stress,ensemble

     Writing output data file ./calc.save/
  @ DRIVER MODE: Message from server: EXIT
  @ DRIVE MODE: Exiting

     General routines

     Parallel routines

   This run was terminated on:  19:53:41  16Jul2021

   JOB DONE.