     Program PWSCF v.6.7GPU starts on  9Sep2021 at 22:44:58

     R & G space division:  proc/nbgrp/npool/nimage =      10
     Reading input from /storage/home/hcoda1/3/ntian30/research/carbon/CxH_vib/CH3_calc/ads_slab/CH3N2H2O_g/out_0007/pw.inp
Warning: card &CELL ignored
Warning: card   CELL_DYNAMICS='IPI', ignored
Warning: card / ignored

     Current dimensions of program PWSCF are:
     Max number of different atomic species (ntypx) = 10
     Max number of k-points (npk) =  40000
     Max angular momentum in pseudopotentials (lmaxx) =  3
     Presently no symmetry can be used with electric field

     Message from routine cell_base_init:
     DEPRECATED: use true lattice parameter, not A to a.u. conversion factor

     IMPORTANT: XC functional enforced from input :
     Exchange-correlation= BEEF-VDW
                           (   1   4  43  14   2   0   0)
     Any further DFT definition will be discarded
     Please, verify this is what you really want

  @ DRIVER MODE: Connecting to
 qe_1139763_2779714.sched-torque.pace.gatech.edux4zv8e1a_scratch
  using UNIX socket
  @ DRIVER MODE: Message from server: STATUS
  @ DRIVER MODE: Message from server: INIT
  @ DRIVER MODE: Receiving replica           0          -1
  @ DRIVER MODE: Receiving encoded integer          25
  @ DRIVER MODE:  SCF:  T  FORCE:  T  STRESS:  F  VC:  F  ENSEMBLE:  F
  @ DRIVER MODE:  SCF:  T  FORCE:  T  STRESS:  F  VC:  F  ENSEMBLE:  F

     Using Slab Decomposition

     bravais-lattice index     =            0
     lattice parameter (alat)  =       1.8897  a.u.
     unit-cell volume          =    6658.9804 (a.u.)^3
     number of atoms/cell      =           56
     number of atomic types    =            5
     number of electrons       =       403.00
     number of Kohn-Sham states=          211
     kinetic-energy cutoff     =      29.3995  Ry
     charge density cutoff     =     293.9946  Ry
     scf convergence threshold =      7.3E-08
     mixing beta               =       0.0500
     number of iterations used =            8  plain     mixing
     Exchange-correlation= BEEF-VDW
                           (   1   4  43  14   2   0   0)

     celldm(1)=   1.889726  celldm(2)=   0.000000  celldm(3)=   0.000000
     celldm(4)=   0.000000  celldm(5)=   0.000000  celldm(6)=   0.000000

     crystal axes: (cart. coord. in units of alat)
               a(1) = (   6.579727   0.000000   0.000000 )
               a(2) = (  -0.000775   5.961596   0.000000 )
               a(3) = (   0.000000   0.000000  25.155947 )

     reciprocal axes: (cart. coord. in units 2 pi/alat)
               b(1) = (  0.151982  0.000020  0.000000 )
               b(2) = (  0.000000  0.167740  0.000000 )
               b(3) = (  0.000000  0.000000  0.039752 )

     PseudoPot. # 1 for Ti read from file:
     /storage/coda1/p-amedford6/0/shared/rich_project_chbe-medford/medford-share/data/pseudos_module/espresso/nninc/pbe/van/Ti.UPF
     MD5 check sum: 8e4df49b7f0d34bbd5052bf3f5ea0213
     Pseudo is Ultrasoft, Zval = 12.0
     Generated by new atomic code, or converted to UPF format
     Using radial grid of  851 points,  6 beta functions with:
                l(1) =   0
                l(2) =   0
                l(3) =   1
                l(4) =   1
                l(5) =   2
                l(6) =   2
     Q(r) pseudized with  8 coefficients,  rinner =    1.000   1.000   1.000
                                                       1.000   1.000

     PseudoPot. # 2 for O  read from file:
     /storage/coda1/p-amedford6/0/shared/rich_project_chbe-medford/medford-share/data/pseudos_module/espresso/nninc/pbe/van/O.UPF
     MD5 check sum: 78c19812648e8988a0fe644b0f25305e
     Pseudo is Ultrasoft, Zval =  6.0
     Generated by new atomic code, or converted to UPF format
     Using radial grid of  737 points,  4 beta functions with:
                l(1) =   0
                l(2) =   0
                l(3) =   1
                l(4) =   1
     Q(r) pseudized with  8 coefficients,  rinner =    0.800   0.800   0.800

     PseudoPot. # 3 for N  read from file:
     /storage/coda1/p-amedford6/0/shared/rich_project_chbe-medford/medford-share/data/pseudos_module/espresso/nninc/pbe/van/N.UPF
     MD5 check sum: 90d10febe142ad51ac9d5be1deb811c4
     Pseudo is Ultrasoft, Zval =  5.0
     Generated by new atomic code, or converted to UPF format
     Using radial grid of  729 points,  4 beta functions with:
                l(1) =   0
                l(2) =   0
                l(3) =   1
                l(4) =   1
     Q(r) pseudized with  8 coefficients,  rinner =    0.800   0.800   0.800

     PseudoPot. # 4 for C  read from file:
     /storage/coda1/p-amedford6/0/shared/rich_project_chbe-medford/medford-share/data/pseudos_module/espresso/nninc/pbe/van/C.UPF
     MD5 check sum: 1a69bf6b8db32088f5b2163dbdb77a27
     Pseudo is Ultrasoft, Zval =  4.0
     Generated by new atomic code, or converted to UPF format
     Using radial grid of  721 points,  4 beta functions with:
                l(1) =   0
                l(2) =   0
                l(3) =   1
                l(4) =   1
     Q(r) pseudized with  8 coefficients,  rinner =    0.800   0.800   0.800

     PseudoPot. # 5 for H  read from file:
     /storage/coda1/p-amedford6/0/shared/rich_project_chbe-medford/medford-share/data/pseudos_module/espresso/nninc/pbe/van/H.UPF
     MD5 check sum: b5ee9d7bfd3a09ee7748110bda690ff7
     Pseudo is Ultrasoft, Zval =  1.0
     Generated by new atomic code, or converted to UPF format
     Using radial grid of  615 points,  1 beta functions with:
                l(1) =   0
     Q(r) pseudized with  8 coefficients,  rinner =    0.800

     atomic species   valence    mass     pseudopotential
        Ti1           12.00    47.86700     Ti( 1.00)
        O1             6.00    15.99900     O ( 1.00)
        N1             5.00    14.00700     N ( 1.00)
        C1             4.00    12.01100     C ( 1.00)
        H1             1.00     1.00800     H ( 1.00)

     No symmetry found

   Cartesian axes

     site n.     atom                  positions (alat units)
         1           Ti1 tau(   1) = (   0.0004258   2.9801865   6.0000000  )
         2           Ti1 tau(   2) = (   3.2906075   1.4906267   6.0002472  )
         3           O1  tau(   3) = (   0.0006271   0.0005054   7.9858123  )
         4           O1  tau(   4) = (   3.2906025   0.0005020   7.3038282  )
         5           O1  tau(   5) = (   4.5942328   1.4918067   9.2879030  )
         6           O1  tau(   6) = (   1.9868534   1.4903216   9.2879459  )
         7           Ti1 tau(   7) = (   3.2907910   2.8959150   9.1758416  )
         8           Ti1 tau(   8) = (   0.0015273   1.4827037   9.2680791  )
         9           O1  tau(   9) = (   3.3002115   5.9463602  11.3460011  )
        10           O1  tau(  10) = (   0.0116148   5.9584955  10.6183126  )
        11           O1  tau(  11) = (   1.3192008   1.4768417  12.6238339  )
        12           O1  tau(  12) = (   5.3062067   1.4698383  12.6193417  )
        13           Ti1 tau(  13) = (   6.5330844   2.9444840  12.6148558  )
        14           Ti1 tau(  14) = (   3.2222230   1.4676475  12.5013840  )
        15           O1  tau(  15) = (   0.0064324   5.9471174  14.6352917  )
        16           O1  tau(  16) = (   3.3028336   5.9445487  13.9678148  )
        17           O1  tau(  17) = (   4.5628415   1.5226527  16.0793330  )
        18           O1  tau(  18) = (   2.0474444   1.5206590  16.0184434  )
        19           Ti1 tau(  19) = (   3.3141275   2.9607752  15.6908890  )
        20           Ti1 tau(  20) = (   6.5660065   1.5097775  15.7997320  )
        21           O1  tau(  21) = (   3.2904802   0.0005063   4.7018136  )
        22           O1  tau(  22) = (   0.0269361   0.0086655  17.1987262  )
        23           O1  tau(  23) = (   1.3043587   1.4918075   6.0039043  )
        24           O1  tau(  24) = (   5.2767064   1.4903225   6.0039473  )
        25           Ti1 tau(  25) = (   0.0000382   5.9609847   6.0000000  )
        26           Ti1 tau(  26) = (   3.2902200   4.4714249   6.0002472  )
        27           O1  tau(  27) = (   0.0002396   2.9813036   7.9858123  )
        28           O1  tau(  28) = (   3.2902150   2.9813002   7.3038282  )
        29           O1  tau(  29) = (   4.5938453   4.4726049   9.2879030  )
        30           O1  tau(  30) = (   1.9864658   4.4711199   9.2879459  )
        31           Ti1 tau(  31) = (   3.2891106   5.8743827   9.1763621  )
        32           Ti1 tau(  32) = (   0.0006254   4.4649316   9.2693709  )
        33           O1  tau(  33) = (   3.2944391   2.9688829  11.3444728  )
        34           O1  tau(  34) = (   0.0092240   2.9805883  10.6323155  )
        35           O1  tau(  35) = (   1.3142520   4.4635248  12.6275686  )
        36           O1  tau(  36) = (   5.3078217   4.4601700  12.6226734  )
        37           Ti1 tau(  37) = (   6.5374036   5.9186568  12.5467527  )
        38           Ti1 tau(  38) = (   3.2213306   4.4595164  12.5065882  )
        39           O1  tau(  39) = (   6.5756885   2.9534048  14.6511233  )
        40           O1  tau(  40) = (   3.3206316   2.9687378  13.8980937  )
        41           O1  tau(  41) = (   4.5543359   4.4428353  16.0905846  )
        42           O1  tau(  42) = (   2.0427057   4.4323087  16.0570365  )
        43           Ti1 tau(  43) = (   3.2570595   5.9269474  15.8069103  )
        44           Ti1 tau(  44) = (   6.5609319   4.6488967  16.0725391  )
        45           O1  tau(  45) = (   3.2900926   2.9813045   4.7018136  )
        46           O1  tau(  46) = (   1.3039711   4.4726057   6.0039043  )
        47           O1  tau(  47) = (   5.2763189   4.4711207   6.0039473  )
        48           N1  tau(  48) = (   0.2492319   2.6641403  18.6309932  )
        49           N1  tau(  49) = (   0.0682707   2.8835230  17.4382120  )
        50           C1  tau(  50) = (   0.2622466   3.8234900  19.5663878  )
        51           H1  tau(  51) = (   6.1755609   4.6233469  19.2444151  )
        52           H1  tau(  52) = (   6.5754044   3.4477461  20.5519103  )
        53           H1  tau(  53) = (   1.2857956   4.2073973  19.6006198  )
        54           O1  tau(  54) = (   3.1761146   0.0362278  18.2233714  )
        55           H1  tau(  55) = (   3.9097821   0.6076051  18.5038283  )
        56           H1  tau(  56) = (   2.3516031   0.5117379  18.4309238  )

     number of k points=    10  Fermi-Dirac smearing, width (Ry)=  0.0073
                       cart. coord. in units 2pi/alat
        k(    1) = (   0.0000000   0.0000000   0.0000000), wk =   0.1250000
        k(    2) = (   0.0000000   0.0419351   0.0000000), wk =   0.2500000
        k(    3) = (   0.0000000  -0.0838702   0.0000000), wk =   0.1250000
        k(    4) = (   0.0379955   0.0000049   0.0000000), wk =   0.2500000
        k(    5) = (   0.0379955   0.0419400   0.0000000), wk =   0.2500000
        k(    6) = (   0.0379955  -0.0838652   0.0000000), wk =   0.2500000
        k(    7) = (   0.0379955  -0.0419301   0.0000000), wk =   0.2500000
        k(    8) = (  -0.0759910  -0.0000099   0.0000000), wk =   0.1250000
        k(    9) = (  -0.0759910   0.0419252   0.0000000), wk =   0.2500000
        k(   10) = (  -0.0759910  -0.0838800   0.0000000), wk =   0.1250000

     Initial potential from superposition of free atoms

     starting charge  386.99914, renormalised to  403.00000

     negative rho (up, down):  1.449E-02 0.000E+00

     %%%%%%%%%%%%%%%%%%%%%%%%%%%%%%%%%%%%%%%%%%%%%%%%%%%%%%%%%%%%%%%%%%%%%%%%
     %                                                                      %
     % You are using vdW-DF, which was implemented by the Thonhauser group. %
     % Please cite the following two papers that made this development      %
     % possible and the two reviews that describe the various versions:     %
     %                                                                      %
     %   T. Thonhauser et al., PRL 115, 136402 (2015).                      %
     %   T. Thonhauser et al., PRB 76, 125112 (2007).                       %
     %   K. Berland et al., Rep. Prog. Phys. 78, 066501 (2015).             %
     %   D.C. Langreth et al., J. Phys.: Condens. Matter 21, 084203 (2009). %
     %                                                                      %
     %                                                                      %
     % If you are calculating the stress with vdW-DF, please also cite:     %
     %                                                                      %
     %   R. Sabatini et al., J. Phys.: Condens. Matter 24, 424209 (2012).   %
     %                                                                      %
     %%%%%%%%%%%%%%%%%%%%%%%%%%%%%%%%%%%%%%%%%%%%%%%%%%%%%%%%%%%%%%%%%%%%%%%%

     Adding external electric field

     Computed dipole along edir(3) :
        Dipole              -13.2089 Ry au,        -33.5737 Debye
        Dipole field         -0.0249 Ry au,

        Potential amp.        2.3107 Ry
        Total length         46.3494 bohr

     Starting wfcs are  305 atomic wfcs
  @ DRIVER MODE: Message from server: STATUS
  @ DRIVER MODE: Message from server: POSDATA
  @ DRIVER MODE: Reading and sharing cell
  @ DRIVER MODE: Reading and sharing positions
  @ DRIVER MODE: Received positions

     Self-consistent Calculation

     iteration #  1     ecut=    29.40 Ry     beta= 0.05
     Davidson diagonalization with overlap
     c_bands:  4 eigenvalues not converged
     c_bands:  2 eigenvalues not converged
     c_bands:  2 eigenvalues not converged
     c_bands:  5 eigenvalues not converged
     c_bands:  1 eigenvalues not converged
     c_bands:  1 eigenvalues not converged
     c_bands:  4 eigenvalues not converged
     c_bands:  1 eigenvalues not converged
     c_bands:  1 eigenvalues not converged
     ethr =  1.00E-05,  avg # of iterations = 28.0

[...]

     total energy              =   -2367.52655455 Ry
     estimated scf accuracy    <    6916.56447393 Ry

     iteration #  2     ecut=    29.40 Ry     beta= 0.05
     Davidson diagonalization with overlap
     ethr =  1.00E-02,  avg # of iterations = 24.9

[...]

     iteration # 70     ecut=    29.40 Ry     beta= 0.05
     Davidson diagonalization with overlap
     c_bands:  1 eigenvalues not converged
     ethr =  4.12E-11,  avg # of iterations = 12.0

[...]

     total energy              =   -2974.00272245 Ry
     estimated scf accuracy    <       0.00000008 Ry

     iteration # 72     ecut=    29.40 Ry     beta= 0.05
     Davidson diagonalization with overlap
     ethr =  1.84E-11,  avg # of iterations =  7.9

     negative rho (up, down):  1.477E-02 0.000E+00

     Adding external electric field

     Computed dipole along edir(3) :
        Dipole                0.8894 Ry au,          2.2605 Debye
        Dipole field          0.0017 Ry au,

        Potential amp.       -0.1556 Ry
        Total length         46.3494 bohr

     End of self-consistent calculation

          k = 0.0000 0.0000 0.0000 ( 18029 PWs)   bands (ev):

   -55.6203 -55.5862 -55.5784 -55.5613 -55.5418 -55.4485 -55.4305 -55.4094
   -55.3965 -55.3960 -55.3664 -55.3622 -55.0038 -54.8636 -54.5994 -54.5653
   -32.1206 -32.1026 -31.9627 -31.9460 -31.9292 -31.9132 -31.8855 -31.8791
   -31.8632 -31.8094 -31.8033 -31.7848 -31.7725 -31.7568 -31.7401 -31.7317
   -31.7245 -31.7121 -31.7059 -31.6774 -31.6688 -31.6514 -31.6232 -31.6188
   -31.6028 -31.6002 -31.5996 -31.5949 -31.5707 -31.5650 -31.5627 -31.5577
   -31.5486 -31.5428 -31.5371 -31.5096 -31.5076 -31.2737 -31.1996 -31.1239
   -31.1068 -31.0726 -31.0066 -30.9180 -30.8955 -30.8232 -30.7367 -30.6258
   -18.8627 -18.2828 -16.3121 -16.0837 -15.8534 -15.7662 -15.7176 -15.5181
   -15.4162 -15.3440 -15.2211 -15.1585 -15.1462 -15.1324 -15.1129 -15.1105
   -15.0593 -15.0520 -15.0473 -15.0399 -15.0067 -14.9667 -14.9518 -14.9409
   -14.8470 -14.7733 -14.7564 -14.7323 -14.6873 -14.6711 -14.1967 -13.1015
   -12.9851 -11.2516  -6.8730  -6.6370  -4.1946  -3.8344  -3.7919  -3.6848
    -3.5575  -3.5243  -3.4424  -3.3676  -3.2324  -3.1983  -3.0372  -2.8478
    -2.7872  -2.7610  -2.7082  -2.6413  -2.5276  -2.4682  -2.4241  -2.4167
    -2.3996  -2.3911  -2.3683  -2.3558  -2.2528  -2.2327  -2.1538  -2.1502
    -2.0971  -1.9816  -1.9668  -1.9324  -1.9188  -1.8958  -1.8741  -1.8531
    -1.8436  -1.8194  -1.7682  -1.6987  -1.6296  -1.5952  -1.5049  -1.4387
    -1.3977  -1.3508  -1.2305  -1.1361  -1.1008  -1.0615  -1.0538  -1.0407
    -1.0123  -0.9940  -0.8817  -0.7674  -0.7502  -0.6845  -0.6254  -0.5440
    -0.5168  -0.4374  -0.3838  -0.3656  -0.3619  -0.3159  -0.2848  -0.2263
    -0.0935  -0.0409  -0.0080   0.0013   0.0611   0.1037   0.1322   0.2203
     0.2259   0.2713   0.3092   0.3421   0.3549   0.3703   0.3887   0.4182
     0.4328   0.6246   0.6605   0.7001   0.7371   0.7806   0.9185   0.9434
     1.0407   1.1505   1.3491   1.4229   1.5280   1.6150   1.9945   2.0403
     2.7412   3.5149   3.6020   3.6468   3.6760   3.7595   3.7748   3.9698
     3.9851   4.0241   4.0936

[...]

          k = 0.0380-0.0419 0.0000 ( 17876 PWs)   bands (ev):

[...]

          k =-0.0760-0.0000 0.0000 ( 17886 PWs)   bands (ev):

[...]

          k =-0.0760-0.0839 0.0000 ( 17948 PWs)   bands (ev):

   -55.6037 -55.6026 -55.5642 -55.5597 -55.5558 -55.4382 -55.4199 -55.4141
   -55.4122 -55.3808 -55.3776 -55.3678 -55.0019 -54.8654 -54.5824 -54.5822
   -31.9342 -31.9183 -31.9180 -31.9175 -31.8991 -31.8980 -31.8483 -31.8422
   -31.8213 -31.7961 -31.7839 -31.7747 -31.7705 -31.7328 -31.7276 -31.7266
   -31.7232 -31.7222 -31.7198 -31.7176 -31.7152 -31.7089 -31.6720 -31.6554
   -31.6369 -31.6327 -31.6253 -31.6136 -31.6132 -31.6104 -31.6048 -31.5955
   -31.5921 -31.5807 -31.5798 -31.5707 -31.4207 -31.2755 -31.2154 -31.1630
   -31.1253 -31.0990 -30.9083 -30.9082 -30.8194 -30.8192 -30.7800 -30.7800
   -18.8616 -18.2791 -15.7703 -15.6602 -15.5698 -15.5356 -15.4779 -15.4086
   -15.4008 -15.3142 -15.2982 -15.2951 -15.2287 -15.2084 -15.1709 -15.1643
   -15.1416 -15.1258 -15.1195 -15.0702 -15.0581 -15.0554 -15.0486 -15.0437
   -14.9671 -14.9373 -14.9334 -14.9239 -14.7964 -14.6716 -14.3681 -13.0870
   -13.0868 -11.2493  -6.9003  -6.6141  -4.1200  -3.8662  -3.7545  -3.2148
    -3.0528  -2.8393  -2.8207  -2.7247  -2.7131  -2.6785  -2.5475  -2.5069
    -2.4657  -2.4494  -2.4307  -2.4293  -2.4119  -2.4063  -2.3849  -2.3583
    -2.3350  -2.3148  -2.2861  -2.2829  -2.2700  -2.2566  -2.2334  -2.2214
    -2.2041  -2.1741  -2.1483  -2.1321  -2.0644  -1.9928  -1.8331  -1.7945
    -1.7559  -1.7494  -1.7315  -1.7013  -1.6861  -1.6681  -1.6191  -1.5832
    -1.4963  -1.3569  -1.3384  -1.3148  -1.2926  -1.2834  -1.2109  -1.1029
    -1.0836  -1.0128  -1.0041  -0.8975  -0.8894  -0.8040  -0.7953  -0.7855
    -0.7111  -0.6841  -0.6690  -0.5807  -0.5785  -0.5536  -0.5046  -0.4771
    -0.4127  -0.3711  -0.3402  -0.3372  -0.2911  -0.2688  -0.2248  -0.1572
    -0.1047  -0.0687   0.0280   0.1320   0.2334   0.3481   0.4628   0.4771
     0.5595   0.5925   0.6778   0.6928   0.7012   0.7738   0.7788   0.8781
     0.9217   0.9362   0.9769   1.0995   1.7862   1.7876   1.8598   1.8601
     2.7648   3.7323   3.8523   3.8949   3.9124   3.9863   4.0291   4.0486
     4.0510   4.0849   4.2105

     the Fermi energy is     3.5137 ev

!    total energy              =   -2974.00274005 Ry
     estimated scf accuracy    <       0.00000002 Ry
     smearing contrib. (-TS)   =      -0.02181949 Ry
     internal energy E=F+TS    =   -2973.98092056 Ry

     The total energy is F=E-TS. E is the sum of the following terms:
     one-electron contribution =  -23847.93303899 Ry
     hartree contribution      =   12018.37870784 Ry
     xc contribution           =    -494.02660541 Ry
     ewald contribution        =    9349.59852333 Ry
     electric field correction =       0.00149267 Ry

     convergence has been achieved in  72 iterations

     Forces acting on atoms (cartesian axes, Ry/au):

     atom    1 type  1   force =     0.00003989   -0.00023956    0.09646004
     atom    2 type  1   force =     0.00004875   -0.00043955   -0.17545887
     atom    3 type  2   force =     0.00011296   -0.00009422   -0.02475146
     atom    4 type  2   force =     0.00004258   -0.00157788    0.05351079
     atom    5 type  2   force =    -0.01198432   -0.00100860    0.00308387
     atom    6 type  2   force =     0.01373098   -0.00064651    0.00292330
     atom    7 type  1   force =     0.00074590    0.00068447   -0.00680619
     atom    8 type  1   force =     0.00021731    0.00948130    0.02715191
     atom    9 type  2   force =    -0.00014576   -0.00006055   -0.00006879
     atom   10 type  2   force =    -0.00205548    0.00048484   -0.01821123
     atom   11 type  2   force =    -0.00057766    0.00032230    0.00011766
     atom   12 type  2   force =     0.00068922    0.00013921    0.00030203
     atom   13 type  1   force =    -0.00017035   -0.00008673   -0.00011699
     atom   14 type  1   force =    -0.00040216   -0.00013794    0.00027999
     atom   15 type  2   force =    -0.00019682   -0.00065742    0.00064209
     atom   16 type  2   force =    -0.00027935   -0.00006828   -0.00039900
     atom   17 type  2   force =    -0.00055104    0.00001449   -0.00052553
     atom   18 type  2   force =    -0.00032392    0.00035397   -0.00010005
     atom   19 type  1   force =    -0.00005037    0.00018964    0.00006695
     atom   20 type  1   force =    -0.00065824    0.00000775    0.00035398
     atom   21 type  2   force =     0.00008411    0.00001711    0.10326277
     atom   22 type  2   force =     0.00026534    0.00036640   -0.00003544
     atom   23 type  2   force =    -0.07144760   -0.00009525   -0.02774345
     atom   24 type  2   force =     0.07140627    0.00035927   -0.02781670
     atom   25 type  1   force =     0.00017369   -0.00034111    0.09613633
     atom   26 type  1   force =     0.00001032   -0.00037427   -0.17579524
     atom   27 type  2   force =     0.00021302   -0.00020464   -0.02373624
     atom   28 type  2   force =     0.00002513   -0.00128214    0.05297504
     atom   29 type  2   force =    -0.01222597    0.00023731    0.00291415
     atom   30 type  2   force =     0.01389247    0.00081815    0.00273279
     atom   31 type  1   force =     0.00040951    0.00343629   -0.00983479
     atom   32 type  1   force =     0.00036278   -0.01129951    0.02756311
     atom   33 type  2   force =     0.00009917    0.00014553   -0.00001079
     atom   34 type  2   force =    -0.00187517   -0.00045034   -0.02416265
     atom   35 type  2   force =     0.00040869    0.00003506   -0.00027552
     atom   36 type  2   force =    -0.00028962   -0.00006733    0.00006440
     atom   37 type  1   force =    -0.00029799   -0.00013242    0.00014706
     atom   38 type  1   force =    -0.00079051    0.00013087   -0.00046065
     atom   39 type  2   force =     0.00018541   -0.00034769   -0.00023786
     atom   40 type  2   force =     0.00019065    0.00033908    0.00041403
     atom   41 type  2   force =    -0.00016520    0.00031087   -0.00058856
     atom   42 type  2   force =    -0.00074646   -0.00023640   -0.00013173
     atom   43 type  1   force =     0.00052373    0.00076350    0.00038925
     atom   44 type  1   force =    -0.00038066    0.00109964   -0.00056599
     atom   45 type  2   force =     0.00008503   -0.00002772    0.10324997
     atom   46 type  2   force =    -0.07145414   -0.00002081   -0.02775960
     atom   47 type  2   force =     0.07141082    0.00040847   -0.02781796
     atom   48 type  3   force =    -0.00149869    0.00078693   -0.00454932
     atom   49 type  3   force =     0.00246693   -0.00091017    0.00459556
     atom   50 type  4   force =    -0.00001734    0.00046403   -0.00004631
     atom   51 type  5   force =     0.00112675   -0.00071170   -0.00024658
     atom   52 type  5   force =    -0.00005864    0.00007642   -0.00011168
     atom   53 type  5   force =     0.00000816   -0.00073933    0.00018190
     atom   54 type  2   force =     0.00016015    0.00056094   -0.00080875
     atom   55 type  5   force =    -0.00008450   -0.00009039   -0.00004034
     atom   56 type  5   force =    -0.00040778    0.00031461   -0.00030473

     Total force =     0.368074     Total SCF correction =     0.000314
  @ DRIVER MODE: Message from server: STATUS
  @ DRIVER MODE: Message from server: GETFORCE
  @ DRIVER MODE: Returning v,forces,stress,ensemble

     Writing output data file ./calc.save/
  @ DRIVER MODE: Message from server: EXIT
  @ DRIVE MODE: Exiting

     General routines

     Parallel routines

   This run was terminated on:  23: 4:49   9Sep2021

   JOB DONE.