     Program PWSCF v.6.8 starts on 30Aug2021 at 14:39:25

     R & G space division:  proc/nbgrp/npool/nimage =      24

     Reading input from /storage/home/hcoda1/3/ntian30/research/carbon/methanol/ads_slab/CH3OHN2_W/methanol.log/pw.inp
Warning: card &CELL ignored
Warning: card   CELL_DYNAMICS='IPI', ignored
Warning: card / ignored

     Current dimensions of program PWSCF are:
     Max number of different atomic species (ntypx) = 10
     Max number of k-points (npk) =  40000
     Max angular momentum in pseudopotentials (lmaxx) =  4
     Presently no symmetry can be used with electric field

     Message from routine cell_base_init:
     DEPRECATED: use true lattice parameter, not A to a.u. conversion factor

     IMPORTANT: XC functional enforced from input :
     Exchange-correlation= BEEF-VDW
                           (   1   4  43  14   2   0   0)
     Any further DFT definition will be discarded
     Please, verify this is what you really want

  @ DRIVER MODE: Connecting to
 qe_1139763_2685207.sched-torque.pace.gatech.edub0yf2xyi_scratch
  using UNIX socket
  @ DRIVER MODE: Message from server: STATUS
  @ DRIVER MODE: Message from server: INIT
  @ DRIVER MODE: Receiving replica           0          -1
  @ DRIVER MODE: Receiving encoded integer          25
  @ DRIVER MODE:  SCF:  T  FORCE:  T  STRESS:  F  VC:  F  ENSEMBLE:  F
  @ DRIVER MODE:  SCF:  T  FORCE:  T  STRESS:  F  VC:  F  ENSEMBLE:  F

     Using Slab Decomposition

     bravais-lattice index     =            0
     lattice parameter (alat)  =       1.8897  a.u.
     unit-cell volume          =    6658.9804 (a.u.)^3
     number of atoms/cell      =           55
     number of atomic types    =            5
     number of electrons       =       402.00
     number of Kohn-Sham states=          211
     kinetic-energy cutoff     =      29.3995  Ry
     charge density cutoff     =     293.9946  Ry
     scf convergence threshold =      7.3E-08
     mixing beta               =       0.0500
     number of iterations used =            8  plain     mixing
     Exchange-correlation= BEEF-VDW
                           (   1   4  43  14   2   0   0)

     celldm(1)=   1.889726  celldm(2)=   0.000000  celldm(3)=   0.000000
     celldm(4)=   0.000000  celldm(5)=   0.000000  celldm(6)=   0.000000

     crystal axes: (cart. coord. in units of alat)
               a(1) = (   6.579727   0.000000   0.000000 )
               a(2) = (  -0.000775   5.961596   0.000000 )
               a(3) = (   0.000000   0.000000  25.155947 )

     reciprocal axes: (cart. coord. in units 2 pi/alat)
               b(1) = (  0.151982  0.000020  0.000000 )
               b(2) = (  0.000000  0.167740  0.000000 )
               b(3) = (  0.000000  0.000000  0.039752 )

     PseudoPot. # 1 for Ti read from file:
     /storage/coda1/p-amedford6/0/shared/rich_project_chbe-medford/medford-share/data/pseudos_module/espresso/nninc/pbe/van/Ti.UPF
     MD5 check sum: 8e4df49b7f0d34bbd5052bf3f5ea0213
     Pseudo is Ultrasoft, Zval = 12.0
     Generated by new atomic code, or converted to UPF format
     Using radial grid of  851 points,  6 beta functions with:
                l(1) =   0
                l(2) =   0
                l(3) =   1
                l(4) =   1
                l(5) =   2
                l(6) =   2
     Q(r) pseudized with  8 coefficients,  rinner =    1.000   1.000   1.000
                                                       1.000   1.000

     PseudoPot. # 2 for O  read from file:
     /storage/coda1/p-amedford6/0/shared/rich_project_chbe-medford/medford-share/data/pseudos_module/espresso/nninc/pbe/van/O.UPF
     MD5 check sum: 78c19812648e8988a0fe644b0f25305e
     Pseudo is Ultrasoft, Zval =  6.0
     Generated by new atomic code, or converted to UPF format
     Using radial grid of  737 points,  4 beta functions with:
                l(1) =   0
                l(2) =   0
                l(3) =   1
                l(4) =   1
     Q(r) pseudized with  8 coefficients,  rinner =    0.800   0.800   0.800

     PseudoPot. # 3 for C  read from file:
     /storage/coda1/p-amedford6/0/shared/rich_project_chbe-medford/medford-share/data/pseudos_module/espresso/nninc/pbe/van/C.UPF
     MD5 check sum: 1a69bf6b8db32088f5b2163dbdb77a27
     Pseudo is Ultrasoft, Zval =  4.0
     Generated by new atomic code, or converted to UPF format
     Using radial grid of  721 points,  4 beta functions with:
                l(1) =   0
                l(2) =   0
                l(3) =   1
                l(4) =   1
     Q(r) pseudized with  8 coefficients,  rinner =    0.800   0.800   0.800

     PseudoPot. # 4 for H  read from file:
     /storage/coda1/p-amedford6/0/shared/rich_project_chbe-medford/medford-share/data/pseudos_module/espresso/nninc/pbe/van/H.UPF
     MD5 check sum: b5ee9d7bfd3a09ee7748110bda690ff7
     Pseudo is Ultrasoft, Zval =  1.0
     Generated by new atomic code, or converted to UPF format
     Using radial grid of  615 points,  1 beta functions with:
                l(1) =   0
     Q(r) pseudized with  8 coefficients,  rinner =    0.800

     PseudoPot. # 5 for N  read from file:
     /storage/coda1/p-amedford6/0/shared/rich_project_chbe-medford/medford-share/data/pseudos_module/espresso/nninc/pbe/van/N.UPF
     MD5 check sum: 90d10febe142ad51ac9d5be1deb811c4
     Pseudo is Ultrasoft, Zval =  5.0
     Generated by new atomic code, or converted to UPF format
     Using radial grid of  729 points,  4 beta functions with:
                l(1) =   0
                l(2) =   0
                l(3) =   1
                l(4) =   1
     Q(r) pseudized with  8 coefficients,  rinner =    0.800   0.800   0.800

     atomic species   valence    mass     pseudopotential
        Ti1           12.00    47.86700     Ti( 1.00)
        O1             6.00    15.99900     O ( 1.00)
        C1             4.00    12.01100     C ( 1.00)
        H1             1.00     1.00800     H ( 1.00)
        N1             5.00    14.00700     N ( 1.00)

     No symmetry found

   Cartesian axes

     site n.     atom                  positions (alat units)
         1           Ti1 tau(   1) = (   0.0004258   2.9801865   6.0000000  )
         2           Ti1 tau(   2) = (   3.2906075   1.4906267   6.0002472  )
         3           O1  tau(   3) = (   0.0006271   0.0005054   7.9858123  )
         4           O1  tau(   4) = (   3.2906025   0.0005020   7.3038282  )
         5           O1  tau(   5) = (   4.5942328   1.4918067   9.2879030  )
         6           O1  tau(   6) = (   1.9868534   1.4903216   9.2879459  )
         7           Ti1 tau(   7) = (   3.2744623   2.9602655   9.1583134  )
         8           Ti1 tau(   8) = (   6.5542510   1.4922676   9.2570483  )
         9           O1  tau(   9) = (   3.2955284   5.9542973  11.4036420  )
        10           O1  tau(  10) = (   0.0040843   5.9600894  10.6146631  )
        11           O1  tau(  11) = (   1.2923168   1.4866075  12.6848844  )
        12           O1  tau(  12) = (   5.3038965   1.4828099  12.6812989  )
        13           Ti1 tau(  13) = (   0.0117136   2.9668076  12.4887022  )
        14           Ti1 tau(  14) = (   3.3103317   1.4900331  12.5484786  )
        15           O1  tau(  15) = (   0.0164078   5.9216632  14.6920981  )
        16           O1  tau(  16) = (   3.2973989   5.9227913  14.0283617  )
        17           O1  tau(  17) = (   4.5490025   1.4631175  16.1705536  )
        18           O1  tau(  18) = (   2.0221940   1.4775419  16.1816751  )
        19           Ti1 tau(  19) = (   3.3107067   2.9474167  15.8028204  )
        20           Ti1 tau(  20) = (   0.0288186   1.3352231  15.9134295  )
        21           O1  tau(  21) = (   3.2904802   0.0005063   4.7018136  )
        22           O1  tau(  22) = (   6.5554730   0.0200307  17.2351763  )
        23           O1  tau(  23) = (   1.3043587   1.4918075   6.0039043  )
        24           O1  tau(  24) = (   5.2767064   1.4903225   6.0039473  )
        25           Ti1 tau(  25) = (   0.0000382   5.9609847   6.0000000  )
        26           Ti1 tau(  26) = (   3.2902200   4.4714249   6.0002472  )
        27           O1  tau(  27) = (   0.0002396   2.9813036   7.9858123  )
        28           O1  tau(  28) = (   3.2902150   2.9813002   7.3038282  )
        29           O1  tau(  29) = (   4.5938453   4.4726049   9.2879030  )
        30           O1  tau(  30) = (   1.9864658   4.4711199   9.2879459  )
        31           Ti1 tau(  31) = (   3.2682264   5.9422464   9.1569598  )
        32           Ti1 tau(  32) = (   6.5541751   4.4759067   9.2560502  )
        33           O1  tau(  33) = (   3.2986683   2.9663741  11.3977683  )
        34           O1  tau(  34) = (   0.0027399   2.9767344  10.6286243  )
        35           O1  tau(  35) = (   1.2926322   4.4497803  12.6725015  )
        36           O1  tau(  36) = (   5.3040462   4.4546620  12.6695683  )
        37           Ti1 tau(  37) = (   0.0191269   5.9426524  12.4841101  )
        38           Ti1 tau(  38) = (   3.3102059   4.4680493  12.5484152  )
        39           O1  tau(  39) = (   6.5547541   2.9789036  15.0188947  )
        40           O1  tau(  40) = (   3.3032946   2.9599518  14.0075836  )
        41           O1  tau(  41) = (   4.5496375   4.4348250  16.2219016  )
        42           O1  tau(  42) = (   2.0136599   4.4266630  16.2156650  )
        43           Ti1 tau(  43) = (   3.2958723   5.9268682  15.8311464  )
        44           Ti1 tau(  44) = (   0.0197688   4.5989514  15.9884716  )
        45           O1  tau(  45) = (   3.2900926   2.9813045   4.7018136  )
        46           O1  tau(  46) = (   1.3039711   4.4726057   6.0039043  )
        47           O1  tau(  47) = (   5.2763189   4.4711207   6.0039473  )
        48           C1  tau(  48) = (   6.2714212   2.8475035  19.1912783  )
        49           O1  tau(  49) = (   5.0447882   2.1494744  19.3187249  )
        50           H1  tau(  50) = (   6.1333351   3.8426015  19.6073941  )
        51           H1  tau(  51) = (   5.1769490   1.2529602  18.9724433  )
        52           H1  tau(  52) = (   0.5217872   2.3444334  19.6948963  )
        53           H1  tau(  53) = (   6.5688534   2.9768334  18.1312760  )
        54           N1  tau(  54) = (   4.5496375   4.4348250  18.7219016  )
        55           N1  tau(  55) = (   4.5496375   4.4348250  17.5919216  )

     number of k points=    10  Fermi-Dirac smearing, width (Ry)=  0.0073
                       cart. coord. in units 2pi/alat
        k(    1) = (   0.0000000   0.0000000   0.0000000), wk =   0.1250000
        k(    2) = (   0.0000000   0.0419351   0.0000000), wk =   0.2500000
        k(    3) = (   0.0000000  -0.0838702   0.0000000), wk =   0.1250000
        k(    4) = (   0.0379955   0.0000049   0.0000000), wk =   0.2500000
        k(    5) = (   0.0379955   0.0419400   0.0000000), wk =   0.2500000
        k(    6) = (   0.0379955  -0.0838652   0.0000000), wk =   0.2500000
        k(    7) = (   0.0379955  -0.0419301   0.0000000), wk =   0.2500000
        k(    8) = (  -0.0759910  -0.0000099   0.0000000), wk =   0.1250000
        k(    9) = (  -0.0759910   0.0419252   0.0000000), wk =   0.2500000
[...]
        44           Ti1 tau(  44) = (   0.0289596   4.6388094  15.8946870  )
        45           O1  tau(  45) = (   3.2900926   2.9813045   4.7018136  )
        46           O1  tau(  46) = (   1.3039711   4.4726057   6.0039043  )
        47           O1  tau(  47) = (   5.2763189   4.4711207   6.0039473  )
        48           C1  tau(  48) = (   0.1938437   2.4488753  19.4278891  )
        49           O1  tau(  49) = (   5.5319735   1.7644852  19.5687560  )
        50           H1  tau(  50) = (   0.1599004   3.3316538  20.0646975  )
        51           H1  tau(  51) = (   5.5910766   0.9457345  19.0452660  )
        52           H1  tau(  52) = (   1.0435870   1.8244126  19.7068222  )
        53           H1  tau(  53) = (   0.3679203   2.7961626  18.3897695  )
        54           N1  tau(  54) = (   2.8485123   5.3737274  19.7096755  )
        55           N1  tau(  55) = (   3.7788164   4.8246823  19.4879303  )

     number of k points=    10  Fermi-Dirac smearing, width (Ry)=  0.0073
                       cart. coord. in units 2pi/alat
        k(    1) = (   0.0000000   0.0000000   0.0000000), wk =   0.1250000
        k(    2) = (   0.0000000   0.0419351   0.0000000), wk =   0.2500000
        k(    3) = (   0.0000000  -0.0838702   0.0000000), wk =   0.1250000
        k(    4) = (   0.0379955   0.0000049   0.0000000), wk =   0.2500000
        k(    5) = (   0.0379955   0.0419400   0.0000000), wk =   0.2500000
        k(    6) = (   0.0379955  -0.0838652   0.0000000), wk =   0.2500000
        k(    7) = (   0.0379955  -0.0419301   0.0000000), wk =   0.2500000
        k(    8) = (  -0.0759910  -0.0000099   0.0000000), wk =   0.1250000
        k(    9) = (  -0.0759910   0.0419252   0.0000000), wk =   0.2500000
        k(   10) = (  -0.0759910  -0.0838800   0.0000000), wk =   0.1250000

     Initial potential from superposition of free atoms

     starting charge  385.99915, renormalised to  402.00000

[...]

     %%%%%%%%%%%%%%%%%%%%%%%%%%%%%%%%%%%%%%%%%%%%%%%%%%%%%%%%%%%%%%%%%%%%%%%%
     %                                                                      %
     % You are using vdW-DF, which was implemented by the Thonhauser group. %
     % Please cite the following two papers that made this development      %
     % possible and the two reviews that describe the various versions:     %
     %                                                                      %
     %   T. Thonhauser et al., PRL 115, 136402 (2015).                      %
     %   T. Thonhauser et al., PRB 76, 125112 (2007).                       %
     %   K. Berland et al., Rep. Prog. Phys. 78, 066501 (2015).             %
     %   D.C. Langreth et al., J. Phys.: Condens. Matter 21, 084203 (2009). %
     %                                                                      %
     %                                                                      %
     % If you are calculating the stress with vdW-DF, please also cite:     %
     %                                                                      %
     %   R. Sabatini et al., J. Phys.: Condens. Matter 24, 424209 (2012).   %
     %                                                                      %
     %%%%%%%%%%%%%%%%%%%%%%%%%%%%%%%%%%%%%%%%%%%%%%%%%%%%%%%%%%%%%%%%%%%%%%%%

[...]

     Starting wfcs are  304 atomic wfcs
  @ DRIVER MODE: Message from server: STATUS
  @ DRIVER MODE: Message from server: POSDATA
  @ DRIVER MODE: Reading and sharing cell
  @ DRIVER MODE: Reading and sharing positions
  @ DRIVER MODE: Received positions

[...]

     Self-consistent Calculation

[...]

     iteration # 14     ecut=    29.40 Ry     beta= 0.05
     Davidson diagonalization with overlap
     c_bands:  1 eigenvalues not converged
     c_bands:  1 eigenvalues not converged
     c_bands:  1 eigenvalues not converged
     ethr =  6.34E-11,  avg # of iterations = 17.8

[...]

     total energy              =   -2972.78822760 Ry
     estimated scf accuracy    <       0.00000011 Ry

     iteration # 16     ecut=    29.40 Ry     beta= 0.05
     Davidson diagonalization with overlap
     ethr =  2.66E-11,  avg # of iterations = 13.5

[...]

     End of self-consistent calculation

[...]

          k = 0.0380-0.0419 0.0000 ( 17876 PWs)   bands (ev):

[...]

          k =-0.0760-0.0839 0.0000 ( 17948 PWs)   bands (ev):

   -55.8335 -55.8322 -55.7852 -55.7846 -55.7285 -55.7022 -55.7018 -55.6791
   -55.6787 -55.6769 -55.6633 -55.6248 -55.6108 -55.6092 -54.8967 -54.8967
   -32.2998 -32.2183 -32.2165 -32.1187 -32.1182 -32.1182 -32.1014 -32.0777
   -32.0773 -32.0493 -32.0465 -32.0450 -32.0381 -31.9981 -31.9946 -31.9942
   -31.9935 -31.9930 -31.9814 -31.9710 -31.9681 -31.9669 -31.9541 -31.9393
   -31.9357 -31.9273 -31.9263 -31.9233 -31.9032 -31.9028 -31.8955 -31.8944
   -31.8759 -31.8745 -31.8567 -31.8441 -31.8436 -31.8427 -31.8234 -31.8087
   -31.7963 -31.7948 -31.2134 -31.2133 -31.1394 -31.1392 -31.0995 -31.0994
   -20.7330 -17.8217 -16.3920 -16.0321 -16.0048 -15.9121 -15.9009 -15.8030
   -15.7892 -15.6971 -15.6508 -15.6296 -15.6263 -15.5800 -15.5524 -15.5372
   -15.5332 -15.4710 -15.4571 -15.4293 -15.4229 -15.3733 -15.3697 -15.3669
   -15.3662 -15.3321 -15.3298 -15.2901 -15.2875 -15.1991 -15.0563 -13.3961
   -13.3960  -9.3474  -5.9290  -4.9186  -3.9019  -3.8699  -3.4115  -3.3017
    -3.2738  -3.2603  -3.1360  -3.0610  -3.0268  -2.9833  -2.9692  -2.8953
    -2.8529  -2.8487  -2.8329  -2.7661  -2.7592  -2.7480  -2.7436  -2.6829
    -2.6661  -2.6430  -2.6242  -2.5976  -2.5901  -2.5664  -2.5622  -2.5537
    -2.5217  -2.5142  -2.5035  -2.4932  -2.4649  -2.4325  -2.4167  -2.4067
    -2.2524  -2.2440  -2.1427  -2.0933  -2.0881  -2.0067  -2.0012  -1.9623
    -1.9261  -1.8736  -1.8405  -1.6706  -1.6528  -1.6513  -1.5952  -1.5376
    -1.4891  -1.4269  -1.4100  -1.3686  -1.3197  -1.1884  -1.1725  -1.1438
    -1.0562  -1.0438  -0.9627  -0.8997  -0.8566  -0.8450  -0.8424  -0.8167
    -0.8052  -0.7995  -0.6922  -0.6451  -0.6066  -0.5928  -0.5719  -0.4992
    -0.3635  -0.3176  -0.2971  -0.1878  -0.1033   0.0444   0.0529   0.1089
     0.2123   0.2187   0.2359   0.2638   0.3929   0.4033   0.4651   0.5098
     0.5214   0.5610   0.5636   1.2815   1.4609   1.4619   1.5691   1.5695
     3.4154   3.4887   3.5154   3.5562   3.6952   3.6996   3.7509   3.7889
     3.8035   3.8102   3.8755

     the Fermi energy is     3.3115 ev

!    total energy              =   -2972.78822821 Ry
     estimated scf accuracy    <       0.00000006 Ry
     smearing contrib. (-TS)   =      -0.03679076 Ry
     internal energy E=F+TS    =   -2972.75143745 Ry

     The total energy is F=E-TS. E is the sum of the following terms:
     one-electron contribution =  -22537.66259175 Ry
     hartree contribution      =   11359.28991541 Ry
     xc contribution           =    -493.16780904 Ry
     ewald contribution        =    8698.78879282 Ry
     electric field correction =       0.00025511 Ry

     convergence has been achieved in  16 iterations

     Forces acting on atoms (cartesian axes, Ry/au):

     atom    1 type  1   force =     0.00038597    0.00007399    0.09008040
     atom    2 type  1   force =    -0.00000589    0.00043490   -0.18442220
     atom    3 type  2   force =    -0.00039579   -0.00079989   -0.02387563
     atom    4 type  2   force =    -0.00051686    0.00019536    0.05253742
     atom    5 type  2   force =    -0.01319010   -0.00090700    0.00527483
     atom    6 type  2   force =     0.01441830   -0.00008708    0.00614108
     atom    7 type  1   force =    -0.00021757   -0.00002623    0.00042084
     atom    8 type  1   force =     0.00025015   -0.00000450   -0.00008008
     atom    9 type  2   force =    -0.00002164   -0.00004024   -0.00015810
     atom   10 type  2   force =     0.00004421   -0.00003412   -0.00055544
     atom   11 type  2   force =    -0.00004585    0.00021261   -0.00003078
     atom   12 type  2   force =    -0.00018718    0.00016781    0.00006849
     atom   13 type  1   force =     0.00077436    0.00006554    0.00036616
     atom   14 type  1   force =    -0.00037747    0.00011046    0.00060410
     atom   15 type  2   force =    -0.00001473    0.00073430   -0.00003939
     atom   16 type  2   force =    -0.00003165   -0.00006396    0.00042092
     atom   17 type  2   force =    -0.00024557   -0.00003526   -0.00004198
     atom   18 type  2   force =     0.00003875   -0.00001763    0.00035298
     atom   19 type  1   force =     0.00035247   -0.00033882   -0.00014866
     atom   20 type  1   force =    -0.00015760    0.00055692    0.00017039
     atom   21 type  2   force =     0.00008528    0.00017538    0.10527116
     atom   22 type  2   force =    -0.00005161    0.00020556   -0.00042238
     atom   23 type  2   force =    -0.06753068   -0.00021784   -0.02603329
     atom   24 type  2   force =     0.06752537    0.00025610   -0.02604413
     atom   25 type  1   force =     0.00037396    0.00008394    0.08935431
     atom   26 type  1   force =     0.00001970   -0.00013607   -0.18436041
     atom   27 type  2   force =    -0.00033114   -0.00047648   -0.02285198
     atom   28 type  2   force =    -0.00048043    0.00015292    0.05239174
     atom   29 type  2   force =    -0.01301215   -0.00086480    0.00559973
     atom   30 type  2   force =     0.01430183   -0.00005266    0.00643555
     atom   31 type  1   force =    -0.00019818   -0.00012326    0.00023308
     atom   32 type  1   force =     0.00021525   -0.00006175   -0.00009747
     atom   33 type  2   force =     0.00007675    0.00012797   -0.00002478
     atom   34 type  2   force =    -0.00001486   -0.00005066    0.00013180
     atom   35 type  2   force =     0.00021296   -0.00017208    0.00007188
     atom   36 type  2   force =    -0.00044964   -0.00012176   -0.00016391
     atom   37 type  1   force =     0.00009607   -0.00001239    0.00052687
     atom   38 type  1   force =    -0.00034417    0.00006214    0.00051793
     atom   39 type  2   force =     0.00008618   -0.00000131    0.00011181
     atom   40 type  2   force =    -0.00004376    0.00011113   -0.00023996
     atom   41 type  2   force =    -0.00009306    0.00018674   -0.00032759
     atom   42 type  2   force =     0.00003602    0.00024043    0.00027012
     atom   43 type  1   force =     0.00016846    0.00010238   -0.00039754
     atom   44 type  1   force =    -0.00020269   -0.00051359    0.00064173
     atom   45 type  2   force =     0.00010091    0.00015540    0.10522238
     atom   46 type  2   force =    -0.06750805   -0.00012407   -0.02602830
     atom   47 type  2   force =     0.06752132    0.00029244   -0.02603326
     atom   48 type  3   force =    -0.00007665   -0.00031204    0.00021344
     atom   49 type  2   force =    -0.00061258    0.00073291    0.00118410
     atom   50 type  4   force =    -0.00005040   -0.00041670   -0.00060200
     atom   51 type  4   force =     0.00002271   -0.00058791   -0.00051878
     atom   52 type  4   force =    -0.00035984    0.00052498   -0.00041095
     atom   53 type  4   force =    -0.00012727    0.00001059   -0.00044622
     atom   54 type  5   force =    -0.00035989    0.00033559   -0.00009015
     atom   55 type  5   force =     0.00014798    0.00029158   -0.00016986

     Total force =     0.367025     Total SCF correction =     0.000800
  @ DRIVER MODE: Message from server: STATUS
  @ DRIVER MODE: Message from server: GETFORCE
  @ DRIVER MODE: Returning v,forces,stress,ensemble

     Writing config to output data dir ./calc.save/
  @ DRIVER MODE: Message from server: STATUS
  @ DRIVER MODE: Message from server: INIT
  @ DRIVER MODE: Receiving replica           0           0
  @ DRIVER MODE: Receiving encoded integer           2
  @ DRIVER MODE:  SCF:  T  FORCE:  T  STRESS:  F  VC:  F  ENSEMBLE:  F
  @ DRIVER MODE:  SCF:  F  FORCE:  F  STRESS:  F  VC:  F  ENSEMBLE:  T
  @ DRIVER MODE: Message from server: STATUS
  @ DRIVER MODE: Message from server: POSDATA
  @ DRIVER MODE: Reading and sharing positions
  @ DRIVER MODE: Received positions
     NEW-OLD atomic charge density approx. for the potential

[...]

     Adding external electric field

     Computed dipole along edir(3) :
        Dipole                0.3677 Ry au,          0.9345 Debye
        Dipole field          0.0007 Ry au,

        Potential amp.       -0.0643 Ry
        Total length         46.3494 bohr

  @ DRIVER MODE: BEEF-vdw

[...]

     negative rho (up, down):  1.454E-02 0.000E+00

     negative rho (up, down):  1.454E-02 0.000E+00
 BEEFens 2000 ensemble energies
             -0.354093726799374E+02
             -0.203619913103016E+01
             -0.731471874638219E+01
              0.245560180841803E+02
             -0.121774264290986E+02
             -0.941994587882644E+01
             -0.246161119149144E+02
             -0.514266497979332E+02
             -0.219617876703286E+02
             -0.230696250700286E+02
             -0.213549743740562E+02
              0.430555933555697E+01
              0.203322614163160E+01
             -0.107972802863577E+01
              0.178615616944002E+01
              0.270391319545046E+02
             -0.104778247505044E+02
             -0.738208908762968E+01
              0.119324085991717E+02
             -0.632432954859990E+02
              0.316531234173728E+02
             -0.135327325307106E+02
             -0.248050770082569E+01
             -0.572912505919234E+01
             -0.938375422140325E+00
             -0.222781934719804E+01
              0.490798260969025E+02
             -0.152496977352923E+02
             -0.416473144152320E+01
             -0.309838784114413E+02
              0.400823051410454E+02
             -0.445784328008621E+01
             -0.218122601552485E+02
              0.114700037615838E+02
             -0.209110831465262E+01
              0.132594623265710E+02
             -0.552035714259176E+00
              0.279082094085024E+01
              0.192874320776818E+02
             -0.558545019573569E+02
              0.311339825223322E+02
              0.828140601421326E+01
             -0.637983502702636E+01
             -0.178642031304177E+02
              0.703846383963329E+01
             -0.111520008324232E+02
              0.254234996064885E+02
              0.202952050876643E+02
             -0.130768351670603E+02
             -0.166931412029014E+02
             -0.175968477923793E+02
             -0.212411665914139E+02
              0.107752246939776E+02
             -0.277086541248484E+02
              0.850033381858083E+01
              0.353427202843333E+02
              0.407060708139758E+02
              0.189921817407745E+02
              0.855132695100644E+01
              0.177239443799903E+02
[...]
             -0.416406458546001E+02
              0.283601209289043E+01
             -0.141386921849062E+01
             -0.581233488989471E+01
              0.492804898184431E-01
             -0.370792751187098E+02
             -0.717663410388556E+01
              0.506882111714038E+01
              0.754424174922873E+01
              0.277778547690714E+02
             -0.242573700787563E+02
              0.317467888603546E+02
             -0.227069369017902E+02
              0.145969645682127E+02
              0.229778164359812E+02

 BEEF-vdW xc energy contributions
           1 :   -417.703220735291
           2 :    363.540443902228
           3 :   -276.542251379531
           4 :    186.210279787406
           5 :   -115.462303658078
           6 :    73.0719179754095
           7 :   -55.1254235522892
           8 :    51.5824316221106
           9 :   -53.0295605255692
          10 :    54.2156169911065
          11 :   -53.8544722016096
          12 :    52.4096089475458
          13 :   -50.2132625112337
          14 :    46.9860383081506
          15 :   -42.4002250208800
          16 :    36.7104869586422
          17 :   -30.8706194307193
          18 :    26.0954752205884
          19 :   -23.2473879434280
          20 :    22.4615147337095
          21 :   -23.2306163745345
          22 :    24.7831888635861
          23 :   -26.4208231581496
          24 :    27.6171148696577
          25 :   -27.9907939719520
          26 :    27.3177985015716
          27 :   -25.5976086720667
          28 :    23.0825071018771
          29 :   -20.2401976603028
          30 :    17.6508323288378
          31 :   -49.1575554127357
          32 :   -33.3121562593792
  @ DRIVER MODE: Message from server: STATUS
  @ DRIVER MODE: Message from server: GETFORCE
  @ DRIVER MODE: Returning v,forces,stress,ensemble
  @ DRIVE MODE: Returning Ensemble Energies

     Writing config to output data dir ./calc.save/
  @ DRIVER MODE: Message from server: EXIT
  @ DRIVE MODE: Exiting

     General routines

     Parallel routines

   This run was terminated on:  21:33:17  30Aug2021

   JOB DONE.