     Program PWSCF v.6.7GPU starts on 19Aug2021 at  4:57:46

     R & G space division:  proc/nbgrp/npool/nimage =       6
     Reading input from /storage/home/hcoda1/3/ntian30/research/carbon/CH3_vib_side_on/ads_slab/CH3N2_c/out_0034/pw.inp
Warning: card &CELL ignored
Warning: card   CELL_DYNAMICS='IPI', ignored
Warning: card / ignored

     Current dimensions of program PWSCF are:
     Max number of different atomic species (ntypx) = 10
     Max number of k-points (npk) =  40000
     Max angular momentum in pseudopotentials (lmaxx) =  3
     Presently no symmetry can be used with electric field

     Message from routine cell_base_init:
     DEPRECATED: use true lattice parameter, not A to a.u. conversion factor

     IMPORTANT: XC functional enforced from input :
     Exchange-correlation= BEEF-VDW
                           (   1   4  43  14   2   0   0)
     Any further DFT definition will be discarded
     Please, verify this is what you really want

  @ DRIVER MODE: Connecting to
 qe_1139763_2594174.sched-torque.pace.gatech.edu_rh6rdvz_scratch
  using UNIX socket
  @ DRIVER MODE: Message from server: STATUS
  @ DRIVER MODE: Message from server: INIT
  @ DRIVER MODE: Receiving replica           0          -1
  @ DRIVER MODE: Receiving encoded integer          25
  @ DRIVER MODE:  SCF:  T  FORCE:  T  STRESS:  F  VC:  F  ENSEMBLE:  F
  @ DRIVER MODE:  SCF:  T  FORCE:  T  STRESS:  F  VC:  F  ENSEMBLE:  F

     Using Slab Decomposition

     bravais-lattice index     =            0
     lattice parameter (alat)  =       1.8897  a.u.
     unit-cell volume          =    6658.9804 (a.u.)^3
     number of atoms/cell      =           53
     number of atomic types    =            5
     number of electrons       =       395.00
     number of Kohn-Sham states=          207
     kinetic-energy cutoff     =      29.3995  Ry
     charge density cutoff     =     293.9946  Ry
     scf convergence threshold =      7.3E-08
     mixing beta               =       0.0500
     number of iterations used =            8  plain     mixing
     Exchange-correlation= BEEF-VDW
                           (   1   4  43  14   2   0   0)

     celldm(1)=   1.889726  celldm(2)=   0.000000  celldm(3)=   0.000000
     celldm(4)=   0.000000  celldm(5)=   0.000000  celldm(6)=   0.000000

     crystal axes: (cart. coord. in units of alat)
               a(1) = (   6.579727   0.000000   0.000000 )
               a(2) = (  -0.000775   5.961596   0.000000 )
               a(3) = (   0.000000   0.000000  25.155947 )

     reciprocal axes: (cart. coord. in units 2 pi/alat)
               b(1) = (  0.151982  0.000020  0.000000 )
               b(2) = (  0.000000  0.167740  0.000000 )
               b(3) = (  0.000000  0.000000  0.039752 )

     PseudoPot. # 1 for Ti read from file:
     /storage/coda1/p-amedford6/0/shared/rich_project_chbe-medford/medford-share/data/pseudos_module/espresso/nninc/pbe/van/Ti.UPF
     MD5 check sum: 8e4df49b7f0d34bbd5052bf3f5ea0213
     Pseudo is Ultrasoft, Zval = 12.0
     Generated by new atomic code, or converted to UPF format
     Using radial grid of  851 points,  6 beta functions with:
                l(1) =   0
                l(2) =   0
                l(3) =   1
                l(4) =   1
                l(5) =   2
                l(6) =   2
     Q(r) pseudized with  8 coefficients,  rinner =    1.000   1.000   1.000
                                                       1.000   1.000

     PseudoPot. # 2 for O  read from file:
     /storage/coda1/p-amedford6/0/shared/rich_project_chbe-medford/medford-share/data/pseudos_module/espresso/nninc/pbe/van/O.UPF
     MD5 check sum: 78c19812648e8988a0fe644b0f25305e
     Pseudo is Ultrasoft, Zval =  6.0
     Generated by new atomic code, or converted to UPF format
     Using radial grid of  737 points,  4 beta functions with:
                l(1) =   0
                l(2) =   0
                l(3) =   1
                l(4) =   1
     Q(r) pseudized with  8 coefficients,  rinner =    0.800   0.800   0.800

     PseudoPot. # 3 for N  read from file:
     /storage/coda1/p-amedford6/0/shared/rich_project_chbe-medford/medford-share/data/pseudos_module/espresso/nninc/pbe/van/N.UPF
     MD5 check sum: 90d10febe142ad51ac9d5be1deb811c4
     Pseudo is Ultrasoft, Zval =  5.0
     Generated by new atomic code, or converted to UPF format
     Using radial grid of  729 points,  4 beta functions with:
                l(1) =   0
                l(2) =   0
                l(3) =   1
                l(4) =   1
     Q(r) pseudized with  8 coefficients,  rinner =    0.800   0.800   0.800

     PseudoPot. # 4 for C  read from file:
     /storage/coda1/p-amedford6/0/shared/rich_project_chbe-medford/medford-share/data/pseudos_module/espresso/nninc/pbe/van/C.UPF
     MD5 check sum: 1a69bf6b8db32088f5b2163dbdb77a27
     Pseudo is Ultrasoft, Zval =  4.0
     Generated by new atomic code, or converted to UPF format
     Using radial grid of  721 points,  4 beta functions with:
                l(1) =   0
                l(2) =   0
                l(3) =   1
                l(4) =   1
     Q(r) pseudized with  8 coefficients,  rinner =    0.800   0.800   0.800

     PseudoPot. # 5 for H  read from file:
     /storage/coda1/p-amedford6/0/shared/rich_project_chbe-medford/medford-share/data/pseudos_module/espresso/nninc/pbe/van/H.UPF
     MD5 check sum: b5ee9d7bfd3a09ee7748110bda690ff7
     Pseudo is Ultrasoft, Zval =  1.0
     Generated by new atomic code, or converted to UPF format
     Using radial grid of  615 points,  1 beta functions with:
                l(1) =   0
     Q(r) pseudized with  8 coefficients,  rinner =    0.800

     atomic species   valence    mass     pseudopotential
        Ti1           12.00    47.86700     Ti( 1.00)
        O1             6.00    15.99900     O ( 1.00)
        N1             5.00    14.00700     N ( 1.00)
        C1             4.00    12.01100     C ( 1.00)
        H1             1.00     1.00800     H ( 1.00)

     No symmetry found

   Cartesian axes

     site n.     atom                  positions (alat units)
         1           Ti1 tau(   1) = (   0.0004258   2.9801865   6.0000000  )
         2           Ti1 tau(   2) = (   3.2906075   1.4906267   6.0002472  )
         3           O1  tau(   3) = (   0.0006271   0.0005054   7.9858123  )
         4           O1  tau(   4) = (   3.2906025   0.0005020   7.3038282  )
         5           O1  tau(   5) = (   4.5942328   1.4918067   9.2879030  )
         6           O1  tau(   6) = (   1.9868534   1.4903216   9.2879459  )
         7           Ti1 tau(   7) = (   3.2907910   2.8959150   9.1758416  )
         8           Ti1 tau(   8) = (   0.0015273   1.4827037   9.2680791  )
         9           O1  tau(   9) = (   3.2868105   5.9447858  11.3346005  )
        10           O1  tau(  10) = (   0.0116148   5.9584955  10.6183126  )
        11           O1  tau(  11) = (   1.2897616   1.4699164  12.6258314  )
        12           O1  tau(  12) = (   5.2713851   1.4716199  12.6109895  )
        13           Ti1 tau(  13) = (   0.0629619   2.9460495  12.6207869  )
        14           Ti1 tau(  14) = (   3.3778125   1.4702366  12.4807322  )
        15           O1  tau(  15) = (   6.5741670   5.9392046  14.6271830  )
        16           O1  tau(  16) = (   3.2925211   5.9405975  13.9303826  )
        17           O1  tau(  17) = (   4.5331425   1.4971777  16.0590535  )
        18           O1  tau(  18) = (   2.0416154   1.4974824  16.0477615  )
        19           Ti1 tau(  19) = (   3.2901388   2.9722967  15.7036181  )
        20           Ti1 tau(  20) = (   6.5714728   1.5019933  15.8140906  )
        21           O1  tau(  21) = (   3.2904802   0.0005063   4.7018136  )
        22           O1  tau(  22) = (   6.5775371   0.0159386  17.1814867  )
        23           O1  tau(  23) = (   1.3043587   1.4918075   6.0039043  )
        24           O1  tau(  24) = (   5.2767064   1.4903225   6.0039473  )
        25           Ti1 tau(  25) = (   0.0000382   5.9609847   6.0000000  )
        26           Ti1 tau(  26) = (   3.2902200   4.4714249   6.0002472  )
        27           O1  tau(  27) = (   0.0002396   2.9813036   7.9858123  )
        28           O1  tau(  28) = (   3.2902150   2.9813002   7.3038282  )
        29           O1  tau(  29) = (   4.5938453   4.4726049   9.2879030  )
        30           O1  tau(  30) = (   1.9864658   4.4711199   9.2879459  )
        31           Ti1 tau(  31) = (   3.2891106   5.8743827   9.1763621  )
        32           Ti1 tau(  32) = (   0.0006254   4.4649316   9.2693709  )
        33           O1  tau(  33) = (   3.2909631   2.9655588  11.3316111  )
        34           O1  tau(  34) = (   0.0092240   2.9805883  10.6323155  )
        35           O1  tau(  35) = (   1.2884032   4.4536117  12.6269208  )
        36           O1  tau(  36) = (   5.2752684   4.4605011  12.6109535  )
        37           Ti1 tau(  37) = (   0.0626277   5.9200555  12.5524633  )
        38           Ti1 tau(  38) = (   3.3797810   4.4486816  12.4846537  )
        39           O1  tau(  39) = (   6.5720240   2.9440667  14.6479771  )
        40           O1  tau(  40) = (   3.2941106   2.9728877  13.9057494  )
        41           O1  tau(  41) = (   4.5311790   4.4530262  16.1020043  )
        42           O1  tau(  42) = (   2.0427069   4.4534008  16.0946336  )
        43           Ti1 tau(  43) = (   3.2818950   5.9508925  15.7274921  )
        44           Ti1 tau(  44) = (   6.5750914   4.6476268  16.0792144  )
        45           O1  tau(  45) = (   3.2900926   2.9813045   4.7018136  )
        46           O1  tau(  46) = (   1.3039711   4.4726057   6.0039043  )
        47           O1  tau(  47) = (   5.2763189   4.4711207   6.0039473  )
        48           N1  tau(  48) = (   0.0795740   2.6614725  18.6386781  )
        49           N1  tau(  49) = (   0.0132033   2.8794178  17.4383708  )
        50           C1  tau(  50) = (   0.1510961   3.8031638  19.5808395  )
        51           H1  tau(  51) = (   6.4701351   4.7592986  19.1328852  )
        52           H1  tau(  52) = (   6.0910372   3.5604803  20.4266230  )
        53           H1  tau(  53) = (   1.1812797   3.8385794  19.9476819  )

     number of k points=    10  Fermi-Dirac smearing, width (Ry)=  0.0073
                       cart. coord. in units 2pi/alat
        k(    1) = (   0.0000000   0.0000000   0.0000000), wk =   0.1250000
        k(    2) = (   0.0000000   0.0419351   0.0000000), wk =   0.2500000
        k(    3) = (   0.0000000  -0.0838702   0.0000000), wk =   0.1250000
        k(    4) = (   0.0379955   0.0000049   0.0000000), wk =   0.2500000
        k(    5) = (   0.0379955   0.0419400   0.0000000), wk =   0.2500000
        k(    6) = (   0.0379955  -0.0838652   0.0000000), wk =   0.2500000
        k(    7) = (   0.0379955  -0.0419301   0.0000000), wk =   0.2500000
        k(    8) = (  -0.0759910  -0.0000099   0.0000000), wk =   0.1250000
        k(    9) = (  -0.0759910   0.0419252   0.0000000), wk =   0.2500000
        k(   10) = (  -0.0759910  -0.0838800   0.0000000), wk =   0.1250000

     Initial potential from superposition of free atoms

     starting charge  378.99916, renormalised to  395.00000

     negative rho (up, down):  1.506E-02 0.000E+00

     %%%%%%%%%%%%%%%%%%%%%%%%%%%%%%%%%%%%%%%%%%%%%%%%%%%%%%%%%%%%%%%%%%%%%%%%
     %                                                                      %
     % You are using vdW-DF, which was implemented by the Thonhauser group. %
     % Please cite the following two papers that made this development      %
     % possible and the two reviews that describe the various versions:     %
     %                                                                      %
     %   T. Thonhauser et al., PRL 115, 136402 (2015).                      %
     %   T. Thonhauser et al., PRB 76, 125112 (2007).                       %
     %   K. Berland et al., Rep. Prog. Phys. 78, 066501 (2015).             %
     %   D.C. Langreth et al., J. Phys.: Condens. Matter 21, 084203 (2009). %
     %                                                                      %
     %                                                                      %
     % If you are calculating the stress with vdW-DF, please also cite:     %
     %                                                                      %
     %   R. Sabatini et al., J. Phys.: Condens. Matter 24, 424209 (2012).   %
     %                                                                      %
     %%%%%%%%%%%%%%%%%%%%%%%%%%%%%%%%%%%%%%%%%%%%%%%%%%%%%%%%%%%%%%%%%%%%%%%%

     Adding external electric field

     Computed dipole along edir(3) :
        Dipole               -8.8495 Ry au,        -22.4931 Debye
        Dipole field         -0.0167 Ry au,

        Potential amp.        1.5481 Ry
        Total length         46.3494 bohr

     Starting wfcs are  299 atomic wfcs
  @ DRIVER MODE: Message from server: STATUS
  @ DRIVER MODE: Message from server: POSDATA
  @ DRIVER MODE: Reading and sharing cell
  @ DRIVER MODE: Reading and sharing positions
  @ DRIVER MODE: Received positions

     Self-consistent Calculation

     iteration #  1     ecut=    29.40 Ry     beta= 0.05
     Davidson diagonalization with overlap
     c_bands:  1 eigenvalues not converged
     c_bands:  2 eigenvalues not converged
     c_bands:  1 eigenvalues not converged
     c_bands:  3 eigenvalues not converged
     c_bands:  3 eigenvalues not converged
     c_bands:  1 eigenvalues not converged
     ethr =  1.00E-05,  avg # of iterations = 19.0

[...]

     total energy              =   -2605.52920536 Ry
     estimated scf accuracy    <    3700.63506030 Ry

     iteration #  2     ecut=    29.40 Ry     beta= 0.05
     Davidson diagonalization with overlap
     ethr =  1.00E-02,  avg # of iterations = 22.6

[...]

     iteration # 91     ecut=    29.40 Ry     beta= 0.05
     Davidson diagonalization with overlap
     c_bands:  1 eigenvalues not converged
     ethr =  1.14E-09,  avg # of iterations = 13.6

[...]

     total energy              =   -2939.15477934 Ry
     estimated scf accuracy    <       0.00000025 Ry

     iteration # 98     ecut=    29.40 Ry     beta= 0.05
     Davidson diagonalization with overlap
     ethr =  5.62E-11,  avg # of iterations = 10.4

     negative rho (up, down):  1.565E-02 0.000E+00

     Adding external electric field

     Computed dipole along edir(3) :
        Dipole                0.7064 Ry au,          1.7954 Debye
        Dipole field          0.0013 Ry au,

        Potential amp.       -0.1236 Ry
        Total length         46.3494 bohr

     End of self-consistent calculation

          k = 0.0000 0.0000 0.0000 ( 18029 PWs)   bands (ev):

   -55.8961 -55.8813 -55.8621 -55.8454 -55.7965 -55.7312 -55.7051 -55.7047
   -55.6946 -55.6707 -55.6697 -55.6360 -55.2870 -55.0962 -54.8734 -54.8393
   -32.4355 -32.3783 -32.2312 -32.2286 -32.2034 -32.2000 -32.1891 -32.1602
   -32.1386 -32.1252 -32.1036 -32.0676 -32.0620 -32.0483 -32.0346 -32.0210
   -32.0185 -32.0002 -31.9860 -31.9533 -31.9452 -31.9408 -31.8997 -31.8947
   -31.8925 -31.8890 -31.8809 -31.8761 -31.8717 -31.8451 -31.8444 -31.8355
   -31.8341 -31.8226 -31.8112 -31.7819 -31.7787 -31.5672 -31.4604 -31.3583
   -31.3563 -31.3119 -31.2805 -31.1921 -31.1696 -31.0973 -31.0107 -30.8997
   -18.4512 -16.6336 -16.3688 -16.1400 -16.0462 -16.0140 -15.8958 -15.7336
   -15.6161 -15.5611 -15.4636 -15.4442 -15.4312 -15.3994 -15.3810 -15.3756
   -15.3417 -15.3376 -15.3191 -15.3039 -15.2557 -15.2318 -15.2101 -15.1107
   -15.0646 -15.0307 -15.0155 -14.9524 -14.9472 -14.4425 -13.3758 -13.2594
   -11.3577  -6.9355  -4.3524  -4.0035  -3.8857  -3.8608  -3.8482  -3.8014
    -3.7447  -3.6251  -3.4999  -3.4376  -3.1269  -3.0790  -3.0631  -3.0458
    -3.0081  -2.8007  -2.7493  -2.7093  -2.6846  -2.6774  -2.6663  -2.6588
    -2.6471  -2.6085  -2.5063  -2.4371  -2.4299  -2.3439  -2.2944  -2.2710
    -2.2079  -2.1880  -2.1662  -2.1431  -2.1317  -2.1108  -2.0908  -2.0798
    -1.9748  -1.8838  -1.7507  -1.6952  -1.6739  -1.6603  -1.6409  -1.5036
    -1.3701  -1.3387  -1.3296  -1.3209  -1.2874  -1.2753  -1.1926  -1.0636
    -1.0529  -1.0127  -0.9608  -0.9028  -0.8776  -0.7757  -0.7389  -0.6621
    -0.6570  -0.6401  -0.5872  -0.5355  -0.3771  -0.3351  -0.3093  -0.2871
    -0.2626  -0.1918  -0.1703  -0.0537  -0.0365  -0.0189   0.0412   0.0646
     0.0775   0.0873   0.1051   0.1232   0.1406   0.3078   0.3803   0.4328
     0.4561   0.5140   0.6390   0.7080   0.7628   0.8633   1.0744   1.1487
     1.2415   1.3408   1.7200   1.7656   2.6477   3.2433   3.3239   3.3731
     3.3878   3.4848   3.5186   3.6950   3.6960   3.7249   3.7947

[...]

          k = 0.0380-0.0419 0.0000 ( 17876 PWs)   bands (ev):

[...]

          k =-0.0760-0.0000 0.0000 ( 17886 PWs)   bands (ev):

[...]

          k =-0.0760-0.0839 0.0000 ( 17948 PWs)   bands (ev):

   -55.8794 -55.8786 -55.8635 -55.8630 -55.7931 -55.7191 -55.7083 -55.7067
   -55.6886 -55.6862 -55.6536 -55.6523 -55.2856 -55.0975 -54.8566 -54.8560
   -32.2401 -32.2382 -32.1939 -32.1933 -32.1749 -32.1741 -32.1705 -32.1351
   -32.0896 -32.0866 -32.0805 -32.0801 -32.0432 -32.0139 -32.0062 -32.0056
   -31.9992 -31.9989 -31.9984 -31.9981 -31.9940 -31.9924 -31.9899 -31.9388
   -31.9251 -31.9129 -31.9120 -31.9007 -31.8876 -31.8871 -31.8846 -31.8836
   -31.8681 -31.8673 -31.8583 -31.8556 -31.6956 -31.5689 -31.4687 -31.4155
   -31.3582 -31.3374 -31.1826 -31.1821 -31.0935 -31.0930 -31.0543 -31.0537
   -18.4470 -16.0693 -16.0434 -15.8435 -15.8105 -15.8062 -15.7918 -15.6830
   -15.5982 -15.5911 -15.5884 -15.5219 -15.4919 -15.4760 -15.4353 -15.4227
   -15.4154 -15.4038 -15.3935 -15.3564 -15.3490 -15.3319 -15.3244 -15.2402
   -15.2125 -15.2084 -15.1824 -15.0646 -14.9332 -14.6187 -13.3613 -13.3611
   -11.3554  -6.9473  -4.2623  -3.8961  -3.8323  -3.3588  -3.3300  -3.0898
    -3.0510  -3.0373  -2.9842  -2.8226  -2.7923  -2.7664  -2.7549  -2.7233
    -2.7180  -2.7059  -2.7008  -2.6808  -2.6395  -2.6181  -2.6003  -2.5827
    -2.5634  -2.5494  -2.5335  -2.5168  -2.5073  -2.4679  -2.4444  -2.4328
    -2.4141  -2.4024  -2.2457  -2.1230  -2.0885  -2.0340  -2.0237  -2.0023
    -1.9622  -1.9584  -1.9467  -1.8824  -1.8102  -1.6520  -1.6157  -1.5951
    -1.5763  -1.5545  -1.5011  -1.4608  -1.3736  -1.2995  -1.2758  -1.2711
    -1.2027  -1.1156  -1.1081  -1.0608  -1.0178  -1.0085  -0.9537  -0.8889
    -0.8583  -0.8540  -0.8011  -0.7319  -0.7144  -0.6642  -0.6574  -0.6130
    -0.5580  -0.5499  -0.5290  -0.4878  -0.4058  -0.3822  -0.2437  -0.1639
    -0.0413   0.0730   0.1672   0.1816   0.2615   0.3135   0.3972   0.4148
     0.4253   0.4344   0.4776   0.5609   0.6364   0.6511   0.6971   0.8180
     1.5124   1.5131   1.5852   1.5855   2.7046   3.4904   3.5352   3.5773
     3.6095   3.7157   3.7483   3.7718   3.7728   3.8009   3.9141

     the Fermi energy is     3.2385 ev

!    total energy              =   -2939.15478765 Ry
     estimated scf accuracy    <       0.00000007 Ry
     smearing contrib. (-TS)   =      -0.02245047 Ry
     internal energy E=F+TS    =   -2939.13233718 Ry

     The total energy is F=E-TS. E is the sum of the following terms:
     one-electron contribution =  -24176.15076228 Ry
     hartree contribution      =   12175.31450548 Ry
     xc contribution           =    -485.18378553 Ry
     ewald contribution        =    9546.88676356 Ry
     electric field correction =       0.00094158 Ry

     convergence has been achieved in  98 iterations

     Forces acting on atoms (cartesian axes, Ry/au):

     atom    1 type  1   force =     0.00012422   -0.00024547    0.09664256
     atom    2 type  1   force =    -0.00012272   -0.00049633   -0.17523250
     atom    3 type  2   force =     0.00000107   -0.00010132   -0.02499569
     atom    4 type  2   force =     0.00005201   -0.00148422    0.05298723
     atom    5 type  2   force =    -0.01215429   -0.00108948    0.00361710
     atom    6 type  2   force =     0.01370551   -0.00028193    0.00229180
     atom    7 type  1   force =    -0.00116987    0.00036131   -0.01147315
     atom    8 type  1   force =     0.00055801    0.00939636    0.02855448
     atom    9 type  2   force =     0.00019584    0.00053350   -0.00014729
     atom   10 type  2   force =    -0.00114690    0.00028146   -0.01822793
     atom   11 type  2   force =    -0.00012062    0.00000393   -0.00013551
     atom   12 type  2   force =     0.00013574    0.00021418    0.00018367
     atom   13 type  1   force =     0.00008615   -0.00029780    0.00014741
     atom   14 type  1   force =     0.00021936    0.00017197    0.00019896
     atom   15 type  2   force =     0.00022064   -0.00005565   -0.00013194
     atom   16 type  2   force =    -0.00033027    0.00033941    0.00037076
     atom   17 type  2   force =    -0.00016222    0.00041846   -0.00015817
     atom   18 type  2   force =     0.00011708    0.00016249    0.00023075
     atom   19 type  1   force =    -0.00007152    0.00014557    0.00006022
     atom   20 type  1   force =    -0.00059040   -0.00025346    0.00021238
     atom   21 type  2   force =     0.00008726    0.00001913    0.10324687
     atom   22 type  2   force =    -0.00018474    0.00026834    0.00077462
     atom   23 type  2   force =    -0.07144525   -0.00007572   -0.02771446
     atom   24 type  2   force =     0.07141283    0.00034521   -0.02772367
     atom   25 type  1   force =     0.00007297   -0.00021756    0.09636165
     atom   26 type  1   force =    -0.00022105   -0.00026097   -0.17564697
     atom   27 type  2   force =     0.00006810   -0.00024997   -0.02399552
     atom   28 type  2   force =     0.00009679   -0.00127705    0.05285735
     atom   29 type  2   force =    -0.01239520    0.00003993    0.00353612
     atom   30 type  2   force =     0.01386089    0.00033300    0.00218087
     atom   31 type  1   force =    -0.00113291    0.00332478   -0.01188576
     atom   32 type  1   force =     0.00065112   -0.01115795    0.02915746
     atom   33 type  2   force =     0.00010951   -0.00020093   -0.00040286
     atom   34 type  2   force =    -0.00089707   -0.00093375   -0.02482102
     atom   35 type  2   force =    -0.00039232    0.00027251    0.00002334
     atom   36 type  2   force =     0.00072497    0.00029158    0.00034113
     atom   37 type  1   force =    -0.00001395   -0.00022935    0.00004380
     atom   38 type  1   force =    -0.00001060    0.00009966   -0.00000062
     atom   39 type  2   force =     0.00032079    0.00034140   -0.00046514
     atom   40 type  2   force =    -0.00030434    0.00010441    0.00015331
     atom   41 type  2   force =    -0.00043898    0.00052162    0.00012492
     atom   42 type  2   force =     0.00004895    0.00045718    0.00042176
     atom   43 type  1   force =    -0.00004618    0.00037953    0.00040726
     atom   44 type  1   force =    -0.00042930    0.00025293    0.00074564
     atom   45 type  2   force =     0.00008242   -0.00003017    0.10325076
     atom   46 type  2   force =    -0.07149736   -0.00002858   -0.02772947
     atom   47 type  2   force =     0.07146541    0.00039228   -0.02775559
     atom   48 type  3   force =     0.00106279   -0.00084311    0.00008041
     atom   49 type  3   force =     0.00064080    0.00028918   -0.00024446
     atom   50 type  4   force =     0.00192048    0.00216407   -0.00040509
     atom   51 type  5   force =    -0.00079531    0.00057700   -0.00074808
     atom   52 type  5   force =    -0.00097114   -0.00083970    0.00105505
     atom   53 type  5   force =    -0.00099720   -0.00185194   -0.00021876

     Total force =     0.368337     Total SCF correction =     0.000574
  @ DRIVER MODE: Message from server: STATUS
  @ DRIVER MODE: Message from server: GETFORCE
  @ DRIVER MODE: Returning v,forces,stress,ensemble

     Writing output data file ./calc.save/
  @ DRIVER MODE: Message from server: EXIT
  @ DRIVE MODE: Exiting

     General routines

     Parallel routines

   This run was terminated on:   5:37:59  19Aug2021

   JOB DONE.