     Program PWSCF v.6.7GPU starts on 28Sep2021 at  8:49:46

     R & G space division:  proc/nbgrp/npool/nimage =       8
     Reading input from /storage/home/hcoda1/3/ntian30/research/carbon/CxH_vib/H2O_calc/ads_slab/CHNHO_a/out_0028/pw.inp
Warning: card &CELL ignored
Warning: card   CELL_DYNAMICS='IPI', ignored
Warning: card / ignored

     Current dimensions of program PWSCF are:
     Max number of different atomic species (ntypx) = 10
     Max number of k-points (npk) =  40000
     Max angular momentum in pseudopotentials (lmaxx) =  3
     Presently no symmetry can be used with electric field

     Message from routine cell_base_init:
     DEPRECATED: use true lattice parameter, not A to a.u. conversion factor

     IMPORTANT: XC functional enforced from input :
     Exchange-correlation= BEEF-VDW
                           (   1   4  43  14   2   0   0)
     Any further DFT definition will be discarded
     Please, verify this is what you really want

  @ DRIVER MODE: Connecting to
 qe_1139763_3003541.sched-torque.pace.gatech.eduf83c1lpd_scratch
  using UNIX socket
  @ DRIVER MODE: Message from server: STATUS
  @ DRIVER MODE: Message from server: INIT
  @ DRIVER MODE: Receiving replica           0          -1
  @ DRIVER MODE: Receiving encoded integer          25
  @ DRIVER MODE:  SCF:  T  FORCE:  T  STRESS:  F  VC:  F  ENSEMBLE:  F
  @ DRIVER MODE:  SCF:  T  FORCE:  T  STRESS:  F  VC:  F  ENSEMBLE:  F

     Using Slab Decomposition

     bravais-lattice index     =            0
     lattice parameter (alat)  =       1.8897  a.u.
     unit-cell volume          =    6658.9804 (a.u.)^3
     number of atoms/cell      =           52
     number of atomic types    =            5
     number of electrons       =       395.00
     number of Kohn-Sham states=          207
     kinetic-energy cutoff     =      29.3995  Ry
     charge density cutoff     =     293.9946  Ry
     scf convergence threshold =      7.3E-08
     mixing beta               =       0.0500
     number of iterations used =            8  plain     mixing
     Exchange-correlation= BEEF-VDW
                           (   1   4  43  14   2   0   0)

     celldm(1)=   1.889726  celldm(2)=   0.000000  celldm(3)=   0.000000
     celldm(4)=   0.000000  celldm(5)=   0.000000  celldm(6)=   0.000000

     crystal axes: (cart. coord. in units of alat)
               a(1) = (   6.579727   0.000000   0.000000 )
               a(2) = (  -0.000775   5.961596   0.000000 )
               a(3) = (   0.000000   0.000000  25.155947 )

     reciprocal axes: (cart. coord. in units 2 pi/alat)
               b(1) = (  0.151982  0.000020  0.000000 )
               b(2) = (  0.000000  0.167740  0.000000 )
               b(3) = (  0.000000  0.000000  0.039752 )

     PseudoPot. # 1 for Ti read from file:
     /storage/coda1/p-amedford6/0/shared/rich_project_chbe-medford/medford-share/data/pseudos_module/espresso/nninc/pbe/van/Ti.UPF
     MD5 check sum: 8e4df49b7f0d34bbd5052bf3f5ea0213
     Pseudo is Ultrasoft, Zval = 12.0
     Generated by new atomic code, or converted to UPF format
     Using radial grid of  851 points,  6 beta functions with:
                l(1) =   0
                l(2) =   0
                l(3) =   1
                l(4) =   1
                l(5) =   2
                l(6) =   2
     Q(r) pseudized with  8 coefficients,  rinner =    1.000   1.000   1.000
                                                       1.000   1.000

     PseudoPot. # 2 for O  read from file:
     /storage/coda1/p-amedford6/0/shared/rich_project_chbe-medford/medford-share/data/pseudos_module/espresso/nninc/pbe/van/O.UPF
     MD5 check sum: 78c19812648e8988a0fe644b0f25305e
     Pseudo is Ultrasoft, Zval =  6.0
     Generated by new atomic code, or converted to UPF format
     Using radial grid of  737 points,  4 beta functions with:
                l(1) =   0
                l(2) =   0
                l(3) =   1
                l(4) =   1
     Q(r) pseudized with  8 coefficients,  rinner =    0.800   0.800   0.800

     PseudoPot. # 3 for N  read from file:
     /storage/coda1/p-amedford6/0/shared/rich_project_chbe-medford/medford-share/data/pseudos_module/espresso/nninc/pbe/van/N.UPF
     MD5 check sum: 90d10febe142ad51ac9d5be1deb811c4
     Pseudo is Ultrasoft, Zval =  5.0
     Generated by new atomic code, or converted to UPF format
     Using radial grid of  729 points,  4 beta functions with:
                l(1) =   0
                l(2) =   0
                l(3) =   1
                l(4) =   1
     Q(r) pseudized with  8 coefficients,  rinner =    0.800   0.800   0.800

     PseudoPot. # 4 for C  read from file:
     /storage/coda1/p-amedford6/0/shared/rich_project_chbe-medford/medford-share/data/pseudos_module/espresso/nninc/pbe/van/C.UPF
     MD5 check sum: 1a69bf6b8db32088f5b2163dbdb77a27
     Pseudo is Ultrasoft, Zval =  4.0
     Generated by new atomic code, or converted to UPF format
     Using radial grid of  721 points,  4 beta functions with:
                l(1) =   0
                l(2) =   0
                l(3) =   1
                l(4) =   1
     Q(r) pseudized with  8 coefficients,  rinner =    0.800   0.800   0.800

     PseudoPot. # 5 for H  read from file:
     /storage/coda1/p-amedford6/0/shared/rich_project_chbe-medford/medford-share/data/pseudos_module/espresso/nninc/pbe/van/H.UPF
     MD5 check sum: b5ee9d7bfd3a09ee7748110bda690ff7
     Pseudo is Ultrasoft, Zval =  1.0
     Generated by new atomic code, or converted to UPF format
     Using radial grid of  615 points,  1 beta functions with:
                l(1) =   0
     Q(r) pseudized with  8 coefficients,  rinner =    0.800

     atomic species   valence    mass     pseudopotential
        Ti1           12.00    47.86700     Ti( 1.00)
        O1             6.00    15.99900     O ( 1.00)
        N1             5.00    14.00700     N ( 1.00)
        C1             4.00    12.01100     C ( 1.00)
        H1             1.00     1.00800     H ( 1.00)

     No symmetry found

   Cartesian axes

     site n.     atom                  positions (alat units)
         1           Ti1 tau(   1) = (   0.0004258   2.9801865   6.0000000  )
         2           Ti1 tau(   2) = (   3.2906075   1.4906267   6.0002472  )
         3           O1  tau(   3) = (   0.0006271   0.0005054   7.9858123  )
         4           O1  tau(   4) = (   3.2906025   0.0005020   7.3038282  )
         5           O1  tau(   5) = (   4.5942328   1.4918067   9.2879030  )
         6           O1  tau(   6) = (   1.9868534   1.4903216   9.2879459  )
         7           Ti1 tau(   7) = (   3.2907910   2.8959150   9.1758416  )
         8           Ti1 tau(   8) = (   0.0015273   1.4827037   9.2680791  )
         9           O1  tau(   9) = (   3.2959632   0.0395795  11.3506057  )
        10           O1  tau(  10) = (   0.0116148   5.9584955  10.6183126  )
        11           O1  tau(  11) = (   1.2788542   1.5152540  12.6826201  )
        12           O1  tau(  12) = (   5.3118026   1.5181145  12.6771052  )
        13           Ti1 tau(  13) = (   6.5565567   2.9614743  12.5245697  )
        14           Ti1 tau(  14) = (   3.2956814   1.5864178  12.4516600  )
        15           O1  tau(  15) = (   0.0252471   5.9065102  14.6673769  )
        16           O1  tau(  16) = (   3.3061784   5.9134112  13.9760755  )
        17           O1  tau(  17) = (   4.5493393   1.5513651  16.1111979  )
        18           O1  tau(  18) = (   2.0154464   1.5530992  16.0877549  )
        19           Ti1 tau(  19) = (   3.2773477   2.9896638  15.7021987  )
        20           Ti1 tau(  20) = (   0.0480268   1.3694702  15.7882682  )
        21           O1  tau(  21) = (   3.2904802   0.0005063   4.7018136  )
        22           O1  tau(  22) = (   6.5727385   0.1062933  17.1740559  )
        23           O1  tau(  23) = (   1.3043587   1.4918075   6.0039043  )
        24           O1  tau(  24) = (   5.2767064   1.4903225   6.0039473  )
        25           Ti1 tau(  25) = (   0.0000382   5.9609847   6.0000000  )
        26           Ti1 tau(  26) = (   3.2902200   4.4714249   6.0002472  )
        27           O1  tau(  27) = (   0.0002396   2.9813036   7.9858123  )
        28           O1  tau(  28) = (   3.2902150   2.9813002   7.3038282  )
        29           O1  tau(  29) = (   4.5938453   4.4726049   9.2879030  )
        30           O1  tau(  30) = (   1.9864658   4.4711199   9.2879459  )
        31           Ti1 tau(  31) = (   3.2891106   5.8743827   9.1763621  )
        32           Ti1 tau(  32) = (   0.0006254   4.4649316   9.2693709  )
        33           O1  tau(  33) = (   3.2965180   2.9598593  11.3174316  )
        34           O1  tau(  34) = (   0.0092240   2.9805883  10.6323155  )
        35           O1  tau(  35) = (   1.2824442   4.4846720  12.6503842  )
        36           O1  tau(  36) = (   5.3188658   4.4853930  12.6478368  )
        37           Ti1 tau(  37) = (   0.0485215   5.9261111  12.5025588  )
        38           Ti1 tau(  38) = (   3.3111372   4.6778342  12.7091208  )
        39           O1  tau(  39) = (   6.5585416   3.0335453  14.9077256  )
        40           O1  tau(  40) = (   3.2962521   3.0064119  13.9315977  )
        41           O1  tau(  41) = (   4.5433468   4.4479239  16.1972702  )
        42           O1  tau(  42) = (   2.0131479   4.4365031  16.1967174  )
        43           Ti1 tau(  43) = (   3.3705753   0.0290894  16.3529554  )
        44           Ti1 tau(  44) = (   0.0540424   4.5922997  16.0496824  )
        45           O1  tau(  45) = (   3.2900926   2.9813045   4.7018136  )
        46           O1  tau(  46) = (   1.3039711   4.4726057   6.0039043  )
        47           O1  tau(  47) = (   5.2763189   4.4711207   6.0039473  )
        48           N1  tau(  48) = (   6.5754701   3.2032128  17.9785674  )
        49           C1  tau(  49) = (   6.5468619   2.3444050  18.7439128  )
        50           H1  tau(  50) = (   6.5191205   1.5204410  19.4189644  )
        51           O1  tau(  51) = (   3.3183073   0.1146119  18.2142577  )
        52           H1  tau(  52) = (   3.2686675   5.2373609  18.6755658  )

     number of k points=    10  Fermi-Dirac smearing, width (Ry)=  0.0073
                       cart. coord. in units 2pi/alat
        k(    1) = (   0.0000000   0.0000000   0.0000000), wk =   0.1250000
        k(    2) = (   0.0000000   0.0419351   0.0000000), wk =   0.2500000
        k(    3) = (   0.0000000  -0.0838702   0.0000000), wk =   0.1250000
        k(    4) = (   0.0379955   0.0000049   0.0000000), wk =   0.2500000
        k(    5) = (   0.0379955   0.0419400   0.0000000), wk =   0.2500000
        k(    6) = (   0.0379955  -0.0838652   0.0000000), wk =   0.2500000
        k(    7) = (   0.0379955  -0.0419301   0.0000000), wk =   0.2500000
        k(    8) = (  -0.0759910  -0.0000099   0.0000000), wk =   0.1250000
        k(    9) = (  -0.0759910   0.0419252   0.0000000), wk =   0.2500000
        k(   10) = (  -0.0759910  -0.0838800   0.0000000), wk =   0.1250000

     Initial potential from superposition of free atoms

     starting charge  378.99918, renormalised to  395.00000

     negative rho (up, down):  1.718E-02 0.000E+00

     %%%%%%%%%%%%%%%%%%%%%%%%%%%%%%%%%%%%%%%%%%%%%%%%%%%%%%%%%%%%%%%%%%%%%%%%
     %                                                                      %
     % You are using vdW-DF, which was implemented by the Thonhauser group. %
     % Please cite the following two papers that made this development      %
     % possible and the two reviews that describe the various versions:     %
     %                                                                      %
     %   T. Thonhauser et al., PRL 115, 136402 (2015).                      %
     %   T. Thonhauser et al., PRB 76, 125112 (2007).                       %
     %   K. Berland et al., Rep. Prog. Phys. 78, 066501 (2015).             %
     %   D.C. Langreth et al., J. Phys.: Condens. Matter 21, 084203 (2009). %
     %                                                                      %
     %                                                                      %
     % If you are calculating the stress with vdW-DF, please also cite:     %
     %                                                                      %
     %   R. Sabatini et al., J. Phys.: Condens. Matter 24, 424209 (2012).   %
     %                                                                      %
     %%%%%%%%%%%%%%%%%%%%%%%%%%%%%%%%%%%%%%%%%%%%%%%%%%%%%%%%%%%%%%%%%%%%%%%%

     Adding external electric field

     Computed dipole along edir(3) :
        Dipole               -8.1496 Ry au,        -20.7143 Debye
        Dipole field         -0.0154 Ry au,

        Potential amp.        1.4257 Ry
        Total length         46.3494 bohr

     Starting wfcs are  298 atomic wfcs
  @ DRIVER MODE: Message from server: STATUS
  @ DRIVER MODE: Message from server: POSDATA
  @ DRIVER MODE: Reading and sharing cell
  @ DRIVER MODE: Reading and sharing positions
  @ DRIVER MODE: Received positions

     Self-consistent Calculation

     iteration #  1     ecut=    29.40 Ry     beta= 0.05
     Davidson diagonalization with overlap
     c_bands:  1 eigenvalues not converged
     c_bands:  2 eigenvalues not converged
     c_bands:  2 eigenvalues not converged
     c_bands:  3 eigenvalues not converged
     c_bands:  3 eigenvalues not converged
     c_bands:  1 eigenvalues not converged
     c_bands:  1 eigenvalues not converged
     ethr =  1.00E-05,  avg # of iterations = 19.3

[...]

     total energy              =   -2615.10267948 Ry
     estimated scf accuracy    <    3704.53096557 Ry

     iteration #  2     ecut=    29.40 Ry     beta= 0.05
     Davidson diagonalization with overlap
     ethr =  1.00E-02,  avg # of iterations = 22.5

[...]

     iteration # 50     ecut=    29.40 Ry     beta= 0.05
     Davidson diagonalization with overlap
     c_bands:  1 eigenvalues not converged
     c_bands:  1 eigenvalues not converged
     ethr =  1.43E-08,  avg # of iterations = 15.5

[...]

     total energy              =   -2950.24105456 Ry
     estimated scf accuracy    <       0.00000010 Ry

     iteration # 69     ecut=    29.40 Ry     beta= 0.05
     Davidson diagonalization with overlap
     ethr =  2.52E-11,  avg # of iterations =  5.8

     negative rho (up, down):  1.737E-02 0.000E+00

     Adding external electric field

     Computed dipole along edir(3) :
        Dipole                1.2361 Ry au,          3.1418 Debye
        Dipole field          0.0023 Ry au,

        Potential amp.       -0.2162 Ry
        Total length         46.3494 bohr

     End of self-consistent calculation

          k = 0.0000 0.0000 0.0000 ( 18029 PWs)   bands (ev):

   -55.6701 -55.6174 -55.5833 -55.4462 -55.4421 -55.4413 -55.4097 -55.4088
   -55.4086 -55.3682 -55.3250 -55.2882 -55.2060 -55.0976 -54.5804 -54.5464
   -32.1010 -32.0171 -32.0138 -31.9456 -31.9338 -31.9084 -31.8927 -31.8830
   -31.8631 -31.8549 -31.8192 -31.7699 -31.7296 -31.7230 -31.7143 -31.7082
   -31.6977 -31.6913 -31.6750 -31.6538 -31.6498 -31.6410 -31.6378 -31.6212
   -31.6183 -31.5905 -31.5902 -31.5869 -31.5701 -31.5653 -31.5578 -31.5430
   -31.5416 -31.5211 -31.4901 -31.4786 -31.4758 -31.4196 -31.3996 -31.3490
   -31.3169 -31.3081 -30.9857 -30.9010 -30.8785 -30.8035 -30.7172 -30.6052
   -17.2615 -16.6483 -16.2431 -16.0800 -15.8608 -15.7803 -15.7488 -15.5621
   -15.4504 -15.4020 -15.1915 -15.1487 -15.1318 -15.1142 -15.0906 -15.0864
   -15.0716 -15.0321 -15.0318 -15.0149 -14.9956 -14.9612 -14.9444 -14.8957
   -14.8164 -14.8092 -14.7469 -14.6723 -14.6263 -14.3547 -14.3332 -13.0784
   -12.9623  -8.7387  -4.4751  -4.1781  -3.5981  -3.5149  -3.4866  -3.4409
    -3.3677  -3.2702  -3.0990  -3.0899  -2.9786  -2.9218  -2.8146  -2.7156
    -2.6457  -2.5989  -2.5413  -2.5083  -2.4713  -2.4280  -2.3915  -2.3517
    -2.3252  -2.3159  -2.2571  -2.2283  -2.1308  -2.1242  -2.0865  -1.9935
    -1.9761  -1.9290  -1.9215  -1.9177  -1.8639  -1.8488  -1.8321  -1.7978
    -1.6777  -1.6531  -1.6473  -1.5879  -1.5240  -1.2135  -1.2032  -1.1441
    -1.0681  -1.0366  -1.0105  -0.9923  -0.9312  -0.8932  -0.8794  -0.8617
    -0.7878  -0.6929  -0.6603  -0.6121  -0.4589  -0.4523  -0.3980  -0.3785
    -0.3516  -0.3126  -0.2595  -0.1909  -0.1640  -0.1406  -0.0098   0.0112
     0.0587   0.0725   0.1173   0.1661   0.2008   0.2670   0.3179   0.3393
     0.3566   0.3678   0.4003   0.4203   0.5123   0.5447   0.5943   0.6597
     0.7185   0.7358   0.7885   0.9463   1.0416   1.0700   1.1801   1.3995
     1.4464   1.4986   1.6424   2.0120   2.0568   3.4717   3.6211   3.6381
     3.7271   3.7391   3.8244   3.9591   4.0527   4.1629   4.1759

[...]

          k = 0.0380-0.0419 0.0000 ( 17876 PWs)   bands (ev):

[...]

          k =-0.0760-0.0000 0.0000 ( 17886 PWs)   bands (ev):

[...]

          k =-0.0760-0.0839 0.0000 ( 17948 PWs)   bands (ev):

   -55.6693 -55.6004 -55.6001 -55.4398 -55.4313 -55.4266 -55.4250 -55.4226
   -55.4094 -55.3601 -55.3331 -55.2902 -55.2035 -55.1001 -54.5634 -54.5633
   -31.9570 -31.9439 -31.9164 -31.9163 -31.8949 -31.8940 -31.8937 -31.8712
   -31.7994 -31.7572 -31.7554 -31.7479 -31.7352 -31.7203 -31.7200 -31.7076
   -31.7024 -31.6997 -31.6936 -31.6713 -31.6709 -31.6578 -31.6434 -31.6283
   -31.6267 -31.6237 -31.6151 -31.6062 -31.6048 -31.5982 -31.5953 -31.5798
   -31.5732 -31.5562 -31.5494 -31.5069 -31.4945 -31.4684 -31.4374 -31.4035
   -31.3549 -31.3125 -30.8912 -30.8912 -30.7989 -30.7985 -30.7605 -30.7602
   -17.2543 -16.6408 -15.8704 -15.6501 -15.5803 -15.5751 -15.4402 -15.3700
   -15.3477 -15.3183 -15.3024 -15.2659 -15.2416 -15.2256 -15.1824 -15.1591
   -15.1256 -15.1074 -15.0926 -15.0535 -15.0431 -15.0176 -15.0084 -14.9919
   -14.9350 -14.9129 -14.9039 -14.7715 -14.7366 -14.6644 -14.4735 -13.0643
   -13.0641  -8.7365  -4.4555  -4.1906  -3.3015  -3.1070  -3.0215  -2.8621
    -2.7957  -2.6738  -2.6493  -2.6132  -2.5463  -2.5298  -2.4993  -2.4541
    -2.3941  -2.3726  -2.3672  -2.3424  -2.3322  -2.3013  -2.2860  -2.2758
    -2.2706  -2.2449  -2.2299  -2.2176  -2.1922  -2.1621  -2.1594  -2.1430
    -2.1268  -2.0533  -1.9889  -1.9408  -1.8172  -1.7621  -1.7511  -1.7367
    -1.7217  -1.6841  -1.6775  -1.6389  -1.6134  -1.5016  -1.4218  -1.3783
    -1.3079  -1.1971  -1.1776  -1.1688  -1.1059  -1.0739  -1.0397  -1.0380
    -0.9329  -0.9025  -0.8166  -0.7630  -0.7282  -0.6624  -0.5711  -0.5561
    -0.5464  -0.5234  -0.5037  -0.4880  -0.4617  -0.4241  -0.3424  -0.3051
    -0.3003  -0.2994  -0.2486  -0.1739  -0.1103   0.0760   0.1639   0.1716
     0.2194   0.2569   0.4509   0.4858   0.5140   0.5276   0.5764   0.6286
     0.6927   0.7089   0.7568   0.8220   0.9121   0.9381   0.9708   0.9817
     1.0284   1.8107   1.8183   1.8772   1.8772   3.6419   3.9478   3.9867
     4.0051   4.0133   4.0516   4.0554   4.0749   4.1530   4.1628

     the Fermi energy is     3.5056 ev

!    total energy              =   -2950.24107284 Ry
     estimated scf accuracy    <       0.00000004 Ry
     smearing contrib. (-TS)   =      -0.01957622 Ry
     internal energy E=F+TS    =   -2950.22149662 Ry

     The total energy is F=E-TS. E is the sum of the following terms:
     one-electron contribution =  -23960.87053622 Ry
     hartree contribution      =   12071.41320363 Ry
     xc contribution           =    -486.33389584 Ry
     ewald contribution        =    9425.56684839 Ry
     electric field correction =       0.00288341 Ry

     convergence has been achieved in  69 iterations

     Forces acting on atoms (cartesian axes, Ry/au):

     atom    1 type  1   force =     0.00007084   -0.00023042    0.09443799
     atom    2 type  1   force =     0.00000464    0.00017796   -0.17484197
     atom    3 type  2   force =     0.00002799   -0.00043772   -0.02143701
     atom    4 type  2   force =     0.00004043   -0.00080297    0.05274401
     atom    5 type  2   force =    -0.00430784   -0.00229004    0.00043330
     atom    6 type  2   force =     0.00597160   -0.00163883    0.00006519
     atom    7 type  1   force =    -0.00012347    0.00326092    0.01149832
     atom    8 type  1   force =     0.00014049    0.00253944    0.00476306
     atom    9 type  2   force =    -0.00017481    0.00026495   -0.00022482
     atom   10 type  2   force =    -0.00077727    0.00345171   -0.01162797
     atom   11 type  2   force =     0.00053122   -0.00039884    0.00027414
     atom   12 type  2   force =    -0.00002820   -0.00024449    0.00011336
     atom   13 type  1   force =    -0.00102708   -0.00039581    0.00001576
     atom   14 type  1   force =     0.00081097    0.00053544   -0.00016274
     atom   15 type  2   force =     0.00021463   -0.00010282   -0.00063363
     atom   16 type  2   force =    -0.00033044   -0.00071302    0.00091654
     atom   17 type  2   force =     0.00075932    0.00005412   -0.00061951
     atom   18 type  2   force =    -0.00042831   -0.00018214    0.00014136
     atom   19 type  1   force =     0.00054009    0.00083076    0.00034193
     atom   20 type  1   force =     0.00010679   -0.00027251   -0.00019992
     atom   21 type  2   force =     0.00008820    0.00000306    0.10303180
     atom   22 type  2   force =     0.00007606    0.00081394   -0.00018343
     atom   23 type  2   force =    -0.07229458   -0.00017036   -0.02737653
     atom   24 type  2   force =     0.07226969    0.00024188   -0.02742513
     atom   25 type  1   force =     0.00014409   -0.00024910    0.09436318
     atom   26 type  1   force =    -0.00008641   -0.00125298   -0.17482173
     atom   27 type  2   force =     0.00020680   -0.00006361   -0.02022481
     atom   28 type  2   force =     0.00009382   -0.00096157    0.04854197
     atom   29 type  2   force =    -0.00684207    0.00193458    0.00269304
     atom   30 type  2   force =     0.00839268    0.00227073    0.00215549
     atom   31 type  1   force =     0.00004677    0.00104411    0.00136757
     atom   32 type  1   force =     0.00009914   -0.00336943    0.00511844
     atom   33 type  2   force =    -0.00015890   -0.00021443    0.00012232
     atom   34 type  2   force =    -0.00192616   -0.00084130   -0.01109559
     atom   35 type  2   force =     0.00068466   -0.00019914    0.00001282
     atom   36 type  2   force =    -0.00005799    0.00010916    0.00001077
     atom   37 type  1   force =    -0.00124418   -0.00010582   -0.00037825
     atom   38 type  1   force =     0.00068072    0.00011736    0.00065552
     atom   39 type  2   force =     0.00024967   -0.00078668    0.00005600
     atom   40 type  2   force =    -0.00035629   -0.00013769    0.00021043
     atom   41 type  2   force =    -0.00087579   -0.00042330    0.00022386
     atom   42 type  2   force =     0.00041362   -0.00047121   -0.00018092
     atom   43 type  1   force =     0.00027166   -0.00002775    0.00009230
     atom   44 type  1   force =    -0.00085345   -0.00035979    0.00004113
     atom   45 type  2   force =     0.00008169    0.00003810    0.10289420
     atom   46 type  2   force =    -0.07223058   -0.00009049   -0.02730902
     atom   47 type  2   force =     0.07222737    0.00037156   -0.02736044
     atom   48 type  3   force =     0.00001837    0.00032961   -0.00087496
     atom   49 type  4   force =    -0.00008233   -0.00062888    0.00050917
     atom   50 type  5   force =    -0.00029596    0.00027861    0.00001241
     atom   51 type  2   force =     0.00066355    0.01627707   -0.01008094
     atom   52 type  5   force =    -0.00142548   -0.01688193    0.00920195

     Total force =     0.362617     Total SCF correction =     0.000606
  @ DRIVER MODE: Message from server: STATUS
  @ DRIVER MODE: Message from server: GETFORCE
  @ DRIVER MODE: Returning v,forces,stress,ensemble

     Writing output data file ./calc.save/
  @ DRIVER MODE: Message from server: EXIT
  @ DRIVE MODE: Exiting

     General routines

     Parallel routines

   This run was terminated on:   9:11:36  28Sep2021

   JOB DONE.