     Program PWSCF v.6.7GPU starts on 23Jul2021 at  4:25:40

     R & G space division:  proc/nbgrp/npool/nimage =      16
     Reading input from /storage/home/hcoda1/3/ntian30/research/carbon/1Jul_vib/slab/rutile_O_br_vacant/out_0028/pw.inp
Warning: card &CELL ignored
Warning: card   CELL_DYNAMICS='IPI', ignored
Warning: card / ignored

     Current dimensions of program PWSCF are:
     Max number of different atomic species (ntypx) = 10
     Max number of k-points (npk) =  40000
     Max angular momentum in pseudopotentials (lmaxx) =  3
     Presently no symmetry can be used with electric field

     Message from routine cell_base_init:
     DEPRECATED: use true lattice parameter, not A to a.u. conversion factor

     IMPORTANT: XC functional enforced from input :
     Exchange-correlation= BEEF-VDW
                           (   1   4  43  14   2   0   0)
     Any further DFT definition will be discarded
     Please, verify this is what you really want

  @ DRIVER MODE: Connecting to
 qe_1139763_2402406.sched-torque.pace.gatech.edu0592db35_scratch
  using UNIX socket
  @ DRIVER MODE: Message from server: STATUS
  @ DRIVER MODE: Message from server: INIT
  @ DRIVER MODE: Receiving replica           0          -1
  @ DRIVER MODE: Receiving encoded integer          25
  @ DRIVER MODE:  SCF:  T  FORCE:  T  STRESS:  F  VC:  F  ENSEMBLE:  F
  @ DRIVER MODE:  SCF:  T  FORCE:  T  STRESS:  F  VC:  F  ENSEMBLE:  F

     Using Slab Decomposition

     bravais-lattice index     =            0
     lattice parameter (alat)  =       1.8897  a.u.
     unit-cell volume          =    6658.9804 (a.u.)^3
     number of atoms/cell      =           47
     number of atomic types    =            2
     number of electrons       =       378.00
     number of Kohn-Sham states=          199
     kinetic-energy cutoff     =      29.3995  Ry
     charge density cutoff     =     293.9946  Ry
     scf convergence threshold =      7.3E-08
     mixing beta               =       0.0500
     number of iterations used =            8  plain     mixing
     Exchange-correlation= BEEF-VDW
                           (   1   4  43  14   2   0   0)

     celldm(1)=   1.889726  celldm(2)=   0.000000  celldm(3)=   0.000000
     celldm(4)=   0.000000  celldm(5)=   0.000000  celldm(6)=   0.000000

     crystal axes: (cart. coord. in units of alat)
               a(1) = (   6.579727   0.000000   0.000000 )
               a(2) = (  -0.000775   5.961596   0.000000 )
               a(3) = (   0.000000   0.000000  25.155947 )

     reciprocal axes: (cart. coord. in units 2 pi/alat)
               b(1) = (  0.151982  0.000020  0.000000 )
               b(2) = (  0.000000  0.167740  0.000000 )
               b(3) = (  0.000000  0.000000  0.039752 )

     PseudoPot. # 1 for Ti read from file:
     /storage/coda1/p-amedford6/0/shared/rich_project_chbe-medford/medford-share/data/pseudos_module/espresso/nninc/pbe/van/Ti.UPF
     MD5 check sum: 8e4df49b7f0d34bbd5052bf3f5ea0213
     Pseudo is Ultrasoft, Zval = 12.0
     Generated by new atomic code, or converted to UPF format
     Using radial grid of  851 points,  6 beta functions with:
                l(1) =   0
                l(2) =   0
                l(3) =   1
                l(4) =   1
                l(5) =   2
                l(6) =   2
     Q(r) pseudized with  8 coefficients,  rinner =    1.000   1.000   1.000
                                                       1.000   1.000

     PseudoPot. # 2 for O  read from file:
     /storage/coda1/p-amedford6/0/shared/rich_project_chbe-medford/medford-share/data/pseudos_module/espresso/nninc/pbe/van/O.UPF
     MD5 check sum: 78c19812648e8988a0fe644b0f25305e
     Pseudo is Ultrasoft, Zval =  6.0
     Generated by new atomic code, or converted to UPF format
     Using radial grid of  737 points,  4 beta functions with:
                l(1) =   0
                l(2) =   0
                l(3) =   1
                l(4) =   1
     Q(r) pseudized with  8 coefficients,  rinner =    0.800   0.800   0.800

     atomic species   valence    mass     pseudopotential
        Ti1           12.00    47.86700     Ti( 1.00)
        O1             6.00    15.99900     O ( 1.00)

     Starting magnetic structure
     atomic species   magnetization
        Ti1          0.000
        O1           0.000

     No symmetry found

   Cartesian axes

     site n.     atom                  positions (alat units)
         1           Ti1 tau(   1) = (   0.0004258   2.9801865   6.0000000  )
         2           Ti1 tau(   2) = (   3.2906075   1.4906267   6.0002472  )
         3           O1  tau(   3) = (   0.0006271   0.0005054   7.9858123  )
         4           O1  tau(   4) = (   3.2906025   0.0005020   7.3038282  )
         5           O1  tau(   5) = (   4.5942328   1.4918067   9.2879030  )
         6           O1  tau(   6) = (   1.9868534   1.4903216   9.2879459  )
         7           Ti1 tau(   7) = (   3.2895655   2.9803496   9.1561551  )
         8           Ti1 tau(   8) = (   6.5792279   1.4901203   9.2542590  )
         9           O1  tau(   9) = (   3.2908496   0.0003861  11.3974292  )
        10           O1  tau(  10) = (   0.0009741   0.0005107  10.6121890  )
        11           O1  tau(  11) = (   1.2851668   1.4970119  12.6717501  )
        12           O1  tau(  12) = (   5.2960956   1.4969944  12.6716611  )
        13           Ti1 tau(  13) = (   0.0014209   2.9817635  12.4865077  )
        14           Ti1 tau(  14) = (   3.2920103   1.4923710  12.5431595  )
        15           O1  tau(  15) = (   0.0005111   0.0003601  14.6908606  )
        16           O1  tau(  16) = (   3.2907661   0.0003422  14.0280135  )
        17           O1  tau(  17) = (   4.5563287   1.5043111  16.1972802  )
        18           O1  tau(  18) = (   2.0238984   1.5042417  16.1969189  )
        19           Ti1 tau(  19) = (   3.2900530   2.9812534  15.7923096  )
        20           Ti1 tau(  20) = (   0.0002900   1.3462356  15.9516996  )
        21           O1  tau(  21) = (   3.2904802   0.0005063   4.7018136  )
        22           O1  tau(  22) = (   0.0005067   0.0002908  17.2230471  )
        23           O1  tau(  23) = (   1.3043587   1.4918075   6.0039043  )
        24           O1  tau(  24) = (   5.2767064   1.4903225   6.0039473  )
        25           Ti1 tau(  25) = (   0.0000382   5.9609847   6.0000000  )
        26           Ti1 tau(  26) = (   3.2902200   4.4714249   6.0002472  )
        27           O1  tau(  27) = (   0.0002396   2.9813036   7.9858123  )
        28           O1  tau(  28) = (   3.2902150   2.9813002   7.3038282  )
        29           O1  tau(  29) = (   4.5938453   4.4726049   9.2879030  )
        30           O1  tau(  30) = (   1.9864658   4.4711199   9.2879459  )
        31           Ti1 tau(  31) = (   3.2890184   5.9611387   9.1545655  )
        32           Ti1 tau(  32) = (   6.5788211   4.4731772   9.2541010  )
        33           O1  tau(  33) = (   3.2904314   2.9811918  11.3932170  )
        34           O1  tau(  34) = (   0.0006808   2.9813391  10.6259032  )
        35           O1  tau(  35) = (   1.2847872   4.4655815  12.6717948  )
        36           O1  tau(  36) = (   5.2956760   4.4653813  12.6716352  )
        37           Ti1 tau(  37) = (   0.0020938   0.0010105  12.4782417  )
        38           Ti1 tau(  38) = (   3.2917349   4.4701355  12.5431901  )
        39           O1  tau(  39) = (   0.0000992   2.9811129  15.0245885  )
        40           O1  tau(  40) = (   3.2903432   2.9811263  13.9978513  )
        41           O1  tau(  41) = (   4.5559250   4.4580163  16.1971803  )
        42           O1  tau(  42) = (   2.0234811   4.4579909  16.1969720  )
        43           Ti1 tau(  43) = (   3.2904469   0.0004528  15.8318627  )
        44           Ti1 tau(  44) = (   0.0000435   4.6159127  15.9515978  )
        45           O1  tau(  45) = (   3.2900926   2.9813045   4.7018136  )
        46           O1  tau(  46) = (   1.3039711   4.4826057   6.0039043  )
        47           O1  tau(  47) = (   5.2763189   4.4711207   6.0039473  )

     number of k points=    10  Fermi-Dirac smearing, width (Ry)=  0.0073
                       cart. coord. in units 2pi/alat
        k(    1) = (   0.0000000   0.0000000   0.0000000), wk =   0.0625000
        k(    2) = (   0.0000000   0.0419351   0.0000000), wk =   0.1250000
        k(    3) = (   0.0000000  -0.0838702   0.0000000), wk =   0.0625000
        k(    4) = (   0.0379955   0.0000049   0.0000000), wk =   0.1250000
        k(    5) = (   0.0379955   0.0419400   0.0000000), wk =   0.1250000
        k(    6) = (   0.0379955  -0.0838652   0.0000000), wk =   0.1250000
        k(    7) = (   0.0379955  -0.0419301   0.0000000), wk =   0.1250000
        k(    8) = (  -0.0759910  -0.0000099   0.0000000), wk =   0.0625000
        k(    9) = (  -0.0759910   0.0419252   0.0000000), wk =   0.1250000
        k(   10) = (  -0.0759910  -0.0838800   0.0000000), wk =   0.0625000

     Initial potential from superposition of free atoms

     starting charge  361.99925, renormalised to  378.00000

     negative rho (up, down):  1.184E-02 1.184E-02

     %%%%%%%%%%%%%%%%%%%%%%%%%%%%%%%%%%%%%%%%%%%%%%%%%%%%%%%%%%%%%%%%%%%%%%%%
     %                                                                      %
     % You are using vdW-DF, which was implemented by the Thonhauser group. %
     % Please cite the following two papers that made this development      %
     % possible and the two reviews that describe the various versions:     %
     %                                                                      %
     %   T. Thonhauser et al., PRL 115, 136402 (2015).                      %
     %   T. Thonhauser et al., PRB 76, 125112 (2007).                       %
     %   K. Berland et al., Rep. Prog. Phys. 78, 066501 (2015).             %
     %   D.C. Langreth et al., J. Phys.: Condens. Matter 21, 084203 (2009). %
     %                                                                      %
     %                                                                      %
     % If you are calculating the stress with vdW-DF, please also cite:     %
     %                                                                      %
     %   R. Sabatini et al., J. Phys.: Condens. Matter 24, 424209 (2012).   %
     %                                                                      %
     %%%%%%%%%%%%%%%%%%%%%%%%%%%%%%%%%%%%%%%%%%%%%%%%%%%%%%%%%%%%%%%%%%%%%%%%

     Adding external electric field

     Computed dipole along edir(3) :
        Dipole                1.1416 Ry au,          2.9015 Debye
        Dipole field          0.0022 Ry au,

        Potential amp.       -0.1997 Ry
        Total length         46.3494 bohr

[...]

     Starting wfcs are  284 atomic wfcs
  @ DRIVER MODE: Message from server: STATUS
  @ DRIVER MODE: Message from server: POSDATA
  @ DRIVER MODE: Reading and sharing cell
  @ DRIVER MODE: Reading and sharing positions
  @ DRIVER MODE: Received positions

     Self-consistent Calculation

     iteration #  1     ecut=    29.40 Ry     beta= 0.05
     Davidson diagonalization with overlap
     c_bands:  2 eigenvalues not converged
     c_bands:  3 eigenvalues not converged
     c_bands:  2 eigenvalues not converged
     c_bands:  3 eigenvalues not converged
     c_bands:  1 eigenvalues not converged
     c_bands:  2 eigenvalues not converged
     c_bands:  1 eigenvalues not converged
     c_bands:  1 eigenvalues not converged
     c_bands:  3 eigenvalues not converged
     c_bands:  2 eigenvalues not converged
     c_bands:  2 eigenvalues not converged
     c_bands:  3 eigenvalues not converged
     c_bands:  2 eigenvalues not converged
     c_bands:  3 eigenvalues not converged
     c_bands:  1 eigenvalues not converged
     c_bands:  2 eigenvalues not converged
     c_bands:  1 eigenvalues not converged
     c_bands:  1 eigenvalues not converged
     c_bands:  3 eigenvalues not converged
     c_bands:  2 eigenvalues not converged
     ethr =  1.00E-05,  avg # of iterations = 20.0

[...]

     total energy              =   -2885.09645112 Ry
     estimated scf accuracy    <      12.51186750 Ry

     total magnetization       =    -0.00 Bohr mag/cell
     absolute magnetization    =     0.00 Bohr mag/cell

     iteration #  2     ecut=    29.40 Ry     beta= 0.05
     Davidson diagonalization with overlap
     ethr =  3.31E-03,  avg # of iterations =  1.0

[...]

     iteration # 50     ecut=    29.40 Ry     beta= 0.05
     Davidson diagonalization with overlap
     c_bands:  1 eigenvalues not converged
     c_bands:  1 eigenvalues not converged
     ethr =  4.05E-11,  avg # of iterations = 13.1

[...]

     total energy              =   -2883.85318100 Ry
     estimated scf accuracy    <       0.00000024 Ry

[...]

     iteration # 51     ecut=    29.40 Ry     beta= 0.05
     Davidson diagonalization with overlap
     ethr =  4.05E-11,  avg # of iterations =  7.8

     negative rho (up, down):  1.071E-02 1.071E-02

[...]

     Adding external electric field

     Computed dipole along edir(3) :
        Dipole                0.5587 Ry au,          1.4200 Debye
        Dipole field          0.0011 Ry au,

        Potential amp.       -0.0977 Ry
        Total length         46.3494 bohr

     Magnetic moment per site  (integrated on atomic sphere of radius R)
     atom   1 (R=0.740)  charge=  8.0666  magn= -0.0000
     atom   2 (R=0.740)  charge=  8.0461  magn= -0.0000
     atom   3 (R=0.740)  charge=  5.0352  magn= -0.0000
     atom   4 (R=0.740)  charge=  5.0740  magn= -0.0000
     atom   5 (R=0.740)  charge=  5.0338  magn= -0.0000
     atom   6 (R=0.740)  charge=  5.0338  magn= -0.0000
     atom   7 (R=0.740)  charge=  8.0460  magn=  0.0000
     atom   8 (R=0.740)  charge=  8.0493  magn=  0.0000
     atom   9 (R=0.740)  charge=  5.0395  magn= -0.0000
     atom  10 (R=0.740)  charge=  5.0477  magn= -0.0000
     atom  11 (R=0.740)  charge=  5.0325  magn= -0.0000
     atom  12 (R=0.740)  charge=  5.0326  magn= -0.0000
     atom  13 (R=0.740)  charge=  8.0561  magn=  0.0000
     atom  14 (R=0.740)  charge=  8.0499  magn=  0.0000
     atom  15 (R=0.740)  charge=  5.0483  magn= -0.0000
     atom  16 (R=0.740)  charge=  5.0335  magn= -0.0000
     atom  17 (R=0.740)  charge=  5.0152  magn= -0.0000
     atom  18 (R=0.740)  charge=  5.0151  magn= -0.0000
     atom  19 (R=0.740)  charge=  8.0776  magn=  0.0000
     atom  20 (R=0.740)  charge=  8.0902  magn=  0.0000
     atom  21 (R=0.740)  charge=  4.9131  magn=  0.0000
     atom  22 (R=0.740)  charge=  4.9955  magn= -0.0000
     atom  23 (R=0.740)  charge=  5.0274  magn=  0.0000
     atom  24 (R=0.740)  charge=  5.0275  magn=  0.0000
     atom  25 (R=0.740)  charge=  8.0667  magn= -0.0000
     atom  26 (R=0.740)  charge=  8.0461  magn= -0.0000
     atom  27 (R=0.740)  charge=  5.0345  magn= -0.0000
     atom  28 (R=0.740)  charge=  5.0736  magn= -0.0000
     atom  29 (R=0.740)  charge=  5.0338  magn= -0.0000
     atom  30 (R=0.740)  charge=  5.0338  magn= -0.0000
     atom  31 (R=0.740)  charge=  8.0464  magn=  0.0000
     atom  32 (R=0.740)  charge=  8.0494  magn=  0.0000
     atom  33 (R=0.740)  charge=  5.0395  magn= -0.0000
     atom  34 (R=0.740)  charge=  5.0426  magn= -0.0000
     atom  35 (R=0.740)  charge=  5.0324  magn= -0.0000
     atom  36 (R=0.740)  charge=  5.0326  magn= -0.0000
     atom  37 (R=0.740)  charge=  8.0520  magn=  0.0000
     atom  38 (R=0.740)  charge=  8.0499  magn=  0.0000
     atom  39 (R=0.740)  charge=  5.0311  magn= -0.0000
     atom  40 (R=0.740)  charge=  5.0467  magn= -0.0000
     atom  41 (R=0.740)  charge=  5.0152  magn= -0.0000
     atom  42 (R=0.740)  charge=  5.0151  magn= -0.0000
     atom  43 (R=0.740)  charge=  8.0771  magn=  0.0000
     atom  44 (R=0.740)  charge=  8.0902  magn=  0.0000
     atom  45 (R=0.740)  charge=  4.9132  magn=  0.0000
     atom  46 (R=0.740)  charge=  5.0273  magn=  0.0000
     atom  47 (R=0.740)  charge=  5.0275  magn=  0.0000

     End of self-consistent calculation

 ------ SPIN UP ------------

          k = 0.0000 0.0000 0.0000 ( 18029 PWs)   bands (ev):

   -56.2743 -56.2384 -56.2238 -56.1884 -56.1546 -56.1414 -56.1127 -56.1068
   -56.0891 -56.0799 -56.0786 -56.0521 -56.0251 -56.0182 -55.3379 -55.3038
   -32.8363 -32.7911 -32.7254 -32.6263 -32.5853 -32.5798 -32.5765 -32.5667
   -32.5137 -32.5004 -32.4797 -32.4734 -32.4681 -32.4445 -32.4439 -32.4241
   -32.4119 -32.4105 -32.3976 -32.3884 -32.3758 -32.3750 -32.3721 -32.3708
   -32.3457 -32.3442 -32.3219 -32.2782 -32.2720 -32.2628 -32.2622 -32.2561
   -32.2502 -32.2406 -32.2402 -32.2352 -32.2306 -32.2097 -32.2005 -32.1850
   -32.1675 -32.1073 -31.7506 -31.6459 -31.6246 -31.5665 -31.4802 -31.3693
   -17.1055 -16.8830 -16.7405 -16.6041 -16.5022 -16.3989 -16.2752 -16.2248
   -16.1711 -16.0244 -15.9648 -15.9400 -15.9001 -15.8759 -15.8682 -15.8535
   -15.8304 -15.8142 -15.7936 -15.7854 -15.7695 -15.7691 -15.7206 -15.6683
   -15.5748 -15.5072 -15.4367 -15.3795 -15.0543 -13.8388 -13.7189  -4.4259
    -4.2908  -4.2164  -4.2014  -4.1500  -4.0398  -3.8193  -3.7957  -3.7300
    -3.5739  -3.5259  -3.4686  -3.4088  -3.3392  -3.2819  -3.2717  -3.1703
    -3.1455  -3.1410  -3.1350  -3.0531  -3.0506  -3.0284  -3.0017  -2.9627
    -2.8713  -2.7517  -2.7073  -2.6733  -2.6522  -2.6444  -2.6215  -2.5923
    -2.5603  -2.5263  -2.5250  -2.4894  -2.4474  -2.3237  -2.1763  -2.1323
    -2.0629  -1.9707  -1.8994  -1.8341  -1.7937  -1.7560  -1.7314  -1.6820
    -1.6509  -1.6184  -1.5410  -1.4520  -1.4102  -1.3066  -1.2893  -1.2223
    -1.1869  -1.1136  -1.0704  -1.0696  -1.0265  -0.9388  -0.9115  -0.7874
    -0.7601  -0.7519  -0.7398  -0.7302  -0.6199  -0.5168  -0.4858  -0.4785
    -0.4767  -0.3919  -0.3417  -0.3347  -0.3200  -0.3126  -0.2629  -0.1875
    -0.1470  -0.0960   0.0467   0.2732   0.2737   0.3390   0.5715   0.6422
     0.6883   0.8452   1.2738   1.3279   2.8237   2.8892   2.9204   2.9538
     2.9819   3.0301   3.3204   3.3342   3.3577   3.3854   3.4030

[...]

          k =-0.0760-0.0000 0.0000 ( 17886 PWs)   bands (ev):

[...]

 ------ SPIN DOWN ----------

[...]

          k = 0.0380-0.0419 0.0000 ( 17876 PWs)   bands (ev):

[...]

          k =-0.0760-0.0839 0.0000 ( 17948 PWs)   bands (ev):

   -56.2565 -56.2560 -56.2105 -56.2015 -56.1504 -56.1263 -56.1218 -56.0958
   -56.0952 -56.0840 -56.0825 -56.0354 -56.0349 -56.0315 -55.3208 -55.3207
   -32.7146 -32.6419 -32.6391 -32.5436 -32.5398 -32.5366 -32.5253 -32.5022
   -32.4952 -32.4720 -32.4682 -32.4678 -32.4616 -32.4190 -32.4170 -32.4162
   -32.4104 -32.4103 -32.3959 -32.3902 -32.3893 -32.3853 -32.3738 -32.3582
   -32.3557 -32.3523 -32.3509 -32.3462 -32.3273 -32.3204 -32.3190 -32.3145
   -32.2916 -32.2913 -32.2654 -32.2651 -32.2649 -32.2638 -32.2341 -32.2209
   -32.2206 -32.2121 -31.6372 -31.6371 -31.5632 -31.5631 -31.5234 -31.5233
   -16.8132 -16.4586 -16.4198 -16.3351 -16.3263 -16.2278 -16.2075 -16.1191
   -16.0774 -16.0539 -16.0523 -15.9998 -15.9803 -15.9596 -15.9569 -15.8943
   -15.8794 -15.8502 -15.8478 -15.7926 -15.7923 -15.7893 -15.7859 -15.7520
   -15.7488 -15.7092 -15.7080 -15.6048 -15.4379 -13.8213 -13.8184  -3.8295
    -3.7278  -3.6731  -3.5583  -3.4833  -3.4475  -3.4014  -3.3912  -3.3181
    -3.2744  -3.2697  -3.1887  -3.1761  -3.1756  -3.1629  -3.1009  -3.0862
    -3.0621  -3.0367  -3.0111  -2.9845  -2.9717  -2.9687  -2.9442  -2.9433
    -2.9216  -2.9200  -2.8847  -2.8629  -2.8420  -2.8274  -2.6649  -2.6617
    -2.5749  -2.5163  -2.5140  -2.4351  -2.4263  -2.3822  -2.3493  -2.2919
    -2.2531  -2.0971  -2.0755  -2.0735  -2.0073  -1.9807  -1.9120  -1.8540
    -1.8391  -1.7916  -1.7337  -1.6164  -1.5976  -1.5731  -1.4672  -1.4661
    -1.3918  -1.3170  -1.2737  -1.2685  -1.2643  -1.2348  -1.2301  -1.2300
    -1.1205  -1.0640  -1.0200  -1.0121  -1.0003  -0.7956  -0.7356  -0.7225
    -0.6097  -0.5564  -0.3726  -0.3667  -0.3252  -0.2110  -0.2081  -0.2077
    -0.1563  -0.0318  -0.0206   0.0476   0.0902   0.1030   0.1426   0.1434
     1.0371   1.0376   1.1433   1.1481   2.9946   3.0768   3.0825   3.1317
     3.2713   3.3231   3.3300   3.3728   3.3765   3.3785   3.4567

     the Fermi energy is     2.8892 ev

!    total energy              =   -2883.85326944 Ry
     estimated scf accuracy    <       0.00000003 Ry
     smearing contrib. (-TS)   =      -0.03660711 Ry
     internal energy E=F+TS    =   -2883.81666233 Ry

     The total energy is F=E-TS. E is the sum of the following terms:
     one-electron contribution =  -24914.68515479 Ry
     hartree contribution      =   12532.19539724 Ry
     xc contribution           =    -468.94618149 Ry
     ewald contribution        =    9967.61868775 Ry
     electric field correction =       0.00058896 Ry

     total magnetization       =     0.00 Bohr mag/cell
     absolute magnetization    =     0.00 Bohr mag/cell

     convergence has been achieved in  51 iterations

     Forces acting on atoms (cartesian axes, Ry/au):

     atom    1 type  1   force =    -0.00011181   -0.00008333    0.08989269
     atom    2 type  1   force =    -0.00003869    0.00003617   -0.18454506
     atom    3 type  2   force =    -0.00012822    0.00012034   -0.02375368
     atom    4 type  2   force =     0.00021932    0.00012324    0.05207910
     atom    5 type  2   force =    -0.01337602   -0.00020543    0.00585686
     atom    6 type  2   force =     0.01334806    0.00023991    0.00582604
     atom    7 type  1   force =    -0.00002335    0.00002417    0.00055984
     atom    8 type  1   force =     0.00001842    0.00025050    0.00040683
     atom    9 type  2   force =     0.00001645    0.00001488    0.00083245
     atom   10 type  2   force =     0.00001802    0.00000676   -0.00042021
     atom   11 type  2   force =     0.00015764   -0.00023401    0.00048931
     atom   12 type  2   force =    -0.00018145   -0.00025437    0.00049137
     atom   13 type  1   force =    -0.00000037   -0.00000542   -0.00075777
     atom   14 type  1   force =     0.00004051   -0.00074121    0.00055930
     atom   15 type  2   force =    -0.00000212   -0.00001658   -0.00070936
     atom   16 type  2   force =     0.00001857    0.00001105    0.00015176
     atom   17 type  2   force =    -0.00005039    0.00023359    0.00002171
     atom   18 type  2   force =     0.00006641    0.00023533    0.00002703
     atom   19 type  1   force =    -0.00001848   -0.00000669   -0.00078531
     atom   20 type  1   force =     0.00002779    0.00016760   -0.00004376
     atom   21 type  2   force =     0.00039214    0.00029318    0.10523500
     atom   22 type  2   force =    -0.00001598   -0.00000567    0.00047122
     atom   23 type  2   force =    -0.06754890    0.00054139   -0.02601760
     atom   24 type  2   force =     0.06745679    0.00152026   -0.02605294
     atom   25 type  1   force =     0.00024328   -0.00000106    0.08888587
     atom   26 type  1   force =    -0.00005797   -0.00016392   -0.18455997
     atom   27 type  2   force =     0.00019198    0.00010271   -0.02361570
     atom   28 type  2   force =    -0.00023709    0.00012839    0.05183520
     atom   29 type  2   force =    -0.01338299   -0.00031178    0.00585512
     atom   30 type  2   force =     0.01335411    0.00019366    0.00582362
     atom   31 type  1   force =    -0.00004226    0.00001187    0.00067103
     atom   32 type  1   force =     0.00000334   -0.00021211    0.00042660
     atom   33 type  2   force =     0.00001084    0.00001099   -0.00034671
     atom   34 type  2   force =    -0.00003192   -0.00000166    0.00008793
     atom   35 type  2   force =     0.00015114    0.00025890    0.00049117
     atom   36 type  2   force =    -0.00017610    0.00025189    0.00049315
     atom   37 type  1   force =    -0.00000216   -0.00002346    0.00081760
     atom   38 type  1   force =     0.00002530    0.00076268    0.00054972
     atom   39 type  2   force =    -0.00001745   -0.00000136   -0.00040318
     atom   40 type  2   force =     0.00001554    0.00001226   -0.00047839
     atom   41 type  2   force =    -0.00004913   -0.00022728    0.00002006
     atom   42 type  2   force =     0.00007172   -0.00023255    0.00002597
     atom   43 type  1   force =    -0.00001170   -0.00000564    0.00042286
     atom   44 type  1   force =    -0.00003436   -0.00015802   -0.00004302
     atom   45 type  2   force =    -0.00027861    0.00030518    0.10529621
     atom   46 type  2   force =    -0.06748096   -0.00298947   -0.02601490
     atom   47 type  2   force =     0.06745113    0.00002412   -0.02605503

     Total force =     0.366856     Total SCF correction =     0.000390
  @ DRIVER MODE: Message from server: STATUS
  @ DRIVER MODE: Message from server: GETFORCE
  @ DRIVER MODE: Returning v,forces,stress,ensemble

     Writing output data file ./calc.save/
  @ DRIVER MODE: Message from server: EXIT
  @ DRIVE MODE: Exiting

     General routines

     Parallel routines

   This run was terminated on:   4:54:39  23Jul2021

   JOB DONE.