     Program PWSCF v.6.7GPU starts on  9Sep2021 at  1:33:36

     R & G space division:  proc/nbgrp/npool/nimage =      10
     Reading input from /storage/home/hcoda1/3/ntian30/research/carbon/CxH_vib/CH_calc/ads_slab/CHN2H_a/out_0011/pw.inp
Warning: card &CELL ignored
Warning: card   CELL_DYNAMICS='IPI', ignored
Warning: card / ignored

     Current dimensions of program PWSCF are:
     Max number of different atomic species (ntypx) = 10
     Max number of k-points (npk) =  40000
     Max angular momentum in pseudopotentials (lmaxx) =  3
     Presently no symmetry can be used with electric field

     Message from routine cell_base_init:
     DEPRECATED: use true lattice parameter, not A to a.u. conversion factor

     IMPORTANT: XC functional enforced from input :
     Exchange-correlation= BEEF-VDW
                           (   1   4  43  14   2   0   0)
     Any further DFT definition will be discarded
     Please, verify this is what you really want

  @ DRIVER MODE: Connecting to
 qe_1139763_2767376.sched-torque.pace.gatech.eduex4uiym4_scratch
  using UNIX socket
  @ DRIVER MODE: Message from server: STATUS
  @ DRIVER MODE: Message from server: INIT
  @ DRIVER MODE: Receiving replica           0          -1
  @ DRIVER MODE: Receiving encoded integer          25
  @ DRIVER MODE:  SCF:  T  FORCE:  T  STRESS:  F  VC:  F  ENSEMBLE:  F
  @ DRIVER MODE:  SCF:  T  FORCE:  T  STRESS:  F  VC:  F  ENSEMBLE:  F

     Using Slab Decomposition

     bravais-lattice index     =            0
     lattice parameter (alat)  =       1.8897  a.u.
     unit-cell volume          =    6658.9804 (a.u.)^3
     number of atoms/cell      =           52
     number of atomic types    =            5
     number of electrons       =       394.00
     number of Kohn-Sham states=          207
     kinetic-energy cutoff     =      29.3995  Ry
     charge density cutoff     =     293.9946  Ry
     scf convergence threshold =      7.3E-08
     mixing beta               =       0.0500
     number of iterations used =            8  plain     mixing
     Exchange-correlation= BEEF-VDW
                           (   1   4  43  14   2   0   0)

     celldm(1)=   1.889726  celldm(2)=   0.000000  celldm(3)=   0.000000
     celldm(4)=   0.000000  celldm(5)=   0.000000  celldm(6)=   0.000000

     crystal axes: (cart. coord. in units of alat)
               a(1) = (   6.579727   0.000000   0.000000 )
               a(2) = (  -0.000775   5.961596   0.000000 )
               a(3) = (   0.000000   0.000000  25.155947 )

     reciprocal axes: (cart. coord. in units 2 pi/alat)
               b(1) = (  0.151982  0.000020  0.000000 )
               b(2) = (  0.000000  0.167740  0.000000 )
               b(3) = (  0.000000  0.000000  0.039752 )

     PseudoPot. # 1 for Ti read from file:
     /storage/coda1/p-amedford6/0/shared/rich_project_chbe-medford/medford-share/data/pseudos_module/espresso/nninc/pbe/van/Ti.UPF
     MD5 check sum: 8e4df49b7f0d34bbd5052bf3f5ea0213
     Pseudo is Ultrasoft, Zval = 12.0
     Generated by new atomic code, or converted to UPF format
     Using radial grid of  851 points,  6 beta functions with:
                l(1) =   0
                l(2) =   0
                l(3) =   1
                l(4) =   1
                l(5) =   2
                l(6) =   2
     Q(r) pseudized with  8 coefficients,  rinner =    1.000   1.000   1.000
                                                       1.000   1.000

     PseudoPot. # 2 for O  read from file:
     /storage/coda1/p-amedford6/0/shared/rich_project_chbe-medford/medford-share/data/pseudos_module/espresso/nninc/pbe/van/O.UPF
     MD5 check sum: 78c19812648e8988a0fe644b0f25305e
     Pseudo is Ultrasoft, Zval =  6.0
     Generated by new atomic code, or converted to UPF format
     Using radial grid of  737 points,  4 beta functions with:
                l(1) =   0
                l(2) =   0
                l(3) =   1
                l(4) =   1
     Q(r) pseudized with  8 coefficients,  rinner =    0.800   0.800   0.800

     PseudoPot. # 3 for N  read from file:
     /storage/coda1/p-amedford6/0/shared/rich_project_chbe-medford/medford-share/data/pseudos_module/espresso/nninc/pbe/van/N.UPF
     MD5 check sum: 90d10febe142ad51ac9d5be1deb811c4
     Pseudo is Ultrasoft, Zval =  5.0
     Generated by new atomic code, or converted to UPF format
     Using radial grid of  729 points,  4 beta functions with:
                l(1) =   0
                l(2) =   0
                l(3) =   1
                l(4) =   1
     Q(r) pseudized with  8 coefficients,  rinner =    0.800   0.800   0.800

     PseudoPot. # 4 for C  read from file:
     /storage/coda1/p-amedford6/0/shared/rich_project_chbe-medford/medford-share/data/pseudos_module/espresso/nninc/pbe/van/C.UPF
     MD5 check sum: 1a69bf6b8db32088f5b2163dbdb77a27
     Pseudo is Ultrasoft, Zval =  4.0
     Generated by new atomic code, or converted to UPF format
     Using radial grid of  721 points,  4 beta functions with:
                l(1) =   0
                l(2) =   0
                l(3) =   1
                l(4) =   1
     Q(r) pseudized with  8 coefficients,  rinner =    0.800   0.800   0.800

     PseudoPot. # 5 for H  read from file:
     /storage/coda1/p-amedford6/0/shared/rich_project_chbe-medford/medford-share/data/pseudos_module/espresso/nninc/pbe/van/H.UPF
     MD5 check sum: b5ee9d7bfd3a09ee7748110bda690ff7
     Pseudo is Ultrasoft, Zval =  1.0
     Generated by new atomic code, or converted to UPF format
     Using radial grid of  615 points,  1 beta functions with:
                l(1) =   0
     Q(r) pseudized with  8 coefficients,  rinner =    0.800

     atomic species   valence    mass     pseudopotential
        Ti1           12.00    47.86700     Ti( 1.00)
        O1             6.00    15.99900     O ( 1.00)
        N1             5.00    14.00700     N ( 1.00)
        C1             4.00    12.01100     C ( 1.00)
        H1             1.00     1.00800     H ( 1.00)

     No symmetry found

   Cartesian axes

     site n.     atom                  positions (alat units)
         1           Ti1 tau(   1) = (   0.0004258   2.9801865   6.0000000  )
         2           Ti1 tau(   2) = (   3.2906075   1.4906267   6.0002472  )
         3           O1  tau(   3) = (   0.0006271   0.0005054   7.9858123  )
         4           O1  tau(   4) = (   3.2906025   0.0005020   7.3038282  )
         5           O1  tau(   5) = (   4.5942328   1.4918067   9.2879030  )
         6           O1  tau(   6) = (   1.9868534   1.4903216   9.2879459  )
         7           Ti1 tau(   7) = (   3.2907910   2.8959150   9.1758416  )
         8           Ti1 tau(   8) = (   0.0015273   1.4827037   9.2680791  )
         9           O1  tau(   9) = (   3.3079035   5.9465650  11.3667630  )
        10           O1  tau(  10) = (   0.0116148   5.9584955  10.6183126  )
        11           O1  tau(  11) = (   1.3159687   1.4802111  12.6598234  )
        12           O1  tau(  12) = (   5.3141237   1.4785834  12.6569702  )
        13           Ti1 tau(  13) = (   0.0356438   2.9569522  12.5500042  )
        14           Ti1 tau(  14) = (   3.3321116   1.4682926  12.5176941  )
        15           O1  tau(  15) = (   0.0287262   5.9365737  14.6848071  )
        16           O1  tau(  16) = (   3.3260766   5.9477468  13.9918032  )
        17           O1  tau(  17) = (   4.5788076   1.5006004  16.1778977  )
        18           O1  tau(  18) = (   2.0653823   1.4932191  16.1519216  )
        19           Ti1 tau(  19) = (   3.3252840   2.9629899  15.7366588  )
        20           Ti1 tau(  20) = (   0.0567170   1.3280226  15.9864722  )
        21           O1  tau(  21) = (   3.2904802   0.0005063   4.7018136  )
        22           O1  tau(  22) = (   0.0395201   5.9563027  17.2132275  )
        23           O1  tau(  23) = (   1.3043587   1.4918075   6.0039043  )
        24           O1  tau(  24) = (   5.2767064   1.4903225   6.0039473  )
        25           Ti1 tau(  25) = (   0.0000382   5.9609847   6.0000000  )
        26           Ti1 tau(  26) = (   3.2902200   4.4714249   6.0002472  )
        27           O1  tau(  27) = (   0.0002396   2.9813036   7.9858123  )
        28           O1  tau(  28) = (   3.2902150   2.9813002   7.3038282  )
        29           O1  tau(  29) = (   4.5938453   4.4726049   9.2879030  )
        30           O1  tau(  30) = (   1.9864658   4.4711199   9.2879459  )
        31           Ti1 tau(  31) = (   3.2891106   5.8743827   9.1763621  )
        32           Ti1 tau(  32) = (   0.0006254   4.4649316   9.2693709  )
        33           O1  tau(  33) = (   3.3109971   2.9638951  11.3609806  )
        34           O1  tau(  34) = (   0.0092240   2.9805883  10.6323155  )
        35           O1  tau(  35) = (   1.3172493   4.4579999  12.6547637  )
        36           O1  tau(  36) = (   5.3123203   4.4599931  12.6537913  )
        37           Ti1 tau(  37) = (   0.0349292   5.9384232  12.5038109  )
        38           Ti1 tau(  38) = (   3.3308216   4.4462378  12.5132791  )
        39           O1  tau(  39) = (   0.0262156   2.9786664  14.8481040  )
        40           O1  tau(  40) = (   3.3240488   2.9673873  13.9486158  )
        41           O1  tau(  41) = (   4.5778164   4.4375445  16.1741249  )
        42           O1  tau(  42) = (   2.0647505   4.4412733  16.1578575  )
        43           Ti1 tau(  43) = (   3.3314326   5.9455663  15.7867969  )
        44           Ti1 tau(  44) = (   0.0345939   4.5236910  15.9072353  )
        45           O1  tau(  45) = (   3.2900926   2.9813045   4.7018136  )
        46           O1  tau(  46) = (   1.3039711   4.4726057   6.0039043  )
        47           O1  tau(  47) = (   5.2763189   4.4711207   6.0039473  )
        48           N1  tau(  48) = (   0.8843530   3.1395628  18.6524426  )
        49           C1  tau(  49) = (   1.8908588   3.1194352  19.2734450  )
        50           H1  tau(  50) = (   2.4245030   3.8971110  19.8100181  )
        51           N1  tau(  51) = (   6.5588057   2.9807634  17.7841789  )
        52           H1  tau(  52) = (   5.6432114   2.8891999  18.2270943  )

     number of k points=    10  Fermi-Dirac smearing, width (Ry)=  0.0073
                       cart. coord. in units 2pi/alat
        k(    1) = (   0.0000000   0.0000000   0.0000000), wk =   0.1250000
        k(    2) = (   0.0000000   0.0419351   0.0000000), wk =   0.2500000
        k(    3) = (   0.0000000  -0.0838702   0.0000000), wk =   0.1250000
        k(    4) = (   0.0379955   0.0000049   0.0000000), wk =   0.2500000
        k(    5) = (   0.0379955   0.0419400   0.0000000), wk =   0.2500000
        k(    6) = (   0.0379955  -0.0838652   0.0000000), wk =   0.2500000
        k(    7) = (   0.0379955  -0.0419301   0.0000000), wk =   0.2500000
        k(    8) = (  -0.0759910  -0.0000099   0.0000000), wk =   0.1250000
        k(    9) = (  -0.0759910   0.0419252   0.0000000), wk =   0.2500000
        k(   10) = (  -0.0759910  -0.0838800   0.0000000), wk =   0.1250000

     Initial potential from superposition of free atoms

     starting charge  377.99917, renormalised to  394.00000

     negative rho (up, down):  1.654E-02 0.000E+00

     %%%%%%%%%%%%%%%%%%%%%%%%%%%%%%%%%%%%%%%%%%%%%%%%%%%%%%%%%%%%%%%%%%%%%%%%
     %                                                                      %
     % You are using vdW-DF, which was implemented by the Thonhauser group. %
     % Please cite the following two papers that made this development      %
     % possible and the two reviews that describe the various versions:     %
     %                                                                      %
     %   T. Thonhauser et al., PRL 115, 136402 (2015).                      %
     %   T. Thonhauser et al., PRB 76, 125112 (2007).                       %
     %   K. Berland et al., Rep. Prog. Phys. 78, 066501 (2015).             %
     %   D.C. Langreth et al., J. Phys.: Condens. Matter 21, 084203 (2009). %
     %                                                                      %
     %                                                                      %
     % If you are calculating the stress with vdW-DF, please also cite:     %
     %                                                                      %
     %   R. Sabatini et al., J. Phys.: Condens. Matter 24, 424209 (2012).   %
     %                                                                      %
     %%%%%%%%%%%%%%%%%%%%%%%%%%%%%%%%%%%%%%%%%%%%%%%%%%%%%%%%%%%%%%%%%%%%%%%%

     Adding external electric field

     Computed dipole along edir(3) :
        Dipole               -8.4963 Ry au,        -21.5954 Debye
        Dipole field         -0.0160 Ry au,

        Potential amp.        1.4863 Ry
        Total length         46.3494 bohr

     Starting wfcs are  298 atomic wfcs
  @ DRIVER MODE: Message from server: STATUS
  @ DRIVER MODE: Message from server: POSDATA
  @ DRIVER MODE: Reading and sharing cell
  @ DRIVER MODE: Reading and sharing positions
  @ DRIVER MODE: Received positions

     Self-consistent Calculation

     iteration #  1     ecut=    29.40 Ry     beta= 0.05
     Davidson diagonalization with overlap
     c_bands:  1 eigenvalues not converged
     c_bands:  1 eigenvalues not converged
     c_bands:  2 eigenvalues not converged
     c_bands:  2 eigenvalues not converged
     c_bands:  2 eigenvalues not converged
     c_bands:  1 eigenvalues not converged
     ethr =  1.00E-05,  avg # of iterations = 19.0

[...]

     total energy              =   -2624.26769493 Ry
     estimated scf accuracy    <    3488.29963333 Ry

[...]

     iteration #  3     ecut=    29.40 Ry     beta= 0.05
     Davidson diagonalization with overlap
     ethr =  1.00E-02,  avg # of iterations = 15.1

[...]

     iteration # 70     ecut=    29.40 Ry     beta= 0.05
     Davidson diagonalization with overlap
     ethr =  4.20E-11,  avg # of iterations =  7.6

[...]

     total energy              =   -2937.80845412 Ry
     estimated scf accuracy    <       0.00000011 Ry

     iteration # 72     ecut=    29.40 Ry     beta= 0.05
     Davidson diagonalization with overlap
     c_bands:  1 eigenvalues not converged
     ethr =  2.91E-11,  avg # of iterations = 11.0

     negative rho (up, down):  1.629E-02 0.000E+00

     Adding external electric field

     Computed dipole along edir(3) :
        Dipole                1.2979 Ry au,          3.2989 Debye
        Dipole field          0.0024 Ry au,

        Potential amp.       -0.2270 Ry
        Total length         46.3494 bohr

     End of self-consistent calculation

          k = 0.0000 0.0000 0.0000 ( 18029 PWs)   bands (ev):

   -55.4321 -55.3960 -55.3960 -55.3619 -55.3255 -55.3097 -55.2667 -55.2451
   -55.2418 -55.2303 -55.2224 -55.2106 -55.1890 -55.1632 -54.4141 -54.3801
   -32.0010 -31.8866 -31.8266 -31.7954 -31.7515 -31.7438 -31.7343 -31.7253
   -31.6856 -31.6788 -31.6412 -31.6405 -31.6333 -31.6058 -31.5864 -31.5682
   -31.5642 -31.5580 -31.5494 -31.5437 -31.5098 -31.5081 -31.4985 -31.4898
   -31.4755 -31.4531 -31.4473 -31.4462 -31.4412 -31.4365 -31.4334 -31.4191
   -31.4112 -31.4053 -31.3992 -31.3942 -31.3733 -31.3596 -31.3578 -31.3517
   -31.3311 -31.2705 -30.8231 -30.7300 -30.7079 -30.6395 -30.5528 -30.4419
   -20.2485 -16.2468 -15.9746 -15.8314 -15.7073 -15.6225 -15.4957 -15.4607
   -15.3761 -15.3380 -15.2244 -15.1487 -15.0819 -15.0799 -15.0622 -15.0348
   -14.9845 -14.9674 -14.9648 -14.9225 -14.9203 -14.8784 -14.8588 -14.8248
   -14.8070 -14.7880 -14.7712 -14.6482 -14.5787 -14.5200 -14.1596 -12.9167
   -12.7995  -8.7987  -7.1339  -5.4465  -4.7361  -3.5919  -3.4319  -3.3454
    -3.3286  -3.3272  -3.1602  -3.0323  -2.8049  -2.7698  -2.6933  -2.6390
    -2.6210  -2.5993  -2.4218  -2.3973  -2.3375  -2.3106  -2.2727  -2.2424
    -2.2175  -2.2002  -2.1901  -2.1716  -2.1581  -1.9971  -1.8984  -1.8681
    -1.8321  -1.8179  -1.7583  -1.7255  -1.7197  -1.7175  -1.7084  -1.6653
    -1.6462  -1.5978  -1.4970  -1.4731  -1.4464  -1.3176  -1.2980  -1.1504
    -1.0648  -0.9802  -0.9728  -0.9061  -0.9013  -0.8673  -0.8160  -0.7919
    -0.7675  -0.6340  -0.5641  -0.5083  -0.4914  -0.4467  -0.4013  -0.3655
    -0.2727  -0.2078  -0.2001  -0.1881  -0.0233  -0.0090   0.0380   0.0873
     0.1119   0.1607   0.1860   0.2552   0.2889   0.3348   0.3649   0.4617
     0.5020   0.5218   0.5359   0.5550   0.5675   0.6273   0.6946   0.7131
     0.7614   0.8185   0.9293   1.1262   1.1889   1.2017   1.5182   1.5522
     1.6085   1.7937   2.1835   2.2312   3.6679   3.7394   3.8032   3.8183
     3.8269   3.9035   4.0817   4.1512   4.1667   4.1735   4.1848

[...]

          k = 0.0380-0.0419 0.0000 ( 17876 PWs)   bands (ev):

[...]

          k =-0.0760-0.0000 0.0000 ( 17886 PWs)   bands (ev):

[...]

          k =-0.0760-0.0839 0.0000 ( 17948 PWs)   bands (ev):

   -55.4152 -55.4127 -55.3790 -55.3788 -55.3222 -55.3011 -55.2752 -55.2375
   -55.2335 -55.2287 -55.2263 -55.2061 -55.2057 -55.1673 -54.3972 -54.3969
   -31.8060 -31.8031 -31.7451 -31.7246 -31.7018 -31.7017 -31.6898 -31.6711
   -31.6709 -31.6426 -31.6333 -31.6279 -31.6248 -31.5843 -31.5626 -31.5593
   -31.5592 -31.5513 -31.5508 -31.5403 -31.5279 -31.5181 -31.5080 -31.5041
   -31.4998 -31.4986 -31.4982 -31.4939 -31.4695 -31.4619 -31.4618 -31.4591
   -31.4424 -31.4406 -31.4395 -31.4304 -31.4290 -31.4244 -31.3862 -31.3857
   -31.3810 -31.3619 -30.7207 -30.7205 -30.6357 -30.6355 -30.5962 -30.5961
   -20.2472 -15.7024 -15.6821 -15.6231 -15.4261 -15.4165 -15.4039 -15.3950
   -15.3875 -15.2301 -15.2131 -15.1948 -15.1769 -15.1345 -15.1314 -15.1167
   -15.1062 -15.0056 -15.0034 -15.0013 -15.0000 -14.9375 -14.9296 -14.9158
   -14.8813 -14.8781 -14.8490 -14.7792 -14.7763 -14.6439 -14.4805 -12.9011
   -12.9010  -8.7840  -7.1533  -5.4451  -4.7202  -2.9574  -2.8871  -2.8441
    -2.6343  -2.6116  -2.5969  -2.5144  -2.4649  -2.4028  -2.3954  -2.3893
    -2.3297  -2.2947  -2.2811  -2.2627  -2.2545  -2.2378  -2.2157  -2.2049
    -2.1593  -2.1474  -2.1377  -2.1033  -2.0899  -2.0712  -2.0499  -2.0333
    -2.0127  -2.0073  -1.9884  -1.8273  -1.7765  -1.7298  -1.6827  -1.6697
    -1.6240  -1.6165  -1.5225  -1.4879  -1.4592  -1.4317  -1.4233  -1.2328
    -1.2166  -1.1636  -1.1592  -1.1357  -0.9803  -0.9596  -0.9444  -0.9266
    -0.8810  -0.7996  -0.7926  -0.7546  -0.6479  -0.6175  -0.6118  -0.5605
    -0.4400  -0.4174  -0.3949  -0.3890  -0.3832  -0.2905  -0.2730  -0.2654
    -0.2321  -0.1983  -0.1477  -0.1412  -0.0886   0.0939   0.1383   0.2039
     0.2831   0.4528   0.4910   0.5181   0.5595   0.6207   0.6937   0.7103
     0.7745   0.8684   0.8832   0.9123   0.9854   1.0384   1.0463   1.0706
     1.9665   1.9673   2.0511   2.0512   3.8363   3.8499   3.9115   3.9483
     3.9980   4.0912   4.1869   4.2041   4.2466   4.2476   4.3306

     the Fermi energy is     3.7219 ev

!    total energy              =   -2937.80846661 Ry
     estimated scf accuracy    <       0.00000004 Ry
     smearing contrib. (-TS)   =      -0.03813079 Ry
     internal energy E=F+TS    =   -2937.77033582 Ry

     The total energy is F=E-TS. E is the sum of the following terms:
     one-electron contribution =  -24094.20737218 Ry
     hartree contribution      =   12137.20081523 Ry
     xc contribution           =    -484.39143612 Ry
     ewald contribution        =    9503.62447830 Ry
     electric field correction =       0.00317895 Ry

     convergence has been achieved in  72 iterations

     Forces acting on atoms (cartesian axes, Ry/au):

     atom    1 type  1   force =     0.00006335   -0.00011666    0.09405996
     atom    2 type  1   force =    -0.00016547   -0.00022510   -0.17764367
     atom    3 type  2   force =     0.00011068   -0.00020775   -0.02137301
     atom    4 type  2   force =     0.00002514   -0.00184286    0.05753170
     atom    5 type  2   force =    -0.01068292   -0.00139147    0.00633132
     atom    6 type  2   force =     0.01275237   -0.00074484    0.00661433
     atom    7 type  1   force =     0.00011155    0.00196989   -0.01404668
     atom    8 type  1   force =    -0.00046755    0.00580748    0.00396071
     atom    9 type  2   force =     0.00036104    0.00023089   -0.00007152
     atom   10 type  2   force =    -0.00024115    0.00021774   -0.00511199
     atom   11 type  2   force =     0.00003942   -0.00015238   -0.00044976
     atom   12 type  2   force =    -0.00027916    0.00000781    0.00008881
     atom   13 type  1   force =    -0.00026025    0.00001171   -0.00030029
     atom   14 type  1   force =    -0.00008702    0.00015588   -0.00016174
     atom   15 type  2   force =    -0.00048248   -0.00043827   -0.00017885
     atom   16 type  2   force =    -0.00019061    0.00019020    0.00005350
     atom   17 type  2   force =    -0.00001782   -0.00020840   -0.00014318
     atom   18 type  2   force =    -0.00048080   -0.00012877   -0.00043390
     atom   19 type  1   force =    -0.00011292    0.00009321   -0.00026316
     atom   20 type  1   force =    -0.00031726    0.00003816    0.00074118
     atom   21 type  2   force =     0.00001859    0.00002108    0.10381690
     atom   22 type  2   force =     0.00006935    0.00011717   -0.00007457
     atom   23 type  2   force =    -0.07063591   -0.00008171   -0.02704588
     atom   24 type  2   force =     0.07052720    0.00036190   -0.02709889
     atom   25 type  1   force =     0.00001064   -0.00008329    0.09369623
     atom   26 type  1   force =    -0.00013783   -0.00016339   -0.17770312
     atom   27 type  2   force =     0.00013399   -0.00023697   -0.02036317
     atom   28 type  2   force =     0.00006777   -0.00155035    0.05700052
     atom   29 type  2   force =    -0.01102479   -0.00053683    0.00635377
     atom   30 type  2   force =     0.01294543   -0.00027328    0.00664848
     atom   31 type  1   force =     0.00029657    0.00520900   -0.01482703
     atom   32 type  1   force =    -0.00039907   -0.00656126    0.00412082
     atom   33 type  2   force =     0.00015921    0.00007824   -0.00030612
     atom   34 type  2   force =     0.00035926   -0.00102323   -0.00203624
     atom   35 type  2   force =    -0.00032469    0.00015379   -0.00021184
     atom   36 type  2   force =    -0.00003123   -0.00000004    0.00011435
     atom   37 type  1   force =    -0.00007697    0.00023849   -0.00015364
     atom   38 type  1   force =     0.00006719    0.00024957    0.00021817
     atom   39 type  2   force =    -0.00005562    0.00021445    0.00006420
     atom   40 type  2   force =    -0.00030425    0.00009479   -0.00021284
     atom   41 type  2   force =    -0.00022126   -0.00001748    0.00006034
     atom   42 type  2   force =    -0.00030355    0.00015150   -0.00012731
     atom   43 type  1   force =    -0.00008205    0.00015310   -0.00017483
     atom   44 type  1   force =    -0.00018399   -0.00056967    0.00011952
     atom   45 type  2   force =     0.00001227   -0.00000340    0.10381971
     atom   46 type  2   force =    -0.07064989   -0.00003787   -0.02706048
     atom   47 type  2   force =     0.07052948    0.00040185   -0.02709711
     atom   48 type  3   force =    -0.01458621   -0.00094049   -0.00997822
     atom   49 type  4   force =     0.01816527    0.00601899    0.01426408
     atom   50 type  5   force =    -0.00257549   -0.00504779   -0.00351282
     atom   51 type  3   force =    -0.00140661    0.00016386   -0.00154846
     atom   52 type  5   force =    -0.00004093    0.00023281    0.00003174

     Total force =     0.367259     Total SCF correction =     0.000470
  @ DRIVER MODE: Message from server: STATUS
  @ DRIVER MODE: Message from server: GETFORCE
  @ DRIVER MODE: Returning v,forces,stress,ensemble

     Writing output data file ./calc.save/
  @ DRIVER MODE: Message from server: EXIT
  @ DRIVE MODE: Exiting

     General routines

     Parallel routines

   This run was terminated on:   1:52:52   9Sep2021

   JOB DONE.