     Program PWSCF v.6.7GPU starts on 24Aug2021 at  1: 7:24

     R & G space division:  proc/nbgrp/npool/nimage =       6
     Reading input from /storage/home/hcoda1/3/ntian30/research/carbon/CH2_vib/ads_slab/CH2NHN_a/out_0022/pw.inp
Warning: card &CELL ignored
Warning: card   CELL_DYNAMICS='IPI', ignored
Warning: card / ignored

     Current dimensions of program PWSCF are:
     Max number of different atomic species (ntypx) = 10
     Max number of k-points (npk) =  40000
     Max angular momentum in pseudopotentials (lmaxx) =  3
     Presently no symmetry can be used with electric field

     Message from routine cell_base_init:
     DEPRECATED: use true lattice parameter, not A to a.u. conversion factor

     IMPORTANT: XC functional enforced from input :
     Exchange-correlation= BEEF-VDW
                           (   1   4  43  14   2   0   0)
     Any further DFT definition will be discarded
     Please, verify this is what you really want

  @ DRIVER MODE: Connecting to
 qe_1139763_2632804.sched-torque.pace.gatech.eduybhcj_kv_scratch
  using UNIX socket
  @ DRIVER MODE: Message from server: STATUS
  @ DRIVER MODE: Message from server: INIT
  @ DRIVER MODE: Receiving replica           0          -1
  @ DRIVER MODE: Receiving encoded integer          25
  @ DRIVER MODE:  SCF:  T  FORCE:  T  STRESS:  F  VC:  F  ENSEMBLE:  F
  @ DRIVER MODE:  SCF:  T  FORCE:  T  STRESS:  F  VC:  F  ENSEMBLE:  F

     Using Slab Decomposition

     bravais-lattice index     =            0
     lattice parameter (alat)  =       1.8897  a.u.
     unit-cell volume          =    6658.9804 (a.u.)^3
     number of atoms/cell      =           53
     number of atomic types    =            5
     number of electrons       =       395.00
     number of Kohn-Sham states=          207
     kinetic-energy cutoff     =      29.3995  Ry
     charge density cutoff     =     293.9946  Ry
     scf convergence threshold =      7.3E-08
     mixing beta               =       0.0500
     number of iterations used =            8  plain     mixing
     Exchange-correlation= BEEF-VDW
                           (   1   4  43  14   2   0   0)

     celldm(1)=   1.889726  celldm(2)=   0.000000  celldm(3)=   0.000000
     celldm(4)=   0.000000  celldm(5)=   0.000000  celldm(6)=   0.000000

     crystal axes: (cart. coord. in units of alat)
               a(1) = (   6.579727   0.000000   0.000000 )
               a(2) = (  -0.000775   5.961596   0.000000 )
               a(3) = (   0.000000   0.000000  25.155947 )

     reciprocal axes: (cart. coord. in units 2 pi/alat)
               b(1) = (  0.151982  0.000020  0.000000 )
               b(2) = (  0.000000  0.167740  0.000000 )
               b(3) = (  0.000000  0.000000  0.039752 )

     PseudoPot. # 1 for Ti read from file:
     /storage/coda1/p-amedford6/0/shared/rich_project_chbe-medford/medford-share/data/pseudos_module/espresso/nninc/pbe/van/Ti.UPF
     MD5 check sum: 8e4df49b7f0d34bbd5052bf3f5ea0213
     Pseudo is Ultrasoft, Zval = 12.0
     Generated by new atomic code, or converted to UPF format
     Using radial grid of  851 points,  6 beta functions with:
                l(1) =   0
                l(2) =   0
                l(3) =   1
                l(4) =   1
                l(5) =   2
                l(6) =   2
     Q(r) pseudized with  8 coefficients,  rinner =    1.000   1.000   1.000
                                                       1.000   1.000

     PseudoPot. # 2 for O  read from file:
     /storage/coda1/p-amedford6/0/shared/rich_project_chbe-medford/medford-share/data/pseudos_module/espresso/nninc/pbe/van/O.UPF
     MD5 check sum: 78c19812648e8988a0fe644b0f25305e
     Pseudo is Ultrasoft, Zval =  6.0
     Generated by new atomic code, or converted to UPF format
     Using radial grid of  737 points,  4 beta functions with:
                l(1) =   0
                l(2) =   0
                l(3) =   1
                l(4) =   1
     Q(r) pseudized with  8 coefficients,  rinner =    0.800   0.800   0.800

     PseudoPot. # 3 for H  read from file:
     /storage/coda1/p-amedford6/0/shared/rich_project_chbe-medford/medford-share/data/pseudos_module/espresso/nninc/pbe/van/H.UPF
     MD5 check sum: b5ee9d7bfd3a09ee7748110bda690ff7
     Pseudo is Ultrasoft, Zval =  1.0
     Generated by new atomic code, or converted to UPF format
     Using radial grid of  615 points,  1 beta functions with:
                l(1) =   0
     Q(r) pseudized with  8 coefficients,  rinner =    0.800

     PseudoPot. # 4 for N  read from file:
     /storage/coda1/p-amedford6/0/shared/rich_project_chbe-medford/medford-share/data/pseudos_module/espresso/nninc/pbe/van/N.UPF
     MD5 check sum: 90d10febe142ad51ac9d5be1deb811c4
     Pseudo is Ultrasoft, Zval =  5.0
     Generated by new atomic code, or converted to UPF format
     Using radial grid of  729 points,  4 beta functions with:
                l(1) =   0
                l(2) =   0
                l(3) =   1
                l(4) =   1
     Q(r) pseudized with  8 coefficients,  rinner =    0.800   0.800   0.800

     PseudoPot. # 5 for C  read from file:
     /storage/coda1/p-amedford6/0/shared/rich_project_chbe-medford/medford-share/data/pseudos_module/espresso/nninc/pbe/van/C.UPF
     MD5 check sum: 1a69bf6b8db32088f5b2163dbdb77a27
     Pseudo is Ultrasoft, Zval =  4.0
     Generated by new atomic code, or converted to UPF format
     Using radial grid of  721 points,  4 beta functions with:
                l(1) =   0
                l(2) =   0
                l(3) =   1
                l(4) =   1
     Q(r) pseudized with  8 coefficients,  rinner =    0.800   0.800   0.800

     atomic species   valence    mass     pseudopotential
        Ti1           12.00    47.86700     Ti( 1.00)
        O1             6.00    15.99900     O ( 1.00)
        H1             1.00     1.00800     H ( 1.00)
        N1             5.00    14.00700     N ( 1.00)
        C1             4.00    12.01100     C ( 1.00)

     No symmetry found

   Cartesian axes

     site n.     atom                  positions (alat units)
         1           Ti1 tau(   1) = (   0.0004258   2.9801865   6.0000000  )
         2           Ti1 tau(   2) = (   3.2906075   1.4906267   6.0002472  )
         3           O1  tau(   3) = (   0.0006271   0.0005054   7.9858123  )
         4           O1  tau(   4) = (   3.2906025   0.0005020   7.3038282  )
         5           O1  tau(   5) = (   4.5942328   1.4918067   9.2879030  )
         6           O1  tau(   6) = (   1.9868534   1.4903216   9.2879459  )
         7           Ti1 tau(   7) = (   3.2907910   2.8959150   9.1758416  )
         8           Ti1 tau(   8) = (   0.0015273   1.4827037   9.2680791  )
         9           O1  tau(   9) = (   3.2899722   5.9582610  11.3470199  )
        10           O1  tau(  10) = (   0.0116148   5.9584955  10.6183126  )
        11           O1  tau(  11) = (   1.3017974   1.5038179  12.6264390  )
        12           O1  tau(  12) = (   5.3008627   1.4977989  12.6274213  )
        13           Ti1 tau(  13) = (   6.5569486   2.9952213  12.5532680  )
        14           Ti1 tau(  14) = (   3.2411515   1.4937708  12.4940153  )
        15           O1  tau(  15) = (   0.0420230   0.0496738  14.6358928  )
        16           O1  tau(  16) = (   3.2967895   0.0255587  13.9395418  )
        17           O1  tau(  17) = (   4.5559197   1.4885259  16.1071037  )
        18           O1  tau(  18) = (   2.0591626   1.5161495  16.1621771  )
        19           Ti1 tau(  19) = (   3.3530411   3.0041182  15.7164831  )
        20           Ti1 tau(  20) = (   0.0838170   1.4186333  16.1871295  )
        21           O1  tau(  21) = (   3.2904802   0.0005063   4.7018136  )
        22           O1  tau(  22) = (   0.0186128   5.8515937  17.1570623  )
        23           O1  tau(  23) = (   1.3043587   1.4918075   6.0039043  )
        24           O1  tau(  24) = (   5.2767064   1.4903225   6.0039473  )
        25           Ti1 tau(  25) = (   0.0000382   5.9609847   6.0000000  )
        26           Ti1 tau(  26) = (   3.2902200   4.4714249   6.0002472  )
        27           O1  tau(  27) = (   0.0002396   2.9813036   7.9858123  )
        28           O1  tau(  28) = (   3.2902150   2.9813002   7.3038282  )
        29           O1  tau(  29) = (   4.5938453   4.4726049   9.2879030  )
        30           O1  tau(  30) = (   1.9864658   4.4711199   9.2879459  )
        31           Ti1 tau(  31) = (   3.2891106   5.8743827   9.1763621  )
        32           Ti1 tau(  32) = (   0.0006254   4.4649316   9.2693709  )
        33           O1  tau(  33) = (   3.2942209   2.9913469  11.3437431  )
        34           O1  tau(  34) = (   0.0092240   2.9805883  10.6323155  )
        35           O1  tau(  35) = (   1.3035300   4.4624727  12.6575770  )
        36           O1  tau(  36) = (   5.3036227   4.4740614  12.6577195  )
        37           Ti1 tau(  37) = (   6.5462442   0.0298550  12.5256591  )
        38           Ti1 tau(  38) = (   3.2421849   4.4737490  12.5077532  )
        39           O1  tau(  39) = (   0.0112388   2.9415499  14.8853239  )
        40           O1  tau(  40) = (   3.3099764   2.9718378  13.9238501  )
        41           O1  tau(  41) = (   4.5641009   4.4837371  16.0358624  )
        42           O1  tau(  42) = (   2.0725645   4.4682733  16.0457710  )
        43           Ti1 tau(  43) = (   3.3278145   0.0095312  15.7444629  )
        44           Ti1 tau(  44) = (   0.0453891   4.6133464  15.7643304  )
        45           O1  tau(  45) = (   3.2900926   2.9813045   4.7018136  )
        46           O1  tau(  46) = (   1.3039711   4.4726057   6.0039043  )
        47           O1  tau(  47) = (   5.2763189   4.4711207   6.0039473  )
        48           H1  tau(  48) = (   4.6525291   2.0178258  18.2241430  )
        49           N1  tau(  49) = (   6.4431608   2.5827981  18.1004554  )
        50           C1  tau(  50) = (   0.9260493   3.0590344  18.7174074  )
        51           H1  tau(  51) = (   0.8415052   3.4211086  19.7359056  )
        52           H1  tau(  52) = (   1.8727361   3.0611994  18.2151121  )
        53           N1  tau(  53) = (   5.2929592   2.6053404  18.7594781  )

     number of k points=    10  Fermi-Dirac smearing, width (Ry)=  0.0073
                       cart. coord. in units 2pi/alat
        k(    1) = (   0.0000000   0.0000000   0.0000000), wk =   0.1250000
        k(    2) = (   0.0000000   0.0419351   0.0000000), wk =   0.2500000
        k(    3) = (   0.0000000  -0.0838702   0.0000000), wk =   0.1250000
        k(    4) = (   0.0379955   0.0000049   0.0000000), wk =   0.2500000
        k(    5) = (   0.0379955   0.0419400   0.0000000), wk =   0.2500000
        k(    6) = (   0.0379955  -0.0838652   0.0000000), wk =   0.2500000
        k(    7) = (   0.0379955  -0.0419301   0.0000000), wk =   0.2500000
        k(    8) = (  -0.0759910  -0.0000099   0.0000000), wk =   0.1250000
        k(    9) = (  -0.0759910   0.0419252   0.0000000), wk =   0.2500000
        k(   10) = (  -0.0759910  -0.0838800   0.0000000), wk =   0.1250000

     Initial potential from superposition of free atoms

     starting charge  378.99916, renormalised to  395.00000

     negative rho (up, down):  1.717E-02 0.000E+00

     %%%%%%%%%%%%%%%%%%%%%%%%%%%%%%%%%%%%%%%%%%%%%%%%%%%%%%%%%%%%%%%%%%%%%%%%
     %                                                                      %
     % You are using vdW-DF, which was implemented by the Thonhauser group. %
     % Please cite the following two papers that made this development      %
     % possible and the two reviews that describe the various versions:     %
     %                                                                      %
     %   T. Thonhauser et al., PRL 115, 136402 (2015).                      %
     %   T. Thonhauser et al., PRB 76, 125112 (2007).                       %
     %   K. Berland et al., Rep. Prog. Phys. 78, 066501 (2015).             %
     %   D.C. Langreth et al., J. Phys.: Condens. Matter 21, 084203 (2009). %
     %                                                                      %
     %                                                                      %
     % If you are calculating the stress with vdW-DF, please also cite:     %
     %                                                                      %
     %   R. Sabatini et al., J. Phys.: Condens. Matter 24, 424209 (2012).   %
     %                                                                      %
     %%%%%%%%%%%%%%%%%%%%%%%%%%%%%%%%%%%%%%%%%%%%%%%%%%%%%%%%%%%%%%%%%%%%%%%%

     Adding external electric field

     Computed dipole along edir(3) :
        Dipole               -8.7889 Ry au,        -22.3391 Debye
        Dipole field         -0.0166 Ry au,

        Potential amp.        1.5375 Ry
        Total length         46.3494 bohr

     Starting wfcs are  299 atomic wfcs
  @ DRIVER MODE: Message from server: STATUS
  @ DRIVER MODE: Message from server: POSDATA
  @ DRIVER MODE: Reading and sharing cell
  @ DRIVER MODE: Reading and sharing positions
  @ DRIVER MODE: Received positions

     Self-consistent Calculation

     iteration #  1     ecut=    29.40 Ry     beta= 0.05
     Davidson diagonalization with overlap
     c_bands:  1 eigenvalues not converged
     c_bands:  1 eigenvalues not converged
     c_bands:  1 eigenvalues not converged
     c_bands:  2 eigenvalues not converged
     c_bands:  2 eigenvalues not converged
     c_bands:  1 eigenvalues not converged
     c_bands:  2 eigenvalues not converged
     ethr =  1.00E-05,  avg # of iterations = 18.8

[...]

     total energy              =   -2593.24415680 Ry
     estimated scf accuracy    <    3846.18444221 Ry

[...]

     iteration #  3     ecut=    29.40 Ry     beta= 0.05
     Davidson diagonalization with overlap
     ethr =  1.00E-02,  avg # of iterations = 15.5

[...]

     iteration # 46     ecut=    29.40 Ry     beta= 0.05
     Davidson diagonalization with overlap
     c_bands:  1 eigenvalues not converged
     c_bands:  1 eigenvalues not converged
     ethr =  6.55E-07,  avg # of iterations = 12.2

[...]

     total energy              =   -2939.05444650 Ry
     estimated scf accuracy    <       0.00000013 Ry

     iteration # 67     ecut=    29.40 Ry     beta= 0.05
     Davidson diagonalization with overlap
     ethr =  3.21E-11,  avg # of iterations = 10.7

     negative rho (up, down):  1.683E-02 0.000E+00

     Adding external electric field

     Computed dipole along edir(3) :
        Dipole                0.0806 Ry au,          0.2048 Debye
        Dipole field          0.0002 Ry au,

        Potential amp.       -0.0141 Ry
        Total length         46.3494 bohr

     End of self-consistent calculation

          k = 0.0000 0.0000 0.0000 ( 18029 PWs)   bands (ev):

   -56.2643 -56.2409 -56.2273 -56.2068 -56.1477 -56.1451 -56.1104 -56.1087
   -56.0717 -56.0621 -56.0365 -56.0295 -55.9047 -55.7010 -55.2447 -55.2107
   -32.8248 -32.7292 -32.6406 -32.6070 -32.5722 -32.5708 -32.5541 -32.5317
   -32.4864 -32.4843 -32.4795 -32.4678 -32.4374 -32.4108 -32.4060 -32.3932
   -32.3866 -32.3840 -32.3729 -32.3706 -32.3508 -32.3329 -32.3185 -32.2977
   -32.2932 -32.2871 -32.2862 -32.2721 -32.2653 -32.2649 -32.2525 -32.2307
   -32.2161 -32.2157 -32.1989 -32.1865 -32.1719 -32.1543 -32.1227 -32.0506
   -31.9263 -31.8609 -31.6529 -31.5619 -31.5396 -31.4696 -31.3829 -31.2718
   -17.6134 -17.0451 -16.7711 -16.5583 -16.4583 -16.4385 -16.2941 -16.1529
   -16.0578 -15.9744 -15.9399 -15.8730 -15.8616 -15.8057 -15.7965 -15.7856
   -15.7627 -15.7441 -15.7309 -15.6848 -15.6744 -15.6428 -15.6323 -15.6106
   -15.5675 -15.4804 -15.4372 -15.4034 -15.3487 -14.7971 -13.7471 -13.6301
   -11.9849  -7.0304  -5.2764  -4.4115  -4.2581  -4.1666  -4.1601  -4.1336
    -3.9596  -3.8373  -3.6565  -3.5884  -3.4887  -3.4436  -3.4416  -3.4137
    -3.3257  -3.2009  -3.1739  -3.1055  -3.0745  -3.0620  -3.0577  -3.0371
    -2.9964  -2.9529  -2.9445  -2.8776  -2.8455  -2.7770  -2.7003  -2.6750
    -2.5999  -2.5792  -2.5508  -2.5369  -2.5345  -2.5262  -2.5016  -2.4749
    -2.4069  -2.3045  -2.2275  -2.1331  -2.0628  -1.9955  -1.9303  -1.8875
    -1.8271  -1.7872  -1.7483  -1.7222  -1.6535  -1.5848  -1.5057  -1.4644
    -1.4014  -1.3666  -1.3146  -1.2469  -1.1878  -1.1321  -1.0570  -1.0461
    -1.0427  -1.0240  -0.9925  -0.8146  -0.7672  -0.7563  -0.7413  -0.6953
    -0.6390  -0.6051  -0.5003  -0.4845  -0.4434  -0.4254  -0.3512  -0.3307
    -0.2964  -0.2876  -0.2626  -0.2002  -0.1096  -0.0924  -0.0681  -0.0193
     0.0277   0.1793   0.3674   0.4254   0.4750   0.6957   0.7756   0.7779
     0.9659   1.3510   1.3978   1.5577   2.7377   2.8504   2.9411   2.9648
     2.9888   3.0836   3.1126   3.3184   3.3237   3.3647   3.3748

[...]

          k = 0.0380-0.0419 0.0000 ( 17876 PWs)   bands (ev):

[...]

          k =-0.0760-0.0000 0.0000 ( 17886 PWs)   bands (ev):

[...]

          k =-0.0760-0.0839 0.0000 ( 17948 PWs)   bands (ev):

   -56.2501 -56.2413 -56.2237 -56.2237 -56.1374 -56.1297 -56.1257 -56.1189
   -56.0546 -56.0520 -56.0469 -56.0459 -55.9035 -55.7021 -55.2276 -55.2276
   -32.6304 -32.6253 -32.5444 -32.5443 -32.5328 -32.5179 -32.5172 -32.5170
   -32.4849 -32.4692 -32.4646 -32.4488 -32.4184 -32.4034 -32.3976 -32.3942
   -32.3850 -32.3843 -32.3818 -32.3792 -32.3449 -32.3430 -32.3429 -32.3403
   -32.3372 -32.3370 -32.3239 -32.3216 -32.2903 -32.2787 -32.2773 -32.2682
   -32.2671 -32.2623 -32.2609 -32.2342 -32.2310 -32.1577 -32.1307 -32.0582
   -31.9289 -31.9278 -31.5523 -31.5523 -31.4656 -31.4655 -31.4263 -31.4263
   -17.6063 -16.4713 -16.4377 -16.2939 -16.2259 -16.2016 -16.1856 -16.1627
   -16.0262 -15.9792 -15.9693 -15.9436 -15.9144 -15.9085 -15.8496 -15.8347
   -15.8235 -15.8153 -15.8050 -15.7525 -15.7483 -15.7397 -15.7179 -15.7130
   -15.6894 -15.6573 -15.6013 -15.5995 -15.2314 -15.1886 -13.7319 -13.7317
   -11.9999  -6.9526  -5.2336  -3.8113  -3.7442  -3.7113  -3.5662  -3.4402
    -3.4238  -3.4209  -3.2773  -3.2319  -3.2131  -3.1908  -3.1332  -3.1168
    -3.1065  -3.0847  -3.0698  -3.0566  -3.0312  -3.0013  -2.9879  -2.9674
    -2.9575  -2.9397  -2.9217  -2.8971  -2.8925  -2.8758  -2.8354  -2.8261
    -2.8013  -2.7822  -2.6104  -2.5537  -2.5376  -2.4404  -2.4384  -2.4118
    -2.3761  -2.3309  -2.3106  -2.2605  -2.2218  -2.1855  -2.0525  -1.9967
    -1.9832  -1.9346  -1.9146  -1.8517  -1.7631  -1.7299  -1.6898  -1.6551
    -1.5649  -1.5195  -1.5099  -1.4679  -1.4220  -1.4104  -1.3368  -1.2864
    -1.2227  -1.2211  -1.2142  -1.1710  -1.0561  -1.0395  -1.0253  -1.0226
    -0.9756  -0.9650  -0.9104  -0.8250  -0.7043  -0.6491  -0.6197  -0.4504
    -0.3686  -0.2985  -0.1943  -0.1540  -0.1076  -0.0848  -0.0290   0.0361
     0.0428   0.1040   0.1284   0.2161   0.2274   0.2344   0.3064   1.1384
     1.1389   1.2178   1.2182   1.5542   2.6964   3.1150   3.1486   3.1752
     3.1847   3.3450   3.3697   3.4090   3.4113   3.4831   3.5118

     the Fermi energy is     2.8804 ev

!    total energy              =   -2939.05447663 Ry
     estimated scf accuracy    <       0.00000007 Ry
     smearing contrib. (-TS)   =      -0.03337631 Ry
     internal energy E=F+TS    =   -2939.02110032 Ry

     The total energy is F=E-TS. E is the sum of the following terms:
     one-electron contribution =  -24157.57990343 Ry
     hartree contribution      =   12162.03600048 Ry
     xc contribution           =    -485.17155367 Ry
     ewald contribution        =    9541.69434406 Ry
     electric field correction =       0.00001225 Ry

     convergence has been achieved in  67 iterations

     Forces acting on atoms (cartesian axes, Ry/au):

     atom    1 type  1   force =     0.00009627   -0.00025259    0.09470517
     atom    2 type  1   force =     0.00009835   -0.00054702   -0.17675910
     atom    3 type  2   force =     0.00011913   -0.00001473   -0.02174330
     atom    4 type  2   force =     0.00001602   -0.00163370    0.05554705
     atom    5 type  2   force =    -0.01059453   -0.00065905    0.00569964
     atom    6 type  2   force =     0.01213531    0.00002664    0.00514355
     atom    7 type  1   force =     0.00034715    0.00220353   -0.01237120
     atom    8 type  1   force =     0.00038595    0.00263637    0.00923982
     atom    9 type  2   force =     0.00020997   -0.00033516   -0.00022740
     atom   10 type  2   force =    -0.00209290    0.00002264   -0.00883794
     atom   11 type  2   force =     0.00084670   -0.00014564    0.00005619
     atom   12 type  2   force =    -0.00025629   -0.00009271    0.00044599
     atom   13 type  1   force =    -0.00035750   -0.00039486    0.00076046
     atom   14 type  1   force =     0.00055119   -0.00043110    0.00065888
     atom   15 type  2   force =    -0.00018540   -0.00025582    0.00031350
     atom   16 type  2   force =    -0.00003789   -0.00041549    0.00074327
     atom   17 type  2   force =     0.00063478   -0.00032639   -0.00031557
     atom   18 type  2   force =     0.00003384   -0.00037773   -0.00046924
     atom   19 type  1   force =    -0.00054303   -0.00053649   -0.00005062
     atom   20 type  1   force =     0.00054074    0.00014503   -0.00068043
     atom   21 type  2   force =     0.00009442   -0.00011493    0.10357900
     atom   22 type  2   force =    -0.00014608    0.00002815    0.00100714
     atom   23 type  2   force =    -0.07096562   -0.00024827   -0.02723465
     atom   24 type  2   force =     0.07095463    0.00022882   -0.02729146
     atom   25 type  1   force =     0.00027669   -0.00026135    0.09412156
     atom   26 type  1   force =     0.00010877   -0.00040559   -0.17692088
     atom   27 type  2   force =     0.00010856   -0.00041686   -0.02063092
     atom   28 type  2   force =     0.00010077   -0.00136963    0.05522796
     atom   29 type  2   force =    -0.01066113   -0.00021414    0.00493738
     atom   30 type  2   force =     0.01207765   -0.00000271    0.00430344
     atom   31 type  1   force =     0.00036786    0.00375510   -0.01356586
     atom   32 type  1   force =     0.00032714   -0.00313507    0.00922245
     atom   33 type  2   force =     0.00004779   -0.00000355    0.00008497
     atom   34 type  2   force =    -0.00266174    0.00249015   -0.00568026
     atom   35 type  2   force =     0.00101910    0.00033059    0.00010509
     atom   36 type  2   force =    -0.00073855    0.00005539    0.00082122
     atom   37 type  1   force =    -0.00057021    0.00021674   -0.00007698
     atom   38 type  1   force =     0.00059376    0.00015451   -0.00026519
     atom   39 type  2   force =     0.00037696   -0.00007013   -0.00014527
     atom   40 type  2   force =     0.00008142   -0.00009552   -0.00042754
     atom   41 type  2   force =     0.00065350   -0.00003491   -0.00040082
     atom   42 type  2   force =     0.00033398    0.00006249   -0.00019827
     atom   43 type  1   force =    -0.00101728   -0.00030867   -0.00101406
     atom   44 type  1   force =     0.00030915   -0.00097499   -0.00039352
     atom   45 type  2   force =     0.00008339   -0.00014431    0.10355934
     atom   46 type  2   force =    -0.07098058   -0.00015248   -0.02723415
     atom   47 type  2   force =     0.07097044    0.00023192   -0.02725685
     atom   48 type  3   force =    -0.00076670   -0.00017594    0.00056456
     atom   49 type  4   force =    -0.00044776   -0.00040735   -0.00097552
     atom   50 type  5   force =    -0.00067774    0.00335945    0.00388527
     atom   51 type  3   force =    -0.00107513   -0.00132527   -0.00256390
     atom   52 type  3   force =     0.00068258    0.00027669    0.00006067
     atom   53 type  4   force =    -0.00080792    0.00005595   -0.00106266

     Total force =     0.365146     Total SCF correction =     0.000677
  @ DRIVER MODE: Message from server: STATUS
  @ DRIVER MODE: Message from server: GETFORCE
  @ DRIVER MODE: Returning v,forces,stress,ensemble

     Writing output data file ./calc.save/
  @ DRIVER MODE: Message from server: EXIT
  @ DRIVE MODE: Exiting

     General routines

     Parallel routines

   This run was terminated on:   1:37:52  24Aug2021

   JOB DONE.