     Program PWSCF v.6.7GPU starts on 19Oct2021 at  0:43: 8

     R & G space division:  proc/nbgrp/npool/nimage =       8
     Reading input from /storage/home/hcoda1/3/ntian30/research/carbon/CxH_vib/Thiel_calc/ads_slab/NH2HNH_perslab/out_0028/pw.inp
Warning: card &CELL ignored
Warning: card   CELL_DYNAMICS='IPI', ignored
Warning: card / ignored

     Current dimensions of program PWSCF are:
     Max number of different atomic species (ntypx) = 10
     Max number of k-points (npk) =  40000
     Max angular momentum in pseudopotentials (lmaxx) =  3
     Presently no symmetry can be used with electric field

     Message from routine cell_base_init:
     DEPRECATED: use true lattice parameter, not A to a.u. conversion factor

     IMPORTANT: XC functional enforced from input :
     Exchange-correlation= BEEF-VDW
                           (   1   4  43  14   2   0   0)
     Any further DFT definition will be discarded
     Please, verify this is what you really want

  @ DRIVER MODE: Connecting to
 qe_1139763_3255135.sched-torque.pace.gatech.eduyll40qxq_scratch
  using UNIX socket
  @ DRIVER MODE: Message from server: STATUS
  @ DRIVER MODE: Message from server: INIT
  @ DRIVER MODE: Receiving replica           0          -1
  @ DRIVER MODE: Receiving encoded integer          25
  @ DRIVER MODE:  SCF:  T  FORCE:  T  STRESS:  F  VC:  F  ENSEMBLE:  F
  @ DRIVER MODE:  SCF:  T  FORCE:  T  STRESS:  F  VC:  F  ENSEMBLE:  F

     Using Slab Decomposition

     bravais-lattice index     =            0
     lattice parameter (alat)  =       1.8897  a.u.
     unit-cell volume          =    9988.4706 (a.u.)^3
     number of atoms/cell      =           59
     number of atomic types    =            4
     number of electrons       =       440.00
     number of Kohn-Sham states=          230
     kinetic-energy cutoff     =      29.3995  Ry
     charge density cutoff     =     293.9946  Ry
     scf convergence threshold =      7.3E-08
     mixing beta               =       0.0500
     number of iterations used =            8  plain     mixing
     Exchange-correlation= BEEF-VDW
                           (   1   4  43  14   2   0   0)

     celldm(1)=   1.889726  celldm(2)=   0.000000  celldm(3)=   0.000000
     celldm(4)=   0.000000  celldm(5)=   0.000000  celldm(6)=   0.000000

     crystal axes: (cart. coord. in units of alat)
               a(1) = (   6.579727   0.000000   0.000000 )
               a(2) = (  -0.001163   8.942395   0.000000 )
               a(3) = (   0.000000   0.000000  25.155947 )

     reciprocal axes: (cart. coord. in units 2 pi/alat)
               b(1) = (  0.151982  0.000020  0.000000 )
               b(2) = (  0.000000  0.111827  0.000000 )
               b(3) = (  0.000000  0.000000  0.039752 )

     PseudoPot. # 1 for O  read from file:
     /storage/coda1/p-amedford6/0/shared/rich_project_chbe-medford/medford-share/data/pseudos_module/espresso/nninc/pbe/van/O.UPF
     MD5 check sum: 78c19812648e8988a0fe644b0f25305e
     Pseudo is Ultrasoft, Zval =  6.0
     Generated by new atomic code, or converted to UPF format
     Using radial grid of  737 points,  4 beta functions with:
                l(1) =   0
                l(2) =   0
                l(3) =   1
                l(4) =   1
     Q(r) pseudized with  8 coefficients,  rinner =    0.800   0.800   0.800

     PseudoPot. # 2 for Ti read from file:
     /storage/coda1/p-amedford6/0/shared/rich_project_chbe-medford/medford-share/data/pseudos_module/espresso/nninc/pbe/van/Ti.UPF
     MD5 check sum: 8e4df49b7f0d34bbd5052bf3f5ea0213
     Pseudo is Ultrasoft, Zval = 12.0
     Generated by new atomic code, or converted to UPF format
     Using radial grid of  851 points,  6 beta functions with:
                l(1) =   0
                l(2) =   0
                l(3) =   1
                l(4) =   1
                l(5) =   2
                l(6) =   2
     Q(r) pseudized with  8 coefficients,  rinner =    1.000   1.000   1.000
                                                       1.000   1.000

     PseudoPot. # 3 for H  read from file:
     /storage/coda1/p-amedford6/0/shared/rich_project_chbe-medford/medford-share/data/pseudos_module/espresso/nninc/pbe/van/H.UPF
     MD5 check sum: b5ee9d7bfd3a09ee7748110bda690ff7
     Pseudo is Ultrasoft, Zval =  1.0
     Generated by new atomic code, or converted to UPF format
     Using radial grid of  615 points,  1 beta functions with:
                l(1) =   0
     Q(r) pseudized with  8 coefficients,  rinner =    0.800

     PseudoPot. # 4 for N  read from file:
     /storage/coda1/p-amedford6/0/shared/rich_project_chbe-medford/medford-share/data/pseudos_module/espresso/nninc/pbe/van/N.UPF
     MD5 check sum: 90d10febe142ad51ac9d5be1deb811c4
     Pseudo is Ultrasoft, Zval =  5.0
     Generated by new atomic code, or converted to UPF format
     Using radial grid of  729 points,  4 beta functions with:
                l(1) =   0
                l(2) =   0
                l(3) =   1
                l(4) =   1
     Q(r) pseudized with  8 coefficients,  rinner =    0.800   0.800   0.800

     atomic species   valence    mass     pseudopotential
        O1             6.00    15.99900     O ( 1.00)
        Ti1           12.00    47.86700     Ti( 1.00)
        H1             1.00     1.00800     H ( 1.00)
        N1             5.00    14.00700     N ( 1.00)

     No symmetry found

   Cartesian axes

     site n.     atom                  positions (alat units)
         1           O1  tau(   1) = (   0.0007354   0.0005023  10.5931620  )
         2           O1  tau(   2) = (   3.2891522   8.9193323  13.7813865  )
         3           O1  tau(   3) = (  -0.0003195   8.9357148  17.1597790  )
         4           O1  tau(   4) = (   0.0006271   0.0005054   7.9858123  )
         5           O1  tau(   5) = (   3.2896276   8.9330874  11.1456747  )
         6           O1  tau(   6) = (   0.0000757   8.8957392  14.5326415  )
         7           O1  tau(   7) = (   1.9868534   1.4903216   9.2879459  )
         8           O1  tau(   8) = (   5.2085136   1.5567490  12.5272226  )
         9           O1  tau(   9) = (   2.0368910   1.4086519  15.9478609  )
        10           Ti1 tau(  10) = (   0.0007404   1.4906270   9.2895810  )
        11           Ti1 tau(  11) = (   3.2920048   1.2896434  12.4335303  )
        12           Ti1 tau(  12) = (   0.0003947   1.7483972  15.9485354  )
        13           O1  tau(  13) = (   4.5942328   1.4918067   9.2879030  )
        14           O1  tau(  14) = (   1.3734151   1.5562871  12.5269411  )
        15           O1  tau(  15) = (   4.5446063   1.4075665  15.9467422  )
        16           Ti1 tau(  16) = (   3.2902859   2.9801868   9.2893338  )
        17           Ti1 tau(  17) = (   0.0022843   2.7629733  12.5422407  )
        18           Ti1 tau(  18) = (   3.2887740   3.1097933  15.6402895  )
        19           O1  tau(  19) = (   0.0003479   2.9813005  10.5931620  )
        20           O1  tau(  20) = (   3.2903674   2.9527630  13.7969158  )
        21           O1  tau(  21) = (   0.0002396   2.9813036   7.9858123  )
        22           O1  tau(  22) = (   3.2906228   2.9775883  11.1663003  )
        23           O1  tau(  23) = (   0.0006598   2.9368866  14.5305733  )
        24           O1  tau(  24) = (   1.9864658   4.4711199   9.2879459  )
        25           O1  tau(  25) = (   5.2231876   4.5386380  12.5467233  )
        26           O1  tau(  26) = (   2.0248981   4.3679406  15.9930346  )
        27           Ti1 tau(  27) = (   0.0003529   4.4714252   9.2895810  )
        28           Ti1 tau(  28) = (   3.2918124   4.3135021  12.5344809  )
        29           Ti1 tau(  29) = (   6.5788423   4.6929592  16.0739603  )
        30           O1  tau(  30) = (   4.5938453   4.4726049   9.2879030  )
        31           O1  tau(  31) = (   1.3570704   4.5373869  12.5465102  )
        32           O1  tau(  32) = (   4.5538814   4.3671241  15.9936543  )
        33           Ti1 tau(  33) = (   3.2898983   5.9609850   9.2893338  )
        34           Ti1 tau(  34) = (   0.0013264   5.7428985  12.5110789  )
        35           Ti1 tau(  35) = (   3.2898306   6.0937744  16.2866611  )
        36           O1  tau(  36) = (  -0.0000397   5.9620987  10.5931620  )
        37           O1  tau(  37) = (   3.2897329   5.8964334  13.7986068  )
        38           O1  tau(  38) = (  -0.0007474   6.0119579  17.1634496  )
        39           O1  tau(  39) = (  -0.0001480   5.9621018   7.9858123  )
        40           O1  tau(  40) = (   3.2898370   5.9388437  11.1687384  )
        41           O1  tau(  41) = (  -0.0001539   5.9931028  14.5676369  )
        42           O1  tau(  42) = (   1.9860782   7.4519181   9.2879459  )
        43           O1  tau(  43) = (   5.2258842   7.5046952  12.5406166  )
        44           O1  tau(  44) = (   2.0242945   7.4351242  16.0034066  )
        45           Ti1 tau(  45) = (  -0.0000347   7.4522234   9.2895810  )
        46           Ti1 tau(  46) = (   3.2896699   7.1866417  12.6007890  )
        47           Ti1 tau(  47) = (   0.0000787   7.5542351  15.7482610  )
        48           O1  tau(  48) = (   4.5934577   7.4534031   9.2879030  )
        49           O1  tau(  49) = (   1.3527639   7.5038087  12.5404143  )
        50           O1  tau(  50) = (   4.5545665   7.4356877  16.0029592  )
        51           Ti1 tau(  51) = (   3.2895107   8.9417832   9.2893338  )
        52           Ti1 tau(  52) = (  -0.0005703   8.7121504  12.4856418  )
        53           Ti1 tau(  53) = (   3.2909615   0.1005107  15.6284087  )
        54           H1  tau(  54) = (   6.5785809   3.1351568  18.2688824  )
        55           H1  tau(  55) = (   6.5783155   8.7923607  18.1116139  )
        56           N1  tau(  56) = (  -0.0001347   2.9716693  17.2674093  )
        57           N1  tau(  57) = (   3.2897564   5.9921341  18.1800631  )
        58           H1  tau(  58) = (   3.2887465   5.1366479  18.7045293  )
        59           H1  tau(  59) = (   3.2892443   6.7858760  18.8071070  )

     number of k points=    10  Fermi-Dirac smearing, width (Ry)=  0.0073
                       cart. coord. in units 2pi/alat
        k(    1) = (   0.0000000   0.0000000   0.0000000), wk =   0.1250000
        k(    2) = (   0.0000000   0.0279567   0.0000000), wk =   0.2500000
        k(    3) = (   0.0000000  -0.0559134   0.0000000), wk =   0.1250000
        k(    4) = (   0.0379955   0.0000049   0.0000000), wk =   0.2500000
        k(    5) = (   0.0379955   0.0279617   0.0000000), wk =   0.2500000
        k(    6) = (   0.0379955  -0.0559085   0.0000000), wk =   0.2500000
        k(    7) = (   0.0379955  -0.0279518   0.0000000), wk =   0.2500000
        k(    8) = (  -0.0759910  -0.0000099   0.0000000), wk =   0.1250000
        k(    9) = (  -0.0759910   0.0279468   0.0000000), wk =   0.2500000
        k(   10) = (  -0.0759910  -0.0559233   0.0000000), wk =   0.1250000

     Initial potential from superposition of free atoms

     starting charge  421.99910, renormalised to  440.00000

     negative rho (up, down):  3.702E-02 0.000E+00

     %%%%%%%%%%%%%%%%%%%%%%%%%%%%%%%%%%%%%%%%%%%%%%%%%%%%%%%%%%%%%%%%%%%%%%%%
     %                                                                      %
     % You are using vdW-DF, which was implemented by the Thonhauser group. %
     % Please cite the following two papers that made this development      %
     % possible and the two reviews that describe the various versions:     %
     %                                                                      %
     %   T. Thonhauser et al., PRL 115, 136402 (2015).                      %
     %   T. Thonhauser et al., PRB 76, 125112 (2007).                       %
     %   K. Berland et al., Rep. Prog. Phys. 78, 066501 (2015).             %
     %   D.C. Langreth et al., J. Phys.: Condens. Matter 21, 084203 (2009). %
     %                                                                      %
     %                                                                      %
     % If you are calculating the stress with vdW-DF, please also cite:     %
     %                                                                      %
     %   R. Sabatini et al., J. Phys.: Condens. Matter 24, 424209 (2012).   %
     %                                                                      %
     %%%%%%%%%%%%%%%%%%%%%%%%%%%%%%%%%%%%%%%%%%%%%%%%%%%%%%%%%%%%%%%%%%%%%%%%

     Adding external electric field

     Computed dipole along edir(3) :
        Dipole               -3.9424 Ry au,        -10.0206 Debye
        Dipole field         -0.0050 Ry au,

        Potential amp.        0.4598 Ry
        Total length         46.3494 bohr

     Starting wfcs are  332 atomic wfcs
  @ DRIVER MODE: Message from server: STATUS
  @ DRIVER MODE: Message from server: POSDATA
  @ DRIVER MODE: Reading and sharing cell
  @ DRIVER MODE: Reading and sharing positions
  @ DRIVER MODE: Received positions

     Self-consistent Calculation

     iteration #  1     ecut=    29.40 Ry     beta= 0.05
     Davidson diagonalization with overlap
     c_bands:  1 eigenvalues not converged
     c_bands:  2 eigenvalues not converged
     c_bands:  4 eigenvalues not converged
     c_bands:  3 eigenvalues not converged
     c_bands:  3 eigenvalues not converged
     c_bands:  4 eigenvalues not converged
     c_bands:  3 eigenvalues not converged
     c_bands:  2 eigenvalues not converged
     ethr =  1.00E-05,  avg # of iterations = 19.2

[...]

     total energy              =   -3294.67418288 Ry
     estimated scf accuracy    <      19.61829696 Ry

     iteration #  2     ecut=    29.40 Ry     beta= 0.05
     Davidson diagonalization with overlap
     ethr =  4.46E-03,  avg # of iterations =  1.0

[...]

     iteration # 23     ecut=    29.40 Ry     beta= 0.05
     Davidson diagonalization with overlap
     c_bands:  1 eigenvalues not converged
     ethr =  1.53E-06,  avg # of iterations = 10.8

[...]

     total energy              =   -3293.29212670 Ry
     estimated scf accuracy    <       0.00000007 Ry

     iteration # 48     ecut=    29.40 Ry     beta= 0.05
     Davidson diagonalization with overlap
     ethr =  1.67E-11,  avg # of iterations =  5.3

     negative rho (up, down):  3.603E-02 0.000E+00

     Adding external electric field

     Computed dipole along edir(3) :
        Dipole                1.2938 Ry au,          3.2886 Debye
        Dipole field          0.0016 Ry au,

        Potential amp.       -0.1509 Ry
        Total length         46.3494 bohr

     End of self-consistent calculation

          k = 0.0000 0.0000 0.0000 ( 26871 PWs)   bands (ev):

   -58.2973 -58.2733 -58.2695 -58.2100 -58.1617 -57.7939 -57.7733 -57.7572
   -57.6222 -57.5922 -57.5717 -57.5146 -57.4887 -56.8989 -56.8777 -56.8518
   -56.8420 -56.8368 -34.6883 -34.6613 -34.6311 -34.6194 -34.6138 -34.6087
   -34.5459 -34.4824 -34.4724 -34.4098 -34.4057 -34.4028 -34.3889 -34.3587
   -34.3339 -34.1960 -34.1500 -34.1451 -34.1248 -34.0965 -34.0831 -34.0785
   -34.0580 -34.0209 -34.0088 -33.9631 -33.9192 -33.8745 -33.8597 -33.8507
   -33.8358 -33.8273 -33.7804 -33.7574 -33.7496 -33.7434 -33.6967 -33.6922
   -33.6784 -33.3604 -33.2224 -33.2119 -33.2024 -33.1880 -33.1812 -33.1743
   -33.1629 -33.1172 -33.0854 -33.0792 -33.0265 -33.0254 -33.0085 -32.8853
   -18.9127 -18.8269 -18.3718 -18.2962 -18.1747 -18.1195 -18.1132 -18.0478
   -17.9450 -17.7239 -17.6836 -17.6748 -17.6466 -17.5389 -17.5309 -17.5273
   -17.4932 -17.4864 -17.4740 -17.3861 -17.3271 -17.3146 -17.3089 -17.3087
   -17.1999 -17.1753 -17.1234 -17.0572 -17.0452 -16.9493 -16.7647 -16.4315
   -15.3536 -15.3130 -15.3032 -15.1939 -13.6002  -6.9786  -6.6401  -6.1792
    -5.9856  -5.7754  -5.6371  -5.5223  -5.4693  -5.3769  -5.3108  -5.2859
    -5.2685  -5.2284  -5.1946  -5.1679  -5.0650  -5.0552  -4.9740  -4.9196
    -4.8741  -4.8279  -4.7856  -4.7392  -4.7368  -4.6975  -4.6284  -4.6178
    -4.5833  -4.5358  -4.5068  -4.4985  -4.4434  -4.4147  -4.3943  -4.2740
    -4.2596  -4.1920  -4.1815  -4.1737  -4.0680  -4.0612  -4.0178  -3.9929
    -3.9810  -3.9617  -3.9127  -3.8313  -3.8043  -3.6440  -3.6221  -3.6119
    -3.5210  -3.3810  -3.3676  -3.3233  -3.2036  -3.1364  -3.1125  -3.0770
    -3.0571  -3.0397  -3.0169  -3.0049  -2.9714  -2.8770  -2.8761  -2.8150
    -2.8127  -2.7979  -2.7758  -2.7706  -2.7311  -2.6585  -2.5993  -2.5866
    -2.5655  -2.5478  -2.4613  -2.4470  -2.3561  -2.3407  -2.2848  -2.2424
    -2.2364  -2.1708  -2.0960  -2.0883  -2.0243  -1.9998  -1.8260  -1.8009
    -1.7234  -1.7179  -1.6513  -1.6244  -1.6015  -1.5493  -1.4246  -1.3936
    -1.2980  -1.1860  -1.0222  -0.7823  -0.5930  -0.5704  -0.5612  -0.5291
    -0.4349  -0.3825  -0.3665  -0.2715   0.9809   1.1270   1.2799   1.3016
     1.4954   1.6049   1.6174   1.6727   1.7515   1.8498

[...]

          k = 0.0380-0.0280 0.0000 ( 26873 PWs)   bands (ev):

[...]

          k =-0.0760-0.0000 0.0000 ( 26902 PWs)   bands (ev):

[...]

          k =-0.0760-0.0559 0.0000 ( 26868 PWs)   bands (ev):

   -58.2906 -58.2865 -58.2629 -58.2098 -58.1618 -57.7938 -57.7729 -57.7577
   -57.6206 -57.5956 -57.5699 -57.5144 -57.4888 -56.8990 -56.8748 -56.8577
   -56.8419 -56.8338 -34.7136 -34.7098 -34.6635 -34.6390 -34.6060 -34.4978
   -34.4830 -34.4490 -34.4458 -34.4333 -34.4268 -34.4069 -34.3847 -34.3814
   -34.3607 -34.2314 -34.1727 -34.1675 -34.1393 -34.1218 -34.0788 -34.0026
   -33.9988 -33.9986 -33.9646 -33.9277 -33.9208 -33.9067 -33.8987 -33.8760
   -33.8656 -33.8502 -33.7753 -33.7668 -33.7394 -33.7146 -33.7129 -33.6947
   -33.6903 -33.3360 -33.2640 -33.2234 -33.2182 -33.2081 -33.1850 -33.1764
   -33.1241 -33.0802 -33.0723 -33.0534 -33.0303 -32.9964 -32.9898 -32.9728
   -18.8911 -18.6219 -18.4745 -18.2384 -18.1383 -17.9745 -17.8917 -17.8789
   -17.8610 -17.8601 -17.7610 -17.7500 -17.6990 -17.6739 -17.6312 -17.6216
   -17.6093 -17.5721 -17.5660 -17.4526 -17.3622 -17.3528 -17.2577 -17.2427
   -17.2155 -17.1539 -17.1355 -17.0461 -17.0268 -16.9540 -16.7727 -16.4162
   -15.3647 -15.3529 -15.2425 -15.1946 -13.5971  -6.9507  -6.6412  -5.9498
    -5.7550  -5.7206  -5.6702  -5.3496  -5.3122  -5.2272  -5.2021  -5.1631
    -5.1379  -5.1237  -5.0936  -5.0823  -5.0071  -4.9703  -4.9612  -4.9574
    -4.9143  -4.8954  -4.8470  -4.8258  -4.7761  -4.7554  -4.7472  -4.7129
    -4.6688  -4.6505  -4.5758  -4.5705  -4.4971  -4.4577  -4.3187  -4.2351
    -4.2099  -4.1802  -4.0835  -4.0762  -4.0370  -3.9445  -3.9254  -3.9047
    -3.7769  -3.7448  -3.6329  -3.6169  -3.5679  -3.5448  -3.5170  -3.4894
    -3.4251  -3.3829  -3.3668  -3.3623  -3.3277  -3.2593  -3.2291  -3.2125
    -3.1812  -3.1630  -3.1526  -3.1418  -3.0756  -3.0590  -3.0291  -2.9896
    -2.9283  -2.9041  -2.8488  -2.8479  -2.7870  -2.7471  -2.6928  -2.6869
    -2.6147  -2.5925  -2.5865  -2.5786  -2.4776  -2.4520  -2.4442  -2.3027
    -2.1641  -2.1128  -2.0698  -1.9666  -1.9085  -1.9050  -1.8810  -1.8129
    -1.7881  -1.7048  -1.6503  -1.6266  -1.6195  -1.5938  -1.3751  -1.3451
    -1.3334  -1.2903  -1.2262  -1.1315  -0.8126  -0.5938  -0.5791  -0.4997
    -0.4767  -0.4237  -0.4024  -0.3879   1.0301   1.2051   1.2767   1.3700
     1.3706   1.4031   1.4528   1.6190   1.6537   1.7886

     the Fermi energy is     0.3879 ev

!    total energy              =   -3293.29225737 Ry
     estimated scf accuracy    <       0.00000002 Ry
     smearing contrib. (-TS)   =      -0.00047754 Ry
     internal energy E=F+TS    =   -3293.29177982 Ry

     The total energy is F=E-TS. E is the sum of the following terms:
     one-electron contribution =  -34639.04679828 Ry
     hartree contribution      =   17383.81357516 Ry
     xc contribution           =    -542.09402972 Ry
     ewald contribution        =   14504.03336695 Ry
     electric field correction =       0.00210607 Ry

     convergence has been achieved in  48 iterations

     Forces acting on atoms (cartesian axes, Ry/au):

     atom    1 type  1   force =     0.00000938    0.00244669    0.04673866
     atom    2 type  1   force =     0.00000792   -0.00341447   -0.00288219
     atom    3 type  1   force =    -0.00000880    0.00323587   -0.00097434
     atom    4 type  1   force =     0.00004966   -0.00098523    0.10172387
     atom    5 type  1   force =    -0.00000925   -0.00070820    0.00562930
     atom    6 type  1   force =    -0.00001259    0.00365397    0.00082535
     atom    7 type  1   force =     0.07821042    0.00086046   -0.03541488
     atom    8 type  1   force =     0.00833879   -0.02587432    0.00017836
     atom    9 type  1   force =     0.00851057    0.02067394    0.00126646
     atom   10 type  2   force =    -0.00005902    0.00867688   -0.15836103
     atom   11 type  2   force =    -0.00003696    0.02308728   -0.00230394
     atom   12 type  2   force =     0.00005736   -0.02559553   -0.00424719
     atom   13 type  1   force =    -0.07830405    0.00040430   -0.03540344
     atom   14 type  1   force =    -0.00838381   -0.02578639    0.00018556
     atom   15 type  1   force =    -0.00846375    0.02078258    0.00129844
     atom   16 type  2   force =     0.00012797    0.00085206    0.07316850
     atom   17 type  2   force =     0.00006329    0.03071766    0.00240885
     atom   18 type  2   force =    -0.00006019   -0.02689297    0.00072026
     atom   19 type  1   force =     0.00003884    0.00299425    0.05011313
     atom   20 type  1   force =    -0.00002030   -0.00126081   -0.00144625
     atom   21 type  1   force =     0.00005186   -0.00064897    0.10019973
     atom   22 type  1   force =    -0.00001464   -0.00179945    0.00546720
     atom   23 type  1   force =    -0.00002183    0.00237556    0.00380971
     atom   24 type  1   force =     0.07915985    0.00064493   -0.03606733
     atom   25 type  1   force =     0.00924679   -0.02947636    0.00062309
     atom   26 type  1   force =     0.00851353    0.02159515    0.00323146
     atom   27 type  2   force =    -0.00007116   -0.00813505   -0.15490741
     atom   28 type  2   force =    -0.00001095    0.02628540   -0.00224085
     atom   29 type  2   force =     0.00003721   -0.02440826   -0.00335290
     atom   30 type  1   force =    -0.07924960    0.00023480   -0.03606442
     atom   31 type  1   force =    -0.00925385   -0.02940807    0.00062820
     atom   32 type  1   force =    -0.00846743    0.02167056    0.00326043
     atom   33 type  2   force =     0.00013666   -0.00255632    0.07887835
     atom   34 type  2   force =     0.00004921    0.03585561    0.00272241
     atom   35 type  2   force =    -0.00006828   -0.02913659    0.00295165
     atom   36 type  1   force =     0.00004118    0.00306352    0.05240163
     atom   37 type  1   force =    -0.00000383   -0.00186878   -0.00285043
     atom   38 type  1   force =    -0.00001984    0.00200461    0.00080639
     atom   39 type  1   force =     0.00004658    0.00286946    0.10113116
     atom   40 type  1   force =    -0.00000998   -0.00169776    0.00620904
     atom   41 type  1   force =    -0.00002765    0.00301118    0.00389884
     atom   42 type  1   force =     0.07826945    0.00076233   -0.03489056
     atom   43 type  1   force =     0.00661539   -0.02303534   -0.00020608
     atom   44 type  1   force =     0.01117511    0.02208139   -0.00715846
     atom   45 type  2   force =    -0.00005910   -0.00551181   -0.16464800
     atom   46 type  2   force =    -0.00007670    0.01959726    0.00099842
     atom   47 type  2   force =     0.00002393   -0.01855252    0.00738501
     atom   48 type  1   force =    -0.07836577    0.00031252   -0.03487283
     atom   49 type  1   force =    -0.00665663   -0.02300295   -0.00020159
     atom   50 type  1   force =    -0.01114536    0.02206650   -0.00711238
     atom   51 type  2   force =     0.00013180   -0.00439076    0.06097953
     atom   52 type  2   force =     0.00012369    0.02965235    0.00357391
     atom   53 type  2   force =    -0.00007761   -0.02494144    0.00094259
     atom   54 type  3   force =    -0.00000691    0.00076745   -0.00014025
     atom   55 type  3   force =    -0.00001791   -0.00009714    0.00012764
     atom   56 type  4   force =    -0.00002485    0.00700728    0.00056279
     atom   57 type  4   force =     0.00000499    0.01200545   -0.00553639
     atom   58 type  3   force =    -0.00001936   -0.01349363    0.00679733
     atom   59 type  3   force =    -0.00001351    0.00042986   -0.00056011

     Total force =     0.437770     Total SCF correction =     0.000418
  @ DRIVER MODE: Message from server: STATUS
  @ DRIVER MODE: Message from server: GETFORCE
  @ DRIVER MODE: Returning v,forces,stress,ensemble

     Writing output data file ./calc.save/
  @ DRIVER MODE: Message from server: EXIT
  @ DRIVE MODE: Exiting

     General routines

     Parallel routines

   This run was terminated on:   1: 7: 2  19Oct2021

   JOB DONE.