     Program PWSCF v.6.7GPU starts on 15Sep2021 at 16:37:32

     R & G space division:  proc/nbgrp/npool/nimage =      10
     Reading input from /storage/home/hcoda1/3/ntian30/research/carbon/CxH_vib/H2O_calc/ads_slab/CH2NNHHH2O_a/out_0003/pw.inp
Warning: card &CELL ignored
Warning: card   CELL_DYNAMICS='IPI', ignored
Warning: card / ignored

     Current dimensions of program PWSCF are:
     Max number of different atomic species (ntypx) = 10
     Max number of k-points (npk) =  40000
     Max angular momentum in pseudopotentials (lmaxx) =  3
     Presently no symmetry can be used with electric field

     Message from routine cell_base_init:
     DEPRECATED: use true lattice parameter, not A to a.u. conversion factor

     IMPORTANT: XC functional enforced from input :
     Exchange-correlation= BEEF-VDW
                           (   1   4  43  14   2   0   0)
     Any further DFT definition will be discarded
     Please, verify this is what you really want

  @ DRIVER MODE: Connecting to
 qe_1139763_2852611.sched-torque.pace.gatech.eduxyao2n9t_scratch
  using UNIX socket
  @ DRIVER MODE: Message from server: STATUS
  @ DRIVER MODE: Message from server: INIT
  @ DRIVER MODE: Receiving replica           0          -1
  @ DRIVER MODE: Receiving encoded integer          25
  @ DRIVER MODE:  SCF:  T  FORCE:  T  STRESS:  F  VC:  F  ENSEMBLE:  F
  @ DRIVER MODE:  SCF:  T  FORCE:  T  STRESS:  F  VC:  F  ENSEMBLE:  F

     Using Slab Decomposition

     bravais-lattice index     =            0
     lattice parameter (alat)  =       1.8897  a.u.
     unit-cell volume          =    6658.9804 (a.u.)^3
     number of atoms/cell      =           57
     number of atomic types    =            5
     number of electrons       =       404.00
     number of Kohn-Sham states=          212
     kinetic-energy cutoff     =      29.3995  Ry
     charge density cutoff     =     293.9946  Ry
     scf convergence threshold =      7.3E-08
     mixing beta               =       0.0500
     number of iterations used =            8  plain     mixing
     Exchange-correlation= BEEF-VDW
                           (   1   4  43  14   2   0   0)

     celldm(1)=   1.889726  celldm(2)=   0.000000  celldm(3)=   0.000000
     celldm(4)=   0.000000  celldm(5)=   0.000000  celldm(6)=   0.000000

     crystal axes: (cart. coord. in units of alat)
               a(1) = (   6.579727   0.000000   0.000000 )
               a(2) = (  -0.000775   5.961596   0.000000 )
               a(3) = (   0.000000   0.000000  25.155947 )

     reciprocal axes: (cart. coord. in units 2 pi/alat)
               b(1) = (  0.151982  0.000020  0.000000 )
               b(2) = (  0.000000  0.167740  0.000000 )
               b(3) = (  0.000000  0.000000  0.039752 )

     PseudoPot. # 1 for Ti read from file:
     /storage/coda1/p-amedford6/0/shared/rich_project_chbe-medford/medford-share/data/pseudos_module/espresso/nninc/pbe/van/Ti.UPF
     MD5 check sum: 8e4df49b7f0d34bbd5052bf3f5ea0213
     Pseudo is Ultrasoft, Zval = 12.0
     Generated by new atomic code, or converted to UPF format
     Using radial grid of  851 points,  6 beta functions with:
                l(1) =   0
                l(2) =   0
                l(3) =   1
                l(4) =   1
                l(5) =   2
                l(6) =   2
     Q(r) pseudized with  8 coefficients,  rinner =    1.000   1.000   1.000
                                                       1.000   1.000

     PseudoPot. # 2 for O  read from file:
     /storage/coda1/p-amedford6/0/shared/rich_project_chbe-medford/medford-share/data/pseudos_module/espresso/nninc/pbe/van/O.UPF
     MD5 check sum: 78c19812648e8988a0fe644b0f25305e
     Pseudo is Ultrasoft, Zval =  6.0
     Generated by new atomic code, or converted to UPF format
     Using radial grid of  737 points,  4 beta functions with:
                l(1) =   0
                l(2) =   0
                l(3) =   1
                l(4) =   1
     Q(r) pseudized with  8 coefficients,  rinner =    0.800   0.800   0.800

     PseudoPot. # 3 for N  read from file:
     /storage/coda1/p-amedford6/0/shared/rich_project_chbe-medford/medford-share/data/pseudos_module/espresso/nninc/pbe/van/N.UPF
     MD5 check sum: 90d10febe142ad51ac9d5be1deb811c4
     Pseudo is Ultrasoft, Zval =  5.0
     Generated by new atomic code, or converted to UPF format
     Using radial grid of  729 points,  4 beta functions with:
                l(1) =   0
                l(2) =   0
                l(3) =   1
                l(4) =   1
     Q(r) pseudized with  8 coefficients,  rinner =    0.800   0.800   0.800

     PseudoPot. # 4 for C  read from file:
     /storage/coda1/p-amedford6/0/shared/rich_project_chbe-medford/medford-share/data/pseudos_module/espresso/nninc/pbe/van/C.UPF
     MD5 check sum: 1a69bf6b8db32088f5b2163dbdb77a27
     Pseudo is Ultrasoft, Zval =  4.0
     Generated by new atomic code, or converted to UPF format
     Using radial grid of  721 points,  4 beta functions with:
                l(1) =   0
                l(2) =   0
                l(3) =   1
                l(4) =   1
     Q(r) pseudized with  8 coefficients,  rinner =    0.800   0.800   0.800

     PseudoPot. # 5 for H  read from file:
     /storage/coda1/p-amedford6/0/shared/rich_project_chbe-medford/medford-share/data/pseudos_module/espresso/nninc/pbe/van/H.UPF
     MD5 check sum: b5ee9d7bfd3a09ee7748110bda690ff7
     Pseudo is Ultrasoft, Zval =  1.0
     Generated by new atomic code, or converted to UPF format
     Using radial grid of  615 points,  1 beta functions with:
                l(1) =   0
     Q(r) pseudized with  8 coefficients,  rinner =    0.800

     atomic species   valence    mass     pseudopotential
        Ti1           12.00    47.86700     Ti( 1.00)
        O1             6.00    15.99900     O ( 1.00)
        N1             5.00    14.00700     N ( 1.00)
        C1             4.00    12.01100     C ( 1.00)
        H1             1.00     1.00800     H ( 1.00)

     No symmetry found

   Cartesian axes

     site n.     atom                  positions (alat units)
         1           Ti1 tau(   1) = (   0.0004258   2.9801865   6.0000000  )
         2           Ti1 tau(   2) = (   3.2906075   1.4906267   6.0002472  )
         3           O1  tau(   3) = (   0.0006271   0.0005054   7.9858123  )
         4           O1  tau(   4) = (   3.2906025   0.0005020   7.3038282  )
         5           O1  tau(   5) = (   4.5942328   1.4918067   9.2879030  )
         6           O1  tau(   6) = (   1.9868534   1.4903216   9.2879459  )
         7           Ti1 tau(   7) = (   3.2907910   2.8959150   9.1758416  )
         8           Ti1 tau(   8) = (   0.0015273   1.4827037   9.2680791  )
         9           O1  tau(   9) = (   3.3121314   5.9338840  11.3691909  )
        10           O1  tau(  10) = (   0.0116148   5.9584955  10.6183126  )
        11           O1  tau(  11) = (   1.3134021   1.4784130  12.6451072  )
        12           O1  tau(  12) = (   5.3172625   1.4801399  12.6491864  )
        13           Ti1 tau(  13) = (   0.0380378   2.9573341  12.5222382  )
        14           Ti1 tau(  14) = (   3.3404755   1.4532591  12.5245293  )
        15           O1  tau(  15) = (   0.0239237   0.0366503  14.6894071  )
        16           O1  tau(  16) = (   3.3255740   5.9570089  14.0129324  )
        17           O1  tau(  17) = (   4.5846449   1.4795273  16.1858442  )
        18           O1  tau(  18) = (   2.0539891   1.4908220  16.1938258  )
        19           Ti1 tau(  19) = (   3.3028508   2.9322526  15.7076921  )
        20           Ti1 tau(  20) = (   0.0088316   1.3655950  16.0522487  )
        21           O1  tau(  21) = (   3.2904802   0.0005063   4.7018136  )
        22           O1  tau(  22) = (   0.0586005   5.8320325  17.2288864  )
        23           O1  tau(  23) = (   1.3043587   1.4918075   6.0039043  )
        24           O1  tau(  24) = (   5.2767064   1.4903225   6.0039473  )
        25           Ti1 tau(  25) = (   0.0000382   5.9609847   6.0000000  )
        26           Ti1 tau(  26) = (   3.2902200   4.4714249   6.0002472  )
        27           O1  tau(  27) = (   0.0002396   2.9813036   7.9858123  )
        28           O1  tau(  28) = (   3.2902150   2.9813002   7.3038282  )
        29           O1  tau(  29) = (   4.5938453   4.4726049   9.2879030  )
        30           O1  tau(  30) = (   1.9864658   4.4711199   9.2879459  )
        31           Ti1 tau(  31) = (   3.2891106   5.8743827   9.1763621  )
        32           Ti1 tau(  32) = (   0.0006254   4.4649316   9.2693709  )
        33           O1  tau(  33) = (   3.3142679   2.9660735  11.3641874  )
        34           O1  tau(  34) = (   0.0092240   2.9805883  10.6323155  )
        35           O1  tau(  35) = (   1.3108675   4.4558178  12.6782323  )
        36           O1  tau(  36) = (   5.3175068   4.4537340  12.6790822  )
        37           Ti1 tau(  37) = (   0.0418451   5.9490355  12.4996082  )
        38           Ti1 tau(  38) = (   3.3402151   4.4429940  12.5219265  )
        39           O1  tau(  39) = (   0.0332256   2.9148708  14.9327709  )
        40           O1  tau(  40) = (   3.3156017   2.9437717  13.9283311  )
        41           O1  tau(  41) = (   4.5915719   4.3868214  16.1197993  )
        42           O1  tau(  42) = (   2.0539401   4.4017640  16.0846163  )
        43           Ti1 tau(  43) = (   3.3369130   5.9116756  15.8392261  )
        44           Ti1 tau(  44) = (   0.0533093   4.5818758  15.8415549  )
        45           O1  tau(  45) = (   3.2900926   2.9813045   4.7018136  )
        46           O1  tau(  46) = (   1.3039711   4.4726057   6.0039043  )
        47           O1  tau(  47) = (   5.2763189   4.4711207   6.0039473  )
        48           N1  tau(  48) = (   6.5287229   2.7702708  18.1865785  )
        49           C1  tau(  49) = (   0.9724842   2.7744648  18.9576868  )
        50           H1  tau(  50) = (   0.9153086   3.0669255  20.0057840  )
        51           H1  tau(  51) = (   1.9225290   2.4867234  18.5393133  )
        52           N1  tau(  52) = (   5.2958906   3.1014149  18.7352402  )
        53           H1  tau(  53) = (   5.3913054   3.6367428  19.5974321  )
        54           H1  tau(  54) = (   4.7863746   3.6605970  18.0522289  )
        55           O1  tau(  55) = (   3.2511457   5.8152340  18.3397965  )
        56           H1  tau(  56) = (   3.7467739   0.6636339  18.5518981  )
        57           H1  tau(  57) = (   2.3053106   0.0674530  18.4201010  )

     number of k points=    10  Fermi-Dirac smearing, width (Ry)=  0.0073
                       cart. coord. in units 2pi/alat
        k(    1) = (   0.0000000   0.0000000   0.0000000), wk =   0.1250000
        k(    2) = (   0.0000000   0.0419351   0.0000000), wk =   0.2500000
        k(    3) = (   0.0000000  -0.0838702   0.0000000), wk =   0.1250000
        k(    4) = (   0.0379955   0.0000049   0.0000000), wk =   0.2500000
        k(    5) = (   0.0379955   0.0419400   0.0000000), wk =   0.2500000
        k(    6) = (   0.0379955  -0.0838652   0.0000000), wk =   0.2500000
        k(    7) = (   0.0379955  -0.0419301   0.0000000), wk =   0.2500000
        k(    8) = (  -0.0759910  -0.0000099   0.0000000), wk =   0.1250000
        k(    9) = (  -0.0759910   0.0419252   0.0000000), wk =   0.2500000
        k(   10) = (  -0.0759910  -0.0838800   0.0000000), wk =   0.1250000

     Initial potential from superposition of free atoms

     starting charge  387.99913, renormalised to  404.00000

     negative rho (up, down):  1.527E-02 0.000E+00

     %%%%%%%%%%%%%%%%%%%%%%%%%%%%%%%%%%%%%%%%%%%%%%%%%%%%%%%%%%%%%%%%%%%%%%%%
     %                                                                      %
     % You are using vdW-DF, which was implemented by the Thonhauser group. %
     % Please cite the following two papers that made this development      %
     % possible and the two reviews that describe the various versions:     %
     %                                                                      %
     %   T. Thonhauser et al., PRL 115, 136402 (2015).                      %
     %   T. Thonhauser et al., PRB 76, 125112 (2007).                       %
     %   K. Berland et al., Rep. Prog. Phys. 78, 066501 (2015).             %
     %   D.C. Langreth et al., J. Phys.: Condens. Matter 21, 084203 (2009). %
     %                                                                      %
     %                                                                      %
     % If you are calculating the stress with vdW-DF, please also cite:     %
     %                                                                      %
     %   R. Sabatini et al., J. Phys.: Condens. Matter 24, 424209 (2012).   %
     %                                                                      %
     %%%%%%%%%%%%%%%%%%%%%%%%%%%%%%%%%%%%%%%%%%%%%%%%%%%%%%%%%%%%%%%%%%%%%%%%

     Adding external electric field

     Computed dipole along edir(3) :
        Dipole              -14.3244 Ry au,        -36.4090 Debye
        Dipole field         -0.0270 Ry au,

        Potential amp.        2.5058 Ry
        Total length         46.3494 bohr

     Starting wfcs are  306 atomic wfcs
  @ DRIVER MODE: Message from server: STATUS
  @ DRIVER MODE: Message from server: POSDATA
  @ DRIVER MODE: Reading and sharing cell
  @ DRIVER MODE: Reading and sharing positions
  @ DRIVER MODE: Received positions

     Self-consistent Calculation

     iteration #  1     ecut=    29.40 Ry     beta= 0.05
     Davidson diagonalization with overlap
     c_bands:  4 eigenvalues not converged
     c_bands:  3 eigenvalues not converged
     c_bands:  5 eigenvalues not converged
     c_bands:  1 eigenvalues not converged
     c_bands:  2 eigenvalues not converged
     c_bands:  1 eigenvalues not converged
     c_bands:  2 eigenvalues not converged
     c_bands:  5 eigenvalues not converged
     c_bands:  5 eigenvalues not converged
     ethr =  1.00E-05,  avg # of iterations = 24.6

[...]

     total energy              =   -2233.94709570 Ry
     estimated scf accuracy    <    8445.28356542 Ry

     iteration #  2     ecut=    29.40 Ry     beta= 0.05
     Davidson diagonalization with overlap
     ethr =  1.00E-02,  avg # of iterations = 25.0

[...]

     iteration # 72     ecut=    29.40 Ry     beta= 0.05
     Davidson diagonalization with overlap
     ethr =  2.80E-11,  avg # of iterations = 11.5

[...]

     total energy              =   -2975.20593287 Ry
     estimated scf accuracy    <       0.00000008 Ry

     iteration # 73     ecut=    29.40 Ry     beta= 0.05
     Davidson diagonalization with overlap
     c_bands:  1 eigenvalues not converged
     ethr =  1.94E-11,  avg # of iterations = 12.0

     negative rho (up, down):  1.521E-02 0.000E+00

     Adding external electric field

     Computed dipole along edir(3) :
        Dipole                1.4026 Ry au,          3.5651 Debye
        Dipole field          0.0026 Ry au,

        Potential amp.       -0.2454 Ry
        Total length         46.3494 bohr

     End of self-consistent calculation

          k = 0.0000 0.0000 0.0000 ( 18029 PWs)   bands (ev):

   -55.1885 -55.1526 -55.1487 -55.1146 -55.1010 -55.0690 -55.0341 -55.0310
   -55.0073 -54.9778 -54.9723 -54.9691 -54.9443 -54.8737 -54.1717 -54.1377
   -31.7538 -31.6403 -31.5984 -31.5578 -31.5072 -31.4967 -31.4898 -31.4824
   -31.4377 -31.4036 -31.4000 -31.3933 -31.3913 -31.3651 -31.3423 -31.3334
   -31.3323 -31.3262 -31.3066 -31.3007 -31.2807 -31.2763 -31.2617 -31.2481
   -31.2371 -31.2344 -31.2139 -31.2078 -31.2058 -31.1992 -31.1934 -31.1755
   -31.1710 -31.1604 -31.1556 -31.1427 -31.1215 -31.1177 -31.1060 -31.0892
   -31.0883 -31.0031 -30.5807 -30.4874 -30.4653 -30.3972 -30.3105 -30.1994
   -18.9152 -18.5212 -16.0144 -15.7490 -15.6131 -15.5030 -15.3873 -15.2576
   -15.2100 -15.0788 -15.0191 -14.9059 -14.8777 -14.8359 -14.8165 -14.8114
   -14.7533 -14.7258 -14.7189 -14.6938 -14.6834 -14.6620 -14.6227 -14.6163
   -14.5804 -14.5696 -14.5656 -14.4208 -14.3431 -14.2787 -13.9673 -13.6662
   -12.6741 -12.5568  -8.8013  -6.7035  -6.4521  -6.0630  -4.1394  -3.3574
    -3.2018  -3.1851  -3.1257  -3.0853  -3.0626  -3.0080  -2.9392  -2.7360
    -2.6010  -2.5742  -2.4551  -2.3891  -2.3845  -2.3316  -2.1888  -2.1839
    -2.1286  -2.0894  -2.0391  -2.0191  -1.9956  -1.9719  -1.9380  -1.9186
    -1.8919  -1.7569  -1.7370  -1.6633  -1.6007  -1.5905  -1.5322  -1.5082
    -1.4903  -1.4840  -1.4754  -1.4631  -1.4244  -1.4107  -1.3673  -1.3129
    -1.2075  -1.1280  -1.0274  -0.9499  -0.8852  -0.8229  -0.7614  -0.7524
    -0.6753  -0.6628  -0.5717  -0.5484  -0.5180  -0.4051  -0.3430  -0.3384
    -0.2751  -0.1733  -0.1447  -0.1282  -0.0573   0.0212   0.0400   0.0489
     0.0557   0.1797   0.2326   0.2651   0.2981   0.3689   0.3905   0.4416
     0.4870   0.4933   0.5725   0.6332   0.6868   0.7370   0.7531   0.7785
     0.7959   0.8057   0.8224   0.9033   0.9261   0.9593   1.0122   1.1678
     1.3274   1.4268   1.4427   1.7608   1.7740   1.8512   2.0356   2.4264
     2.4743   3.9076   3.9845   4.0435   4.0496   4.0589   4.1448   4.3892
     4.4050   4.4176   4.4298   4.4732

[...]

          k = 0.0380-0.0419 0.0000 ( 17876 PWs)   bands (ev):

[...]

          k =-0.0760-0.0000 0.0000 ( 17886 PWs)   bands (ev):

[...]

          k =-0.0760-0.0839 0.0000 ( 17948 PWs)   bands (ev):

   -55.1714 -55.1695 -55.1316 -55.1316 -55.0987 -55.0581 -55.0419 -55.0321
   -54.9928 -54.9862 -54.9712 -54.9613 -54.9610 -54.8756 -54.1546 -54.1546
   -31.5632 -31.5530 -31.5231 -31.4554 -31.4554 -31.4492 -31.4404 -31.4231
   -31.4230 -31.4020 -31.3914 -31.3886 -31.3762 -31.3502 -31.3258 -31.3204
   -31.3202 -31.3198 -31.3175 -31.3082 -31.3027 -31.2839 -31.2706 -31.2679
   -31.2542 -31.2512 -31.2511 -31.2499 -31.2402 -31.2362 -31.2262 -31.2244
   -31.2169 -31.2060 -31.2002 -31.1901 -31.1890 -31.1524 -31.1415 -31.1411
   -31.0973 -31.0895 -30.4779 -30.4779 -30.3933 -30.3931 -30.3539 -30.3538
   -18.9129 -18.5203 -15.5310 -15.4849 -15.3295 -15.1949 -15.1917 -15.1517
   -15.0961 -15.0244 -15.0035 -14.9602 -14.9496 -14.9309 -14.8941 -14.8868
   -14.8606 -14.7898 -14.7803 -14.7720 -14.7381 -14.6990 -14.6883 -14.6869
   -14.6701 -14.6402 -14.6370 -14.5396 -14.5374 -14.4458 -14.3064 -13.6813
   -12.6584 -12.6582  -8.7656  -6.7032  -6.4016  -6.0909  -4.1829  -3.1988
    -2.9301  -2.7489  -2.6434  -2.5416  -2.4145  -2.4087  -2.3235  -2.3151
    -2.2340  -2.1999  -2.1875  -2.1718  -2.0808  -2.0673  -2.0570  -2.0351
    -2.0186  -2.0007  -1.9690  -1.9630  -1.9392  -1.9124  -1.9022  -1.9006
    -1.8826  -1.8485  -1.8171  -1.7981  -1.7774  -1.7469  -1.7358  -1.6681
    -1.6277  -1.5400  -1.5048  -1.3900  -1.3881  -1.3709  -1.3108  -1.2910
    -1.2706  -1.2209  -1.2124  -1.1658  -1.0265  -0.9369  -0.9260  -0.8883
    -0.8389  -0.7903  -0.7433  -0.7274  -0.6616  -0.6409  -0.5483  -0.5327
    -0.4333  -0.3895  -0.3774  -0.3613  -0.2791  -0.2152  -0.1680  -0.1478
    -0.1434  -0.0927  -0.0785  -0.0653   0.0064   0.0537   0.0776   0.0920
     0.1335   0.3020   0.3621   0.3757   0.4956   0.5461   0.6498   0.7101
     0.7848   0.8042   0.8403   0.9308   0.9374   1.0138   1.1087   1.1226
     1.1592   1.2032   1.2520   1.2750   1.2799   2.2085   2.2099   2.2943
     2.2944   4.0515   4.1277   4.1856   4.2337   4.2416   4.3631   4.4249
     4.4677   4.4897   4.4920   4.5676

     the Fermi energy is     3.9656 ev

!    total energy              =   -2975.20594772 Ry
     estimated scf accuracy    <       0.00000005 Ry
     smearing contrib. (-TS)   =      -0.03732481 Ry
     internal energy E=F+TS    =   -2975.16862291 Ry

     The total energy is F=E-TS. E is the sum of the following terms:
     one-electron contribution =  -23538.15445181 Ry
     hartree contribution      =   11867.09832654 Ry
     xc contribution           =    -494.96983471 Ry
     ewald contribution        =    9190.85362453 Ry
     electric field correction =       0.00371253 Ry

     convergence has been achieved in  73 iterations

     Forces acting on atoms (cartesian axes, Ry/au):

     atom    1 type  1   force =     0.00006523   -0.00019691    0.09356112
     atom    2 type  1   force =    -0.00020736   -0.00020774   -0.17803934
     atom    3 type  2   force =     0.00010972   -0.00021332   -0.02066187
     atom    4 type  2   force =     0.00004827   -0.00197826    0.05806380
     atom    5 type  2   force =    -0.01003302   -0.00167160    0.00693262
     atom    6 type  2   force =     0.01217585   -0.00104038    0.00744592
     atom    7 type  1   force =     0.00022227    0.00249438   -0.01211229
     atom    8 type  1   force =    -0.00049206    0.00203286   -0.00193523
     atom    9 type  2   force =     0.00006834    0.00005986   -0.00005144
     atom   10 type  2   force =    -0.00044298   -0.00136194   -0.00317044
     atom   11 type  2   force =     0.00015663   -0.00007439   -0.00006940
     atom   12 type  2   force =    -0.00066467   -0.00011499    0.00009023
     atom   13 type  1   force =     0.00051787    0.00098634    0.00023030
     atom   14 type  1   force =    -0.00139746    0.00028144    0.00016296
     atom   15 type  2   force =    -0.00017198    0.00075779    0.00016547
     atom   16 type  2   force =    -0.00001555   -0.00044088    0.00014233
     atom   17 type  2   force =     0.00062632    0.00000998   -0.00033160
     atom   18 type  2   force =     0.00058117    0.00015015   -0.00037345
     atom   19 type  1   force =    -0.00113308    0.00088055    0.00053492
     atom   20 type  1   force =     0.00052525   -0.00004884   -0.00047858
     atom   21 type  2   force =     0.00001347   -0.00002130    0.10385618
     atom   22 type  2   force =     0.00011248    0.00039991   -0.00020489
     atom   23 type  2   force =    -0.07051526   -0.00011311   -0.02695749
     atom   24 type  2   force =     0.07045406    0.00031572   -0.02702100
     atom   25 type  1   force =     0.00001872   -0.00019660    0.09302250
     atom   26 type  1   force =    -0.00009277   -0.00049342   -0.17795907
     atom   27 type  2   force =     0.00017048   -0.00035624   -0.01954999
     atom   28 type  2   force =     0.00010900   -0.00160342    0.05714646
     atom   29 type  2   force =    -0.01007208   -0.00086199    0.00631272
     atom   30 type  2   force =     0.01213458   -0.00061665    0.00686986
     atom   31 type  1   force =     0.00032008    0.00503697   -0.01528281
     atom   32 type  1   force =    -0.00039353   -0.00266917   -0.00236174
     atom   33 type  2   force =    -0.00003378   -0.00025509   -0.00004773
     atom   34 type  2   force =     0.00046177    0.00032178   -0.00054528
     atom   35 type  2   force =    -0.00011858   -0.00037870   -0.00007147
     atom   36 type  2   force =    -0.00044373   -0.00037175    0.00024824
     atom   37 type  1   force =     0.00026342   -0.00104624    0.00053371
     atom   38 type  1   force =    -0.00122223    0.00024093    0.00128360
     atom   39 type  2   force =    -0.00012830   -0.00046860    0.00035390
     atom   40 type  2   force =     0.00002963   -0.00041457    0.00044665
     atom   41 type  2   force =    -0.00015847   -0.00003887    0.00008105
     atom   42 type  2   force =     0.00123949   -0.00029298    0.00009714
     atom   43 type  1   force =    -0.00118818   -0.00065410   -0.00003773
     atom   44 type  1   force =     0.00092635    0.00106984   -0.00026670
     atom   45 type  2   force =     0.00004174   -0.00002329    0.10379022
     atom   46 type  2   force =    -0.07054726   -0.00008198   -0.02696490
     atom   47 type  2   force =     0.07044869    0.00038490   -0.02699742
     atom   48 type  3   force =    -0.00346808    0.00474710    0.00280596
     atom   49 type  4   force =     0.00119898   -0.00137807   -0.00061043
     atom   50 type  5   force =    -0.00058090    0.00085830   -0.00102242
     atom   51 type  5   force =    -0.00020896   -0.00045514    0.00032773
     atom   52 type  3   force =     0.00023079   -0.00192447   -0.00052149
     atom   53 type  5   force =     0.00114889    0.00044141   -0.00084169
     atom   54 type  5   force =     0.00022019    0.00045334   -0.00022910
     atom   55 type  2   force =    -0.00055760    0.00071515   -0.00012430
     atom   56 type  5   force =    -0.00037405   -0.00034563    0.00082723
     atom   57 type  5   force =     0.00002220   -0.00022805   -0.00049155

     Total force =     0.365776     Total SCF correction =     0.000477
  @ DRIVER MODE: Message from server: STATUS
  @ DRIVER MODE: Message from server: GETFORCE
  @ DRIVER MODE: Returning v,forces,stress,ensemble

     Writing output data file ./calc.save/
  @ DRIVER MODE: Message from server: EXIT
  @ DRIVE MODE: Exiting

     General routines

     Parallel routines

   This run was terminated on:  16:57:28  15Sep2021

   JOB DONE.