     Program PWSCF v.6.7GPU starts on 12Oct2021 at 19: 8:30

     R & G space division:  proc/nbgrp/npool/nimage =       8
     Reading input from /storage/home/hcoda1/3/ntian30/research/carbon/ACS_vib/ads_slab/HNNH/out_0013/pw.inp
Warning: card &CELL ignored
Warning: card   CELL_DYNAMICS='IPI', ignored
Warning: card / ignored

     Current dimensions of program PWSCF are:
     Max number of different atomic species (ntypx) = 10
     Max number of k-points (npk) =  40000
     Max angular momentum in pseudopotentials (lmaxx) =  3
     Presently no symmetry can be used with electric field

     Message from routine cell_base_init:
     DEPRECATED: use true lattice parameter, not A to a.u. conversion factor

     IMPORTANT: XC functional enforced from input :
     Exchange-correlation= BEEF-VDW
                           (   1   4  43  14   2   0   0)
     Any further DFT definition will be discarded
     Please, verify this is what you really want

  @ DRIVER MODE: Connecting to
 qe_1139763_3181311.sched-torque.pace.gatech.edu7qhsbj___scratch
  using UNIX socket
  @ DRIVER MODE: Message from server: STATUS
  @ DRIVER MODE: Message from server: INIT
  @ DRIVER MODE: Receiving replica           0          -1
  @ DRIVER MODE: Receiving encoded integer          25
  @ DRIVER MODE:  SCF:  T  FORCE:  T  STRESS:  F  VC:  F  ENSEMBLE:  F
  @ DRIVER MODE:  SCF:  T  FORCE:  T  STRESS:  F  VC:  F  ENSEMBLE:  F

     Using Slab Decomposition

     bravais-lattice index     =            0
     lattice parameter (alat)  =       1.8897  a.u.
     unit-cell volume          =    6658.9804 (a.u.)^3
     number of atoms/cell      =           51
     number of atomic types    =            4
     number of electrons       =       390.00
     number of Kohn-Sham states=          205
     kinetic-energy cutoff     =      29.3995  Ry
     charge density cutoff     =     293.9946  Ry
     scf convergence threshold =      7.3E-08
     mixing beta               =       0.0500
     number of iterations used =            8  plain     mixing
     Exchange-correlation= BEEF-VDW
                           (   1   4  43  14   2   0   0)

     celldm(1)=   1.889726  celldm(2)=   0.000000  celldm(3)=   0.000000
     celldm(4)=   0.000000  celldm(5)=   0.000000  celldm(6)=   0.000000

     crystal axes: (cart. coord. in units of alat)
               a(1) = (   6.579727   0.000000   0.000000 )
               a(2) = (  -0.000775   5.961596   0.000000 )
               a(3) = (   0.000000   0.000000  25.155947 )

     reciprocal axes: (cart. coord. in units 2 pi/alat)
               b(1) = (  0.151982  0.000020  0.000000 )
               b(2) = (  0.000000  0.167740  0.000000 )
               b(3) = (  0.000000  0.000000  0.039752 )

     PseudoPot. # 1 for Ti read from file:
     /storage/coda1/p-amedford6/0/shared/rich_project_chbe-medford/medford-share/data/pseudos_module/espresso/nninc/pbe/van/Ti.UPF
     MD5 check sum: 8e4df49b7f0d34bbd5052bf3f5ea0213
     Pseudo is Ultrasoft, Zval = 12.0
     Generated by new atomic code, or converted to UPF format
     Using radial grid of  851 points,  6 beta functions with:
                l(1) =   0
                l(2) =   0
                l(3) =   1
                l(4) =   1
                l(5) =   2
                l(6) =   2
     Q(r) pseudized with  8 coefficients,  rinner =    1.000   1.000   1.000
                                                       1.000   1.000

     PseudoPot. # 2 for O  read from file:
     /storage/coda1/p-amedford6/0/shared/rich_project_chbe-medford/medford-share/data/pseudos_module/espresso/nninc/pbe/van/O.UPF
     MD5 check sum: 78c19812648e8988a0fe644b0f25305e
     Pseudo is Ultrasoft, Zval =  6.0
     Generated by new atomic code, or converted to UPF format
     Using radial grid of  737 points,  4 beta functions with:
                l(1) =   0
                l(2) =   0
                l(3) =   1
                l(4) =   1
     Q(r) pseudized with  8 coefficients,  rinner =    0.800   0.800   0.800

     PseudoPot. # 3 for H  read from file:
     /storage/coda1/p-amedford6/0/shared/rich_project_chbe-medford/medford-share/data/pseudos_module/espresso/nninc/pbe/van/H.UPF
     MD5 check sum: b5ee9d7bfd3a09ee7748110bda690ff7
     Pseudo is Ultrasoft, Zval =  1.0
     Generated by new atomic code, or converted to UPF format
     Using radial grid of  615 points,  1 beta functions with:
                l(1) =   0
     Q(r) pseudized with  8 coefficients,  rinner =    0.800

     PseudoPot. # 4 for N  read from file:
     /storage/coda1/p-amedford6/0/shared/rich_project_chbe-medford/medford-share/data/pseudos_module/espresso/nninc/pbe/van/N.UPF
     MD5 check sum: 90d10febe142ad51ac9d5be1deb811c4
     Pseudo is Ultrasoft, Zval =  5.0
     Generated by new atomic code, or converted to UPF format
     Using radial grid of  729 points,  4 beta functions with:
                l(1) =   0
                l(2) =   0
                l(3) =   1
                l(4) =   1
     Q(r) pseudized with  8 coefficients,  rinner =    0.800   0.800   0.800

     atomic species   valence    mass     pseudopotential
        Ti1           12.00    47.86700     Ti( 1.00)
        O1             6.00    15.99900     O ( 1.00)
        H1             1.00     1.00800     H ( 1.00)
        N1             5.00    14.00700     N ( 1.00)

     No symmetry found

   Cartesian axes

     site n.     atom                  positions (alat units)
         1           Ti1 tau(   1) = (   0.0004258   2.9801865   6.0000000  )
         2           Ti1 tau(   2) = (   3.2906075   1.4906267   6.0002472  )
         3           O1  tau(   3) = (   0.0006271   0.0005054   7.9858123  )
         4           O1  tau(   4) = (   3.2906025   0.0005020   7.3038282  )
         5           O1  tau(   5) = (   4.5942328   1.4918067   9.2879030  )
         6           O1  tau(   6) = (   1.9868534   1.4903216   9.2879459  )
         7           Ti1 tau(   7) = (   3.2908881   2.9042228   9.1664735  )
         8           Ti1 tau(   8) = (   0.0028208   1.4453605   9.2576896  )
         9           O1  tau(   9) = (   3.2707936   0.0024169  11.3547307  )
        10           O1  tau(  10) = (   6.5771562   5.9613851  10.5998947  )
        11           O1  tau(  11) = (   1.2750810   1.4887983  12.6623546  )
        12           O1  tau(  12) = (   5.2735957   1.4941237  12.6366476  )
        13           Ti1 tau(  13) = (   6.5484273   3.0048924  12.8091026  )
        14           Ti1 tau(  14) = (   3.2635572   1.4892482  12.5038529  )
        15           O1  tau(  15) = (   6.5112577   5.9342846  14.6610847  )
        16           O1  tau(  16) = (   3.2966729   5.9487847  13.9562402  )
        17           O1  tau(  17) = (   4.4981853   1.5100712  16.1215815  )
        18           O1  tau(  18) = (   1.9927245   1.4809274  16.0269182  )
        19           Ti1 tau(  19) = (   3.2349744   2.9714856  15.7300180  )
        20           Ti1 tau(  20) = (   6.5689460   1.3052557  15.9023701  )
        21           O1  tau(  21) = (   3.2904802   0.0005063   4.7018136  )
        22           O1  tau(  22) = (   6.5497555   0.0700294  17.2054191  )
        23           O1  tau(  23) = (   1.3043587   1.4918075   6.0039043  )
        24           O1  tau(  24) = (   5.2767064   1.4903225   6.0039473  )
        25           Ti1 tau(  25) = (   0.0000382   5.9609847   6.0000000  )
        26           Ti1 tau(  26) = (   3.2902200   4.4714249   6.0002472  )
        27           O1  tau(  27) = (   0.0002396   2.9813036   7.9858123  )
        28           O1  tau(  28) = (   3.2902150   2.9813002   7.3038282  )
        29           O1  tau(  29) = (   4.5938453   4.4726049   9.2879030  )
        30           O1  tau(  30) = (   1.9864658   4.4711199   9.2879459  )
        31           Ti1 tau(  31) = (   3.2899333   5.8856170   9.1744801  )
        32           Ti1 tau(  32) = (   0.0020137   4.3658053   9.3606106  )
        33           O1  tau(  33) = (   3.2690173   2.9735267  11.3530824  )
        34           O1  tau(  34) = (   0.0002412   2.9750176  10.5666245  )
        35           O1  tau(  35) = (   1.2748646   4.4726994  12.6423647  )
        36           O1  tau(  36) = (   5.2720213   4.4664742  12.6163582  )
        37           Ti1 tau(  37) = (   6.5582605   0.0201509  12.4985948  )
        38           Ti1 tau(  38) = (   3.2618569   4.4653106  12.4956167  )
        39           O1  tau(  39) = (   6.5348066   3.0079926  14.7180217  )
        40           O1  tau(  40) = (   3.2797409   2.9875293  13.9337705  )
        41           O1  tau(  41) = (   4.5027845   4.4373921  16.1556124  )
        42           O1  tau(  42) = (   1.9850320   4.4617864  16.0830993  )
        43           Ti1 tau(  43) = (   3.2823567   5.9555293  15.7495178  )
        44           Ti1 tau(  44) = (   6.5552429   4.5047081  16.0597439  )
        45           O1  tau(  45) = (   3.2900926   2.9813045   4.7018136  )
        46           O1  tau(  46) = (   1.3039711   4.4726057   6.0039043  )
        47           O1  tau(  47) = (   5.2763189   4.4711207   6.0039473  )
        48           H1  tau(  48) = (   0.5659039   2.5807529  19.4396776  )
        49           N1  tau(  49) = (   0.9330341   2.9538053  18.5544450  )
        50           N1  tau(  50) = (   6.5141730   3.1816813  17.7405862  )
        51           H1  tau(  51) = (   5.5906726   3.0068531  18.1306748  )

     number of k points=    10  Fermi-Dirac smearing, width (Ry)=  0.0073
                       cart. coord. in units 2pi/alat
        k(    1) = (   0.0000000   0.0000000   0.0000000), wk =   0.1250000
        k(    2) = (   0.0000000   0.0419351   0.0000000), wk =   0.2500000
        k(    3) = (   0.0000000  -0.0838702   0.0000000), wk =   0.1250000
        k(    4) = (   0.0379955   0.0000049   0.0000000), wk =   0.2500000
        k(    5) = (   0.0379955   0.0419400   0.0000000), wk =   0.2500000
        k(    6) = (   0.0379955  -0.0838652   0.0000000), wk =   0.2500000
        k(    7) = (   0.0379955  -0.0419301   0.0000000), wk =   0.2500000
        k(    8) = (  -0.0759910  -0.0000099   0.0000000), wk =   0.1250000
        k(    9) = (  -0.0759910   0.0419252   0.0000000), wk =   0.2500000
        k(   10) = (  -0.0759910  -0.0838800   0.0000000), wk =   0.1250000

     Initial potential from superposition of free atoms

     starting charge  373.99921, renormalised to  390.00000

     negative rho (up, down):  1.941E-02 0.000E+00

     %%%%%%%%%%%%%%%%%%%%%%%%%%%%%%%%%%%%%%%%%%%%%%%%%%%%%%%%%%%%%%%%%%%%%%%%
     %                                                                      %
     % You are using vdW-DF, which was implemented by the Thonhauser group. %
     % Please cite the following two papers that made this development      %
     % possible and the two reviews that describe the various versions:     %
     %                                                                      %
     %   T. Thonhauser et al., PRL 115, 136402 (2015).                      %
     %   T. Thonhauser et al., PRB 76, 125112 (2007).                       %
     %   K. Berland et al., Rep. Prog. Phys. 78, 066501 (2015).             %
     %   D.C. Langreth et al., J. Phys.: Condens. Matter 21, 084203 (2009). %
     %                                                                      %
     %                                                                      %
     % If you are calculating the stress with vdW-DF, please also cite:     %
     %                                                                      %
     %   R. Sabatini et al., J. Phys.: Condens. Matter 24, 424209 (2012).   %
     %                                                                      %
     %%%%%%%%%%%%%%%%%%%%%%%%%%%%%%%%%%%%%%%%%%%%%%%%%%%%%%%%%%%%%%%%%%%%%%%%

     Adding external electric field

     Computed dipole along edir(3) :
        Dipole               -5.1488 Ry au,        -13.0871 Debye
        Dipole field         -0.0097 Ry au,

        Potential amp.        0.9007 Ry
        Total length         46.3494 bohr

     Starting wfcs are  294 atomic wfcs
  @ DRIVER MODE: Message from server: STATUS
  @ DRIVER MODE: Message from server: POSDATA
  @ DRIVER MODE: Reading and sharing cell
  @ DRIVER MODE: Reading and sharing positions
  @ DRIVER MODE: Received positions

     Self-consistent Calculation

     iteration #  1     ecut=    29.40 Ry     beta= 0.05
     Davidson diagonalization with overlap
     c_bands:  5 eigenvalues not converged
     c_bands:  1 eigenvalues not converged
     c_bands:  3 eigenvalues not converged
     c_bands:  4 eigenvalues not converged
     c_bands:  1 eigenvalues not converged
     c_bands:  3 eigenvalues not converged
     c_bands:  2 eigenvalues not converged
     c_bands:  3 eigenvalues not converged
     ethr =  1.00E-05,  avg # of iterations = 20.5

[...]

     total energy              =   -2837.92819586 Ry
     estimated scf accuracy    <     991.01506051 Ry

     iteration #  2     ecut=    29.40 Ry     beta= 0.05
     Davidson diagonalization with overlap
     ethr =  1.00E-02,  avg # of iterations = 16.6

[...]

     iteration # 43     ecut=    29.40 Ry     beta= 0.05
     Davidson diagonalization with overlap
     c_bands:  1 eigenvalues not converged
     c_bands:  1 eigenvalues not converged
     ethr =  3.77E-09,  avg # of iterations = 16.3

[...]

     total energy              =   -2926.39956561 Ry
     estimated scf accuracy    <       0.00000008 Ry

     iteration # 56     ecut=    29.40 Ry     beta= 0.05
     Davidson diagonalization with overlap
     ethr =  2.16E-11,  avg # of iterations =  9.5

     negative rho (up, down):  1.912E-02 0.000E+00

     Adding external electric field

     Computed dipole along edir(3) :
        Dipole                0.7752 Ry au,          1.9703 Debye
        Dipole field          0.0015 Ry au,

        Potential amp.       -0.1356 Ry
        Total length         46.3494 bohr

     End of self-consistent calculation

          k = 0.0000 0.0000 0.0000 ( 18029 PWs)   bands (ev):

   -55.9647 -55.9517 -55.9269 -55.9151 -55.8730 -55.8332 -55.8094 -55.7978
   -55.7398 -55.7151 -55.6814 -55.6253 -55.5763 -55.5041 -54.9320 -54.8979
   -32.5190 -32.4306 -32.3134 -32.3050 -32.2811 -32.2591 -32.2347 -32.2061
   -32.2000 -32.1922 -32.1716 -32.1597 -32.1323 -32.1318 -32.1239 -32.1050
   -32.0989 -32.0827 -32.0631 -32.0529 -32.0289 -32.0160 -32.0071 -32.0068
   -31.9904 -31.9773 -31.9593 -31.9512 -31.9383 -31.9284 -31.9244 -31.8996
   -31.8912 -31.8637 -31.8467 -31.8263 -31.8253 -31.8131 -31.8067 -31.7364
   -31.6914 -31.6202 -31.3399 -31.2490 -31.2263 -31.1565 -31.0701 -30.9591
   -17.9709 -16.7205 -16.4187 -16.2824 -16.1384 -16.0926 -15.9912 -15.8075
   -15.7023 -15.6523 -15.5875 -15.5632 -15.5615 -15.5091 -15.5009 -15.4954
   -15.4720 -15.4332 -15.3976 -15.3570 -15.3535 -15.3464 -15.3133 -15.2514
   -15.2172 -15.1235 -15.0694 -14.9732 -14.9690 -14.8313 -13.4349 -13.3180
   -10.3465  -6.5815  -4.0713  -3.9474  -3.8869  -3.8420  -3.7860  -3.5805
    -3.5278  -3.3131  -3.2504  -3.1541  -3.1097  -3.0901  -3.0852  -3.0030
    -2.8729  -2.7808  -2.7716  -2.7590  -2.7344  -2.7253  -2.7154  -2.6946
    -2.6887  -2.6345  -2.5736  -2.4950  -2.4373  -2.3843  -2.3336  -2.2542
    -2.2332  -2.2202  -2.2116  -2.2064  -2.1711  -2.1653  -2.1513  -2.0260
    -1.9963  -1.9139  -1.7908  -1.7698  -1.6520  -1.5754  -1.5532  -1.4264
    -1.3909  -1.3579  -1.3247  -1.2783  -1.2441  -1.2326  -1.1576  -1.1168
    -1.0212  -0.9860  -0.8868  -0.8405  -0.8356  -0.7697  -0.6984  -0.6875
    -0.6733  -0.5296  -0.4466  -0.4370  -0.4339  -0.3478  -0.2956  -0.2426
    -0.1948  -0.1870  -0.1671  -0.1288  -0.0994  -0.0030   0.0066   0.0398
     0.0540   0.0917   0.1824   0.2521   0.2647   0.3236   0.3387   0.5472
     0.5621   0.5668   0.7092   0.7577   1.0043   1.0894   1.1154   1.2767
     1.6695   1.7246   3.1423   3.2301   3.2458   3.2828   3.3479   3.3923
     3.5446   3.5982   3.6419   3.6689   3.6937

[...]

          k = 0.0380-0.0419 0.0000 ( 17876 PWs)   bands (ev):

[...]

          k =-0.0760-0.0000 0.0000 ( 17886 PWs)   bands (ev):

[...]

          k =-0.0760-0.0839 0.0000 ( 17948 PWs)   bands (ev):

   -55.9541 -55.9373 -55.9361 -55.9305 -55.8680 -55.8229 -55.8143 -55.8080
   -55.7369 -55.6986 -55.6980 -55.6278 -55.5722 -55.5081 -54.9154 -54.9143
   -32.3239 -32.3196 -32.2561 -32.2552 -32.2468 -32.2382 -32.2209 -32.2208
   -32.1635 -32.1612 -32.1554 -32.1487 -32.1312 -32.1052 -32.0872 -32.0798
   -32.0758 -32.0729 -32.0710 -32.0684 -32.0557 -32.0359 -32.0304 -32.0229
   -32.0208 -32.0177 -32.0148 -32.0114 -31.9629 -31.9399 -31.9360 -31.9356
   -31.9208 -31.9079 -31.9038 -31.8968 -31.8535 -31.8245 -31.8230 -31.7409
   -31.7271 -31.6659 -31.2397 -31.2384 -31.1533 -31.1523 -31.1138 -31.1127
   -17.9651 -16.1585 -16.1305 -15.9801 -15.8896 -15.8784 -15.8338 -15.7740
   -15.7451 -15.6879 -15.6562 -15.6386 -15.6211 -15.6039 -15.5788 -15.5311
   -15.4825 -15.4766 -15.4668 -15.4508 -15.4014 -15.3918 -15.3667 -15.3566
   -15.3356 -15.2708 -15.2491 -15.2032 -15.1237 -14.9957 -13.4218 -13.4176
   -10.3509  -6.5821  -3.4444  -3.4116  -3.2938  -3.2088  -3.1048  -3.1004
    -3.0204  -2.9557  -2.9152  -2.8701  -2.8225  -2.8013  -2.7699  -2.7648
    -2.7579  -2.7467  -2.7357  -2.7032  -2.6904  -2.6639  -2.6459  -2.6263
    -2.6161  -2.6003  -2.5688  -2.5572  -2.5417  -2.4994  -2.4964  -2.4913
    -2.4860  -2.2891  -2.2515  -2.2073  -2.1554  -2.0788  -2.0625  -2.0413
    -2.0087  -1.9928  -1.9829  -1.9131  -1.8172  -1.7011  -1.6657  -1.6435
    -1.6295  -1.5870  -1.4088  -1.3804  -1.3654  -1.3373  -1.3071  -1.2578
    -1.2259  -1.2075  -1.1113  -1.0918  -1.0478  -0.9738  -0.9193  -0.8993
    -0.8669  -0.8300  -0.7857  -0.7471  -0.7054  -0.6899  -0.6251  -0.5765
    -0.5316  -0.5118  -0.4937  -0.4068  -0.3252  -0.3061  -0.1032   0.0311
     0.0630   0.0755   0.2126   0.2302   0.2669   0.3363   0.3722   0.4120
     0.4707   0.5726   0.5781   0.5872   0.5982   0.6590   1.4507   1.4552
     1.5295   1.5418   3.2042   3.3918   3.4340   3.4749   3.5345   3.6778
     3.7017   3.7032   3.7262   3.7821   3.8477

     the Fermi energy is     3.1868 ev

!    total energy              =   -2926.39962555 Ry
     estimated scf accuracy    <       0.00000007 Ry
     smearing contrib. (-TS)   =      -0.03276016 Ry
     internal energy E=F+TS    =   -2926.36686539 Ry

     The total energy is F=E-TS. E is the sum of the following terms:
     one-electron contribution =  -24580.81009880 Ry
     hartree contribution      =   12374.47799361 Ry
     xc contribution           =    -480.78574350 Ry
     ewald contribution        =    9760.74984932 Ry
     electric field correction =       0.00113398 Ry

     convergence has been achieved in  56 iterations

     Forces acting on atoms (cartesian axes, Ry/au):

     atom    1 type  1   force =     0.00019332    0.00160405    0.10333442
     atom    2 type  1   force =     0.00006927   -0.00226314   -0.17660443
     atom    3 type  2   force =     0.00017586    0.00648636   -0.03458301
     atom    4 type  2   force =    -0.00004639   -0.00102721    0.05243013
     atom    5 type  2   force =    -0.01732997   -0.00087225    0.00516523
     atom    6 type  2   force =     0.01634255   -0.00066420    0.00402797
     atom    7 type  1   force =     0.00050796    0.00282655   -0.00770808
     atom    8 type  1   force =    -0.00011942   -0.00005433    0.00046948
     atom    9 type  2   force =     0.00013921   -0.00018538   -0.00051548
     atom   10 type  2   force =     0.00006802   -0.00015180   -0.00041414
     atom   11 type  2   force =     0.00023892    0.00016264    0.00030574
     atom   12 type  2   force =     0.00018455    0.00030632    0.00017516
     atom   13 type  1   force =    -0.00040255    0.00068740   -0.00067778
     atom   14 type  1   force =    -0.00039977   -0.00004546   -0.00094753
     atom   15 type  2   force =    -0.00012936    0.00073685    0.00005397
     atom   16 type  2   force =     0.00003386   -0.00015983    0.00076653
     atom   17 type  2   force =    -0.00002869    0.00025648    0.00010827
     atom   18 type  2   force =    -0.00031638    0.00028164   -0.00009055
     atom   19 type  1   force =     0.00010272   -0.00052097    0.00080847
     atom   20 type  1   force =    -0.00019569   -0.00097241    0.00116200
     atom   21 type  2   force =     0.00012956   -0.00007654    0.10327232
     atom   22 type  2   force =    -0.00023436    0.00008321    0.00069846
     atom   23 type  2   force =    -0.07031214    0.00113741   -0.02966280
     atom   24 type  2   force =     0.07030510    0.00156710   -0.02966906
     atom   25 type  1   force =     0.00010448   -0.00166992    0.11622016
     atom   26 type  1   force =    -0.00001402    0.00126962   -0.17607461
     atom   27 type  2   force =     0.00010842   -0.00260002   -0.02892020
     atom   28 type  2   force =    -0.00003930   -0.00141150    0.05146949
     atom   29 type  2   force =    -0.01884550    0.00097659    0.00642833
     atom   30 type  2   force =     0.01784847    0.00162387    0.00534280
     atom   31 type  1   force =     0.00051709   -0.00132890   -0.01367694
     atom   32 type  1   force =    -0.00010911   -0.00102277    0.00065506
     atom   33 type  2   force =     0.00007168   -0.00014213   -0.00047526
     atom   34 type  2   force =     0.00008924   -0.00064587    0.00081337
     atom   35 type  2   force =     0.00037216   -0.00019024    0.00039453
     atom   36 type  2   force =     0.00009231   -0.00015189    0.00029263
     atom   37 type  1   force =    -0.00014993    0.00020831    0.00004761
     atom   38 type  1   force =    -0.00051739   -0.00054945   -0.00072516
     atom   39 type  2   force =    -0.00025575   -0.00040519    0.00074508
     atom   40 type  2   force =     0.00010262   -0.00014395    0.00137948
     atom   41 type  2   force =     0.00002064   -0.00030814   -0.00006984
     atom   42 type  2   force =    -0.00081436   -0.00024571   -0.00021403
     atom   43 type  1   force =     0.00029173    0.00025757    0.00028565
     atom   44 type  1   force =    -0.00027737    0.00117001    0.00179948
     atom   45 type  2   force =     0.00012459   -0.00004191    0.10352078
     atom   46 type  2   force =    -0.07074334   -0.00147660   -0.02962729
     atom   47 type  2   force =     0.07072890   -0.00104606   -0.02966019
     atom   48 type  3   force =    -0.00000747   -0.00070405    0.00069891
     atom   49 type  4   force =    -0.00772517    0.00238879   -0.00721571
     atom   50 type  4   force =     0.02178227    0.00059840   -0.00110554
     atom   51 type  3   force =    -0.01173207   -0.00355133    0.00576608

     Total force =     0.375614     Total SCF correction =     0.000544
  @ DRIVER MODE: Message from server: STATUS
  @ DRIVER MODE: Message from server: GETFORCE
  @ DRIVER MODE: Returning v,forces,stress,ensemble

     Writing output data file ./calc.save/
  @ DRIVER MODE: Message from server: EXIT
  @ DRIVE MODE: Exiting

     General routines

     Parallel routines

   This run was terminated on:  19:28:27  12Oct2021

   JOB DONE.