     Program PWSCF v.6.7GPU starts on 23Aug2021 at 19:38: 3

     R & G space division:  proc/nbgrp/npool/nimage =       6
     Reading input from /storage/home/hcoda1/3/ntian30/research/carbon/CH_vib/ads_slab/CHNH_a/out_0015/pw.inp
Warning: card &CELL ignored
Warning: card   CELL_DYNAMICS='IPI', ignored
Warning: card / ignored

     Current dimensions of program PWSCF are:
     Max number of different atomic species (ntypx) = 10
     Max number of k-points (npk) =  40000
     Max angular momentum in pseudopotentials (lmaxx) =  3
     Presently no symmetry can be used with electric field

     Message from routine cell_base_init:
     DEPRECATED: use true lattice parameter, not A to a.u. conversion factor

     IMPORTANT: XC functional enforced from input :
     Exchange-correlation= BEEF-VDW
                           (   1   4  43  14   2   0   0)
     Any further DFT definition will be discarded
     Please, verify this is what you really want

  @ DRIVER MODE: Connecting to
 qe_1139763_2632799.sched-torque.pace.gatech.edusc6k86ut_scratch
  using UNIX socket
  @ DRIVER MODE: Message from server: STATUS
  @ DRIVER MODE: Message from server: INIT
  @ DRIVER MODE: Receiving replica           0          -1
  @ DRIVER MODE: Receiving encoded integer          25
  @ DRIVER MODE:  SCF:  T  FORCE:  T  STRESS:  F  VC:  F  ENSEMBLE:  F
  @ DRIVER MODE:  SCF:  T  FORCE:  T  STRESS:  F  VC:  F  ENSEMBLE:  F

     Using Slab Decomposition

     bravais-lattice index     =            0
     lattice parameter (alat)  =       1.8897  a.u.
     unit-cell volume          =    6658.9804 (a.u.)^3
     number of atoms/cell      =           51
     number of atomic types    =            5
     number of electrons       =       389.00
     number of Kohn-Sham states=          204
     kinetic-energy cutoff     =      29.3995  Ry
     charge density cutoff     =     293.9946  Ry
     scf convergence threshold =      7.3E-08
     mixing beta               =       0.0500
     number of iterations used =            8  plain     mixing
     Exchange-correlation= BEEF-VDW
                           (   1   4  43  14   2   0   0)

     celldm(1)=   1.889726  celldm(2)=   0.000000  celldm(3)=   0.000000
     celldm(4)=   0.000000  celldm(5)=   0.000000  celldm(6)=   0.000000

     crystal axes: (cart. coord. in units of alat)
               a(1) = (   6.579727   0.000000   0.000000 )
               a(2) = (  -0.000775   5.961596   0.000000 )
               a(3) = (   0.000000   0.000000  25.155947 )

     reciprocal axes: (cart. coord. in units 2 pi/alat)
               b(1) = (  0.151982  0.000020  0.000000 )
               b(2) = (  0.000000  0.167740  0.000000 )
               b(3) = (  0.000000  0.000000  0.039752 )

     PseudoPot. # 1 for Ti read from file:
     /storage/coda1/p-amedford6/0/shared/rich_project_chbe-medford/medford-share/data/pseudos_module/espresso/nninc/pbe/van/Ti.UPF
     MD5 check sum: 8e4df49b7f0d34bbd5052bf3f5ea0213
     Pseudo is Ultrasoft, Zval = 12.0
     Generated by new atomic code, or converted to UPF format
     Using radial grid of  851 points,  6 beta functions with:
                l(1) =   0
                l(2) =   0
                l(3) =   1
                l(4) =   1
                l(5) =   2
                l(6) =   2
     Q(r) pseudized with  8 coefficients,  rinner =    1.000   1.000   1.000
                                                       1.000   1.000

     PseudoPot. # 2 for O  read from file:
     /storage/coda1/p-amedford6/0/shared/rich_project_chbe-medford/medford-share/data/pseudos_module/espresso/nninc/pbe/van/O.UPF
     MD5 check sum: 78c19812648e8988a0fe644b0f25305e
     Pseudo is Ultrasoft, Zval =  6.0
     Generated by new atomic code, or converted to UPF format
     Using radial grid of  737 points,  4 beta functions with:
                l(1) =   0
                l(2) =   0
                l(3) =   1
                l(4) =   1
     Q(r) pseudized with  8 coefficients,  rinner =    0.800   0.800   0.800

     PseudoPot. # 3 for N  read from file:
     /storage/coda1/p-amedford6/0/shared/rich_project_chbe-medford/medford-share/data/pseudos_module/espresso/nninc/pbe/van/N.UPF
     MD5 check sum: 90d10febe142ad51ac9d5be1deb811c4
     Pseudo is Ultrasoft, Zval =  5.0
     Generated by new atomic code, or converted to UPF format
     Using radial grid of  729 points,  4 beta functions with:
                l(1) =   0
                l(2) =   0
                l(3) =   1
                l(4) =   1
     Q(r) pseudized with  8 coefficients,  rinner =    0.800   0.800   0.800

     PseudoPot. # 4 for C  read from file:
     /storage/coda1/p-amedford6/0/shared/rich_project_chbe-medford/medford-share/data/pseudos_module/espresso/nninc/pbe/van/C.UPF
     MD5 check sum: 1a69bf6b8db32088f5b2163dbdb77a27
     Pseudo is Ultrasoft, Zval =  4.0
     Generated by new atomic code, or converted to UPF format
     Using radial grid of  721 points,  4 beta functions with:
                l(1) =   0
                l(2) =   0
                l(3) =   1
                l(4) =   1
     Q(r) pseudized with  8 coefficients,  rinner =    0.800   0.800   0.800

     PseudoPot. # 5 for H  read from file:
     /storage/coda1/p-amedford6/0/shared/rich_project_chbe-medford/medford-share/data/pseudos_module/espresso/nninc/pbe/van/H.UPF
     MD5 check sum: b5ee9d7bfd3a09ee7748110bda690ff7
     Pseudo is Ultrasoft, Zval =  1.0
     Generated by new atomic code, or converted to UPF format
     Using radial grid of  615 points,  1 beta functions with:
                l(1) =   0
     Q(r) pseudized with  8 coefficients,  rinner =    0.800

     atomic species   valence    mass     pseudopotential
        Ti1           12.00    47.86700     Ti( 1.00)
        O1             6.00    15.99900     O ( 1.00)
        N1             5.00    14.00700     N ( 1.00)
        C1             4.00    12.01100     C ( 1.00)
        H1             1.00     1.00800     H ( 1.00)

     No symmetry found

   Cartesian axes

     site n.     atom                  positions (alat units)
         1           Ti1 tau(   1) = (   0.0004258   2.9801865   6.0000000  )
         2           Ti1 tau(   2) = (   3.2906075   1.4906267   6.0002472  )
         3           O1  tau(   3) = (   0.0006271   0.0005054   7.9858123  )
         4           O1  tau(   4) = (   3.2906025   0.0005020   7.3038282  )
         5           O1  tau(   5) = (   4.5942328   1.4918067   9.2879030  )
         6           O1  tau(   6) = (   1.9868534   1.4903216   9.2879459  )
         7           Ti1 tau(   7) = (   3.2907910   2.8959150   9.1758416  )
         8           Ti1 tau(   8) = (   0.0015273   1.4827037   9.2680791  )
         9           O1  tau(   9) = (   3.3107583   5.9394213  11.3440837  )
        10           O1  tau(  10) = (   0.0116148   5.9584955  10.6183126  )
        11           O1  tau(  11) = (   1.3209705   1.4681434  12.6387851  )
        12           O1  tau(  12) = (   5.3117763   1.4689694  12.6372993  )
        13           Ti1 tau(  13) = (   6.5586693   2.9297660  12.6634068  )
        14           Ti1 tau(  14) = (   3.2703198   1.4638114  12.4955107  )
        15           O1  tau(  15) = (   0.0083729   5.9498784  14.6531507  )
        16           O1  tau(  16) = (   3.3267446   5.9373244  13.9471573  )
        17           O1  tau(  17) = (   4.5400383   1.4607670  16.1300196  )
        18           O1  tau(  18) = (   2.0562451   1.4605895  16.0859588  )
        19           Ti1 tau(  19) = (   3.3219294   2.9366742  15.7081325  )
        20           Ti1 tau(  20) = (   0.0794022   1.3719971  16.1804440  )
        21           O1  tau(  21) = (   3.2904802   0.0005063   4.7018136  )
        22           O1  tau(  22) = (   0.0048811   5.8540159  17.1722642  )
        23           O1  tau(  23) = (   1.3043587   1.4918075   6.0039043  )
        24           O1  tau(  24) = (   5.2767064   1.4903225   6.0039473  )
        25           Ti1 tau(  25) = (   0.0000382   5.9609847   6.0000000  )
        26           Ti1 tau(  26) = (   3.2902200   4.4714249   6.0002472  )
        27           O1  tau(  27) = (   0.0002396   2.9813036   7.9858123  )
        28           O1  tau(  28) = (   3.2902150   2.9813002   7.3038282  )
        29           O1  tau(  29) = (   4.5938453   4.4726049   9.2879030  )
        30           O1  tau(  30) = (   1.9864658   4.4711199   9.2879459  )
        31           Ti1 tau(  31) = (   3.2891106   5.8743827   9.1763621  )
        32           Ti1 tau(  32) = (   0.0006254   4.4649316   9.2693709  )
        33           O1  tau(  33) = (   3.3036409   2.9595551  11.3414423  )
        34           O1  tau(  34) = (   0.0092240   2.9805883  10.6323155  )
        35           O1  tau(  35) = (   1.3251634   4.4629088  12.6456700  )
        36           O1  tau(  36) = (   5.3099897   4.4533368  12.6426351  )
        37           Ti1 tau(  37) = (   0.0071655   5.9203210  12.5194715  )
        38           Ti1 tau(  38) = (   3.2774562   4.4456010  12.4944480  )
        39           O1  tau(  39) = (   0.0172281   2.9510719  14.7337574  )
        40           O1  tau(  40) = (   3.3230371   2.9488945  13.9167408  )
        41           O1  tau(  41) = (   4.5572773   4.4147185  16.0816828  )
        42           O1  tau(  42) = (   2.0601761   4.4202290  16.0727324  )
        43           Ti1 tau(  43) = (   3.3574729   5.9210026  15.7440268  )
        44           Ti1 tau(  44) = (   0.0706454   4.5402764  15.7844247  )
        45           O1  tau(  45) = (   3.2900926   2.9813045   4.7018136  )
        46           O1  tau(  46) = (   1.3039711   4.4726057   6.0039043  )
        47           O1  tau(  47) = (   5.2763189   4.4711207   6.0039473  )
        48           N1  tau(  48) = (   6.3928749   2.8496863  17.7411295  )
        49           C1  tau(  49) = (   0.6235525   2.6789418  18.7295412  )
        50           H1  tau(  50) = (   1.5351458   2.1020716  18.4733693  )
        51           H1  tau(  51) = (   5.5197072   3.3230476  17.9821812  )

     number of k points=    10  Fermi-Dirac smearing, width (Ry)=  0.0073
                       cart. coord. in units 2pi/alat
        k(    1) = (   0.0000000   0.0000000   0.0000000), wk =   0.1250000
        k(    2) = (   0.0000000   0.0419351   0.0000000), wk =   0.2500000
        k(    3) = (   0.0000000  -0.0838702   0.0000000), wk =   0.1250000
        k(    4) = (   0.0379955   0.0000049   0.0000000), wk =   0.2500000
        k(    5) = (   0.0379955   0.0419400   0.0000000), wk =   0.2500000
        k(    6) = (   0.0379955  -0.0838652   0.0000000), wk =   0.2500000
        k(    7) = (   0.0379955  -0.0419301   0.0000000), wk =   0.2500000
        k(    8) = (  -0.0759910  -0.0000099   0.0000000), wk =   0.1250000
        k(    9) = (  -0.0759910   0.0419252   0.0000000), wk =   0.2500000
        k(   10) = (  -0.0759910  -0.0838800   0.0000000), wk =   0.1250000

     Initial potential from superposition of free atoms

     starting charge  372.99918, renormalised to  389.00000

     negative rho (up, down):  1.910E-02 0.000E+00

     %%%%%%%%%%%%%%%%%%%%%%%%%%%%%%%%%%%%%%%%%%%%%%%%%%%%%%%%%%%%%%%%%%%%%%%%
     %                                                                      %
     % You are using vdW-DF, which was implemented by the Thonhauser group. %
     % Please cite the following two papers that made this development      %
     % possible and the two reviews that describe the various versions:     %
     %                                                                      %
     %   T. Thonhauser et al., PRL 115, 136402 (2015).                      %
     %   T. Thonhauser et al., PRB 76, 125112 (2007).                       %
     %   K. Berland et al., Rep. Prog. Phys. 78, 066501 (2015).             %
     %   D.C. Langreth et al., J. Phys.: Condens. Matter 21, 084203 (2009). %
     %                                                                      %
     %                                                                      %
     % If you are calculating the stress with vdW-DF, please also cite:     %
     %                                                                      %
     %   R. Sabatini et al., J. Phys.: Condens. Matter 24, 424209 (2012).   %
     %                                                                      %
     %%%%%%%%%%%%%%%%%%%%%%%%%%%%%%%%%%%%%%%%%%%%%%%%%%%%%%%%%%%%%%%%%%%%%%%%

     Adding external electric field

     Computed dipole along edir(3) :
        Dipole               -4.7381 Ry au,        -12.0430 Debye
        Dipole field         -0.0089 Ry au,

        Potential amp.        0.8289 Ry
        Total length         46.3494 bohr

     Starting wfcs are  294 atomic wfcs
  @ DRIVER MODE: Message from server: STATUS
  @ DRIVER MODE: Message from server: POSDATA
  @ DRIVER MODE: Reading and sharing cell
  @ DRIVER MODE: Reading and sharing positions
  @ DRIVER MODE: Received positions

     Self-consistent Calculation

     iteration #  1     ecut=    29.40 Ry     beta= 0.05
     Davidson diagonalization with overlap
     c_bands:  4 eigenvalues not converged
     c_bands:  2 eigenvalues not converged
     c_bands:  1 eigenvalues not converged
     c_bands:  3 eigenvalues not converged
     c_bands:  2 eigenvalues not converged
     c_bands:  1 eigenvalues not converged
     c_bands:  2 eigenvalues not converged
     c_bands:  2 eigenvalues not converged
     c_bands:  1 eigenvalues not converged
     c_bands:  1 eigenvalues not converged
     ethr =  1.00E-05,  avg # of iterations = 20.0

[...]

     total energy              =   -2847.36928180 Ry
     estimated scf accuracy    <     789.51743551 Ry

     iteration #  2     ecut=    29.40 Ry     beta= 0.05
     Davidson diagonalization with overlap
     ethr =  1.00E-02,  avg # of iterations = 15.2

[...]

     iteration # 66     ecut=    29.40 Ry     beta= 0.05
     Davidson diagonalization with overlap
     ethr =  7.06E-11,  avg # of iterations =  9.9

[...]

     total energy              =   -2917.76278474 Ry
     estimated scf accuracy    <       0.00000012 Ry

     iteration # 68     ecut=    29.40 Ry     beta= 0.05
     Davidson diagonalization with overlap
     c_bands:  1 eigenvalues not converged
     ethr =  3.04E-11,  avg # of iterations = 14.7

     negative rho (up, down):  1.797E-02 0.000E+00

     Adding external electric field

     Computed dipole along edir(3) :
        Dipole                0.1179 Ry au,          0.2998 Debye
        Dipole field          0.0002 Ry au,

        Potential amp.       -0.0206 Ry
        Total length         46.3494 bohr

     End of self-consistent calculation

          k = 0.0000 0.0000 0.0000 ( 18029 PWs)   bands (ev):

   -56.3252 -56.3198 -56.2888 -56.2857 -56.2195 -56.1860 -56.1594 -56.1452
   -56.1273 -56.1076 -56.0929 -56.0741 -55.9224 -55.7624 -55.3049 -55.2709
   -32.8871 -32.8033 -32.6719 -32.6672 -32.6395 -32.6278 -32.6121 -32.5978
   -32.5622 -32.5550 -32.5336 -32.5302 -32.5036 -32.4721 -32.4709 -32.4606
   -32.4560 -32.4251 -32.4239 -32.4177 -32.3923 -32.3813 -32.3770 -32.3449
   -32.3390 -32.3263 -32.3257 -32.3189 -32.3146 -32.3104 -32.2919 -32.2763
   -32.2761 -32.2640 -32.2596 -32.2298 -32.2225 -32.2166 -32.1355 -32.0466
   -31.9965 -31.8942 -31.7125 -31.6231 -31.6007 -31.5291 -31.4425 -31.3316
   -17.0847 -16.8181 -16.6513 -16.4988 -16.4639 -16.3526 -16.1871 -16.0631
   -16.0197 -16.0009 -15.9187 -15.8955 -15.8669 -15.8599 -15.8581 -15.8347
   -15.8312 -15.7763 -15.7539 -15.7372 -15.7110 -15.6919 -15.6684 -15.6334
   -15.5348 -15.4798 -15.4557 -15.3879 -15.3192 -14.9874 -13.8075 -13.6909
    -8.2679  -4.4506  -4.3587  -4.2743  -4.2298  -4.1869  -3.9713  -3.8959
    -3.8882  -3.6941  -3.5649  -3.5167  -3.5014  -3.4600  -3.4586  -3.2453
    -3.2064  -3.1428  -3.1385  -3.1208  -3.1165  -3.0894  -3.0803  -3.0597
    -3.0114  -2.9303  -2.8703  -2.7669  -2.7350  -2.6835  -2.6595  -2.6349
    -2.5982  -2.5878  -2.5797  -2.5610  -2.5461  -2.5319  -2.4434  -2.3980
    -2.2933  -2.1600  -2.1442  -2.1226  -1.9391  -1.8847  -1.8081  -1.7886
    -1.7585  -1.7440  -1.7172  -1.6323  -1.5547  -1.5213  -1.4514  -1.4478
    -1.3597  -1.3171  -1.2283  -1.2001  -1.1656  -1.0881  -1.0788  -1.0721
    -1.0205  -0.8265  -0.8019  -0.7948  -0.7736  -0.7101  -0.6542  -0.6174
    -0.5586  -0.5309  -0.4900  -0.4054  -0.3982  -0.3627  -0.3414  -0.3268
    -0.2980  -0.2931  -0.1035  -0.0988  -0.0547  -0.0422   0.0446   0.1983
     0.2913   0.3282   0.4020   0.6387   0.7170   0.7944   0.9079   1.2895
     1.3356   2.5437   2.8118   2.8842   2.9000   2.9413   3.0369   3.0475
     3.2633   3.2735   3.2999   3.3198

[...]

          k = 0.0380-0.0419 0.0000 ( 17876 PWs)   bands (ev):

[...]

          k =-0.0760-0.0000 0.0000 ( 17886 PWs)   bands (ev):

[...]

          k =-0.0760-0.0839 0.0000 ( 17948 PWs)   bands (ev):

   -56.3097 -56.3041 -56.3037 -56.3016 -56.2140 -56.1770 -56.1647 -56.1541
   -56.1114 -56.1081 -56.0926 -56.0895 -55.9208 -55.7638 -55.2879 -55.2877
   -32.6935 -32.6866 -32.6192 -32.6178 -32.6003 -32.5984 -32.5967 -32.5867
   -32.5282 -32.5232 -32.5225 -32.5112 -32.4851 -32.4557 -32.4504 -32.4404
   -32.4340 -32.4291 -32.4255 -32.4240 -32.4232 -32.4220 -32.4209 -32.3911
   -32.3865 -32.3689 -32.3571 -32.3444 -32.3339 -32.3245 -32.3229 -32.3150
   -32.3133 -32.3059 -32.3044 -32.2870 -32.2830 -32.2113 -32.1380 -32.0684
   -32.0002 -31.9452 -31.6135 -31.6133 -31.5253 -31.5251 -31.4859 -31.4858
   -16.5310 -16.4905 -16.3208 -16.2580 -16.2467 -16.2352 -16.1918 -16.0798
   -16.0478 -16.0295 -16.0084 -15.9958 -15.9726 -15.9625 -15.8699 -15.8578
   -15.8546 -15.8322 -15.7930 -15.7887 -15.7869 -15.7757 -15.7598 -15.7578
   -15.7230 -15.6488 -15.6446 -15.4247 -15.3327 -15.2651 -13.7929 -13.7924
    -8.2711  -4.0578  -3.8203  -3.7698  -3.6444  -3.5535  -3.4932  -3.4728
    -3.3978  -3.2780  -3.2193  -3.2120  -3.2019  -3.1707  -3.1648  -3.1440
    -3.1339  -3.1207  -3.0778  -3.0569  -3.0409  -3.0310  -3.0054  -2.9916
    -2.9699  -2.9600  -2.9474  -2.9226  -2.8873  -2.8855  -2.8567  -2.8488
    -2.6248  -2.6103  -2.5470  -2.4973  -2.4746  -2.4632  -2.4602  -2.4021
    -2.3819  -2.3599  -2.2630  -2.1964  -2.0436  -2.0268  -2.0188  -1.9799
    -1.9471  -1.8152  -1.7562  -1.7370  -1.7055  -1.6547  -1.6455  -1.5837
    -1.5666  -1.5288  -1.4598  -1.4231  -1.3765  -1.3576  -1.2834  -1.2770
    -1.2439  -1.1904  -1.1110  -1.0904  -1.0728  -1.0607  -1.0062  -0.9663
    -0.9219  -0.8685  -0.7975  -0.7023  -0.6222  -0.4719  -0.4093  -0.3096
    -0.2490  -0.2108  -0.1572  -0.1278  -0.0414  -0.0104  -0.0081   0.0540
     0.0895   0.1891   0.1943   0.2120   0.4400   1.0795   1.0806   1.1548
     1.1557   2.5479   3.0781   3.0924   3.1043   3.1514   3.3096   3.3155
     3.3425   3.3450   3.4352   3.4680

     the Fermi energy is     2.8131 ev

!    total energy              =   -2917.76280667 Ry
     estimated scf accuracy    <       0.00000005 Ry
     smearing contrib. (-TS)   =      -0.02758612 Ry
     internal energy E=F+TS    =   -2917.73522055 Ry

     The total energy is F=E-TS. E is the sum of the following terms:
     one-electron contribution =  -24683.89492917 Ry
     hartree contribution      =   12421.74612778 Ry
     xc contribution           =    -479.08082577 Ry
     ewald contribution        =    9823.49438036 Ry
     electric field correction =       0.00002625 Ry

     convergence has been achieved in  68 iterations

     Forces acting on atoms (cartesian axes, Ry/au):

     atom    1 type  1   force =     0.00012573   -0.00024614    0.09633996
     atom    2 type  1   force =    -0.00005653   -0.00047415   -0.17579428
     atom    3 type  2   force =     0.00009060   -0.00007972   -0.02478812
     atom    4 type  2   force =     0.00006412   -0.00165727    0.05386332
     atom    5 type  2   force =    -0.01231383   -0.00180891    0.00351066
     atom    6 type  2   force =     0.01428698   -0.00152724    0.00391653
     atom    7 type  1   force =     0.00061228    0.00061607   -0.01169692
     atom    8 type  1   force =    -0.00020022    0.02054592    0.02642032
     atom    9 type  2   force =    -0.00054962    0.00047575   -0.00019688
     atom   10 type  2   force =    -0.00145648   -0.00066984   -0.01375642
     atom   11 type  2   force =     0.00040989    0.00026465   -0.00019530
     atom   12 type  2   force =    -0.00053929    0.00053946   -0.00042866
     atom   13 type  1   force =     0.00052167   -0.00032976   -0.00081344
     atom   14 type  1   force =    -0.00116559    0.00108824   -0.00111586
     atom   15 type  2   force =    -0.00000698   -0.00021683    0.00073923
     atom   16 type  2   force =     0.00022832    0.00066899   -0.00039983
     atom   17 type  2   force =    -0.00078792    0.00043512   -0.00089804
     atom   18 type  2   force =     0.00137571    0.00073562    0.00025403
     atom   19 type  1   force =    -0.00034101    0.00060056   -0.00098711
     atom   20 type  1   force =    -0.00017944    0.00046839    0.00008212
     atom   21 type  2   force =     0.00004851    0.00002387    0.10338014
     atom   22 type  2   force =     0.00036974   -0.00080943    0.00055201
     atom   23 type  2   force =    -0.07129386   -0.00003709   -0.02763738
     atom   24 type  2   force =     0.07125803    0.00035096   -0.02773993
     atom   25 type  1   force =     0.00019923   -0.00035599    0.09606506
     atom   26 type  1   force =     0.00001331   -0.00026128   -0.17595230
     atom   27 type  2   force =     0.00021840   -0.00037074   -0.02359079
     atom   28 type  2   force =     0.00006384   -0.00138202    0.05391883
     atom   29 type  2   force =    -0.01263687    0.00048893    0.00327504
     atom   30 type  2   force =     0.01458432    0.00113888    0.00365779
     atom   31 type  1   force =     0.00072423    0.00351283   -0.01312440
     atom   32 type  1   force =     0.00000255   -0.02244451    0.02632472
     atom   33 type  2   force =     0.00005924   -0.00002571    0.00099943
     atom   34 type  2   force =    -0.00088521   -0.00053947   -0.01872706
     atom   35 type  2   force =    -0.00024601   -0.00022727    0.00017353
     atom   36 type  2   force =     0.00010674   -0.00033419   -0.00005020
     atom   37 type  1   force =     0.00038360    0.00059203   -0.00046768
     atom   38 type  1   force =    -0.00132058   -0.00095328   -0.00047194
     atom   39 type  2   force =     0.00002229    0.00110698   -0.00051218
     atom   40 type  2   force =    -0.00013425   -0.00010890   -0.00035225
     atom   41 type  2   force =     0.00049988    0.00026672    0.00011902
     atom   42 type  2   force =    -0.00075962    0.00004353   -0.00033679
     atom   43 type  1   force =    -0.00044019   -0.00015347   -0.00062486
     atom   44 type  1   force =    -0.00018347    0.00072236   -0.00069846
     atom   45 type  2   force =     0.00006468   -0.00000903    0.10337140
     atom   46 type  2   force =    -0.07127942   -0.00006996   -0.02764273
     atom   47 type  2   force =     0.07125404    0.00041836   -0.02770704
     atom   48 type  3   force =    -0.00185725   -0.00001055   -0.00062482
     atom   49 type  4   force =     0.00455571   -0.00328538   -0.00061749
     atom   50 type  5   force =    -0.00487727    0.00345712    0.00077107
     atom   51 type  5   force =     0.00136729   -0.00017321    0.00021497

     Total force =     0.369029     Total SCF correction =     0.000412
  @ DRIVER MODE: Message from server: STATUS
  @ DRIVER MODE: Message from server: GETFORCE
  @ DRIVER MODE: Returning v,forces,stress,ensemble

     Writing output data file ./calc.save/
  @ DRIVER MODE: Message from server: EXIT
  @ DRIVE MODE: Exiting

     General routines

     Parallel routines

   This run was terminated on:  20: 7: 3  23Aug2021

   JOB DONE.