     Program PWSCF v.6.7GPU starts on 16Sep2021 at  3:51:22

     R & G space division:  proc/nbgrp/npool/nimage =      10
     Reading input from /storage/home/hcoda1/3/ntian30/research/carbon/CxH_vib/H2O_calc/ads_slab/CH3NNHHHH2O_a/out_0035/pw.inp
Warning: card &CELL ignored
Warning: card   CELL_DYNAMICS='IPI', ignored
Warning: card / ignored

     Current dimensions of program PWSCF are:
     Max number of different atomic species (ntypx) = 10
     Max number of k-points (npk) =  40000
     Max angular momentum in pseudopotentials (lmaxx) =  3
     Presently no symmetry can be used with electric field

     Message from routine cell_base_init:
     DEPRECATED: use true lattice parameter, not A to a.u. conversion factor

     IMPORTANT: XC functional enforced from input :
     Exchange-correlation= BEEF-VDW
                           (   1   4  43  14   2   0   0)
     Any further DFT definition will be discarded
     Please, verify this is what you really want

  @ DRIVER MODE: Connecting to
 qe_1139763_2852622.sched-torque.pace.gatech.edurte2odl1_scratch
  using UNIX socket
  @ DRIVER MODE: Message from server: STATUS
  @ DRIVER MODE: Message from server: INIT
  @ DRIVER MODE: Receiving replica           0          -1
  @ DRIVER MODE: Receiving encoded integer          25
  @ DRIVER MODE:  SCF:  T  FORCE:  T  STRESS:  F  VC:  F  ENSEMBLE:  F
  @ DRIVER MODE:  SCF:  T  FORCE:  T  STRESS:  F  VC:  F  ENSEMBLE:  F

     Using Slab Decomposition

     bravais-lattice index     =            0
     lattice parameter (alat)  =       1.8897  a.u.
     unit-cell volume          =    6658.9804 (a.u.)^3
     number of atoms/cell      =           59
     number of atomic types    =            5
     number of electrons       =       406.00
     number of Kohn-Sham states=          213
     kinetic-energy cutoff     =      29.3995  Ry
     charge density cutoff     =     293.9946  Ry
     scf convergence threshold =      7.3E-08
     mixing beta               =       0.0500
     number of iterations used =            8  plain     mixing
     Exchange-correlation= BEEF-VDW
                           (   1   4  43  14   2   0   0)

     celldm(1)=   1.889726  celldm(2)=   0.000000  celldm(3)=   0.000000
     celldm(4)=   0.000000  celldm(5)=   0.000000  celldm(6)=   0.000000

     crystal axes: (cart. coord. in units of alat)
               a(1) = (   6.579727   0.000000   0.000000 )
               a(2) = (  -0.000775   5.961596   0.000000 )
               a(3) = (   0.000000   0.000000  25.155947 )

     reciprocal axes: (cart. coord. in units 2 pi/alat)
               b(1) = (  0.151982  0.000020  0.000000 )
               b(2) = (  0.000000  0.167740  0.000000 )
               b(3) = (  0.000000  0.000000  0.039752 )

     PseudoPot. # 1 for Ti read from file:
     /storage/coda1/p-amedford6/0/shared/rich_project_chbe-medford/medford-share/data/pseudos_module/espresso/nninc/pbe/van/Ti.UPF
     MD5 check sum: 8e4df49b7f0d34bbd5052bf3f5ea0213
     Pseudo is Ultrasoft, Zval = 12.0
     Generated by new atomic code, or converted to UPF format
     Using radial grid of  851 points,  6 beta functions with:
                l(1) =   0
                l(2) =   0
                l(3) =   1
                l(4) =   1
                l(5) =   2
                l(6) =   2
     Q(r) pseudized with  8 coefficients,  rinner =    1.000   1.000   1.000
                                                       1.000   1.000

     PseudoPot. # 2 for O  read from file:
     /storage/coda1/p-amedford6/0/shared/rich_project_chbe-medford/medford-share/data/pseudos_module/espresso/nninc/pbe/van/O.UPF
     MD5 check sum: 78c19812648e8988a0fe644b0f25305e
     Pseudo is Ultrasoft, Zval =  6.0
     Generated by new atomic code, or converted to UPF format
     Using radial grid of  737 points,  4 beta functions with:
                l(1) =   0
                l(2) =   0
                l(3) =   1
                l(4) =   1
     Q(r) pseudized with  8 coefficients,  rinner =    0.800   0.800   0.800

     PseudoPot. # 3 for N  read from file:
     /storage/coda1/p-amedford6/0/shared/rich_project_chbe-medford/medford-share/data/pseudos_module/espresso/nninc/pbe/van/N.UPF
     MD5 check sum: 90d10febe142ad51ac9d5be1deb811c4
     Pseudo is Ultrasoft, Zval =  5.0
     Generated by new atomic code, or converted to UPF format
     Using radial grid of  729 points,  4 beta functions with:
                l(1) =   0
                l(2) =   0
                l(3) =   1
                l(4) =   1
     Q(r) pseudized with  8 coefficients,  rinner =    0.800   0.800   0.800

     PseudoPot. # 4 for C  read from file:
     /storage/coda1/p-amedford6/0/shared/rich_project_chbe-medford/medford-share/data/pseudos_module/espresso/nninc/pbe/van/C.UPF
     MD5 check sum: 1a69bf6b8db32088f5b2163dbdb77a27
     Pseudo is Ultrasoft, Zval =  4.0
     Generated by new atomic code, or converted to UPF format
     Using radial grid of  721 points,  4 beta functions with:
                l(1) =   0
                l(2) =   0
                l(3) =   1
                l(4) =   1
     Q(r) pseudized with  8 coefficients,  rinner =    0.800   0.800   0.800

     PseudoPot. # 5 for H  read from file:
     /storage/coda1/p-amedford6/0/shared/rich_project_chbe-medford/medford-share/data/pseudos_module/espresso/nninc/pbe/van/H.UPF
     MD5 check sum: b5ee9d7bfd3a09ee7748110bda690ff7
     Pseudo is Ultrasoft, Zval =  1.0
     Generated by new atomic code, or converted to UPF format
     Using radial grid of  615 points,  1 beta functions with:
                l(1) =   0
     Q(r) pseudized with  8 coefficients,  rinner =    0.800

     atomic species   valence    mass     pseudopotential
        Ti1           12.00    47.86700     Ti( 1.00)
        O1             6.00    15.99900     O ( 1.00)
        N1             5.00    14.00700     N ( 1.00)
        C1             4.00    12.01100     C ( 1.00)
        H1             1.00     1.00800     H ( 1.00)

     No symmetry found

   Cartesian axes

     site n.     atom                  positions (alat units)
         1           Ti1 tau(   1) = (   0.0004258   2.9801865   6.0000000  )
         2           Ti1 tau(   2) = (   3.2906075   1.4906267   6.0002472  )
         3           O1  tau(   3) = (   0.0006271   0.0005054   7.9858123  )
         4           O1  tau(   4) = (   3.2906025   0.0005020   7.3038282  )
         5           O1  tau(   5) = (   4.5942328   1.4918067   9.2879030  )
         6           O1  tau(   6) = (   1.9868534   1.4903216   9.2879459  )
         7           Ti1 tau(   7) = (   3.2907910   2.8959150   9.1758416  )
         8           Ti1 tau(   8) = (   0.0015273   1.4827037   9.2680791  )
         9           O1  tau(   9) = (   3.2800960   5.9426830  11.3808346  )
        10           O1  tau(  10) = (   0.0116148   5.9584955  10.6183126  )
        11           O1  tau(  11) = (   1.2797812   1.4911726  12.6624455  )
        12           O1  tau(  12) = (   5.2824698   1.4871998  12.6412817  )
        13           Ti1 tau(  13) = (   0.0041451   2.9720195  12.5119452  )
        14           Ti1 tau(  14) = (   3.3095611   1.4699318  12.5307708  )
        15           O1  tau(  15) = (   6.5436702   0.0697967  14.6864816  )
        16           O1  tau(  16) = (   3.2812162   5.9597207  14.0300411  )
        17           O1  tau(  17) = (   4.5129646   1.5046642  16.2361130  )
        18           O1  tau(  18) = (   1.9708392   1.5012857  16.1671103  )
        19           Ti1 tau(  19) = (   3.2655272   2.9480959  15.7331506  )
        20           Ti1 tau(  20) = (   6.5674642   1.4497656  15.9937491  )
        21           O1  tau(  21) = (   3.2904802   0.0005063   4.7018136  )
        22           O1  tau(  22) = (   6.5217933   5.8323795  17.2454964  )
        23           O1  tau(  23) = (   1.3043587   1.4918075   6.0039043  )
        24           O1  tau(  24) = (   5.2767064   1.4903225   6.0039473  )
        25           Ti1 tau(  25) = (   0.0000382   5.9609847   6.0000000  )
        26           Ti1 tau(  26) = (   3.2902200   4.4714249   6.0002472  )
        27           O1  tau(  27) = (   0.0002396   2.9813036   7.9858123  )
        28           O1  tau(  28) = (   3.2902150   2.9813002   7.3038282  )
        29           O1  tau(  29) = (   4.5938453   4.4726049   9.2879030  )
        30           O1  tau(  30) = (   1.9864658   4.4711199   9.2879459  )
        31           Ti1 tau(  31) = (   3.2891106   5.8743827   9.1763621  )
        32           Ti1 tau(  32) = (   0.0006254   4.4649316   9.2693709  )
        33           O1  tau(  33) = (   3.2830490   2.9749636  11.3746576  )
        34           O1  tau(  34) = (   0.0092240   2.9805883  10.6323155  )
        35           O1  tau(  35) = (   1.2760807   4.4612897  12.6946019  )
        36           O1  tau(  36) = (   5.2846406   4.4647657  12.6742532  )
        37           Ti1 tau(  37) = (   0.0173662   5.9591775  12.4970172  )
        38           Ti1 tau(  38) = (   3.3070294   4.4569304  12.5379467  )
        39           O1  tau(  39) = (   6.5190077   2.9374781  14.9220565  )
        40           O1  tau(  40) = (   3.2909943   2.9519766  13.9498127  )
        41           O1  tau(  41) = (   4.5146313   4.4149292  16.1460290  )
        42           O1  tau(  42) = (   1.9668235   4.4047650  16.1116202  )
        43           Ti1 tau(  43) = (   3.2426406   5.9218513  15.8539982  )
        44           Ti1 tau(  44) = (   6.5337747   4.6515477  15.8702276  )
        45           O1  tau(  45) = (   3.2900926   2.9813045   4.7018136  )
        46           O1  tau(  46) = (   1.3039711   4.4726057   6.0039043  )
        47           O1  tau(  47) = (   5.2763189   4.4711207   6.0039473  )
        48           N1  tau(  48) = (   1.0802268   3.0592680  18.8437747  )
        49           N1  tau(  49) = (   6.4825355   2.6367244  18.1156036  )
        50           C1  tau(  50) = (   0.7269815   3.7261681  20.0984356  )
        51           H1  tau(  51) = (   0.0344531   4.5672025  19.9493712  )
        52           H1  tau(  52) = (   0.2718923   3.0081313  20.7822053  )
        53           H1  tau(  53) = (   1.6424345   4.1087450  20.5385440  )
        54           H1  tau(  54) = (   5.7152520   3.3097272  18.2274121  )
        55           H1  tau(  55) = (   6.1788988   1.7551022  18.5268573  )
        56           H1  tau(  56) = (   1.5478348   3.7306874  18.2371031  )
        57           O1  tau(  57) = (   3.1661568   0.0027346  18.3937517  )
        58           H1  tau(  58) = (   4.0701885   0.3469208  18.4697374  )
        59           H1  tau(  59) = (   2.5798038   0.7742236  18.5044111  )

     number of k points=    10  Fermi-Dirac smearing, width (Ry)=  0.0073
                       cart. coord. in units 2pi/alat
        k(    1) = (   0.0000000   0.0000000   0.0000000), wk =   0.1250000
        k(    2) = (   0.0000000   0.0419351   0.0000000), wk =   0.2500000
        k(    3) = (   0.0000000  -0.0838702   0.0000000), wk =   0.1250000
        k(    4) = (   0.0379955   0.0000049   0.0000000), wk =   0.2500000
        k(    5) = (   0.0379955   0.0419400   0.0000000), wk =   0.2500000
        k(    6) = (   0.0379955  -0.0838652   0.0000000), wk =   0.2500000
        k(    7) = (   0.0379955  -0.0419301   0.0000000), wk =   0.2500000
        k(    8) = (  -0.0759910  -0.0000099   0.0000000), wk =   0.1250000
        k(    9) = (  -0.0759910   0.0419252   0.0000000), wk =   0.2500000
        k(   10) = (  -0.0759910  -0.0838800   0.0000000), wk =   0.1250000

     Initial potential from superposition of free atoms

     starting charge  389.99912, renormalised to  406.00000

     negative rho (up, down):  1.307E-02 0.000E+00

     %%%%%%%%%%%%%%%%%%%%%%%%%%%%%%%%%%%%%%%%%%%%%%%%%%%%%%%%%%%%%%%%%%%%%%%%
     %                                                                      %
     % You are using vdW-DF, which was implemented by the Thonhauser group. %
     % Please cite the following two papers that made this development      %
     % possible and the two reviews that describe the various versions:     %
     %                                                                      %
     %   T. Thonhauser et al., PRL 115, 136402 (2015).                      %
     %   T. Thonhauser et al., PRB 76, 125112 (2007).                       %
     %   K. Berland et al., Rep. Prog. Phys. 78, 066501 (2015).             %
     %   D.C. Langreth et al., J. Phys.: Condens. Matter 21, 084203 (2009). %
     %                                                                      %
     %                                                                      %
     % If you are calculating the stress with vdW-DF, please also cite:     %
     %                                                                      %
     %   R. Sabatini et al., J. Phys.: Condens. Matter 24, 424209 (2012).   %
     %                                                                      %
     %%%%%%%%%%%%%%%%%%%%%%%%%%%%%%%%%%%%%%%%%%%%%%%%%%%%%%%%%%%%%%%%%%%%%%%%

     Adding external electric field

     Computed dipole along edir(3) :
        Dipole              -16.1150 Ry au,        -40.9603 Debye
        Dipole field         -0.0304 Ry au,

        Potential amp.        2.8191 Ry
        Total length         46.3494 bohr

     Starting wfcs are  308 atomic wfcs
  @ DRIVER MODE: Message from server: STATUS
  @ DRIVER MODE: Message from server: POSDATA
  @ DRIVER MODE: Reading and sharing cell
  @ DRIVER MODE: Reading and sharing positions
  @ DRIVER MODE: Received positions

     Self-consistent Calculation

     iteration #  1     ecut=    29.40 Ry     beta= 0.05
     Davidson diagonalization with overlap
     c_bands:  2 eigenvalues not converged
     c_bands:  3 eigenvalues not converged
     c_bands:  2 eigenvalues not converged
     c_bands:  3 eigenvalues not converged
     c_bands:  4 eigenvalues not converged
     c_bands:  2 eigenvalues not converged
     c_bands:  1 eigenvalues not converged
     c_bands:  5 eigenvalues not converged
     c_bands:  1 eigenvalues not converged
     ethr =  1.00E-05,  avg # of iterations = 23.1

[...]

     total energy              =   -2140.63576587 Ry
     estimated scf accuracy    <    9598.81286589 Ry

     iteration #  2     ecut=    29.40 Ry     beta= 0.05
     Davidson diagonalization with overlap
     ethr =  1.00E-02,  avg # of iterations = 32.1

[...]

     iteration # 63     ecut=    29.40 Ry     beta= 0.05
     Davidson diagonalization with overlap
     c_bands:  1 eigenvalues not converged
     c_bands:  3 eigenvalues not converged
     ethr =  2.51E-11,  avg # of iterations = 16.0

[...]

     total energy              =   -2977.70008749 Ry
     estimated scf accuracy    <       0.00000012 Ry

     iteration # 64     ecut=    29.40 Ry     beta= 0.05
     Davidson diagonalization with overlap
     ethr =  2.51E-11,  avg # of iterations =  6.0

     negative rho (up, down):  1.408E-02 0.000E+00

     Adding external electric field

     Computed dipole along edir(3) :
        Dipole                1.3385 Ry au,          3.4021 Debye
        Dipole field          0.0025 Ry au,

        Potential amp.       -0.2341 Ry
        Total length         46.3494 bohr

     End of self-consistent calculation

          k = 0.0000 0.0000 0.0000 ( 18029 PWs)   bands (ev):

   -55.1191 -55.0824 -55.0750 -55.0409 -55.0350 -55.0300 -54.9983 -54.9624
   -54.9440 -54.9092 -54.9054 -54.8885 -54.8718 -54.8378 -54.1049 -54.0708
   -31.6809 -31.5947 -31.5674 -31.4874 -31.4331 -31.4304 -31.4167 -31.4109
   -31.3640 -31.3411 -31.3307 -31.3198 -31.3129 -31.3102 -31.2919 -31.2837
   -31.2634 -31.2607 -31.2584 -31.2402 -31.2276 -31.2181 -31.2008 -31.1962
   -31.1888 -31.1770 -31.1741 -31.1449 -31.1323 -31.1291 -31.1244 -31.1039
   -31.1011 -31.0936 -31.0901 -31.0664 -31.0573 -31.0408 -31.0334 -31.0314
   -31.0165 -31.0151 -30.5142 -30.4200 -30.3979 -30.3306 -30.2438 -30.1329
   -18.8070 -17.8180 -15.9503 -15.6949 -15.5583 -15.4572 -15.3226 -15.2163
   -15.1350 -15.0209 -14.9710 -14.8556 -14.8235 -14.8190 -14.7795 -14.7480
   -14.6993 -14.6606 -14.6583 -14.6360 -14.6167 -14.6088 -14.5660 -14.5592
   -14.5196 -14.5176 -14.4978 -14.3616 -14.2801 -14.2101 -14.0277 -13.2050
   -12.6073 -12.4898  -9.7810  -6.5387  -6.4019  -5.4562  -4.9163  -3.5298
    -3.2838  -3.1391  -3.0869  -3.0510  -3.0155  -2.9616  -2.8815  -2.8233
    -2.6512  -2.5813  -2.5562  -2.4040  -2.3299  -2.3203  -2.2637  -2.1640
    -2.1392  -2.0925  -2.0503  -1.9856  -1.9482  -1.9248  -1.9029  -1.8678
    -1.8641  -1.8101  -1.7562  -1.6870  -1.5973  -1.5659  -1.5200  -1.4764
    -1.4543  -1.4516  -1.4114  -1.4050  -1.3950  -1.3500  -1.3438  -1.3136
    -1.2676  -1.1581  -1.0080  -0.9458  -0.8557  -0.7615  -0.7356  -0.7107
    -0.6906  -0.6284  -0.6060  -0.5763  -0.5012  -0.4527  -0.3735  -0.3275
    -0.3047  -0.2250  -0.1204  -0.1033  -0.0961  -0.0078   0.0843   0.0972
     0.1118   0.1215   0.2193   0.2848   0.3185   0.3602   0.4245   0.4336
     0.4916   0.5204   0.5718   0.6384   0.6713   0.7504   0.7899   0.8108
     0.8164   0.8388   0.8588   0.8701   0.9514   0.9603   0.9858   1.0746
     1.1790   1.3333   1.4794   1.4903   1.8236   1.8246   1.9181   2.1017
     2.4942   2.5425   3.9752   4.0509   4.1094   4.1205   4.1260   4.2110
     4.4601   4.4779   4.4894   4.4909   4.5259

[...]

          k = 0.0380-0.0419 0.0000 ( 17876 PWs)   bands (ev):

[...]

          k =-0.0760-0.0000 0.0000 ( 17886 PWs)   bands (ev):

[...]

          k =-0.0760-0.0839 0.0000 ( 17948 PWs)   bands (ev):

   -55.1046 -55.0966 -55.0580 -55.0578 -55.0323 -55.0289 -54.9854 -54.9752
   -54.9295 -54.9231 -54.8904 -54.8893 -54.8881 -54.8395 -54.0878 -54.0877
   -31.5100 -31.4906 -31.4808 -31.3826 -31.3824 -31.3770 -31.3704 -31.3493
   -31.3492 -31.3286 -31.3235 -31.3180 -31.3082 -31.2892 -31.2758 -31.2614
   -31.2570 -31.2558 -31.2522 -31.2458 -31.2438 -31.2401 -31.2281 -31.2271
   -31.1979 -31.1970 -31.1797 -31.1777 -31.1776 -31.1689 -31.1685 -31.1627
   -31.1542 -31.1419 -31.1363 -31.1209 -31.1193 -31.1031 -31.0694 -31.0687
   -31.0674 -31.0440 -30.4106 -30.4105 -30.3268 -30.3266 -30.2873 -30.2872
   -18.8055 -17.8147 -15.5303 -15.3917 -15.2526 -15.1490 -15.1341 -15.0805
   -15.0314 -14.9896 -14.9480 -14.9037 -14.8936 -14.8756 -14.8472 -14.8202
   -14.7959 -14.7366 -14.7203 -14.7047 -14.6824 -14.6356 -14.6278 -14.6250
   -14.6179 -14.5716 -14.5691 -14.5440 -14.4754 -14.4733 -14.2868 -13.2069
   -12.5914 -12.5913  -9.7779  -6.5898  -6.3249  -5.4534  -4.9271  -3.5028
    -2.9575  -2.8383  -2.6538  -2.6178  -2.4722  -2.3718  -2.3267  -2.2984
    -2.2447  -2.1991  -2.1390  -2.1239  -2.1056  -2.0468  -2.0215  -2.0027
    -1.9713  -1.9523  -1.9386  -1.9201  -1.9027  -1.8746  -1.8483  -1.8396
    -1.8350  -1.8061  -1.7904  -1.7509  -1.7441  -1.7363  -1.6931  -1.6811
    -1.6548  -1.5983  -1.4908  -1.4805  -1.3281  -1.3258  -1.2911  -1.2462
    -1.2264  -1.2161  -1.1556  -1.1476  -1.1354  -0.8994  -0.8723  -0.8623
    -0.8351  -0.7771  -0.7594  -0.6967  -0.6873  -0.6034  -0.5887  -0.4867
    -0.4708  -0.4137  -0.3311  -0.3231  -0.3110  -0.1998  -0.1501  -0.1125
    -0.0861  -0.0759  -0.0585  -0.0205  -0.0204   0.0694   0.1128   0.1431
     0.1584   0.1882   0.3529   0.4015   0.4104   0.5495   0.5633   0.7113
     0.7747   0.7890   0.8763   0.8970   0.9846   0.9947   1.0343   1.1738
     1.1854   1.2086   1.2556   1.2840   1.3359   1.3411   2.2744   2.2757
     2.3624   2.3626   4.1077   4.2329   4.2392   4.2999   4.4093   4.4425
     4.4886   4.5223   4.5595   4.5623   4.6302

     the Fermi energy is     4.0373 ev

!    total energy              =   -2977.70012029 Ry
     estimated scf accuracy    <       0.00000004 Ry
     smearing contrib. (-TS)   =      -0.03675185 Ry
     internal energy E=F+TS    =   -2977.66336845 Ry

     The total energy is F=E-TS. E is the sum of the following terms:
     one-electron contribution =  -23083.27344604 Ry
     hartree contribution      =   11640.78615298 Ry
     xc contribution           =    -496.62519001 Ry
     ewald contribution        =    8961.44573378 Ry
     electric field correction =       0.00338084 Ry

     convergence has been achieved in  64 iterations

     Forces acting on atoms (cartesian axes, Ry/au):

     atom    1 type  1   force =     0.00017913   -0.00019313    0.09313553
     atom    2 type  1   force =    -0.00010404   -0.00033242   -0.17819232
     atom    3 type  2   force =     0.00002113   -0.00017951   -0.02037209
     atom    4 type  2   force =    -0.00002694   -0.00200720    0.05899434
     atom    5 type  2   force =    -0.01060198   -0.00142131    0.00860335
     atom    6 type  2   force =     0.01186478   -0.00070473    0.00713451
     atom    7 type  1   force =    -0.00089291    0.00313907   -0.01229193
     atom    8 type  1   force =     0.00054861    0.00113171   -0.00451013
     atom    9 type  2   force =    -0.00007402   -0.00037188    0.00015321
     atom   10 type  2   force =    -0.00129467   -0.00051152   -0.00194444
     atom   11 type  2   force =    -0.00021623   -0.00021839   -0.00005741
     atom   12 type  2   force =     0.00060597   -0.00007489   -0.00024216
     atom   13 type  1   force =    -0.00103078   -0.00062997    0.00022777
     atom   14 type  1   force =     0.00011761   -0.00004520    0.00016259
     atom   15 type  2   force =    -0.00027411   -0.00052066   -0.00005323
     atom   16 type  2   force =    -0.00000755   -0.00007859    0.00068282
     atom   17 type  2   force =    -0.00030935    0.00024225    0.00055239
     atom   18 type  2   force =     0.00020812    0.00004468    0.00031560
     atom   19 type  1   force =     0.00023163    0.00002800    0.00056857
     atom   20 type  1   force =    -0.00019257   -0.00018714    0.00030482
     atom   21 type  2   force =     0.00007163   -0.00001811    0.10394913
     atom   22 type  2   force =     0.00006505   -0.00023387   -0.00110097
     atom   23 type  2   force =    -0.07038815   -0.00011062   -0.02688624
     atom   24 type  2   force =     0.07026770    0.00033550   -0.02692731
     atom   25 type  1   force =     0.00000499   -0.00022699    0.09277129
     atom   26 type  1   force =    -0.00020310   -0.00037283   -0.17830874
     atom   27 type  2   force =     0.00010475   -0.00028721   -0.01934776
     atom   28 type  2   force =     0.00003801   -0.00162448    0.05806783
     atom   29 type  2   force =    -0.01068569   -0.00080627    0.00800227
     atom   30 type  2   force =     0.01180516   -0.00047762    0.00652802
     atom   31 type  1   force =    -0.00072997    0.00505265   -0.01491941
     atom   32 type  1   force =     0.00040163   -0.00139818   -0.00479164
     atom   33 type  2   force =    -0.00010976    0.00021561    0.00030139
     atom   34 type  2   force =    -0.00129007    0.00140607   -0.00089946
     atom   35 type  2   force =     0.00019750    0.00013930    0.00002019
     atom   36 type  2   force =     0.00011424   -0.00001241   -0.00011627
     atom   37 type  1   force =    -0.00104056    0.00056060    0.00004135
     atom   38 type  1   force =     0.00015002   -0.00015223   -0.00005100
     atom   39 type  2   force =    -0.00002712   -0.00015176    0.00010306
     atom   40 type  2   force =    -0.00020588    0.00020774    0.00025979
     atom   41 type  2   force =    -0.00001930   -0.00015969    0.00040658
     atom   42 type  2   force =    -0.00013616   -0.00004957    0.00008488
     atom   43 type  1   force =     0.00012268    0.00031407    0.00037224
     atom   44 type  1   force =    -0.00011418    0.00020857   -0.00035828
     atom   45 type  2   force =     0.00003949   -0.00005059    0.10393914
     atom   46 type  2   force =    -0.07037840   -0.00005532   -0.02691578
     atom   47 type  2   force =     0.07028614    0.00037166   -0.02694541
     atom   48 type  3   force =    -0.00091859   -0.00029421   -0.00081978
     atom   49 type  3   force =    -0.00087875   -0.00046626   -0.00002119
     atom   50 type  4   force =    -0.00240433   -0.00091150   -0.00373753
     atom   51 type  5   force =    -0.00005614   -0.00032345    0.00002722
     atom   52 type  5   force =     0.00097451   -0.00037402    0.00084821
     atom   53 type  5   force =     0.00422622    0.00179166    0.00346769
     atom   54 type  5   force =     0.00083386   -0.00024308   -0.00028243
     atom   55 type  5   force =     0.00042292    0.00083803   -0.00002636
     atom   56 type  5   force =     0.00004999    0.00035178    0.00020056
     atom   57 type  2   force =    -0.00034928    0.00065186   -0.00055870
     atom   58 type  5   force =     0.00076752   -0.00043048    0.00011993
     atom   59 type  5   force =     0.00023961   -0.00032356    0.00033170

     Total force =     0.366126     Total SCF correction =     0.000501
  @ DRIVER MODE: Message from server: STATUS
  @ DRIVER MODE: Message from server: GETFORCE
  @ DRIVER MODE: Returning v,forces,stress,ensemble

     Writing output data file ./calc.save/
  @ DRIVER MODE: Message from server: EXIT
  @ DRIVE MODE: Exiting

     General routines

     Parallel routines

   This run was terminated on:   4:10:31  16Sep2021

   JOB DONE.