     Program PWSCF v.6.7GPU starts on 19Jul2021 at 22: 4:14

     R & G space division:  proc/nbgrp/npool/nimage =      16
     Reading input from /storage/home/hcoda1/3/ntian30/research/carbon/15Jul_vib/ads_slab/CH3NHH_a/out_0000/pw.inp
Warning: card &CELL ignored
Warning: card   CELL_DYNAMICS='IPI', ignored
Warning: card / ignored

     Current dimensions of program PWSCF are:
     Max number of different atomic species (ntypx) = 10
     Max number of k-points (npk) =  40000
     Max angular momentum in pseudopotentials (lmaxx) =  3
     Presently no symmetry can be used with electric field

     Message from routine cell_base_init:
     DEPRECATED: use true lattice parameter, not A to a.u. conversion factor

     IMPORTANT: XC functional enforced from input :
     Exchange-correlation= BEEF-VDW
                           (   1   4  43  14   2   0   0)
     Any further DFT definition will be discarded
     Please, verify this is what you really want

  @ DRIVER MODE: Connecting to
 qe_1139763_2382402.sched-torque.pace.gatech.edub_dku2ea_scratch
  using UNIX socket
  @ DRIVER MODE: Message from server: STATUS
  @ DRIVER MODE: Message from server: INIT
  @ DRIVER MODE: Receiving replica           0          -1
  @ DRIVER MODE: Receiving encoded integer          25
  @ DRIVER MODE:  SCF:  T  FORCE:  T  STRESS:  F  VC:  F  ENSEMBLE:  F
  @ DRIVER MODE:  SCF:  T  FORCE:  T  STRESS:  F  VC:  F  ENSEMBLE:  F

     Using Slab Decomposition

     bravais-lattice index     =            0
     lattice parameter (alat)  =       1.8897  a.u.
     unit-cell volume          =    6658.9804 (a.u.)^3
     number of atoms/cell      =           54
     number of atomic types    =            5
     number of electrons       =       392.00
     number of Kohn-Sham states=          206
     kinetic-energy cutoff     =      29.3995  Ry
     charge density cutoff     =     293.9946  Ry
     scf convergence threshold =      7.3E-08
     mixing beta               =       0.0500
     number of iterations used =            8  plain     mixing
     Exchange-correlation= BEEF-VDW
                           (   1   4  43  14   2   0   0)

     celldm(1)=   1.889726  celldm(2)=   0.000000  celldm(3)=   0.000000
     celldm(4)=   0.000000  celldm(5)=   0.000000  celldm(6)=   0.000000

     crystal axes: (cart. coord. in units of alat)
               a(1) = (   6.579727   0.000000   0.000000 )
               a(2) = (  -0.000775   5.961596   0.000000 )
               a(3) = (   0.000000   0.000000  25.155947 )

     reciprocal axes: (cart. coord. in units 2 pi/alat)
               b(1) = (  0.151982  0.000020  0.000000 )
               b(2) = (  0.000000  0.167740  0.000000 )
               b(3) = (  0.000000  0.000000  0.039752 )

     PseudoPot. # 1 for Ti read from file:
     /storage/coda1/p-amedford6/0/shared/rich_project_chbe-medford/medford-share/data/pseudos_module/espresso/nninc/pbe/van/Ti.UPF
     MD5 check sum: 8e4df49b7f0d34bbd5052bf3f5ea0213
     Pseudo is Ultrasoft, Zval = 12.0
     Generated by new atomic code, or converted to UPF format
     Using radial grid of  851 points,  6 beta functions with:
                l(1) =   0
                l(2) =   0
                l(3) =   1
                l(4) =   1
                l(5) =   2
                l(6) =   2
     Q(r) pseudized with  8 coefficients,  rinner =    1.000   1.000   1.000
                                                       1.000   1.000

     PseudoPot. # 2 for O  read from file:
     /storage/coda1/p-amedford6/0/shared/rich_project_chbe-medford/medford-share/data/pseudos_module/espresso/nninc/pbe/van/O.UPF
     MD5 check sum: 78c19812648e8988a0fe644b0f25305e
     Pseudo is Ultrasoft, Zval =  6.0
     Generated by new atomic code, or converted to UPF format
     Using radial grid of  737 points,  4 beta functions with:
                l(1) =   0
                l(2) =   0
                l(3) =   1
                l(4) =   1
     Q(r) pseudized with  8 coefficients,  rinner =    0.800   0.800   0.800

     PseudoPot. # 3 for N  read from file:
     /storage/coda1/p-amedford6/0/shared/rich_project_chbe-medford/medford-share/data/pseudos_module/espresso/nninc/pbe/van/N.UPF
     MD5 check sum: 90d10febe142ad51ac9d5be1deb811c4
     Pseudo is Ultrasoft, Zval =  5.0
     Generated by new atomic code, or converted to UPF format
     Using radial grid of  729 points,  4 beta functions with:
                l(1) =   0
                l(2) =   0
                l(3) =   1
                l(4) =   1
     Q(r) pseudized with  8 coefficients,  rinner =    0.800   0.800   0.800

     PseudoPot. # 4 for C  read from file:
     /storage/coda1/p-amedford6/0/shared/rich_project_chbe-medford/medford-share/data/pseudos_module/espresso/nninc/pbe/van/C.UPF
     MD5 check sum: 1a69bf6b8db32088f5b2163dbdb77a27
     Pseudo is Ultrasoft, Zval =  4.0
     Generated by new atomic code, or converted to UPF format
     Using radial grid of  721 points,  4 beta functions with:
                l(1) =   0
                l(2) =   0
                l(3) =   1
                l(4) =   1
     Q(r) pseudized with  8 coefficients,  rinner =    0.800   0.800   0.800

     PseudoPot. # 5 for H  read from file:
     /storage/coda1/p-amedford6/0/shared/rich_project_chbe-medford/medford-share/data/pseudos_module/espresso/nninc/pbe/van/H.UPF
     MD5 check sum: b5ee9d7bfd3a09ee7748110bda690ff7
     Pseudo is Ultrasoft, Zval =  1.0
     Generated by new atomic code, or converted to UPF format
     Using radial grid of  615 points,  1 beta functions with:
                l(1) =   0
     Q(r) pseudized with  8 coefficients,  rinner =    0.800

     atomic species   valence    mass     pseudopotential
        Ti1           12.00    47.86700     Ti( 1.00)
        O1             6.00    15.99900     O ( 1.00)
        N1             5.00    14.00700     N ( 1.00)
        C1             4.00    12.01100     C ( 1.00)
        H1             1.00     1.00800     H ( 1.00)

     Starting magnetic structure
     atomic species   magnetization
        Ti1          0.000
        O1           0.000
        N1           0.000
        C1           0.025
        H1           0.000

     No symmetry found

   Cartesian axes

     site n.     atom                  positions (alat units)
         1           Ti1 tau(   1) = (   0.0004258   2.9801865   6.0000000  )
         2           Ti1 tau(   2) = (   3.2906075   1.4906267   6.0002472  )
         3           O1  tau(   3) = (   0.0006271   0.0005054   7.9858123  )
         4           O1  tau(   4) = (   3.2906025   0.0005020   7.3038282  )
         5           O1  tau(   5) = (   4.5942328   1.4918067   9.2879030  )
         6           O1  tau(   6) = (   1.9868534   1.4903216   9.2879459  )
         7           Ti1 tau(   7) = (   3.2907910   2.8959150   9.1758416  )
         8           Ti1 tau(   8) = (   0.0015273   1.4827037   9.2680791  )
         9           O1  tau(   9) = (   3.2893523   5.9576907  11.3759447  )
        10           O1  tau(  10) = (   0.0116148   5.9584955  10.6183126  )
        11           O1  tau(  11) = (   1.2892553   1.4862333  12.6941169  )
        12           O1  tau(  12) = (   5.2958346   1.4833122  12.6807028  )
        13           Ti1 tau(  13) = (   0.0095698   2.9692159  12.5083673  )
        14           Ti1 tau(  14) = (   3.3108451   1.4743585  12.5306019  )
        15           O1  tau(  15) = (   6.5736105   5.8801748  14.6991865  )
        16           O1  tau(  16) = (   3.2979610   5.9450902  14.0010558  )
        17           O1  tau(  17) = (   4.5273680   1.5185660  16.1654609  )
        18           O1  tau(  18) = (   2.0122787   1.5163527  16.1384539  )
        19           Ti1 tau(  19) = (   3.2802752   2.9921964  15.7561315  )
        20           Ti1 tau(  20) = (   0.0093588   1.3049760  15.8672178  )
        21           O1  tau(  21) = (   3.2904802   0.0005063   4.7018136  )
        22           O1  tau(  22) = (   6.5538635   0.1342075  17.2452287  )
        23           O1  tau(  23) = (   1.3043587   1.4918075   6.0039043  )
        24           O1  tau(  24) = (   5.2767064   1.4903225   6.0039473  )
        25           Ti1 tau(  25) = (   0.0000382   5.9609847   6.0000000  )
        26           Ti1 tau(  26) = (   3.2902200   4.4714249   6.0002472  )
        27           O1  tau(  27) = (   0.0002396   2.9813036   7.9858123  )
        28           O1  tau(  28) = (   3.2902150   2.9813002   7.3038282  )
        29           O1  tau(  29) = (   4.5938453   4.4726049   9.2879030  )
        30           O1  tau(  30) = (   1.9864658   4.4711199   9.2879459  )
        31           Ti1 tau(  31) = (   3.2891106   5.8743827   9.1763621  )
        32           Ti1 tau(  32) = (   0.0006254   4.4649316   9.2693709  )
        33           O1  tau(  33) = (   3.2933707   2.9638296  11.3700534  )
        34           O1  tau(  34) = (   0.0092240   2.9805883  10.6323155  )
        35           O1  tau(  35) = (   1.2923283   4.4540072  12.6594629  )
        36           O1  tau(  36) = (   5.2938616   4.4568750  12.6477176  )
        37           Ti1 tau(  37) = (   0.0202681   5.9396231  12.5027719  )
        38           Ti1 tau(  38) = (   3.3116628   4.4527548  12.5215617  )
        39           O1  tau(  39) = (   6.5466975   3.0260875  14.9671898  )
        40           O1  tau(  40) = (   3.2966604   2.9917109  13.9679302  )
        41           O1  tau(  41) = (   4.5116687   4.4737236  16.2360857  )
        42           O1  tau(  42) = (   2.0028912   4.4646324  16.2202640  )
        43           Ti1 tau(  43) = (   3.2937213   0.0113368  15.7972781  )
        44           Ti1 tau(  44) = (   0.0208052   4.5175143  16.0574476  )
        45           O1  tau(  45) = (   3.2900926   2.9813045   4.7018136  )
        46           O1  tau(  46) = (   1.3039711   4.4726057   6.0039043  )
        47           O1  tau(  47) = (   5.2763189   4.4711207   6.0039473  )
        48           N1  tau(  48) = (   6.3337458   3.3624127  18.1270434  )
        49           C1  tau(  49) = (   0.8795605   3.2639204  19.0799812  )
        50           H1  tau(  50) = (   1.4196110   4.2071110  19.0760701  )
        51           H1  tau(  51) = (   0.5395241   3.0459488  20.0957609  )
        52           H1  tau(  52) = (   1.5475163   2.4696122  18.7548312  )
        53           H1  tau(  53) = (   5.6940081   4.0973896  18.4182617  )
        54           H1  tau(  54) = (   5.7906660   2.4998151  18.1411682  )

     number of k points=    10  Fermi-Dirac smearing, width (Ry)=  0.0073
                       cart. coord. in units 2pi/alat
        k(    1) = (   0.0000000   0.0000000   0.0000000), wk =   0.0625000
        k(    2) = (   0.0000000   0.0419351   0.0000000), wk =   0.1250000
        k(    3) = (   0.0000000  -0.0838702   0.0000000), wk =   0.0625000
        k(    4) = (   0.0379955   0.0000049   0.0000000), wk =   0.1250000
        k(    5) = (   0.0379955   0.0419400   0.0000000), wk =   0.1250000
        k(    6) = (   0.0379955  -0.0838652   0.0000000), wk =   0.1250000
        k(    7) = (   0.0379955  -0.0419301   0.0000000), wk =   0.1250000
[...]
        k(    9) = (  -0.0759910   0.0419252   0.0000000), wk =   0.1250000
        k(   10) = (  -0.0759910  -0.0838800   0.0000000), wk =   0.0625000

     Initial potential from superposition of free atoms

     starting charge  375.99915, renormalised to  392.00000

     negative rho (up, down):  8.110E-03 8.117E-03

     %%%%%%%%%%%%%%%%%%%%%%%%%%%%%%%%%%%%%%%%%%%%%%%%%%%%%%%%%%%%%%%%%%%%%%%%
     %                                                                      %
     % You are using vdW-DF, which was implemented by the Thonhauser group. %
     % Please cite the following two papers that made this development      %
     % possible and the two reviews that describe the various versions:     %
     %                                                                      %
     %   T. Thonhauser et al., PRL 115, 136402 (2015).                      %
     %   T. Thonhauser et al., PRB 76, 125112 (2007).                       %
     %   K. Berland et al., Rep. Prog. Phys. 78, 066501 (2015).             %
     %   D.C. Langreth et al., J. Phys.: Condens. Matter 21, 084203 (2009). %
     %                                                                      %
     %                                                                      %
     % If you are calculating the stress with vdW-DF, please also cite:     %
     %                                                                      %
     %   R. Sabatini et al., J. Phys.: Condens. Matter 24, 424209 (2012).   %
     %                                                                      %
     %%%%%%%%%%%%%%%%%%%%%%%%%%%%%%%%%%%%%%%%%%%%%%%%%%%%%%%%%%%%%%%%%%%%%%%%

     Adding external electric field

     Computed dipole along edir(3) :
        Dipole               -7.5471 Ry au,        -19.1827 Debye
        Dipole field         -0.0142 Ry au,

        Potential amp.        1.3202 Ry
        Total length         46.3494 bohr

[...]

     Starting wfcs are  297 atomic wfcs
  @ DRIVER MODE: Message from server: STATUS
  @ DRIVER MODE: Message from server: POSDATA
  @ DRIVER MODE: Reading and sharing cell
  @ DRIVER MODE: Reading and sharing positions
  @ DRIVER MODE: Received positions

     Self-consistent Calculation

     iteration #  1     ecut=    29.40 Ry     beta= 0.05
     Davidson diagonalization with overlap
     ethr =  1.00E-02,  avg # of iterations =  2.1

[...]

     total energy              =   -2681.56445973 Ry
     estimated scf accuracy    <    2653.64956758 Ry

     total magnetization       =     0.00 Bohr mag/cell
     absolute magnetization    =     0.01 Bohr mag/cell

     iteration #  2     ecut=    29.40 Ry     beta= 0.05
     Davidson diagonalization with overlap
     c_bands:  5 eigenvalues not converged
     c_bands:  4 eigenvalues not converged
     c_bands:  1 eigenvalues not converged
     c_bands:  3 eigenvalues not converged
     c_bands:  3 eigenvalues not converged
     c_bands:  2 eigenvalues not converged
     c_bands:  4 eigenvalues not converged
     c_bands:  1 eigenvalues not converged
     c_bands:  4 eigenvalues not converged
     c_bands:  3 eigenvalues not converged
     c_bands:  3 eigenvalues not converged
     ethr =  1.00E-02,  avg # of iterations = 20.3

[...]

     iteration # 79     ecut=    29.40 Ry     beta= 0.05
     Davidson diagonalization with overlap
     ethr =  3.51E-11,  avg # of iterations =  5.3

[...]

     total energy              =   -2921.63328547 Ry
     estimated scf accuracy    <       0.00000009 Ry

[...]

     iteration # 80     ecut=    29.40 Ry     beta= 0.05
     Davidson diagonalization with overlap
     c_bands:  2 eigenvalues not converged
     c_bands:  3 eigenvalues not converged
     ethr =  2.30E-11,  avg # of iterations = 14.9

     negative rho (up, down):  8.576E-03 8.576E-03

[...]

     Adding external electric field

     Computed dipole along edir(3) :
        Dipole                1.2976 Ry au,          3.2981 Debye
        Dipole field          0.0024 Ry au,

        Potential amp.       -0.2270 Ry
        Total length         46.3494 bohr

     Magnetic moment per site  (integrated on atomic sphere of radius R)
     atom   1 (R=0.738)  charge=  8.0425  magn=  0.0016
     atom   2 (R=0.738)  charge=  8.0244  magn=  0.0003
     atom   3 (R=0.738)  charge=  5.0120  magn= -0.0000
     atom   4 (R=0.738)  charge=  5.0490  magn= -0.0001
     atom   5 (R=0.738)  charge=  5.0182  magn=  0.0000
     atom   6 (R=0.738)  charge=  5.0186  magn=  0.0000
     atom   7 (R=0.738)  charge=  8.0244  magn=  0.0001
     atom   8 (R=0.738)  charge=  8.0256  magn= -0.0006
     atom   9 (R=0.738)  charge=  5.0259  magn= -0.0003
     atom  10 (R=0.738)  charge=  5.0261  magn= -0.0000
     atom  11 (R=0.738)  charge=  5.0131  magn= -0.0002
     atom  12 (R=0.738)  charge=  5.0142  magn= -0.0002
     atom  13 (R=0.738)  charge=  8.0323  magn=  0.0008
     atom  14 (R=0.738)  charge=  8.0300  magn=  0.0021
     atom  15 (R=0.738)  charge=  5.0263  magn=  0.0001
     atom  16 (R=0.738)  charge=  5.0222  magn= -0.0005
     atom  17 (R=0.738)  charge=  4.9995  magn= -0.0004
     atom  18 (R=0.738)  charge=  5.0035  magn= -0.0004
     atom  19 (R=0.738)  charge=  8.0638  magn=  0.0058
     atom  20 (R=0.738)  charge=  8.0765  magn=  0.0010
     atom  21 (R=0.738)  charge=  4.8972  magn= -0.0002
     atom  22 (R=0.738)  charge=  4.9759  magn= -0.0001
     atom  23 (R=0.738)  charge=  5.0093  magn= -0.0003
     atom  24 (R=0.738)  charge=  5.0095  magn= -0.0003
     atom  25 (R=0.738)  charge=  8.0426  magn=  0.0018
     atom  26 (R=0.738)  charge=  8.0244  magn=  0.0003
     atom  27 (R=0.738)  charge=  5.0118  magn=  0.0000
     atom  28 (R=0.738)  charge=  5.0493  magn= -0.0001
     atom  29 (R=0.738)  charge=  5.0191  magn=  0.0001
     atom  30 (R=0.738)  charge=  5.0194  magn=  0.0000
     atom  31 (R=0.738)  charge=  8.0246  magn=  0.0001
     atom  32 (R=0.738)  charge=  8.0257  magn= -0.0010
     atom  33 (R=0.738)  charge=  5.0253  magn= -0.0003
     atom  34 (R=0.738)  charge=  5.0227  magn=  0.0000
     atom  35 (R=0.738)  charge=  5.0162  magn= -0.0002
     atom  36 (R=0.738)  charge=  5.0179  magn= -0.0002
     atom  37 (R=0.738)  charge=  8.0281  magn=  0.0010
     atom  38 (R=0.738)  charge=  8.0303  magn=  0.0024
     atom  39 (R=0.738)  charge=  5.0062  magn= -0.0001
     atom  40 (R=0.738)  charge=  5.0343  magn= -0.0005
     atom  41 (R=0.738)  charge=  4.9975  magn= -0.0004
     atom  42 (R=0.738)  charge=  5.0021  magn= -0.0004
     atom  43 (R=0.738)  charge=  8.0613  magn=  0.0062
     atom  44 (R=0.738)  charge=  8.0414  magn=  0.0020
     atom  45 (R=0.738)  charge=  4.8971  magn= -0.0005
     atom  46 (R=0.738)  charge=  5.0094  magn= -0.0003
     atom  47 (R=0.738)  charge=  5.0095  magn= -0.0003
     atom  48 (R=0.420)  charge=  1.3385  magn= -0.0000
     atom  49 (R=0.448)  charge=  0.8445  magn=  0.0000
     atom  50 (R=0.420)  charge=  0.4443  magn= -0.0000
     atom  51 (R=0.420)  charge=  0.4453  magn= -0.0000
     atom  52 (R=0.420)  charge=  0.4441  magn= -0.0000
     atom  53 (R=0.420)  charge=  0.4504  magn=  0.0000
     atom  54 (R=0.420)  charge=  0.4502  magn=  0.0000

     End of self-consistent calculation

 ------ SPIN UP ------------

          k = 0.0000 0.0000 0.0000 ( 18029 PWs)   bands (ev):

   -55.4357 -55.3992 -55.3855 -55.3583 -55.3514 -55.3221 -55.3129 -55.2784
   -55.2532 -55.2426 -55.2188 -55.2140 -55.1803 -55.1166 -54.4145 -54.3804
   -32.0037 -31.8891 -31.8770 -31.8012 -31.7521 -31.7477 -31.7425 -31.7202
   -31.6776 -31.6743 -31.6463 -31.6449 -31.6301 -31.6196 -31.6059 -31.6028
   -31.5906 -31.5771 -31.5734 -31.5498 -31.5383 -31.5331 -31.5115 -31.4984
   -31.4907 -31.4866 -31.4840 -31.4558 -31.4435 -31.4430 -31.4339 -31.4179
   -31.4155 -31.4125 -31.4027 -31.4000 -31.3668 -31.3641 -31.3414 -31.3252
   -31.3235 -31.2995 -30.8236 -30.7293 -30.7073 -30.6399 -30.5531 -30.4423
   -16.2935 -16.1642 -15.9771 -15.8302 -15.7496 -15.6323 -15.5171 -15.5002
   -15.3643 -15.2824 -15.1630 -15.1379 -15.1185 -15.0957 -15.0845 -15.0682
   -14.9777 -14.9722 -14.9576 -14.9269 -14.9243 -14.8795 -14.8717 -14.8304
   -14.8097 -14.8075 -14.6836 -14.5925 -14.5197 -14.2806 -12.9158 -12.7983
   -10.2317  -6.2828  -4.8363  -3.9625  -3.6082  -3.4539  -3.3639  -3.3379
    -3.3250  -3.1899  -3.0445  -2.8960  -2.8463  -2.8382  -2.7210  -2.6476
    -2.6377  -2.6180  -2.4631  -2.4316  -2.3887  -2.3417  -2.2977  -2.2432
    -2.2244  -2.2182  -2.2029  -2.1812  -2.1707  -2.0537  -2.0008  -1.9171
    -1.8597  -1.8369  -1.7868  -1.7653  -1.7432  -1.7230  -1.7136  -1.6689
    -1.6582  -1.6280  -1.5722  -1.4618  -1.3625  -1.3094  -1.1918  -1.0706
    -1.0302  -1.0174  -0.9781  -0.9354  -0.9194  -0.8542  -0.8104  -0.7799
    -0.7191  -0.6633  -0.6008  -0.5526  -0.4822  -0.4676  -0.4202  -0.3665
    -0.2531  -0.2155  -0.2006  -0.1746  -0.0816  -0.0456  -0.0005   0.0824
     0.0924   0.1082   0.2086   0.2219   0.2921   0.3383   0.3556   0.4480
     0.4862   0.4960   0.5012   0.5254   0.5518   0.6035   0.6410   0.6690
     0.7397   0.8648   1.0810   1.1552   1.1795   1.5058   1.5149   1.6095
     1.7927   2.1856   2.2337   3.6651   3.7345   3.8079   3.8159   3.8257
     3.9016   4.1374   4.1600   4.1679   4.1741   4.1959

[...]

          k =-0.0760-0.0000 0.0000 ( 17886 PWs)   bands (ev):

[...]

 ------ SPIN DOWN ----------

[...]

          k = 0.0380-0.0419 0.0000 ( 17876 PWs)   bands (ev):

[...]

          k =-0.0760-0.0839 0.0000 ( 17948 PWs)   bands (ev):

   -55.4166 -55.4095 -55.3654 -55.3647 -55.3535 -55.3075 -55.2957 -55.2920
   -55.2374 -55.2363 -55.2336 -55.1996 -55.1987 -55.1164 -54.3967 -54.3965
   -31.8074 -31.8051 -31.8022 -31.7160 -31.6913 -31.6908 -31.6903 -31.6565
   -31.6560 -31.6416 -31.6344 -31.6301 -31.6241 -31.5983 -31.5878 -31.5724
   -31.5702 -31.5660 -31.5638 -31.5583 -31.5577 -31.5542 -31.5166 -31.5089
   -31.5075 -31.5057 -31.5022 -31.4886 -31.4845 -31.4841 -31.4838 -31.4705
   -31.4667 -31.4504 -31.4467 -31.4311 -31.4282 -31.4252 -31.3812 -31.3807
   -31.3768 -31.3262 -30.7193 -30.7191 -30.6354 -30.6352 -30.5958 -30.5957
   -16.1344 -15.7788 -15.6874 -15.6399 -15.4664 -15.4373 -15.4208 -15.4057
   -15.2732 -15.2552 -15.2313 -15.2032 -15.1811 -15.1465 -15.1371 -15.1344
   -15.0547 -15.0406 -15.0336 -15.0178 -14.9517 -14.9419 -14.9396 -14.9322
   -14.8821 -14.8785 -14.8153 -14.7859 -14.7828 -14.5709 -12.9011 -12.9008
   -10.2350  -6.2537  -4.8332  -3.9250  -2.9577  -2.9330  -2.8938  -2.8899
    -2.6820  -2.6403  -2.6050  -2.5794  -2.4896  -2.4500  -2.4343  -2.4267
    -2.3551  -2.3380  -2.3206  -2.2756  -2.2695  -2.2558  -2.2338  -2.2034
    -2.1813  -2.1624  -2.1530  -2.1341  -2.0879  -2.0767  -2.0523  -2.0370
    -2.0340  -2.0160  -1.9880  -1.9415  -1.8147  -1.8066  -1.7392  -1.6401
    -1.6353  -1.5588  -1.5456  -1.5100  -1.4850  -1.4658  -1.4233  -1.2498
    -1.2062  -1.1798  -1.1702  -1.1129  -1.0480  -1.0253  -0.9550  -0.9395
    -0.9208  -0.8170  -0.7722  -0.7576  -0.6679  -0.6553  -0.5772  -0.5125
    -0.4681  -0.4418  -0.3958  -0.3895  -0.3873  -0.3396  -0.3320  -0.2508
    -0.2038  -0.1676  -0.1536  -0.1233   0.0734   0.0841   0.1107   0.2508
     0.2800   0.4030   0.4372   0.4892   0.5642   0.5967   0.6782   0.7137
     0.8440   0.8726   0.8740   0.9466   0.9579   1.0199   1.0294   1.9651
     1.9658   2.0527   2.0532   3.8263   3.9043   3.9280   3.9698   4.0819
     4.1556   4.1814   4.2022   4.2506   4.2532   4.3192

     the Fermi energy is     3.7283 ev

!    total energy              =   -2921.63329457 Ry
     estimated scf accuracy    <       0.00000007 Ry
     smearing contrib. (-TS)   =      -0.03708508 Ry
     internal energy E=F+TS    =   -2921.59620949 Ry

     The total energy is F=E-TS. E is the sum of the following terms:
     one-electron contribution =  -24028.59837847 Ry
     hartree contribution      =   12103.38362073 Ry
     xc contribution           =    -481.75004617 Ry
     ewald contribution        =    9485.36541713 Ry
     electric field correction =       0.00317728 Ry

     total magnetization       =     0.03 Bohr mag/cell
     absolute magnetization    =     0.05 Bohr mag/cell

     convergence has been achieved in  80 iterations

     Forces acting on atoms (cartesian axes, Ry/au):

     atom    1 type  1   force =     0.00003014   -0.00021213    0.09330908
     atom    2 type  1   force =    -0.00019127   -0.00035838   -0.17830063
     atom    3 type  2   force =     0.00002814   -0.00039934   -0.02022693
     atom    4 type  2   force =    -0.00002731   -0.00194834    0.05879109
     atom    5 type  2   force =    -0.01020528   -0.00111780    0.00777515
     atom    6 type  2   force =     0.01167824   -0.00039828    0.00694033
     atom    7 type  1   force =    -0.00048889    0.00210812   -0.01456303
     atom    8 type  1   force =     0.00024543   -0.00050024   -0.00478462
     atom    9 type  2   force =     0.00015239    0.00011381   -0.00006636
     atom   10 type  2   force =    -0.00113643    0.00137920    0.00051888
     atom   11 type  2   force =    -0.00010268    0.00015581    0.00005220
     atom   12 type  2   force =    -0.00003324    0.00036191    0.00022664
     atom   13 type  1   force =    -0.00004863   -0.00018397   -0.00017983
     atom   14 type  1   force =    -0.00015165    0.00011811    0.00029057
     atom   15 type  2   force =    -0.00020850   -0.00031546    0.00006495
     atom   16 type  2   force =    -0.00022276    0.00019196    0.00016402
     atom   17 type  2   force =     0.00012933   -0.00011371    0.00008764
     atom   18 type  2   force =    -0.00003672   -0.00020276    0.00018614
     atom   19 type  1   force =    -0.00030260    0.00031620    0.00041269
     atom   20 type  1   force =    -0.00002173   -0.00007143   -0.00031893
     atom   21 type  2   force =     0.00002800   -0.00005907    0.10391238
     atom   22 type  2   force =     0.00026309    0.00036309    0.00005503
     atom   23 type  2   force =    -0.07043316   -0.00015228   -0.02693778
     atom   24 type  2   force =     0.07027464    0.00028984   -0.02698365
     atom   25 type  1   force =    -0.00001501   -0.00014851    0.09282734
     atom   26 type  1   force =    -0.00021114   -0.00049806   -0.17830675
     atom   27 type  2   force =     0.00008668   -0.00026775   -0.01929555
     atom   28 type  2   force =     0.00004242   -0.00171560    0.05812583
     atom   29 type  2   force =    -0.01072708   -0.00111518    0.00833588
     atom   30 type  2   force =     0.01207360   -0.00083844    0.00745805
     atom   31 type  1   force =    -0.00039897    0.00595128   -0.01543278
     atom   32 type  1   force =     0.00022386   -0.00003660   -0.00516061
     atom   33 type  2   force =    -0.00007837    0.00001584    0.00007866
     atom   34 type  2   force =    -0.00101438   -0.00248676   -0.00002897
     atom   35 type  2   force =    -0.00005708    0.00023789   -0.00007041
     atom   36 type  2   force =    -0.00012656    0.00009414   -0.00000658
     atom   37 type  1   force =    -0.00002909    0.00005985   -0.00021349
     atom   38 type  1   force =    -0.00008000    0.00000443    0.00010848
     atom   39 type  2   force =     0.00021881   -0.00003112    0.00013962
     atom   40 type  2   force =    -0.00030273    0.00024581   -0.00006009
     atom   41 type  2   force =     0.00018887    0.00044769    0.00010155
     atom   42 type  2   force =    -0.00006564    0.00012978    0.00035319
     atom   43 type  1   force =    -0.00031578    0.00028573    0.00008148
     atom   44 type  1   force =    -0.00003338   -0.00023210    0.00008208
     atom   45 type  2   force =     0.00001963   -0.00007541    0.10391333
     atom   46 type  2   force =    -0.07040358   -0.00010332   -0.02688594
     atom   47 type  2   force =     0.07025095    0.00032442   -0.02693501
     atom   48 type  3   force =    -0.00006590   -0.00126520   -0.00041326
     atom   49 type  4   force =    -0.00029885   -0.00033669   -0.00014072
     atom   50 type  5   force =     0.00067473    0.00098211   -0.00008696
     atom   51 type  5   force =     0.00023113    0.00025688   -0.00053256
     atom   52 type  5   force =     0.00015783   -0.00039822    0.00003382
     atom   53 type  5   force =     0.00011873    0.00076786    0.00156398
     atom   54 type  5   force =     0.00071778    0.00038040   -0.00005864

     Total force =     0.366225     Total SCF correction =     0.000561
  @ DRIVER MODE: Message from server: STATUS
  @ DRIVER MODE: Message from server: GETFORCE
  @ DRIVER MODE: Returning v,forces,stress,ensemble

     Writing output data file ./calc.save/
  @ DRIVER MODE: Message from server: EXIT
  @ DRIVE MODE: Exiting

     General routines

     Parallel routines

   This run was terminated on:  22:35:48  19Jul2021

   JOB DONE.