     Program PWSCF v.6.7GPU starts on 24Aug2021 at 11: 9:24

     R & G space division:  proc/nbgrp/npool/nimage =      72
     Reading input from /storage/home/hcoda1/3/ntian30/research/carbon/CH2_vib/ads_slab/CH2NNH3_a/out_0004/pw.inp
Warning: card &CELL ignored
Warning: card   CELL_DYNAMICS='IPI', ignored
Warning: card / ignored

     Current dimensions of program PWSCF are:
     Max number of different atomic species (ntypx) = 10
     Max number of k-points (npk) =  40000
     Max angular momentum in pseudopotentials (lmaxx) =  3
     Presently no symmetry can be used with electric field

     Message from routine cell_base_init:
     DEPRECATED: use true lattice parameter, not A to a.u. conversion factor

     IMPORTANT: XC functional enforced from input :
     Exchange-correlation= BEEF-VDW
                           (   1   4  43  14   2   0   0)
     Any further DFT definition will be discarded
     Please, verify this is what you really want

  @ DRIVER MODE: Connecting to
 qe_1139763_2641442.sched-torque.pace.gatech.eduy054idkh_scratch
  using UNIX socket
  @ DRIVER MODE: Message from server: STATUS
  @ DRIVER MODE: Message from server: INIT
  @ DRIVER MODE: Receiving replica           0          -1
  @ DRIVER MODE: Receiving encoded integer          25
  @ DRIVER MODE:  SCF:  T  FORCE:  T  STRESS:  F  VC:  F  ENSEMBLE:  F
  @ DRIVER MODE:  SCF:  T  FORCE:  T  STRESS:  F  VC:  F  ENSEMBLE:  F

     Using Slab Decomposition

     bravais-lattice index     =            0
     lattice parameter (alat)  =       1.8897  a.u.
     unit-cell volume          =    6658.9804 (a.u.)^3
     number of atoms/cell      =           55
     number of atomic types    =            5
     number of electrons       =       397.00
     number of Kohn-Sham states=          208
     kinetic-energy cutoff     =      29.3995  Ry
     charge density cutoff     =     293.9946  Ry
     scf convergence threshold =      7.3E-08
     mixing beta               =       0.0500
     number of iterations used =            8  plain     mixing
     Exchange-correlation= BEEF-VDW
                           (   1   4  43  14   2   0   0)

     celldm(1)=   1.889726  celldm(2)=   0.000000  celldm(3)=   0.000000
     celldm(4)=   0.000000  celldm(5)=   0.000000  celldm(6)=   0.000000

     crystal axes: (cart. coord. in units of alat)
               a(1) = (   6.579727   0.000000   0.000000 )
               a(2) = (  -0.000775   5.961596   0.000000 )
               a(3) = (   0.000000   0.000000  25.155947 )

     reciprocal axes: (cart. coord. in units 2 pi/alat)
               b(1) = (  0.151982  0.000020  0.000000 )
               b(2) = (  0.000000  0.167740  0.000000 )
               b(3) = (  0.000000  0.000000  0.039752 )

     PseudoPot. # 1 for Ti read from file:
     /storage/coda1/p-amedford6/0/shared/rich_project_chbe-medford/medford-share/data/pseudos_module/espresso/nninc/pbe/van/Ti.UPF
     MD5 check sum: 8e4df49b7f0d34bbd5052bf3f5ea0213
     Pseudo is Ultrasoft, Zval = 12.0
     Generated by new atomic code, or converted to UPF format
     Using radial grid of  851 points,  6 beta functions with:
                l(1) =   0
                l(2) =   0
                l(3) =   1
                l(4) =   1
                l(5) =   2
                l(6) =   2
     Q(r) pseudized with  8 coefficients,  rinner =    1.000   1.000   1.000
                                                       1.000   1.000

     PseudoPot. # 2 for O  read from file:
     /storage/coda1/p-amedford6/0/shared/rich_project_chbe-medford/medford-share/data/pseudos_module/espresso/nninc/pbe/van/O.UPF
     MD5 check sum: 78c19812648e8988a0fe644b0f25305e
     Pseudo is Ultrasoft, Zval =  6.0
     Generated by new atomic code, or converted to UPF format
     Using radial grid of  737 points,  4 beta functions with:
                l(1) =   0
                l(2) =   0
                l(3) =   1
                l(4) =   1
     Q(r) pseudized with  8 coefficients,  rinner =    0.800   0.800   0.800

     PseudoPot. # 3 for N  read from file:
     /storage/coda1/p-amedford6/0/shared/rich_project_chbe-medford/medford-share/data/pseudos_module/espresso/nninc/pbe/van/N.UPF
     MD5 check sum: 90d10febe142ad51ac9d5be1deb811c4
     Pseudo is Ultrasoft, Zval =  5.0
     Generated by new atomic code, or converted to UPF format
     Using radial grid of  729 points,  4 beta functions with:
                l(1) =   0
                l(2) =   0
                l(3) =   1
                l(4) =   1
     Q(r) pseudized with  8 coefficients,  rinner =    0.800   0.800   0.800

     PseudoPot. # 4 for C  read from file:
     /storage/coda1/p-amedford6/0/shared/rich_project_chbe-medford/medford-share/data/pseudos_module/espresso/nninc/pbe/van/C.UPF
     MD5 check sum: 1a69bf6b8db32088f5b2163dbdb77a27
     Pseudo is Ultrasoft, Zval =  4.0
     Generated by new atomic code, or converted to UPF format
     Using radial grid of  721 points,  4 beta functions with:
                l(1) =   0
                l(2) =   0
                l(3) =   1
                l(4) =   1
     Q(r) pseudized with  8 coefficients,  rinner =    0.800   0.800   0.800

     PseudoPot. # 5 for H  read from file:
     /storage/coda1/p-amedford6/0/shared/rich_project_chbe-medford/medford-share/data/pseudos_module/espresso/nninc/pbe/van/H.UPF
     MD5 check sum: b5ee9d7bfd3a09ee7748110bda690ff7
     Pseudo is Ultrasoft, Zval =  1.0
     Generated by new atomic code, or converted to UPF format
     Using radial grid of  615 points,  1 beta functions with:
                l(1) =   0
     Q(r) pseudized with  8 coefficients,  rinner =    0.800

     atomic species   valence    mass     pseudopotential
        Ti1           12.00    47.86700     Ti( 1.00)
        O1             6.00    15.99900     O ( 1.00)
        N1             5.00    14.00700     N ( 1.00)
        C1             4.00    12.01100     C ( 1.00)
        H1             1.00     1.00800     H ( 1.00)

     No symmetry found

   Cartesian axes

     site n.     atom                  positions (alat units)
         1           Ti1 tau(   1) = (   0.0004258   2.9801865   6.0000000  )
         2           Ti1 tau(   2) = (   3.2906075   1.4906267   6.0002472  )
         3           O1  tau(   3) = (   0.0006271   0.0005054   7.9858123  )
         4           O1  tau(   4) = (   3.2906025   0.0005020   7.3038282  )
         5           O1  tau(   5) = (   4.5942328   1.4918067   9.2879030  )
         6           O1  tau(   6) = (   1.9868534   1.4903216   9.2879459  )
         7           Ti1 tau(   7) = (   3.2907910   2.8959150   9.1758416  )
         8           Ti1 tau(   8) = (   0.0015273   1.4827037   9.2680791  )
         9           O1  tau(   9) = (   3.2870044   0.0008392  11.3329265  )
        10           O1  tau(  10) = (   0.0116148   5.9584955  10.6183126  )
        11           O1  tau(  11) = (   1.3103063   1.4923116  12.6208530  )
        12           O1  tau(  12) = (   5.2933663   1.4849185  12.6124200  )
        13           Ti1 tau(  13) = (   6.5212574   2.9536302  12.6166858  )
        14           Ti1 tau(  14) = (   3.2058376   1.4897313  12.4816367  )
        15           O1  tau(  15) = (   6.5713238   0.0136578  14.6546308  )
        16           O1  tau(  16) = (   3.3039920   0.0133407  13.9274802  )
        17           O1  tau(  17) = (   4.5398155   1.5323753  16.0810081  )
        18           O1  tau(  18) = (   2.0543055   1.5218724  16.0470058  )
        19           Ti1 tau(  19) = (   3.2774803   3.0107093  15.7022328  )
        20           Ti1 tau(  20) = (   6.5342633   1.5374647  15.8423947  )
        21           O1  tau(  21) = (   3.2904802   0.0005063   4.7018136  )
        22           O1  tau(  22) = (   0.0034288   0.0322173  17.2228558  )
        23           O1  tau(  23) = (   1.3043587   1.4918075   6.0039043  )
        24           O1  tau(  24) = (   5.2767064   1.4903225   6.0039473  )
        25           Ti1 tau(  25) = (   0.0000382   5.9609847   6.0000000  )
        26           Ti1 tau(  26) = (   3.2902200   4.4714249   6.0002472  )
        27           O1  tau(  27) = (   0.0002396   2.9813036   7.9858123  )
        28           O1  tau(  28) = (   3.2902150   2.9813002   7.3038282  )
        29           O1  tau(  29) = (   4.5938453   4.4726049   9.2879030  )
        30           O1  tau(  30) = (   1.9864658   4.4711199   9.2879459  )
        31           Ti1 tau(  31) = (   3.2891106   5.8743827   9.1763621  )
        32           Ti1 tau(  32) = (   0.0006254   4.4649316   9.2693709  )
        33           O1  tau(  33) = (   3.2848367   2.9872869  11.3311783  )
        34           O1  tau(  34) = (   0.0092240   2.9805883  10.6323155  )
        35           O1  tau(  35) = (   1.3050274   4.4824158  12.6313026  )
        36           O1  tau(  36) = (   5.2955027   4.4751037  12.6224712  )
        37           Ti1 tau(  37) = (   6.5218534   5.9301143  12.5590122  )
        38           Ti1 tau(  38) = (   3.2037265   4.4702053  12.4865905  )
        39           O1  tau(  39) = (   6.5652647   2.9430126  14.6458727  )
        40           O1  tau(  40) = (   3.3006234   2.9978660  13.9063397  )
        41           O1  tau(  41) = (   4.5289998   4.4870283  16.1192093  )
        42           O1  tau(  42) = (   2.0463452   4.4937679  16.0531255  )
        43           Ti1 tau(  43) = (   3.2679282   0.0255942  15.7259849  )
        44           Ti1 tau(  44) = (   6.5624932   4.6695214  16.1100661  )
        45           O1  tau(  45) = (   3.2900926   2.9813045   4.7018136  )
        46           O1  tau(  46) = (   1.3039711   4.4726057   6.0039043  )
        47           O1  tau(  47) = (   5.2763189   4.4711207   6.0039473  )
        48           N1  tau(  48) = (   0.0665130   2.9725449  17.3937163  )
        49           C1  tau(  49) = (   0.2662726   2.8715582  18.6342609  )
        50           H1  tau(  50) = (   0.3859136   3.7587535  19.2661104  )
        51           H1  tau(  51) = (   0.3502417   1.8926937  19.1273272  )
        52           N1  tau(  52) = (   3.5829462   4.8819607  19.5834040  )
        53           H1  tau(  53) = (   4.1394342   5.6873527  19.8504637  )
        54           H1  tau(  54) = (   4.0752263   4.4438539  18.8113048  )
        55           H1  tau(  55) = (   3.6086599   4.2347498  20.3655469  )

     number of k points=    10  Fermi-Dirac smearing, width (Ry)=  0.0073
                       cart. coord. in units 2pi/alat
        k(    1) = (   0.0000000   0.0000000   0.0000000), wk =   0.1250000
        k(    2) = (   0.0000000   0.0419351   0.0000000), wk =   0.2500000
        k(    3) = (   0.0000000  -0.0838702   0.0000000), wk =   0.1250000
        k(    4) = (   0.0379955   0.0000049   0.0000000), wk =   0.2500000
        k(    5) = (   0.0379955   0.0419400   0.0000000), wk =   0.2500000
        k(    6) = (   0.0379955  -0.0838652   0.0000000), wk =   0.2500000
        k(    7) = (   0.0379955  -0.0419301   0.0000000), wk =   0.2500000
        k(    8) = (  -0.0759910  -0.0000099   0.0000000), wk =   0.1250000
        k(    9) = (  -0.0759910   0.0419252   0.0000000), wk =   0.2500000
        k(   10) = (  -0.0759910  -0.0838800   0.0000000), wk =   0.1250000

     Initial potential from superposition of free atoms

     starting charge  380.99914, renormalised to  397.00000

     negative rho (up, down):  1.455E-02 0.000E+00

     %%%%%%%%%%%%%%%%%%%%%%%%%%%%%%%%%%%%%%%%%%%%%%%%%%%%%%%%%%%%%%%%%%%%%%%%
     %                                                                      %
     % You are using vdW-DF, which was implemented by the Thonhauser group. %
     % Please cite the following two papers that made this development      %
     % possible and the two reviews that describe the various versions:     %
     %                                                                      %
     %   T. Thonhauser et al., PRL 115, 136402 (2015).                      %
     %   T. Thonhauser et al., PRB 76, 125112 (2007).                       %
     %   K. Berland et al., Rep. Prog. Phys. 78, 066501 (2015).             %
     %   D.C. Langreth et al., J. Phys.: Condens. Matter 21, 084203 (2009). %
     %                                                                      %
     %                                                                      %
     % If you are calculating the stress with vdW-DF, please also cite:     %
     %                                                                      %
     %   R. Sabatini et al., J. Phys.: Condens. Matter 24, 424209 (2012).   %
     %                                                                      %
     %%%%%%%%%%%%%%%%%%%%%%%%%%%%%%%%%%%%%%%%%%%%%%%%%%%%%%%%%%%%%%%%%%%%%%%%

     Adding external electric field

     Computed dipole along edir(3) :
        Dipole              -10.1102 Ry au,        -25.6976 Debye
        Dipole field         -0.0191 Ry au,

        Potential amp.        1.7686 Ry
        Total length         46.3494 bohr

     Starting wfcs are  301 atomic wfcs
  @ DRIVER MODE: Message from server: STATUS
  @ DRIVER MODE: Message from server: POSDATA
  @ DRIVER MODE: Reading and sharing cell
  @ DRIVER MODE: Reading and sharing positions
  @ DRIVER MODE: Received positions

     Self-consistent Calculation

     iteration #  1     ecut=    29.40 Ry     beta= 0.05
     Davidson diagonalization with overlap
     c_bands:  2 eigenvalues not converged
     c_bands:  1 eigenvalues not converged
     c_bands:  1 eigenvalues not converged
     c_bands:  1 eigenvalues not converged
     c_bands:  1 eigenvalues not converged
     c_bands:  1 eigenvalues not converged
     c_bands:  1 eigenvalues not converged
     c_bands:  2 eigenvalues not converged
     ethr =  1.00E-05,  avg # of iterations = 19.0

[...]

     total energy              =   -2537.38950754 Ry
     estimated scf accuracy    <    4509.54559558 Ry

     iteration #  2     ecut=    29.40 Ry     beta= 0.05
     Davidson diagonalization with overlap
     ethr =  1.00E-02,  avg # of iterations = 25.3

[...]

     iteration # 61     ecut=    29.40 Ry     beta= 0.05
     Davidson diagonalization with overlap
     c_bands:  1 eigenvalues not converged
     ethr =  2.75E-11,  avg # of iterations = 13.0

[...]

     total energy              =   -2941.70787023 Ry
     estimated scf accuracy    <       0.00000008 Ry

     iteration # 62     ecut=    29.40 Ry     beta= 0.05
     Davidson diagonalization with overlap
     ethr =  1.91E-11,  avg # of iterations =  9.9

     negative rho (up, down):  1.502E-02 0.000E+00

     Adding external electric field

     Computed dipole along edir(3) :
        Dipole                0.8847 Ry au,          2.2487 Debye
        Dipole field          0.0017 Ry au,

        Potential amp.       -0.1548 Ry
        Total length         46.3494 bohr

     End of self-consistent calculation

          k = 0.0000 0.0000 0.0000 ( 18029 PWs)   bands (ev):

   -55.7600 -55.7515 -55.7259 -55.7156 -55.6454 -55.6051 -55.5887 -55.5705
   -55.5686 -55.5347 -55.5325 -55.4988 -55.2842 -55.0231 -54.7373 -54.7032
   -32.3044 -32.2423 -32.1062 -32.0952 -32.0674 -32.0640 -32.0529 -32.0229
   -32.0025 -31.9785 -31.9718 -31.9513 -31.9312 -31.9120 -31.9036 -31.8906
   -31.8764 -31.8642 -31.8494 -31.8170 -31.8144 -31.8117 -31.7700 -31.7636
   -31.7628 -31.7616 -31.7564 -31.7473 -31.7344 -31.7199 -31.7132 -31.7078
   -31.7027 -31.6989 -31.6855 -31.6758 -31.6446 -31.5376 -31.4648 -31.3070
   -31.2770 -31.2315 -31.1444 -31.0560 -31.0336 -30.9611 -30.8746 -30.7635
   -16.5000 -16.2347 -16.0177 -15.9135 -15.8783 -15.7626 -15.5985 -15.4794
   -15.4269 -15.3287 -15.3150 -15.2957 -15.2621 -15.2452 -15.2239 -15.2059
   -15.2013 -15.1837 -15.1702 -15.1190 -15.0960 -15.0591 -14.9615 -14.9319
   -14.8944 -14.8774 -14.8199 -14.8147 -14.6715 -14.3308 -14.0406 -13.2397
   -13.1233  -7.2963  -4.1707  -4.1268  -4.0138  -3.8759  -3.7659  -3.7132
    -3.6651  -3.6046  -3.3990  -3.3083  -3.2827  -2.9871  -2.9412  -2.9262
    -2.9041  -2.8786  -2.6590  -2.6044  -2.5729  -2.5554  -2.5410  -2.5277
    -2.5200  -2.4998  -2.4665  -2.3685  -2.3149  -2.3004  -2.1771  -2.1487
    -2.0876  -2.0718  -2.0251  -2.0100  -1.9971  -1.9915  -1.9631  -1.9472
    -1.9201  -1.8436  -1.7281  -1.5764  -1.5576  -1.5241  -1.3996  -1.3668
    -1.3055  -1.2196  -1.2014  -1.1850  -1.1509  -1.1399  -1.0600  -0.9469
    -0.9069  -0.8986  -0.7946  -0.7548  -0.7348  -0.6307  -0.6068  -0.5392
    -0.5222  -0.5124  -0.4798  -0.3186  -0.2608  -0.2266  -0.1620  -0.1387
    -0.0778  -0.0614  -0.0312   0.0514   0.0993   0.1258   0.1274   0.1766
     0.2150   0.2319   0.2360   0.2507   0.2706   0.4378   0.5138   0.5277
     0.5972   0.6081   0.7710   0.8160   0.8976   1.0002   1.0448   1.2106
     1.2848   1.3745   1.4771   1.6840   1.8561   1.9017   3.3771   3.4604
     3.5089   3.5213   3.6195   3.6606   3.8301   3.8380   3.8486   3.9238

[...]

          k = 0.0380-0.0419 0.0000 ( 17876 PWs)   bands (ev):

[...]

          k =-0.0760-0.0000 0.0000 ( 17886 PWs)   bands (ev):

[...]

          k =-0.0760-0.0839 0.0000 ( 17948 PWs)   bands (ev):

   -55.7432 -55.7425 -55.7343 -55.7326 -55.6395 -55.5944 -55.5898 -55.5857
   -55.5523 -55.5505 -55.5164 -55.5151 -55.2832 -55.0240 -54.7203 -54.7201
   -32.1094 -32.1067 -32.0578 -32.0574 -32.0386 -32.0379 -32.0227 -32.0106
   -31.9582 -31.9541 -31.9495 -31.9452 -31.9106 -31.8840 -31.8824 -31.8794
   -31.8701 -31.8641 -31.8625 -31.8619 -31.8553 -31.8529 -31.8427 -31.8089
   -31.8023 -31.7952 -31.7829 -31.7707 -31.7511 -31.7506 -31.7476 -31.7465
   -31.7310 -31.7302 -31.7253 -31.7227 -31.6455 -31.5400 -31.4612 -31.3740
   -31.2787 -31.2525 -31.0464 -31.0462 -30.9572 -30.9570 -30.9179 -30.9178
   -15.9394 -15.9081 -15.7029 -15.6759 -15.6723 -15.6561 -15.5309 -15.4683
   -15.4550 -15.4527 -15.3889 -15.3676 -15.3315 -15.3042 -15.2901 -15.2800
   -15.2738 -15.2677 -15.2193 -15.2135 -15.1957 -15.1885 -15.0853 -15.0760
   -15.0721 -15.0163 -14.9369 -14.7956 -14.6878 -14.5041 -14.0402 -13.2251
   -13.2250  -7.2928  -4.1886  -4.0909  -4.0343  -3.4364  -3.2292  -3.1919
    -2.9327  -2.9145  -2.9010  -2.8458  -2.6731  -2.6556  -2.6341  -2.6160
    -2.5822  -2.5814  -2.5623  -2.5610  -2.5494  -2.5145  -2.5028  -2.4736
    -2.4357  -2.4257  -2.4139  -2.4127  -2.3826  -2.3729  -2.3340  -2.3048
    -2.2954  -2.2769  -2.2622  -2.0929  -1.9845  -1.9594  -1.8961  -1.8884
    -1.8594  -1.8233  -1.8158  -1.7947  -1.7441  -1.6584  -1.4912  -1.4591
    -1.4408  -1.3769  -1.3611  -1.3102  -1.2311  -1.1566  -1.1342  -1.1287
    -1.0795  -0.9697  -0.9471  -0.9389  -0.8692  -0.8225  -0.8158  -0.7794
    -0.7516  -0.7192  -0.7149  -0.6214  -0.5731  -0.5304  -0.5255  -0.4771
    -0.4099  -0.3985  -0.3696  -0.2606  -0.2381  -0.1785  -0.1451  -0.0354
     0.0253   0.2258   0.2799   0.3152   0.3722   0.4478   0.5293   0.5462
     0.5495   0.5602   0.6155   0.6701   0.7739   0.7826   0.8379   0.9447
     1.0114   1.6039   1.6486   1.6493   1.7216   1.7216   3.6598   3.6715
     3.7103   3.7309   3.8692   3.8845   3.9083   3.9092   3.9606   4.0469

     the Fermi energy is     3.3744 ev

!    total energy              =   -2941.70790500 Ry
     estimated scf accuracy    <       0.00000003 Ry
     smearing contrib. (-TS)   =      -0.02185442 Ry
     internal energy E=F+TS    =   -2941.68605057 Ry

     The total energy is F=E-TS. E is the sum of the following terms:
     one-electron contribution =  -23925.26170590 Ry
     hartree contribution      =   12052.25861708 Ry
     xc contribution           =    -486.76389424 Ry
     ewald contribution        =    9418.07945541 Ry
     electric field correction =       0.00147707 Ry

     convergence has been achieved in  62 iterations

     Forces acting on atoms (cartesian axes, Ry/au):

     atom    1 type  1   force =     0.00002986   -0.00025660    0.09664959
     atom    2 type  1   force =     0.00003847   -0.00058153   -0.17536929
     atom    3 type  2   force =     0.00011489   -0.00004312   -0.02487815
     atom    4 type  2   force =    -0.00000189   -0.00141936    0.05293264
     atom    5 type  2   force =    -0.01227749   -0.00026338    0.00347947
     atom    6 type  2   force =     0.01363189    0.00026478    0.00255709
     atom    7 type  1   force =     0.00031049    0.00058884   -0.01137980
     atom    8 type  1   force =     0.00051888    0.00783098    0.02844070
     atom    9 type  2   force =     0.00020471    0.00040908    0.00050692
     atom   10 type  2   force =    -0.00291958    0.00138169   -0.01558014
     atom   11 type  2   force =     0.00067127    0.00001315   -0.00001692
     atom   12 type  2   force =    -0.00008040   -0.00011275   -0.00013664
     atom   13 type  1   force =    -0.00019194   -0.00030654    0.00087474
     atom   14 type  1   force =     0.00018896   -0.00007734   -0.00019732
     atom   15 type  2   force =     0.00019435    0.00129023   -0.00010896
     atom   16 type  2   force =    -0.00033232   -0.00034852   -0.00031332
     atom   17 type  2   force =    -0.00047660    0.00006358   -0.00038542
     atom   18 type  2   force =     0.00019660    0.00050397    0.00006017
     atom   19 type  1   force =    -0.00049419   -0.00060415   -0.00018033
     atom   20 type  1   force =     0.00051174    0.00111549   -0.00087806
     atom   21 type  2   force =     0.00005498   -0.00006517    0.10320171
     atom   22 type  2   force =    -0.00079800    0.00128764    0.00057926
     atom   23 type  2   force =    -0.07151563   -0.00014603   -0.02772423
     atom   24 type  2   force =     0.07144132    0.00031504   -0.02780112
     atom   25 type  1   force =     0.00016530   -0.00023989    0.09627283
     atom   26 type  1   force =     0.00009315   -0.00022278   -0.17561140
     atom   27 type  2   force =     0.00017147   -0.00018881   -0.02392398
     atom   28 type  2   force =    -0.00000104   -0.00117422    0.05284645
     atom   29 type  2   force =    -0.01241017    0.00039494    0.00317700
     atom   30 type  2   force =     0.01366156    0.00085739    0.00222019
     atom   31 type  1   force =     0.00028234    0.00324420   -0.01197198
     atom   32 type  1   force =     0.00064937   -0.01007125    0.02883147
     atom   33 type  2   force =     0.00024357   -0.00024336    0.00064280
     atom   34 type  2   force =    -0.00238368    0.00102256   -0.02367191
     atom   35 type  2   force =     0.00059790   -0.00072079   -0.00008168
     atom   36 type  2   force =    -0.00016465   -0.00081421    0.00018075
     atom   37 type  1   force =    -0.00017489   -0.00011475    0.00055668
     atom   38 type  1   force =     0.00030653    0.00036611   -0.00064571
     atom   39 type  2   force =    -0.00010620   -0.00097403    0.00149403
     atom   40 type  2   force =     0.00026488   -0.00063536   -0.00014739
     atom   41 type  2   force =    -0.00042743   -0.00057828   -0.00015181
     atom   42 type  2   force =    -0.00013797   -0.00018516   -0.00019371
     atom   43 type  1   force =    -0.00049875    0.00050872    0.00008758
     atom   44 type  1   force =    -0.00026599    0.00056544   -0.00045825
     atom   45 type  2   force =     0.00007361   -0.00006606    0.10321827
     atom   46 type  2   force =    -0.07154848   -0.00008519   -0.02775096
     atom   47 type  2   force =     0.07145537    0.00033953   -0.02781585
     atom   48 type  3   force =     0.00005701   -0.00598331    0.00033063
     atom   49 type  4   force =     0.00039957    0.00224876   -0.00058399
     atom   50 type  5   force =    -0.00024798    0.00031962    0.00213809
     atom   51 type  5   force =    -0.00046836    0.00047293   -0.00171107
     atom   52 type  3   force =    -0.00159185    0.00031351   -0.00061709
     atom   53 type  5   force =     0.00139103    0.00074078   -0.00012276
     atom   54 type  5   force =     0.00139920   -0.00040088    0.00100580
     atom   55 type  5   force =     0.00019519    0.00046382   -0.00187563

     Total force =     0.368140     Total SCF correction =     0.000470
  @ DRIVER MODE: Message from server: STATUS
  @ DRIVER MODE: Message from server: GETFORCE
  @ DRIVER MODE: Returning v,forces,stress,ensemble

     Writing output data file ./calc.save/
  @ DRIVER MODE: Message from server: EXIT
  @ DRIVE MODE: Exiting

     General routines

     Parallel routines

   This run was terminated on:  11:29:39  24Aug2021

   JOB DONE.