     Program PWSCF v.6.7GPU starts on 23Sep2021 at 19:10:12

     R & G space division:  proc/nbgrp/npool/nimage =       8
     Reading input from /storage/home/hcoda1/3/ntian30/research/carbon/CxH_vib/H2O_calc/ads_slab/CH3NNHHHHO_a/out_0021/pw.inp
Warning: card &CELL ignored
Warning: card   CELL_DYNAMICS='IPI', ignored
Warning: card / ignored

     Current dimensions of program PWSCF are:
     Max number of different atomic species (ntypx) = 10
     Max number of k-points (npk) =  40000
     Max angular momentum in pseudopotentials (lmaxx) =  3
     Presently no symmetry can be used with electric field

     Message from routine cell_base_init:
     DEPRECATED: use true lattice parameter, not A to a.u. conversion factor

     IMPORTANT: XC functional enforced from input :
     Exchange-correlation= BEEF-VDW
                           (   1   4  43  14   2   0   0)
     Any further DFT definition will be discarded
     Please, verify this is what you really want

  @ DRIVER MODE: Connecting to
 qe_1139763_2947308.sched-torque.pace.gatech.eduatfvyamm_scratch
  using UNIX socket
  @ DRIVER MODE: Message from server: STATUS
  @ DRIVER MODE: Message from server: INIT
  @ DRIVER MODE: Receiving replica           0          -1
  @ DRIVER MODE: Receiving encoded integer          25
  @ DRIVER MODE:  SCF:  T  FORCE:  T  STRESS:  F  VC:  F  ENSEMBLE:  F
  @ DRIVER MODE:  SCF:  T  FORCE:  T  STRESS:  F  VC:  F  ENSEMBLE:  F

     Using Slab Decomposition

     bravais-lattice index     =            0
     lattice parameter (alat)  =       1.8897  a.u.
     unit-cell volume          =    6658.9804 (a.u.)^3
     number of atoms/cell      =           58
     number of atomic types    =            5
     number of electrons       =       405.00
     number of Kohn-Sham states=          212
     kinetic-energy cutoff     =      29.3995  Ry
     charge density cutoff     =     293.9946  Ry
     scf convergence threshold =      7.3E-08
     mixing beta               =       0.0500
     number of iterations used =            8  plain     mixing
     Exchange-correlation= BEEF-VDW
                           (   1   4  43  14   2   0   0)

     celldm(1)=   1.889726  celldm(2)=   0.000000  celldm(3)=   0.000000
     celldm(4)=   0.000000  celldm(5)=   0.000000  celldm(6)=   0.000000

     crystal axes: (cart. coord. in units of alat)
               a(1) = (   6.579727   0.000000   0.000000 )
               a(2) = (  -0.000775   5.961596   0.000000 )
               a(3) = (   0.000000   0.000000  25.155947 )

     reciprocal axes: (cart. coord. in units 2 pi/alat)
               b(1) = (  0.151982  0.000020  0.000000 )
               b(2) = (  0.000000  0.167740  0.000000 )
               b(3) = (  0.000000  0.000000  0.039752 )

     PseudoPot. # 1 for Ti read from file:
     /storage/coda1/p-amedford6/0/shared/rich_project_chbe-medford/medford-share/data/pseudos_module/espresso/nninc/pbe/van/Ti.UPF
     MD5 check sum: 8e4df49b7f0d34bbd5052bf3f5ea0213
     Pseudo is Ultrasoft, Zval = 12.0
     Generated by new atomic code, or converted to UPF format
     Using radial grid of  851 points,  6 beta functions with:
                l(1) =   0
                l(2) =   0
                l(3) =   1
                l(4) =   1
                l(5) =   2
                l(6) =   2
     Q(r) pseudized with  8 coefficients,  rinner =    1.000   1.000   1.000
                                                       1.000   1.000

     PseudoPot. # 2 for O  read from file:
     /storage/coda1/p-amedford6/0/shared/rich_project_chbe-medford/medford-share/data/pseudos_module/espresso/nninc/pbe/van/O.UPF
     MD5 check sum: 78c19812648e8988a0fe644b0f25305e
     Pseudo is Ultrasoft, Zval =  6.0
     Generated by new atomic code, or converted to UPF format
     Using radial grid of  737 points,  4 beta functions with:
                l(1) =   0
                l(2) =   0
                l(3) =   1
                l(4) =   1
     Q(r) pseudized with  8 coefficients,  rinner =    0.800   0.800   0.800

     PseudoPot. # 3 for N  read from file:
     /storage/coda1/p-amedford6/0/shared/rich_project_chbe-medford/medford-share/data/pseudos_module/espresso/nninc/pbe/van/N.UPF
     MD5 check sum: 90d10febe142ad51ac9d5be1deb811c4
     Pseudo is Ultrasoft, Zval =  5.0
     Generated by new atomic code, or converted to UPF format
     Using radial grid of  729 points,  4 beta functions with:
                l(1) =   0
                l(2) =   0
                l(3) =   1
                l(4) =   1
     Q(r) pseudized with  8 coefficients,  rinner =    0.800   0.800   0.800

     PseudoPot. # 4 for C  read from file:
     /storage/coda1/p-amedford6/0/shared/rich_project_chbe-medford/medford-share/data/pseudos_module/espresso/nninc/pbe/van/C.UPF
     MD5 check sum: 1a69bf6b8db32088f5b2163dbdb77a27
     Pseudo is Ultrasoft, Zval =  4.0
     Generated by new atomic code, or converted to UPF format
     Using radial grid of  721 points,  4 beta functions with:
                l(1) =   0
                l(2) =   0
                l(3) =   1
                l(4) =   1
     Q(r) pseudized with  8 coefficients,  rinner =    0.800   0.800   0.800

     PseudoPot. # 5 for H  read from file:
     /storage/coda1/p-amedford6/0/shared/rich_project_chbe-medford/medford-share/data/pseudos_module/espresso/nninc/pbe/van/H.UPF
     MD5 check sum: b5ee9d7bfd3a09ee7748110bda690ff7
     Pseudo is Ultrasoft, Zval =  1.0
     Generated by new atomic code, or converted to UPF format
     Using radial grid of  615 points,  1 beta functions with:
                l(1) =   0
     Q(r) pseudized with  8 coefficients,  rinner =    0.800

     atomic species   valence    mass     pseudopotential
        Ti1           12.00    47.86700     Ti( 1.00)
        O1             6.00    15.99900     O ( 1.00)
        N1             5.00    14.00700     N ( 1.00)
        C1             4.00    12.01100     C ( 1.00)
        H1             1.00     1.00800     H ( 1.00)

     No symmetry found

   Cartesian axes

     site n.     atom                  positions (alat units)
         1           Ti1 tau(   1) = (   0.0004258   2.9801865   6.0000000  )
         2           Ti1 tau(   2) = (   3.2906075   1.4906267   6.0002472  )
         3           O1  tau(   3) = (   0.0006271   0.0005054   7.9858123  )
         4           O1  tau(   4) = (   3.2906025   0.0005020   7.3038282  )
         5           O1  tau(   5) = (   4.5942328   1.4918067   9.2879030  )
         6           O1  tau(   6) = (   1.9868534   1.4903216   9.2879459  )
         7           Ti1 tau(   7) = (   3.2907910   2.8959150   9.1758416  )
         8           Ti1 tau(   8) = (   0.0015273   1.4827037   9.2680791  )
         9           O1  tau(   9) = (   3.3066316   0.0080679  11.3583267  )
        10           O1  tau(  10) = (   0.0116148   5.9584955  10.6183126  )
        11           O1  tau(  11) = (   1.3000076   1.5005770  12.6434233  )
        12           O1  tau(  12) = (   5.3281586   1.4930334  12.6431679  )
        13           Ti1 tau(  13) = (   0.0126194   3.0144704  12.5166071  )
        14           Ti1 tau(  14) = (   3.3185830   1.5708444  12.4374219  )
        15           O1  tau(  15) = (   0.0449490   0.0685618  14.6579901  )
        16           O1  tau(  16) = (   3.3164028   5.8986079  13.9921319  )
        17           O1  tau(  17) = (   4.5763498   1.4919541  16.1892649  )
        18           O1  tau(  18) = (   2.0390356   1.5007807  16.1677599  )
        19           Ti1 tau(  19) = (   3.3152479   2.9236451  15.6986563  )
        20           Ti1 tau(  20) = (   0.0808212   1.4292116  16.0039943  )
        21           O1  tau(  21) = (   3.2904802   0.0005063   4.7018136  )
        22           O1  tau(  22) = (   0.0303022   5.8046116  17.1736243  )
        23           O1  tau(  23) = (   1.3043587   1.4918075   6.0039043  )
        24           O1  tau(  24) = (   5.2767064   1.4903225   6.0039473  )
        25           Ti1 tau(  25) = (   0.0000382   5.9609847   6.0000000  )
        26           Ti1 tau(  26) = (   3.2902200   4.4714249   6.0002472  )
        27           O1  tau(  27) = (   0.0002396   2.9813036   7.9858123  )
        28           O1  tau(  28) = (   3.2902150   2.9813002   7.3038282  )
        29           O1  tau(  29) = (   4.5938453   4.4726049   9.2879030  )
        30           O1  tau(  30) = (   1.9864658   4.4711199   9.2879459  )
        31           Ti1 tau(  31) = (   3.2891106   5.8743827   9.1763621  )
        32           Ti1 tau(  32) = (   0.0006254   4.4649316   9.2693709  )
        33           O1  tau(  33) = (   3.3101163   2.9547251  11.3177968  )
        34           O1  tau(  34) = (   0.0092240   2.9805883  10.6323155  )
        35           O1  tau(  35) = (   1.2917786   4.4638488  12.6831265  )
        36           O1  tau(  36) = (   5.3332004   4.4701953  12.6833355  )
        37           Ti1 tau(  37) = (   0.0360484   0.0435164  12.5022323  )
        38           Ti1 tau(  38) = (   3.3166134   4.6596848  12.7231989  )
        39           O1  tau(  39) = (   6.5734590   2.9070644  14.8960501  )
        40           O1  tau(  40) = (   3.3256711   2.9499323  13.9293234  )
        41           O1  tau(  41) = (   4.5718193   4.3849529  16.1598725  )
        42           O1  tau(  42) = (   2.0293811   4.3548050  16.0908550  )
        43           Ti1 tau(  43) = (   3.3839698   5.9011270  16.3477160  )
        44           Ti1 tau(  44) = (   0.0762916   4.6312412  15.8077656  )
        45           O1  tau(  45) = (   3.2900926   2.9813045   4.7018136  )
        46           O1  tau(  46) = (   1.3039711   4.4726057   6.0039043  )
        47           O1  tau(  47) = (   5.2763189   4.4711207   6.0039473  )
        48           N1  tau(  48) = (   1.0338470   3.0145746  18.8549854  )
        49           N1  tau(  49) = (   6.4614719   2.5758313  18.0922931  )
        50           C1  tau(  50) = (   0.6385090   3.7489381  20.0602371  )
        51           H1  tau(  51) = (   6.5128770   4.5533600  19.8465500  )
        52           H1  tau(  52) = (   0.1876125   3.0656416  20.7809517  )
        53           H1  tau(  53) = (   1.5398112   4.1767214  20.4987412  )
        54           H1  tau(  54) = (   5.7034478   3.2665398  18.1448723  )
        55           H1  tau(  55) = (   6.1095767   1.7263867  18.5341855  )
        56           H1  tau(  56) = (   1.5400177   3.6533120  18.2466354  )
        57           O1  tau(  57) = (   3.2295176   5.8880611  18.1942677  )
        58           H1  tau(  58) = (   2.6769533   0.6239085  18.5854980  )

     number of k points=    10  Fermi-Dirac smearing, width (Ry)=  0.0073
                       cart. coord. in units 2pi/alat
        k(    1) = (   0.0000000   0.0000000   0.0000000), wk =   0.1250000
        k(    2) = (   0.0000000   0.0419351   0.0000000), wk =   0.2500000
        k(    3) = (   0.0000000  -0.0838702   0.0000000), wk =   0.1250000
        k(    4) = (   0.0379955   0.0000049   0.0000000), wk =   0.2500000
        k(    5) = (   0.0379955   0.0419400   0.0000000), wk =   0.2500000
        k(    6) = (   0.0379955  -0.0838652   0.0000000), wk =   0.2500000
        k(    7) = (   0.0379955  -0.0419301   0.0000000), wk =   0.2500000
        k(    8) = (  -0.0759910  -0.0000099   0.0000000), wk =   0.1250000
        k(    9) = (  -0.0759910   0.0419252   0.0000000), wk =   0.2500000
        k(   10) = (  -0.0759910  -0.0838800   0.0000000), wk =   0.1250000

     Initial potential from superposition of free atoms

     starting charge  388.99913, renormalised to  405.00000

     negative rho (up, down):  1.325E-02 0.000E+00

     %%%%%%%%%%%%%%%%%%%%%%%%%%%%%%%%%%%%%%%%%%%%%%%%%%%%%%%%%%%%%%%%%%%%%%%%
     %                                                                      %
     % You are using vdW-DF, which was implemented by the Thonhauser group. %
     % Please cite the following two papers that made this development      %
     % possible and the two reviews that describe the various versions:     %
     %                                                                      %
     %   T. Thonhauser et al., PRL 115, 136402 (2015).                      %
     %   T. Thonhauser et al., PRB 76, 125112 (2007).                       %
     %   K. Berland et al., Rep. Prog. Phys. 78, 066501 (2015).             %
     %   D.C. Langreth et al., J. Phys.: Condens. Matter 21, 084203 (2009). %
     %                                                                      %
     %                                                                      %
     % If you are calculating the stress with vdW-DF, please also cite:     %
     %                                                                      %
     %   R. Sabatini et al., J. Phys.: Condens. Matter 24, 424209 (2012).   %
     %                                                                      %
     %%%%%%%%%%%%%%%%%%%%%%%%%%%%%%%%%%%%%%%%%%%%%%%%%%%%%%%%%%%%%%%%%%%%%%%%

     Adding external electric field

     Computed dipole along edir(3) :
        Dipole              -14.7651 Ry au,        -37.5293 Debye
        Dipole field         -0.0279 Ry au,

        Potential amp.        2.5829 Ry
        Total length         46.3494 bohr

     Starting wfcs are  307 atomic wfcs
  @ DRIVER MODE: Message from server: STATUS
  @ DRIVER MODE: Message from server: POSDATA
  @ DRIVER MODE: Reading and sharing cell
  @ DRIVER MODE: Reading and sharing positions
  @ DRIVER MODE: Received positions

     Self-consistent Calculation

     iteration #  1     ecut=    29.40 Ry     beta= 0.05
     Davidson diagonalization with overlap
     c_bands:  3 eigenvalues not converged
     c_bands:  4 eigenvalues not converged
     c_bands:  2 eigenvalues not converged
     c_bands:  3 eigenvalues not converged
     c_bands:  3 eigenvalues not converged
     c_bands:  3 eigenvalues not converged
     ethr =  1.00E-05,  avg # of iterations = 23.2

[...]

     total energy              =   -2204.21653301 Ry
     estimated scf accuracy    <    8785.92323935 Ry

     iteration #  2     ecut=    29.40 Ry     beta= 0.05
     Davidson diagonalization with overlap
     ethr =  1.00E-02,  avg # of iterations = 30.7

[...]

     iteration # 52     ecut=    29.40 Ry     beta= 0.05
     Davidson diagonalization with overlap
     c_bands:  1 eigenvalues not converged
     ethr =  3.55E-07,  avg # of iterations = 13.2

[...]

     total energy              =   -2976.49818666 Ry
     estimated scf accuracy    <       0.00000011 Ry

     iteration # 73     ecut=    29.40 Ry     beta= 0.05
     Davidson diagonalization with overlap
     ethr =  2.60E-11,  avg # of iterations =  6.7

     negative rho (up, down):  1.443E-02 0.000E+00

     Adding external electric field

     Computed dipole along edir(3) :
        Dipole                0.9939 Ry au,          2.5263 Debye
        Dipole field          0.0019 Ry au,

        Potential amp.       -0.1739 Ry
        Total length         46.3494 bohr

     End of self-consistent calculation

          k = 0.0000 0.0000 0.0000 ( 18029 PWs)   bands (ev):

   -55.5813 -55.4979 -55.4639 -55.3632 -55.3419 -55.3259 -55.3120 -55.3054
   -55.2922 -55.2625 -55.2188 -55.0967 -55.0857 -55.0087 -54.4671 -54.4331
   -31.9825 -31.9178 -31.8770 -31.8296 -31.8279 -31.8087 -31.7982 -31.7887
   -31.7490 -31.7438 -31.7259 -31.6505 -31.6269 -31.6064 -31.6044 -31.6026
   -31.5968 -31.5848 -31.5824 -31.5555 -31.5494 -31.5242 -31.5234 -31.5118
   -31.4966 -31.4854 -31.4776 -31.4606 -31.4561 -31.4533 -31.4436 -31.4377
   -31.4339 -31.4145 -31.3726 -31.3708 -31.3002 -31.2933 -31.2791 -31.2584
   -31.2215 -31.2142 -30.8727 -30.7873 -30.7648 -30.6904 -30.6041 -30.4922
   -17.5811 -16.4000 -16.1389 -15.9764 -15.7606 -15.6751 -15.6466 -15.4541
   -15.3488 -15.2958 -15.1096 -15.0635 -15.0327 -15.0217 -15.0064 -14.9837
   -14.9639 -14.9257 -14.9171 -14.9069 -14.9013 -14.8628 -14.8404 -14.7898
   -14.7672 -14.7045 -14.6322 -14.5646 -14.5172 -14.2562 -14.2386 -12.9696
   -12.9656 -12.8493  -9.4731  -6.1528  -5.2050  -4.6388  -3.9616  -3.5038
    -3.4028  -3.3873  -3.3339  -3.2688  -3.1844  -2.9953  -2.8865  -2.8345
    -2.7320  -2.6246  -2.5697  -2.5067  -2.4824  -2.4298  -2.3968  -2.3853
    -2.3783  -2.2820  -2.2735  -2.2465  -2.2110  -2.1550  -2.1393  -2.0614
    -2.0250  -2.0166  -1.8921  -1.8795  -1.8137  -1.8093  -1.8032  -1.7695
    -1.7485  -1.7336  -1.7045  -1.6208  -1.5678  -1.4974  -1.4746  -1.4448
    -1.1857  -1.0936  -1.0559  -1.0282  -0.9303  -0.9141  -0.9009  -0.8971
    -0.8831  -0.8336  -0.7874  -0.7030  -0.5935  -0.5734  -0.5645  -0.5195
    -0.4542  -0.3723  -0.2992  -0.2695  -0.2323  -0.2190  -0.1530  -0.0755
    -0.0595  -0.0471   0.0615   0.0760   0.1582   0.2169   0.2309   0.2757
     0.3167   0.3493   0.4060   0.4424   0.4729   0.4788   0.5120   0.5565
     0.6123   0.6427   0.6706   0.7529   0.8084   0.8538   0.8815   1.0531
     1.0835   1.1415   1.1792   1.2665   1.5091   1.5594   1.5987   1.7537
     2.1257   2.1708   3.5866   3.7377   3.7528   3.8224   3.8475   3.9385
     4.0759   4.1436   4.2764   4.2846

[...]

          k = 0.0380-0.0419 0.0000 ( 17876 PWs)   bands (ev):

[...]

          k =-0.0760-0.0000 0.0000 ( 17886 PWs)   bands (ev):

[...]

          k =-0.0760-0.0839 0.0000 ( 17948 PWs)   bands (ev):

   -55.5806 -55.4810 -55.4807 -55.3619 -55.3288 -55.3184 -55.3126 -55.3090
   -55.3086 -55.2546 -55.2268 -55.0935 -55.0868 -55.0117 -54.4502 -54.4498
   -31.8651 -31.8073 -31.8025 -31.7979 -31.7977 -31.7831 -31.7743 -31.7740
   -31.7054 -31.6493 -31.6413 -31.6339 -31.6291 -31.6159 -31.6010 -31.6009
   -31.5987 -31.5984 -31.5841 -31.5737 -31.5661 -31.5576 -31.5366 -31.5183
   -31.5157 -31.5117 -31.5044 -31.5014 -31.4891 -31.4818 -31.4793 -31.4735
   -31.4683 -31.4497 -31.4439 -31.3668 -31.3549 -31.3408 -31.3021 -31.2973
   -31.2636 -31.2175 -30.7776 -30.7774 -30.6859 -30.6854 -30.6474 -30.6471
   -17.5750 -16.3859 -15.7471 -15.5690 -15.4728 -15.4663 -15.3356 -15.2698
   -15.2609 -15.2265 -15.2078 -15.1928 -15.1598 -15.1424 -15.1029 -15.0500
   -15.0167 -14.9940 -14.9825 -14.9454 -14.9329 -14.9110 -14.9036 -14.8950
   -14.8367 -14.8046 -14.7955 -14.7647 -14.5694 -14.5473 -14.3711 -12.9711
   -12.9513 -12.9512  -9.4706  -6.1379  -5.2068  -4.6488  -3.9577  -3.1905
    -2.9214  -2.7780  -2.7018  -2.5678  -2.5580  -2.5000  -2.4946  -2.4475
    -2.4389  -2.3977  -2.3436  -2.3281  -2.2846  -2.2797  -2.2490  -2.2364
    -2.2257  -2.2166  -2.1915  -2.1719  -2.1630  -2.1222  -2.1176  -2.1019
    -2.0820  -2.0657  -2.0381  -2.0272  -1.9870  -1.9476  -1.8823  -1.8086
    -1.7228  -1.6400  -1.6295  -1.6187  -1.5722  -1.5657  -1.5191  -1.5076
    -1.4603  -1.4088  -1.2948  -1.1720  -1.1322  -1.1057  -1.0736  -1.0415
    -0.9868  -0.9640  -0.9290  -0.8807  -0.8488  -0.7251  -0.7141  -0.6487
    -0.5643  -0.5309  -0.4549  -0.4417  -0.4272  -0.4110  -0.3892  -0.3725
    -0.3431  -0.3271  -0.2226  -0.1986  -0.1954  -0.1728  -0.1219  -0.0192
     0.0548   0.1379   0.2404   0.2902   0.3179   0.3517   0.4516   0.5698
     0.5949   0.6580   0.6900   0.7328   0.8000   0.8208   0.8686   0.9536
     1.0070   1.0394   1.0657   1.0707   1.1254   1.1577   1.9224   1.9309
     1.9911   1.9914   3.8002   4.0765   4.1021   4.1181   4.1554   4.1595
     4.1815   4.1959   4.2611   4.2765

     the Fermi energy is     3.6236 ev

!    total energy              =   -2976.49821426 Ry
     estimated scf accuracy    <       0.00000006 Ry
     smearing contrib. (-TS)   =      -0.01952834 Ry
     internal energy E=F+TS    =   -2976.47868592 Ry

     The total energy is F=E-TS. E is the sum of the following terms:
     one-electron contribution =  -23034.55130876 Ry
     hartree contribution      =   11613.63506134 Ry
     xc contribution           =    -495.71418877 Ry
     ewald contribution        =    8940.14988597 Ry
     electric field correction =       0.00186430 Ry

     convergence has been achieved in  73 iterations

     Forces acting on atoms (cartesian axes, Ry/au):

     atom    1 type  1   force =     0.00000899   -0.00021919    0.09405617
     atom    2 type  1   force =    -0.00015971    0.00024993   -0.17515314
     atom    3 type  2   force =     0.00007383   -0.00016389   -0.02115693
     atom    4 type  2   force =     0.00000402   -0.00104183    0.05356067
     atom    5 type  2   force =    -0.00455076   -0.00323094    0.00115110
     atom    6 type  2   force =     0.00661040   -0.00242969    0.00161340
     atom    7 type  1   force =     0.00037479    0.00457080    0.01036884
     atom    8 type  1   force =    -0.00055999    0.00199066    0.00311968
     atom    9 type  2   force =     0.00010399   -0.00050859   -0.00048131
     atom   10 type  2   force =    -0.00030830   -0.00004731   -0.01129257
     atom   11 type  2   force =    -0.00023214    0.00045979    0.00003837
     atom   12 type  2   force =    -0.00026957    0.00067626    0.00007679
     atom   13 type  1   force =     0.00061427   -0.00065017    0.00023497
     atom   14 type  1   force =    -0.00035697    0.00016666    0.00019172
     atom   15 type  2   force =    -0.00017292    0.00010351    0.00051850
     atom   16 type  2   force =     0.00004903   -0.00002361    0.00041497
     atom   17 type  2   force =    -0.00036602    0.00023526    0.00008145
     atom   18 type  2   force =     0.00002478    0.00008233    0.00023264
     atom   19 type  1   force =    -0.00010169    0.00053739   -0.00029092
     atom   20 type  1   force =    -0.00000354   -0.00011958   -0.00012162
     atom   21 type  2   force =     0.00003077   -0.00001277    0.10311374
     atom   22 type  2   force =    -0.00008238   -0.00017588   -0.00033460
     atom   23 type  2   force =    -0.07212218   -0.00021012   -0.02724693
     atom   24 type  2   force =     0.07202747    0.00023223   -0.02732473
     atom   25 type  1   force =     0.00007103   -0.00034740    0.09404168
     atom   26 type  1   force =    -0.00000067   -0.00128538   -0.17517695
     atom   27 type  2   force =     0.00015424   -0.00021363   -0.01993407
     atom   28 type  2   force =     0.00008677   -0.00111078    0.04908144
     atom   29 type  2   force =    -0.00668677    0.00152123    0.00212895
     atom   30 type  2   force =     0.00855620    0.00170096    0.00250035
     atom   31 type  1   force =     0.00049627   -0.00020253    0.00052565
     atom   32 type  1   force =    -0.00020233   -0.00145437    0.00351441
     atom   33 type  2   force =    -0.00007772    0.00001076   -0.00002358
     atom   34 type  2   force =    -0.00088862    0.00246373   -0.01150293
     atom   35 type  2   force =     0.00004017   -0.00043502    0.00048110
     atom   36 type  2   force =    -0.00053714   -0.00041226    0.00033884
     atom   37 type  1   force =     0.00037006    0.00028745    0.00002731
     atom   38 type  1   force =    -0.00038193    0.00020593    0.00029580
     atom   39 type  2   force =    -0.00050966    0.00042472    0.00046989
     atom   40 type  2   force =    -0.00001902   -0.00006609   -0.00007153
     atom   41 type  2   force =    -0.00036819   -0.00027980    0.00026356
     atom   42 type  2   force =    -0.00022514   -0.00024796   -0.00026210
     atom   43 type  1   force =    -0.00005261   -0.00036829    0.00072014
     atom   44 type  1   force =    -0.00016769    0.00017888    0.00011831
     atom   45 type  2   force =     0.00002156   -0.00001651    0.10296860
     atom   46 type  2   force =    -0.07212790   -0.00008787   -0.02724445
     atom   47 type  2   force =     0.07198288    0.00035070   -0.02728646
     atom   48 type  3   force =     0.00104363   -0.00112008   -0.00064348
     atom   49 type  3   force =    -0.00061881    0.00018789    0.00019339
     atom   50 type  4   force =     0.00444838   -0.00685022    0.00181342
     atom   51 type  5   force =    -0.00509246    0.00750118   -0.00143744
     atom   52 type  5   force =     0.00040269   -0.00133378    0.00023048
     atom   53 type  5   force =    -0.00011777   -0.00013549   -0.00006400
     atom   54 type  5   force =     0.00012934    0.00019388   -0.00060536
     atom   55 type  5   force =    -0.00016784    0.00030714    0.00041095
     atom   56 type  5   force =     0.00025811    0.00023470   -0.00037174
     atom   57 type  2   force =    -0.00020410    0.00053331   -0.00067659
     atom   58 type  5   force =    -0.00025115   -0.00060624   -0.00019386

     Total force =     0.361911     Total SCF correction =     0.000498
  @ DRIVER MODE: Message from server: STATUS
  @ DRIVER MODE: Message from server: GETFORCE
  @ DRIVER MODE: Returning v,forces,stress,ensemble

     Writing output data file ./calc.save/
  @ DRIVER MODE: Message from server: EXIT
  @ DRIVE MODE: Exiting

     General routines

     Parallel routines

   This run was terminated on:  19:34:59  23Sep2021

   JOB DONE.