     Program PWSCF v.6.7GPU starts on 29Sep2021 at 22:31: 4

     R & G space division:  proc/nbgrp/npool/nimage =       8
     Reading input from /storage/home/hcoda1/3/ntian30/research/carbon/CxH_vib/pristine/ads_slab/CH2N2_c/out_0019/pw.inp
Warning: card &CELL ignored
Warning: card   CELL_DYNAMICS='IPI', ignored
Warning: card / ignored

     Current dimensions of program PWSCF are:
     Max number of different atomic species (ntypx) = 10
     Max number of k-points (npk) =  40000
     Max angular momentum in pseudopotentials (lmaxx) =  3
     Presently no symmetry can be used with electric field

     Message from routine cell_base_init:
     DEPRECATED: use true lattice parameter, not A to a.u. conversion factor

     IMPORTANT: XC functional enforced from input :
     Exchange-correlation= BEEF-VDW
                           (   1   4  43  14   2   0   0)
     Any further DFT definition will be discarded
     Please, verify this is what you really want

  @ DRIVER MODE: Connecting to
 qe_1139763_3025227.sched-torque.pace.gatech.edu3vddon17_scratch
  using UNIX socket
  @ DRIVER MODE: Message from server: STATUS
  @ DRIVER MODE: Message from server: INIT
  @ DRIVER MODE: Receiving replica           0          -1
  @ DRIVER MODE: Receiving encoded integer          25
  @ DRIVER MODE:  SCF:  T  FORCE:  T  STRESS:  F  VC:  F  ENSEMBLE:  F
  @ DRIVER MODE:  SCF:  T  FORCE:  T  STRESS:  F  VC:  F  ENSEMBLE:  F

     Using Slab Decomposition

     bravais-lattice index     =            0
     lattice parameter (alat)  =       1.8897  a.u.
     unit-cell volume          =    6658.9804 (a.u.)^3
     number of atoms/cell      =           53
     number of atomic types    =            5
     number of electrons       =       400.00
     number of Kohn-Sham states=          210
     kinetic-energy cutoff     =      29.3995  Ry
     charge density cutoff     =     293.9946  Ry
     scf convergence threshold =      7.3E-08
     mixing beta               =       0.0500
     number of iterations used =            8  plain     mixing
     Exchange-correlation= BEEF-VDW
                           (   1   4  43  14   2   0   0)

     celldm(1)=   1.889726  celldm(2)=   0.000000  celldm(3)=   0.000000
     celldm(4)=   0.000000  celldm(5)=   0.000000  celldm(6)=   0.000000

     crystal axes: (cart. coord. in units of alat)
               a(1) = (   6.579727   0.000000   0.000000 )
               a(2) = (  -0.000775   5.961596   0.000000 )
               a(3) = (   0.000000   0.000000  25.155947 )

     reciprocal axes: (cart. coord. in units 2 pi/alat)
               b(1) = (  0.151982  0.000020  0.000000 )
               b(2) = (  0.000000  0.167740  0.000000 )
               b(3) = (  0.000000  0.000000  0.039752 )

     PseudoPot. # 1 for Ti read from file:
     /storage/coda1/p-amedford6/0/shared/rich_project_chbe-medford/medford-share/data/pseudos_module/espresso/nninc/pbe/van/Ti.UPF
     MD5 check sum: 8e4df49b7f0d34bbd5052bf3f5ea0213
     Pseudo is Ultrasoft, Zval = 12.0
     Generated by new atomic code, or converted to UPF format
     Using radial grid of  851 points,  6 beta functions with:
                l(1) =   0
                l(2) =   0
                l(3) =   1
                l(4) =   1
                l(5) =   2
                l(6) =   2
     Q(r) pseudized with  8 coefficients,  rinner =    1.000   1.000   1.000
                                                       1.000   1.000

     PseudoPot. # 2 for O  read from file:
     /storage/coda1/p-amedford6/0/shared/rich_project_chbe-medford/medford-share/data/pseudos_module/espresso/nninc/pbe/van/O.UPF
     MD5 check sum: 78c19812648e8988a0fe644b0f25305e
     Pseudo is Ultrasoft, Zval =  6.0
     Generated by new atomic code, or converted to UPF format
     Using radial grid of  737 points,  4 beta functions with:
                l(1) =   0
                l(2) =   0
                l(3) =   1
                l(4) =   1
     Q(r) pseudized with  8 coefficients,  rinner =    0.800   0.800   0.800

     PseudoPot. # 3 for N  read from file:
     /storage/coda1/p-amedford6/0/shared/rich_project_chbe-medford/medford-share/data/pseudos_module/espresso/nninc/pbe/van/N.UPF
     MD5 check sum: 90d10febe142ad51ac9d5be1deb811c4
     Pseudo is Ultrasoft, Zval =  5.0
     Generated by new atomic code, or converted to UPF format
     Using radial grid of  729 points,  4 beta functions with:
                l(1) =   0
                l(2) =   0
                l(3) =   1
                l(4) =   1
     Q(r) pseudized with  8 coefficients,  rinner =    0.800   0.800   0.800

     PseudoPot. # 4 for C  read from file:
     /storage/coda1/p-amedford6/0/shared/rich_project_chbe-medford/medford-share/data/pseudos_module/espresso/nninc/pbe/van/C.UPF
     MD5 check sum: 1a69bf6b8db32088f5b2163dbdb77a27
     Pseudo is Ultrasoft, Zval =  4.0
     Generated by new atomic code, or converted to UPF format
     Using radial grid of  721 points,  4 beta functions with:
                l(1) =   0
                l(2) =   0
                l(3) =   1
                l(4) =   1
     Q(r) pseudized with  8 coefficients,  rinner =    0.800   0.800   0.800

     PseudoPot. # 5 for H  read from file:
     /storage/coda1/p-amedford6/0/shared/rich_project_chbe-medford/medford-share/data/pseudos_module/espresso/nninc/pbe/van/H.UPF
     MD5 check sum: b5ee9d7bfd3a09ee7748110bda690ff7
     Pseudo is Ultrasoft, Zval =  1.0
     Generated by new atomic code, or converted to UPF format
     Using radial grid of  615 points,  1 beta functions with:
                l(1) =   0
     Q(r) pseudized with  8 coefficients,  rinner =    0.800

     atomic species   valence    mass     pseudopotential
        Ti1           12.00    47.86700     Ti( 1.00)
        O1             6.00    15.99900     O ( 1.00)
        N1             5.00    14.00700     N ( 1.00)
        C1             4.00    12.01100     C ( 1.00)
        H1             1.00     1.00800     H ( 1.00)

     No symmetry found

   Cartesian axes

     site n.     atom                  positions (alat units)
         1           Ti1 tau(   1) = (   0.0004258   2.9801865   6.0000000  )
         2           Ti1 tau(   2) = (   3.2906075   1.4906267   6.0002472  )
         3           O1  tau(   3) = (   0.0006271   0.0005054   7.9858123  )
         4           O1  tau(   4) = (   3.2906025   0.0005020   7.3038282  )
         5           O1  tau(   5) = (   4.5942328   1.4918067   9.2879030  )
         6           O1  tau(   6) = (   1.9868534   1.4903216   9.2879459  )
         7           Ti1 tau(   7) = (   3.2785950   2.8620264   9.1674676  )
         8           Ti1 tau(   8) = (   6.5781813   1.4341531   9.3833155  )
         9           O1  tau(   9) = (   3.3145900   5.9487502  11.3480437  )
        10           O1  tau(  10) = (   0.0063384   5.9489964  10.5610107  )
        11           O1  tau(  11) = (   1.3034973   1.4807819  12.6446922  )
        12           O1  tau(  12) = (   5.3015769   1.4818569  12.6358846  )
        13           Ti1 tau(  13) = (   0.1076100   2.9713955  12.8282313  )
        14           Ti1 tau(  14) = (   3.4293281   1.4717859  12.4936833  )
        15           O1  tau(  15) = (   0.0296261   0.0013950  14.6649934  )
        16           O1  tau(  16) = (   3.3139734   5.9559375  13.9452938  )
        17           O1  tau(  17) = (   4.5568938   1.4842850  16.0642655  )
        18           O1  tau(  18) = (   2.0675170   1.4827017  16.0617013  )
        19           Ti1 tau(  19) = (   3.3081901   2.9629817  15.7008690  )
        20           Ti1 tau(  20) = (   0.0097687   1.4520379  16.1724920  )
        21           O1  tau(  21) = (   3.2904802   0.0005063   4.7018136  )
        22           O1  tau(  22) = (   0.0191552   5.9343797  17.2479478  )
        23           O1  tau(  23) = (   1.3043587   1.4918075   6.0039043  )
        24           O1  tau(  24) = (   5.2767064   1.4903225   6.0039473  )
        25           Ti1 tau(  25) = (   0.0000382   5.9609847   6.0000000  )
        26           Ti1 tau(  26) = (   3.2902200   4.4714249   6.0002472  )
        27           O1  tau(  27) = (   0.0002396   2.9813036   7.9858123  )
        28           O1  tau(  28) = (   3.2902150   2.9813002   7.3038282  )
        29           O1  tau(  29) = (   4.5938453   4.4726049   9.2879030  )
        30           O1  tau(  30) = (   1.9864658   4.4711199   9.2879459  )
        31           Ti1 tau(  31) = (   3.2981115   5.8424800   9.1654069  )
        32           Ti1 tau(  32) = (   0.0061885   4.4171606   9.3817948  )
        33           O1  tau(  33) = (   3.3160899   2.9715062  11.3475872  )
        34           O1  tau(  34) = (   0.0081518   2.9687805  10.5628331  )
        35           O1  tau(  35) = (   1.3040072   4.4662140  12.6497434  )
        36           O1  tau(  36) = (   5.3008443   4.4652654  12.6404979  )
        37           Ti1 tau(  37) = (   0.1012718   5.9536009  12.8334903  )
        38           Ti1 tau(  38) = (   3.4286588   4.4602296  12.4928226  )
        39           O1  tau(  39) = (   0.0319021   2.9714116  14.6601935  )
        40           O1  tau(  40) = (   3.3101560   2.9646938  13.9065487  )
        41           O1  tau(  41) = (   4.5621106   4.4348364  16.0307704  )
        42           O1  tau(  42) = (   2.0631145   4.4362735  16.0340239  )
        43           Ti1 tau(  43) = (   3.3022073   5.9430436  15.7660435  )
        44           Ti1 tau(  44) = (   0.0096536   4.4281594  16.1671579  )
        45           O1  tau(  45) = (   3.2900926   2.9813045   4.7018136  )
        46           O1  tau(  46) = (   0.0201356   2.9582321  17.2481609  )
        47           O1  tau(  47) = (   1.3039711   4.4726057   6.0039043  )
        48           O1  tau(  48) = (   5.2763189   4.4711207   6.0039473  )
        49           N1  tau(  49) = (   3.1912726   0.1001446  19.4138715  )
        50           N1  tau(  50) = (   3.2720412   5.7295159  18.3236336  )
        51           C1  tau(  51) = (   3.0989320   0.4433392  20.6510207  )
        52           H1  tau(  52) = (   2.1038422   0.5496673  21.0731464  )
        53           H1  tau(  53) = (   4.0116933   0.5939059  21.2009644  )

     number of k points=    10  Fermi-Dirac smearing, width (Ry)=  0.0073
                       cart. coord. in units 2pi/alat
        k(    1) = (   0.0000000   0.0000000   0.0000000), wk =   0.1250000
        k(    2) = (   0.0000000   0.0419351   0.0000000), wk =   0.2500000
        k(    3) = (   0.0000000  -0.0838702   0.0000000), wk =   0.1250000
        k(    4) = (   0.0379955   0.0000049   0.0000000), wk =   0.2500000
        k(    5) = (   0.0379955   0.0419400   0.0000000), wk =   0.2500000
        k(    6) = (   0.0379955  -0.0838652   0.0000000), wk =   0.2500000
        k(    7) = (   0.0379955  -0.0419301   0.0000000), wk =   0.2500000
        k(    8) = (  -0.0759910  -0.0000099   0.0000000), wk =   0.1250000
        k(    9) = (  -0.0759910   0.0419252   0.0000000), wk =   0.2500000
        k(   10) = (  -0.0759910  -0.0838800   0.0000000), wk =   0.1250000

     Initial potential from superposition of free atoms

     starting charge  383.99917, renormalised to  400.00000

     negative rho (up, down):  1.242E-02 0.000E+00

     %%%%%%%%%%%%%%%%%%%%%%%%%%%%%%%%%%%%%%%%%%%%%%%%%%%%%%%%%%%%%%%%%%%%%%%%
     %                                                                      %
     % You are using vdW-DF, which was implemented by the Thonhauser group. %
     % Please cite the following two papers that made this development      %
     % possible and the two reviews that describe the various versions:     %
     %                                                                      %
     %   T. Thonhauser et al., PRL 115, 136402 (2015).                      %
     %   T. Thonhauser et al., PRB 76, 125112 (2007).                       %
     %   K. Berland et al., Rep. Prog. Phys. 78, 066501 (2015).             %
     %   D.C. Langreth et al., J. Phys.: Condens. Matter 21, 084203 (2009). %
     %                                                                      %
     %                                                                      %
     % If you are calculating the stress with vdW-DF, please also cite:     %
     %                                                                      %
     %   R. Sabatini et al., J. Phys.: Condens. Matter 24, 424209 (2012).   %
     %                                                                      %
     %%%%%%%%%%%%%%%%%%%%%%%%%%%%%%%%%%%%%%%%%%%%%%%%%%%%%%%%%%%%%%%%%%%%%%%%

     Adding external electric field

     Computed dipole along edir(3) :
        Dipole              -11.0071 Ry au,        -27.9773 Debye
        Dipole field         -0.0208 Ry au,

        Potential amp.        1.9255 Ry
        Total length         46.3494 bohr

     Starting wfcs are  302 atomic wfcs
  @ DRIVER MODE: Message from server: STATUS
  @ DRIVER MODE: Message from server: POSDATA
  @ DRIVER MODE: Reading and sharing cell
  @ DRIVER MODE: Reading and sharing positions
  @ DRIVER MODE: Received positions

     Self-consistent Calculation

     iteration #  1     ecut=    29.40 Ry     beta= 0.05
     Davidson diagonalization with overlap
     c_bands:  1 eigenvalues not converged
     c_bands:  1 eigenvalues not converged
     c_bands:  1 eigenvalues not converged
     c_bands:  2 eigenvalues not converged
     c_bands:  2 eigenvalues not converged
     c_bands:  2 eigenvalues not converged
     c_bands:  2 eigenvalues not converged
     c_bands:  4 eigenvalues not converged
     c_bands:  2 eigenvalues not converged
     ethr =  1.00E-05,  avg # of iterations = 20.0

[...]

     total energy              =   -2516.89984653 Ry
     estimated scf accuracy    <    5070.53028837 Ry

     iteration #  2     ecut=    29.40 Ry     beta= 0.05
     Davidson diagonalization with overlap
     ethr =  1.00E-02,  avg # of iterations = 22.0

[...]

     iteration # 67     ecut=    29.40 Ry     beta= 0.05
     Davidson diagonalization with overlap
     c_bands:  1 eigenvalues not converged
     ethr =  3.60E-11,  avg # of iterations =  6.5

[...]

     total energy              =   -2970.32638380 Ry
     estimated scf accuracy    <       0.00000010 Ry

     iteration # 68     ecut=    29.40 Ry     beta= 0.05
     Davidson diagonalization with overlap
     ethr =  2.45E-11,  avg # of iterations =  5.0

     negative rho (up, down):  1.352E-02 0.000E+00

     Adding external electric field

     Computed dipole along edir(3) :
        Dipole                0.9007 Ry au,          2.2894 Debye
        Dipole field          0.0017 Ry au,

        Potential amp.       -0.1576 Ry
        Total length         46.3494 bohr

     End of self-consistent calculation

          k = 0.0000 0.0000 0.0000 ( 18029 PWs)   bands (ev):

   -55.9904 -55.9567 -55.6715 -55.6356 -55.6005 -55.4823 -55.3935 -55.3690
   -55.3587 -55.3351 -55.2831 -55.2481 -55.2412 -55.2040 -54.7747 -54.7407
   -32.4179 -32.2373 -32.2101 -32.2092 -32.1823 -32.0911 -32.0447 -32.0305
   -31.9746 -31.8960 -31.8883 -31.8786 -31.8650 -31.8489 -31.8381 -31.8301
   -31.8187 -31.7963 -31.7865 -31.7539 -31.6715 -31.6435 -31.6351 -31.6281
   -31.6232 -31.6154 -31.5863 -31.5778 -31.5623 -31.5279 -31.5274 -31.5060
   -31.4979 -31.4859 -31.4644 -31.4639 -31.4621 -31.4465 -31.4397 -31.4171
   -31.3849 -31.3120 -31.1745 -31.1010 -31.0772 -30.9929 -30.9080 -30.7960
   -20.8381 -16.3305 -16.1518 -15.9260 -15.7826 -15.7058 -15.5689 -15.3575
   -15.3442 -15.2700 -15.2368 -15.2183 -15.1530 -15.1456 -15.1177 -15.1091
   -15.0834 -15.0568 -15.0227 -15.0065 -14.9937 -14.9523 -14.9019 -14.8645
   -14.7852 -14.7276 -14.6321 -14.6078 -14.5793 -14.5053 -14.4722 -14.2029
   -13.2682 -13.1545  -6.7701  -5.8102  -4.7349  -4.4329  -3.7400  -3.6694
    -3.5296  -3.5268  -3.3986  -3.1408  -3.0437  -2.8161  -2.8130  -2.7592
    -2.7185  -2.7028  -2.6646  -2.6037  -2.5005  -2.4837  -2.4543  -2.4292
    -2.4087  -2.4040  -2.3918  -2.3322  -2.3113  -2.2243  -2.2195  -2.2142
    -2.1755  -2.0430  -1.9968  -1.9507  -1.9434  -1.9127  -1.8319  -1.8190
    -1.8029  -1.7596  -1.6676  -1.6335  -1.5041  -1.4035  -1.3988  -1.3572
    -1.2986  -1.2492  -1.0531  -1.0132  -1.0010  -0.9789  -0.9707  -0.9557
    -0.8828  -0.8218  -0.6946  -0.5897  -0.5688  -0.5341  -0.5148  -0.5094
    -0.4799  -0.4152  -0.4054  -0.3832  -0.3419  -0.2090  -0.0659  -0.0358
    -0.0062   0.0176   0.0359   0.1080   0.1170   0.1629   0.1941   0.2408
     0.2485   0.2891   0.3086   0.3324   0.4163   0.4467   0.4994   0.5304
     0.5535   0.5744   0.6142   0.7815   0.8520   0.9662   0.9863   1.0610
     1.1977   1.2191   1.2533   1.4653   1.5112   1.6213   1.8414   1.9172
     3.2798   3.4648   3.6701   3.7531   3.7819   3.8721   3.9466   4.0005
     4.0545   4.1543

[...]

          k = 0.0380-0.0419 0.0000 ( 17876 PWs)   bands (ev):

[...]

          k =-0.0760-0.0000 0.0000 ( 17886 PWs)   bands (ev):

[...]

          k =-0.0760-0.0839 0.0000 ( 17948 PWs)   bands (ev):

   -55.9745 -55.9725 -55.6549 -55.6520 -55.5979 -55.4848 -55.3784 -55.3738
   -55.3526 -55.3513 -55.2664 -55.2648 -55.2247 -55.2204 -54.7577 -54.7577
   -32.2362 -32.2346 -32.2241 -32.2215 -32.1359 -32.1341 -32.0195 -32.0088
   -31.9309 -31.9199 -31.8899 -31.8654 -31.8566 -31.8531 -31.8227 -31.7960
   -31.7836 -31.7000 -31.6959 -31.6846 -31.6827 -31.6820 -31.6141 -31.6129
   -31.6056 -31.6020 -31.6014 -31.5974 -31.5897 -31.5887 -31.5619 -31.5606
   -31.5516 -31.5461 -31.4809 -31.4799 -31.4748 -31.4730 -31.4602 -31.4562
   -31.4440 -31.4405 -31.0900 -31.0900 -30.9888 -30.9887 -30.9506 -30.9505
   -20.8379 -15.7951 -15.7252 -15.5477 -15.5202 -15.4588 -15.4571 -15.4355
   -15.4226 -15.3685 -15.3672 -15.2349 -15.2253 -15.2190 -15.2129 -15.1516
   -15.1466 -15.1429 -15.1388 -15.0890 -15.0838 -14.9514 -14.9482 -14.8546
   -14.8490 -14.8094 -14.8017 -14.7476 -14.7372 -14.6512 -14.6426 -14.2025
   -13.2569 -13.2568  -6.7670  -5.8121  -4.7419  -4.4315  -3.0939  -2.9759
    -2.7789  -2.7685  -2.7415  -2.6151  -2.6102  -2.5897  -2.5847  -2.5265
    -2.4869  -2.4705  -2.4659  -2.4345  -2.4303  -2.3738  -2.3687  -2.3536
    -2.3443  -2.3388  -2.3341  -2.3270  -2.3195  -2.2395  -2.2326  -2.2178
    -2.2150  -2.1463  -2.1401  -2.1105  -2.1003  -1.8802  -1.8791  -1.8244
    -1.8138  -1.6979  -1.6936  -1.6753  -1.6729  -1.6143  -1.5884  -1.3689
    -1.3613  -1.3079  -1.2888  -1.2373  -1.2336  -1.1102  -1.0852  -0.9769
    -0.9371  -0.9309  -0.9236  -0.7931  -0.7819  -0.7734  -0.7572  -0.7485
    -0.7405  -0.6460  -0.5876  -0.5433  -0.5340  -0.5023  -0.4928  -0.4710
    -0.4239  -0.2834  -0.2798  -0.2745  -0.2652  -0.1294  -0.1273  -0.0661
    -0.0612   0.1779   0.1906   0.3044   0.3071   0.5636   0.5699   0.5963
     0.6114   0.7386   0.7513   0.7601   0.7941   0.9038   0.9081   0.9140
     0.9238   1.0154   1.0197   1.6091   1.6401   1.6411   1.6960   1.6965
     3.7945   3.8042   3.8255   3.8270   3.8530   3.8700   3.8992   3.9076
     4.1573   4.1780

     the Fermi energy is     2.6526 ev

!    total energy              =   -2970.32640594 Ry
     estimated scf accuracy    <       0.00000004 Ry
     smearing contrib. (-TS)   =      -0.00009975 Ry
     internal energy E=F+TS    =   -2970.32630619 Ry

     The total energy is F=E-TS. E is the sum of the following terms:
     one-electron contribution =  -23420.52564395 Ry
     hartree contribution      =   11802.06863759 Ry
     xc contribution           =    -491.45594072 Ry
     ewald contribution        =    9139.58510983 Ry
     electric field correction =       0.00153106 Ry

     convergence has been achieved in  68 iterations

     Forces acting on atoms (cartesian axes, Ry/au):

     atom    1 type  1   force =     0.00002471   -0.00005414    0.14943660
     atom    2 type  1   force =    -0.00005684   -0.00023647   -0.16926387
     atom    3 type  2   force =     0.00008149    0.00240738   -0.05965013
     atom    4 type  2   force =     0.00006295   -0.00154137    0.04011437
     atom    5 type  2   force =    -0.02178995   -0.00035986    0.00378432
     atom    6 type  2   force =     0.02139332    0.00006079    0.00419903
     atom    7 type  1   force =     0.00134202    0.00036120    0.00016501
     atom    8 type  1   force =    -0.00052820    0.00124726   -0.00038164
     atom    9 type  2   force =    -0.00067003    0.00012692   -0.00019186
     atom   10 type  2   force =    -0.00008085   -0.00038864    0.00059662
     atom   11 type  2   force =    -0.00080626    0.00025531   -0.00018100
     atom   12 type  2   force =    -0.00075788   -0.00004263   -0.00023148
     atom   13 type  1   force =     0.00050491    0.00009893   -0.00066270
     atom   14 type  1   force =    -0.00026683    0.00000529    0.00038138
     atom   15 type  2   force =    -0.00023521   -0.00038528    0.00034174
     atom   16 type  2   force =    -0.00007246   -0.00004256   -0.00045541
     atom   17 type  2   force =     0.00063003   -0.00032472   -0.00021577
     atom   18 type  2   force =     0.00026264   -0.00020356    0.00016300
     atom   19 type  1   force =    -0.00069497    0.00052992   -0.00011088
     atom   20 type  1   force =     0.00092778    0.00024725   -0.00044156
     atom   21 type  2   force =    -0.00000071   -0.00005205    0.10223499
     atom   22 type  2   force =     0.00022895   -0.00038944    0.00031561
     atom   23 type  2   force =    -0.07493874    0.00010005   -0.03479197
     atom   24 type  2   force =     0.07481107    0.00051390   -0.03482797
     atom   25 type  1   force =     0.00006792   -0.00002252    0.14883414
     atom   26 type  1   force =    -0.00000959   -0.00105723   -0.16927380
     atom   27 type  2   force =     0.00012690    0.00253669   -0.05990465
     atom   28 type  2   force =    -0.00032818   -0.00147294    0.04028584
     atom   29 type  2   force =    -0.02033235    0.00063464    0.00352752
     atom   30 type  2   force =     0.02285993   -0.00006520    0.00403650
     atom   31 type  1   force =     0.00101203    0.00068594   -0.00011698
     atom   32 type  1   force =    -0.00081903   -0.00144523   -0.00021227
     atom   33 type  2   force =    -0.00055228   -0.00039892   -0.00031293
     atom   34 type  2   force =    -0.00014177   -0.00005487   -0.00012920
     atom   35 type  2   force =    -0.00111117   -0.00079472   -0.00018455
     atom   36 type  2   force =    -0.00057285   -0.00045297   -0.00022468
     atom   37 type  1   force =     0.00072006   -0.00078808    0.00010966
     atom   38 type  1   force =    -0.00036723   -0.00016153    0.00060952
     atom   39 type  2   force =    -0.00040057   -0.00040714    0.00031721
     atom   40 type  2   force =    -0.00022641   -0.00041186    0.00002904
     atom   41 type  2   force =     0.00051783   -0.00036168    0.00021444
     atom   42 type  2   force =     0.00014558   -0.00040897   -0.00017014
     atom   43 type  1   force =    -0.00066802   -0.00100573    0.00035432
     atom   44 type  1   force =     0.00093622    0.00001868   -0.00028732
     atom   45 type  2   force =     0.00000626   -0.00007302    0.10221000
     atom   46 type  2   force =     0.00013528   -0.00008703   -0.00034002
     atom   47 type  2   force =    -0.07493116    0.00029191   -0.03475993
     atom   48 type  2   force =     0.07481530    0.00076370   -0.03485898
     atom   49 type  3   force =    -0.00010488    0.00087967    0.00042089
     atom   50 type  3   force =     0.00025059   -0.00037044    0.00078802
     atom   51 type  4   force =    -0.01192182    0.00140959    0.00424905
     atom   52 type  5   force =     0.01250904   -0.00054331   -0.00531990
     atom   53 type  5   force =    -0.00098656    0.00122908   -0.00021721

     Total force =     0.403311     Total SCF correction =     0.000402
  @ DRIVER MODE: Message from server: STATUS
  @ DRIVER MODE: Message from server: GETFORCE
  @ DRIVER MODE: Returning v,forces,stress,ensemble

     Writing output data file ./calc.save/
  @ DRIVER MODE: Message from server: EXIT
  @ DRIVE MODE: Exiting

     General routines

     Parallel routines

   This run was terminated on:  22:53:34  29Sep2021

   JOB DONE.