     Program PWSCF v.6.7GPU starts on  9Sep2021 at  4:39:11

     R & G space division:  proc/nbgrp/npool/nimage =      10
     Reading input from /storage/home/hcoda1/3/ntian30/research/carbon/CxH_vib/CH_calc/ads_slab/CHOH_a/out_0019/pw.inp
Warning: card &CELL ignored
Warning: card   CELL_DYNAMICS='IPI', ignored
Warning: card / ignored

     Current dimensions of program PWSCF are:
     Max number of different atomic species (ntypx) = 10
     Max number of k-points (npk) =  40000
     Max angular momentum in pseudopotentials (lmaxx) =  3
     Presently no symmetry can be used with electric field

     Message from routine cell_base_init:
     DEPRECATED: use true lattice parameter, not A to a.u. conversion factor

     IMPORTANT: XC functional enforced from input :
     Exchange-correlation= BEEF-VDW
                           (   1   4  43  14   2   0   0)
     Any further DFT definition will be discarded
     Please, verify this is what you really want

  @ DRIVER MODE: Connecting to
 qe_1139763_2767384.sched-torque.pace.gatech.eduhmjr8vcf_scratch
  using UNIX socket
  @ DRIVER MODE: Message from server: STATUS
  @ DRIVER MODE: Message from server: INIT
  @ DRIVER MODE: Receiving replica           0          -1
  @ DRIVER MODE: Receiving encoded integer          25
  @ DRIVER MODE:  SCF:  T  FORCE:  T  STRESS:  F  VC:  F  ENSEMBLE:  F
  @ DRIVER MODE:  SCF:  T  FORCE:  T  STRESS:  F  VC:  F  ENSEMBLE:  F

     Using Slab Decomposition

     bravais-lattice index     =            0
     lattice parameter (alat)  =       1.8897  a.u.
     unit-cell volume          =    6658.9804 (a.u.)^3
     number of atoms/cell      =           51
     number of atomic types    =            4
     number of electrons       =       390.00
     number of Kohn-Sham states=          205
     kinetic-energy cutoff     =      29.3995  Ry
     charge density cutoff     =     293.9946  Ry
     scf convergence threshold =      7.3E-08
     mixing beta               =       0.0500
     number of iterations used =            8  plain     mixing
     Exchange-correlation= BEEF-VDW
                           (   1   4  43  14   2   0   0)

     celldm(1)=   1.889726  celldm(2)=   0.000000  celldm(3)=   0.000000
     celldm(4)=   0.000000  celldm(5)=   0.000000  celldm(6)=   0.000000

     crystal axes: (cart. coord. in units of alat)
               a(1) = (   6.579727   0.000000   0.000000 )
               a(2) = (  -0.000775   5.961596   0.000000 )
               a(3) = (   0.000000   0.000000  25.155947 )

     reciprocal axes: (cart. coord. in units 2 pi/alat)
               b(1) = (  0.151982  0.000020  0.000000 )
               b(2) = (  0.000000  0.167740  0.000000 )
               b(3) = (  0.000000  0.000000  0.039752 )

     PseudoPot. # 1 for Ti read from file:
     /storage/coda1/p-amedford6/0/shared/rich_project_chbe-medford/medford-share/data/pseudos_module/espresso/nninc/pbe/van/Ti.UPF
     MD5 check sum: 8e4df49b7f0d34bbd5052bf3f5ea0213
     Pseudo is Ultrasoft, Zval = 12.0
     Generated by new atomic code, or converted to UPF format
     Using radial grid of  851 points,  6 beta functions with:
                l(1) =   0
                l(2) =   0
                l(3) =   1
                l(4) =   1
                l(5) =   2
                l(6) =   2
     Q(r) pseudized with  8 coefficients,  rinner =    1.000   1.000   1.000
                                                       1.000   1.000

     PseudoPot. # 2 for O  read from file:
     /storage/coda1/p-amedford6/0/shared/rich_project_chbe-medford/medford-share/data/pseudos_module/espresso/nninc/pbe/van/O.UPF
     MD5 check sum: 78c19812648e8988a0fe644b0f25305e
     Pseudo is Ultrasoft, Zval =  6.0
     Generated by new atomic code, or converted to UPF format
     Using radial grid of  737 points,  4 beta functions with:
                l(1) =   0
                l(2) =   0
                l(3) =   1
                l(4) =   1
     Q(r) pseudized with  8 coefficients,  rinner =    0.800   0.800   0.800

     PseudoPot. # 3 for C  read from file:
     /storage/coda1/p-amedford6/0/shared/rich_project_chbe-medford/medford-share/data/pseudos_module/espresso/nninc/pbe/van/C.UPF
     MD5 check sum: 1a69bf6b8db32088f5b2163dbdb77a27
     Pseudo is Ultrasoft, Zval =  4.0
     Generated by new atomic code, or converted to UPF format
     Using radial grid of  721 points,  4 beta functions with:
                l(1) =   0
                l(2) =   0
                l(3) =   1
                l(4) =   1
     Q(r) pseudized with  8 coefficients,  rinner =    0.800   0.800   0.800

     PseudoPot. # 4 for H  read from file:
     /storage/coda1/p-amedford6/0/shared/rich_project_chbe-medford/medford-share/data/pseudos_module/espresso/nninc/pbe/van/H.UPF
     MD5 check sum: b5ee9d7bfd3a09ee7748110bda690ff7
     Pseudo is Ultrasoft, Zval =  1.0
     Generated by new atomic code, or converted to UPF format
     Using radial grid of  615 points,  1 beta functions with:
                l(1) =   0
     Q(r) pseudized with  8 coefficients,  rinner =    0.800

     atomic species   valence    mass     pseudopotential
        Ti1           12.00    47.86700     Ti( 1.00)
        O1             6.00    15.99900     O ( 1.00)
        C1             4.00    12.01100     C ( 1.00)
        H1             1.00     1.00800     H ( 1.00)

     No symmetry found

   Cartesian axes

     site n.     atom                  positions (alat units)
         1           Ti1 tau(   1) = (   0.0004258   2.9801865   6.0000000  )
         2           Ti1 tau(   2) = (   3.2906075   1.4906267   6.0002472  )
         3           O1  tau(   3) = (   0.0006271   0.0005054   7.9858123  )
         4           O1  tau(   4) = (   3.2906025   0.0005020   7.3038282  )
         5           O1  tau(   5) = (   4.5942328   1.4918067   9.2879030  )
         6           O1  tau(   6) = (   1.9868534   1.4903216   9.2879459  )
         7           Ti1 tau(   7) = (   3.3189338   3.0017716   9.1565052  )
         8           Ti1 tau(   8) = (   0.0346667   1.4969860   9.2640968  )
         9           O1  tau(   9) = (   3.3073125   0.0088267  11.3792119  )
        10           O1  tau(  10) = (   0.0062670   0.0029933  10.6068016  )
        11           O1  tau(  11) = (   1.3062705   1.5014067  12.6543524  )
        12           O1  tau(  12) = (   5.3087205   1.4988994  12.6673500  )
        13           Ti1 tau(  13) = (   0.0213988   2.9921491  12.5260324  )
        14           Ti1 tau(  14) = (   3.3097092   1.5009918  12.5223738  )
        15           O1  tau(  15) = (   0.0424616   0.0075488  14.6717754  )
        16           O1  tau(  16) = (   3.3005110   0.0073529  14.0105724  )
        17           O1  tau(  17) = (   4.5952227   1.5195780  16.1612446  )
        18           O1  tau(  18) = (   2.0693493   1.5297702  16.1935428  )
        19           Ti1 tau(  19) = (   3.3356741   2.9939547  15.7500326  )
        20           Ti1 tau(  20) = (   0.0335386   1.3679084  15.9371528  )
        21           O1  tau(  21) = (   3.2904802   0.0005063   4.7018136  )
        22           O1  tau(  22) = (   0.0353059   0.0153350  17.1923242  )
        23           O1  tau(  23) = (   1.3043587   1.4918075   6.0039043  )
        24           O1  tau(  24) = (   5.2767064   1.4903225   6.0039473  )
        25           Ti1 tau(  25) = (   0.0000382   5.9609847   6.0000000  )
        26           Ti1 tau(  26) = (   3.2902200   4.4714249   6.0002472  )
        27           O1  tau(  27) = (   0.0002396   2.9813036   7.9858123  )
        28           O1  tau(  28) = (   3.2902150   2.9813002   7.3038282  )
        29           O1  tau(  29) = (   4.5938453   4.4726049   9.2879030  )
        30           O1  tau(  30) = (   1.9864658   4.4711199   9.2879459  )
        31           Ti1 tau(  31) = (   3.3154861   0.0215470   9.1550440  )
        32           Ti1 tau(  32) = (   0.0344056   4.4691587   9.2644328  )
        33           O1  tau(  33) = (   3.3078462   2.9871797  11.3713074  )
        34           O1  tau(  34) = (   0.0058747   2.9832696  10.6292865  )
        35           O1  tau(  35) = (   1.3058732   4.4754499  12.6504552  )
        36           O1  tau(  36) = (   5.3084772   4.4777640  12.6640448  )
        37           Ti1 tau(  37) = (   0.0171148   0.0128214  12.4806662  )
        38           Ti1 tau(  38) = (   3.3088916   4.4784539  12.5193958  )
        39           O1  tau(  39) = (   0.0434956   2.9958159  14.9132474  )
        40           O1  tau(  40) = (   3.3089563   2.9921379  13.9620076  )
        41           O1  tau(  41) = (   4.5951427   4.4669482  16.1652122  )
        42           O1  tau(  42) = (   2.0688924   4.4538916  16.2081353  )
        43           Ti1 tau(  43) = (   3.3160161   0.0142155  15.8078792  )
        44           Ti1 tau(  44) = (   0.0219142   4.6036306  15.9252304  )
        45           O1  tau(  45) = (   3.2900926   2.9813045   4.7018136  )
        46           O1  tau(  46) = (   1.3039711   4.4726057   6.0039043  )
        47           O1  tau(  47) = (   5.2763189   4.4711207   6.0039473  )
        48           C1  tau(  48) = (   6.0523360   2.9466228  19.1488008  )
        49           O1  tau(  49) = (   0.1918362   3.0047394  18.0201065  )
        50           H1  tau(  50) = (   5.0152694   2.8496317  18.7632286  )
        51           H1  tau(  51) = (   1.1293832   3.0938607  18.2382470  )

     number of k points=    10  Fermi-Dirac smearing, width (Ry)=  0.0073
                       cart. coord. in units 2pi/alat
        k(    1) = (   0.0000000   0.0000000   0.0000000), wk =   0.1250000
        k(    2) = (   0.0000000   0.0419351   0.0000000), wk =   0.2500000
        k(    3) = (   0.0000000  -0.0838702   0.0000000), wk =   0.1250000
        k(    4) = (   0.0379955   0.0000049   0.0000000), wk =   0.2500000
        k(    5) = (   0.0379955   0.0419400   0.0000000), wk =   0.2500000
        k(    6) = (   0.0379955  -0.0838652   0.0000000), wk =   0.2500000
        k(    7) = (   0.0379955  -0.0419301   0.0000000), wk =   0.2500000
        k(    8) = (  -0.0759910  -0.0000099   0.0000000), wk =   0.1250000
        k(    9) = (  -0.0759910   0.0419252   0.0000000), wk =   0.2500000
        k(   10) = (  -0.0759910  -0.0838800   0.0000000), wk =   0.1250000

     Initial potential from superposition of free atoms

     starting charge  373.99919, renormalised to  390.00000

     negative rho (up, down):  1.784E-02 0.000E+00

     %%%%%%%%%%%%%%%%%%%%%%%%%%%%%%%%%%%%%%%%%%%%%%%%%%%%%%%%%%%%%%%%%%%%%%%%
     %                                                                      %
     % You are using vdW-DF, which was implemented by the Thonhauser group. %
     % Please cite the following two papers that made this development      %
     % possible and the two reviews that describe the various versions:     %
     %                                                                      %
     %   T. Thonhauser et al., PRL 115, 136402 (2015).                      %
     %   T. Thonhauser et al., PRB 76, 125112 (2007).                       %
     %   K. Berland et al., Rep. Prog. Phys. 78, 066501 (2015).             %
     %   D.C. Langreth et al., J. Phys.: Condens. Matter 21, 084203 (2009). %
     %                                                                      %
     %                                                                      %
     % If you are calculating the stress with vdW-DF, please also cite:     %
     %                                                                      %
     %   R. Sabatini et al., J. Phys.: Condens. Matter 24, 424209 (2012).   %
     %                                                                      %
     %%%%%%%%%%%%%%%%%%%%%%%%%%%%%%%%%%%%%%%%%%%%%%%%%%%%%%%%%%%%%%%%%%%%%%%%

     Adding external electric field

     Computed dipole along edir(3) :
        Dipole               -6.1554 Ry au,        -15.6454 Debye
        Dipole field         -0.0116 Ry au,

        Potential amp.        1.0768 Ry
        Total length         46.3494 bohr

     Starting wfcs are  294 atomic wfcs
  @ DRIVER MODE: Message from server: STATUS
  @ DRIVER MODE: Message from server: POSDATA
  @ DRIVER MODE: Reading and sharing cell
  @ DRIVER MODE: Reading and sharing positions
  @ DRIVER MODE: Received positions

     Self-consistent Calculation

     iteration #  1     ecut=    29.40 Ry     beta= 0.05
     Davidson diagonalization with overlap
     c_bands:  1 eigenvalues not converged
     c_bands:  1 eigenvalues not converged
     c_bands:  1 eigenvalues not converged
     ethr =  1.00E-05,  avg # of iterations = 16.7

[...]

     total energy              =   -2756.80918932 Ry
     estimated scf accuracy    <    1910.37323466 Ry

     iteration #  2     ecut=    29.40 Ry     beta= 0.05
     Davidson diagonalization with overlap
     ethr =  1.00E-02,  avg # of iterations = 19.1

[...]

     iteration # 64     ecut=    29.40 Ry     beta= 0.05
     Davidson diagonalization with overlap
     c_bands:  1 eigenvalues not converged
     ethr =  1.52E-09,  avg # of iterations = 12.6

[...]

     total energy              =   -2929.94087684 Ry
     estimated scf accuracy    <       0.00000012 Ry

     iteration # 77     ecut=    29.40 Ry     beta= 0.05
     Davidson diagonalization with overlap
     ethr =  3.16E-11,  avg # of iterations = 14.3

     negative rho (up, down):  1.676E-02 0.000E+00

     Adding external electric field

     Computed dipole along edir(3) :
        Dipole                0.3828 Ry au,          0.9730 Debye
        Dipole field          0.0007 Ry au,

        Potential amp.       -0.0670 Ry
        Total length         46.3494 bohr

     End of self-consistent calculation

          k = 0.0000 0.0000 0.0000 ( 18029 PWs)   bands (ev):

   -56.0192 -55.9831 -55.9818 -55.9476 -55.9104 -55.9000 -55.8657 -55.8589
   -55.8560 -55.8216 -55.8083 -55.8069 -55.8009 -55.7671 -55.0793 -55.0452
   -32.5883 -32.5167 -32.4794 -32.3850 -32.3351 -32.3317 -32.3210 -32.3119
   -32.2712 -32.2649 -32.2277 -32.2258 -32.2173 -32.1938 -32.1881 -32.1724
   -32.1552 -32.1543 -32.1465 -32.1366 -32.1326 -32.1262 -32.1127 -32.1087
   -32.1001 -32.0844 -32.0771 -32.0383 -32.0333 -32.0255 -32.0221 -32.0094
   -32.0049 -32.0001 -31.9959 -31.9866 -31.9727 -31.9555 -31.9378 -31.9352
   -31.9136 -31.8851 -31.4917 -31.3885 -31.3670 -31.3079 -31.2215 -31.1105
   -21.6594 -16.8514 -16.6002 -16.4633 -16.3586 -16.2405 -16.1235 -16.0614
   -15.9631 -15.8576 -15.7439 -15.6962 -15.6724 -15.6705 -15.6502 -15.6415
   -15.6337 -15.5750 -15.5476 -15.5255 -15.5112 -15.5092 -15.4637 -15.4434
   -15.4103 -15.3751 -15.2508 -15.1804 -15.1225 -14.7894 -13.5799 -13.4604
   -10.7739  -6.0136  -5.0497  -4.3440  -4.1794  -4.0295  -3.9540  -3.9442
    -3.8974  -3.7803  -3.6049  -3.4498  -3.4424  -3.3153  -3.2720  -3.2260
    -3.1832  -3.0546  -3.0001  -2.9875  -2.9130  -2.9090  -2.8944  -2.8840
    -2.7969  -2.7856  -2.7680  -2.7561  -2.6488  -2.6072  -2.4874  -2.4548
    -2.4078  -2.3678  -2.3595  -2.3457  -2.3404  -2.2963  -2.2845  -2.2607
    -2.2057  -2.1496  -2.0541  -1.9236  -1.9149  -1.7974  -1.7636  -1.5980
    -1.5828  -1.5459  -1.5199  -1.4697  -1.4258  -1.4194  -1.3757  -1.2710
    -1.1920  -1.1400  -1.0631  -1.0278  -0.9600  -0.9197  -0.8447  -0.8124
    -0.8084  -0.7790  -0.6810  -0.6119  -0.5516  -0.5113  -0.4938  -0.4700
    -0.3859  -0.3597  -0.2634  -0.2504  -0.2108  -0.2018  -0.0900  -0.0818
    -0.0745  -0.0577  -0.0496   0.0382   0.1124   0.1261   0.1540   0.3090
     0.5259   0.5373   0.5777   0.8333   0.9215   0.9468   1.1060   1.2799
     1.5329   1.5873   3.0772   3.1448   3.1828   3.2046   3.2279   3.2855
     3.5673   3.5824   3.5889   3.6056   3.6324

[...]

          k = 0.0380-0.0419 0.0000 ( 17876 PWs)   bands (ev):

[...]

          k =-0.0760-0.0000 0.0000 ( 17886 PWs)   bands (ev):

[...]

          k =-0.0760-0.0839 0.0000 ( 17948 PWs)   bands (ev):

   -56.0021 -55.9999 -55.9659 -55.9634 -55.9073 -55.8907 -55.8682 -55.8591
   -55.8406 -55.8367 -55.8148 -55.8097 -55.7846 -55.7835 -55.0622 -55.0622
   -32.4416 -32.3929 -32.3901 -32.3080 -32.2954 -32.2932 -32.2745 -32.2589
   -32.2540 -32.2295 -32.2203 -32.2174 -32.2098 -32.1680 -32.1577 -32.1568
   -32.1551 -32.1511 -32.1463 -32.1438 -32.1387 -32.1316 -32.1119 -32.1006
   -32.1004 -32.0986 -32.0943 -32.0908 -32.0868 -32.0844 -32.0829 -32.0594
   -32.0389 -32.0387 -32.0372 -32.0206 -32.0118 -32.0107 -32.0010 -31.9788
   -31.9701 -31.9691 -31.3796 -31.3795 -31.3043 -31.3042 -31.2648 -31.2647
   -21.6586 -16.4714 -16.2561 -16.1937 -16.0392 -16.0343 -16.0040 -15.9762
   -15.8468 -15.8240 -15.8104 -15.7903 -15.7661 -15.7487 -15.7416 -15.7257
   -15.6209 -15.6139 -15.6031 -15.5971 -15.5378 -15.5342 -15.5242 -15.5111
   -15.4784 -15.4757 -15.4486 -15.4452 -15.2981 -15.1605 -13.5616 -13.5611
   -10.7770  -6.0164  -5.0272  -4.2940  -3.5328  -3.5311  -3.4526  -3.2585
    -3.2205  -3.1865  -3.1746  -3.0990  -3.0236  -3.0158  -3.0090  -2.9269
    -2.9204  -2.9174  -2.9152  -2.8531  -2.8465  -2.8094  -2.8048  -2.7549
    -2.7244  -2.7194  -2.7102  -2.6869  -2.6840  -2.6684  -2.6502  -2.6301
    -2.6177  -2.5346  -2.4897  -2.3896  -2.3580  -2.3272  -2.2506  -2.2417
    -2.1578  -2.1283  -2.1079  -2.0699  -2.0249  -2.0082  -1.8489  -1.8160
    -1.8113  -1.7484  -1.6790  -1.6540  -1.6231  -1.5676  -1.5042  -1.4954
    -1.4062  -1.3505  -1.3471  -1.2224  -1.2123  -1.1601  -1.0539  -1.0218
    -1.0133  -1.0095  -1.0009  -0.9379  -0.9270  -0.8622  -0.8123  -0.7646
    -0.7469  -0.7343  -0.5388  -0.4975  -0.4431  -0.3426  -0.3025  -0.1107
    -0.0966  -0.0821   0.0013   0.0387   0.0540   0.1271   0.2471   0.2517
     0.3037   0.3597   0.4021   0.4092   0.4263   1.2876   1.2977   1.2986
     1.4027   1.4047   3.2368   3.2945   3.3221   3.3998   3.4741   3.4989
     3.5860   3.6043   3.6322   3.6370   3.7134

     the Fermi energy is     3.1364 ev

!    total energy              =   -2929.94088752 Ry
     estimated scf accuracy    <       0.00000004 Ry
     smearing contrib. (-TS)   =      -0.03725141 Ry
     internal energy E=F+TS    =   -2929.90363610 Ry

     The total energy is F=E-TS. E is the sum of the following terms:
     one-electron contribution =  -24334.75171112 Ry
     hartree contribution      =   12249.97194328 Ry
     xc contribution           =    -481.18862981 Ry
     ewald contribution        =    9636.06448502 Ry
     electric field correction =       0.00027652 Ry

     convergence has been achieved in  77 iterations

     Forces acting on atoms (cartesian axes, Ry/au):

     atom    1 type  1   force =    -0.00041428   -0.00001832    0.09182237
     atom    2 type  1   force =    -0.00028757    0.00032642   -0.18373401
     atom    3 type  2   force =     0.00041085    0.00008482   -0.02348061
     atom    4 type  2   force =     0.00072334    0.00037652    0.05120909
     atom    5 type  2   force =    -0.01350791    0.00018853    0.00469128
     atom    6 type  2   force =     0.01514974   -0.00002554    0.00541735
     atom    7 type  1   force =    -0.00054202    0.00015720   -0.00020218
     atom    8 type  1   force =     0.00025963    0.00023263    0.00007149
     atom    9 type  2   force =     0.00003942   -0.00004222   -0.00015866
     atom   10 type  2   force =    -0.00021368    0.00005389    0.00038171
     atom   11 type  2   force =     0.00003676   -0.00014807   -0.00014782
     atom   12 type  2   force =     0.00011412   -0.00001734   -0.00009308
     atom   13 type  1   force =    -0.00023834    0.00083351   -0.00046602
     atom   14 type  1   force =     0.00016041    0.00000439    0.00015487
     atom   15 type  2   force =    -0.00000215    0.00033936    0.00034562
     atom   16 type  2   force =     0.00000071    0.00009188    0.00051882
     atom   17 type  2   force =    -0.00025968   -0.00026708    0.00015687
     atom   18 type  2   force =    -0.00030524   -0.00039393    0.00029587
     atom   19 type  1   force =    -0.00017245    0.00012981    0.00034383
     atom   20 type  1   force =    -0.00034443    0.00030404    0.00012977
     atom   21 type  2   force =    -0.00007973    0.00001452    0.10506205
     atom   22 type  2   force =    -0.00007734   -0.00036806   -0.00003967
     atom   23 type  2   force =    -0.06790774   -0.00014607   -0.02656273
     atom   24 type  2   force =     0.06762150    0.00029955   -0.02664262
     atom   25 type  1   force =    -0.00034640   -0.00000435    0.09417553
     atom   26 type  1   force =    -0.00029518   -0.00042316   -0.18374735
     atom   27 type  2   force =     0.00036080    0.00013665   -0.02228006
     atom   28 type  2   force =     0.00077569    0.00030522    0.05091833
     atom   29 type  2   force =    -0.01349862    0.00044467    0.00481517
     atom   30 type  2   force =     0.01516014    0.00023451    0.00552147
     atom   31 type  1   force =    -0.00060875   -0.00030453   -0.00028204
     atom   32 type  1   force =     0.00026966   -0.00011885    0.00004798
     atom   33 type  2   force =     0.00000809    0.00003046   -0.00005252
     atom   34 type  2   force =    -0.00007566   -0.00006012    0.00010695
     atom   35 type  2   force =     0.00008085    0.00008592    0.00009565
     atom   36 type  2   force =     0.00006468   -0.00005197    0.00012871
     atom   37 type  1   force =    -0.00025097   -0.00076241   -0.00022060
     atom   38 type  1   force =     0.00021166    0.00007747    0.00069270
     atom   39 type  2   force =    -0.00007117   -0.00065193    0.00047475
     atom   40 type  2   force =    -0.00037411   -0.00017771   -0.00019837
     atom   41 type  2   force =    -0.00015270    0.00011560   -0.00010646
     atom   42 type  2   force =    -0.00034535    0.00006465    0.00012435
     atom   43 type  1   force =     0.00006088   -0.00020820   -0.00032641
     atom   44 type  1   force =    -0.00040585   -0.00011842   -0.00003525
     atom   45 type  2   force =    -0.00004725    0.00002333    0.10505005
     atom   46 type  2   force =    -0.06791208   -0.00050680   -0.02658001
     atom   47 type  2   force =     0.06763157   -0.00006208   -0.02665822
     atom   48 type  3   force =    -0.00086291   -0.00007540    0.00062833
     atom   49 type  2   force =    -0.01797314   -0.00157975   -0.00512507
     atom   50 type  4   force =    -0.00025839   -0.00004365   -0.00049330
     atom   51 type  4   force =     0.01869061    0.00162047    0.00425208

     Total force =     0.368813     Total SCF correction =     0.000768
  @ DRIVER MODE: Message from server: STATUS
  @ DRIVER MODE: Message from server: GETFORCE
  @ DRIVER MODE: Returning v,forces,stress,ensemble

     Writing output data file ./calc.save/
  @ DRIVER MODE: Message from server: EXIT
  @ DRIVE MODE: Exiting

     General routines

     Parallel routines

   This run was terminated on:   5: 5:30   9Sep2021

   JOB DONE.