     Program PWSCF v.6.7GPU starts on 10Sep2021 at 19:22:12

     R & G space division:  proc/nbgrp/npool/nimage =      10
     Reading input from /storage/home/hcoda1/3/ntian30/research/carbon/CxH_vib/CH2_calc/ads_slab/CH2NHNH_b/out_0005/pw.inp
Warning: card &CELL ignored
Warning: card   CELL_DYNAMICS='IPI', ignored
Warning: card / ignored

     Current dimensions of program PWSCF are:
     Max number of different atomic species (ntypx) = 10
     Max number of k-points (npk) =  40000
     Max angular momentum in pseudopotentials (lmaxx) =  3
     Presently no symmetry can be used with electric field

     Message from routine cell_base_init:
     DEPRECATED: use true lattice parameter, not A to a.u. conversion factor

     IMPORTANT: XC functional enforced from input :
     Exchange-correlation= BEEF-VDW
                           (   1   4  43  14   2   0   0)
     Any further DFT definition will be discarded
     Please, verify this is what you really want

  @ DRIVER MODE: Connecting to
 qe_1139763_2792040.sched-torque.pace.gatech.edua_0lwo86_scratch
  using UNIX socket
  @ DRIVER MODE: Message from server: STATUS
  @ DRIVER MODE: Message from server: INIT
  @ DRIVER MODE: Receiving replica           0          -1
  @ DRIVER MODE: Receiving encoded integer          25
  @ DRIVER MODE:  SCF:  T  FORCE:  T  STRESS:  F  VC:  F  ENSEMBLE:  F
  @ DRIVER MODE:  SCF:  T  FORCE:  T  STRESS:  F  VC:  F  ENSEMBLE:  F

     Using Slab Decomposition

     bravais-lattice index     =            0
     lattice parameter (alat)  =       1.8897  a.u.
     unit-cell volume          =    6658.9804 (a.u.)^3
     number of atoms/cell      =           54
     number of atomic types    =            5
     number of electrons       =       396.00
     number of Kohn-Sham states=          208
     kinetic-energy cutoff     =      29.3995  Ry
     charge density cutoff     =     293.9946  Ry
     scf convergence threshold =      7.3E-08
     mixing beta               =       0.0500
     number of iterations used =            8  plain     mixing
     Exchange-correlation= BEEF-VDW
                           (   1   4  43  14   2   0   0)

     celldm(1)=   1.889726  celldm(2)=   0.000000  celldm(3)=   0.000000
     celldm(4)=   0.000000  celldm(5)=   0.000000  celldm(6)=   0.000000

     crystal axes: (cart. coord. in units of alat)
               a(1) = (   6.579727   0.000000   0.000000 )
               a(2) = (  -0.000775   5.961596   0.000000 )
               a(3) = (   0.000000   0.000000  25.155947 )

     reciprocal axes: (cart. coord. in units 2 pi/alat)
               b(1) = (  0.151982  0.000020  0.000000 )
               b(2) = (  0.000000  0.167740  0.000000 )
               b(3) = (  0.000000  0.000000  0.039752 )

     PseudoPot. # 1 for Ti read from file:
     /storage/coda1/p-amedford6/0/shared/rich_project_chbe-medford/medford-share/data/pseudos_module/espresso/nninc/pbe/van/Ti.UPF
     MD5 check sum: 8e4df49b7f0d34bbd5052bf3f5ea0213
     Pseudo is Ultrasoft, Zval = 12.0
     Generated by new atomic code, or converted to UPF format
     Using radial grid of  851 points,  6 beta functions with:
                l(1) =   0
                l(2) =   0
                l(3) =   1
                l(4) =   1
                l(5) =   2
                l(6) =   2
     Q(r) pseudized with  8 coefficients,  rinner =    1.000   1.000   1.000
                                                       1.000   1.000

     PseudoPot. # 2 for O  read from file:
     /storage/coda1/p-amedford6/0/shared/rich_project_chbe-medford/medford-share/data/pseudos_module/espresso/nninc/pbe/van/O.UPF
     MD5 check sum: 78c19812648e8988a0fe644b0f25305e
     Pseudo is Ultrasoft, Zval =  6.0
     Generated by new atomic code, or converted to UPF format
     Using radial grid of  737 points,  4 beta functions with:
                l(1) =   0
                l(2) =   0
                l(3) =   1
                l(4) =   1
     Q(r) pseudized with  8 coefficients,  rinner =    0.800   0.800   0.800

     PseudoPot. # 3 for N  read from file:
     /storage/coda1/p-amedford6/0/shared/rich_project_chbe-medford/medford-share/data/pseudos_module/espresso/nninc/pbe/van/N.UPF
     MD5 check sum: 90d10febe142ad51ac9d5be1deb811c4
     Pseudo is Ultrasoft, Zval =  5.0
     Generated by new atomic code, or converted to UPF format
     Using radial grid of  729 points,  4 beta functions with:
                l(1) =   0
                l(2) =   0
                l(3) =   1
                l(4) =   1
     Q(r) pseudized with  8 coefficients,  rinner =    0.800   0.800   0.800

     PseudoPot. # 4 for C  read from file:
     /storage/coda1/p-amedford6/0/shared/rich_project_chbe-medford/medford-share/data/pseudos_module/espresso/nninc/pbe/van/C.UPF
     MD5 check sum: 1a69bf6b8db32088f5b2163dbdb77a27
     Pseudo is Ultrasoft, Zval =  4.0
     Generated by new atomic code, or converted to UPF format
     Using radial grid of  721 points,  4 beta functions with:
                l(1) =   0
                l(2) =   0
                l(3) =   1
                l(4) =   1
     Q(r) pseudized with  8 coefficients,  rinner =    0.800   0.800   0.800

     PseudoPot. # 5 for H  read from file:
     /storage/coda1/p-amedford6/0/shared/rich_project_chbe-medford/medford-share/data/pseudos_module/espresso/nninc/pbe/van/H.UPF
     MD5 check sum: b5ee9d7bfd3a09ee7748110bda690ff7
     Pseudo is Ultrasoft, Zval =  1.0
     Generated by new atomic code, or converted to UPF format
     Using radial grid of  615 points,  1 beta functions with:
                l(1) =   0
     Q(r) pseudized with  8 coefficients,  rinner =    0.800

     atomic species   valence    mass     pseudopotential
        Ti1           12.00    47.86700     Ti( 1.00)
        O1             6.00    15.99900     O ( 1.00)
        N1             5.00    14.00700     N ( 1.00)
        C1             4.00    12.01100     C ( 1.00)
        H1             1.00     1.00800     H ( 1.00)

     No symmetry found

   Cartesian axes

     site n.     atom                  positions (alat units)
         1           Ti1 tau(   1) = (   0.0004258   2.9801865   6.0000000  )
         2           Ti1 tau(   2) = (   3.2906075   1.4906267   6.0002472  )
         3           O1  tau(   3) = (   0.0006271   0.0005054   7.9858123  )
         4           O1  tau(   4) = (   3.2906025   0.0005020   7.3038282  )
         5           O1  tau(   5) = (   4.5942328   1.4918067   9.2879030  )
         6           O1  tau(   6) = (   1.9868534   1.4903216   9.2879459  )
         7           Ti1 tau(   7) = (   3.2907910   2.8959150   9.1758416  )
         8           Ti1 tau(   8) = (   0.0015273   1.4827037   9.2680791  )
         9           O1  tau(   9) = (   3.3006942   5.9534781  11.3553798  )
        10           O1  tau(  10) = (   0.0116148   5.9584955  10.6183126  )
        11           O1  tau(  11) = (   1.3049435   1.4862809  12.6371303  )
        12           O1  tau(  12) = (   5.2939446   1.4839232  12.6419886  )
        13           Ti1 tau(  13) = (   0.0297220   2.9630369  12.5573518  )
        14           Ti1 tau(  14) = (   3.3261824   1.4838644  12.4981318  )
        15           O1  tau(  15) = (   0.0289408   0.0313188  14.6920809  )
        16           O1  tau(  16) = (   3.2926898   0.0103323  13.9875539  )
        17           O1  tau(  17) = (   4.5688264   1.5151599  16.1499861  )
        18           O1  tau(  18) = (   2.0666082   1.5432664  16.2461230  )
        19           Ti1 tau(  19) = (   3.3290317   3.0025141  15.7092439  )
        20           Ti1 tau(  20) = (   6.5420716   1.4859973  15.9011789  )
        21           O1  tau(  21) = (   3.2904802   0.0005063   4.7018136  )
        22           O1  tau(  22) = (   0.0300787   5.9197746  17.2397460  )
        23           O1  tau(  23) = (   1.3043587   1.4918075   6.0039043  )
        24           O1  tau(  24) = (   5.2767064   1.4903225   6.0039473  )
        25           Ti1 tau(  25) = (   0.0000382   5.9609847   6.0000000  )
        26           Ti1 tau(  26) = (   3.2902200   4.4714249   6.0002472  )
        27           O1  tau(  27) = (   0.0002396   2.9813036   7.9858123  )
        28           O1  tau(  28) = (   3.2902150   2.9813002   7.3038282  )
        29           O1  tau(  29) = (   4.5938453   4.4726049   9.2879030  )
        30           O1  tau(  30) = (   1.9864658   4.4711199   9.2879459  )
        31           Ti1 tau(  31) = (   3.2891106   5.8743827   9.1763621  )
        32           Ti1 tau(  32) = (   0.0006254   4.4649316   9.2693709  )
        33           O1  tau(  33) = (   3.3021489   2.9801797  11.3479352  )
        34           O1  tau(  34) = (   0.0092240   2.9805883  10.6323155  )
        35           O1  tau(  35) = (   1.3026635   4.4666190  12.6547599  )
        36           O1  tau(  36) = (   5.2965037   4.4700493  12.6603964  )
        37           Ti1 tau(  37) = (   0.0280624   5.9437424  12.5124334  )
        38           Ti1 tau(  38) = (   3.3252324   4.4624078  12.5019987  )
        39           O1  tau(  39) = (   0.0181394   2.9416354  14.7876853  )
        40           O1  tau(  40) = (   3.2997337   2.9731399  13.9284607  )
        41           O1  tau(  41) = (   4.5639665   4.4616582  16.1522005  )
        42           O1  tau(  42) = (   2.0594857   4.4554260  16.1407723  )
        43           Ti1 tau(  43) = (   3.2991394   0.0041700  15.7772358  )
        44           Ti1 tau(  44) = (   0.0501841   4.6507117  16.0116611  )
        45           O1  tau(  45) = (   3.2900926   2.9813045   4.7018136  )
        46           O1  tau(  46) = (   1.3039711   4.4726057   6.0039043  )
        47           O1  tau(  47) = (   5.2763189   4.4711207   6.0039473  )
        48           N1  tau(  48) = (   1.0195810   2.7978639  18.4734737  )
        49           N1  tau(  49) = (   6.5530482   2.9315443  17.6565599  )
        50           C1  tau(  50) = (   1.1739936   3.1992704  19.7158448  )
        51           H1  tau(  51) = (   2.1028141   2.9667422  20.2081369  )
        52           H1  tau(  52) = (   0.3908697   3.7596525  20.2009034  )
        53           H1  tau(  53) = (   1.7673082   2.2798185  17.9998463  )
        54           H1  tau(  54) = (   5.7337981   3.2184162  18.1887256  )

     number of k points=    10  Fermi-Dirac smearing, width (Ry)=  0.0073
                       cart. coord. in units 2pi/alat
        k(    1) = (   0.0000000   0.0000000   0.0000000), wk =   0.1250000
        k(    2) = (   0.0000000   0.0419351   0.0000000), wk =   0.2500000
        k(    3) = (   0.0000000  -0.0838702   0.0000000), wk =   0.1250000
        k(    4) = (   0.0379955   0.0000049   0.0000000), wk =   0.2500000
        k(    5) = (   0.0379955   0.0419400   0.0000000), wk =   0.2500000
        k(    6) = (   0.0379955  -0.0838652   0.0000000), wk =   0.2500000
        k(    7) = (   0.0379955  -0.0419301   0.0000000), wk =   0.2500000
        k(    8) = (  -0.0759910  -0.0000099   0.0000000), wk =   0.1250000
        k(    9) = (  -0.0759910   0.0419252   0.0000000), wk =   0.2500000
        k(   10) = (  -0.0759910  -0.0838800   0.0000000), wk =   0.1250000

     Initial potential from superposition of free atoms

     starting charge  379.99915, renormalised to  396.00000

     negative rho (up, down):  1.484E-02 0.000E+00

     %%%%%%%%%%%%%%%%%%%%%%%%%%%%%%%%%%%%%%%%%%%%%%%%%%%%%%%%%%%%%%%%%%%%%%%%
     %                                                                      %
     % You are using vdW-DF, which was implemented by the Thonhauser group. %
     % Please cite the following two papers that made this development      %
     % possible and the two reviews that describe the various versions:     %
     %                                                                      %
     %   T. Thonhauser et al., PRL 115, 136402 (2015).                      %
     %   T. Thonhauser et al., PRB 76, 125112 (2007).                       %
     %   K. Berland et al., Rep. Prog. Phys. 78, 066501 (2015).             %
     %   D.C. Langreth et al., J. Phys.: Condens. Matter 21, 084203 (2009). %
     %                                                                      %
     %                                                                      %
     % If you are calculating the stress with vdW-DF, please also cite:     %
     %                                                                      %
     %   R. Sabatini et al., J. Phys.: Condens. Matter 24, 424209 (2012).   %
     %                                                                      %
     %%%%%%%%%%%%%%%%%%%%%%%%%%%%%%%%%%%%%%%%%%%%%%%%%%%%%%%%%%%%%%%%%%%%%%%%

     Adding external electric field

     Computed dipole along edir(3) :
        Dipole               -9.7992 Ry au,        -24.9071 Debye
        Dipole field         -0.0185 Ry au,

        Potential amp.        1.7142 Ry
        Total length         46.3494 bohr

     Starting wfcs are  300 atomic wfcs
  @ DRIVER MODE: Message from server: STATUS
  @ DRIVER MODE: Message from server: POSDATA
  @ DRIVER MODE: Reading and sharing cell
  @ DRIVER MODE: Reading and sharing positions
  @ DRIVER MODE: Received positions

     Self-consistent Calculation

     iteration #  1     ecut=    29.40 Ry     beta= 0.05
     Davidson diagonalization with overlap
     c_bands:  1 eigenvalues not converged
     c_bands:  2 eigenvalues not converged
     c_bands:  1 eigenvalues not converged
     c_bands:  1 eigenvalues not converged
     c_bands:  2 eigenvalues not converged
     c_bands:  1 eigenvalues not converged
     c_bands:  1 eigenvalues not converged
     c_bands:  1 eigenvalues not converged
     c_bands:  3 eigenvalues not converged
     ethr =  1.00E-05,  avg # of iterations = 19.6

[...]

     total energy              =   -2535.10740256 Ry
     estimated scf accuracy    <    4517.63240293 Ry

     iteration #  2     ecut=    29.40 Ry     beta= 0.05
     Davidson diagonalization with overlap
     ethr =  1.00E-02,  avg # of iterations = 25.5

[...]

     iteration # 89     ecut=    29.40 Ry     beta= 0.05
     Davidson diagonalization with overlap
     c_bands:  1 eigenvalues not converged
     ethr =  5.59E-11,  avg # of iterations = 15.5

[...]

     total energy              =   -2940.35764396 Ry
     estimated scf accuracy    <       0.00000011 Ry

     iteration # 90     ecut=    29.40 Ry     beta= 0.05
     Davidson diagonalization with overlap
     ethr =  2.81E-11,  avg # of iterations =  4.8

     negative rho (up, down):  1.444E-02 0.000E+00

     Adding external electric field

     Computed dipole along edir(3) :
        Dipole                1.4474 Ry au,          3.6790 Debye
        Dipole field          0.0027 Ry au,

        Potential amp.       -0.2532 Ry
        Total length         46.3494 bohr

     End of self-consistent calculation

          k = 0.0000 0.0000 0.0000 ( 18029 PWs)   bands (ev):

   -55.2705 -55.2361 -55.2341 -55.2020 -55.1663 -55.1428 -55.1014 -55.0756
   -55.0742 -55.0636 -55.0615 -55.0391 -55.0286 -54.9212 -54.2479 -54.2139
   -31.8441 -31.7256 -31.6305 -31.6024 -31.5961 -31.5826 -31.5640 -31.5631
   -31.5287 -31.5261 -31.4822 -31.4807 -31.4789 -31.4470 -31.4269 -31.4070
   -31.4016 -31.3887 -31.3812 -31.3762 -31.3472 -31.3259 -31.3241 -31.3186
   -31.3048 -31.2956 -31.2930 -31.2766 -31.2726 -31.2690 -31.2576 -31.2473
   -31.2443 -31.2326 -31.2241 -31.2026 -31.1948 -31.1928 -31.1887 -31.1693
   -31.1460 -31.1043 -30.6565 -30.5644 -30.5422 -30.4730 -30.3863 -30.2753
   -19.5674 -16.0998 -15.8213 -15.6945 -15.5171 -15.4568 -15.3637 -15.2141
   -15.1644 -15.0493 -15.0153 -15.0067 -14.9778 -14.9412 -14.8709 -14.7991
   -14.7983 -14.7955 -14.7539 -14.7535 -14.7059 -14.6918 -14.6894 -14.6540
   -14.6399 -14.5937 -14.4836 -14.4107 -14.3542 -14.0345 -13.8339 -12.7505
   -12.6335 -10.2580  -7.0165  -6.6669  -4.2618  -4.1001  -3.4473  -3.2699
    -3.2517  -3.1844  -3.1651  -2.9919  -2.9164  -2.7441  -2.6196  -2.5324
    -2.4904  -2.4695  -2.4655  -2.2861  -2.2354  -2.1856  -2.1635  -2.1481
    -2.1193  -2.0831  -2.0672  -2.0324  -2.0244  -2.0084  -1.8341  -1.7536
    -1.7068  -1.6901  -1.6524  -1.5906  -1.5799  -1.5550  -1.5463  -1.5427
    -1.5174  -1.4861  -1.4687  -1.4299  -1.2965  -1.2514  -1.2167  -1.1295
    -1.0427  -0.8963  -0.8194  -0.8142  -0.7808  -0.7359  -0.6966  -0.6530
    -0.6444  -0.6112  -0.4676  -0.4224  -0.3572  -0.3285  -0.2925  -0.2432
    -0.2306  -0.0891  -0.0489  -0.0426  -0.0173   0.1076   0.1475   0.2029
     0.2325   0.2952   0.3404   0.4058   0.4210   0.4442   0.4912   0.5104
     0.6214   0.6729   0.6871   0.6960   0.7242   0.7910   0.8468   0.8668
     0.8895   0.9051   1.0747   1.1252   1.1946   1.3448   1.3574   1.6865
     1.7254   1.7745   1.9608   2.3489   2.3962   3.8343   3.9041   3.9637
     3.9826   3.9875   4.0690   4.1854   4.3072   4.3276   4.3333   4.3360

[...]

          k = 0.0380-0.0419 0.0000 ( 17876 PWs)   bands (ev):

[...]

          k =-0.0760-0.0000 0.0000 ( 17886 PWs)   bands (ev):

[...]

          k =-0.0760-0.0839 0.0000 ( 17948 PWs)   bands (ev):

   -55.2548 -55.2497 -55.2190 -55.2189 -55.1633 -55.1337 -55.1104 -55.0735
   -55.0666 -55.0578 -55.0543 -55.0458 -55.0452 -54.9231 -54.2309 -54.2308
   -31.6496 -31.6446 -31.5778 -31.5409 -31.5406 -31.5381 -31.5115 -31.5114
   -31.5100 -31.4782 -31.4764 -31.4684 -31.4656 -31.4247 -31.3964 -31.3926
   -31.3890 -31.3890 -31.3829 -31.3729 -31.3698 -31.3547 -31.3400 -31.3384
   -31.3382 -31.3354 -31.3341 -31.3062 -31.3035 -31.2918 -31.2899 -31.2878
   -31.2721 -31.2686 -31.2680 -31.2655 -31.2650 -31.2336 -31.2255 -31.2247
   -31.1804 -31.1508 -30.5549 -30.5549 -30.4691 -30.4690 -30.4297 -30.4297
   -19.5654 -15.5728 -15.4838 -15.4220 -15.2909 -15.2671 -15.2339 -15.2284
   -15.1592 -15.1253 -15.0647 -15.0312 -14.9924 -14.9735 -14.9710 -14.9491
   -14.8437 -14.8400 -14.8356 -14.8248 -14.7703 -14.7647 -14.7363 -14.7154
   -14.7120 -14.6582 -14.6097 -14.6074 -14.5196 -14.2749 -13.8445 -12.7351
   -12.7349 -10.2610  -7.0087  -6.6634  -4.2418  -4.0939  -2.8475  -2.7459
    -2.6516  -2.5743  -2.4997  -2.4572  -2.4340  -2.3021  -2.2589  -2.2475
    -2.2338  -2.2166  -2.1706  -2.1436  -2.1257  -2.1114  -2.0961  -2.0906
    -2.0729  -2.0531  -2.0394  -1.9794  -1.9693  -1.9520  -1.9266  -1.9063
    -1.8830  -1.8620  -1.8375  -1.8261  -1.7144  -1.6394  -1.6011  -1.5254
    -1.4724  -1.4529  -1.4455  -1.3549  -1.3200  -1.3084  -1.2951  -1.2238
    -1.1075  -1.0543  -0.9963  -0.9939  -0.9671  -0.8285  -0.8130  -0.7609
    -0.7400  -0.7199  -0.6822  -0.6419  -0.6133  -0.5271  -0.4830  -0.4523
    -0.4177  -0.2975  -0.2643  -0.2396  -0.2270  -0.2215  -0.1044  -0.0948
    -0.0687  -0.0399   0.0040   0.0255   0.0904   0.1017   0.2337   0.3114
     0.3844   0.4654   0.5655   0.6203   0.6952   0.7648   0.7655   0.8629
     0.9230   0.9999   1.0187   1.0437   1.0493   1.1680   1.2105   1.2158
     1.2535   2.1333   2.1343   2.2161   2.2163   4.0090   4.0189   4.0950
     4.1252   4.1586   4.2244   4.3480   4.3688   4.4088   4.4106   4.4955

     the Fermi energy is     3.8837 ev

!    total energy              =   -2940.35764750 Ry
     estimated scf accuracy    <       0.00000006 Ry
     smearing contrib. (-TS)   =      -0.03839094 Ry
     internal energy E=F+TS    =   -2940.31925656 Ry

     The total energy is F=E-TS. E is the sum of the following terms:
     one-electron contribution =  -23949.63676619 Ry
     hartree contribution      =   12067.34074102 Ry
     xc contribution           =    -486.10412642 Ry
     ewald contribution        =    9428.07694129 Ry
     electric field correction =       0.00395374 Ry

     convergence has been achieved in  90 iterations

     Forces acting on atoms (cartesian axes, Ry/au):

     atom    1 type  1   force =     0.00001043   -0.00025715    0.09433710
     atom    2 type  1   force =    -0.00015918   -0.00034706   -0.17721492
     atom    3 type  2   force =     0.00003788   -0.00014266   -0.02176408
     atom    4 type  2   force =    -0.00000481   -0.00173299    0.05673440
     atom    5 type  2   force =    -0.01090286   -0.00112699    0.00621617
     atom    6 type  2   force =     0.01266823   -0.00046343    0.00594999
     atom    7 type  1   force =    -0.00029194    0.00188869   -0.01479137
     atom    8 type  1   force =    -0.00006880    0.00587171    0.00722127
     atom    9 type  2   force =    -0.00014906   -0.00025767   -0.00002710
     atom   10 type  2   force =    -0.00135854    0.00011867   -0.00584408
     atom   11 type  2   force =    -0.00012185    0.00005913   -0.00008015
     atom   12 type  2   force =     0.00014873    0.00003168    0.00017850
     atom   13 type  1   force =     0.00012583    0.00009604    0.00027519
     atom   14 type  1   force =    -0.00005671    0.00001835    0.00026812
     atom   15 type  2   force =    -0.00029058    0.00018980   -0.00017755
     atom   16 type  2   force =     0.00002767    0.00023017   -0.00020653
     atom   17 type  2   force =     0.00021153    0.00018789    0.00001653
     atom   18 type  2   force =     0.00048698   -0.00056205   -0.00055639
     atom   19 type  1   force =    -0.00050244   -0.00020537    0.00005123
     atom   20 type  1   force =    -0.00055352   -0.00001669   -0.00010766
     atom   21 type  2   force =    -0.00000798   -0.00003677    0.10371691
     atom   22 type  2   force =     0.00021353    0.00025219   -0.00004146
     atom   23 type  2   force =    -0.07083842   -0.00011848   -0.02714534
     atom   24 type  2   force =     0.07068664    0.00031208   -0.02722888
     atom   25 type  1   force =     0.00000811   -0.00019463    0.09404693
     atom   26 type  1   force =    -0.00023853   -0.00046525   -0.17718815
     atom   27 type  2   force =     0.00009065   -0.00029249   -0.02084394
     atom   28 type  2   force =     0.00002746   -0.00141192    0.05610457
     atom   29 type  2   force =    -0.01102069   -0.00017547    0.00583068
     atom   30 type  2   force =     0.01267870    0.00014381    0.00558923
     atom   31 type  1   force =    -0.00016771    0.00465572   -0.01585204
     atom   32 type  1   force =    -0.00003239   -0.00693834    0.00709535
     atom   33 type  2   force =     0.00010467    0.00048001   -0.00010781
     atom   34 type  2   force =    -0.00097249    0.00064616   -0.00550558
     atom   35 type  2   force =     0.00058870    0.00025663   -0.00013334
     atom   36 type  2   force =    -0.00068762    0.00026891   -0.00022177
     atom   37 type  1   force =     0.00012731   -0.00023076    0.00011669
     atom   38 type  1   force =     0.00000912   -0.00019938   -0.00005880
     atom   39 type  2   force =     0.00078230   -0.00025477   -0.00024371
     atom   40 type  2   force =     0.00017422    0.00057869   -0.00000211
     atom   41 type  2   force =    -0.00028938   -0.00042343    0.00027983
     atom   42 type  2   force =     0.00035537    0.00013723   -0.00028192
     atom   43 type  1   force =    -0.00016497    0.00022289    0.00014763
     atom   44 type  1   force =    -0.00025775    0.00055856    0.00006413
     atom   45 type  2   force =     0.00000006   -0.00005771    0.10370493
     atom   46 type  2   force =    -0.07085872   -0.00008801   -0.02712801
     atom   47 type  2   force =     0.07068928    0.00034850   -0.02718870
     atom   48 type  3   force =     0.00285047    0.00787581    0.03074520
     atom   49 type  3   force =    -0.00506712    0.00009853   -0.00766240
     atom   50 type  4   force =    -0.00196934   -0.00502838   -0.01511787
     atom   51 type  5   force =    -0.00052068   -0.00036868   -0.00093545
     atom   52 type  5   force =     0.00003960   -0.00091700   -0.00109081
     atom   53 type  5   force =     0.00398600   -0.00322401   -0.00361626
     atom   54 type  5   force =     0.00042458    0.00000968   -0.00032639

     Total force =     0.367669     Total SCF correction =     0.000566
  @ DRIVER MODE: Message from server: STATUS
  @ DRIVER MODE: Message from server: GETFORCE
  @ DRIVER MODE: Returning v,forces,stress,ensemble

     Writing output data file ./calc.save/
  @ DRIVER MODE: Message from server: EXIT
  @ DRIVE MODE: Exiting

     General routines

     Parallel routines

   This run was terminated on:  19:43:47  10Sep2021

   JOB DONE.