     Program PWSCF v.6.7GPU starts on 16Jul2021 at  2:55: 5

     R & G space division:  proc/nbgrp/npool/nimage =      16
     Reading input from /storage/home/hcoda1/3/ntian30/research/carbon/15Jul_vib/ads_slab/CH3NNHH_a/out_0016/pw.inp
Warning: card &CELL ignored
Warning: card   CELL_DYNAMICS='IPI', ignored
Warning: card / ignored

     Current dimensions of program PWSCF are:
     Max number of different atomic species (ntypx) = 10
     Max number of k-points (npk) =  40000
     Max angular momentum in pseudopotentials (lmaxx) =  3
     Presently no symmetry can be used with electric field

     Message from routine cell_base_init:
     DEPRECATED: use true lattice parameter, not A to a.u. conversion factor

     IMPORTANT: XC functional enforced from input :
     Exchange-correlation= BEEF-VDW
                           (   1   4  43  14   2   0   0)
     Any further DFT definition will be discarded
     Please, verify this is what you really want

  @ DRIVER MODE: Connecting to
 qe_1139763_2351651.sched-torque.pace.gatech.edudtn0jaer_scratch
  using UNIX socket
  @ DRIVER MODE: Message from server: STATUS
  @ DRIVER MODE: Message from server: INIT
  @ DRIVER MODE: Receiving replica           0          -1
  @ DRIVER MODE: Receiving encoded integer          25
  @ DRIVER MODE:  SCF:  T  FORCE:  T  STRESS:  F  VC:  F  ENSEMBLE:  F
  @ DRIVER MODE:  SCF:  T  FORCE:  T  STRESS:  F  VC:  F  ENSEMBLE:  F

     Using Slab Decomposition

     bravais-lattice index     =            0
     lattice parameter (alat)  =       1.8897  a.u.
     unit-cell volume          =    6658.9804 (a.u.)^3
     number of atoms/cell      =           55
     number of atomic types    =            5
     number of electrons       =       397.00
     number of Kohn-Sham states=          208
     kinetic-energy cutoff     =      29.3995  Ry
     charge density cutoff     =     293.9946  Ry
     scf convergence threshold =      7.3E-08
     mixing beta               =       0.0500
     number of iterations used =            8  plain     mixing
     Exchange-correlation= BEEF-VDW
                           (   1   4  43  14   2   0   0)

     celldm(1)=   1.889726  celldm(2)=   0.000000  celldm(3)=   0.000000
     celldm(4)=   0.000000  celldm(5)=   0.000000  celldm(6)=   0.000000

     crystal axes: (cart. coord. in units of alat)
               a(1) = (   6.579727   0.000000   0.000000 )
               a(2) = (  -0.000775   5.961596   0.000000 )
               a(3) = (   0.000000   0.000000  25.155947 )

     reciprocal axes: (cart. coord. in units 2 pi/alat)
               b(1) = (  0.151982  0.000020  0.000000 )
               b(2) = (  0.000000  0.167740  0.000000 )
               b(3) = (  0.000000  0.000000  0.039752 )

     PseudoPot. # 1 for Ti read from file:
     /storage/coda1/p-amedford6/0/shared/rich_project_chbe-medford/medford-share/data/pseudos_module/espresso/nninc/pbe/van/Ti.UPF
     MD5 check sum: 8e4df49b7f0d34bbd5052bf3f5ea0213
     Pseudo is Ultrasoft, Zval = 12.0
     Generated by new atomic code, or converted to UPF format
     Using radial grid of  851 points,  6 beta functions with:
                l(1) =   0
                l(2) =   0
                l(3) =   1
                l(4) =   1
                l(5) =   2
                l(6) =   2
     Q(r) pseudized with  8 coefficients,  rinner =    1.000   1.000   1.000
                                                       1.000   1.000

     PseudoPot. # 2 for O  read from file:
     /storage/coda1/p-amedford6/0/shared/rich_project_chbe-medford/medford-share/data/pseudos_module/espresso/nninc/pbe/van/O.UPF
     MD5 check sum: 78c19812648e8988a0fe644b0f25305e
     Pseudo is Ultrasoft, Zval =  6.0
     Generated by new atomic code, or converted to UPF format
     Using radial grid of  737 points,  4 beta functions with:
                l(1) =   0
                l(2) =   0
                l(3) =   1
                l(4) =   1
     Q(r) pseudized with  8 coefficients,  rinner =    0.800   0.800   0.800

     PseudoPot. # 3 for N  read from file:
     /storage/coda1/p-amedford6/0/shared/rich_project_chbe-medford/medford-share/data/pseudos_module/espresso/nninc/pbe/van/N.UPF
     MD5 check sum: 90d10febe142ad51ac9d5be1deb811c4
     Pseudo is Ultrasoft, Zval =  5.0
     Generated by new atomic code, or converted to UPF format
     Using radial grid of  729 points,  4 beta functions with:
                l(1) =   0
                l(2) =   0
                l(3) =   1
                l(4) =   1
     Q(r) pseudized with  8 coefficients,  rinner =    0.800   0.800   0.800

     PseudoPot. # 4 for C  read from file:
     /storage/coda1/p-amedford6/0/shared/rich_project_chbe-medford/medford-share/data/pseudos_module/espresso/nninc/pbe/van/C.UPF
     MD5 check sum: 1a69bf6b8db32088f5b2163dbdb77a27
     Pseudo is Ultrasoft, Zval =  4.0
     Generated by new atomic code, or converted to UPF format
     Using radial grid of  721 points,  4 beta functions with:
                l(1) =   0
                l(2) =   0
                l(3) =   1
                l(4) =   1
     Q(r) pseudized with  8 coefficients,  rinner =    0.800   0.800   0.800

     PseudoPot. # 5 for H  read from file:
     /storage/coda1/p-amedford6/0/shared/rich_project_chbe-medford/medford-share/data/pseudos_module/espresso/nninc/pbe/van/H.UPF
     MD5 check sum: b5ee9d7bfd3a09ee7748110bda690ff7
     Pseudo is Ultrasoft, Zval =  1.0
     Generated by new atomic code, or converted to UPF format
     Using radial grid of  615 points,  1 beta functions with:
                l(1) =   0
     Q(r) pseudized with  8 coefficients,  rinner =    0.800

     atomic species   valence    mass     pseudopotential
        Ti1           12.00    47.86700     Ti( 1.00)
        O1             6.00    15.99900     O ( 1.00)
        N1             5.00    14.00700     N ( 1.00)
        C1             4.00    12.01100     C ( 1.00)
        H1             1.00     1.00800     H ( 1.00)

     Starting magnetic structure
     atomic species   magnetization
        Ti1          0.000
        O1           0.000
        N1           0.000
        C1           0.025
        H1           0.000

     No symmetry found

   Cartesian axes

     site n.     atom                  positions (alat units)
         1           Ti1 tau(   1) = (   0.0004258   2.9801865   6.0000000  )
         2           Ti1 tau(   2) = (   3.2906075   1.4906267   6.0002472  )
         3           O1  tau(   3) = (   0.0006271   0.0005054   7.9858123  )
         4           O1  tau(   4) = (   3.2906025   0.0005020   7.3038282  )
         5           O1  tau(   5) = (   4.5942328   1.4918067   9.2879030  )
         6           O1  tau(   6) = (   1.9868534   1.4903216   9.2879459  )
         7           Ti1 tau(   7) = (   3.2907910   2.8959150   9.1758416  )
         8           Ti1 tau(   8) = (   0.0015273   1.4827037   9.2680791  )
         9           O1  tau(   9) = (   3.3020592   5.9599881  11.3075072  )
        10           O1  tau(  10) = (   0.0116148   5.9584955  10.6183126  )
        11           O1  tau(  11) = (   1.3218652   1.4872367  12.6142461  )
        12           O1  tau(  12) = (   5.3149618   1.4866655  12.6283206  )
        13           Ti1 tau(  13) = (   6.5343381   3.0098038  12.6530281  )
        14           Ti1 tau(  14) = (   3.2132235   1.4912063  12.4551521  )
        15           O1  tau(  15) = (   0.0515422   5.9562953  14.6829507  )
        16           O1  tau(  16) = (   3.3088797   0.0214154  13.8770011  )
        17           O1  tau(  17) = (   4.5726725   1.5412406  16.1224456  )
        18           O1  tau(  18) = (   2.0900022   1.5114086  15.9969863  )
        19           Ti1 tau(  19) = (   3.3311046   3.0200058  15.6476981  )
        20           Ti1 tau(  20) = (   0.0790784   1.4105808  15.8036947  )
        21           O1  tau(  21) = (   3.2904802   0.0005063   4.7018136  )
        22           O1  tau(  22) = (   0.0613336   0.0214447  17.2555488  )
        23           O1  tau(  23) = (   1.3043587   1.4918075   6.0039043  )
        24           O1  tau(  24) = (   5.2767064   1.4903225   6.0039473  )
        25           Ti1 tau(  25) = (   0.0000382   5.9609847   6.0000000  )
        26           Ti1 tau(  26) = (   3.2902200   4.4714249   6.0002472  )
        27           O1  tau(  27) = (   0.0002396   2.9813036   7.9858123  )
        28           O1  tau(  28) = (   3.2902150   2.9813002   7.3038282  )
        29           O1  tau(  29) = (   4.5938453   4.4726049   9.2879030  )
        30           O1  tau(  30) = (   1.9864658   4.4711199   9.2879459  )
        31           Ti1 tau(  31) = (   3.2891106   5.8743827   9.1763621  )
        32           Ti1 tau(  32) = (   0.0006254   4.4649316   9.2693709  )
        33           O1  tau(  33) = (   3.3026341   2.9893090  11.3092672  )
        34           O1  tau(  34) = (   0.0092240   2.9805883  10.6323155  )
        35           O1  tau(  35) = (   1.3182942   4.4670451  12.6271195  )
        36           O1  tau(  36) = (   5.3124783   4.4780259  12.6376329  )
        37           Ti1 tau(  37) = (   6.5365500   0.0194685  12.5464133  )
        38           Ti1 tau(  38) = (   3.2155898   4.4753301  12.4613306  )
        39           O1  tau(  39) = (   0.0167368   2.9407051  14.7244952  )
        40           O1  tau(  40) = (   3.3149560   2.9822459  13.8616979  )
        41           O1  tau(  41) = (   4.5706274   4.5128733  15.9228735  )
        42           O1  tau(  42) = (   2.1262058   4.4922812  16.0793225  )
        43           Ti1 tau(  43) = (   3.3222298   0.0210159  15.6751784  )
        44           Ti1 tau(  44) = (   6.5499002   4.5104744  16.2959303  )
        45           O1  tau(  45) = (   3.2900926   2.9813045   4.7018136  )
        46           O1  tau(  46) = (   1.3039711   4.4726057   6.0039043  )
        47           O1  tau(  47) = (   5.2763189   4.4711207   6.0039473  )
        48           N1  tau(  48) = (   0.3735289   2.9861087  17.6038306  )
        49           C1  tau(  49) = (   1.3580301   2.7301661  18.6431808  )
        50           H1  tau(  50) = (   1.5128655   3.6333449  19.2641712  )
        51           H1  tau(  51) = (   1.0354786   1.8978442  19.2795547  )
        52           H1  tau(  52) = (   2.3065860   2.4473273  18.1987077  )
        53           N1  tau(  53) = (   5.7326324   3.4596218  18.1373629  )
        54           H1  tau(  54) = (   5.8436824   4.0267099  18.9748678  )
        55           H1  tau(  55) = (   5.0375616   2.7244768  18.2555579  )

     number of k points=    10  Fermi-Dirac smearing, width (Ry)=  0.0073
                       cart. coord. in units 2pi/alat
        k(    1) = (   0.0000000   0.0000000   0.0000000), wk =   0.0625000
        k(    2) = (   0.0000000   0.0419351   0.0000000), wk =   0.1250000
        k(    3) = (   0.0000000  -0.0838702   0.0000000), wk =   0.0625000
        k(    4) = (   0.0379955   0.0000049   0.0000000), wk =   0.1250000
        k(    5) = (   0.0379955   0.0419400   0.0000000), wk =   0.1250000
        k(    6) = (   0.0379955  -0.0838652   0.0000000), wk =   0.1250000
[...]
     % Please cite the following two papers that made this development      %
     % possible and the two reviews that describe the various versions:     %
     %                                                                      %
     %   T. Thonhauser et al., PRL 115, 136402 (2015).                      %
     %   T. Thonhauser et al., PRB 76, 125112 (2007).                       %
     %   K. Berland et al., Rep. Prog. Phys. 78, 066501 (2015).             %
     %   D.C. Langreth et al., J. Phys.: Condens. Matter 21, 084203 (2009). %
     %                                                                      %
     %                                                                      %
     % If you are calculating the stress with vdW-DF, please also cite:     %
     %                                                                      %
     %   R. Sabatini et al., J. Phys.: Condens. Matter 24, 424209 (2012).   %
     %                                                                      %
     %%%%%%%%%%%%%%%%%%%%%%%%%%%%%%%%%%%%%%%%%%%%%%%%%%%%%%%%%%%%%%%%%%%%%%%%

     Adding external electric field

     Computed dipole along edir(3) :
        Dipole               -9.2582 Ry au,        -23.5319 Debye
        Dipole field         -0.0175 Ry au,

        Potential amp.        1.6196 Ry
        Total length         46.3494 bohr

[...]

     Starting wfcs are  301 atomic wfcs
  @ DRIVER MODE: Message from server: STATUS
  @ DRIVER MODE: Message from server: POSDATA
  @ DRIVER MODE: Reading and sharing cell
  @ DRIVER MODE: Reading and sharing positions
  @ DRIVER MODE: Received positions

     Self-consistent Calculation

     iteration #  1     ecut=    29.40 Ry     beta= 0.05
     Davidson diagonalization with overlap
     c_bands:  1 eigenvalues not converged
     c_bands:  2 eigenvalues not converged
     c_bands:  1 eigenvalues not converged
     c_bands:  2 eigenvalues not converged
     c_bands:  2 eigenvalues not converged
     c_bands:  2 eigenvalues not converged
     c_bands:  2 eigenvalues not converged
     c_bands:  1 eigenvalues not converged
     c_bands:  4 eigenvalues not converged
     c_bands:  1 eigenvalues not converged
     c_bands:  2 eigenvalues not converged
     c_bands:  1 eigenvalues not converged
     c_bands:  2 eigenvalues not converged
     c_bands:  2 eigenvalues not converged
     c_bands:  2 eigenvalues not converged
     c_bands:  2 eigenvalues not converged
     c_bands:  1 eigenvalues not converged
     c_bands:  4 eigenvalues not converged
     ethr =  1.00E-05,  avg # of iterations = 19.8

[...]

     total energy              =   -2525.30871550 Ry
     estimated scf accuracy    <    4616.23408131 Ry

     total magnetization       =     0.00 Bohr mag/cell
     absolute magnetization    =     0.03 Bohr mag/cell

     iteration #  2     ecut=    29.40 Ry     beta= 0.05
     Davidson diagonalization with overlap
     ethr =  1.00E-02,  avg # of iterations = 23.7

[...]

     iteration #138     ecut=    29.40 Ry     beta= 0.05
     Davidson diagonalization with overlap
     ethr =  1.89E-11,  avg # of iterations = 10.6

[...]

     total energy              =   -2941.63803287 Ry
     estimated scf accuracy    <       0.00000008 Ry

[...]

     iteration #139     ecut=    29.40 Ry     beta= 0.05
     Davidson diagonalization with overlap
     c_bands:  1 eigenvalues not converged
     c_bands:  1 eigenvalues not converged
     c_bands:  1 eigenvalues not converged
     c_bands:  1 eigenvalues not converged
     ethr =  1.89E-11,  avg # of iterations = 14.6

     negative rho (up, down):  8.391E-03 8.389E-03

[...]

     Adding external electric field

     Computed dipole along edir(3) :
        Dipole                1.1462 Ry au,          2.9133 Debye
        Dipole field          0.0022 Ry au,

        Potential amp.       -0.2005 Ry
        Total length         46.3494 bohr

     Magnetic moment per site  (integrated on atomic sphere of radius R)
     atom   1 (R=0.726)  charge=  7.9409  magn= -0.0178
     atom   2 (R=0.726)  charge=  7.9244  magn= -0.0007
     atom   3 (R=0.726)  charge=  4.9319  magn=  0.0015
     atom   4 (R=0.726)  charge=  4.9681  magn=  0.0001
     atom   5 (R=0.726)  charge=  4.9368  magn=  0.0002
     atom   6 (R=0.726)  charge=  4.9376  magn=  0.0002
     atom   7 (R=0.726)  charge=  7.9229  magn= -0.0006
     atom   8 (R=0.726)  charge=  7.9151  magn= -0.0056
     atom   9 (R=0.726)  charge=  4.9562  magn=  0.0000
     atom  10 (R=0.726)  charge=  4.9310  magn=  0.0005
     atom  11 (R=0.726)  charge=  4.9387  magn=  0.0001
     atom  12 (R=0.726)  charge=  4.9369  magn=  0.0001
     atom  13 (R=0.726)  charge=  7.9088  magn= -0.0011
     atom  14 (R=0.726)  charge=  7.9274  magn= -0.0003
     atom  15 (R=0.726)  charge=  4.9165  magn=  0.0001
     atom  16 (R=0.726)  charge=  4.9542  magn=  0.0000
     atom  17 (R=0.726)  charge=  4.9068  magn=  0.0000
     atom  18 (R=0.726)  charge=  4.9387  magn=  0.0000
     atom  19 (R=0.726)  charge=  7.9528  magn= -0.0000
     atom  20 (R=0.726)  charge=  7.9411  magn= -0.0002
     atom  21 (R=0.726)  charge=  4.8211  magn=  0.0004
     atom  22 (R=0.726)  charge=  4.9007  magn=  0.0000
     atom  23 (R=0.726)  charge=  4.9281  magn=  0.0022
     atom  24 (R=0.726)  charge=  4.9282  magn=  0.0022
     atom  25 (R=0.726)  charge=  7.9408  magn= -0.0178
     atom  26 (R=0.726)  charge=  7.9244  magn= -0.0007
     atom  27 (R=0.726)  charge=  4.9306  magn=  0.0016
     atom  28 (R=0.726)  charge=  4.9683  magn=  0.0001
     atom  29 (R=0.726)  charge=  4.9375  magn=  0.0002
     atom  30 (R=0.726)  charge=  4.9383  magn=  0.0002
     atom  31 (R=0.726)  charge=  7.9236  magn= -0.0006
     atom  32 (R=0.726)  charge=  7.9153  magn= -0.0055
     atom  33 (R=0.726)  charge=  4.9540  magn=  0.0000
     atom  34 (R=0.726)  charge=  4.9049  magn=  0.0006
     atom  35 (R=0.726)  charge=  4.9378  magn=  0.0001
     atom  36 (R=0.726)  charge=  4.9369  magn=  0.0001
     atom  37 (R=0.726)  charge=  7.9159  magn= -0.0012
     atom  38 (R=0.726)  charge=  7.9271  magn= -0.0003
     atom  39 (R=0.726)  charge=  4.9088  magn=  0.0001
     atom  40 (R=0.726)  charge=  4.9620  magn=  0.0000
     atom  41 (R=0.726)  charge=  4.9464  magn= -0.0000
     atom  42 (R=0.726)  charge=  4.9157  magn=  0.0000
     atom  43 (R=0.726)  charge=  7.9491  magn= -0.0000
     atom  44 (R=0.726)  charge=  7.9599  magn= -0.0000
     atom  45 (R=0.726)  charge=  4.8212  magn=  0.0004
     atom  46 (R=0.726)  charge=  4.9281  magn=  0.0022
     atom  47 (R=0.726)  charge=  4.9282  magn=  0.0022
     atom  48 (R=0.420)  charge=  1.3151  magn= -0.0000
     atom  49 (R=0.448)  charge=  0.8391  magn=  0.0000
     atom  50 (R=0.420)  charge=  0.4368  magn= -0.0000
     atom  51 (R=0.420)  charge=  0.4405  magn= -0.0000
     atom  52 (R=0.420)  charge=  0.4486  magn= -0.0000
     atom  53 (R=0.420)  charge=  1.3379  magn= -0.0000
     atom  54 (R=0.420)  charge=  0.4533  magn=  0.0000
     atom  55 (R=0.420)  charge=  0.4498  magn= -0.0000

     End of self-consistent calculation

 ------ SPIN UP ------------

          k = 0.0000 0.0000 0.0000 ( 18029 PWs)   bands (ev):

   -55.5752 -55.5541 -55.5374 -55.5200 -55.4609 -55.4244 -55.4236 -55.3888
   -55.3663 -55.3322 -55.3274 -55.2936 -55.0321 -54.8757 -54.5377 -54.5037
   -32.1373 -32.0450 -31.9593 -31.8930 -31.8889 -31.8642 -31.8442 -31.8200
   -31.8062 -31.7954 -31.7852 -31.7600 -31.7555 -31.7270 -31.7165 -31.7031
   -31.6668 -31.6609 -31.6587 -31.6476 -31.6467 -31.6132 -31.6078 -31.5959
   -31.5711 -31.5686 -31.5641 -31.5564 -31.5550 -31.5309 -31.5051 -31.5004
   -31.4956 -31.4930 -31.4816 -31.4696 -31.4408 -31.3064 -31.2570 -31.1556
   -31.1283 -31.0368 -30.9443 -30.8569 -30.8346 -30.7609 -30.6744 -30.5636
   -17.5821 -16.3627 -16.0503 -15.8358 -15.7273 -15.7237 -15.6392 -15.4183
   -15.2965 -15.2827 -15.1669 -15.1631 -15.1045 -15.0618 -15.0545 -15.0478
   -15.0149 -15.0036 -14.9864 -14.9498 -14.9167 -14.8988 -14.8757 -14.7736
   -14.7070 -14.7015 -14.6829 -14.6183 -14.5707 -14.2106 -13.0402 -12.9240
   -12.5337  -9.1898  -6.3472  -5.0745  -4.1938  -3.7409  -3.5513  -3.4737
    -3.4391  -3.3709  -3.3430  -3.1811  -3.1734  -2.7949  -2.7756  -2.7575
    -2.7363  -2.7330  -2.4639  -2.4113  -2.3961  -2.3922  -2.3744  -2.3578
    -2.3368  -2.3264  -2.2990  -2.2877  -2.1548  -2.1112  -2.0322  -2.0062
    -1.9904  -1.8781  -1.8539  -1.8339  -1.8222  -1.8087  -1.7795  -1.7727
    -1.7509  -1.6425  -1.5334  -1.4541  -1.4137  -1.3612  -1.3392  -1.1640
    -1.1113  -1.0518  -1.0283  -1.0037  -0.9888  -0.9551  -0.8807  -0.8559
    -0.7141  -0.6754  -0.6215  -0.5955  -0.5667  -0.5103  -0.4771  -0.4470
    -0.3517  -0.3391  -0.3285  -0.3155  -0.2594  -0.0679  -0.0192  -0.0003
     0.0147   0.1140   0.1537   0.1783   0.2123   0.2689   0.2976   0.3621
     0.3906   0.4103   0.4213   0.4503   0.4668   0.5990   0.6244   0.6547
     0.7162   0.7698   0.8454   0.9577   1.0401   1.0973   1.1985   1.4171
     1.4846   1.5681   1.6779   1.7091   2.0536   2.0993   3.5740   3.6745
     3.6953   3.7117   3.8164   3.8663   4.0182   4.0297   4.0669   4.0940

[...]

          k =-0.0760-0.0000 0.0000 ( 17886 PWs)   bands (ev):

[...]

 ------ SPIN DOWN ----------

[...]

          k = 0.0380-0.0419 0.0000 ( 17876 PWs)   bands (ev):

[...]

          k =-0.0760-0.0839 0.0000 ( 17948 PWs)   bands (ev):

   -55.5708 -55.5697 -55.5620 -55.5511 -55.4517 -55.4371 -55.4102 -55.4028
   -55.3615 -55.3581 -55.3135 -55.3099 -55.0315 -54.8769 -54.5218 -54.5217
   -31.9433 -31.9328 -31.8749 -31.8741 -31.8676 -31.8666 -31.8451 -31.8286
   -31.8039 -31.7899 -31.7692 -31.7496 -31.7244 -31.7138 -31.7080 -31.6936
   -31.6923 -31.6858 -31.6822 -31.6742 -31.6681 -31.6549 -31.6515 -31.6492
   -31.6296 -31.6143 -31.6048 -31.6036 -31.5570 -31.5548 -31.5464 -31.5440
   -31.5402 -31.5364 -31.5286 -31.5266 -31.4127 -31.3180 -31.2596 -31.2173
   -31.1338 -31.0480 -30.8488 -30.8487 -30.7576 -30.7574 -30.7189 -30.7188
   -17.5702 -15.8225 -15.7826 -15.5274 -15.5181 -15.5157 -15.4749 -15.3518
   -15.3034 -15.2772 -15.2658 -15.2470 -15.2390 -15.1381 -15.1233 -15.1077
   -15.0963 -15.0707 -15.0271 -15.0220 -15.0138 -15.0029 -14.9916 -14.9258
   -14.8734 -14.8696 -14.7559 -14.6640 -14.5237 -14.4355 -13.0255 -13.0253
   -12.5529  -9.1507  -6.3062  -5.1047  -4.1265  -3.4122  -3.1231  -3.0756
    -2.7877  -2.7682  -2.7532  -2.6396  -2.5201  -2.5109  -2.4849  -2.4630
    -2.4289  -2.4158  -2.4056  -2.3975  -2.3797  -2.3616  -2.3508  -2.3113
    -2.2424  -2.2343  -2.2258  -2.2182  -2.2013  -2.1776  -2.1668  -2.1398
    -2.1153  -2.0804  -2.0210  -1.9905  -1.8407  -1.7971  -1.7341  -1.6971
    -1.6884  -1.6594  -1.6253  -1.6179  -1.5069  -1.4921  -1.4594  -1.3294
    -1.2689  -1.2608  -1.2283  -1.1407  -1.1020  -0.9729  -0.9597  -0.9225
    -0.8670  -0.8591  -0.8225  -0.7843  -0.7333  -0.6810  -0.6377  -0.6145
    -0.5967  -0.5241  -0.5235  -0.4770  -0.4211  -0.3509  -0.3281  -0.3205
    -0.2871  -0.2440  -0.1972  -0.1337  -0.0583  -0.0389  -0.0241   0.0749
     0.1481   0.3671   0.4145   0.5110   0.5334   0.5608   0.6207   0.6703
     0.7399   0.7557   0.7831   0.8563   0.8784   0.9702   0.9817   0.9987
     1.1764   1.6443   1.8499   1.8508   1.9188   1.9193   3.8558   3.8719
     3.8961   3.9197   4.0718   4.0751   4.0923   4.0951   4.2155   4.2471

     the Fermi energy is     3.5626 ev

!    total energy              =   -2941.63803314 Ry
     estimated scf accuracy    <       0.00000007 Ry
     smearing contrib. (-TS)   =      -0.02168330 Ry
     internal energy E=F+TS    =   -2941.61634983 Ry

     The total energy is F=E-TS. E is the sum of the following terms:
     one-electron contribution =  -24388.01282651 Ry
     hartree contribution      =   12285.95488299 Ry
     xc contribution           =    -486.93557455 Ry
     ewald contribution        =    9647.37468901 Ry
     electric field correction =       0.00247923 Ry

     total magnetization       =    -0.07 Bohr mag/cell
     absolute magnetization    =     0.10 Bohr mag/cell

     convergence has been achieved in 139 iterations

     Forces acting on atoms (cartesian axes, Ry/au):

     atom    1 type  1   force =    -0.00000826   -0.00019599    0.09678951
     atom    2 type  1   force =     0.00008898   -0.00069550   -0.17464995
     atom    3 type  2   force =     0.00018257   -0.00005959   -0.02507260
     atom    4 type  2   force =     0.00000908   -0.00124865    0.05120183
     atom    5 type  2   force =    -0.01126205   -0.00080562    0.00228931
     atom    6 type  2   force =     0.01310214   -0.00035678    0.00273537
     atom    7 type  1   force =     0.00100244    0.00021044   -0.01341589
     atom    8 type  1   force =    -0.00010319    0.01533417    0.02824723
     atom    9 type  2   force =    -0.00007175   -0.00001411    0.00009261
     atom   10 type  2   force =    -0.00233922    0.00080815   -0.01056982
     atom   11 type  2   force =     0.00035688    0.00005680   -0.00000674
     atom   12 type  2   force =    -0.00044601   -0.00006456    0.00026407
     atom   13 type  1   force =     0.00015397   -0.00018419   -0.00006272
     atom   14 type  1   force =     0.00011000   -0.00022001    0.00002702
     atom   15 type  2   force =    -0.00005333    0.00019439   -0.00010371
     atom   16 type  2   force =    -0.00019893    0.00003949   -0.00017960
     atom   17 type  2   force =    -0.00011460    0.00006937   -0.00006528
     atom   18 type  2   force =    -0.00018176    0.00002830   -0.00014799
     atom   19 type  1   force =    -0.00029974    0.00024318    0.00007472
     atom   20 type  1   force =     0.00002033   -0.00048420    0.00016025
     atom   21 type  2   force =     0.00003742   -0.00009014    0.10299268
     atom   22 type  2   force =    -0.00004163    0.00038073    0.00052357
     atom   23 type  2   force =    -0.07178250   -0.00021155   -0.02779279
     atom   24 type  2   force =     0.07174150    0.00024315   -0.02785772
     atom   25 type  1   force =     0.00003720   -0.00025727    0.09639936
     atom   26 type  1   force =    -0.00001057   -0.00029804   -0.17491144
     atom   27 type  2   force =     0.00019294   -0.00025683   -0.02393285
     atom   28 type  2   force =     0.00005307   -0.00100544    0.05147390
     atom   29 type  2   force =    -0.01129138    0.00078296    0.00170320
     atom   30 type  2   force =     0.01298068    0.00110970    0.00210423
     atom   31 type  1   force =     0.00103869    0.00256299   -0.01543257
     atom   32 type  1   force =     0.00005620   -0.01663637    0.02912458
     atom   33 type  2   force =     0.00011786    0.00002954   -0.00011816
     atom   34 type  2   force =    -0.00270957    0.00093375   -0.01866978
     atom   35 type  2   force =     0.00017854   -0.00007560   -0.00008228
     atom   36 type  2   force =    -0.00039205   -0.00007342    0.00014065
     atom   37 type  1   force =    -0.00011971   -0.00019010    0.00013910
     atom   38 type  1   force =     0.00008274    0.00008650   -0.00006416
     atom   39 type  2   force =    -0.00002830    0.00044384   -0.00000112
     atom   40 type  2   force =    -0.00037874    0.00014758   -0.00012747
     atom   41 type  2   force =     0.00011768   -0.00001096   -0.00013472
     atom   42 type  2   force =    -0.00001685    0.00020562    0.00000105
     atom   43 type  1   force =     0.00018098   -0.00001816   -0.00014284
     atom   44 type  1   force =    -0.00030281   -0.00051371   -0.00036946
     atom   45 type  2   force =     0.00005383   -0.00011008    0.10299631
     atom   46 type  2   force =    -0.07180692   -0.00016002   -0.02781533
     atom   47 type  2   force =     0.07174781    0.00022615   -0.02785813
     atom   48 type  3   force =    -0.00089953   -0.00044175    0.00052511
     atom   49 type  4   force =     0.00091672    0.00744311    0.00379449
     atom   50 type  5   force =    -0.00120412   -0.00812856   -0.00410639
     atom   51 type  5   force =    -0.00040024    0.00066454    0.00024799
     atom   52 type  5   force =     0.00081969    0.00000133    0.00025022
     atom   53 type  3   force =     0.00087997    0.00036079   -0.00021035
     atom   54 type  5   force =     0.00041638   -0.00012270    0.00114313
     atom   55 type  5   force =    -0.00021252    0.00032334   -0.00153962

     Total force =     0.367415     Total SCF correction =     0.000407
  @ DRIVER MODE: Message from server: STATUS
  @ DRIVER MODE: Message from server: GETFORCE
  @ DRIVER MODE: Returning v,forces,stress,ensemble

     Writing output data file ./calc.save/
  @ DRIVER MODE: Message from server: EXIT
  @ DRIVE MODE: Exiting

     General routines

     Parallel routines

   This run was terminated on:   4: 1: 5  16Jul2021

   JOB DONE.