     Program PWSCF v.6.7GPU starts on 22Sep2021 at 10:14: 3

     R & G space division:  proc/nbgrp/npool/nimage =      10
     Reading input from /storage/home/hcoda1/3/ntian30/research/carbon/CxH_vib/CH_calc/ads_slab/CHNHNH2H2O_b/out_0034/pw.inp
Warning: card &CELL ignored
Warning: card   CELL_DYNAMICS='IPI', ignored
Warning: card / ignored

     Current dimensions of program PWSCF are:
     Max number of different atomic species (ntypx) = 10
     Max number of k-points (npk) =  40000
     Max angular momentum in pseudopotentials (lmaxx) =  3
     Presently no symmetry can be used with electric field

     Message from routine cell_base_init:
     DEPRECATED: use true lattice parameter, not A to a.u. conversion factor

     IMPORTANT: XC functional enforced from input :
     Exchange-correlation= BEEF-VDW
                           (   1   4  43  14   2   0   0)
     Any further DFT definition will be discarded
     Please, verify this is what you really want

  @ DRIVER MODE: Connecting to
 qe_1139763_2927425.sched-torque.pace.gatech.edu4lrdwuaj_scratch
  using UNIX socket
  @ DRIVER MODE: Message from server: STATUS
  @ DRIVER MODE: Message from server: INIT
  @ DRIVER MODE: Receiving replica           0          -1
  @ DRIVER MODE: Receiving encoded integer          25
  @ DRIVER MODE:  SCF:  T  FORCE:  T  STRESS:  F  VC:  F  ENSEMBLE:  F
  @ DRIVER MODE:  SCF:  T  FORCE:  T  STRESS:  F  VC:  F  ENSEMBLE:  F

     Using Slab Decomposition

     bravais-lattice index     =            0
     lattice parameter (alat)  =       1.8897  a.u.
     unit-cell volume          =    6658.9804 (a.u.)^3
     number of atoms/cell      =           57
     number of atomic types    =            5
     number of electrons       =       404.00
     number of Kohn-Sham states=          212
     kinetic-energy cutoff     =      29.3995  Ry
     charge density cutoff     =     293.9946  Ry
     scf convergence threshold =      7.3E-08
     mixing beta               =       0.0500
     number of iterations used =            8  plain     mixing
     Exchange-correlation= BEEF-VDW
                           (   1   4  43  14   2   0   0)

     celldm(1)=   1.889726  celldm(2)=   0.000000  celldm(3)=   0.000000
     celldm(4)=   0.000000  celldm(5)=   0.000000  celldm(6)=   0.000000

     crystal axes: (cart. coord. in units of alat)
               a(1) = (   6.579727   0.000000   0.000000 )
               a(2) = (  -0.000775   5.961596   0.000000 )
               a(3) = (   0.000000   0.000000  25.155947 )

     reciprocal axes: (cart. coord. in units 2 pi/alat)
               b(1) = (  0.151982  0.000020  0.000000 )
               b(2) = (  0.000000  0.167740  0.000000 )
               b(3) = (  0.000000  0.000000  0.039752 )

     PseudoPot. # 1 for Ti read from file:
     /storage/coda1/p-amedford6/0/shared/rich_project_chbe-medford/medford-share/data/pseudos_module/espresso/nninc/pbe/van/Ti.UPF
     MD5 check sum: 8e4df49b7f0d34bbd5052bf3f5ea0213
     Pseudo is Ultrasoft, Zval = 12.0
     Generated by new atomic code, or converted to UPF format
     Using radial grid of  851 points,  6 beta functions with:
                l(1) =   0
                l(2) =   0
                l(3) =   1
                l(4) =   1
                l(5) =   2
                l(6) =   2
     Q(r) pseudized with  8 coefficients,  rinner =    1.000   1.000   1.000
                                                       1.000   1.000

     PseudoPot. # 2 for O  read from file:
     /storage/coda1/p-amedford6/0/shared/rich_project_chbe-medford/medford-share/data/pseudos_module/espresso/nninc/pbe/van/O.UPF
     MD5 check sum: 78c19812648e8988a0fe644b0f25305e
     Pseudo is Ultrasoft, Zval =  6.0
     Generated by new atomic code, or converted to UPF format
     Using radial grid of  737 points,  4 beta functions with:
                l(1) =   0
                l(2) =   0
                l(3) =   1
                l(4) =   1
     Q(r) pseudized with  8 coefficients,  rinner =    0.800   0.800   0.800

     PseudoPot. # 3 for N  read from file:
     /storage/coda1/p-amedford6/0/shared/rich_project_chbe-medford/medford-share/data/pseudos_module/espresso/nninc/pbe/van/N.UPF
     MD5 check sum: 90d10febe142ad51ac9d5be1deb811c4
     Pseudo is Ultrasoft, Zval =  5.0
     Generated by new atomic code, or converted to UPF format
     Using radial grid of  729 points,  4 beta functions with:
                l(1) =   0
                l(2) =   0
                l(3) =   1
                l(4) =   1
     Q(r) pseudized with  8 coefficients,  rinner =    0.800   0.800   0.800

     PseudoPot. # 4 for C  read from file:
     /storage/coda1/p-amedford6/0/shared/rich_project_chbe-medford/medford-share/data/pseudos_module/espresso/nninc/pbe/van/C.UPF
     MD5 check sum: 1a69bf6b8db32088f5b2163dbdb77a27
     Pseudo is Ultrasoft, Zval =  4.0
     Generated by new atomic code, or converted to UPF format
     Using radial grid of  721 points,  4 beta functions with:
                l(1) =   0
                l(2) =   0
                l(3) =   1
                l(4) =   1
     Q(r) pseudized with  8 coefficients,  rinner =    0.800   0.800   0.800

     PseudoPot. # 5 for H  read from file:
     /storage/coda1/p-amedford6/0/shared/rich_project_chbe-medford/medford-share/data/pseudos_module/espresso/nninc/pbe/van/H.UPF
     MD5 check sum: b5ee9d7bfd3a09ee7748110bda690ff7
     Pseudo is Ultrasoft, Zval =  1.0
     Generated by new atomic code, or converted to UPF format
     Using radial grid of  615 points,  1 beta functions with:
                l(1) =   0
     Q(r) pseudized with  8 coefficients,  rinner =    0.800

     atomic species   valence    mass     pseudopotential
        Ti1           12.00    47.86700     Ti( 1.00)
        O1             6.00    15.99900     O ( 1.00)
        N1             5.00    14.00700     N ( 1.00)
        C1             4.00    12.01100     C ( 1.00)
        H1             1.00     1.00800     H ( 1.00)

     No symmetry found

   Cartesian axes

     site n.     atom                  positions (alat units)
         1           Ti1 tau(   1) = (   0.0004258   2.9801865   6.0000000  )
         2           Ti1 tau(   2) = (   3.2906075   1.4906267   6.0002472  )
         3           O1  tau(   3) = (   0.0006271   0.0005054   7.9858123  )
         4           O1  tau(   4) = (   3.2906025   0.0005020   7.3038282  )
         5           O1  tau(   5) = (   4.5942328   1.4918067   9.2879030  )
         6           O1  tau(   6) = (   1.9868534   1.4903216   9.2879459  )
         7           Ti1 tau(   7) = (   3.2907910   2.8959150   9.1758416  )
         8           Ti1 tau(   8) = (   0.0015273   1.4827037   9.2680791  )
         9           O1  tau(   9) = (   3.3066417   5.9496923  11.3845403  )
        10           O1  tau(  10) = (   0.0116148   5.9584955  10.6183126  )
        11           O1  tau(  11) = (   1.3010148   1.4986442  12.6442229  )
        12           O1  tau(  12) = (   5.3085967   1.5001388  12.6592367  )
        13           Ti1 tau(  13) = (   0.0282779   2.9853959  12.5065338  )
        14           Ti1 tau(  14) = (   3.3279724   1.4707331  12.5413945  )
        15           O1  tau(  15) = (   0.0378505   0.0859181  14.6860672  )
        16           O1  tau(  16) = (   3.3018867   0.0259462  14.0338077  )
        17           O1  tau(  17) = (   4.5998927   1.5484098  16.1661054  )
        18           O1  tau(  18) = (   2.0454451   1.5021798  16.2221046  )
        19           Ti1 tau(  19) = (   3.3206312   2.9825829  15.7321521  )
        20           Ti1 tau(  20) = (   0.0140791   1.4435866  15.9983415  )
        21           O1  tau(  21) = (   3.2904802   0.0005063   4.7018136  )
        22           O1  tau(  22) = (   6.5273045   5.8164216  17.2577718  )
        23           O1  tau(  23) = (   1.3043587   1.4918075   6.0039043  )
        24           O1  tau(  24) = (   5.2767064   1.4903225   6.0039473  )
        25           Ti1 tau(  25) = (   0.0000382   5.9609847   6.0000000  )
        26           Ti1 tau(  26) = (   3.2902200   4.4714249   6.0002472  )
        27           O1  tau(  27) = (   0.0002396   2.9813036   7.9858123  )
        28           O1  tau(  28) = (   3.2902150   2.9813002   7.3038282  )
        29           O1  tau(  29) = (   4.5938453   4.4726049   9.2879030  )
        30           O1  tau(  30) = (   1.9864658   4.4711199   9.2879459  )
        31           Ti1 tau(  31) = (   3.2891106   5.8743827   9.1763621  )
        32           Ti1 tau(  32) = (   0.0006254   4.4649316   9.2693709  )
        33           O1  tau(  33) = (   3.3068470   2.9864458  11.3814114  )
        34           O1  tau(  34) = (   0.0092240   2.9805883  10.6323155  )
        35           O1  tau(  35) = (   1.2982948   4.4740332  12.6840172  )
        36           O1  tau(  36) = (   5.3097620   4.4704985  12.6972095  )
        37           Ti1 tau(  37) = (   0.0348817   0.0130325  12.4954113  )
        38           Ti1 tau(  38) = (   3.3270268   4.4633798  12.5435021  )
        39           O1  tau(  39) = (   0.0563025   2.9439880  14.9425960  )
        40           O1  tau(  40) = (   3.2900316   2.9661073  13.9503945  )
        41           O1  tau(  41) = (   4.5967999   4.4093095  16.0633277  )
        42           O1  tau(  42) = (   2.0412097   4.4536800  16.1303113  )
        43           Ti1 tau(  43) = (   3.2964201   5.9600488  15.8742613  )
        44           Ti1 tau(  44) = (   0.0241369   4.6516137  15.8518307  )
        45           O1  tau(  45) = (   3.2900926   2.9813045   4.7018136  )
        46           O1  tau(  46) = (   1.3039711   4.4726057   6.0039043  )
        47           O1  tau(  47) = (   5.2763189   4.4711207   6.0039473  )
        48           N1  tau(  48) = (   1.4509408   2.7109095  18.7602185  )
        49           N1  tau(  49) = (   0.0917387   2.5303350  18.2207845  )
        50           C1  tau(  50) = (   1.9503960   3.7723240  19.2784661  )
        51           H1  tau(  51) = (   1.1612915   4.5273475  19.4152495  )
        52           H1  tau(  52) = (   2.0208952   1.9183395  18.4664618  )
        53           H1  tau(  53) = (   6.1377449   3.3639424  18.4987646  )
        54           H1  tau(  54) = (   6.2616785   1.7135167  18.6767212  )
        55           O1  tau(  55) = (   3.7012217   5.9496235  18.2853534  )
        56           H1  tau(  56) = (   4.6684668   5.8470116  18.1670174  )
        57           H1  tau(  57) = (   3.3852657   5.1278045  18.7338684  )

     number of k points=    10  Fermi-Dirac smearing, width (Ry)=  0.0073
                       cart. coord. in units 2pi/alat
        k(    1) = (   0.0000000   0.0000000   0.0000000), wk =   0.1250000
        k(    2) = (   0.0000000   0.0419351   0.0000000), wk =   0.2500000
        k(    3) = (   0.0000000  -0.0838702   0.0000000), wk =   0.1250000
        k(    4) = (   0.0379955   0.0000049   0.0000000), wk =   0.2500000
        k(    5) = (   0.0379955   0.0419400   0.0000000), wk =   0.2500000
        k(    6) = (   0.0379955  -0.0838652   0.0000000), wk =   0.2500000
        k(    7) = (   0.0379955  -0.0419301   0.0000000), wk =   0.2500000
        k(    8) = (  -0.0759910  -0.0000099   0.0000000), wk =   0.1250000
        k(    9) = (  -0.0759910   0.0419252   0.0000000), wk =   0.2500000
        k(   10) = (  -0.0759910  -0.0838800   0.0000000), wk =   0.1250000

     Initial potential from superposition of free atoms

     starting charge  387.99913, renormalised to  404.00000

     negative rho (up, down):  1.598E-02 0.000E+00

     %%%%%%%%%%%%%%%%%%%%%%%%%%%%%%%%%%%%%%%%%%%%%%%%%%%%%%%%%%%%%%%%%%%%%%%%
     %                                                                      %
     % You are using vdW-DF, which was implemented by the Thonhauser group. %
     % Please cite the following two papers that made this development      %
     % possible and the two reviews that describe the various versions:     %
     %                                                                      %
     %   T. Thonhauser et al., PRL 115, 136402 (2015).                      %
     %   T. Thonhauser et al., PRB 76, 125112 (2007).                       %
     %   K. Berland et al., Rep. Prog. Phys. 78, 066501 (2015).             %
     %   D.C. Langreth et al., J. Phys.: Condens. Matter 21, 084203 (2009). %
     %                                                                      %
     %                                                                      %
     % If you are calculating the stress with vdW-DF, please also cite:     %
     %                                                                      %
     %   R. Sabatini et al., J. Phys.: Condens. Matter 24, 424209 (2012).   %
     %                                                                      %
     %%%%%%%%%%%%%%%%%%%%%%%%%%%%%%%%%%%%%%%%%%%%%%%%%%%%%%%%%%%%%%%%%%%%%%%%

     Adding external electric field

     Computed dipole along edir(3) :
        Dipole              -14.3585 Ry au,        -36.4957 Debye
        Dipole field         -0.0271 Ry au,

        Potential amp.        2.5118 Ry
        Total length         46.3494 bohr

     Starting wfcs are  306 atomic wfcs
  @ DRIVER MODE: Message from server: STATUS
  @ DRIVER MODE: Message from server: POSDATA
  @ DRIVER MODE: Reading and sharing cell
  @ DRIVER MODE: Reading and sharing positions
  @ DRIVER MODE: Received positions

     Self-consistent Calculation

     iteration #  1     ecut=    29.40 Ry     beta= 0.05
     Davidson diagonalization with overlap
     c_bands:  3 eigenvalues not converged
     c_bands:  4 eigenvalues not converged
     c_bands:  4 eigenvalues not converged
     c_bands:  4 eigenvalues not converged
     c_bands:  5 eigenvalues not converged
     c_bands:  3 eigenvalues not converged
     c_bands:  2 eigenvalues not converged
     c_bands:  4 eigenvalues not converged
     ethr =  1.00E-05,  avg # of iterations = 21.9

[...]

     total energy              =   -2220.96265095 Ry
     estimated scf accuracy    <    8587.35604426 Ry

     iteration #  2     ecut=    29.40 Ry     beta= 0.05
     Davidson diagonalization with overlap
     ethr =  1.00E-02,  avg # of iterations = 30.9

[...]

     iteration # 65     ecut=    29.40 Ry     beta= 0.05
     Davidson diagonalization with overlap
     c_bands:  1 eigenvalues not converged
     ethr =  8.79E-11,  avg # of iterations = 13.9

[...]

     total energy              =   -2975.10518732 Ry
     estimated scf accuracy    <       0.00000011 Ry

     iteration # 70     ecut=    29.40 Ry     beta= 0.05
     Davidson diagonalization with overlap
     ethr =  2.69E-11,  avg # of iterations =  8.4

     negative rho (up, down):  1.579E-02 0.000E+00

     Adding external electric field

     Computed dipole along edir(3) :
        Dipole                1.0227 Ry au,          2.5994 Debye
        Dipole field          0.0019 Ry au,

        Potential amp.       -0.1789 Ry
        Total length         46.3494 bohr

     End of self-consistent calculation

          k = 0.0000 0.0000 0.0000 ( 18029 PWs)   bands (ev):

   -55.3858 -55.3500 -55.3459 -55.3117 -55.3087 -55.3030 -55.2678 -55.2325
   -55.2174 -55.1825 -55.1757 -55.1605 -55.1420 -55.1132 -54.3771 -54.3430
   -31.9448 -31.8809 -31.8385 -31.7575 -31.7087 -31.7059 -31.6816 -31.6788
   -31.6347 -31.5989 -31.5919 -31.5905 -31.5835 -31.5800 -31.5620 -31.5598
   -31.5352 -31.5271 -31.5242 -31.5128 -31.4985 -31.4920 -31.4733 -31.4686
   -31.4598 -31.4470 -31.4464 -31.4175 -31.4031 -31.3995 -31.3963 -31.3741
   -31.3704 -31.3662 -31.3626 -31.3416 -31.3304 -31.3185 -31.3037 -31.3034
   -31.2935 -31.2867 -30.7865 -30.6920 -30.6700 -30.6029 -30.5161 -30.4052
   -18.8710 -18.4559 -16.2207 -15.9733 -15.8373 -15.7328 -15.5954 -15.4973
   -15.3881 -15.2749 -15.2517 -15.1580 -15.0837 -15.0797 -15.0425 -15.0170
   -14.9542 -14.9329 -14.9091 -14.9032 -14.8886 -14.8784 -14.8418 -14.8309
   -14.7948 -14.7870 -14.7697 -14.6339 -14.6232 -14.5524 -14.4818 -14.3435
   -12.8796 -12.7621  -9.8252  -6.9986  -6.3769  -6.0596  -4.4278  -3.7259
    -3.5441  -3.4109  -3.3324  -3.3030  -3.2861  -3.1546  -3.0614  -2.9026
    -2.8638  -2.8074  -2.6742  -2.5984  -2.5920  -2.5041  -2.4316  -2.4082
    -2.3752  -2.2661  -2.2597  -2.2100  -2.1926  -2.1695  -2.1602  -2.1136
    -2.0678  -2.0405  -1.9553  -1.8539  -1.8101  -1.7904  -1.7539  -1.7312
    -1.7266  -1.6829  -1.6766  -1.6530  -1.6142  -1.5898  -1.5444  -1.4324
    -1.3909  -1.2322  -1.1948  -1.0405  -1.0202  -0.9808  -0.9605  -0.9213
    -0.8940  -0.8776  -0.8612  -0.7727  -0.7144  -0.6483  -0.5842  -0.4934
    -0.4828  -0.4088  -0.3831  -0.3181  -0.2305  -0.1859  -0.1764  -0.1515
    -0.1481  -0.0344   0.0105   0.0706   0.0893   0.1467   0.1625   0.1847
     0.2548   0.3083   0.3778   0.4085   0.4877   0.5058   0.5409   0.5501
     0.5824   0.5929   0.6691   0.6839   0.7121   0.8148   0.9123   1.0052
     1.2157   1.2179   1.2534   1.5504   1.5526   1.6459   1.8292   2.2221
     2.2705   3.7040   3.7824   3.8320   3.8497   3.8541   3.9390   4.1936
     4.2079   4.2205   4.2267   4.2676

[...]

          k = 0.0380-0.0419 0.0000 ( 17876 PWs)   bands (ev):

[...]

          k =-0.0760-0.0000 0.0000 ( 17886 PWs)   bands (ev):

[...]

          k =-0.0760-0.0839 0.0000 ( 17948 PWs)   bands (ev):

   -55.3689 -55.3666 -55.3288 -55.3286 -55.3058 -55.3021 -55.2541 -55.2462
   -55.2031 -55.1963 -55.1623 -55.1597 -55.1580 -55.1149 -54.3600 -54.3600
   -31.7955 -31.7572 -31.7431 -31.6537 -31.6535 -31.6392 -31.6272 -31.6200
   -31.6198 -31.5991 -31.5941 -31.5909 -31.5679 -31.5602 -31.5483 -31.5344
   -31.5313 -31.5285 -31.5246 -31.5166 -31.5120 -31.5099 -31.5089 -31.5012
   -31.4692 -31.4677 -31.4486 -31.4484 -31.4482 -31.4432 -31.4405 -31.4360
   -31.4265 -31.4152 -31.4094 -31.3926 -31.3909 -31.3814 -31.3396 -31.3386
   -31.3381 -31.3195 -30.6826 -30.6826 -30.5991 -30.5989 -30.5595 -30.5595
   -18.8650 -18.4584 -15.8403 -15.6535 -15.5021 -15.4303 -15.4100 -15.3267
   -15.2715 -15.2681 -15.1947 -15.1771 -15.1646 -15.1431 -15.1333 -15.0860
   -15.0489 -15.0123 -14.9936 -14.9709 -14.9278 -14.9050 -14.9034 -14.8966
   -14.8889 -14.8486 -14.8434 -14.8401 -14.7483 -14.7464 -14.6950 -14.5503
   -12.8636 -12.8635  -9.8346  -6.9871  -6.3522  -6.0353  -4.4412  -3.6520
    -3.0235  -2.9116  -2.9011  -2.6721  -2.6538  -2.5927  -2.5802  -2.4922
    -2.4766  -2.4159  -2.3924  -2.3423  -2.3193  -2.2814  -2.2677  -2.2459
    -2.2248  -2.2111  -2.1846  -2.1684  -2.1516  -2.1318  -2.1208  -2.1094
    -2.0541  -2.0488  -2.0397  -2.0143  -1.9913  -1.9552  -1.9453  -1.9289
    -1.7735  -1.7577  -1.7364  -1.6009  -1.5965  -1.5622  -1.5224  -1.4948
    -1.4369  -1.4283  -1.4001  -1.3415  -1.1471  -1.1369  -1.1249  -1.1073
    -1.0366  -0.9803  -0.9666  -0.9486  -0.8950  -0.8169  -0.7825  -0.7303
    -0.6406  -0.5896  -0.5799  -0.5542  -0.4329  -0.4100  -0.3675  -0.3495
    -0.3332  -0.2989  -0.2973  -0.2397  -0.1872  -0.1517  -0.1288  -0.1145
    -0.0776   0.0774   0.1291   0.1456   0.2596   0.2892   0.4672   0.5100
     0.5317   0.6368   0.7202   0.7481   0.7626   0.8880   0.9102   0.9126
     0.9809   1.0031   1.0633   1.0690   1.2103   2.0019   2.0032   2.0904
     2.0906   3.8292   3.9519   3.9962   4.0320   4.1078   4.1607   4.2178
     4.2769   4.2885   4.2920   4.3587

     the Fermi energy is     3.7661 ev

!    total energy              =   -2975.10520844 Ry
     estimated scf accuracy    <       0.00000003 Ry
     smearing contrib. (-TS)   =      -0.03672093 Ry
     internal energy E=F+TS    =   -2975.06848751 Ry

     The total energy is F=E-TS. E is the sum of the following terms:
     one-electron contribution =  -23505.37304862 Ry
     hartree contribution      =   11848.70669977 Ry
     xc contribution           =    -494.91172618 Ry
     ewald contribution        =    9176.50761382 Ry
     electric field correction =       0.00197370 Ry

     convergence has been achieved in  70 iterations

     Forces acting on atoms (cartesian axes, Ry/au):

     atom    1 type  1   force =     0.00002931   -0.00025096    0.09309215
     atom    2 type  1   force =    -0.00018411   -0.00032112   -0.17838180
     atom    3 type  2   force =     0.00006067   -0.00017231   -0.02025971
     atom    4 type  2   force =     0.00001646   -0.00203656    0.05924587
     atom    5 type  2   force =    -0.01033795   -0.00110156    0.00808652
     atom    6 type  2   force =     0.01218155   -0.00054646    0.00816444
     atom    7 type  1   force =     0.00015086    0.00329379   -0.01111389
     atom    8 type  1   force =    -0.00030389    0.00052092   -0.00561419
     atom    9 type  2   force =     0.00004055    0.00017827   -0.00015137
     atom   10 type  2   force =    -0.00146519   -0.00003624   -0.00171354
     atom   11 type  2   force =     0.00038342   -0.00003747   -0.00006242
     atom   12 type  2   force =    -0.00010217    0.00010333   -0.00009204
     atom   13 type  1   force =    -0.00009236   -0.00017182   -0.00024307
     atom   14 type  1   force =    -0.00021306   -0.00036074    0.00034780
     atom   15 type  2   force =     0.00007108   -0.00051441    0.00008539
     atom   16 type  2   force =     0.00022005    0.00008905    0.00024930
     atom   17 type  2   force =     0.00035188   -0.00018170    0.00016276
     atom   18 type  2   force =    -0.00004222   -0.00015149   -0.00015098
     atom   19 type  1   force =    -0.00028175   -0.00047359    0.00005724
     atom   20 type  1   force =     0.00013003    0.00037159    0.00056771
     atom   21 type  2   force =    -0.00000277   -0.00007477    0.10402550
     atom   22 type  2   force =    -0.00012312   -0.00002189    0.00001574
     atom   23 type  2   force =    -0.07034800   -0.00016046   -0.02684784
     atom   24 type  2   force =     0.07021644    0.00028536   -0.02692430
     atom   25 type  1   force =     0.00002245   -0.00015601    0.09275234
     atom   26 type  1   force =    -0.00015673   -0.00040063   -0.17832462
     atom   27 type  2   force =     0.00011119   -0.00030857   -0.01919762
     atom   28 type  2   force =     0.00004682   -0.00163357    0.05839675
     atom   29 type  2   force =    -0.01029289   -0.00064051    0.00729382
     atom   30 type  2   force =     0.01202630   -0.00030822    0.00742736
     atom   31 type  1   force =     0.00007696    0.00515475   -0.01466080
     atom   32 type  1   force =    -0.00013983   -0.00050270   -0.00595957
     atom   33 type  2   force =     0.00012829   -0.00039323   -0.00023616
     atom   34 type  2   force =    -0.00078850    0.00260650   -0.00104188
     atom   35 type  2   force =    -0.00006690   -0.00011370   -0.00012579
     atom   36 type  2   force =     0.00023240    0.00000333   -0.00015200
     atom   37 type  1   force =    -0.00044086    0.00008036    0.00001678
     atom   38 type  1   force =    -0.00002795   -0.00024441   -0.00024109
     atom   39 type  2   force =    -0.00030652   -0.00019435   -0.00015332
     atom   40 type  2   force =    -0.00013411   -0.00005716   -0.00004801
     atom   41 type  2   force =    -0.00013203   -0.00014273    0.00037379
     atom   42 type  2   force =    -0.00007149   -0.00024620    0.00013338
     atom   43 type  1   force =    -0.00000082   -0.00028502    0.00013744
     atom   44 type  1   force =     0.00002258   -0.00006993    0.00007930
     atom   45 type  2   force =     0.00001019   -0.00010950    0.10399863
     atom   46 type  2   force =    -0.07037108   -0.00011862   -0.02686968
     atom   47 type  2   force =     0.07021593    0.00031619   -0.02693009
     atom   48 type  3   force =     0.00022160    0.00069857    0.00033852
     atom   49 type  3   force =    -0.00589033    0.00976548    0.00275771
     atom   50 type  4   force =     0.00048209    0.00103957    0.00057469
     atom   51 type  5   force =    -0.00004513   -0.00063866   -0.00040295
     atom   52 type  5   force =     0.00003426   -0.00103043   -0.00023864
     atom   53 type  5   force =     0.00541829   -0.01096436   -0.00295908
     atom   54 type  5   force =    -0.00043897    0.00127370    0.00042611
     atom   55 type  2   force =     0.00014328   -0.00012940    0.00056825
     atom   56 type  5   force =     0.00020914   -0.00033075   -0.00041833
     atom   57 type  5   force =    -0.00045335   -0.00014860    0.00013952

     Total force =     0.366605     Total SCF correction =     0.000429
  @ DRIVER MODE: Message from server: STATUS
  @ DRIVER MODE: Message from server: GETFORCE
  @ DRIVER MODE: Returning v,forces,stress,ensemble

     Writing output data file ./calc.save/
  @ DRIVER MODE: Message from server: EXIT
  @ DRIVE MODE: Exiting

     General routines

     Parallel routines

   This run was terminated on:  10:33:34  22Sep2021

   JOB DONE.