     Program PWSCF v.6.7GPU starts on 27Sep2021 at  9:38:34

     R & G space division:  proc/nbgrp/npool/nimage =       8
     Reading input from /storage/home/hcoda1/3/ntian30/research/carbon/CxH_vib/H2O_calc/ads_slab/CH2NHNHHO_b/out_0053/pw.inp
Warning: card &CELL ignored
Warning: card   CELL_DYNAMICS='IPI', ignored
Warning: card / ignored

     Current dimensions of program PWSCF are:
     Max number of different atomic species (ntypx) = 10
     Max number of k-points (npk) =  40000
     Max angular momentum in pseudopotentials (lmaxx) =  3
     Presently no symmetry can be used with electric field

     Message from routine cell_base_init:
     DEPRECATED: use true lattice parameter, not A to a.u. conversion factor

     IMPORTANT: XC functional enforced from input :
     Exchange-correlation= BEEF-VDW
                           (   1   4  43  14   2   0   0)
     Any further DFT definition will be discarded
     Please, verify this is what you really want

  @ DRIVER MODE: Connecting to
 qe_1139763_2971671.sched-torque.pace.gatech.edu9l2_s53u_scratch
  using UNIX socket
  @ DRIVER MODE: Message from server: STATUS
  @ DRIVER MODE: Message from server: INIT
  @ DRIVER MODE: Receiving replica           0          -1
  @ DRIVER MODE: Receiving encoded integer          25
  @ DRIVER MODE:  SCF:  T  FORCE:  T  STRESS:  F  VC:  F  ENSEMBLE:  F
  @ DRIVER MODE:  SCF:  T  FORCE:  T  STRESS:  F  VC:  F  ENSEMBLE:  F

     Using Slab Decomposition

     bravais-lattice index     =            0
     lattice parameter (alat)  =       1.8897  a.u.
     unit-cell volume          =    6658.9804 (a.u.)^3
     number of atoms/cell      =           56
     number of atomic types    =            5
     number of electrons       =       403.00
     number of Kohn-Sham states=          211
     kinetic-energy cutoff     =      29.3995  Ry
     charge density cutoff     =     293.9946  Ry
     scf convergence threshold =      7.3E-08
     mixing beta               =       0.0500
     number of iterations used =            8  plain     mixing
     Exchange-correlation= BEEF-VDW
                           (   1   4  43  14   2   0   0)

     celldm(1)=   1.889726  celldm(2)=   0.000000  celldm(3)=   0.000000
     celldm(4)=   0.000000  celldm(5)=   0.000000  celldm(6)=   0.000000

     crystal axes: (cart. coord. in units of alat)
               a(1) = (   6.579727   0.000000   0.000000 )
               a(2) = (  -0.000775   5.961596   0.000000 )
               a(3) = (   0.000000   0.000000  25.155947 )

     reciprocal axes: (cart. coord. in units 2 pi/alat)
               b(1) = (  0.151982  0.000020  0.000000 )
               b(2) = (  0.000000  0.167740  0.000000 )
               b(3) = (  0.000000  0.000000  0.039752 )

     PseudoPot. # 1 for Ti read from file:
     /storage/coda1/p-amedford6/0/shared/rich_project_chbe-medford/medford-share/data/pseudos_module/espresso/nninc/pbe/van/Ti.UPF
     MD5 check sum: 8e4df49b7f0d34bbd5052bf3f5ea0213
     Pseudo is Ultrasoft, Zval = 12.0
     Generated by new atomic code, or converted to UPF format
     Using radial grid of  851 points,  6 beta functions with:
                l(1) =   0
                l(2) =   0
                l(3) =   1
                l(4) =   1
                l(5) =   2
                l(6) =   2
     Q(r) pseudized with  8 coefficients,  rinner =    1.000   1.000   1.000
                                                       1.000   1.000

     PseudoPot. # 2 for O  read from file:
     /storage/coda1/p-amedford6/0/shared/rich_project_chbe-medford/medford-share/data/pseudos_module/espresso/nninc/pbe/van/O.UPF
     MD5 check sum: 78c19812648e8988a0fe644b0f25305e
     Pseudo is Ultrasoft, Zval =  6.0
     Generated by new atomic code, or converted to UPF format
     Using radial grid of  737 points,  4 beta functions with:
                l(1) =   0
                l(2) =   0
                l(3) =   1
                l(4) =   1
     Q(r) pseudized with  8 coefficients,  rinner =    0.800   0.800   0.800

     PseudoPot. # 3 for N  read from file:
     /storage/coda1/p-amedford6/0/shared/rich_project_chbe-medford/medford-share/data/pseudos_module/espresso/nninc/pbe/van/N.UPF
     MD5 check sum: 90d10febe142ad51ac9d5be1deb811c4
     Pseudo is Ultrasoft, Zval =  5.0
     Generated by new atomic code, or converted to UPF format
     Using radial grid of  729 points,  4 beta functions with:
                l(1) =   0
                l(2) =   0
                l(3) =   1
                l(4) =   1
     Q(r) pseudized with  8 coefficients,  rinner =    0.800   0.800   0.800

     PseudoPot. # 4 for C  read from file:
     /storage/coda1/p-amedford6/0/shared/rich_project_chbe-medford/medford-share/data/pseudos_module/espresso/nninc/pbe/van/C.UPF
     MD5 check sum: 1a69bf6b8db32088f5b2163dbdb77a27
     Pseudo is Ultrasoft, Zval =  4.0
     Generated by new atomic code, or converted to UPF format
     Using radial grid of  721 points,  4 beta functions with:
                l(1) =   0
                l(2) =   0
                l(3) =   1
                l(4) =   1
     Q(r) pseudized with  8 coefficients,  rinner =    0.800   0.800   0.800

     PseudoPot. # 5 for H  read from file:
     /storage/coda1/p-amedford6/0/shared/rich_project_chbe-medford/medford-share/data/pseudos_module/espresso/nninc/pbe/van/H.UPF
     MD5 check sum: b5ee9d7bfd3a09ee7748110bda690ff7
     Pseudo is Ultrasoft, Zval =  1.0
     Generated by new atomic code, or converted to UPF format
     Using radial grid of  615 points,  1 beta functions with:
                l(1) =   0
     Q(r) pseudized with  8 coefficients,  rinner =    0.800

     atomic species   valence    mass     pseudopotential
        Ti1           12.00    47.86700     Ti( 1.00)
        O1             6.00    15.99900     O ( 1.00)
        N1             5.00    14.00700     N ( 1.00)
        C1             4.00    12.01100     C ( 1.00)
        H1             1.00     1.00800     H ( 1.00)

     No symmetry found

   Cartesian axes

     site n.     atom                  positions (alat units)
         1           Ti1 tau(   1) = (   0.0004258   2.9801865   6.0000000  )
         2           Ti1 tau(   2) = (   3.2906075   1.4906267   6.0002472  )
         3           O1  tau(   3) = (   0.0006271   0.0005054   7.9858123  )
         4           O1  tau(   4) = (   3.2906025   0.0005020   7.3038282  )
         5           O1  tau(   5) = (   4.5942328   1.4918067   9.2879030  )
         6           O1  tau(   6) = (   1.9868534   1.4903216   9.2879459  )
         7           Ti1 tau(   7) = (   3.2907910   2.8959150   9.1758416  )
         8           Ti1 tau(   8) = (   0.0015273   1.4827037   9.2680791  )
         9           O1  tau(   9) = (   3.2987294   5.9443783  11.3578989  )
        10           O1  tau(  10) = (   0.0116148   5.9584955  10.6183126  )
        11           O1  tau(  11) = (   1.2795512   1.4821507  12.6386044  )
        12           O1  tau(  12) = (   5.2980455   1.5005163  12.6536529  )
        13           Ti1 tau(  13) = (   6.5652885   2.9238251  12.5528928  )
        14           Ti1 tau(  14) = (   3.2988635   1.2998061  12.7048432  )
        15           O1  tau(  15) = (   0.0127057   0.0339484  14.6761273  )
        16           O1  tau(  16) = (   3.2875936   0.0940603  14.0290633  )
        17           O1  tau(  17) = (   4.5650748   1.6033894  16.0357995  )
        18           O1  tau(  18) = (   2.0190796   1.5896112  16.2175902  )
        19           Ti1 tau(  19) = (   3.3013862   3.0422678  15.6649453  )
        20           Ti1 tau(  20) = (   6.4815444   1.5191555  15.8288377  )
        21           O1  tau(  21) = (   3.2904802   0.0005063   4.7018136  )
        22           O1  tau(  22) = (   6.5172723   5.9480513  17.2191950  )
        23           O1  tau(  23) = (   1.3043587   1.4918075   6.0039043  )
        24           O1  tau(  24) = (   5.2767064   1.4903225   6.0039473  )
        25           Ti1 tau(  25) = (   0.0000382   5.9609847   6.0000000  )
        26           Ti1 tau(  26) = (   3.2902200   4.4714249   6.0002472  )
        27           O1  tau(  27) = (   0.0002396   2.9813036   7.9858123  )
        28           O1  tau(  28) = (   3.2902150   2.9813002   7.3038282  )
        29           O1  tau(  29) = (   4.5938453   4.4726049   9.2879030  )
        30           O1  tau(  30) = (   1.9864658   4.4711199   9.2879459  )
        31           Ti1 tau(  31) = (   3.2891106   5.8743827   9.1763621  )
        32           Ti1 tau(  32) = (   0.0006254   4.4649316   9.2693709  )
        33           O1  tau(  33) = (   3.2945946   2.9940555  11.3077331  )
        34           O1  tau(  34) = (   0.0092240   2.9805883  10.6323155  )
        35           O1  tau(  35) = (   1.2876619   4.4781899  12.6403949  )
        36           O1  tau(  36) = (   5.3010724   4.4646845  12.6541769  )
        37           Ti1 tau(  37) = (   0.0424196   5.9023569  12.5123361  )
        38           Ti1 tau(  38) = (   3.3119368   4.3729351  12.4217702  )
        39           O1  tau(  39) = (   0.0401333   2.9740317  14.7512036  )
        40           O1  tau(  40) = (   3.2576645   3.0028392  13.8982547  )
        41           O1  tau(  41) = (   4.5666544   4.4234537  16.0705803  )
        42           O1  tau(  42) = (   2.0215446   4.4756893  16.1430302  )
        43           Ti1 tau(  43) = (   3.2259990   0.0392177  16.2341362  )
        44           Ti1 tau(  44) = (   6.5723990   4.6710500  15.9980081  )
        45           O1  tau(  45) = (   3.2900926   2.9813045   4.7018136  )
        46           O1  tau(  46) = (   1.3039711   4.4726057   6.0039043  )
        47           O1  tau(  47) = (   5.2763189   4.4711207   6.0039473  )
        48           N1  tau(  48) = (   0.9334729   2.5913682  18.4753943  )
        49           N1  tau(  49) = (   6.5156687   2.9055835  17.6419879  )
        50           C1  tau(  50) = (   1.0224037   2.6952286  19.7617917  )
        51           H1  tau(  51) = (   1.9166829   2.3177709  20.2270220  )
        52           H1  tau(  52) = (   0.2162702   3.1370440  20.3260263  )
        53           H1  tau(  53) = (   1.6995924   2.1399843  17.9426691  )
        54           H1  tau(  54) = (   5.6785098   3.1284051  18.1783837  )
        55           O1  tau(  55) = (   3.5318048   0.0910060  18.0897867  )
        56           H1  tau(  56) = (   4.4897960   0.0680733  18.2555997  )

     number of k points=    10  Fermi-Dirac smearing, width (Ry)=  0.0073
                       cart. coord. in units 2pi/alat
        k(    1) = (   0.0000000   0.0000000   0.0000000), wk =   0.1250000
        k(    2) = (   0.0000000   0.0419351   0.0000000), wk =   0.2500000
        k(    3) = (   0.0000000  -0.0838702   0.0000000), wk =   0.1250000
        k(    4) = (   0.0379955   0.0000049   0.0000000), wk =   0.2500000
        k(    5) = (   0.0379955   0.0419400   0.0000000), wk =   0.2500000
        k(    6) = (   0.0379955  -0.0838652   0.0000000), wk =   0.2500000
        k(    7) = (   0.0379955  -0.0419301   0.0000000), wk =   0.2500000
        k(    8) = (  -0.0759910  -0.0000099   0.0000000), wk =   0.1250000
        k(    9) = (  -0.0759910   0.0419252   0.0000000), wk =   0.2500000
        k(   10) = (  -0.0759910  -0.0838800   0.0000000), wk =   0.1250000

     Initial potential from superposition of free atoms

     starting charge  386.99914, renormalised to  403.00000

     negative rho (up, down):  1.427E-02 0.000E+00

     %%%%%%%%%%%%%%%%%%%%%%%%%%%%%%%%%%%%%%%%%%%%%%%%%%%%%%%%%%%%%%%%%%%%%%%%
     %                                                                      %
     % You are using vdW-DF, which was implemented by the Thonhauser group. %
     % Please cite the following two papers that made this development      %
     % possible and the two reviews that describe the various versions:     %
     %                                                                      %
     %   T. Thonhauser et al., PRL 115, 136402 (2015).                      %
     %   T. Thonhauser et al., PRB 76, 125112 (2007).                       %
     %   K. Berland et al., Rep. Prog. Phys. 78, 066501 (2015).             %
     %   D.C. Langreth et al., J. Phys.: Condens. Matter 21, 084203 (2009). %
     %                                                                      %
     %                                                                      %
     % If you are calculating the stress with vdW-DF, please also cite:     %
     %                                                                      %
     %   R. Sabatini et al., J. Phys.: Condens. Matter 24, 424209 (2012).   %
     %                                                                      %
     %%%%%%%%%%%%%%%%%%%%%%%%%%%%%%%%%%%%%%%%%%%%%%%%%%%%%%%%%%%%%%%%%%%%%%%%

     Adding external electric field

     Computed dipole along edir(3) :
        Dipole              -12.9675 Ry au,        -32.9601 Debye
        Dipole field         -0.0245 Ry au,

        Potential amp.        2.2685 Ry
        Total length         46.3494 bohr

     Starting wfcs are  305 atomic wfcs
  @ DRIVER MODE: Message from server: STATUS
  @ DRIVER MODE: Message from server: POSDATA
  @ DRIVER MODE: Reading and sharing cell
  @ DRIVER MODE: Reading and sharing positions
  @ DRIVER MODE: Received positions

     Self-consistent Calculation

     iteration #  1     ecut=    29.40 Ry     beta= 0.05
     Davidson diagonalization with overlap
     c_bands:  4 eigenvalues not converged
     c_bands:  4 eigenvalues not converged
     c_bands:  3 eigenvalues not converged
     c_bands:  1 eigenvalues not converged
     c_bands:  2 eigenvalues not converged
     c_bands:  2 eigenvalues not converged
     c_bands:  3 eigenvalues not converged
     c_bands:  2 eigenvalues not converged
     ethr =  1.00E-05,  avg # of iterations = 27.8

[...]

     total energy              =   -2352.67995642 Ry
     estimated scf accuracy    <    7059.58038686 Ry

     iteration #  2     ecut=    29.40 Ry     beta= 0.05
     Davidson diagonalization with overlap
     ethr =  1.00E-02,  avg # of iterations = 22.4

[...]

     iteration # 47     ecut=    29.40 Ry     beta= 0.05
     Davidson diagonalization with overlap
     c_bands:  1 eigenvalues not converged
     ethr =  1.03E-08,  avg # of iterations = 11.4

[...]

     total energy              =   -2973.99838443 Ry
     estimated scf accuracy    <       0.00000018 Ry

     iteration # 59     ecut=    29.40 Ry     beta= 0.05
     Davidson diagonalization with overlap
     ethr =  3.62E-11,  avg # of iterations =  8.3

     negative rho (up, down):  1.506E-02 0.000E+00

     Adding external electric field

     Computed dipole along edir(3) :
        Dipole                1.3468 Ry au,          3.4231 Debye
        Dipole field          0.0025 Ry au,

        Potential amp.       -0.2356 Ry
        Total length         46.3494 bohr

     End of self-consistent calculation

          k = 0.0000 0.0000 0.0000 ( 18029 PWs)   bands (ev):

   -55.4237 -55.3287 -55.2946 -55.1498 -55.1462 -55.1350 -55.1141 -55.1122
   -55.0853 -55.0574 -55.0352 -54.9583 -54.9566 -54.9114 -54.2921 -54.2581
   -31.8117 -31.7460 -31.6807 -31.6496 -31.6384 -31.6276 -31.6204 -31.5995
   -31.5737 -31.5729 -31.5685 -31.4839 -31.4810 -31.4338 -31.4201 -31.4060
   -31.3998 -31.3861 -31.3632 -31.3486 -31.3402 -31.3396 -31.3306 -31.3163
   -31.3046 -31.2923 -31.2805 -31.2769 -31.2756 -31.2642 -31.2608 -31.2506
   -31.2347 -31.2307 -31.2285 -31.1911 -31.1808 -31.1517 -31.1399 -31.1304
   -31.1174 -31.1130 -30.6976 -30.6125 -30.5900 -30.5152 -30.4289 -30.3171
   -19.6151 -16.1918 -15.9510 -15.7990 -15.6166 -15.4925 -15.4346 -15.2213
   -15.1538 -15.0826 -15.0023 -14.9381 -14.8595 -14.8456 -14.8203 -14.8047
   -14.7805 -14.7424 -14.7409 -14.7364 -14.6939 -14.6880 -14.6568 -14.6071
   -14.6017 -14.5796 -14.4575 -14.3839 -14.3378 -14.2036 -14.0847 -13.9503
   -12.7906 -12.6745 -10.1663  -7.0154  -6.6892  -4.2772  -4.0193  -3.6401
    -3.3311  -3.2544  -3.2236  -3.1827  -3.0587  -2.8777  -2.7600  -2.6868
    -2.5835  -2.4593  -2.4422  -2.3415  -2.3165  -2.2490  -2.2133  -2.1736
    -2.1532  -2.1299  -2.1065  -2.1028  -1.9910  -1.9867  -1.8614  -1.8435
    -1.7957  -1.7357  -1.6879  -1.6408  -1.6292  -1.6106  -1.5950  -1.5865
    -1.5556  -1.5420  -1.5186  -1.4663  -1.4056  -1.3574  -1.3209  -1.2079
    -1.0186  -0.9207  -0.8690  -0.8274  -0.7944  -0.7452  -0.7189  -0.7107
    -0.6813  -0.6428  -0.5101  -0.5026  -0.4556  -0.3808  -0.3411  -0.3208
    -0.1941  -0.1805  -0.1079  -0.0513  -0.0491  -0.0373   0.0568   0.1147
     0.1433   0.1721   0.2227   0.2790   0.3532   0.3818   0.4153   0.4747
     0.5358   0.5641   0.6236   0.6427   0.6545   0.7365   0.7573   0.7812
     0.8041   0.8752   0.9226   0.9578   0.9983   1.0872   1.1168   1.1665
     1.2030   1.3590   1.4134   1.6829   1.7343   1.7985   1.9282   2.3005
     2.3454   3.7732   3.9089   3.9280   3.9324   4.0300   4.1329   4.2462
     4.2941   4.3305   4.3751

[...]

          k = 0.0380-0.0419 0.0000 ( 17876 PWs)   bands (ev):

[...]

          k =-0.0760-0.0000 0.0000 ( 17886 PWs)   bands (ev):

[...]

          k =-0.0760-0.0839 0.0000 ( 17948 PWs)   bands (ev):

   -55.4230 -55.3119 -55.3113 -55.1355 -55.1350 -55.1318 -55.1301 -55.1249
   -55.0788 -55.0545 -55.0417 -54.9594 -54.9518 -54.9179 -54.2756 -54.2746
   -31.6795 -31.6725 -31.6294 -31.6272 -31.6269 -31.6061 -31.6055 -31.5466
   -31.5074 -31.4606 -31.4529 -31.4524 -31.4459 -31.4451 -31.4317 -31.4309
   -31.4213 -31.3994 -31.3784 -31.3697 -31.3587 -31.3440 -31.3430 -31.3313
   -31.3299 -31.3201 -31.3104 -31.3024 -31.2996 -31.2985 -31.2957 -31.2868
   -31.2741 -31.2637 -31.2593 -31.2504 -31.2213 -31.2115 -31.1846 -31.1603
   -31.1446 -31.1178 -30.6031 -30.6024 -30.5111 -30.5099 -30.4725 -30.4717
   -19.6133 -16.1558 -15.4866 -15.4179 -15.2689 -15.2596 -15.1887 -15.1480
   -15.1414 -15.0898 -15.0835 -15.0156 -14.9904 -14.9821 -14.9426 -14.8908
   -14.8407 -14.8108 -14.8053 -14.7571 -14.7473 -14.7357 -14.6993 -14.6795
   -14.6308 -14.6271 -14.6118 -14.5331 -14.4769 -14.3193 -14.3041 -13.9630
   -12.7767 -12.7761 -10.1695  -7.0112  -6.6864  -4.2676  -4.0075  -3.5924
    -2.6931  -2.6879  -2.6266  -2.4719  -2.4278  -2.3277  -2.3167  -2.2577
    -2.2439  -2.1963  -2.1753  -2.1641  -2.1275  -2.1074  -2.1042  -2.0775
    -2.0578  -2.0476  -2.0215  -1.9855  -1.9833  -1.9532  -1.9448  -1.9278
    -1.9076  -1.8861  -1.8667  -1.8611  -1.8099  -1.7768  -1.6190  -1.5996
    -1.4614  -1.4587  -1.4445  -1.4230  -1.3894  -1.3779  -1.3394  -1.3047
    -1.2346  -1.1923  -1.0977  -1.0623  -0.9547  -0.9266  -0.8563  -0.8084
    -0.7692  -0.7462  -0.7357  -0.7058  -0.6335  -0.5574  -0.5117  -0.4711
    -0.3712  -0.2952  -0.2711  -0.2664  -0.2593  -0.2261  -0.1565  -0.1544
    -0.1135  -0.0973  -0.0151  -0.0048   0.0091   0.0289   0.1615   0.1924
     0.2916   0.3553   0.4053   0.4592   0.4922   0.5427   0.6565   0.7878
     0.8406   0.8660   0.8796   0.9412   0.9896   1.0050   1.0511   1.1240
     1.1950   1.2442   1.2638   1.2873   1.3383   2.0972   2.1059   2.1654
     2.1658   4.0357   4.1376   4.2521   4.2862   4.3019   4.3211   4.3385
     4.3632   4.4073   4.4501

     the Fermi energy is     3.7986 ev

!    total energy              =   -2973.99844078 Ry
     estimated scf accuracy    <       0.00000006 Ry
     smearing contrib. (-TS)   =      -0.02052221 Ry
     internal energy E=F+TS    =   -2973.97791857 Ry

     The total energy is F=E-TS. E is the sum of the following terms:
     one-electron contribution =  -23635.98154918 Ry
     hartree contribution      =   11914.88568171 Ry
     xc contribution           =    -494.12043230 Ry
     ewald contribution        =    9241.23495843 Ry
     electric field correction =       0.00342277 Ry

     convergence has been achieved in  59 iterations

     Forces acting on atoms (cartesian axes, Ry/au):

     atom    1 type  1   force =    -0.00005875   -0.00029293    0.09523517
     atom    2 type  1   force =    -0.00010602    0.00042869   -0.17492788
     atom    3 type  2   force =     0.00000991   -0.00028091   -0.02255008
     atom    4 type  2   force =     0.00005167   -0.00195676    0.05326386
     atom    5 type  2   force =    -0.00764730   -0.00251067    0.00194691
     atom    6 type  2   force =     0.00924025   -0.00207047    0.00146795
     atom    7 type  1   force =    -0.00022432   -0.00468075    0.00731856
     atom    8 type  1   force =     0.00013801    0.00535667    0.01280821
     atom    9 type  2   force =    -0.00010791   -0.00003061    0.00020801
     atom   10 type  2   force =    -0.00275568    0.00061263   -0.01379717
     atom   11 type  2   force =    -0.00016227    0.00022522   -0.00001315
     atom   12 type  2   force =     0.00015234   -0.00003132    0.00024081
     atom   13 type  1   force =     0.00024856    0.00019474    0.00028370
     atom   14 type  1   force =     0.00001981   -0.00005027    0.00021575
     atom   15 type  2   force =     0.00036021   -0.00005128    0.00009977
     atom   16 type  2   force =    -0.00036496   -0.00006988   -0.00005338
     atom   17 type  2   force =     0.00030450   -0.00030934    0.00001952
     atom   18 type  2   force =     0.00004233    0.00005354    0.00024082
     atom   19 type  1   force =     0.00021353   -0.00004945   -0.00007892
     atom   20 type  1   force =     0.00018321   -0.00005690   -0.00010821
     atom   21 type  2   force =     0.00005711    0.00003857    0.10304176
     atom   22 type  2   force =    -0.00005418    0.00015971   -0.00008711
     atom   23 type  2   force =    -0.07222202   -0.00020263   -0.02752631
     atom   24 type  2   force =     0.07212742    0.00021178   -0.02759293
     atom   25 type  1   force =     0.00011311   -0.00024947    0.09497150
     atom   26 type  1   force =    -0.00022930   -0.00137117   -0.17513068
     atom   27 type  2   force =     0.00015837   -0.00013830   -0.02138656
     atom   28 type  2   force =     0.00005092   -0.00025412    0.04860420
     atom   29 type  2   force =    -0.00690785    0.00262371    0.00143732
     atom   30 type  2   force =     0.00849234    0.00314573    0.00086227
     atom   31 type  1   force =    -0.00009629    0.00788545   -0.00301516
     atom   32 type  1   force =     0.00038773   -0.00773191    0.01219064
     atom   33 type  2   force =     0.00008316   -0.00003545   -0.00014320
     atom   34 type  2   force =    -0.00196080    0.00048746   -0.01636644
     atom   35 type  2   force =    -0.00013530    0.00002220   -0.00000238
     atom   36 type  2   force =    -0.00004500    0.00031496   -0.00001200
     atom   37 type  1   force =    -0.00013960    0.00018701    0.00002191
     atom   38 type  1   force =    -0.00009433    0.00007918    0.00015563
     atom   39 type  2   force =    -0.00006196   -0.00028185    0.00001436
     atom   40 type  2   force =     0.00012770   -0.00000475    0.00021767
     atom   41 type  2   force =     0.00012737   -0.00007178    0.00000838
     atom   42 type  2   force =     0.00021715   -0.00014062   -0.00005841
     atom   43 type  1   force =    -0.00072067   -0.00001228   -0.00068493
     atom   44 type  1   force =     0.00032081   -0.00014054   -0.00013963
     atom   45 type  2   force =     0.00008967   -0.00014291    0.10283727
     atom   46 type  2   force =    -0.07221385   -0.00009272   -0.02757855
     atom   47 type  2   force =     0.07214157    0.00036357   -0.02760634
     atom   48 type  3   force =    -0.00005153    0.00020970    0.00013856
     atom   49 type  3   force =     0.00043662    0.00003454   -0.00005498
     atom   50 type  4   force =    -0.00017746    0.00024106   -0.00015846
     atom   51 type  5   force =     0.00025272    0.00023774    0.00036162
     atom   52 type  5   force =    -0.00056984   -0.00017743    0.00017404
     atom   53 type  5   force =     0.00056528    0.00003166   -0.00013663
     atom   54 type  5   force =     0.00005087    0.00010356   -0.00000620
     atom   55 type  2   force =    -0.00371775   -0.00005722   -0.00084935
     atom   56 type  5   force =     0.00406068    0.00029761    0.00167885

     Total force =     0.363264     Total SCF correction =     0.000682
  @ DRIVER MODE: Message from server: STATUS
  @ DRIVER MODE: Message from server: GETFORCE
  @ DRIVER MODE: Returning v,forces,stress,ensemble

     Writing output data file ./calc.save/
  @ DRIVER MODE: Message from server: EXIT
  @ DRIVE MODE: Exiting

     General routines

     Parallel routines

   This run was terminated on:  10: 0:49  27Sep2021

   JOB DONE.