     Program PWSCF v.6.7GPU starts on  8Sep2021 at 23: 4:37

     R & G space division:  proc/nbgrp/npool/nimage =      10
     Reading input from /storage/home/hcoda1/3/ntian30/research/carbon/CxH_vib/C_calc/ads_slab/CN_a/out_0004/pw.inp
Warning: card &CELL ignored
Warning: card   CELL_DYNAMICS='IPI', ignored
Warning: card / ignored

     Current dimensions of program PWSCF are:
     Max number of different atomic species (ntypx) = 10
     Max number of k-points (npk) =  40000
     Max angular momentum in pseudopotentials (lmaxx) =  3
     Presently no symmetry can be used with electric field

     Message from routine cell_base_init:
     DEPRECATED: use true lattice parameter, not A to a.u. conversion factor

     IMPORTANT: XC functional enforced from input :
     Exchange-correlation= BEEF-VDW
                           (   1   4  43  14   2   0   0)
     Any further DFT definition will be discarded
     Please, verify this is what you really want

  @ DRIVER MODE: Connecting to
 qe_1139763_2767374.sched-torque.pace.gatech.edup0pu0ai2_scratch
  using UNIX socket
  @ DRIVER MODE: Message from server: STATUS
  @ DRIVER MODE: Message from server: INIT
  @ DRIVER MODE: Receiving replica           0          -1
  @ DRIVER MODE: Receiving encoded integer          25
  @ DRIVER MODE:  SCF:  T  FORCE:  T  STRESS:  F  VC:  F  ENSEMBLE:  F
  @ DRIVER MODE:  SCF:  T  FORCE:  T  STRESS:  F  VC:  F  ENSEMBLE:  F

     Using Slab Decomposition

     bravais-lattice index     =            0
     lattice parameter (alat)  =       1.8897  a.u.
     unit-cell volume          =    6658.9804 (a.u.)^3
     number of atoms/cell      =           49
     number of atomic types    =            4
     number of electrons       =       387.00
     number of Kohn-Sham states=          203
     kinetic-energy cutoff     =      29.3995  Ry
     charge density cutoff     =     293.9946  Ry
     scf convergence threshold =      7.3E-08
     mixing beta               =       0.0500
     number of iterations used =            8  plain     mixing
     Exchange-correlation= BEEF-VDW
                           (   1   4  43  14   2   0   0)

     celldm(1)=   1.889726  celldm(2)=   0.000000  celldm(3)=   0.000000
     celldm(4)=   0.000000  celldm(5)=   0.000000  celldm(6)=   0.000000

     crystal axes: (cart. coord. in units of alat)
               a(1) = (   6.579727   0.000000   0.000000 )
               a(2) = (  -0.000775   5.961596   0.000000 )
               a(3) = (   0.000000   0.000000  25.155947 )

     reciprocal axes: (cart. coord. in units 2 pi/alat)
               b(1) = (  0.151982  0.000020  0.000000 )
               b(2) = (  0.000000  0.167740  0.000000 )
               b(3) = (  0.000000  0.000000  0.039752 )

     PseudoPot. # 1 for Ti read from file:
     /storage/coda1/p-amedford6/0/shared/rich_project_chbe-medford/medford-share/data/pseudos_module/espresso/nninc/pbe/van/Ti.UPF
     MD5 check sum: 8e4df49b7f0d34bbd5052bf3f5ea0213
     Pseudo is Ultrasoft, Zval = 12.0
     Generated by new atomic code, or converted to UPF format
     Using radial grid of  851 points,  6 beta functions with:
                l(1) =   0
                l(2) =   0
                l(3) =   1
                l(4) =   1
                l(5) =   2
                l(6) =   2
     Q(r) pseudized with  8 coefficients,  rinner =    1.000   1.000   1.000
                                                       1.000   1.000

     PseudoPot. # 2 for O  read from file:
     /storage/coda1/p-amedford6/0/shared/rich_project_chbe-medford/medford-share/data/pseudos_module/espresso/nninc/pbe/van/O.UPF
     MD5 check sum: 78c19812648e8988a0fe644b0f25305e
     Pseudo is Ultrasoft, Zval =  6.0
     Generated by new atomic code, or converted to UPF format
     Using radial grid of  737 points,  4 beta functions with:
                l(1) =   0
                l(2) =   0
                l(3) =   1
                l(4) =   1
     Q(r) pseudized with  8 coefficients,  rinner =    0.800   0.800   0.800

     PseudoPot. # 3 for N  read from file:
     /storage/coda1/p-amedford6/0/shared/rich_project_chbe-medford/medford-share/data/pseudos_module/espresso/nninc/pbe/van/N.UPF
     MD5 check sum: 90d10febe142ad51ac9d5be1deb811c4
     Pseudo is Ultrasoft, Zval =  5.0
     Generated by new atomic code, or converted to UPF format
     Using radial grid of  729 points,  4 beta functions with:
                l(1) =   0
                l(2) =   0
                l(3) =   1
                l(4) =   1
     Q(r) pseudized with  8 coefficients,  rinner =    0.800   0.800   0.800

     PseudoPot. # 4 for C  read from file:
     /storage/coda1/p-amedford6/0/shared/rich_project_chbe-medford/medford-share/data/pseudos_module/espresso/nninc/pbe/van/C.UPF
     MD5 check sum: 1a69bf6b8db32088f5b2163dbdb77a27
     Pseudo is Ultrasoft, Zval =  4.0
     Generated by new atomic code, or converted to UPF format
     Using radial grid of  721 points,  4 beta functions with:
                l(1) =   0
                l(2) =   0
                l(3) =   1
                l(4) =   1
     Q(r) pseudized with  8 coefficients,  rinner =    0.800   0.800   0.800

     atomic species   valence    mass     pseudopotential
        Ti1           12.00    47.86700     Ti( 1.00)
        O1             6.00    15.99900     O ( 1.00)
        N1             5.00    14.00700     N ( 1.00)
        C1             4.00    12.01100     C ( 1.00)

     No symmetry found

   Cartesian axes

     site n.     atom                  positions (alat units)
         1           Ti1 tau(   1) = (   0.0004258   2.9801865   6.0000000  )
         2           Ti1 tau(   2) = (   3.2906075   1.4906267   6.0002472  )
         3           O1  tau(   3) = (   0.0006271   0.0005054   7.9858123  )
         4           O1  tau(   4) = (   3.2906025   0.0005020   7.3038282  )
         5           O1  tau(   5) = (   4.5942328   1.4918067   9.2879030  )
         6           O1  tau(   6) = (   1.9868534   1.4903216   9.2879459  )
         7           Ti1 tau(   7) = (   3.2907910   2.8959150   9.1758416  )
         8           Ti1 tau(   8) = (   0.0015273   1.4827037   9.2680791  )
         9           O1  tau(   9) = (   3.2906544   5.9526486  11.3360365  )
        10           O1  tau(  10) = (   0.0116148   5.9584955  10.6183126  )
        11           O1  tau(  11) = (   1.2859751   1.4766153  12.6250921  )
        12           O1  tau(  12) = (   5.2747213   1.4793106  12.6166009  )
        13           Ti1 tau(  13) = (   0.0603843   2.9584451  12.6427671  )
        14           Ti1 tau(  14) = (   3.3778536   1.4756059  12.4863933  )
        15           O1  tau(  15) = (   6.5752277   0.0194043  14.6532461  )
        16           O1  tau(  16) = (   3.2875826   0.0023437  13.9196692  )
        17           O1  tau(  17) = (   4.5326611   1.5140167  16.0393429  )
        18           O1  tau(  18) = (   2.0377802   1.5105360  16.0392308  )
        19           Ti1 tau(  19) = (   3.2776205   2.9998382  15.7112304  )
        20           Ti1 tau(  20) = (   6.5636215   1.4772787  15.8536107  )
        21           O1  tau(  21) = (   3.2904802   0.0005063   4.7018136  )
        22           O1  tau(  22) = (   6.5677839   0.0282815  17.1640259  )
        23           O1  tau(  23) = (   1.3043587   1.4918075   6.0039043  )
        24           O1  tau(  24) = (   5.2767064   1.4903225   6.0039473  )
        25           Ti1 tau(  25) = (   0.0000382   5.9609847   6.0000000  )
        26           Ti1 tau(  26) = (   3.2902200   4.4714249   6.0002472  )
        27           O1  tau(  27) = (   0.0002396   2.9813036   7.9858123  )
        28           O1  tau(  28) = (   3.2902150   2.9813002   7.3038282  )
        29           O1  tau(  29) = (   4.5938453   4.4726049   9.2879030  )
        30           O1  tau(  30) = (   1.9864658   4.4711199   9.2879459  )
        31           Ti1 tau(  31) = (   3.2891106   5.8743827   9.1763621  )
        32           Ti1 tau(  32) = (   0.0006254   4.4649316   9.2693709  )
        33           O1  tau(  33) = (   3.2934253   2.9766276  11.3360394  )
        34           O1  tau(  34) = (   0.0092240   2.9805883  10.6323155  )
        35           O1  tau(  35) = (   1.2837843   4.4682058  12.6378402  )
        36           O1  tau(  36) = (   5.2794199   4.4724371  12.6287280  )
        37           Ti1 tau(  37) = (   0.0629162   5.9364049  12.5278104  )
        38           Ti1 tau(  38) = (   3.3790601   4.4565194  12.4925032  )
        39           O1  tau(  39) = (   6.5767340   2.9373485  14.6650829  )
        40           O1  tau(  40) = (   3.2863475   2.9847055  13.9098935  )
        41           O1  tau(  41) = (   4.5306188   4.4848726  16.0532295  )
        42           O1  tau(  42) = (   2.0355158   4.4881816  16.0516428  )
        43           Ti1 tau(  43) = (   3.2786155   0.0182257  15.7221571  )
        44           Ti1 tau(  44) = (   6.5667443   4.6373684  16.0773964  )
        45           O1  tau(  45) = (   3.2900926   2.9813045   4.7018136  )
        46           O1  tau(  46) = (   1.3039711   4.4726057   6.0039043  )
        47           O1  tau(  47) = (   5.2763189   4.4711207   6.0039473  )
        48           N1  tau(  48) = (   0.0024438   3.0003893  17.4749376  )
        49           C1  tau(  49) = (   0.0264708   2.9368645  18.6621426  )

     number of k points=    10  Fermi-Dirac smearing, width (Ry)=  0.0073
                       cart. coord. in units 2pi/alat
        k(    1) = (   0.0000000   0.0000000   0.0000000), wk =   0.1250000
        k(    2) = (   0.0000000   0.0419351   0.0000000), wk =   0.2500000
        k(    3) = (   0.0000000  -0.0838702   0.0000000), wk =   0.1250000
        k(    4) = (   0.0379955   0.0000049   0.0000000), wk =   0.2500000
        k(    5) = (   0.0379955   0.0419400   0.0000000), wk =   0.2500000
        k(    6) = (   0.0379955  -0.0838652   0.0000000), wk =   0.2500000
        k(    7) = (   0.0379955  -0.0419301   0.0000000), wk =   0.2500000
        k(    8) = (  -0.0759910  -0.0000099   0.0000000), wk =   0.1250000
        k(    9) = (  -0.0759910   0.0419252   0.0000000), wk =   0.2500000
        k(   10) = (  -0.0759910  -0.0838800   0.0000000), wk =   0.1250000

     Initial potential from superposition of free atoms

     starting charge  370.99920, renormalised to  387.00000

     negative rho (up, down):  2.000E-02 0.000E+00

     %%%%%%%%%%%%%%%%%%%%%%%%%%%%%%%%%%%%%%%%%%%%%%%%%%%%%%%%%%%%%%%%%%%%%%%%
     %                                                                      %
     % You are using vdW-DF, which was implemented by the Thonhauser group. %
     % Please cite the following two papers that made this development      %
     % possible and the two reviews that describe the various versions:     %
     %                                                                      %
     %   T. Thonhauser et al., PRL 115, 136402 (2015).                      %
     %   T. Thonhauser et al., PRB 76, 125112 (2007).                       %
     %   K. Berland et al., Rep. Prog. Phys. 78, 066501 (2015).             %
     %   D.C. Langreth et al., J. Phys.: Condens. Matter 21, 084203 (2009). %
     %                                                                      %
     %                                                                      %
     % If you are calculating the stress with vdW-DF, please also cite:     %
     %                                                                      %
     %   R. Sabatini et al., J. Phys.: Condens. Matter 24, 424209 (2012).   %
     %                                                                      %
     %%%%%%%%%%%%%%%%%%%%%%%%%%%%%%%%%%%%%%%%%%%%%%%%%%%%%%%%%%%%%%%%%%%%%%%%

     Adding external electric field

     Computed dipole along edir(3) :
        Dipole               -3.3355 Ry au,         -8.4779 Debye
        Dipole field         -0.0063 Ry au,

        Potential amp.        0.5835 Ry
        Total length         46.3494 bohr

     Starting wfcs are  292 atomic wfcs
  @ DRIVER MODE: Message from server: STATUS
  @ DRIVER MODE: Message from server: POSDATA
  @ DRIVER MODE: Reading and sharing cell
  @ DRIVER MODE: Reading and sharing positions
  @ DRIVER MODE: Received positions

     Self-consistent Calculation

     iteration #  1     ecut=    29.40 Ry     beta= 0.05
     Davidson diagonalization with overlap
     c_bands:  2 eigenvalues not converged
     c_bands:  3 eigenvalues not converged
     c_bands:  1 eigenvalues not converged
     c_bands:  5 eigenvalues not converged
     c_bands:  1 eigenvalues not converged
     c_bands:  4 eigenvalues not converged
     ethr =  1.00E-05,  avg # of iterations = 18.6

[...]

     total energy              =   -2906.86099506 Ry
     estimated scf accuracy    <     123.34776720 Ry

[...]

     iteration #  3     ecut=    29.40 Ry     beta= 0.05
     Davidson diagonalization with overlap
     ethr =  1.00E-02,  avg # of iterations =  8.5

[...]

     iteration # 81     ecut=    29.40 Ry     beta= 0.05
     Davidson diagonalization with overlap
     c_bands:  1 eigenvalues not converged
     ethr =  3.80E-11,  avg # of iterations = 14.1

[...]

     total energy              =   -2915.40630071 Ry
     estimated scf accuracy    <       0.00000008 Ry

     iteration # 82     ecut=    29.40 Ry     beta= 0.05
     Davidson diagonalization with overlap
     ethr =  2.04E-11,  avg # of iterations =  1.8

     negative rho (up, down):  1.872E-02 0.000E+00

     Adding external electric field

     Computed dipole along edir(3) :
        Dipole               -0.2900 Ry au,         -0.7372 Debye
        Dipole field         -0.0005 Ry au,

        Potential amp.        0.0507 Ry
        Total length         46.3494 bohr

     End of self-consistent calculation

          k = 0.0000 0.0000 0.0000 ( 18029 PWs)   bands (ev):

   -56.6716 -56.6595 -56.6375 -56.6231 -56.5378 -56.5258 -56.5030 -56.4905
   -56.4814 -56.4496 -56.4472 -56.4171 -56.4157 -56.1934 -55.6515 -55.6174
   -33.2107 -33.1546 -33.0256 -32.9989 -32.9812 -32.9670 -32.9643 -32.9399
   -32.9147 -32.8857 -32.8833 -32.8650 -32.8594 -32.8380 -32.8238 -32.8122
   -32.7967 -32.7820 -32.7764 -32.7650 -32.7425 -32.7296 -32.7287 -32.6809
   -32.6807 -32.6741 -32.6739 -32.6707 -32.6697 -32.6507 -32.6396 -32.6329
   -32.6236 -32.6170 -32.6161 -32.6086 -32.6024 -32.5846 -32.5612 -32.4398
   -32.4182 -32.4028 -32.0587 -31.9701 -31.9477 -31.8754 -31.7889 -31.6779
   -17.4106 -17.1495 -16.9173 -16.8287 -16.8028 -16.6579 -16.5213 -16.4031
   -16.3277 -16.2787 -16.2317 -16.2209 -16.2090 -16.1747 -16.1363 -16.1189
   -16.1120 -16.0909 -16.0601 -16.0499 -16.0329 -16.0122 -15.9712 -15.8459
   -15.8072 -15.7564 -15.7314 -15.7011 -15.4043 -15.3143 -14.1538 -14.0374
    -5.3047  -4.7778  -4.6310  -4.5787  -4.5210  -4.4445  -4.2902  -4.2004
    -3.9290  -3.8593  -3.8377  -3.8205  -3.7764  -3.5953  -3.5724  -3.4884
    -3.4743  -3.4709  -3.4509  -3.4333  -3.4277  -3.3741  -3.2851  -3.2295
    -3.2197  -3.1142  -3.0720  -3.0597  -2.9952  -2.9851  -2.9644  -2.9282
    -2.9101  -2.9088  -2.8875  -2.8553  -2.7479  -2.7304  -2.6424  -2.5552
    -2.4742  -2.4137  -2.2820  -2.1531  -2.1397  -2.1031  -2.0826  -2.0648
    -2.0048  -1.9696  -1.9196  -1.8411  -1.8357  -1.7873  -1.7285  -1.6570
    -1.6249  -1.5523  -1.4866  -1.4351  -1.4328  -1.4188  -1.3469  -1.1592
    -1.1167  -1.0942  -1.0524  -0.9932  -0.9457  -0.9398  -0.8789  -0.8537
    -0.8116  -0.7604  -0.7260  -0.7043  -0.6954  -0.6745  -0.6662  -0.6283
    -0.5777  -0.4728  -0.4392  -0.3986  -0.3635  -0.2543  -0.1228  -0.0446
    -0.0163   0.0997   0.2964   0.3707   0.4633   0.5058   0.5625   0.9421
     0.9879   2.4598   2.5487   2.5924   2.6086   2.6938   2.7110   2.9150
     2.9425   2.9522   3.0124

[...]

          k = 0.0380-0.0419 0.0000 ( 17876 PWs)   bands (ev):

[...]

          k =-0.0760-0.0000 0.0000 ( 17886 PWs)   bands (ev):

[...]

          k =-0.0760-0.0839 0.0000 ( 17948 PWs)   bands (ev):

   -56.6553 -56.6538 -56.6442 -56.6382 -56.5222 -56.5184 -56.5125 -56.5038
   -56.4656 -56.4625 -56.4350 -56.4304 -56.4158 -56.1946 -55.6345 -55.6343
   -33.0169 -33.0112 -32.9703 -32.9694 -32.9503 -32.9491 -32.9200 -32.9155
   -32.8734 -32.8672 -32.8506 -32.8468 -32.8099 -32.8059 -32.8044 -32.7991
   -32.7929 -32.7868 -32.7778 -32.7750 -32.7733 -32.7725 -32.7685 -32.7308
   -32.7232 -32.7165 -32.7151 -32.7125 -32.6856 -32.6669 -32.6656 -32.6641
   -32.6613 -32.6495 -32.6476 -32.6462 -32.6379 -32.6275 -32.6244 -32.4843
   -32.4455 -32.4208 -31.9604 -31.9603 -31.8715 -31.8713 -31.8322 -31.8322
   -16.8271 -16.8135 -16.6520 -16.5866 -16.5641 -16.5568 -16.5172 -16.3769
   -16.3632 -16.3621 -16.2884 -16.2542 -16.2420 -16.2132 -16.1979 -16.1946
   -16.1832 -16.1726 -16.1327 -16.1271 -16.1158 -16.1048 -16.0719 -16.0402
   -15.9923 -15.9878 -15.8098 -15.6915 -15.5828 -15.3993 -14.1393 -14.1391
    -5.1997  -4.1159  -4.0983  -3.9246  -3.8158  -3.8056  -3.7562  -3.6250
    -3.5729  -3.5652  -3.5328  -3.5151  -3.5018  -3.4943  -3.4848  -3.4558
    -3.4263  -3.3912  -3.3763  -3.3587  -3.3462  -3.3272  -3.3106  -3.3011
    -3.2849  -3.2626  -3.2296  -3.2159  -3.2003  -3.1708  -3.0392  -2.9287
    -2.8658  -2.8166  -2.8044  -2.7931  -2.7489  -2.7378  -2.7265  -2.6875
    -2.5468  -2.5108  -2.3783  -2.3762  -2.3301  -2.2754  -2.2698  -2.1312
    -2.1020  -2.0926  -2.0726  -2.0086  -1.9768  -1.9020  -1.8751  -1.8227
    -1.7973  -1.7531  -1.6804  -1.6695  -1.6409  -1.6313  -1.6228  -1.5480
    -1.5030  -1.4367  -1.4308  -1.4101  -1.3495  -1.3180  -1.2655  -1.1867
    -1.1500  -1.0171  -0.9557  -0.7714  -0.7578  -0.6553  -0.5995  -0.5816
    -0.5354  -0.4984  -0.3753  -0.3612  -0.3545  -0.2824  -0.2716  -0.2564
    -0.1469  -0.1367  -0.1166   0.0673   0.4922   0.7341   0.7351   0.8074
     0.8079   2.7692   2.7758   2.8124   2.8315   2.9641   2.9735   2.9948
     2.9965   3.1048   3.1246

     the Fermi energy is     2.4615 ev

!    total energy              =   -2915.40630739 Ry
     estimated scf accuracy    <       0.00000006 Ry
     smearing contrib. (-TS)   =      -0.02159688 Ry
     internal energy E=F+TS    =   -2915.38471050 Ry

     The total energy is F=E-TS. E is the sum of the following terms:
     one-electron contribution =  -24972.18302736 Ry
     hartree contribution      =   12561.28157356 Ry
     xc contribution           =    -477.44709939 Ry
     ewald contribution        =    9972.96368394 Ry
     electric field correction =       0.00015874 Ry

     convergence has been achieved in  82 iterations

     Forces acting on atoms (cartesian axes, Ry/au):

     atom    1 type  1   force =     0.00015759   -0.00020177    0.09631382
     atom    2 type  1   force =    -0.00010394   -0.00060496   -0.17548687
     atom    3 type  2   force =     0.00003133   -0.00003649   -0.02459661
     atom    4 type  2   force =     0.00008521   -0.00145557    0.05305267
     atom    5 type  2   force =    -0.01196387   -0.00120855    0.00381250
     atom    6 type  2   force =     0.01362097   -0.00047288    0.00269416
     atom    7 type  1   force =    -0.00106499    0.00059222   -0.01037216
     atom    8 type  1   force =     0.00048731    0.01693086    0.02650775
     atom    9 type  2   force =    -0.00005041   -0.00011891   -0.00058457
     atom   10 type  2   force =    -0.00123789    0.00038528   -0.01549755
     atom   11 type  2   force =     0.00008828    0.00023157   -0.00017041
     atom   12 type  2   force =     0.00009445    0.00035308   -0.00033174
     atom   13 type  1   force =    -0.00016482   -0.00006833    0.00004629
     atom   14 type  1   force =     0.00002678    0.00029916   -0.00032058
     atom   15 type  2   force =    -0.00012906    0.00070201    0.00074377
     atom   16 type  2   force =    -0.00005670    0.00040378    0.00012323
     atom   17 type  2   force =     0.00029734    0.00010803    0.00024112
     atom   18 type  2   force =    -0.00042750    0.00028937    0.00038362
     atom   19 type  1   force =     0.00022124    0.00011561    0.00013421
     atom   20 type  1   force =    -0.00016337   -0.00026154   -0.00011002
     atom   21 type  2   force =     0.00010114   -0.00001034    0.10330059
     atom   22 type  2   force =     0.00056293    0.00131871    0.00023661
     atom   23 type  2   force =    -0.07141775   -0.00009567   -0.02761493
     atom   24 type  2   force =     0.07142095    0.00032913   -0.02763022
     atom   25 type  1   force =     0.00005572   -0.00022753    0.09625241
     atom   26 type  1   force =    -0.00018155   -0.00014504   -0.17559349
     atom   27 type  2   force =     0.00009679   -0.00023326   -0.02351298
     atom   28 type  2   force =     0.00011573   -0.00123368    0.05334850
     atom   29 type  2   force =    -0.01212165    0.00067390    0.00353156
     atom   30 type  2   force =     0.01369495    0.00102627    0.00241729
     atom   31 type  1   force =    -0.00092137    0.00337887   -0.01150110
     atom   32 type  1   force =     0.00066308   -0.01868733    0.02687591
     atom   33 type  2   force =    -0.00015105    0.00029961   -0.00001805
     atom   34 type  2   force =    -0.00097218    0.00039274   -0.02318705
     atom   35 type  2   force =     0.00019543    0.00000058   -0.00004540
     atom   36 type  2   force =    -0.00017107    0.00002958   -0.00018924
     atom   37 type  1   force =    -0.00020993   -0.00016802   -0.00027257
     atom   38 type  1   force =    -0.00004824    0.00029510   -0.00041980
     atom   39 type  2   force =     0.00017422   -0.00060030    0.00006079
     atom   40 type  2   force =    -0.00005357    0.00014518    0.00053918
     atom   41 type  2   force =     0.00014519   -0.00030970   -0.00020879
     atom   42 type  2   force =    -0.00017817   -0.00048963   -0.00034036
     atom   43 type  1   force =     0.00011855   -0.00027483   -0.00041781
     atom   44 type  1   force =    -0.00035508   -0.00040615    0.00011414
     atom   45 type  2   force =     0.00009597   -0.00003103    0.10330028
     atom   46 type  2   force =    -0.07143376   -0.00004045   -0.02763205
     atom   47 type  2   force =     0.07144440    0.00039818   -0.02765057
     atom   48 type  3   force =    -0.00020188   -0.00179315    0.00098882
     atom   49 type  4   force =    -0.00021575    0.00047628   -0.00131433

     Total force =     0.368257     Total SCF correction =     0.000698
  @ DRIVER MODE: Message from server: STATUS
  @ DRIVER MODE: Message from server: GETFORCE
  @ DRIVER MODE: Returning v,forces,stress,ensemble

     Writing output data file ./calc.save/
  @ DRIVER MODE: Message from server: EXIT
  @ DRIVE MODE: Exiting

     General routines

     Parallel routines

   This run was terminated on:  23:27:13   8Sep2021

   JOB DONE.