     Program PWSCF v.6.7GPU starts on 23Sep2021 at 14:28:28

     R & G space division:  proc/nbgrp/npool/nimage =      10
     Reading input from /storage/home/hcoda1/3/ntian30/research/carbon/CxH_vib/H2O_calc/ads_slab/CH3NNH3HO_a/out_0065/pw.inp
Warning: card &CELL ignored
Warning: card   CELL_DYNAMICS='IPI', ignored
Warning: card / ignored

     Current dimensions of program PWSCF are:
     Max number of different atomic species (ntypx) = 10
     Max number of k-points (npk) =  40000
     Max angular momentum in pseudopotentials (lmaxx) =  3
     Presently no symmetry can be used with electric field

     Message from routine cell_base_init:
     DEPRECATED: use true lattice parameter, not A to a.u. conversion factor

     IMPORTANT: XC functional enforced from input :
     Exchange-correlation= BEEF-VDW
                           (   1   4  43  14   2   0   0)
     Any further DFT definition will be discarded
     Please, verify this is what you really want

  @ DRIVER MODE: Connecting to
 qe_1139763_2937318.sched-torque.pace.gatech.edu6ejgnlwl_scratch
  using UNIX socket
  @ DRIVER MODE: Message from server: STATUS
  @ DRIVER MODE: Message from server: INIT
  @ DRIVER MODE: Receiving replica           0          -1
  @ DRIVER MODE: Receiving encoded integer          25
  @ DRIVER MODE:  SCF:  T  FORCE:  T  STRESS:  F  VC:  F  ENSEMBLE:  F
  @ DRIVER MODE:  SCF:  T  FORCE:  T  STRESS:  F  VC:  F  ENSEMBLE:  F

     Using Slab Decomposition

     bravais-lattice index     =            0
     lattice parameter (alat)  =       1.8897  a.u.
     unit-cell volume          =    6658.9804 (a.u.)^3
     number of atoms/cell      =           58
     number of atomic types    =            5
     number of electrons       =       405.00
     number of Kohn-Sham states=          212
     kinetic-energy cutoff     =      29.3995  Ry
     charge density cutoff     =     293.9946  Ry
     scf convergence threshold =      7.3E-08
     mixing beta               =       0.0500
     number of iterations used =            8  plain     mixing
     Exchange-correlation= BEEF-VDW
                           (   1   4  43  14   2   0   0)

     celldm(1)=   1.889726  celldm(2)=   0.000000  celldm(3)=   0.000000
     celldm(4)=   0.000000  celldm(5)=   0.000000  celldm(6)=   0.000000

     crystal axes: (cart. coord. in units of alat)
               a(1) = (   6.579727   0.000000   0.000000 )
               a(2) = (  -0.000775   5.961596   0.000000 )
               a(3) = (   0.000000   0.000000  25.155947 )

     reciprocal axes: (cart. coord. in units 2 pi/alat)
               b(1) = (  0.151982  0.000020  0.000000 )
               b(2) = (  0.000000  0.167740  0.000000 )
               b(3) = (  0.000000  0.000000  0.039752 )

     PseudoPot. # 1 for Ti read from file:
     /storage/coda1/p-amedford6/0/shared/rich_project_chbe-medford/medford-share/data/pseudos_module/espresso/nninc/pbe/van/Ti.UPF
     MD5 check sum: 8e4df49b7f0d34bbd5052bf3f5ea0213
     Pseudo is Ultrasoft, Zval = 12.0
     Generated by new atomic code, or converted to UPF format
     Using radial grid of  851 points,  6 beta functions with:
                l(1) =   0
                l(2) =   0
                l(3) =   1
                l(4) =   1
                l(5) =   2
                l(6) =   2
     Q(r) pseudized with  8 coefficients,  rinner =    1.000   1.000   1.000
                                                       1.000   1.000

     PseudoPot. # 2 for O  read from file:
     /storage/coda1/p-amedford6/0/shared/rich_project_chbe-medford/medford-share/data/pseudos_module/espresso/nninc/pbe/van/O.UPF
     MD5 check sum: 78c19812648e8988a0fe644b0f25305e
     Pseudo is Ultrasoft, Zval =  6.0
     Generated by new atomic code, or converted to UPF format
     Using radial grid of  737 points,  4 beta functions with:
                l(1) =   0
                l(2) =   0
                l(3) =   1
                l(4) =   1
     Q(r) pseudized with  8 coefficients,  rinner =    0.800   0.800   0.800

     PseudoPot. # 3 for N  read from file:
     /storage/coda1/p-amedford6/0/shared/rich_project_chbe-medford/medford-share/data/pseudos_module/espresso/nninc/pbe/van/N.UPF
     MD5 check sum: 90d10febe142ad51ac9d5be1deb811c4
     Pseudo is Ultrasoft, Zval =  5.0
     Generated by new atomic code, or converted to UPF format
     Using radial grid of  729 points,  4 beta functions with:
                l(1) =   0
                l(2) =   0
                l(3) =   1
                l(4) =   1
     Q(r) pseudized with  8 coefficients,  rinner =    0.800   0.800   0.800

     PseudoPot. # 4 for C  read from file:
     /storage/coda1/p-amedford6/0/shared/rich_project_chbe-medford/medford-share/data/pseudos_module/espresso/nninc/pbe/van/C.UPF
     MD5 check sum: 1a69bf6b8db32088f5b2163dbdb77a27
     Pseudo is Ultrasoft, Zval =  4.0
     Generated by new atomic code, or converted to UPF format
     Using radial grid of  721 points,  4 beta functions with:
                l(1) =   0
                l(2) =   0
                l(3) =   1
                l(4) =   1
     Q(r) pseudized with  8 coefficients,  rinner =    0.800   0.800   0.800

     PseudoPot. # 5 for H  read from file:
     /storage/coda1/p-amedford6/0/shared/rich_project_chbe-medford/medford-share/data/pseudos_module/espresso/nninc/pbe/van/H.UPF
     MD5 check sum: b5ee9d7bfd3a09ee7748110bda690ff7
     Pseudo is Ultrasoft, Zval =  1.0
     Generated by new atomic code, or converted to UPF format
     Using radial grid of  615 points,  1 beta functions with:
                l(1) =   0
     Q(r) pseudized with  8 coefficients,  rinner =    0.800

     atomic species   valence    mass     pseudopotential
        Ti1           12.00    47.86700     Ti( 1.00)
        O1             6.00    15.99900     O ( 1.00)
        N1             5.00    14.00700     N ( 1.00)
        C1             4.00    12.01100     C ( 1.00)
        H1             1.00     1.00800     H ( 1.00)

     No symmetry found

   Cartesian axes

     site n.     atom                  positions (alat units)
         1           Ti1 tau(   1) = (   0.0004258   2.9801865   6.0000000  )
         2           Ti1 tau(   2) = (   3.2906075   1.4906267   6.0002472  )
         3           O1  tau(   3) = (   0.0006271   0.0005054   7.9858123  )
         4           O1  tau(   4) = (   3.2906025   0.0005020   7.3038282  )
         5           O1  tau(   5) = (   4.5942328   1.4918067   9.2879030  )
         6           O1  tau(   6) = (   1.9868534   1.4903216   9.2879459  )
         7           Ti1 tau(   7) = (   3.2907910   2.8959150   9.1758416  )
         8           Ti1 tau(   8) = (   0.0015273   1.4827037   9.2680791  )
         9           O1  tau(   9) = (   3.2949357   5.9297256  11.2770696  )
        10           O1  tau(  10) = (   0.0116148   5.9584955  10.6183126  )
        11           O1  tau(  11) = (   1.2901270   1.4659759  12.6218969  )
        12           O1  tau(  12) = (   5.3029181   1.4690452  12.6271982  )
        13           Ti1 tau(  13) = (   6.5637346   3.0486055  12.7052252  )
        14           Ti1 tau(  14) = (   3.3207578   1.2909511  12.6638180  )
        15           O1  tau(  15) = (   0.0081040   5.9567798  14.6379979  )
        16           O1  tau(  16) = (   3.2944190   0.0149942  13.8863584  )
        17           O1  tau(  17) = (   4.5334936   1.5584448  16.0391558  )
        18           O1  tau(  18) = (   2.0244848   1.5379376  16.0854781  )
        19           Ti1 tau(  19) = (   3.2579824   3.0118882  15.6538344  )
        20           Ti1 tau(  20) = (   6.4918182   1.5199401  15.8876453  )
        21           O1  tau(  21) = (   3.2904802   0.0005063   4.7018136  )
        22           O1  tau(  22) = (   6.5166677   0.0216046  17.1949088  )
        23           O1  tau(  23) = (   1.3043587   1.4918075   6.0039043  )
        24           O1  tau(  24) = (   5.2767064   1.4903225   6.0039473  )
        25           Ti1 tau(  25) = (   0.0000382   5.9609847   6.0000000  )
        26           Ti1 tau(  26) = (   3.2902200   4.4714249   6.0002472  )
        27           O1  tau(  27) = (   0.0002396   2.9813036   7.9858123  )
        28           O1  tau(  28) = (   3.2902150   2.9813002   7.3038282  )
        29           O1  tau(  29) = (   4.5938453   4.4726049   9.2879030  )
        30           O1  tau(  30) = (   1.9864658   4.4711199   9.2879459  )
        31           Ti1 tau(  31) = (   3.2891106   5.8743827   9.1763621  )
        32           Ti1 tau(  32) = (   0.0006254   4.4649316   9.2693709  )
        33           O1  tau(  33) = (   3.2959121   3.0085915  11.2438341  )
        34           O1  tau(  34) = (   0.0092240   2.9805883  10.6323155  )
        35           O1  tau(  35) = (   1.2849535   4.4488585  12.6204231  )
        36           O1  tau(  36) = (   5.2878833   4.4365118  12.6243745  )
        37           Ti1 tau(  37) = (   0.0500071   0.0677371  12.6535751  )
        38           Ti1 tau(  38) = (   3.3027700   4.3871210  12.4110406  )
        39           O1  tau(  39) = (   6.5685058   2.9535060  14.6525041  )
        40           O1  tau(  40) = (   3.2696111   2.9719761  13.8704823  )
        41           O1  tau(  41) = (   4.5209813   4.4409030  16.0696701  )
        42           O1  tau(  42) = (   2.0131998   4.4599944  16.0916020  )
        43           Ti1 tau(  43) = (   3.2138439   0.0230873  16.3295100  )
        44           Ti1 tau(  44) = (   6.5234412   4.6200706  16.0754176  )
        45           O1  tau(  45) = (   3.2900926   2.9813045   4.7018136  )
        46           O1  tau(  46) = (   1.3039711   4.4726057   6.0039043  )
        47           O1  tau(  47) = (   5.2763189   4.4711207   6.0039473  )
        48           N1  tau(  48) = (   0.0251376   2.9556585  17.3246074  )
        49           N1  tau(  49) = (   6.3772498   2.5461882  22.2688425  )
        50           C1  tau(  50) = (   0.2111848   2.8484408  18.7116211  )
        51           H1  tau(  51) = (   0.3920758   3.8074029  19.2116250  )
        52           H1  tau(  52) = (   5.9044209   2.3708277  19.1722604  )
        53           H1  tau(  53) = (   1.0233575   2.1342068  18.9364007  )
        54           H1  tau(  54) = (   6.0930523   3.2289774  22.9628454  )
        55           H1  tau(  55) = (   0.2277240   1.7755739  22.7685771  )
        56           H1  tau(  56) = (   0.5282093   2.9785696  21.7129995  )
        57           O1  tau(  57) = (   3.3838229   0.0530270  18.1522483  )
        58           H1  tau(  58) = (   4.2718821   5.8932998  18.5123319  )

     number of k points=    10  Fermi-Dirac smearing, width (Ry)=  0.0073
                       cart. coord. in units 2pi/alat
        k(    1) = (   0.0000000   0.0000000   0.0000000), wk =   0.1250000
        k(    2) = (   0.0000000   0.0419351   0.0000000), wk =   0.2500000
        k(    3) = (   0.0000000  -0.0838702   0.0000000), wk =   0.1250000
        k(    4) = (   0.0379955   0.0000049   0.0000000), wk =   0.2500000
        k(    5) = (   0.0379955   0.0419400   0.0000000), wk =   0.2500000
        k(    6) = (   0.0379955  -0.0838652   0.0000000), wk =   0.2500000
        k(    7) = (   0.0379955  -0.0419301   0.0000000), wk =   0.2500000
        k(    8) = (  -0.0759910  -0.0000099   0.0000000), wk =   0.1250000
        k(    9) = (  -0.0759910   0.0419252   0.0000000), wk =   0.2500000
        k(   10) = (  -0.0759910  -0.0838800   0.0000000), wk =   0.1250000

     Initial potential from superposition of free atoms

     starting charge  388.99913, renormalised to  405.00000

     negative rho (up, down):  7.830E-03 0.000E+00

     %%%%%%%%%%%%%%%%%%%%%%%%%%%%%%%%%%%%%%%%%%%%%%%%%%%%%%%%%%%%%%%%%%%%%%%%
     %                                                                      %
     % You are using vdW-DF, which was implemented by the Thonhauser group. %
     % Please cite the following two papers that made this development      %
     % possible and the two reviews that describe the various versions:     %
     %                                                                      %
     %   T. Thonhauser et al., PRL 115, 136402 (2015).                      %
     %   T. Thonhauser et al., PRB 76, 125112 (2007).                       %
     %   K. Berland et al., Rep. Prog. Phys. 78, 066501 (2015).             %
     %   D.C. Langreth et al., J. Phys.: Condens. Matter 21, 084203 (2009). %
     %                                                                      %
     %                                                                      %
     % If you are calculating the stress with vdW-DF, please also cite:     %
     %                                                                      %
     %   R. Sabatini et al., J. Phys.: Condens. Matter 24, 424209 (2012).   %
     %                                                                      %
     %%%%%%%%%%%%%%%%%%%%%%%%%%%%%%%%%%%%%%%%%%%%%%%%%%%%%%%%%%%%%%%%%%%%%%%%

     Adding external electric field

     Computed dipole along edir(3) :
        Dipole              -15.1926 Ry au,        -38.6156 Debye
        Dipole field         -0.0287 Ry au,

        Potential amp.        2.6577 Ry
        Total length         46.3494 bohr

     Starting wfcs are  307 atomic wfcs
  @ DRIVER MODE: Message from server: STATUS
  @ DRIVER MODE: Message from server: POSDATA
  @ DRIVER MODE: Reading and sharing cell
  @ DRIVER MODE: Reading and sharing positions
  @ DRIVER MODE: Received positions

     Self-consistent Calculation

     iteration #  1     ecut=    29.40 Ry     beta= 0.05
     Davidson diagonalization with overlap
     c_bands:  4 eigenvalues not converged
     c_bands:  1 eigenvalues not converged
     c_bands:  1 eigenvalues not converged
     c_bands:  2 eigenvalues not converged
     c_bands:  1 eigenvalues not converged
     c_bands:  2 eigenvalues not converged
     ethr =  1.00E-05,  avg # of iterations = 31.4

[...]

     total energy              =   -2295.11572014 Ry
     estimated scf accuracy    <    7743.14331202 Ry

     iteration #  2     ecut=    29.40 Ry     beta= 0.05
     Davidson diagonalization with overlap
     ethr =  1.00E-02,  avg # of iterations = 22.4

[...]

     iteration # 39     ecut=    29.40 Ry     beta= 0.05
     Davidson diagonalization with overlap
     c_bands:  1 eigenvalues not converged
     ethr =  5.08E-05,  avg # of iterations =  6.8

[...]

     total energy              =   -2976.42351745 Ry
     estimated scf accuracy    <       0.00000017 Ry

     iteration # 84     ecut=    29.40 Ry     beta= 0.05
     Davidson diagonalization with overlap
     ethr =  2.11E-11,  avg # of iterations =  5.0

     negative rho (up, down):  9.595E-03 0.000E+00

     Adding external electric field

     Computed dipole along edir(3) :
        Dipole                0.6313 Ry au,          1.6045 Debye
        Dipole field          0.0012 Ry au,

        Potential amp.       -0.1104 Ry
        Total length         46.3494 bohr

     End of self-consistent calculation

          k = 0.0000 0.0000 0.0000 ( 18029 PWs)   bands (ev):

   -56.5682 -56.5347 -55.6440 -55.6089 -55.4281 -55.3616 -55.2329 -55.1193
   -55.0854 -55.0379 -55.0065 -54.9716 -54.9134 -54.8200 -54.7482 -54.6170
   -32.9869 -32.8387 -32.8106 -32.7477 -32.6575 -32.6140 -32.1257 -31.9030
   -31.8643 -31.8428 -31.7882 -31.7803 -31.7551 -31.6614 -31.6411 -31.5965
   -31.5647 -31.5487 -31.5249 -31.5128 -31.5071 -31.4969 -31.4663 -31.4656
   -31.4418 -31.4235 -31.3583 -31.3233 -31.3013 -31.2956 -31.2430 -31.2356
   -31.2191 -31.1972 -31.1844 -31.1691 -31.1620 -31.1315 -31.1263 -31.0944
   -31.0504 -31.0055 -31.0048 -30.9833 -30.9503 -30.8911 -30.8545 -30.8038
   -16.6715 -16.1196 -16.1084 -15.8847 -15.7621 -15.7571 -15.7138 -15.6458
   -15.4757 -15.4078 -15.3789 -15.3175 -15.1736 -15.0576 -14.9604 -14.7810
   -14.7072 -14.7024 -14.6828 -14.6759 -14.6586 -14.6377 -14.5788 -14.5201
   -14.4778 -14.4129 -14.3699 -14.2234 -14.0232 -13.9975 -13.9465 -13.6167
   -13.5097 -13.5043  -7.7382  -4.2469  -4.0263  -4.0074  -3.7032  -3.5803
    -3.4076  -3.2550  -3.2024  -3.1465  -3.0870  -3.0778  -2.9299  -2.9281
    -2.9163  -2.9081  -2.8315  -2.7729  -2.7079  -2.6211  -2.6055  -2.5110
    -2.4644  -2.3049  -2.2791  -2.1781  -2.1061  -2.1004  -2.0342  -2.0117
    -1.9643  -1.9192  -1.9099  -1.8753  -1.8313  -1.7847  -1.7660  -1.6551
    -1.6480  -1.5822  -1.5759  -1.5531  -1.4397  -1.4198  -1.3499  -1.2049
    -1.1833  -1.1802  -1.1327  -1.1155  -1.0337  -0.9379  -0.8704  -0.8440
    -0.7876  -0.6997  -0.6528  -0.6310  -0.5587  -0.5391  -0.4649  -0.4216
    -0.4080  -0.3878  -0.3462  -0.2313  -0.1446  -0.1117  -0.0581  -0.0324
    -0.0002   0.0238   0.0463   0.0942   0.1645   0.2503   0.2715   0.4101
     0.4626   0.4991   0.5749   0.6093   0.6151   0.7046   0.7363   0.7657
     0.8123   0.8869   0.9017   0.9025   0.9615   1.0457   1.1000   1.1599
     1.1658   1.2006   1.2086   1.2593   1.3475   1.3688   1.4383   1.4933
     1.8173   1.8791   2.4816   2.7262   2.8976   3.1746   3.3664   3.6699
     3.7121   3.7300   3.7302   4.0355

[...]

          k = 0.0380-0.0419 0.0000 ( 17876 PWs)   bands (ev):

[...]

          k =-0.0760-0.0000 0.0000 ( 17886 PWs)   bands (ev):

[...]

          k =-0.0760-0.0839 0.0000 ( 17948 PWs)   bands (ev):

   -56.5521 -56.5507 -55.6316 -55.6211 -55.4235 -55.3661 -55.2321 -55.1029
   -55.1017 -55.0330 -55.0072 -54.9763 -54.9118 -54.8186 -54.7497 -54.6183
   -32.8252 -32.8237 -32.8049 -32.8035 -32.7017 -32.7006 -31.9503 -31.9411
   -31.8260 -31.8208 -31.8149 -31.8132 -31.7229 -31.6800 -31.6547 -31.6417
   -31.5920 -31.5902 -31.5037 -31.4767 -31.4678 -31.4553 -31.4544 -31.3725
   -31.3528 -31.3230 -31.3215 -31.3044 -31.2972 -31.2874 -31.2832 -31.2827
   -31.2546 -31.2356 -31.2182 -31.2030 -31.1992 -31.1611 -31.1609 -31.1048
   -31.0934 -31.0534 -31.0092 -30.9982 -30.9624 -30.9551 -30.8566 -30.8393
   -16.1032 -16.0299 -16.0281 -15.9845 -15.9830 -15.7213 -15.7168 -15.4664
   -15.4371 -15.2582 -15.1539 -15.1299 -15.0864 -15.0447 -14.9740 -14.9198
   -14.8900 -14.8583 -14.8322 -14.7701 -14.7404 -14.6354 -14.6026 -14.5553
   -14.5191 -14.4572 -14.4161 -14.3668 -14.1801 -14.1355 -13.9459 -13.6142
   -13.6137 -13.5291  -7.7374  -4.0370  -4.0075  -3.6939  -3.1589  -3.1059
    -3.1015  -3.0692  -3.0620  -2.9747  -2.8553  -2.8522  -2.7568  -2.6502
    -2.6237  -2.6008  -2.5402  -2.5308  -2.4307  -2.3809  -2.3760  -2.3619
    -2.3256  -2.2959  -2.2894  -2.2296  -2.0914  -2.0755  -2.0259  -1.9719
    -1.8975  -1.8890  -1.8796  -1.8430  -1.8011  -1.7757  -1.7649  -1.7376
    -1.7328  -1.7284  -1.6191  -1.5144  -1.4670  -1.3730  -1.3691  -1.3601
    -1.3220  -1.2949  -1.2615  -1.2550  -1.2262  -1.1461  -1.1199  -1.0504
    -0.9370  -0.9186  -0.8768  -0.8285  -0.7251  -0.7067  -0.6178  -0.5804
    -0.5692  -0.5099  -0.4809  -0.4651  -0.4069  -0.3680  -0.2359  -0.1961
    -0.1843  -0.1675  -0.1449  -0.1087  -0.0475   0.0137   0.0458   0.0480
     0.1524   0.2522   0.3397   0.4091   0.4183   0.4417   0.5262   0.6327
     0.6746   0.6991   0.7471   0.8709   0.9887   1.0186   1.1258   1.1522
     1.1623   1.2605   1.2786   1.2837   1.3037   1.3129   1.3477   1.4141
     1.4750   1.7616   2.3149   3.3188   3.3219   3.3800   3.3856   3.6964
     3.6987   3.8098   3.8149   4.1329

     the Fermi energy is     2.3917 ev

!    total energy              =   -2976.42352697 Ry
     estimated scf accuracy    <       0.00000004 Ry
     smearing contrib. (-TS)   =      -0.01084184 Ry
     internal energy E=F+TS    =   -2976.41268513 Ry

     The total energy is F=E-TS. E is the sum of the following terms:
     one-electron contribution =  -22708.02673831 Ry
     hartree contribution      =   11450.34566744 Ry
     xc contribution           =    -495.34729453 Ry
     ewald contribution        =    8776.61492825 Ry
     electric field correction =       0.00075202 Ry

     convergence has been achieved in  84 iterations

     Forces acting on atoms (cartesian axes, Ry/au):

     atom    1 type  1   force =     0.00002228   -0.00051957    0.12629531
     atom    2 type  1   force =    -0.00009717    0.00041350   -0.15470543
     atom    3 type  2   force =     0.00002669    0.00002672   -0.06829364
     atom    4 type  2   force =     0.00005799   -0.00010904    0.01705306
     atom    5 type  2   force =    -0.00487443   -0.00242799   -0.01324289
     atom    6 type  2   force =     0.00655478   -0.00180603   -0.01376073
     atom    7 type  1   force =    -0.00029379   -0.00661640    0.05920787
     atom    8 type  1   force =     0.00038385    0.00686983    0.10028983
     atom    9 type  2   force =    -0.00002390    0.00066086    0.00129538
     atom   10 type  2   force =    -0.00261503   -0.00001448   -0.06337147
     atom   11 type  2   force =     0.00044010   -0.00068317   -0.00027593
     atom   12 type  2   force =    -0.00085382   -0.00112291   -0.00108859
     atom   13 type  1   force =    -0.00029776    0.00071444   -0.00140281
     atom   14 type  1   force =    -0.00033367   -0.00042156   -0.00023156
     atom   15 type  2   force =    -0.00066050   -0.00039481   -0.00057663
     atom   16 type  2   force =     0.00019898    0.00092599   -0.00036341
     atom   17 type  2   force =     0.00078755    0.00004700   -0.00048597
     atom   18 type  2   force =    -0.00021964   -0.00019225   -0.00001246
     atom   19 type  1   force =    -0.00025035   -0.00013428   -0.00094817
     atom   20 type  1   force =     0.00072800    0.00089867   -0.00049405
     atom   21 type  2   force =     0.00006164    0.00015572    0.09779890
     atom   22 type  2   force =     0.00033791   -0.00033297    0.00144732
     atom   23 type  2   force =    -0.08276051    0.00005493   -0.03313220
     atom   24 type  2   force =     0.08270081    0.00050269   -0.03320877
     atom   25 type  1   force =     0.00006707   -0.00035571    0.12644285
     atom   26 type  1   force =    -0.00011427   -0.00149631   -0.15488018
     atom   27 type  2   force =     0.00011392   -0.00046932   -0.06666907
     atom   28 type  2   force =     0.00004765    0.00167296    0.01199120
     atom   29 type  2   force =    -0.00342683    0.00422050   -0.01621823
     atom   30 type  2   force =     0.00505393    0.00456417   -0.01662037
     atom   31 type  1   force =    -0.00015843    0.00217358    0.04254405
     atom   32 type  1   force =     0.00044335   -0.00893628    0.10086489
     atom   33 type  2   force =    -0.00048623   -0.00013611   -0.00039440
     atom   34 type  2   force =    -0.00212676   -0.00026401   -0.07623303
     atom   35 type  2   force =    -0.00009464    0.00069750    0.00086712
     atom   36 type  2   force =    -0.00050083    0.00051740    0.00039369
     atom   37 type  1   force =     0.00043083    0.00060969   -0.00019534
     atom   38 type  1   force =    -0.00042442   -0.00064421   -0.00067300
     atom   39 type  2   force =     0.00044352   -0.00032288   -0.00039968
     atom   40 type  2   force =     0.00036858   -0.00062682    0.00001252
     atom   41 type  2   force =     0.00026997    0.00054856    0.00004557
     atom   42 type  2   force =    -0.00020878   -0.00017218    0.00013630
     atom   43 type  1   force =     0.00007041    0.00142602   -0.00147294
     atom   44 type  1   force =    -0.00019047   -0.00110511    0.00080927
     atom   45 type  2   force =     0.00009271   -0.00001471    0.09764467
     atom   46 type  2   force =    -0.08280747    0.00003723   -0.03318374
     atom   47 type  2   force =     0.08271373    0.00045605   -0.03319107
     atom   48 type  3   force =     0.00001200    0.00039118    0.00039768
     atom   49 type  3   force =     0.00015255   -0.00002247   -0.00099234
     atom   50 type  4   force =     0.00077638    0.00041717    0.00060405
     atom   51 type  5   force =    -0.00001615   -0.00030830   -0.00057599
     atom   52 type  5   force =     0.00009736    0.00089648   -0.00055285
     atom   53 type  5   force =    -0.00019638    0.00031895    0.00039851
     atom   54 type  5   force =    -0.00008663   -0.00005142    0.00004046
     atom   55 type  5   force =     0.00034096    0.00014797    0.00012004
     atom   56 type  5   force =     0.00012825   -0.00004628    0.00021348
     atom   57 type  2   force =    -0.00835541    0.00031622   -0.00271817
     atom   58 type  5   force =     0.00855052   -0.00093440    0.00365106

     Total force =     0.420850     Total SCF correction =     0.000594
  @ DRIVER MODE: Message from server: STATUS
  @ DRIVER MODE: Message from server: GETFORCE
  @ DRIVER MODE: Returning v,forces,stress,ensemble

     Writing output data file ./calc.save/
  @ DRIVER MODE: Message from server: EXIT
  @ DRIVE MODE: Exiting

     General routines

     Parallel routines

   This run was terminated on:  14:51:17  23Sep2021

   JOB DONE.