     Program PWSCF v.6.7GPU starts on 30Sep2021 at 23: 2: 7

     R & G space division:  proc/nbgrp/npool/nimage =       8
     Reading input from /storage/home/hcoda1/3/ntian30/research/carbon/CxH_vib/pristine/ads_slab/CH2N2_h/out_0030/pw.inp
Warning: card &CELL ignored
Warning: card   CELL_DYNAMICS='IPI', ignored
Warning: card / ignored

     Current dimensions of program PWSCF are:
     Max number of different atomic species (ntypx) = 10
     Max number of k-points (npk) =  40000
     Max angular momentum in pseudopotentials (lmaxx) =  3
     Presently no symmetry can be used with electric field

     Message from routine cell_base_init:
     DEPRECATED: use true lattice parameter, not A to a.u. conversion factor

     IMPORTANT: XC functional enforced from input :
     Exchange-correlation= BEEF-VDW
                           (   1   4  43  14   2   0   0)
     Any further DFT definition will be discarded
     Please, verify this is what you really want

  @ DRIVER MODE: Connecting to
 qe_1139763_3035237.sched-torque.pace.gatech.edun8in4orz_scratch
  using UNIX socket
  @ DRIVER MODE: Message from server: STATUS
  @ DRIVER MODE: Message from server: INIT
  @ DRIVER MODE: Receiving replica           0          -1
  @ DRIVER MODE: Receiving encoded integer          25
  @ DRIVER MODE:  SCF:  T  FORCE:  T  STRESS:  F  VC:  F  ENSEMBLE:  F
  @ DRIVER MODE:  SCF:  T  FORCE:  T  STRESS:  F  VC:  F  ENSEMBLE:  F

     Using Slab Decomposition

     bravais-lattice index     =            0
     lattice parameter (alat)  =       1.8897  a.u.
     unit-cell volume          =    6658.9804 (a.u.)^3
     number of atoms/cell      =           53
     number of atomic types    =            5
     number of electrons       =       400.00
     number of Kohn-Sham states=          210
     kinetic-energy cutoff     =      29.3995  Ry
     charge density cutoff     =     293.9946  Ry
     scf convergence threshold =      7.3E-08
     mixing beta               =       0.0500
     number of iterations used =            8  plain     mixing
     Exchange-correlation= BEEF-VDW
                           (   1   4  43  14   2   0   0)

     celldm(1)=   1.889726  celldm(2)=   0.000000  celldm(3)=   0.000000
     celldm(4)=   0.000000  celldm(5)=   0.000000  celldm(6)=   0.000000

     crystal axes: (cart. coord. in units of alat)
               a(1) = (   6.579727   0.000000   0.000000 )
               a(2) = (  -0.000775   5.961596   0.000000 )
               a(3) = (   0.000000   0.000000  25.155947 )

     reciprocal axes: (cart. coord. in units 2 pi/alat)
               b(1) = (  0.151982  0.000020  0.000000 )
               b(2) = (  0.000000  0.167740  0.000000 )
               b(3) = (  0.000000  0.000000  0.039752 )

     PseudoPot. # 1 for Ti read from file:
     /storage/coda1/p-amedford6/0/shared/rich_project_chbe-medford/medford-share/data/pseudos_module/espresso/nninc/pbe/van/Ti.UPF
     MD5 check sum: 8e4df49b7f0d34bbd5052bf3f5ea0213
     Pseudo is Ultrasoft, Zval = 12.0
     Generated by new atomic code, or converted to UPF format
     Using radial grid of  851 points,  6 beta functions with:
                l(1) =   0
                l(2) =   0
                l(3) =   1
                l(4) =   1
                l(5) =   2
                l(6) =   2
     Q(r) pseudized with  8 coefficients,  rinner =    1.000   1.000   1.000
                                                       1.000   1.000

     PseudoPot. # 2 for O  read from file:
     /storage/coda1/p-amedford6/0/shared/rich_project_chbe-medford/medford-share/data/pseudos_module/espresso/nninc/pbe/van/O.UPF
     MD5 check sum: 78c19812648e8988a0fe644b0f25305e
     Pseudo is Ultrasoft, Zval =  6.0
     Generated by new atomic code, or converted to UPF format
     Using radial grid of  737 points,  4 beta functions with:
                l(1) =   0
                l(2) =   0
                l(3) =   1
                l(4) =   1
     Q(r) pseudized with  8 coefficients,  rinner =    0.800   0.800   0.800

     PseudoPot. # 3 for N  read from file:
     /storage/coda1/p-amedford6/0/shared/rich_project_chbe-medford/medford-share/data/pseudos_module/espresso/nninc/pbe/van/N.UPF
     MD5 check sum: 90d10febe142ad51ac9d5be1deb811c4
     Pseudo is Ultrasoft, Zval =  5.0
     Generated by new atomic code, or converted to UPF format
     Using radial grid of  729 points,  4 beta functions with:
                l(1) =   0
                l(2) =   0
                l(3) =   1
                l(4) =   1
     Q(r) pseudized with  8 coefficients,  rinner =    0.800   0.800   0.800

     PseudoPot. # 4 for C  read from file:
     /storage/coda1/p-amedford6/0/shared/rich_project_chbe-medford/medford-share/data/pseudos_module/espresso/nninc/pbe/van/C.UPF
     MD5 check sum: 1a69bf6b8db32088f5b2163dbdb77a27
     Pseudo is Ultrasoft, Zval =  4.0
     Generated by new atomic code, or converted to UPF format
     Using radial grid of  721 points,  4 beta functions with:
                l(1) =   0
                l(2) =   0
                l(3) =   1
                l(4) =   1
     Q(r) pseudized with  8 coefficients,  rinner =    0.800   0.800   0.800

     PseudoPot. # 5 for H  read from file:
     /storage/coda1/p-amedford6/0/shared/rich_project_chbe-medford/medford-share/data/pseudos_module/espresso/nninc/pbe/van/H.UPF
     MD5 check sum: b5ee9d7bfd3a09ee7748110bda690ff7
     Pseudo is Ultrasoft, Zval =  1.0
     Generated by new atomic code, or converted to UPF format
     Using radial grid of  615 points,  1 beta functions with:
                l(1) =   0
     Q(r) pseudized with  8 coefficients,  rinner =    0.800

     atomic species   valence    mass     pseudopotential
        Ti1           12.00    47.86700     Ti( 1.00)
        O1             6.00    15.99900     O ( 1.00)
        N1             5.00    14.00700     N ( 1.00)
        C1             4.00    12.01100     C ( 1.00)
        H1             1.00     1.00800     H ( 1.00)

     No symmetry found

   Cartesian axes

     site n.     atom                  positions (alat units)
         1           Ti1 tau(   1) = (   0.0004258   2.9801865   6.0000000  )
         2           Ti1 tau(   2) = (   3.2906075   1.4906267   6.0002472  )
         3           O1  tau(   3) = (   0.0006271   0.0005054   7.9858123  )
         4           O1  tau(   4) = (   3.2906025   0.0005020   7.3038282  )
         5           O1  tau(   5) = (   4.5942328   1.4918067   9.2879030  )
         6           O1  tau(   6) = (   1.9868534   1.4903216   9.2879459  )
         7           Ti1 tau(   7) = (   3.2940346   2.8698074   9.1684565  )
         8           Ti1 tau(   8) = (   0.0030225   1.4329613   9.3767462  )
         9           O1  tau(   9) = (   3.2994152   5.9581457  11.3549906  )
        10           O1  tau(  10) = (   6.5730281   5.9481945  10.5612412  )
        11           O1  tau(  11) = (   1.2782729   1.4799297  12.6138410  )
        12           O1  tau(  12) = (   5.2754995   1.4800591  12.6632238  )
        13           Ti1 tau(  13) = (   0.0766946   2.9556037  12.8068061  )
        14           Ti1 tau(  14) = (   3.3903493   1.4788161  12.4952579  )
        15           O1  tau(  15) = (   0.0876507   5.9454885  14.6519752  )
        16           O1  tau(  16) = (   3.2436869   5.9606251  13.9358461  )
        17           O1  tau(  17) = (   4.5879952   1.4894255  15.9985222  )
        18           O1  tau(  18) = (   2.0927145   1.4923104  16.0778241  )
        19           Ti1 tau(  19) = (   3.3818532   2.9747944  15.7863222  )
        20           Ti1 tau(  20) = (   0.1331232   1.5076923  16.1442520  )
        21           O1  tau(  21) = (   3.2904802   0.0005063   4.7018136  )
        22           O1  tau(  22) = (   6.5571263   5.9613239  17.2084283  )
        23           O1  tau(  23) = (   1.3043587   1.4918075   6.0039043  )
        24           O1  tau(  24) = (   5.2767064   1.4903225   6.0039473  )
        25           Ti1 tau(  25) = (   0.0000382   5.9609847   6.0000000  )
        26           Ti1 tau(  26) = (   3.2902200   4.4714249   6.0002472  )
        27           O1  tau(  27) = (   0.0002396   2.9813036   7.9858123  )
        28           O1  tau(  28) = (   3.2902150   2.9813002   7.3038282  )
        29           O1  tau(  29) = (   4.5938453   4.4726049   9.2879030  )
        30           O1  tau(  30) = (   1.9864658   4.4711199   9.2879459  )
        31           Ti1 tau(  31) = (   3.2881238   5.8488574   9.1742270  )
        32           Ti1 tau(  32) = (   0.0015652   4.4122313   9.3797820  )
        33           O1  tau(  33) = (   3.3067820   2.9727102  11.3461643  )
        34           O1  tau(  34) = (   6.5709248   2.9657579  10.5611975  )
        35           O1  tau(  35) = (   1.2701395   4.4574477  12.6080355  )
        36           O1  tau(  36) = (   5.2774107   4.4662555  12.6593532  )
        37           Ti1 tau(  37) = (   0.0866433   5.9395267  12.8007823  )
        38           Ti1 tau(  38) = (   3.3983582   4.4424157  12.5219168  )
        39           O1  tau(  39) = (   0.0671811   2.9517497  14.6463865  )
        40           O1  tau(  40) = (   3.2450650   3.0047677  13.9292835  )
        41           O1  tau(  41) = (   4.5850435   4.4841338  15.8299482  )
        42           O1  tau(  42) = (   2.0023688   4.4342503  16.0865826  )
        43           Ti1 tau(  43) = (   3.3875004   0.1080243  15.7411054  )
        44           Ti1 tau(  44) = (   6.4704293   4.4893485  16.1236300  )
        45           O1  tau(  45) = (   3.2900926   2.9813045   4.7018136  )
        46           O1  tau(  46) = (   6.5000697   2.9773305  17.2009514  )
        47           O1  tau(  47) = (   1.3039711   4.4726057   6.0039043  )
        48           O1  tau(  48) = (   5.2763189   4.4711207   6.0039473  )
        49           N1  tau(  49) = (   3.1734193   5.1894584  17.8228359  )
        50           N1  tau(  50) = (   2.5368264   4.0434087  17.4457212  )
        51           C1  tau(  51) = (   3.6285828   5.3156434  19.0144592  )
        52           H1  tau(  52) = (   3.4938138   4.5389551  19.7603617  )
        53           H1  tau(  53) = (   4.1761532   0.2557294  19.2564809  )

     number of k points=    10  Fermi-Dirac smearing, width (Ry)=  0.0073
                       cart. coord. in units 2pi/alat
        k(    1) = (   0.0000000   0.0000000   0.0000000), wk =   0.1250000
        k(    2) = (   0.0000000   0.0419351   0.0000000), wk =   0.2500000
        k(    3) = (   0.0000000  -0.0838702   0.0000000), wk =   0.1250000
        k(    4) = (   0.0379955   0.0000049   0.0000000), wk =   0.2500000
        k(    5) = (   0.0379955   0.0419400   0.0000000), wk =   0.2500000
        k(    6) = (   0.0379955  -0.0838652   0.0000000), wk =   0.2500000
        k(    7) = (   0.0379955  -0.0419301   0.0000000), wk =   0.2500000
        k(    8) = (  -0.0759910  -0.0000099   0.0000000), wk =   0.1250000
        k(    9) = (  -0.0759910   0.0419252   0.0000000), wk =   0.2500000
        k(   10) = (  -0.0759910  -0.0838800   0.0000000), wk =   0.1250000

     Initial potential from superposition of free atoms

     starting charge  383.99917, renormalised to  400.00000

     negative rho (up, down):  1.731E-02 0.000E+00

     %%%%%%%%%%%%%%%%%%%%%%%%%%%%%%%%%%%%%%%%%%%%%%%%%%%%%%%%%%%%%%%%%%%%%%%%
     %                                                                      %
     % You are using vdW-DF, which was implemented by the Thonhauser group. %
     % Please cite the following two papers that made this development      %
     % possible and the two reviews that describe the various versions:     %
     %                                                                      %
     %   T. Thonhauser et al., PRL 115, 136402 (2015).                      %
     %   T. Thonhauser et al., PRB 76, 125112 (2007).                       %
     %   K. Berland et al., Rep. Prog. Phys. 78, 066501 (2015).             %
     %   D.C. Langreth et al., J. Phys.: Condens. Matter 21, 084203 (2009). %
     %                                                                      %
     %                                                                      %
     % If you are calculating the stress with vdW-DF, please also cite:     %
     %                                                                      %
     %   R. Sabatini et al., J. Phys.: Condens. Matter 24, 424209 (2012).   %
     %                                                                      %
     %%%%%%%%%%%%%%%%%%%%%%%%%%%%%%%%%%%%%%%%%%%%%%%%%%%%%%%%%%%%%%%%%%%%%%%%

     Adding external electric field

     Computed dipole along edir(3) :
        Dipole               -9.1460 Ry au,        -23.2469 Debye
        Dipole field         -0.0173 Ry au,

        Potential amp.        1.6000 Ry
        Total length         46.3494 bohr

     Starting wfcs are  302 atomic wfcs
  @ DRIVER MODE: Message from server: STATUS
  @ DRIVER MODE: Message from server: POSDATA
  @ DRIVER MODE: Reading and sharing cell
  @ DRIVER MODE: Reading and sharing positions
  @ DRIVER MODE: Received positions

     Self-consistent Calculation

     iteration #  1     ecut=    29.40 Ry     beta= 0.05
     Davidson diagonalization with overlap
     c_bands:  1 eigenvalues not converged
     c_bands:  1 eigenvalues not converged
     c_bands:  1 eigenvalues not converged
     c_bands:  2 eigenvalues not converged
     c_bands:  2 eigenvalues not converged
     c_bands:  1 eigenvalues not converged
     c_bands:  2 eigenvalues not converged
     c_bands:  1 eigenvalues not converged
     c_bands:  2 eigenvalues not converged
     ethr =  1.00E-05,  avg # of iterations = 20.0

[...]

     total energy              =   -2546.81760164 Ry
     estimated scf accuracy    <    4699.17280007 Ry

     iteration #  2     ecut=    29.40 Ry     beta= 0.05
     Davidson diagonalization with overlap
     ethr =  1.00E-02,  avg # of iterations = 22.7

[...]

     iteration # 47     ecut=    29.40 Ry     beta= 0.05
     Davidson diagonalization with overlap
     c_bands:  2 eigenvalues not converged
     ethr =  2.28E-07,  avg # of iterations =  8.9

[...]

     total energy              =   -2970.21538933 Ry
     estimated scf accuracy    <       0.00000010 Ry

     iteration # 80     ecut=    29.40 Ry     beta= 0.05
     Davidson diagonalization with overlap
     ethr =  2.56E-11,  avg # of iterations =  1.9

     negative rho (up, down):  1.737E-02 0.000E+00

     Adding external electric field

     Computed dipole along edir(3) :
        Dipole                0.6252 Ry au,          1.5890 Debye
        Dipole field          0.0012 Ry au,

        Potential amp.       -0.1094 Ry
        Total length         46.3494 bohr

     End of self-consistent calculation

          k = 0.0000 0.0000 0.0000 ( 18029 PWs)   bands (ev):

   -56.1813 -56.1478 -55.8545 -55.7944 -55.7560 -55.7304 -55.5837 -55.5563
   -55.5481 -55.5223 -55.4851 -55.4683 -55.4499 -55.4101 -54.9469 -54.9129
   -32.6080 -32.4299 -32.4023 -32.4019 -32.3722 -32.3194 -32.2812 -32.2349
   -32.1552 -32.1227 -32.0854 -32.0519 -32.0451 -32.0178 -32.0138 -31.9899
   -31.9730 -31.9598 -31.9551 -31.9526 -31.9182 -31.9078 -31.8320 -31.8209
   -31.8113 -31.7948 -31.7661 -31.7645 -31.7518 -31.7502 -31.7354 -31.7289
   -31.7138 -31.7060 -31.6934 -31.6710 -31.6625 -31.6573 -31.6422 -31.6215
   -31.5889 -31.5233 -31.3462 -31.2746 -31.2508 -31.1643 -31.0792 -30.9676
   -19.5601 -16.7333 -16.4705 -16.3452 -16.2339 -15.9712 -15.8532 -15.8239
   -15.6550 -15.5434 -15.5219 -15.5072 -15.4713 -15.4226 -15.3797 -15.3229
   -15.3055 -15.2653 -15.2324 -15.2040 -15.1834 -15.1613 -15.1379 -15.0810
   -15.0767 -14.9398 -14.8212 -14.8069 -14.7905 -14.7124 -14.7050 -13.4413
   -13.3282 -11.7672  -7.3097  -5.5290  -5.0086  -4.4926  -3.9214  -3.8302
    -3.7267  -3.6636  -3.5466  -3.3123  -3.2636  -3.1727  -3.0070  -2.9805
    -2.9017  -2.8692  -2.8372  -2.8149  -2.7580  -2.7135  -2.6805  -2.6507
    -2.6150  -2.5893  -2.5744  -2.5412  -2.4945  -2.4310  -2.4023  -2.3620
    -2.3239  -2.2562  -2.1767  -2.1353  -2.1209  -2.0909  -2.0523  -1.9973
    -1.9713  -1.9624  -1.8837  -1.8639  -1.7441  -1.7172  -1.6177  -1.6118
    -1.5154  -1.4605  -1.4343  -1.3866  -1.2300  -1.1846  -1.1410  -1.1111
    -1.0949  -1.0127  -0.9900  -0.9579  -0.7925  -0.7740  -0.7398  -0.7164
    -0.6721  -0.6310  -0.5905  -0.5619  -0.5107  -0.4520  -0.3799  -0.3330
    -0.2209  -0.1692  -0.0983  -0.0739  -0.0574  -0.0168   0.0382   0.0474
     0.0784   0.0789   0.1128   0.1597   0.1729   0.2398   0.2539   0.3257
     0.3538   0.3840   0.4612   0.5937   0.6375   0.6819   0.7806   0.7936
     0.9392   1.0384   1.0798   1.2966   1.3015   1.6638   1.7357   1.8596
     3.0917   3.2726   3.3303   3.5758   3.5986   3.6742   3.7097   3.8402
     3.9061   3.9610

[...]

          k = 0.0380-0.0419 0.0000 ( 17876 PWs)   bands (ev):

[...]

          k =-0.0760-0.0000 0.0000 ( 17886 PWs)   bands (ev):

[...]

          k =-0.0760-0.0839 0.0000 ( 17948 PWs)   bands (ev):

   -56.1650 -56.1640 -55.8518 -55.7827 -55.7676 -55.7330 -55.5699 -55.5619
   -55.5404 -55.5380 -55.4695 -55.4655 -55.4621 -55.4162 -54.9299 -54.9297
   -32.4259 -32.4251 -32.4161 -32.4148 -32.3255 -32.3246 -32.2806 -32.1393
   -32.1375 -32.1099 -32.0969 -32.0842 -32.0417 -32.0231 -32.0025 -31.9944
   -31.9781 -31.9195 -31.8852 -31.8780 -31.8696 -31.8657 -31.8106 -31.8091
   -31.7981 -31.7891 -31.7879 -31.7833 -31.7815 -31.7769 -31.7736 -31.7683
   -31.7512 -31.7483 -31.7289 -31.7246 -31.6847 -31.6816 -31.6739 -31.6691
   -31.6650 -31.6338 -31.2638 -31.2636 -31.1605 -31.1602 -31.1220 -31.1218
   -19.5317 -16.7030 -16.0219 -15.9413 -15.8878 -15.8137 -15.7928 -15.6848
   -15.6726 -15.6462 -15.6449 -15.5385 -15.5281 -15.5168 -15.4845 -15.3500
   -15.3422 -15.3079 -15.2987 -15.2443 -15.2333 -15.1257 -15.1230 -15.1148
   -15.1142 -15.0228 -15.0184 -14.9595 -14.9547 -14.8698 -14.8684 -13.4309
   -13.4304 -11.7664  -7.3031  -5.5215  -4.9212  -4.1352  -3.2422  -3.1549
    -3.0825  -3.0374  -2.9889  -2.9155  -2.8869  -2.8574  -2.7916  -2.7786
    -2.7609  -2.7526  -2.6714  -2.6649  -2.6375  -2.6260  -2.5949  -2.5832
    -2.5516  -2.5462  -2.5434  -2.5078  -2.4948  -2.4939  -2.4804  -2.4707
    -2.4004  -2.3973  -2.3674  -2.3537  -2.3275  -2.0918  -2.0620  -2.0597
    -1.9827  -1.9333  -1.8767  -1.8746  -1.8629  -1.8455  -1.6641  -1.5963
    -1.5629  -1.5393  -1.5088  -1.4805  -1.4495  -1.3348  -1.2967  -1.2254
    -1.2210  -1.1526  -1.0877  -1.0396  -1.0213  -0.9623  -0.9580  -0.9400
    -0.9202  -0.8918  -0.8688  -0.7991  -0.7728  -0.7106  -0.6468  -0.6329
    -0.5284  -0.4802  -0.4675  -0.4541  -0.4363  -0.4069  -0.2960  -0.2895
    -0.0683  -0.0126   0.0583   0.1185   0.1267   0.1799   0.2036   0.3029
     0.3432   0.5068   0.5143   0.5502   0.5868   0.7093   0.7123   0.7438
     0.7569   0.8294   0.8362   1.4666   1.4687   1.5177   1.5183   1.7774
     3.6011   3.6351   3.6387   3.6529   3.6885   3.6926   3.7347   3.7596
     3.9718   4.0154

     the Fermi energy is     2.5482 ev

!    total energy              =   -2970.21540034 Ry
     estimated scf accuracy    <       0.00000007 Ry
     smearing contrib. (-TS)   =      -0.00022180 Ry
     internal energy E=F+TS    =   -2970.21517854 Ry

     The total energy is F=E-TS. E is the sum of the following terms:
     one-electron contribution =  -24504.07868182 Ry
     hartree contribution      =   12342.58740621 Ry
     xc contribution           =    -491.69801902 Ry
     ewald contribution        =    9682.97337853 Ry
     electric field correction =       0.00073757 Ry

     convergence has been achieved in  80 iterations

     Forces acting on atoms (cartesian axes, Ry/au):

     atom    1 type  1   force =     0.00007688   -0.00004650    0.14748676
     atom    2 type  1   force =    -0.00007844   -0.00169293   -0.16799631
     atom    3 type  2   force =    -0.00002868    0.00211904   -0.05939887
     atom    4 type  2   force =    -0.00002446   -0.00154879    0.04197237
     atom    5 type  2   force =    -0.02138011    0.00022429    0.00300766
     atom    6 type  2   force =     0.02079923    0.00096363    0.00408044
     atom    7 type  1   force =    -0.00000925   -0.00126526    0.00043814
     atom    8 type  1   force =     0.00008457   -0.00083593   -0.00050101
     atom    9 type  2   force =     0.00001724   -0.00052078   -0.00024722
     atom   10 type  2   force =     0.00011608   -0.00020387    0.00036376
     atom   11 type  2   force =    -0.00080293   -0.00065001   -0.00052590
     atom   12 type  2   force =    -0.00006200   -0.00027995   -0.00077627
     atom   13 type  1   force =     0.00029609    0.00042301   -0.00051562
     atom   14 type  1   force =    -0.00072092   -0.00046761    0.00021605
     atom   15 type  2   force =    -0.00048005    0.00031238   -0.00104457
     atom   16 type  2   force =     0.00032753    0.00046506   -0.00079226
     atom   17 type  2   force =     0.00016818    0.00015498   -0.00003523
     atom   18 type  2   force =    -0.00072045   -0.00009128   -0.00002510
     atom   19 type  1   force =     0.00121154   -0.00018078   -0.00113900
     atom   20 type  1   force =    -0.00052622   -0.00048081    0.00009442
     atom   21 type  2   force =     0.00004840   -0.00007262    0.10182484
     atom   22 type  2   force =     0.00044713    0.00066193    0.00064172
     atom   23 type  2   force =    -0.07551856    0.00024087   -0.03470742
     atom   24 type  2   force =     0.07548312    0.00069835   -0.03476676
     atom   25 type  1   force =     0.00007524   -0.00019511    0.14779261
     atom   26 type  1   force =    -0.00002141    0.00033672   -0.16803253
     atom   27 type  2   force =     0.00003338    0.00240665   -0.05906665
     atom   28 type  2   force =     0.00011326   -0.00132506    0.04062321
     atom   29 type  2   force =    -0.02166155    0.00009357    0.00329823
     atom   30 type  2   force =     0.02040694    0.00022569    0.00435463
     atom   31 type  1   force =     0.00003221    0.00073797    0.00047527
     atom   32 type  1   force =    -0.00016532    0.00038328   -0.00038589
     atom   33 type  2   force =    -0.00004482    0.00040283   -0.00034562
     atom   34 type  2   force =     0.00021293    0.00005043   -0.00001758
     atom   35 type  2   force =     0.00010819    0.00080468    0.00034597
     atom   36 type  2   force =    -0.00058070   -0.00005115   -0.00046873
     atom   37 type  1   force =     0.00027464   -0.00057332    0.00049912
     atom   38 type  1   force =    -0.00056575   -0.00050617    0.00010399
     atom   39 type  2   force =     0.00023314   -0.00038603    0.00091835
     atom   40 type  2   force =     0.00020972    0.00004752    0.00011056
     atom   41 type  2   force =     0.00044734   -0.00058803   -0.00008052
     atom   42 type  2   force =     0.00077604    0.00004191    0.00143970
     atom   43 type  1   force =     0.00160502   -0.00042080   -0.00064275
     atom   44 type  1   force =     0.00027086    0.00059285   -0.00026114
     atom   45 type  2   force =     0.00004129   -0.00007975    0.10190040
     atom   46 type  2   force =     0.00009984   -0.00056054   -0.00000562
     atom   47 type  2   force =    -0.07554257    0.00003141   -0.03469077
     atom   48 type  2   force =     0.07548995    0.00045271   -0.03479796
     atom   49 type  3   force =    -0.00070602    0.00079638    0.00019970
     atom   50 type  3   force =     0.00039324    0.00099024   -0.00000298
     atom   51 type  4   force =     0.00125531    0.00116535    0.00089506
     atom   52 type  5   force =     0.00013816   -0.00102106   -0.00019992
     atom   53 type  5   force =    -0.00165247   -0.00177963   -0.00161276

     Total force =     0.400948     Total SCF correction =     0.000537
  @ DRIVER MODE: Message from server: STATUS
  @ DRIVER MODE: Message from server: GETFORCE
  @ DRIVER MODE: Returning v,forces,stress,ensemble

     Writing output data file ./calc.save/
  @ DRIVER MODE: Message from server: EXIT
  @ DRIVE MODE: Exiting

     General routines

     Parallel routines

   This run was terminated on:  23:26:15  30Sep2021

   JOB DONE.