     Program PWSCF v.6.7GPU starts on 15Sep2021 at 22:23:31

     R & G space division:  proc/nbgrp/npool/nimage =      10
     Reading input from /storage/home/hcoda1/3/ntian30/research/carbon/CxH_vib/H2O_calc/ads_slab/CHOHH2O_a/out_0020/pw.inp
Warning: card &CELL ignored
Warning: card   CELL_DYNAMICS='IPI', ignored
Warning: card / ignored

     Current dimensions of program PWSCF are:
     Max number of different atomic species (ntypx) = 10
     Max number of k-points (npk) =  40000
     Max angular momentum in pseudopotentials (lmaxx) =  3
     Presently no symmetry can be used with electric field

     Message from routine cell_base_init:
     DEPRECATED: use true lattice parameter, not A to a.u. conversion factor

     IMPORTANT: XC functional enforced from input :
     Exchange-correlation= BEEF-VDW
                           (   1   4  43  14   2   0   0)
     Any further DFT definition will be discarded
     Please, verify this is what you really want

  @ DRIVER MODE: Connecting to
 qe_1139763_2852632.sched-torque.pace.gatech.educvypvpyr_scratch
  using UNIX socket
  @ DRIVER MODE: Message from server: STATUS
  @ DRIVER MODE: Message from server: INIT
  @ DRIVER MODE: Receiving replica           0          -1
  @ DRIVER MODE: Receiving encoded integer          25
  @ DRIVER MODE:  SCF:  T  FORCE:  T  STRESS:  F  VC:  F  ENSEMBLE:  F
  @ DRIVER MODE:  SCF:  T  FORCE:  T  STRESS:  F  VC:  F  ENSEMBLE:  F

     Using Slab Decomposition

     bravais-lattice index     =            0
     lattice parameter (alat)  =       1.8897  a.u.
     unit-cell volume          =    6658.9804 (a.u.)^3
     number of atoms/cell      =           54
     number of atomic types    =            4
     number of electrons       =       398.00
     number of Kohn-Sham states=          209
     kinetic-energy cutoff     =      29.3995  Ry
     charge density cutoff     =     293.9946  Ry
     scf convergence threshold =      7.3E-08
     mixing beta               =       0.0500
     number of iterations used =            8  plain     mixing
     Exchange-correlation= BEEF-VDW
                           (   1   4  43  14   2   0   0)

     celldm(1)=   1.889726  celldm(2)=   0.000000  celldm(3)=   0.000000
     celldm(4)=   0.000000  celldm(5)=   0.000000  celldm(6)=   0.000000

     crystal axes: (cart. coord. in units of alat)
               a(1) = (   6.579727   0.000000   0.000000 )
               a(2) = (  -0.000775   5.961596   0.000000 )
               a(3) = (   0.000000   0.000000  25.155947 )

     reciprocal axes: (cart. coord. in units 2 pi/alat)
               b(1) = (  0.151982  0.000020  0.000000 )
               b(2) = (  0.000000  0.167740  0.000000 )
               b(3) = (  0.000000  0.000000  0.039752 )

     PseudoPot. # 1 for Ti read from file:
     /storage/coda1/p-amedford6/0/shared/rich_project_chbe-medford/medford-share/data/pseudos_module/espresso/nninc/pbe/van/Ti.UPF
     MD5 check sum: 8e4df49b7f0d34bbd5052bf3f5ea0213
     Pseudo is Ultrasoft, Zval = 12.0
     Generated by new atomic code, or converted to UPF format
     Using radial grid of  851 points,  6 beta functions with:
                l(1) =   0
                l(2) =   0
                l(3) =   1
                l(4) =   1
                l(5) =   2
                l(6) =   2
     Q(r) pseudized with  8 coefficients,  rinner =    1.000   1.000   1.000
                                                       1.000   1.000

     PseudoPot. # 2 for O  read from file:
     /storage/coda1/p-amedford6/0/shared/rich_project_chbe-medford/medford-share/data/pseudos_module/espresso/nninc/pbe/van/O.UPF
     MD5 check sum: 78c19812648e8988a0fe644b0f25305e
     Pseudo is Ultrasoft, Zval =  6.0
     Generated by new atomic code, or converted to UPF format
     Using radial grid of  737 points,  4 beta functions with:
                l(1) =   0
                l(2) =   0
                l(3) =   1
                l(4) =   1
     Q(r) pseudized with  8 coefficients,  rinner =    0.800   0.800   0.800

     PseudoPot. # 3 for C  read from file:
     /storage/coda1/p-amedford6/0/shared/rich_project_chbe-medford/medford-share/data/pseudos_module/espresso/nninc/pbe/van/C.UPF
     MD5 check sum: 1a69bf6b8db32088f5b2163dbdb77a27
     Pseudo is Ultrasoft, Zval =  4.0
     Generated by new atomic code, or converted to UPF format
     Using radial grid of  721 points,  4 beta functions with:
                l(1) =   0
                l(2) =   0
                l(3) =   1
                l(4) =   1
     Q(r) pseudized with  8 coefficients,  rinner =    0.800   0.800   0.800

     PseudoPot. # 4 for H  read from file:
     /storage/coda1/p-amedford6/0/shared/rich_project_chbe-medford/medford-share/data/pseudos_module/espresso/nninc/pbe/van/H.UPF
     MD5 check sum: b5ee9d7bfd3a09ee7748110bda690ff7
     Pseudo is Ultrasoft, Zval =  1.0
     Generated by new atomic code, or converted to UPF format
     Using radial grid of  615 points,  1 beta functions with:
                l(1) =   0
     Q(r) pseudized with  8 coefficients,  rinner =    0.800

     atomic species   valence    mass     pseudopotential
        Ti1           12.00    47.86700     Ti( 1.00)
        O1             6.00    15.99900     O ( 1.00)
        C1             4.00    12.01100     C ( 1.00)
        H1             1.00     1.00800     H ( 1.00)

     No symmetry found

   Cartesian axes

     site n.     atom                  positions (alat units)
         1           Ti1 tau(   1) = (   0.0004258   2.9801865   6.0000000  )
         2           Ti1 tau(   2) = (   3.2906075   1.4906267   6.0002472  )
         3           O1  tau(   3) = (   0.0006271   0.0005054   7.9858123  )
         4           O1  tau(   4) = (   3.2906025   0.0005020   7.3038282  )
         5           O1  tau(   5) = (   4.5942328   1.4918067   9.2879030  )
         6           O1  tau(   6) = (   1.9868534   1.4903216   9.2879459  )
         7           Ti1 tau(   7) = (   3.3203992   3.0065636   9.1614972  )
         8           Ti1 tau(   8) = (   0.0364112   1.5055733   9.2692997  )
         9           O1  tau(   9) = (   3.3037507   0.0048223  11.3846665  )
        10           O1  tau(  10) = (   0.0023770   0.0017864  10.5989407  )
        11           O1  tau(  11) = (   1.2986710   1.4943985  12.6419360  )
        12           O1  tau(  12) = (   5.3019195   1.4930987  12.6558330  )
        13           Ti1 tau(  13) = (   0.0201679   2.9954199  12.5459836  )
        14           Ti1 tau(  14) = (   3.3085843   1.4996073  12.5278567  )
        15           O1  tau(  15) = (   0.0306707   0.0063333  14.6434371  )
        16           O1  tau(  16) = (   3.2901280   5.9588824  14.0411263  )
        17           O1  tau(  17) = (   4.5937705   1.5245028  16.1210063  )
        18           O1  tau(  18) = (   2.0412355   1.5396885  16.1535958  )
        19           Ti1 tau(  19) = (   3.3250740   2.9785215  15.7238461  )
        20           Ti1 tau(  20) = (   0.0142243   1.3716099  15.9029131  )
        21           O1  tau(  21) = (   3.2904802   0.0005063   4.7018136  )
        22           O1  tau(  22) = (   0.0234726   5.9563001  17.1693433  )
        23           O1  tau(  23) = (   1.3043587   1.4918075   6.0039043  )
        24           O1  tau(  24) = (   5.2767064   1.4903225   6.0039473  )
        25           Ti1 tau(  25) = (   0.0000382   5.9609847   6.0000000  )
        26           Ti1 tau(  26) = (   3.2902200   4.4714249   6.0002472  )
        27           O1  tau(  27) = (   0.0002396   2.9813036   7.9858123  )
        28           O1  tau(  28) = (   3.2902150   2.9813002   7.3038282  )
        29           O1  tau(  29) = (   4.5938453   4.4726049   9.2879030  )
        30           O1  tau(  30) = (   1.9864658   4.4711199   9.2879459  )
        31           Ti1 tau(  31) = (   3.3166040   0.0254347   9.1556988  )
        32           Ti1 tau(  32) = (   0.0362352   4.4699824   9.2670842  )
        33           O1  tau(  33) = (   3.3035804   2.9865095  11.3763011  )
        34           O1  tau(  34) = (   0.0042610   2.9829788  10.6236548  )
        35           O1  tau(  35) = (   1.2977823   4.4749822  12.6434080  )
        36           O1  tau(  36) = (   5.3021498   4.4756442  12.6578133  )
        37           Ti1 tau(  37) = (   0.0128731   0.0155586  12.4748574  )
        38           Ti1 tau(  38) = (   3.3087006   4.4877506  12.5360639  )
        39           O1  tau(  39) = (   0.0289868   2.9802581  14.8446641  )
        40           O1  tau(  40) = (   3.2975897   2.9808645  13.9396156  )
        41           O1  tau(  41) = (   4.5936103   4.4348319  16.1149158  )
        42           O1  tau(  42) = (   2.0365336   4.4144103  16.1518429  )
        43           Ti1 tau(  43) = (   3.2980932   5.9591119  15.8729608  )
        44           Ti1 tau(  44) = (   0.0070259   4.5936845  15.8821292  )
        45           O1  tau(  45) = (   3.2900926   2.9813045   4.7018136  )
        46           O1  tau(  46) = (   1.3039711   4.4726057   6.0039043  )
        47           O1  tau(  47) = (   5.2763189   4.4711207   6.0039473  )
        48           C1  tau(  48) = (   6.0563806   2.9601134  19.0478501  )
        49           O1  tau(  49) = (   0.1703025   2.9720528  17.8813388  )
        50           H1  tau(  50) = (   5.0099104   2.8626262  18.6876999  )
        51           H1  tau(  51) = (   1.1351272   3.0566160  18.0647747  )
        52           O1  tau(  52) = (   3.2803433   5.9178330  18.2983259  )
        53           H1  tau(  53) = (   4.0549949   5.9397654  18.8787675  )
        54           H1  tau(  54) = (   2.4787048   0.0262026  18.8357284  )

     number of k points=    10  Fermi-Dirac smearing, width (Ry)=  0.0073
                       cart. coord. in units 2pi/alat
        k(    1) = (   0.0000000   0.0000000   0.0000000), wk =   0.1250000
        k(    2) = (   0.0000000   0.0419351   0.0000000), wk =   0.2500000
        k(    3) = (   0.0000000  -0.0838702   0.0000000), wk =   0.1250000
        k(    4) = (   0.0379955   0.0000049   0.0000000), wk =   0.2500000
        k(    5) = (   0.0379955   0.0419400   0.0000000), wk =   0.2500000
        k(    6) = (   0.0379955  -0.0838652   0.0000000), wk =   0.2500000
        k(    7) = (   0.0379955  -0.0419301   0.0000000), wk =   0.2500000
        k(    8) = (  -0.0759910  -0.0000099   0.0000000), wk =   0.1250000
        k(    9) = (  -0.0759910   0.0419252   0.0000000), wk =   0.2500000
        k(   10) = (  -0.0759910  -0.0838800   0.0000000), wk =   0.1250000

     Initial potential from superposition of free atoms

     starting charge  381.99917, renormalised to  398.00000

     negative rho (up, down):  1.670E-02 0.000E+00

     %%%%%%%%%%%%%%%%%%%%%%%%%%%%%%%%%%%%%%%%%%%%%%%%%%%%%%%%%%%%%%%%%%%%%%%%
     %                                                                      %
     % You are using vdW-DF, which was implemented by the Thonhauser group. %
     % Please cite the following two papers that made this development      %
     % possible and the two reviews that describe the various versions:     %
     %                                                                      %
     %   T. Thonhauser et al., PRL 115, 136402 (2015).                      %
     %   T. Thonhauser et al., PRB 76, 125112 (2007).                       %
     %   K. Berland et al., Rep. Prog. Phys. 78, 066501 (2015).             %
     %   D.C. Langreth et al., J. Phys.: Condens. Matter 21, 084203 (2009). %
     %                                                                      %
     %                                                                      %
     % If you are calculating the stress with vdW-DF, please also cite:     %
     %                                                                      %
     %   R. Sabatini et al., J. Phys.: Condens. Matter 24, 424209 (2012).   %
     %                                                                      %
     %%%%%%%%%%%%%%%%%%%%%%%%%%%%%%%%%%%%%%%%%%%%%%%%%%%%%%%%%%%%%%%%%%%%%%%%

     Adding external electric field

     Computed dipole along edir(3) :
        Dipole              -10.5131 Ry au,        -26.7216 Debye
        Dipole field         -0.0198 Ry au,

        Potential amp.        1.8391 Ry
        Total length         46.3494 bohr

     Starting wfcs are  300 atomic wfcs
  @ DRIVER MODE: Message from server: STATUS
  @ DRIVER MODE: Message from server: POSDATA
  @ DRIVER MODE: Reading and sharing cell
  @ DRIVER MODE: Reading and sharing positions
  @ DRIVER MODE: Received positions

     Self-consistent Calculation

     iteration #  1     ecut=    29.40 Ry     beta= 0.05
     Davidson diagonalization with overlap
     c_bands:  2 eigenvalues not converged
     c_bands:  3 eigenvalues not converged
     c_bands:  1 eigenvalues not converged
     c_bands:  4 eigenvalues not converged
     c_bands:  4 eigenvalues not converged
     c_bands:  4 eigenvalues not converged
     c_bands:  1 eigenvalues not converged
     c_bands:  3 eigenvalues not converged
     c_bands:  4 eigenvalues not converged
     ethr =  1.00E-05,  avg # of iterations = 19.9

[...]

     total energy              =   -2479.45305347 Ry
     estimated scf accuracy    <    5441.07224609 Ry

     iteration #  2     ecut=    29.40 Ry     beta= 0.05
     Davidson diagonalization with overlap
     ethr =  1.00E-02,  avg # of iterations = 26.4

[...]

     iteration # 81     ecut=    29.40 Ry     beta= 0.05
     Davidson diagonalization with overlap
     c_bands:  1 eigenvalues not converged
     ethr =  3.83E-11,  avg # of iterations = 12.8

[...]

     total energy              =   -2964.77934149 Ry
     estimated scf accuracy    <       0.00000010 Ry

     iteration # 82     ecut=    29.40 Ry     beta= 0.05
     Davidson diagonalization with overlap
     ethr =  2.62E-11,  avg # of iterations =  7.1

     negative rho (up, down):  1.518E-02 0.000E+00

     Adding external electric field

     Computed dipole along edir(3) :
        Dipole                0.7120 Ry au,          1.8096 Debye
        Dipole field          0.0013 Ry au,

        Potential amp.       -0.1245 Ry
        Total length         46.3494 bohr

     End of self-consistent calculation

          k = 0.0000 0.0000 0.0000 ( 18029 PWs)   bands (ev):

   -55.7033 -55.6901 -55.6670 -55.6648 -55.6557 -55.6049 -55.5534 -55.5515
   -55.5395 -55.5190 -55.5062 -55.4850 -55.4840 -55.4723 -54.7709 -54.7368
   -32.2638 -32.1841 -32.1810 -32.0859 -32.0489 -32.0291 -32.0179 -32.0078
   -31.9792 -31.9440 -31.9339 -31.9189 -31.8948 -31.8874 -31.8803 -31.8611
   -31.8437 -31.8432 -31.8400 -31.8326 -31.8166 -31.8054 -31.8051 -31.7956
   -31.7938 -31.7785 -31.7753 -31.7471 -31.7353 -31.7212 -31.7102 -31.7093
   -31.7045 -31.7000 -31.6938 -31.6858 -31.6536 -31.6522 -31.6473 -31.6434
   -31.6171 -31.5609 -31.1826 -31.0811 -31.0594 -30.9988 -30.9124 -30.8014
   -21.0876 -19.2626 -16.5221 -16.2800 -16.1373 -16.0344 -15.9292 -15.7968
   -15.7099 -15.5864 -15.5232 -15.3963 -15.3569 -15.3516 -15.3449 -15.3165
   -15.2962 -15.2720 -15.2483 -15.2075 -15.2030 -15.1994 -15.1705 -15.1581
   -15.1007 -15.0880 -15.0447 -14.9260 -14.8744 -14.8134 -14.4954 -13.2717
   -13.1525 -10.3000  -7.2231  -5.6816  -4.7225  -4.0062  -3.9441  -3.8133
    -3.7158  -3.6471  -3.6100  -3.5423  -3.4624  -3.2596  -3.1289  -3.1208
    -2.9883  -2.9516  -2.9070  -2.8058  -2.7398  -2.6777  -2.6676  -2.5922
    -2.5876  -2.5793  -2.5661  -2.4741  -2.4679  -2.4193  -2.3776  -2.2985
    -2.2629  -2.1456  -2.1150  -2.1059  -2.0623  -2.0465  -2.0397  -2.0272
    -1.9776  -1.9519  -1.9344  -1.9327  -1.7907  -1.7489  -1.6033  -1.4778
    -1.4458  -1.4311  -1.3056  -1.2649  -1.2485  -1.1911  -1.1704  -1.1604
    -1.1215  -1.0405  -0.9575  -0.9342  -0.8612  -0.8183  -0.7141  -0.6201
    -0.5756  -0.5269  -0.5041  -0.4947  -0.4754  -0.4108  -0.3632  -0.2763
    -0.2224  -0.1599  -0.1324  -0.1255  -0.0709  -0.0407   0.0387   0.0860
     0.1204   0.1344   0.2202   0.2349   0.2473   0.2788   0.2811   0.3941
     0.4479   0.5047   0.5115   0.6598   0.8267   0.8523   0.9315   1.1463
     1.2547   1.2570   1.4180   1.4765   1.8398   1.8940   3.3844   3.4544
     3.4890   3.5031   3.5121   3.5902   3.8210   3.8724   3.9036   3.9225
     3.9321

[...]

          k = 0.0380-0.0419 0.0000 ( 17876 PWs)   bands (ev):

[...]

          k =-0.0760-0.0000 0.0000 ( 17886 PWs)   bands (ev):

[...]

          k =-0.0760-0.0839 0.0000 ( 17948 PWs)   bands (ev):

   -55.6878 -55.6823 -55.6751 -55.6706 -55.6631 -55.5987 -55.5577 -55.5381
   -55.5339 -55.5327 -55.4908 -55.4904 -55.4882 -55.4865 -54.7538 -54.7538
   -32.1060 -32.0741 -32.0630 -32.0012 -31.9969 -31.9783 -31.9692 -31.9600
   -31.9581 -31.9335 -31.9324 -31.9074 -31.8983 -31.8701 -31.8562 -31.8546
   -31.8531 -31.8446 -31.8399 -31.8359 -31.8280 -31.8205 -31.8034 -31.8007
   -31.7978 -31.7956 -31.7954 -31.7941 -31.7907 -31.7828 -31.7806 -31.7508
   -31.7366 -31.7362 -31.7208 -31.7118 -31.7099 -31.7046 -31.6792 -31.6744
   -31.6733 -31.6502 -31.0720 -31.0720 -30.9954 -30.9950 -30.9557 -30.9555
   -21.0863 -19.2622 -16.1530 -15.9580 -15.8074 -15.7230 -15.7163 -15.6573
   -15.5773 -15.5360 -15.4905 -15.4783 -15.4680 -15.4334 -15.4250 -15.4134
   -15.3507 -15.3002 -15.2967 -15.2813 -15.2322 -15.2245 -15.2140 -15.2084
   -15.1996 -15.1567 -15.1525 -15.1378 -15.1270 -14.9837 -14.8272 -13.2540
   -13.2532 -10.3034  -7.2207  -5.6848  -4.7006  -3.9352  -3.8731  -3.2330
    -3.2306  -2.9689  -2.9466  -2.8882  -2.8765  -2.8124  -2.7812  -2.7053
    -2.6989  -2.6539  -2.6134  -2.6051  -2.5921  -2.5679  -2.5346  -2.5217
    -2.4793  -2.4697  -2.4436  -2.4397  -2.4201  -2.4041  -2.3790  -2.3731
    -2.3409  -2.3208  -2.3131  -2.3095  -2.2327  -2.1700  -2.0471  -2.0255
    -1.9845  -1.9353  -1.9197  -1.8491  -1.8133  -1.7986  -1.7409  -1.7067
    -1.6808  -1.5068  -1.4952  -1.4747  -1.3839  -1.3510  -1.3392  -1.3106
    -1.2548  -1.2249  -1.2211  -1.1432  -1.0320  -1.0095  -0.9106  -0.8651
    -0.8639  -0.7757  -0.7418  -0.7031  -0.7011  -0.6645  -0.6076  -0.5859
    -0.5289  -0.5235  -0.4758  -0.4549  -0.4313  -0.4006  -0.2281  -0.1727
    -0.1172  -0.0198   0.0089   0.2360   0.2673   0.2745   0.3399   0.3708
     0.4764   0.4982   0.5612   0.5763   0.6775   0.7085   0.7258   0.7307
     0.7769   1.4841   1.6065   1.6092   1.7080   1.7117   3.5341   3.5478
     3.6494   3.7013   3.7387   3.8418   3.8912   3.9229   3.9311   3.9458
     4.0208

     the Fermi energy is     3.4324 ev

!    total energy              =   -2964.77935718 Ry
     estimated scf accuracy    <       0.00000004 Ry
     smearing contrib. (-TS)   =      -0.03745916 Ry
     internal energy E=F+TS    =   -2964.74189802 Ry

     The total energy is F=E-TS. E is the sum of the following terms:
     one-electron contribution =  -24112.31477641 Ry
     hartree contribution      =   12146.39241160 Ry
     xc contribution           =    -490.01211826 Ry
     ewald contribution        =    9491.19162850 Ry
     electric field correction =       0.00095654 Ry

     convergence has been achieved in  82 iterations

     Forces acting on atoms (cartesian axes, Ry/au):

     atom    1 type  1   force =    -0.00035858   -0.00001685    0.09251981
     atom    2 type  1   force =    -0.00033434    0.00122042   -0.18263924
     atom    3 type  2   force =     0.00043576    0.00022888   -0.02456601
     atom    4 type  2   force =     0.00073507    0.00044895    0.05163546
     atom    5 type  2   force =    -0.01466403   -0.00007701    0.00465806
     atom    6 type  2   force =     0.01554175   -0.00057035    0.00541049
     atom    7 type  1   force =    -0.00050125   -0.00016778    0.00010060
     atom    8 type  1   force =     0.00021492    0.00002661    0.00022920
     atom    9 type  2   force =    -0.00016905   -0.00017348   -0.00030000
     atom   10 type  2   force =     0.00006415   -0.00004310    0.00031452
     atom   11 type  2   force =    -0.00031455    0.00019973    0.00003414
     atom   12 type  2   force =     0.00038538    0.00006859   -0.00021400
     atom   13 type  1   force =    -0.00021392   -0.00026247    0.00022501
     atom   14 type  1   force =     0.00013611   -0.00021943   -0.00048938
     atom   15 type  2   force =    -0.00030927    0.00032475   -0.00013458
     atom   16 type  2   force =     0.00007558    0.00001623   -0.00026226
     atom   17 type  2   force =    -0.00009984   -0.00012733    0.00020995
     atom   18 type  2   force =     0.00012709   -0.00003759   -0.00017889
     atom   19 type  1   force =    -0.00087594    0.00005480   -0.00045916
     atom   20 type  1   force =     0.00033010    0.00010985    0.00003821
     atom   21 type  2   force =    -0.00009722    0.00005686    0.10491562
     atom   22 type  2   force =    -0.00032214   -0.00000975    0.00044069
     atom   23 type  2   force =    -0.06833979    0.00002788   -0.02693455
     atom   24 type  2   force =     0.06803364    0.00046103   -0.02701037
     atom   25 type  1   force =    -0.00030449   -0.00001333    0.09718411
     atom   26 type  1   force =    -0.00030529   -0.00120316   -0.18268787
     atom   27 type  2   force =     0.00034984    0.00023526   -0.02298581
     atom   28 type  2   force =     0.00081578    0.00042697    0.05201764
     atom   29 type  2   force =    -0.01464675    0.00065027    0.00458291
     atom   30 type  2   force =     0.01566479    0.00040181    0.00531377
     atom   31 type  1   force =    -0.00046047    0.00000644    0.00011781
     atom   32 type  1   force =     0.00021637    0.00008915    0.00021071
     atom   33 type  2   force =    -0.00008522    0.00012828    0.00017170
     atom   34 type  2   force =     0.00001209    0.00001470    0.00014064
     atom   35 type  2   force =    -0.00015297   -0.00029513    0.00012362
     atom   36 type  2   force =     0.00022379   -0.00018950   -0.00010860
     atom   37 type  1   force =    -0.00029889    0.00016376   -0.00046465
     atom   38 type  1   force =     0.00013080    0.00037554   -0.00038232
     atom   39 type  2   force =    -0.00035149   -0.00027706   -0.00018406
     atom   40 type  2   force =     0.00017796   -0.00008514   -0.00002352
     atom   41 type  2   force =    -0.00033533   -0.00012303   -0.00015677
     atom   42 type  2   force =     0.00035120   -0.00021288   -0.00051226
     atom   43 type  1   force =    -0.00082157   -0.00024913   -0.00002526
     atom   44 type  1   force =     0.00032265   -0.00067682    0.00012064
     atom   45 type  2   force =    -0.00007198    0.00005323    0.10481014
     atom   46 type  2   force =    -0.06832200   -0.00060278   -0.02692343
     atom   47 type  2   force =     0.06802529   -0.00013777   -0.02699933
     atom   48 type  3   force =     0.00087075   -0.00007137   -0.00062928
     atom   49 type  2   force =     0.01563909    0.00130087    0.00346428
     atom   50 type  4   force =     0.00015165    0.00022222   -0.00042094
     atom   51 type  4   force =    -0.01658608   -0.00143563   -0.00315222
     atom   52 type  2   force =     0.00004005   -0.00112276    0.00086958
     atom   53 type  4   force =    -0.00023758    0.00058722   -0.00042253
     atom   54 type  4   force =     0.00050839    0.00050034   -0.00059204

     Total force =     0.369211     Total SCF correction =     0.000448
  @ DRIVER MODE: Message from server: STATUS
  @ DRIVER MODE: Message from server: GETFORCE
  @ DRIVER MODE: Returning v,forces,stress,ensemble

     Writing output data file ./calc.save/
  @ DRIVER MODE: Message from server: EXIT
  @ DRIVE MODE: Exiting

     General routines

     Parallel routines

   This run was terminated on:  22:44:52  15Sep2021

   JOB DONE.