     Program PWSCF v.6.7GPU starts on 26Sep2021 at 14:57:29

     R & G space division:  proc/nbgrp/npool/nimage =       8
     Reading input from /storage/home/hcoda1/3/ntian30/research/carbon/CxH_vib/CH_calc/ads_slab/CHONHNH2_b/out_0008/pw.inp
Warning: card &CELL ignored
Warning: card   CELL_DYNAMICS='IPI', ignored
Warning: card / ignored

     Current dimensions of program PWSCF are:
     Max number of different atomic species (ntypx) = 10
     Max number of k-points (npk) =  40000
     Max angular momentum in pseudopotentials (lmaxx) =  3
     Presently no symmetry can be used with electric field

     Message from routine cell_base_init:
     DEPRECATED: use true lattice parameter, not A to a.u. conversion factor

     IMPORTANT: XC functional enforced from input :
     Exchange-correlation= BEEF-VDW
                           (   1   4  43  14   2   0   0)
     Any further DFT definition will be discarded
     Please, verify this is what you really want

  @ DRIVER MODE: Connecting to
 qe_1139763_2982672.sched-torque.pace.gatech.edufzsmsnpi_scratch
  using UNIX socket
  @ DRIVER MODE: Message from server: STATUS
  @ DRIVER MODE: Message from server: INIT
  @ DRIVER MODE: Receiving replica           0          -1
  @ DRIVER MODE: Receiving encoded integer          25
  @ DRIVER MODE:  SCF:  T  FORCE:  T  STRESS:  F  VC:  F  ENSEMBLE:  F
  @ DRIVER MODE:  SCF:  T  FORCE:  T  STRESS:  F  VC:  F  ENSEMBLE:  F

     Using Slab Decomposition

     bravais-lattice index     =            0
     lattice parameter (alat)  =       1.8897  a.u.
     unit-cell volume          =    6658.9804 (a.u.)^3
     number of atoms/cell      =           55
     number of atomic types    =            5
     number of electrons       =       402.00
     number of Kohn-Sham states=          211
     kinetic-energy cutoff     =      29.3995  Ry
     charge density cutoff     =     293.9946  Ry
     scf convergence threshold =      7.3E-08
     mixing beta               =       0.0500
     number of iterations used =            8  plain     mixing
     Exchange-correlation= BEEF-VDW
                           (   1   4  43  14   2   0   0)

     celldm(1)=   1.889726  celldm(2)=   0.000000  celldm(3)=   0.000000
     celldm(4)=   0.000000  celldm(5)=   0.000000  celldm(6)=   0.000000

     crystal axes: (cart. coord. in units of alat)
               a(1) = (   6.579727   0.000000   0.000000 )
               a(2) = (  -0.000775   5.961596   0.000000 )
               a(3) = (   0.000000   0.000000  25.155947 )

     reciprocal axes: (cart. coord. in units 2 pi/alat)
               b(1) = (  0.151982  0.000020  0.000000 )
               b(2) = (  0.000000  0.167740  0.000000 )
               b(3) = (  0.000000  0.000000  0.039752 )

     PseudoPot. # 1 for O  read from file:
     /storage/coda1/p-amedford6/0/shared/rich_project_chbe-medford/medford-share/data/pseudos_module/espresso/nninc/pbe/van/O.UPF
     MD5 check sum: 78c19812648e8988a0fe644b0f25305e
     Pseudo is Ultrasoft, Zval =  6.0
     Generated by new atomic code, or converted to UPF format
     Using radial grid of  737 points,  4 beta functions with:
                l(1) =   0
                l(2) =   0
                l(3) =   1
                l(4) =   1
     Q(r) pseudized with  8 coefficients,  rinner =    0.800   0.800   0.800

     PseudoPot. # 2 for Ti read from file:
     /storage/coda1/p-amedford6/0/shared/rich_project_chbe-medford/medford-share/data/pseudos_module/espresso/nninc/pbe/van/Ti.UPF
     MD5 check sum: 8e4df49b7f0d34bbd5052bf3f5ea0213
     Pseudo is Ultrasoft, Zval = 12.0
     Generated by new atomic code, or converted to UPF format
     Using radial grid of  851 points,  6 beta functions with:
                l(1) =   0
                l(2) =   0
                l(3) =   1
                l(4) =   1
                l(5) =   2
                l(6) =   2
     Q(r) pseudized with  8 coefficients,  rinner =    1.000   1.000   1.000
                                                       1.000   1.000

     PseudoPot. # 3 for N  read from file:
     /storage/coda1/p-amedford6/0/shared/rich_project_chbe-medford/medford-share/data/pseudos_module/espresso/nninc/pbe/van/N.UPF
     MD5 check sum: 90d10febe142ad51ac9d5be1deb811c4
     Pseudo is Ultrasoft, Zval =  5.0
     Generated by new atomic code, or converted to UPF format
     Using radial grid of  729 points,  4 beta functions with:
                l(1) =   0
                l(2) =   0
                l(3) =   1
                l(4) =   1
     Q(r) pseudized with  8 coefficients,  rinner =    0.800   0.800   0.800

     PseudoPot. # 4 for H  read from file:
     /storage/coda1/p-amedford6/0/shared/rich_project_chbe-medford/medford-share/data/pseudos_module/espresso/nninc/pbe/van/H.UPF
     MD5 check sum: b5ee9d7bfd3a09ee7748110bda690ff7
     Pseudo is Ultrasoft, Zval =  1.0
     Generated by new atomic code, or converted to UPF format
     Using radial grid of  615 points,  1 beta functions with:
                l(1) =   0
     Q(r) pseudized with  8 coefficients,  rinner =    0.800

     PseudoPot. # 5 for C  read from file:
     /storage/coda1/p-amedford6/0/shared/rich_project_chbe-medford/medford-share/data/pseudos_module/espresso/nninc/pbe/van/C.UPF
     MD5 check sum: 1a69bf6b8db32088f5b2163dbdb77a27
     Pseudo is Ultrasoft, Zval =  4.0
     Generated by new atomic code, or converted to UPF format
     Using radial grid of  721 points,  4 beta functions with:
                l(1) =   0
                l(2) =   0
                l(3) =   1
                l(4) =   1
     Q(r) pseudized with  8 coefficients,  rinner =    0.800   0.800   0.800

     atomic species   valence    mass     pseudopotential
        O1             6.00    15.99900     O ( 1.00)
        Ti1           12.00    47.86700     Ti( 1.00)
        N1             5.00    14.00700     N ( 1.00)
        H1             1.00     1.00800     H ( 1.00)
        C1             4.00    12.01100     C ( 1.00)

     No symmetry found

   Cartesian axes

     site n.     atom                  positions (alat units)
         1           O1  tau(   1) = (   3.2904802   0.0005063   4.7018136  )
         2           O1  tau(   2) = (   3.2900926   2.9813045   4.7018136  )
         3           Ti1 tau(   3) = (   0.0004258   2.9801865   6.0000000  )
         4           Ti1 tau(   4) = (   0.0000382   5.9609847   6.0000000  )
         5           Ti1 tau(   5) = (   3.2906075   1.4906267   6.0002472  )
         6           Ti1 tau(   6) = (   3.2902200   4.4714249   6.0002472  )
         7           O1  tau(   7) = (   1.3043587   1.4918075   6.0039043  )
         8           O1  tau(   8) = (   1.3039711   4.4726057   6.0039043  )
         9           O1  tau(   9) = (   5.2767064   1.4903225   6.0039473  )
        10           O1  tau(  10) = (   5.2763189   4.4711207   6.0039473  )
        11           O1  tau(  11) = (   3.2906025   0.0005020   7.3038282  )
        12           O1  tau(  12) = (   3.2902150   2.9813002   7.3038282  )
        13           O1  tau(  13) = (   0.0006271   0.0005054   7.9858123  )
        14           O1  tau(  14) = (   0.0002396   2.9813036   7.9858123  )
        15           Ti1 tau(  15) = (   3.2907910   2.8959150   9.1758416  )
        16           Ti1 tau(  16) = (   3.2891106   5.8743827   9.1763621  )
        17           Ti1 tau(  17) = (   0.0015273   1.4827037   9.2680791  )
        18           Ti1 tau(  18) = (   0.0006254   4.4649316   9.2693709  )
        19           O1  tau(  19) = (   4.5942328   1.4918067   9.2879030  )
        20           O1  tau(  20) = (   4.5938453   4.4726049   9.2879030  )
        21           O1  tau(  21) = (   1.9868534   1.4903216   9.2879459  )
        22           O1  tau(  22) = (   1.9864658   4.4711199   9.2879459  )
        23           O1  tau(  23) = (   0.0116148   5.9584955  10.6183126  )
        24           O1  tau(  24) = (   0.0092240   2.9805883  10.6323155  )
        25           O1  tau(  25) = (   3.2729272   2.9749101  11.3358637  )
        26           O1  tau(  26) = (   3.2774458   5.9577983  11.3358029  )
        27           Ti1 tau(  27) = (   6.5123228   0.0223980  12.5466522  )
        28           Ti1 tau(  28) = (   6.5139447   2.9993280  12.6164542  )
        29           Ti1 tau(  29) = (   3.1950650   4.4673527  12.4897579  )
        30           Ti1 tau(  30) = (   3.1950454   1.4921031  12.4944583  )
        31           O1  tau(  31) = (   5.2839716   4.4726476  12.6140382  )
        32           O1  tau(  32) = (   1.2968206   4.4781603  12.6268461  )
        33           O1  tau(  33) = (   5.2856119   1.4917077  12.6233973  )
        34           O1  tau(  34) = (   1.2888650   1.4770595  12.6372879  )
        35           O1  tau(  35) = (   3.2788258   2.9629383  13.9230881  )
        36           O1  tau(  36) = (   3.2980453   5.9500611  13.9147740  )
        37           O1  tau(  37) = (   6.5334376   5.9389224  14.6738689  )
        38           O1  tau(  38) = (   6.5776160   3.0156023  14.6540868  )
        39           Ti1 tau(  39) = (   3.2542760   2.9504115  15.7371360  )
        40           Ti1 tau(  40) = (   3.3062714   5.9309079  15.7116640  )
        41           Ti1 tau(  41) = (   6.5650095   1.2976281  16.1142359  )
        42           Ti1 tau(  42) = (   0.0079766   4.4268374  15.8391656  )
        43           O1  tau(  43) = (   2.0280489   1.4492115  16.0660627  )
        44           O1  tau(  44) = (   4.5116609   1.4624326  16.0993158  )
        45           O1  tau(  45) = (   2.0244938   4.4513709  16.0356871  )
        46           O1  tau(  46) = (   4.5113612   4.4342832  16.0730653  )
        47           O1  tau(  47) = (   6.5716746   5.9215154  17.2308814  )
        48           N1  tau(  48) = (   5.9800345   2.9984367  18.5879729  )
        49           H1  tau(  49) = (   4.9897160   2.8240766  18.4383897  )
        50           H1  tau(  50) = (   1.6245422   1.3425840  19.0439533  )
        51           H1  tau(  51) = (   6.0578502   3.9810051  18.8619266  )
        52           N1  tau(  52) = (   2.1403542   1.9713023  19.6616680  )
        53           C1  tau(  53) = (   2.8938676   2.8537551  19.2737185  )
        54           H1  tau(  54) = (   3.3792091   3.5764479  19.9483559  )
        55           O1  tau(  55) = (   6.5521836   2.9666373  17.2729174  )

     number of k points=    10  Fermi-Dirac smearing, width (Ry)=  0.0073
                       cart. coord. in units 2pi/alat
        k(    1) = (   0.0000000   0.0000000   0.0000000), wk =   0.1250000
        k(    2) = (   0.0000000   0.0419351   0.0000000), wk =   0.2500000
        k(    3) = (   0.0000000  -0.0838702   0.0000000), wk =   0.1250000
        k(    4) = (   0.0379955   0.0000049   0.0000000), wk =   0.2500000
        k(    5) = (   0.0379955   0.0419400   0.0000000), wk =   0.2500000
        k(    6) = (   0.0379955  -0.0838652   0.0000000), wk =   0.2500000
        k(    7) = (   0.0379955  -0.0419301   0.0000000), wk =   0.2500000
        k(    8) = (  -0.0759910  -0.0000099   0.0000000), wk =   0.1250000
        k(    9) = (  -0.0759910   0.0419252   0.0000000), wk =   0.2500000
        k(   10) = (  -0.0759910  -0.0838800   0.0000000), wk =   0.1250000

     Initial potential from superposition of free atoms

     starting charge  385.99915, renormalised to  402.00000

     negative rho (up, down):  1.542E-02 0.000E+00

     %%%%%%%%%%%%%%%%%%%%%%%%%%%%%%%%%%%%%%%%%%%%%%%%%%%%%%%%%%%%%%%%%%%%%%%%
     %                                                                      %
     % You are using vdW-DF, which was implemented by the Thonhauser group. %
     % Please cite the following two papers that made this development      %
     % possible and the two reviews that describe the various versions:     %
     %                                                                      %
     %   T. Thonhauser et al., PRL 115, 136402 (2015).                      %
     %   T. Thonhauser et al., PRB 76, 125112 (2007).                       %
     %   K. Berland et al., Rep. Prog. Phys. 78, 066501 (2015).             %
     %   D.C. Langreth et al., J. Phys.: Condens. Matter 21, 084203 (2009). %
     %                                                                      %
     %                                                                      %
     % If you are calculating the stress with vdW-DF, please also cite:     %
     %                                                                      %
     %   R. Sabatini et al., J. Phys.: Condens. Matter 24, 424209 (2012).   %
     %                                                                      %
     %%%%%%%%%%%%%%%%%%%%%%%%%%%%%%%%%%%%%%%%%%%%%%%%%%%%%%%%%%%%%%%%%%%%%%%%

     Adding external electric field

     Computed dipole along edir(3) :
        Dipole              -12.8629 Ry au,        -32.6941 Debye
        Dipole field         -0.0243 Ry au,

        Potential amp.        2.2502 Ry
        Total length         46.3494 bohr

     Starting wfcs are  304 atomic wfcs
  @ DRIVER MODE: Message from server: STATUS
  @ DRIVER MODE: Message from server: POSDATA
  @ DRIVER MODE: Reading and sharing cell
  @ DRIVER MODE: Reading and sharing positions
  @ DRIVER MODE: Received positions

     Self-consistent Calculation

     iteration #  1     ecut=    29.40 Ry     beta= 0.05
     Davidson diagonalization with overlap
     c_bands:  5 eigenvalues not converged
     c_bands:  2 eigenvalues not converged
     c_bands:  2 eigenvalues not converged
     c_bands:  5 eigenvalues not converged
     c_bands:  3 eigenvalues not converged
     c_bands:  3 eigenvalues not converged
     c_bands:  2 eigenvalues not converged
     c_bands:  3 eigenvalues not converged
     c_bands:  1 eigenvalues not converged
     ethr =  1.00E-05,  avg # of iterations = 21.5

[...]

     total energy              =   -2369.71877665 Ry
     estimated scf accuracy    <    6837.16185801 Ry

     iteration #  2     ecut=    29.40 Ry     beta= 0.05
     Davidson diagonalization with overlap
     ethr =  1.00E-02,  avg # of iterations = 23.6

[...]

     iteration # 65     ecut=    29.40 Ry     beta= 0.05
     Davidson diagonalization with overlap
     c_bands:  1 eigenvalues not converged
     ethr =  5.31E-10,  avg # of iterations = 12.5

[...]

     total energy              =   -2972.58413419 Ry
     estimated scf accuracy    <       0.00000025 Ry

     iteration # 72     ecut=    29.40 Ry     beta= 0.05
     Davidson diagonalization with overlap
     ethr =  3.88E-11,  avg # of iterations = 10.3

     negative rho (up, down):  1.520E-02 0.000E+00

     Adding external electric field

     Computed dipole along edir(3) :
        Dipole                0.4811 Ry au,          1.2227 Debye
        Dipole field          0.0009 Ry au,

        Potential amp.       -0.0842 Ry
        Total length         46.3494 bohr

     End of self-consistent calculation

          k = 0.0000 0.0000 0.0000 ( 18029 PWs)   bands (ev):

   -55.8903 -55.8706 -55.8563 -55.8325 -55.7512 -55.7313 -55.7161 -55.7018
   -55.6895 -55.6677 -55.6664 -55.6324 -55.5208 -55.3071 -54.8691 -54.8351
   -32.4158 -32.3730 -32.2497 -32.2007 -32.1911 -32.1830 -32.1670 -32.1566
   -32.1336 -32.1010 -32.0557 -32.0451 -32.0426 -32.0402 -32.0245 -32.0037
   -31.9966 -31.9949 -31.9838 -31.9714 -31.9605 -31.9491 -31.9476 -31.9054
   -31.8982 -31.8930 -31.8911 -31.8814 -31.8710 -31.8665 -31.8625 -31.8422
   -31.8327 -31.8195 -31.8086 -31.7987 -31.7785 -31.7578 -31.7264 -31.5772
   -31.5390 -31.5214 -31.2762 -31.1879 -31.1654 -31.0930 -31.0065 -30.8954
   -18.6659 -16.6117 -16.3611 -16.1190 -16.0380 -16.0032 -15.8844 -15.8513
   -15.7288 -15.6179 -15.5236 -15.4481 -15.4285 -15.4271 -15.3876 -15.3767
   -15.3503 -15.3351 -15.3261 -15.3090 -15.2848 -15.2483 -15.2332 -15.2262
   -15.1355 -15.0586 -15.0248 -14.9779 -14.9720 -14.9480 -14.5609 -13.3714
   -13.2550 -12.2632  -8.1488  -5.3481  -4.9581  -4.5217  -3.9858  -3.8470
    -3.7963  -3.7287  -3.6859  -3.5095  -3.3995  -3.1444  -3.0705  -3.0504
    -3.0276  -2.9806  -2.8771  -2.7990  -2.7020  -2.6965  -2.6946  -2.6607
    -2.6511  -2.6339  -2.5925  -2.5719  -2.5050  -2.4329  -2.3971  -2.2898
    -2.2815  -2.2469  -2.2031  -2.1940  -2.1499  -2.1286  -2.1137  -2.1082
    -2.0944  -2.0562  -2.0238  -1.9144  -1.8778  -1.7969  -1.6833  -1.6075
    -1.4991  -1.4854  -1.3648  -1.3564  -1.3321  -1.3174  -1.2830  -1.2342
    -1.1786  -1.0757  -1.0476  -1.0169  -1.0111  -0.9108  -0.8516  -0.8272
    -0.7621  -0.6890  -0.6626  -0.6498  -0.6395  -0.6074  -0.3905  -0.3482
    -0.3287  -0.2963  -0.2498  -0.1960  -0.1581  -0.1110  -0.0715  -0.0051
     0.0038   0.0556   0.0800   0.0929   0.1091   0.1199   0.1361   0.2328
     0.3236   0.3618   0.3831   0.4589   0.4637   0.6364   0.7024   0.7657
     0.8769   1.0792   1.1531   1.2375   1.3452   1.7242   1.7596   1.7700
     3.2387   3.2408   3.3314   3.3737   3.3823   3.4828   3.5345   3.6952
     3.7283   3.7604   3.7995

[...]

          k = 0.0380-0.0419 0.0000 ( 17876 PWs)   bands (ev):

[...]

          k =-0.0760-0.0000 0.0000 ( 17886 PWs)   bands (ev):

[...]

          k =-0.0760-0.0839 0.0000 ( 17948 PWs)   bands (ev):

   -55.8737 -55.8727 -55.8578 -55.8450 -55.7374 -55.7299 -55.7221 -55.6985
   -55.6858 -55.6832 -55.6520 -55.6470 -55.5195 -55.3083 -54.8521 -54.8520
   -32.2262 -32.2130 -32.1887 -32.1879 -32.1688 -32.1679 -32.1194 -32.1110
   -32.0937 -32.0845 -32.0463 -32.0373 -32.0173 -32.0094 -32.0059 -32.0044
   -31.9981 -31.9934 -31.9923 -31.9900 -31.9862 -31.9833 -31.9486 -31.9465
   -31.9406 -31.9242 -31.9173 -31.9079 -31.8860 -31.8848 -31.8827 -31.8823
   -31.8765 -31.8664 -31.8630 -31.8609 -31.8553 -31.7555 -31.7296 -31.6480
   -31.5684 -31.5286 -31.1782 -31.1781 -31.0890 -31.0889 -31.0498 -31.0497
   -18.6508 -16.0305 -16.0092 -15.8860 -15.8458 -15.8093 -15.7698 -15.7580
   -15.6820 -15.6015 -15.5807 -15.5760 -15.4945 -15.4760 -15.4627 -15.4272
   -15.4144 -15.4040 -15.3982 -15.3593 -15.3477 -15.3385 -15.3301 -15.3225
   -15.2456 -15.2095 -15.2047 -15.1902 -15.0796 -14.9541 -14.7375 -13.3569
   -13.3566 -12.2759  -8.1491  -5.3432  -4.9641  -4.4477  -3.3170  -3.2844
    -3.1034  -3.0200  -3.0045  -2.9866  -2.8765  -2.8002  -2.7939  -2.7582
    -2.7269  -2.7196  -2.7095  -2.7067  -2.6829  -2.6724  -2.6224  -2.6011
    -2.5881  -2.5620  -2.5497  -2.5470  -2.5162  -2.5028  -2.4650  -2.4443
    -2.4246  -2.4131  -2.3916  -2.3236  -2.2071  -2.1239  -2.0922  -2.0328
    -2.0223  -1.9916  -1.9578  -1.9438  -1.9210  -1.8893  -1.8601  -1.7455
    -1.6366  -1.5810  -1.5791  -1.5038  -1.4672  -1.4242  -1.3769  -1.3232
    -1.2900  -1.2784  -1.2294  -1.1689  -1.1497  -1.0750  -1.0322  -1.0016
    -0.9594  -0.9359  -0.8638  -0.8507  -0.8482  -0.8155  -0.7264  -0.7075
    -0.6526  -0.6459  -0.6189  -0.5630  -0.5444  -0.5134  -0.3899  -0.3668
    -0.2417  -0.1753  -0.0866   0.0624   0.0855   0.1800   0.2190   0.2457
     0.3037   0.4057   0.4235   0.4359   0.4547   0.4860   0.5155   0.6394
     0.6534   0.6879   0.8080   1.5168   1.5173   1.5893   1.5900   1.6075
     3.2243   3.5706   3.5772   3.5975   3.6247   3.7574   3.7594   3.7774
     3.7788   3.9148   3.9309

     the Fermi energy is     3.2421 ev

!    total energy              =   -2972.58415087 Ry
     estimated scf accuracy    <       0.00000005 Ry
     smearing contrib. (-TS)   =      -0.03081130 Ry
     internal energy E=F+TS    =   -2972.55333957 Ry

     The total energy is F=E-TS. E is the sum of the following terms:
     one-electron contribution =  -23745.08636708 Ry
     hartree contribution      =   11963.85155225 Ry
     xc contribution           =    -493.07974431 Ry
     ewald contribution        =    9301.76078285 Ry
     electric field correction =       0.00043671 Ry

     convergence has been achieved in  72 iterations

     Forces acting on atoms (cartesian axes, Ry/au):

     atom    1 type  1   force =     0.00004398   -0.00002892    0.10322149
     atom    2 type  1   force =     0.00004814   -0.00004577    0.10325991
     atom    3 type  2   force =     0.00007728   -0.00022807    0.09625173
     atom    4 type  2   force =    -0.00001663   -0.00030086    0.09604324
     atom    5 type  2   force =     0.00003230   -0.00062957   -0.17555761
     atom    6 type  2   force =    -0.00001954   -0.00024929   -0.17551885
     atom    7 type  1   force =    -0.07153222   -0.00013884   -0.02766386
     atom    8 type  1   force =    -0.07151726   -0.00012976   -0.02763646
     atom    9 type  1   force =     0.07137772    0.00028644   -0.02773232
     atom   10 type  1   force =     0.07136379    0.00030926   -0.02769440
     atom   11 type  1   force =    -0.00005659   -0.00144985    0.05286349
     atom   12 type  1   force =    -0.00002722   -0.00125990    0.05320825
     atom   13 type  1   force =     0.00000593   -0.00000179   -0.02440017
     atom   14 type  1   force =     0.00009990   -0.00023296   -0.02343472
     atom   15 type  2   force =     0.00002798    0.00048848   -0.01064881
     atom   16 type  2   force =     0.00014702    0.00349457   -0.00998117
     atom   17 type  2   force =     0.00069449    0.01061268    0.02594142
     atom   18 type  2   force =     0.00083567   -0.01140239    0.02625048
     atom   19 type  1   force =    -0.01194408   -0.00052326    0.00382941
     atom   20 type  1   force =    -0.01229028   -0.00009388    0.00374266
     atom   21 type  1   force =     0.01290569   -0.00009426    0.00217196
     atom   22 type  1   force =     0.01315349    0.00047516    0.00212797
     atom   23 type  1   force =    -0.00431634    0.00133352   -0.01320664
     atom   24 type  1   force =    -0.00236736    0.00054466   -0.02179586
     atom   25 type  1   force =     0.00024057   -0.00090820    0.00017592
     atom   26 type  1   force =     0.00001806    0.00044251    0.00082084
     atom   27 type  2   force =    -0.00041702    0.00040877   -0.00007851
     atom   28 type  2   force =    -0.00067303   -0.00052444   -0.00005934
     atom   29 type  2   force =     0.00098544    0.00002748   -0.00019795
     atom   30 type  2   force =     0.00036828   -0.00074217   -0.00019194
     atom   31 type  1   force =     0.00083510    0.00012410    0.00025851
     atom   32 type  1   force =    -0.00044596   -0.00001722    0.00014285
     atom   33 type  1   force =     0.00040172   -0.00037257    0.00000130
     atom   34 type  1   force =     0.00127086   -0.00021764    0.00001526
     atom   35 type  1   force =     0.00030767   -0.00030099    0.00016379
     atom   36 type  1   force =     0.00026976    0.00025858   -0.00039543
     atom   37 type  1   force =     0.00019198   -0.00009120   -0.00060498
     atom   38 type  1   force =     0.00019614    0.00013781   -0.00012623
     atom   39 type  2   force =    -0.00083203    0.00022183   -0.00042669
     atom   40 type  2   force =    -0.00073868    0.00005922    0.00044558
     atom   41 type  2   force =     0.00026105   -0.00019336   -0.00042237
     atom   42 type  2   force =     0.00080002   -0.00014142    0.00022495
     atom   43 type  1   force =     0.00033910    0.00024501   -0.00035161
     atom   44 type  1   force =     0.00021825   -0.00002534   -0.00008583
     atom   45 type  1   force =     0.00039486    0.00022344    0.00001821
     atom   46 type  1   force =     0.00006903    0.00046980    0.00020154
     atom   47 type  1   force =     0.00007450   -0.00001534   -0.00012709
     atom   48 type  3   force =     0.01273145    0.00307495    0.00094176
     atom   49 type  4   force =    -0.01309194   -0.00212657   -0.00151470
     atom   50 type  4   force =    -0.00000284   -0.00029826   -0.00053163
     atom   51 type  4   force =    -0.00013332    0.00042905   -0.00003063
     atom   52 type  3   force =    -0.00069620   -0.00107255   -0.00010073
     atom   53 type  5   force =     0.00051484    0.00156379    0.00041947
     atom   54 type  4   force =    -0.00053139   -0.00103476   -0.00118425
     atom   55 type  1   force =     0.00034788   -0.00033971   -0.00104120

     Total force =     0.367754     Total SCF correction =     0.000459
  @ DRIVER MODE: Message from server: STATUS
  @ DRIVER MODE: Message from server: GETFORCE
  @ DRIVER MODE: Returning v,forces,stress,ensemble

     Writing output data file ./calc.save/
  @ DRIVER MODE: Message from server: EXIT
  @ DRIVE MODE: Exiting

     General routines

     Parallel routines

   This run was terminated on:  15:21:17  26Sep2021

   JOB DONE.