     Program PWSCF v.7.0 starts on 16Aug2022 at 14:41:11

     R & G space division:  proc/nbgrp/npool/nimage =       6

     Reading input from /storage/coda1/p-amedford6/0/ntian30/BEEF_carbon_assisted/ads_slab/CN2/BEEF_carbon_assisted.log/pw.inp
Warning: card &CELL ignored
Warning: card   CELL_DYNAMICS='IPI', ignored
Warning: card / ignored

     Current dimensions of program PWSCF are:
     Max number of different atomic species (ntypx) = 10
     Max number of k-points (npk) =  40000
     Max angular momentum in pseudopotentials (lmaxx) =  4
     Presently no symmetry can be used with electric field

     Message from routine cell_base_init:
     DEPRECATED: use true lattice parameter, not A to a.u. conversion factor

     IMPORTANT: XC functional enforced from input :
     Exchange-correlation= BEEF-VDW
                           (   1   4  43  14   2   0   0)
     Any further DFT definition will be discarded
     Please, verify this is what you really want

  @ DRIVER MODE: Connecting to
 qe_1139763_4802505.sched-torque.pace.gatech.eduqwy109_l_scratch
  using UNIX socket
  @ DRIVER MODE: Message from server: STATUS
  @ DRIVER MODE: Message from server: INIT
  @ DRIVER MODE: Receiving replica           0          -1
  @ DRIVER MODE: Receiving parameter string
 lscf : 1, lforce : 1, lstress : 0, lmovecell : 0, lensemb : 0,

     Using Slab Decomposition

     bravais-lattice index     =            0
     lattice parameter (alat)  =       1.8897  a.u.
     unit-cell volume          =    6658.9804 (a.u.)^3
     number of atoms/cell      =           50
     number of atomic types    =            4
     number of electrons       =       392.00
     number of Kohn-Sham states=          206
     kinetic-energy cutoff     =      29.3995  Ry
     charge density cutoff     =     293.9946  Ry
     scf convergence threshold =      7.3E-08
     mixing beta               =       0.0500
     number of iterations used =            8  plain     mixing
     energy convergence thresh.=      1.0E-04
     force convergence thresh. =      1.0E-03
     Exchange-correlation= BEEF-VDW
                           (   1   4  43  14   2   0   0)
     nstep                     =           50

     celldm(1)=   1.889726  celldm(2)=   0.000000  celldm(3)=   0.000000
     celldm(4)=   0.000000  celldm(5)=   0.000000  celldm(6)=   0.000000

     crystal axes: (cart. coord. in units of alat)
               a(1) = (   6.579727   0.000000   0.000000 )
               a(2) = (  -0.000775   5.961596   0.000000 )
               a(3) = (   0.000000   0.000000  25.155947 )

     reciprocal axes: (cart. coord. in units 2 pi/alat)
               b(1) = (  0.151982  0.000020  0.000000 )
               b(2) = (  0.000000  0.167740  0.000000 )
               b(3) = (  0.000000  0.000000  0.039752 )

     PseudoPot. # 1 for Ti read from file:
     /storage/coda1/p-amedford6/0/shared/rich_project_chbe-medford/medford-share/data/pseudos_module/espresso/nninc/pbe/van/Ti.UPF
     MD5 check sum: 8e4df49b7f0d34bbd5052bf3f5ea0213
     Pseudo is Ultrasoft, Zval = 12.0
     Generated by new atomic code, or converted to UPF format
     Using radial grid of  851 points,  6 beta functions with:
                l(1) =   0
                l(2) =   0
                l(3) =   1
                l(4) =   1
                l(5) =   2
                l(6) =   2
     Q(r) pseudized with  8 coefficients,  rinner =    1.000   1.000   1.000
                                                       1.000   1.000

     PseudoPot. # 2 for O  read from file:
     /storage/coda1/p-amedford6/0/shared/rich_project_chbe-medford/medford-share/data/pseudos_module/espresso/nninc/pbe/van/O.UPF
     MD5 check sum: 78c19812648e8988a0fe644b0f25305e
     Pseudo is Ultrasoft, Zval =  6.0
     Generated by new atomic code, or converted to UPF format
     Using radial grid of  737 points,  4 beta functions with:
                l(1) =   0
                l(2) =   0
                l(3) =   1
                l(4) =   1
     Q(r) pseudized with  8 coefficients,  rinner =    0.800   0.800   0.800

     PseudoPot. # 3 for C  read from file:
     /storage/coda1/p-amedford6/0/shared/rich_project_chbe-medford/medford-share/data/pseudos_module/espresso/nninc/pbe/van/C.UPF
     MD5 check sum: 1a69bf6b8db32088f5b2163dbdb77a27
     Pseudo is Ultrasoft, Zval =  4.0
     Generated by new atomic code, or converted to UPF format
     Using radial grid of  721 points,  4 beta functions with:
                l(1) =   0
                l(2) =   0
                l(3) =   1
                l(4) =   1
     Q(r) pseudized with  8 coefficients,  rinner =    0.800   0.800   0.800

     PseudoPot. # 4 for N  read from file:
     /storage/coda1/p-amedford6/0/shared/rich_project_chbe-medford/medford-share/data/pseudos_module/espresso/nninc/pbe/van/N.UPF
     MD5 check sum: 90d10febe142ad51ac9d5be1deb811c4
     Pseudo is Ultrasoft, Zval =  5.0
     Generated by new atomic code, or converted to UPF format
     Using radial grid of  729 points,  4 beta functions with:
                l(1) =   0
                l(2) =   0
                l(3) =   1
                l(4) =   1
     Q(r) pseudized with  8 coefficients,  rinner =    0.800   0.800   0.800

     atomic species   valence    mass     pseudopotential
        Ti1           12.00    47.86700     Ti( 1.00)
        O1             6.00    15.99900     O ( 1.00)
        C1             4.00    12.01100     C ( 1.00)
        N1             5.00    14.00700     N ( 1.00)

     Starting magnetic structure
     atomic species   magnetization
        Ti1          0.083
        O1           0.167
        C1           0.250
        N1           0.200

     No symmetry found

   Cartesian axes

     site n.     atom                  positions (alat units)
         1           Ti1 tau(   1) = (   0.0004258   2.9801865   6.0000000  )
         2           Ti1 tau(   2) = (   3.2906075   1.4906267   6.0002472  )
         3           O1  tau(   3) = (   0.0006271   0.0005054   7.9858123  )
         4           O1  tau(   4) = (   3.2906025   0.0005020   7.3038282  )
         5           O1  tau(   5) = (   4.5942328   1.4918067   9.2879030  )
         6           O1  tau(   6) = (   1.9868534   1.4903216   9.2879459  )
         7           Ti1 tau(   7) = (   3.3012438   2.8886702   9.1633376  )
         8           Ti1 tau(   8) = (   0.0151756   1.5313512   9.3852367  )
         9           O1  tau(   9) = (   3.2838646   5.9502082  11.3504376  )
        10           O1  tau(  10) = (   0.0011772   0.0057760  10.5685031  )
        11           O1  tau(  11) = (   1.2665813   1.4960216  12.6632679  )
        12           O1  tau(  12) = (   5.2655979   1.4931391  12.6450026  )
        13           Ti1 tau(  13) = (   0.0730316   2.9722587  12.8664919  )
        14           Ti1 tau(  14) = (   3.3921296   1.4727207  12.4945303  )
        15           O1  tau(  15) = (   6.5674571   5.9564725  14.6377960  )
        16           O1  tau(  16) = (   3.2729098   5.9573629  13.9225580  )
        17           O1  tau(  17) = (   4.5068221   1.4911575  16.0780594  )
        18           O1  tau(  18) = (   2.0389448   1.4890381  16.0788561  )
        19           Ti1 tau(  19) = (   3.2622455   2.9786888  15.7267777  )
        20           Ti1 tau(  20) = (   6.5472924   1.4778099  16.1665340  )
        21           O1  tau(  21) = (   3.2904802   0.0005063   4.7018136  )
        22           O1  tau(  22) = (   6.5624964   0.0022692  17.2516842  )
        23           O1  tau(  23) = (   1.3043587   1.4918075   6.0039043  )
        24           O1  tau(  24) = (   5.2767064   1.4903225   6.0039473  )
        25           Ti1 tau(  25) = (   0.0000382   5.9609847   6.0000000  )
        26           Ti1 tau(  26) = (   3.2902200   4.4714249   6.0002472  )
        27           O1  tau(  27) = (   0.0002396   2.9813036   7.9858123  )
        28           O1  tau(  28) = (   3.2902150   2.9813002   7.3038282  )
        29           O1  tau(  29) = (   4.5938453   4.4726049   9.2879030  )
        30           O1  tau(  30) = (   1.9864658   4.4711199   9.2879459  )
        31           Ti1 tau(  31) = (   3.2951117   5.8691752   9.1621322  )
        32           Ti1 tau(  32) = (   0.0131188   4.5078423   9.3810783  )
        33           O1  tau(  33) = (   3.2830191   2.9700730  11.3504449  )
        34           O1  tau(  34) = (   0.0013448   2.9868426  10.5640601  )
        35           O1  tau(  35) = (   1.2659178   4.4526806  12.6623753  )
        36           O1  tau(  36) = (   5.2652425   4.4547799  12.6452187  )
        37           Ti1 tau(  37) = (   0.0613381   5.9541753  12.8176109  )
        38           Ti1 tau(  38) = (   3.3914794   4.4516358  12.4960388  )
        39           O1  tau(  39) = (   6.5749948   2.9742830  14.7295205  )
        40           O1  tau(  40) = (   3.2731578   2.9768135  13.9263679  )
        41           O1  tau(  41) = (   4.5067496   4.4712835  16.0779363  )
        42           O1  tau(  42) = (   2.0384677   4.4720237  16.0787917  )
        43           Ti1 tau(  43) = (   3.2606367   5.9597325  15.7280915  )
        44           Ti1 tau(  44) = (   6.5449944   4.5088584  16.1648460  )
        45           O1  tau(  45) = (   3.2900926   2.9813045   4.7018136  )
        46           O1  tau(  46) = (   1.3039711   4.4726057   6.0039043  )
        47           O1  tau(  47) = (   5.2763189   4.4711207   6.0039473  )
        48           C1  tau(  48) = (   6.5618721   2.9856600  17.5248388  )
        49           N1  tau(  49) = (   6.5737334   3.0136670  19.9463838  )
        50           N1  tau(  50) = (   6.5687070   3.0013227  18.7984645  )

     number of k points=    10  Fermi-Dirac smearing, width (Ry)=  0.0073
                       cart. coord. in units 2pi/alat
        k(    1) = (   0.0000000   0.0000000   0.0000000), wk =   0.0625000
        k(    2) = (   0.0000000   0.0419351   0.0000000), wk =   0.1250000
        k(    3) = (   0.0000000  -0.0838702   0.0000000), wk =   0.0625000
        k(    4) = (   0.0379955   0.0000049   0.0000000), wk =   0.1250000
        k(    5) = (   0.0379955   0.0419400   0.0000000), wk =   0.1250000
        k(    6) = (   0.0379955  -0.0838652   0.0000000), wk =   0.1250000
        k(    7) = (   0.0379955  -0.0419301   0.0000000), wk =   0.1250000
        k(    8) = (  -0.0759910  -0.0000099   0.0000000), wk =   0.0625000
        k(    9) = (  -0.0759910   0.0419252   0.0000000), wk =   0.1250000
        k(   10) = (  -0.0759910  -0.0838800   0.0000000), wk =   0.0625000

     Initial potential from superposition of free atoms

     starting charge     375.9992, renormalised to     392.0000

     negative rho (up, down):  9.863E-03 8.358E-03

     %%%%%%%%%%%%%%%%%%%%%%%%%%%%%%%%%%%%%%%%%%%%%%%%%%%%%%%%%%%%%%%%%%%%%%%%
     %                                                                      %
     % You are using vdW-DF, which was implemented by the Thonhauser group. %
     % Please cite the following two papers that made this development      %
     % possible and the two reviews that describe the various versions:     %
[...]
     atom   48 type  3   force =    -0.00006108   -0.00101563   -0.00159450
     atom   49 type  4   force =     0.00018297    0.00036738    0.00343489
     atom   50 type  4   force =     0.00003091   -0.00042483   -0.00112320

     Total force =     0.404127     Total SCF correction =     0.000422
  @ DRIVER MODE: Message from server: STATUS
  @ DRIVER MODE: Message from server: GETFORCE
  @ DRIVER MODE: Returning v,forces,stress

     Writing config to output data dir ./calc.save/
  @ DRIVER MODE: Message from server: STATUS
  @ DRIVER MODE: Message from server: INIT
  @ DRIVER MODE: Receiving replica           0           0
  @ DRIVER MODE: Receiving parameter string
 lscf : 1, lforce : 1, lstress : 0, lmovecell : 0, lensemb : 0,
  @ DRIVER MODE: Message from server: STATUS
  @ DRIVER MODE: Message from server: POSDATA
  @ DRIVER MODE: Reading and sharing cell
  @ DRIVER MODE: Reading and sharing positions
  @ DRIVER MODE: Received positions
     NEW-OLD atomic charge density approx. for the potential

[...]

     Generating pointlists ...

[...]

     iteration #  1     ecut=    29.40 Ry     beta= 0.05
     Davidson diagonalization with overlap
     c_bands:  1 eigenvalues not converged
     c_bands:  1 eigenvalues not converged
     ethr =  2.53E-11,  avg # of iterations = 33.3

[...]

     Generating pointlists ...

     Self-consistent Calculation

[...]

     total energy              =   -2935.37371653 Ry
     estimated scf accuracy    <       0.00000009 Ry

[...]

     iteration # 27     ecut=    29.40 Ry     beta= 0.05
     Davidson diagonalization with overlap
     ethr =  2.17E-11,  avg # of iterations =  5.0

[...]

     Magnetic moment per site  (integrated on atomic sphere of radius R)
     atom   1 (R=0.743)  charge=  8.0653  magn=  0.0000
     atom   2 (R=0.743)  charge=  8.0642  magn=  0.0000
     atom   3 (R=0.743)  charge=  5.0104  magn=  0.0000
     atom   4 (R=0.743)  charge=  5.0879  magn= -0.0000
     atom   5 (R=0.743)  charge=  5.0512  magn=  0.0000
     atom   6 (R=0.743)  charge=  5.0522  magn=  0.0000
     atom   7 (R=0.743)  charge=  8.0627  magn= -0.0000
     atom   8 (R=0.743)  charge=  8.0541  magn= -0.0000
     atom   9 (R=0.743)  charge=  5.0633  magn=  0.0000
     atom  10 (R=0.743)  charge=  5.0432  magn=  0.0000
     atom  11 (R=0.743)  charge=  5.0532  magn=  0.0000
     atom  12 (R=0.743)  charge=  5.0511  magn=  0.0000
     atom  13 (R=0.743)  charge=  8.0627  magn= -0.0000
     atom  14 (R=0.743)  charge=  8.0646  magn= -0.0000
     atom  15 (R=0.743)  charge=  5.0420  magn=  0.0000
     atom  16 (R=0.743)  charge=  5.0651  magn= -0.0000
     atom  17 (R=0.743)  charge=  5.0401  magn= -0.0000
     atom  18 (R=0.743)  charge=  5.0405  magn= -0.0000
     atom  19 (R=0.743)  charge=  8.0843  magn=  0.0000
     atom  20 (R=0.743)  charge=  8.0840  magn= -0.0000
     atom  21 (R=0.743)  charge=  4.9308  magn= -0.0000
     atom  22 (R=0.743)  charge=  5.0257  magn=  0.0000
     atom  23 (R=0.743)  charge=  5.0406  magn=  0.0000
     atom  24 (R=0.743)  charge=  5.0406  magn=  0.0000
     atom  25 (R=0.743)  charge=  8.0654  magn= -0.0000
     atom  26 (R=0.743)  charge=  8.0642  magn=  0.0000
     atom  27 (R=0.743)  charge=  5.0115  magn=  0.0000
     atom  28 (R=0.743)  charge=  5.0877  magn= -0.0000
     atom  29 (R=0.743)  charge=  5.0511  magn= -0.0000
     atom  30 (R=0.743)  charge=  5.0521  magn= -0.0000
     atom  31 (R=0.743)  charge=  8.0630  magn=  0.0000
     atom  32 (R=0.743)  charge=  8.0535  magn= -0.0000
     atom  33 (R=0.743)  charge=  5.0632  magn=  0.0000
     atom  34 (R=0.743)  charge=  5.0389  magn=  0.0000
     atom  35 (R=0.743)  charge=  5.0535  magn=  0.0000
     atom  36 (R=0.743)  charge=  5.0515  magn=  0.0000
     atom  37 (R=0.743)  charge=  8.0653  magn= -0.0000
     atom  38 (R=0.743)  charge=  8.0645  magn= -0.0000
     atom  39 (R=0.743)  charge=  5.0427  magn=  0.0000
     atom  40 (R=0.743)  charge=  5.0664  magn= -0.0000
     atom  41 (R=0.743)  charge=  5.0404  magn= -0.0000
     atom  42 (R=0.743)  charge=  5.0402  magn= -0.0000
     atom  43 (R=0.743)  charge=  8.0844  magn=  0.0000
     atom  44 (R=0.743)  charge=  8.0857  magn= -0.0000
     atom  45 (R=0.743)  charge=  4.9308  magn= -0.0000
     atom  46 (R=0.743)  charge=  5.0406  magn=  0.0000
     atom  47 (R=0.743)  charge=  5.0407  magn=  0.0000
     atom  48 (R=0.525)  charge=  1.2851  magn=  0.0000
     atom  49 (R=0.474)  charge=  1.7364  magn=  0.0000
     atom  50 (R=0.474)  charge=  1.8152  magn= -0.0000

     End of self-consistent calculation

 ------ SPIN UP ------------

[...]

 ------ SPIN DOWN ----------

[...]

          k = 0.0380-0.0419 0.0000 ( 17876 PWs)   bands (ev):

[...]

          k =-0.0760-0.0839 0.0000 ( 17948 PWs)   bands (ev):

   -56.6747 -56.6695 -56.4159 -56.4135 -56.2126 -56.2024 -56.1902 -56.1211
   -56.1197 -56.1183 -56.0026 -55.9955 -55.6518 -55.6360 -55.4876 -55.4875
   -32.9377 -32.9335 -32.9264 -32.9200 -32.8339 -32.8295 -32.7753 -32.7735
   -32.6737 -32.6701 -32.6203 -32.6152 -32.5607 -32.5481 -32.5051 -32.4981
   -32.4880 -32.4460 -32.4408 -32.4399 -32.4095 -32.4086 -32.4077 -32.4013
   -32.3704 -32.3679 -32.3555 -32.3486 -32.3385 -32.3336 -32.3134 -32.3064
   -32.2136 -32.2116 -32.2078 -32.2051 -32.1092 -31.9784 -31.8692 -31.8555
   -31.8173 -31.8173 -31.8125 -31.7867 -31.7198 -31.7197 -31.6816 -31.6815
   -20.1317 -16.5184 -16.5158 -16.2792 -16.2781 -16.1750 -16.1739 -16.1681
   -16.1659 -16.1104 -16.1052 -15.9403 -15.9364 -15.9193 -15.9158 -15.8922
   -15.8897 -15.8658 -15.8564 -15.8494 -15.8391 -15.6885 -15.6868 -15.6155
   -15.5917 -15.5384 -15.5250 -15.4583 -15.4560 -15.3922 -13.9856 -13.9852
   -13.3865  -4.2787  -4.2143  -4.0676  -3.8148  -3.8068  -3.5052  -3.5031
    -3.3139  -3.3111  -3.3014  -3.2790  -3.2678  -3.2528  -3.2454  -3.1995
    -3.1208  -3.1181  -3.1025  -3.0806  -3.0749  -3.0739  -3.0578  -3.0497
    -3.0315  -3.0150  -2.9636  -2.9257  -2.9169  -2.9113  -2.8657  -2.8580
    -2.8450  -2.6964  -2.6250  -2.5964  -2.5868  -2.5659  -2.5065  -2.4405
    -2.4372  -2.3951  -2.3931  -2.3203  -2.2116  -2.1116  -2.1098  -2.0417
    -2.0081  -1.8959  -1.7751  -1.7681  -1.6893  -1.6406  -1.6187  -1.5543
    -1.5180  -1.5100  -1.4947  -1.4793  -1.4663  -1.3657  -1.3607  -1.2893
    -1.2460  -1.2362  -1.2357  -1.1917  -1.1807  -1.1064  -1.0830  -1.0139
    -1.0104  -0.9791  -0.9730  -0.8373  -0.7960  -0.7277  -0.7098  -0.4241
    -0.4226  -0.2701  -0.1848  -0.1535  -0.0430  -0.0200   0.0309   0.0806
     0.1443   0.1651   0.1872   0.1891   0.2895   0.2900   0.9087   0.9088
     0.9726   0.9739   1.4239   1.8751   3.0716   3.1014   3.1042   3.1135
     3.1204   3.1324   3.1836   3.1886   3.4191   3.4855

     the Fermi energy is     2.2866 ev

!    total energy              =   -2935.37371691 Ry
     estimated scf accuracy    <       0.00000006 Ry
     smearing contrib. (-TS)   =      -0.00175402 Ry
     internal energy E=F+TS    =   -2935.37196289 Ry

     total magnetization       =    -0.00 Bohr mag/cell
     absolute magnetization    =     0.00 Bohr mag/cell

     convergence has been achieved in  27 iterations

     Forces acting on atoms (cartesian axes, Ry/au):

     atom    1 type  1   force =     0.00019464   -0.00069750    0.14831287
     atom    2 type  1   force =    -0.00010107   -0.00009005   -0.17124700
     atom    3 type  2   force =     0.00013986   -0.00157711   -0.05800515
     atom    4 type  2   force =     0.00006459   -0.00144932    0.04131203
     atom    5 type  2   force =    -0.02434923    0.00089595    0.00460141
     atom    6 type  2   force =     0.02461999    0.00196281    0.00382927
     atom    7 type  1   force =    -0.00018813   -0.00031259   -0.00051475
     atom    8 type  1   force =    -0.00013954    0.00020728   -0.00044836
     atom    9 type  2   force =    -0.00011956   -0.00001937   -0.00046418
     atom   10 type  2   force =     0.00005029    0.00029940    0.00040704
     atom   11 type  2   force =    -0.00024472   -0.00005582   -0.00020550
     atom   12 type  2   force =    -0.00012518   -0.00002454   -0.00026277
     atom   13 type  1   force =     0.00015972   -0.00049407   -0.00029703
     atom   14 type  1   force =     0.00009471    0.00051930    0.00018527
     atom   15 type  2   force =     0.00008660   -0.00022079   -0.00041822
     atom   16 type  2   force =    -0.00002956   -0.00005669   -0.00015386
     atom   17 type  2   force =    -0.00013910    0.00024832   -0.00055639
     atom   18 type  2   force =     0.00009980    0.00038589   -0.00049290
     atom   19 type  1   force =     0.00015123   -0.00009703   -0.00141634
     atom   20 type  1   force =    -0.00005434   -0.00049186    0.00020114
     atom   21 type  2   force =     0.00003758   -0.00010738    0.10272946
     atom   22 type  2   force =    -0.00018704   -0.00032230   -0.00020599
     atom   23 type  2   force =    -0.07373715    0.00018461   -0.03458671
     atom   24 type  2   force =     0.07362914    0.00063803   -0.03462372
     atom   25 type  1   force =    -0.00000927   -0.00059773    0.14948745
     atom   26 type  1   force =    -0.00007636   -0.00056057   -0.17124035
     atom   27 type  2   force =     0.00011593   -0.00118411   -0.05712886
     atom   28 type  2   force =     0.00014360   -0.00145486    0.04139478
     atom   29 type  2   force =    -0.02462768    0.00109494    0.00451288
     atom   30 type  2   force =     0.02425666    0.00259412    0.00372495
     atom   31 type  1   force =    -0.00006784   -0.00068631   -0.00067191
     atom   32 type  1   force =    -0.00011815   -0.00013608   -0.00029144
     atom   33 type  2   force =     0.00012152    0.00018776   -0.00039978
     atom   34 type  2   force =    -0.00004527    0.00024953   -0.00005552
     atom   35 type  2   force =    -0.00000546    0.00023116   -0.00008906
     atom   36 type  2   force =    -0.00007573    0.00029364   -0.00023539
     atom   37 type  1   force =     0.00024625    0.00036725    0.00013648
     atom   38 type  1   force =     0.00005303   -0.00001418   -0.00011677
     atom   39 type  2   force =    -0.00023733    0.00021039    0.00066305
     atom   40 type  2   force =     0.00010913   -0.00001907    0.00037654
     atom   41 type  2   force =     0.00007068   -0.00014078   -0.00058147
     atom   42 type  2   force =    -0.00008245   -0.00020067   -0.00049311
     atom   43 type  1   force =     0.00018487    0.00010933   -0.00099035
     atom   44 type  1   force =     0.00001209    0.00066343    0.00044903
     atom   45 type  2   force =     0.00003116   -0.00010999    0.10269751
     atom   46 type  2   force =    -0.07371946   -0.00022402   -0.03460434
     atom   47 type  2   force =     0.07360930    0.00021702   -0.03463724
     atom   48 type  3   force =    -0.00001194   -0.00027274   -0.00169131
     atom   49 type  4   force =     0.00014986    0.00023188    0.00133612
     atom   50 type  4   force =     0.00005934   -0.00017451    0.00076851

     Total force =     0.403914     Total SCF correction =     0.000649
  @ DRIVER MODE: Message from server: STATUS
  @ DRIVER MODE: Message from server: GETFORCE
  @ DRIVER MODE: Returning v,forces,stress

     Writing config to output data dir ./calc.save/
  @ DRIVER MODE: Message from server: STATUS
  @ DRIVER MODE: Message from server: INIT
  @ DRIVER MODE: Receiving replica           0           0
  @ DRIVER MODE: Receiving parameter string
 lscf : 0, lforce : 0, lstress : 0, lmovecell : 0, lensemb : 1,
  @ DRIVER MODE: Message from server: STATUS
  @ DRIVER MODE: Message from server: POSDATA
  @ DRIVER MODE: Reading and sharing cell
  @ DRIVER MODE: Reading and sharing positions
  @ DRIVER MODE: Received positions
     NEW-OLD atomic charge density approx. for the potential

[...]

     Adding external electric field

     Computed dipole along edir(3) :
        Dipole               -0.1304 Ry au,         -0.3315 Debye
        Dipole field         -0.0002 Ry au,

        Potential amp.        0.0228 Ry
        Total length         46.3494 bohr

     Generating pointlists ...
  @ DRIVER MODE: BEEF-vdw

[...]

     negative rho (up, down):  8.951E-03 8.951E-03

     negative rho (up, down):  8.951E-03 8.951E-03
 BEEFens 2000 ensemble energies
             -0.346143634586471E+02
             -0.202443817236251E+01
             -0.714425693994568E+01
              0.240355221028669E+02
             -0.119052580128531E+02
             -0.921415398019059E+01
             -0.239804538483194E+02
             -0.502192819713396E+02
             -0.214844266124215E+02
             -0.226382859348295E+02
             -0.209802248789557E+02
              0.422246956847071E+01
              0.198409361535236E+01
             -0.100723567410211E+01
              0.171939605643507E+01
              0.264704052868976E+02
             -0.102123648087926E+02
             -0.725264191656677E+01
              0.117306776422756E+02
             -0.618474358154784E+02
              0.310066268259185E+02
             -0.133459579124113E+02
             -0.240187837869081E+01
             -0.559651702676537E+01
             -0.102217041032662E+01
             -0.214292302918768E+01
              0.479708623491138E+02
             -0.149689226537885E+02
             -0.400983748535242E+01
             -0.303287907641320E+02
              0.392826834643380E+02
             -0.439622902168804E+01
             -0.213414220622341E+02
              0.112368155630008E+02
             -0.205380336330012E+01
              0.129714538837081E+02
             -0.566522724164827E+00
              0.275906993049918E+01
              0.188721149986162E+02
             -0.546070964449555E+02
              0.304042059935402E+02
              0.810873747810916E+01
             -0.620965159634653E+01
             -0.174736098456488E+02
              0.689115962277026E+01
             -0.109034394686699E+02
              0.248483797824996E+02
              0.198823114794233E+02
             -0.128537272375858E+02
             -0.163643955413015E+02
             -0.172963012301983E+02
             -0.207549744944930E+02
              0.104994794760629E+02
             -0.270450162134817E+02
              0.826212132878942E+01
              0.345589896685041E+02
              0.398103037089169E+02
              0.185746981652490E+02
              0.829350244335029E+01
              0.172821408302436E+02
[...]
             -0.407435230299909E+02
              0.274792170671901E+01
             -0.145710629823993E+01
             -0.566979782422959E+01
              0.532305688782060E-01
             -0.363039794227598E+02
             -0.706517236948389E+01
              0.488854698227028E+01
              0.737314272276677E+01
              0.271737136091999E+02
             -0.237514344515694E+02
              0.310695505825265E+02
             -0.222096751908964E+02
              0.142347272174597E+02
              0.224580086119384E+02

 BEEF-vdW xc energy contributions
           1 :   -408.990162623587
           2 :    356.504989343042
           3 :   -271.794687434769
           4 :    183.299603518284
           5 :   -113.710474690680
           6 :    72.0441967513820
           7 :   -54.5807186875122
           8 :    51.2889894910253
           9 :   -52.7830300560826
          10 :    53.8971604476670
          11 :   -53.4547240101907
          12 :    51.9684138747431
          13 :   -49.7837901125400
          14 :    46.6063476701322
          15 :   -42.1156217446360
          16 :    36.5782970539842
          17 :   -30.9494414453619
          18 :    26.3945181166564
          19 :   -23.7125062539284
          20 :    22.9902097394238
          21 :   -23.7171746984594
          22 :    25.1334381857461
          23 :   -26.5777023277170
          24 :    27.5794266403357
          25 :   -27.8103670122948
          26 :    27.0424590999710
          27 :   -25.2320234332054
          28 :    22.5976211167707
          29 :   -19.6316267251137
          30 :    16.9672350922962
          31 :   -48.0315520060605
          32 :   -32.6570947801738
  @ DRIVER MODE: Message from server: STATUS
  @ DRIVER MODE: Message from server: GETFORCE
  @ DRIVER MODE: Returning v,forces,stress
  @ DRIVE MODE: Returning Ensemble Energies
  @ DRIVE MODE: Returning Ensemble Energies
  @ DRIVE MODE: Returning Ensemble Energies
  @ DRIVE MODE: Returning Ensemble Energies
  @ DRIVE MODE: Returning Ensemble Energies

     Writing config to output data dir ./calc.save/
  @ DRIVE MODE: Returning Ensemble Energies
  @ DRIVER MODE: Message from server: EXIT
  @ DRIVE MODE: Exiting

     General routines

     Parallel routines

   This run was terminated on:  17:59: 1  16Aug2022

   JOB DONE.