     Program PWSCF v.6.7GPU starts on 22Sep2021 at 20:53:16

     R & G space division:  proc/nbgrp/npool/nimage =      10
     Reading input from /storage/home/hcoda1/3/ntian30/research/carbon/CxH_vib/H2O_calc/ads_slab/CHNHNHH2O_b/out_0015/pw.inp
Warning: card &CELL ignored
Warning: card   CELL_DYNAMICS='IPI', ignored
Warning: card / ignored

     Current dimensions of program PWSCF are:
     Max number of different atomic species (ntypx) = 10
     Max number of k-points (npk) =  40000
     Max angular momentum in pseudopotentials (lmaxx) =  3
     Presently no symmetry can be used with electric field

     Message from routine cell_base_init:
     DEPRECATED: use true lattice parameter, not A to a.u. conversion factor

     IMPORTANT: XC functional enforced from input :
     Exchange-correlation= BEEF-VDW
                           (   1   4  43  14   2   0   0)
     Any further DFT definition will be discarded
     Please, verify this is what you really want

  @ DRIVER MODE: Connecting to
 qe_1139763_2937311.sched-torque.pace.gatech.edu3i7hyanh_scratch
  using UNIX socket
  @ DRIVER MODE: Message from server: STATUS
  @ DRIVER MODE: Message from server: INIT
  @ DRIVER MODE: Receiving replica           0          -1
  @ DRIVER MODE: Receiving encoded integer          25
  @ DRIVER MODE:  SCF:  T  FORCE:  T  STRESS:  F  VC:  F  ENSEMBLE:  F
  @ DRIVER MODE:  SCF:  T  FORCE:  T  STRESS:  F  VC:  F  ENSEMBLE:  F

     Using Slab Decomposition

     bravais-lattice index     =            0
     lattice parameter (alat)  =       1.8897  a.u.
     unit-cell volume          =    6658.9804 (a.u.)^3
     number of atoms/cell      =           56
     number of atomic types    =            5
     number of electrons       =       403.00
     number of Kohn-Sham states=          211
     kinetic-energy cutoff     =      29.3995  Ry
     charge density cutoff     =     293.9946  Ry
     scf convergence threshold =      7.3E-08
     mixing beta               =       0.0500
     number of iterations used =            8  plain     mixing
     Exchange-correlation= BEEF-VDW
                           (   1   4  43  14   2   0   0)

     celldm(1)=   1.889726  celldm(2)=   0.000000  celldm(3)=   0.000000
     celldm(4)=   0.000000  celldm(5)=   0.000000  celldm(6)=   0.000000

     crystal axes: (cart. coord. in units of alat)
               a(1) = (   6.579727   0.000000   0.000000 )
               a(2) = (  -0.000775   5.961596   0.000000 )
               a(3) = (   0.000000   0.000000  25.155947 )

     reciprocal axes: (cart. coord. in units 2 pi/alat)
               b(1) = (  0.151982  0.000020  0.000000 )
               b(2) = (  0.000000  0.167740  0.000000 )
               b(3) = (  0.000000  0.000000  0.039752 )

     PseudoPot. # 1 for Ti read from file:
     /storage/coda1/p-amedford6/0/shared/rich_project_chbe-medford/medford-share/data/pseudos_module/espresso/nninc/pbe/van/Ti.UPF
     MD5 check sum: 8e4df49b7f0d34bbd5052bf3f5ea0213
     Pseudo is Ultrasoft, Zval = 12.0
     Generated by new atomic code, or converted to UPF format
     Using radial grid of  851 points,  6 beta functions with:
                l(1) =   0
                l(2) =   0
                l(3) =   1
                l(4) =   1
                l(5) =   2
                l(6) =   2
     Q(r) pseudized with  8 coefficients,  rinner =    1.000   1.000   1.000
                                                       1.000   1.000

     PseudoPot. # 2 for O  read from file:
     /storage/coda1/p-amedford6/0/shared/rich_project_chbe-medford/medford-share/data/pseudos_module/espresso/nninc/pbe/van/O.UPF
     MD5 check sum: 78c19812648e8988a0fe644b0f25305e
     Pseudo is Ultrasoft, Zval =  6.0
     Generated by new atomic code, or converted to UPF format
     Using radial grid of  737 points,  4 beta functions with:
                l(1) =   0
                l(2) =   0
                l(3) =   1
                l(4) =   1
     Q(r) pseudized with  8 coefficients,  rinner =    0.800   0.800   0.800

     PseudoPot. # 3 for N  read from file:
     /storage/coda1/p-amedford6/0/shared/rich_project_chbe-medford/medford-share/data/pseudos_module/espresso/nninc/pbe/van/N.UPF
     MD5 check sum: 90d10febe142ad51ac9d5be1deb811c4
     Pseudo is Ultrasoft, Zval =  5.0
     Generated by new atomic code, or converted to UPF format
     Using radial grid of  729 points,  4 beta functions with:
                l(1) =   0
                l(2) =   0
                l(3) =   1
                l(4) =   1
     Q(r) pseudized with  8 coefficients,  rinner =    0.800   0.800   0.800

     PseudoPot. # 4 for C  read from file:
     /storage/coda1/p-amedford6/0/shared/rich_project_chbe-medford/medford-share/data/pseudos_module/espresso/nninc/pbe/van/C.UPF
     MD5 check sum: 1a69bf6b8db32088f5b2163dbdb77a27
     Pseudo is Ultrasoft, Zval =  4.0
     Generated by new atomic code, or converted to UPF format
     Using radial grid of  721 points,  4 beta functions with:
                l(1) =   0
                l(2) =   0
                l(3) =   1
                l(4) =   1
     Q(r) pseudized with  8 coefficients,  rinner =    0.800   0.800   0.800

     PseudoPot. # 5 for H  read from file:
     /storage/coda1/p-amedford6/0/shared/rich_project_chbe-medford/medford-share/data/pseudos_module/espresso/nninc/pbe/van/H.UPF
     MD5 check sum: b5ee9d7bfd3a09ee7748110bda690ff7
     Pseudo is Ultrasoft, Zval =  1.0
     Generated by new atomic code, or converted to UPF format
     Using radial grid of  615 points,  1 beta functions with:
                l(1) =   0
     Q(r) pseudized with  8 coefficients,  rinner =    0.800

     atomic species   valence    mass     pseudopotential
        Ti1           12.00    47.86700     Ti( 1.00)
        O1             6.00    15.99900     O ( 1.00)
        N1             5.00    14.00700     N ( 1.00)
        C1             4.00    12.01100     C ( 1.00)
        H1             1.00     1.00800     H ( 1.00)

     No symmetry found

   Cartesian axes

     site n.     atom                  positions (alat units)
         1           Ti1 tau(   1) = (   0.0004258   2.9801865   6.0000000  )
         2           Ti1 tau(   2) = (   3.2906075   1.4906267   6.0002472  )
         3           O1  tau(   3) = (   0.0006271   0.0005054   7.9858123  )
         4           O1  tau(   4) = (   3.2906025   0.0005020   7.3038282  )
         5           O1  tau(   5) = (   4.5942328   1.4918067   9.2879030  )
         6           O1  tau(   6) = (   1.9868534   1.4903216   9.2879459  )
         7           Ti1 tau(   7) = (   3.2907910   2.8959150   9.1758416  )
         8           Ti1 tau(   8) = (   0.0015273   1.4827037   9.2680791  )
         9           O1  tau(   9) = (   3.2780774   5.9605562  11.3537357  )
        10           O1  tau(  10) = (   0.0116148   5.9584955  10.6183126  )
        11           O1  tau(  11) = (   1.2922713   1.4781662  12.6511241  )
        12           O1  tau(  12) = (   5.2965393   1.5043564  12.6031353  )
        13           Ti1 tau(  13) = (   6.5273184   3.0207086  12.5807821  )
        14           Ti1 tau(  14) = (   3.2344070   1.4559942  12.5004267  )
        15           O1  tau(  15) = (   6.4759410   0.0295824  14.6525783  )
        16           O1  tau(  16) = (   3.3604338   0.0238249  13.9383540  )
        17           O1  tau(  17) = (   4.5324113   1.5808541  16.1066768  )
        18           O1  tau(  18) = (   1.9684897   1.4712893  15.8817925  )
        19           Ti1 tau(  19) = (   3.2566353   3.0739815  15.8599551  )
        20           Ti1 tau(  20) = (   6.5466614   1.5318677  15.7800735  )
        21           O1  tau(  21) = (   3.2904802   0.0005063   4.7018136  )
        22           O1  tau(  22) = (   6.5744325   0.0155309  17.2227980  )
        23           O1  tau(  23) = (   1.3043587   1.4918075   6.0039043  )
        24           O1  tau(  24) = (   5.2767064   1.4903225   6.0039473  )
        25           Ti1 tau(  25) = (   0.0000382   5.9609847   6.0000000  )
        26           Ti1 tau(  26) = (   3.2902200   4.4714249   6.0002472  )
        27           O1  tau(  27) = (   0.0002396   2.9813036   7.9858123  )
        28           O1  tau(  28) = (   3.2902150   2.9813002   7.3038282  )
        29           O1  tau(  29) = (   4.5938453   4.4726049   9.2879030  )
        30           O1  tau(  30) = (   1.9864658   4.4711199   9.2879459  )
        31           Ti1 tau(  31) = (   3.2891106   5.8743827   9.1763621  )
        32           Ti1 tau(  32) = (   0.0006254   4.4649316   9.2693709  )
        33           O1  tau(  33) = (   3.2727763   2.9788165  11.3438337  )
        34           O1  tau(  34) = (   0.0092240   2.9805883  10.6323155  )
        35           O1  tau(  35) = (   1.2865780   4.4896361  12.6556599  )
        36           O1  tau(  36) = (   5.2967437   4.4749066  12.6066920  )
        37           Ti1 tau(  37) = (   6.5467059   0.0356701  12.5108493  )
        38           Ti1 tau(  38) = (   3.2305653   4.4019604  12.5605372  )
        39           O1  tau(  39) = (   6.5199767   2.9846217  14.6905747  )
        40           O1  tau(  40) = (   3.2851694   3.0254550  13.9321539  )
        41           O1  tau(  41) = (   4.5310495   4.4602642  16.1636806  )
        42           O1  tau(  42) = (   1.9842988   4.5744318  15.9411167  )
        43           Ti1 tau(  43) = (   3.2691225   0.1036042  15.7405456  )
        44           Ti1 tau(  44) = (   6.5697781   4.6877429  16.0360384  )
        45           O1  tau(  45) = (   3.2900926   2.9813045   4.7018136  )
        46           O1  tau(  46) = (   1.3039711   4.4726057   6.0039043  )
        47           O1  tau(  47) = (   5.2763189   4.4711207   6.0039473  )
        48           N1  tau(  48) = (   1.2792381   2.8578196  18.3696018  )
        49           N1  tau(  49) = (   0.1888888   2.9646215  17.5057353  )
        50           C1  tau(  50) = (   2.5352320   2.8981513  18.0382144  )
        51           H1  tau(  51) = (   3.1442446   2.7411670  18.9317345  )
        52           H1  tau(  52) = (   1.0014291   2.6635404  19.3302151  )
        53           H1  tau(  53) = (   5.9397212   2.8571719  18.0851170  )
        54           O1  tau(  54) = (   3.2630597   0.0341043  18.2348460  )
        55           H1  tau(  55) = (   4.0455299   5.4198958  18.2485053  )
        56           H1  tau(  56) = (   2.4923979   5.4091459  18.3156537  )

     number of k points=    10  Fermi-Dirac smearing, width (Ry)=  0.0073
                       cart. coord. in units 2pi/alat
        k(    1) = (   0.0000000   0.0000000   0.0000000), wk =   0.1250000
        k(    2) = (   0.0000000   0.0419351   0.0000000), wk =   0.2500000
        k(    3) = (   0.0000000  -0.0838702   0.0000000), wk =   0.1250000
        k(    4) = (   0.0379955   0.0000049   0.0000000), wk =   0.2500000
        k(    5) = (   0.0379955   0.0419400   0.0000000), wk =   0.2500000
        k(    6) = (   0.0379955  -0.0838652   0.0000000), wk =   0.2500000
        k(    7) = (   0.0379955  -0.0419301   0.0000000), wk =   0.2500000
        k(    8) = (  -0.0759910  -0.0000099   0.0000000), wk =   0.1250000
        k(    9) = (  -0.0759910   0.0419252   0.0000000), wk =   0.2500000
        k(   10) = (  -0.0759910  -0.0838800   0.0000000), wk =   0.1250000

     Initial potential from superposition of free atoms

     starting charge  386.99914, renormalised to  403.00000

     negative rho (up, down):  1.738E-02 0.000E+00

     %%%%%%%%%%%%%%%%%%%%%%%%%%%%%%%%%%%%%%%%%%%%%%%%%%%%%%%%%%%%%%%%%%%%%%%%
     %                                                                      %
     % You are using vdW-DF, which was implemented by the Thonhauser group. %
     % Please cite the following two papers that made this development      %
     % possible and the two reviews that describe the various versions:     %
     %                                                                      %
     %   T. Thonhauser et al., PRL 115, 136402 (2015).                      %
     %   T. Thonhauser et al., PRB 76, 125112 (2007).                       %
     %   K. Berland et al., Rep. Prog. Phys. 78, 066501 (2015).             %
     %   D.C. Langreth et al., J. Phys.: Condens. Matter 21, 084203 (2009). %
     %                                                                      %
     %                                                                      %
     % If you are calculating the stress with vdW-DF, please also cite:     %
     %                                                                      %
     %   R. Sabatini et al., J. Phys.: Condens. Matter 24, 424209 (2012).   %
     %                                                                      %
     %%%%%%%%%%%%%%%%%%%%%%%%%%%%%%%%%%%%%%%%%%%%%%%%%%%%%%%%%%%%%%%%%%%%%%%%

     Adding external electric field

     Computed dipole along edir(3) :
        Dipole              -12.3463 Ry au,        -31.3811 Debye
        Dipole field         -0.0233 Ry au,

        Potential amp.        2.1598 Ry
        Total length         46.3494 bohr

     Starting wfcs are  305 atomic wfcs
  @ DRIVER MODE: Message from server: STATUS
  @ DRIVER MODE: Message from server: POSDATA
  @ DRIVER MODE: Reading and sharing cell
  @ DRIVER MODE: Reading and sharing positions
  @ DRIVER MODE: Received positions

     Self-consistent Calculation

     iteration #  1     ecut=    29.40 Ry     beta= 0.05
     Davidson diagonalization with overlap
     c_bands:  5 eigenvalues not converged
     c_bands:  3 eigenvalues not converged
     c_bands:  3 eigenvalues not converged
     c_bands:  1 eigenvalues not converged
     c_bands:  2 eigenvalues not converged
     c_bands:  2 eigenvalues not converged
     c_bands:  5 eigenvalues not converged
     c_bands:  2 eigenvalues not converged
     c_bands:  4 eigenvalues not converged
     ethr =  1.00E-05,  avg # of iterations = 29.3

[...]

     total energy              =   -2358.72416068 Ry
     estimated scf accuracy    <    6971.28929950 Ry

     iteration #  2     ecut=    29.40 Ry     beta= 0.05
     Davidson diagonalization with overlap
     ethr =  1.00E-02,  avg # of iterations = 26.0

[...]

     iteration # 76     ecut=    29.40 Ry     beta= 0.05
     Davidson diagonalization with overlap
     c_bands:  1 eigenvalues not converged
     ethr =  4.03E-11,  avg # of iterations = 13.9

[...]

     total energy              =   -2973.94009134 Ry
     estimated scf accuracy    <       0.00000008 Ry

     iteration # 77     ecut=    29.40 Ry     beta= 0.05
     Davidson diagonalization with overlap
     ethr =  2.06E-11,  avg # of iterations = 11.0

     negative rho (up, down):  1.725E-02 0.000E+00

     Adding external electric field

     Computed dipole along edir(3) :
        Dipole                1.4014 Ry au,          3.5620 Debye
        Dipole field          0.0026 Ry au,

        Potential amp.       -0.2452 Ry
        Total length         46.3494 bohr

     End of self-consistent calculation

          k = 0.0000 0.0000 0.0000 ( 18029 PWs)   bands (ev):

   -55.3185 -55.2845 -55.2096 -55.1854 -55.1666 -55.1548 -55.1395 -55.1176
   -55.1057 -55.1037 -55.0968 -55.0623 -54.9911 -54.8336 -54.2990 -54.2650
   -31.8027 -31.7305 -31.6564 -31.6492 -31.6393 -31.6105 -31.5865 -31.5638
   -31.5195 -31.5004 -31.4709 -31.4632 -31.4550 -31.4403 -31.4245 -31.4207
   -31.3973 -31.3796 -31.3758 -31.3643 -31.3348 -31.3322 -31.3280 -31.3251
   -31.3224 -31.3184 -31.3143 -31.2962 -31.2884 -31.2784 -31.2716 -31.2714
   -31.2610 -31.2596 -31.2513 -31.2473 -31.2392 -31.2138 -31.2094 -31.0897
   -31.0749 -31.0488 -30.7059 -30.6178 -30.5954 -30.5228 -30.4364 -30.3251
   -18.8816 -18.6526 -15.9770 -15.7933 -15.6124 -15.4730 -15.3911 -15.1595
   -15.1011 -15.0626 -14.9816 -14.9594 -14.8579 -14.8396 -14.8382 -14.8195
   -14.8166 -14.7614 -14.7463 -14.7418 -14.6933 -14.6865 -14.6612 -14.6457
   -14.5938 -14.5145 -14.5061 -14.4594 -14.4142 -14.3677 -14.0222 -13.4160
   -12.8000 -12.6836  -8.8003  -7.2744  -6.6207  -4.3317  -3.7914  -3.3603
    -3.2845  -3.2484  -3.2233  -3.0879  -2.9709  -2.8671  -2.7549  -2.6708
    -2.5838  -2.4794  -2.4231  -2.3774  -2.3169  -2.2569  -2.2305  -2.1449
    -2.1253  -2.1055  -2.0839  -2.0571  -2.0279  -1.9915  -1.8681  -1.8576
    -1.7755  -1.7193  -1.6808  -1.6625  -1.6381  -1.6328  -1.6019  -1.5801
    -1.5714  -1.5601  -1.5584  -1.5233  -1.3842  -1.3604  -1.3315  -1.3096
    -1.1626  -1.0254  -0.9366  -0.9337  -0.8243  -0.7597  -0.7563  -0.7178
    -0.7022  -0.6001  -0.5146  -0.4780  -0.4534  -0.3743  -0.3172  -0.2618
    -0.2102  -0.1751  -0.1082  -0.0847  -0.0676  -0.0507   0.0184   0.0808
     0.1419   0.2267   0.2705   0.2951   0.3859   0.3997   0.4242   0.4880
     0.5202   0.5650   0.6005   0.6298   0.6533   0.6834   0.7088   0.7520
     0.7900   0.9157   0.9336   0.9628   0.9837   1.1580   1.2075   1.3125
     1.3406   1.4424   1.4848   1.6635   1.7246   1.8042   1.9167   2.2948
     2.3407   3.7906   3.9019   3.9360   3.9608   4.0001   4.0515   4.2583
     4.3311   4.3724   4.4293

[...]

          k = 0.0380-0.0419 0.0000 ( 17876 PWs)   bands (ev):

[...]

          k =-0.0760-0.0000 0.0000 ( 17886 PWs)   bands (ev):

[...]

          k =-0.0760-0.0839 0.0000 ( 17948 PWs)   bands (ev):

   -55.3017 -55.3011 -55.2001 -55.1820 -55.1753 -55.1433 -55.1294 -55.1226
   -55.1220 -55.1073 -55.0836 -55.0757 -54.9894 -54.8352 -54.2820 -54.2819
   -31.6182 -31.6177 -31.5962 -31.5957 -31.5648 -31.5330 -31.5019 -31.4893
   -31.4820 -31.4667 -31.4481 -31.4433 -31.4389 -31.4298 -31.4246 -31.4228
   -31.4211 -31.4207 -31.4159 -31.4003 -31.3895 -31.3752 -31.3644 -31.3622
   -31.3570 -31.3527 -31.3434 -31.3308 -31.3250 -31.3236 -31.3084 -31.2992
   -31.2958 -31.2953 -31.2935 -31.2906 -31.2605 -31.2325 -31.2185 -31.1457
   -31.0921 -31.0779 -30.6081 -30.6081 -30.5187 -30.5186 -30.4797 -30.4796
   -18.8710 -18.6588 -15.3544 -15.3195 -15.2813 -15.2538 -15.2379 -15.1171
   -15.1038 -15.0680 -15.0265 -15.0131 -14.9829 -14.9542 -14.9053 -14.8967
   -14.8624 -14.8428 -14.8036 -14.7773 -14.7578 -14.7535 -14.7368 -14.7152
   -14.6717 -14.6499 -14.6372 -14.6329 -14.5811 -14.4869 -14.2076 -13.4386
   -12.7854 -12.7853  -8.7960  -7.1997  -6.6217  -4.5398  -3.5726  -2.8691
    -2.6694  -2.6298  -2.5784  -2.4875  -2.4401  -2.3184  -2.3119  -2.2892
    -2.2437  -2.2308  -2.1903  -2.1497  -2.1437  -2.1159  -2.1036  -2.0589
    -2.0476  -2.0446  -2.0304  -1.9969  -1.9910  -1.9704  -1.9464  -1.9433
    -1.9332  -1.9166  -1.8837  -1.8765  -1.8495  -1.8306  -1.6798  -1.6068
    -1.5622  -1.4848  -1.4616  -1.4448  -1.4258  -1.3910  -1.3708  -1.3452
    -1.3168  -1.1711  -1.0316  -0.9957  -0.9711  -0.8720  -0.8573  -0.8378
    -0.7904  -0.7493  -0.7142  -0.6559  -0.6463  -0.6007  -0.5795  -0.4595
    -0.4222  -0.3231  -0.2872  -0.2853  -0.2679  -0.2530  -0.2362  -0.2104
    -0.1610  -0.0891  -0.0737  -0.0250  -0.0012   0.0015   0.0144   0.1601
     0.2313   0.2514   0.3539   0.3839   0.5586   0.7226   0.7347   0.8022
     0.8654   0.9207   0.9544   0.9944   1.0050   1.0718   1.0939   1.2003
     1.2099   1.2586   1.2646   1.3424   1.3551   2.0884   2.0901   2.1606
     2.1607   4.1540   4.1712   4.1981   4.2612   4.3049   4.3167   4.3539
     4.3576   4.4606   4.4765

     the Fermi energy is     3.8087 ev

!    total energy              =   -2973.94010366 Ry
     estimated scf accuracy    <       0.00000005 Ry
     smearing contrib. (-TS)   =      -0.02072464 Ry
     internal energy E=F+TS    =   -2973.91937902 Ry

     The total energy is F=E-TS. E is the sum of the following terms:
     one-electron contribution =  -24338.99918220 Ry
     hartree contribution      =   12267.21167132 Ry
     xc contribution           =    -494.11919163 Ry
     ewald contribution        =    9591.98361725 Ry
     electric field correction =       0.00370623 Ry

     convergence has been achieved in  77 iterations

     Forces acting on atoms (cartesian axes, Ry/au):

     atom    1 type  1   force =     0.00002513   -0.00010102    0.09508008
     atom    2 type  1   force =     0.00017875   -0.00068258   -0.17562263
     atom    3 type  2   force =     0.00008868   -0.00004595   -0.02293756
     atom    4 type  2   force =     0.00002244   -0.00143351    0.05290626
     atom    5 type  2   force =    -0.01001232   -0.00031383    0.00381097
     atom    6 type  2   force =     0.01113705    0.00020474    0.00206550
     atom    7 type  1   force =    -0.00021202    0.00177917   -0.00590197
     atom    8 type  1   force =     0.00080872    0.01008655    0.01604278
     atom    9 type  2   force =    -0.00015579    0.00085770    0.00033909
     atom   10 type  2   force =    -0.00227194    0.00217754   -0.01799902
     atom   11 type  2   force =     0.00023183   -0.00002927    0.00007729
     atom   12 type  2   force =    -0.00034245   -0.00018095    0.00056270
     atom   13 type  1   force =    -0.00002766    0.00125461    0.00017973
     atom   14 type  1   force =    -0.00012166    0.00010574   -0.00001017
     atom   15 type  2   force =     0.00012385    0.00014094   -0.00000794
     atom   16 type  2   force =    -0.00037217    0.00043287   -0.00021006
     atom   17 type  2   force =    -0.00011325   -0.00032271   -0.00012614
     atom   18 type  2   force =    -0.00022380   -0.00035900    0.00002385
     atom   19 type  1   force =    -0.00055906   -0.00014295   -0.00014071
     atom   20 type  1   force =    -0.00024999   -0.00006385    0.00015500
     atom   21 type  2   force =     0.00009135   -0.00008497    0.10316408
     atom   22 type  2   force =     0.00039055    0.00000840    0.00053764
     atom   23 type  2   force =    -0.07158128   -0.00016441   -0.02755857
     atom   24 type  2   force =     0.07153964    0.00025059   -0.02760619
     atom   25 type  1   force =     0.00024050   -0.00039119    0.09517736
     atom   26 type  1   force =    -0.00003981   -0.00020069   -0.17578848
     atom   27 type  2   force =     0.00012147   -0.00012176   -0.02196644
     atom   28 type  2   force =     0.00001443   -0.00139687    0.05323473
     atom   29 type  2   force =    -0.01035828   -0.00022823    0.00365427
     atom   30 type  2   force =     0.01139577    0.00042336    0.00192184
     atom   31 type  1   force =    -0.00030024    0.00266280   -0.00010288
     atom   32 type  1   force =     0.00067460   -0.01114150    0.01691611
     atom   33 type  2   force =     0.00037041   -0.00026561    0.00001763
     atom   34 type  2   force =    -0.00033832    0.00144342   -0.01893021
     atom   35 type  2   force =    -0.00000750   -0.00035795   -0.00015658
     atom   36 type  2   force =     0.00000370   -0.00025008    0.00043920
     atom   37 type  1   force =    -0.00005918   -0.00121375    0.00032901
     atom   38 type  1   force =    -0.00038933    0.00089593    0.00003743
     atom   39 type  2   force =     0.00010116    0.00009795    0.00009351
     atom   40 type  2   force =    -0.00049628   -0.00064211    0.00001691
     atom   41 type  2   force =     0.00012833   -0.00018237    0.00044190
     atom   42 type  2   force =    -0.00000849   -0.00070662    0.00025373
     atom   43 type  1   force =    -0.00022152    0.00000232    0.00031835
     atom   44 type  1   force =    -0.00000064   -0.00032428    0.00021375
     atom   45 type  2   force =     0.00010061   -0.00010189    0.10318354
     atom   46 type  2   force =    -0.07156556   -0.00017086   -0.02755162
     atom   47 type  2   force =     0.07156706    0.00024253   -0.02756296
     atom   48 type  3   force =    -0.00002660   -0.00222722    0.00098935
     atom   49 type  3   force =     0.00006376    0.00008068   -0.00041202
     atom   50 type  4   force =     0.00013182    0.00363680   -0.00165115
     atom   51 type  5   force =     0.00052660   -0.00177289    0.00105947
     atom   52 type  5   force =    -0.00027564   -0.00053517   -0.00068674
     atom   53 type  5   force =     0.00021533   -0.00037438   -0.00059712
     atom   54 type  2   force =    -0.00010982    0.00074768   -0.00005507
     atom   55 type  5   force =     0.00020750   -0.00022500   -0.00004026
     atom   56 type  5   force =    -0.00006043   -0.00077694    0.00037943

     Total force =     0.365175     Total SCF correction =     0.000753
  @ DRIVER MODE: Message from server: STATUS
  @ DRIVER MODE: Message from server: GETFORCE
  @ DRIVER MODE: Returning v,forces,stress,ensemble

     Writing output data file ./calc.save/
  @ DRIVER MODE: Message from server: EXIT
  @ DRIVE MODE: Exiting

     General routines

     Parallel routines

   This run was terminated on:  21:15:41  22Sep2021

   JOB DONE.