     Program PWSCF v.6.7GPU starts on 15Jul2021 at 22: 0:48

     R & G space division:  proc/nbgrp/npool/nimage =      16
     Reading input from /storage/home/hcoda1/3/ntian30/research/carbon/15Jul_vib/ads_slab/CH3N2H_a/out_0008/pw.inp
Warning: card &CELL ignored
Warning: card   CELL_DYNAMICS='IPI', ignored
Warning: card / ignored

     Current dimensions of program PWSCF are:
     Max number of different atomic species (ntypx) = 10
     Max number of k-points (npk) =  40000
     Max angular momentum in pseudopotentials (lmaxx) =  3
     Presently no symmetry can be used with electric field

     Message from routine cell_base_init:
     DEPRECATED: use true lattice parameter, not A to a.u. conversion factor

     IMPORTANT: XC functional enforced from input :
     Exchange-correlation= BEEF-VDW
                           (   1   4  43  14   2   0   0)
     Any further DFT definition will be discarded
     Please, verify this is what you really want

  @ DRIVER MODE: Connecting to
 qe_1139763_2351646.sched-torque.pace.gatech.eduea_eeyg6_scratch
  using UNIX socket
  @ DRIVER MODE: Message from server: STATUS
  @ DRIVER MODE: Message from server: INIT
  @ DRIVER MODE: Receiving replica           0          -1
  @ DRIVER MODE: Receiving encoded integer          25
  @ DRIVER MODE:  SCF:  T  FORCE:  T  STRESS:  F  VC:  F  ENSEMBLE:  F
  @ DRIVER MODE:  SCF:  T  FORCE:  T  STRESS:  F  VC:  F  ENSEMBLE:  F

     Using Slab Decomposition

     bravais-lattice index     =            0
     lattice parameter (alat)  =       1.8897  a.u.
     unit-cell volume          =    6658.9804 (a.u.)^3
     number of atoms/cell      =           54
     number of atomic types    =            5
     number of electrons       =       396.00
     number of Kohn-Sham states=          208
     kinetic-energy cutoff     =      29.3995  Ry
     charge density cutoff     =     293.9946  Ry
     scf convergence threshold =      7.3E-08
     mixing beta               =       0.0500
     number of iterations used =            8  plain     mixing
     Exchange-correlation= BEEF-VDW
                           (   1   4  43  14   2   0   0)

     celldm(1)=   1.889726  celldm(2)=   0.000000  celldm(3)=   0.000000
     celldm(4)=   0.000000  celldm(5)=   0.000000  celldm(6)=   0.000000

     crystal axes: (cart. coord. in units of alat)
               a(1) = (   6.579727   0.000000   0.000000 )
               a(2) = (  -0.000775   5.961596   0.000000 )
               a(3) = (   0.000000   0.000000  25.155947 )

     reciprocal axes: (cart. coord. in units 2 pi/alat)
               b(1) = (  0.151982  0.000020  0.000000 )
               b(2) = (  0.000000  0.167740  0.000000 )
               b(3) = (  0.000000  0.000000  0.039752 )

     PseudoPot. # 1 for Ti read from file:
     /storage/coda1/p-amedford6/0/shared/rich_project_chbe-medford/medford-share/data/pseudos_module/espresso/nninc/pbe/van/Ti.UPF
     MD5 check sum: 8e4df49b7f0d34bbd5052bf3f5ea0213
     Pseudo is Ultrasoft, Zval = 12.0
     Generated by new atomic code, or converted to UPF format
     Using radial grid of  851 points,  6 beta functions with:
                l(1) =   0
                l(2) =   0
                l(3) =   1
                l(4) =   1
                l(5) =   2
                l(6) =   2
     Q(r) pseudized with  8 coefficients,  rinner =    1.000   1.000   1.000
                                                       1.000   1.000

     PseudoPot. # 2 for O  read from file:
     /storage/coda1/p-amedford6/0/shared/rich_project_chbe-medford/medford-share/data/pseudos_module/espresso/nninc/pbe/van/O.UPF
     MD5 check sum: 78c19812648e8988a0fe644b0f25305e
     Pseudo is Ultrasoft, Zval =  6.0
     Generated by new atomic code, or converted to UPF format
     Using radial grid of  737 points,  4 beta functions with:
                l(1) =   0
                l(2) =   0
                l(3) =   1
                l(4) =   1
     Q(r) pseudized with  8 coefficients,  rinner =    0.800   0.800   0.800

     PseudoPot. # 3 for N  read from file:
     /storage/coda1/p-amedford6/0/shared/rich_project_chbe-medford/medford-share/data/pseudos_module/espresso/nninc/pbe/van/N.UPF
     MD5 check sum: 90d10febe142ad51ac9d5be1deb811c4
     Pseudo is Ultrasoft, Zval =  5.0
     Generated by new atomic code, or converted to UPF format
     Using radial grid of  729 points,  4 beta functions with:
                l(1) =   0
                l(2) =   0
                l(3) =   1
                l(4) =   1
     Q(r) pseudized with  8 coefficients,  rinner =    0.800   0.800   0.800

     PseudoPot. # 4 for C  read from file:
     /storage/coda1/p-amedford6/0/shared/rich_project_chbe-medford/medford-share/data/pseudos_module/espresso/nninc/pbe/van/C.UPF
     MD5 check sum: 1a69bf6b8db32088f5b2163dbdb77a27
     Pseudo is Ultrasoft, Zval =  4.0
     Generated by new atomic code, or converted to UPF format
     Using radial grid of  721 points,  4 beta functions with:
                l(1) =   0
                l(2) =   0
                l(3) =   1
                l(4) =   1
     Q(r) pseudized with  8 coefficients,  rinner =    0.800   0.800   0.800

     PseudoPot. # 5 for H  read from file:
     /storage/coda1/p-amedford6/0/shared/rich_project_chbe-medford/medford-share/data/pseudos_module/espresso/nninc/pbe/van/H.UPF
     MD5 check sum: b5ee9d7bfd3a09ee7748110bda690ff7
     Pseudo is Ultrasoft, Zval =  1.0
     Generated by new atomic code, or converted to UPF format
     Using radial grid of  615 points,  1 beta functions with:
                l(1) =   0
     Q(r) pseudized with  8 coefficients,  rinner =    0.800

     atomic species   valence    mass     pseudopotential
        Ti1           12.00    47.86700     Ti( 1.00)
        O1             6.00    15.99900     O ( 1.00)
        N1             5.00    14.00700     N ( 1.00)
        C1             4.00    12.01100     C ( 1.00)
        H1             1.00     1.00800     H ( 1.00)

     Starting magnetic structure
     atomic species   magnetization
        Ti1          0.000
        O1           0.000
        N1           0.000
        C1           0.025
        H1           0.000

     No symmetry found

   Cartesian axes

     site n.     atom                  positions (alat units)
         1           Ti1 tau(   1) = (   0.0004258   2.9801865   6.0000000  )
         2           Ti1 tau(   2) = (   3.2906075   1.4906267   6.0002472  )
         3           O1  tau(   3) = (   0.0006271   0.0005054   7.9858123  )
         4           O1  tau(   4) = (   3.2906025   0.0005020   7.3038282  )
         5           O1  tau(   5) = (   4.5942328   1.4918067   9.2879030  )
         6           O1  tau(   6) = (   1.9868534   1.4903216   9.2879459  )
         7           Ti1 tau(   7) = (   3.2907910   2.8959150   9.1758416  )
         8           Ti1 tau(   8) = (   0.0015273   1.4827037   9.2680791  )
         9           O1  tau(   9) = (   3.3106937   0.0084137  11.2927479  )
        10           O1  tau(  10) = (   0.0116148   5.9584955  10.6183126  )
        11           O1  tau(  11) = (   1.3255326   1.5151957  12.5859258  )
        12           O1  tau(  12) = (   5.3246634   1.4871208  12.6441624  )
        13           Ti1 tau(  13) = (   6.5358624   2.9940264  12.7507449  )
        14           Ti1 tau(  14) = (   3.1828407   1.5032771  12.4528579  )
        15           O1  tau(  15) = (   0.1336207   0.0073438  14.6266748  )
        16           O1  tau(  16) = (   3.2550344   0.0288700  13.8306396  )
        17           O1  tau(  17) = (   4.6334483   1.5013943  15.9792279  )
        18           O1  tau(  18) = (   2.1409664   1.5470880  15.9954950  )
        19           Ti1 tau(  19) = (   3.4798582   3.0305884  15.6593850  )
        20           Ti1 tau(  20) = (   0.1386493   1.3724552  15.8613965  )
        21           O1  tau(  21) = (   3.2904802   0.0005063   4.7018136  )
        22           O1  tau(  22) = (   0.1429122   0.0333940  17.1908172  )
        23           O1  tau(  23) = (   1.3043587   1.4918075   6.0039043  )
        24           O1  tau(  24) = (   5.2767064   1.4903225   6.0039473  )
        25           Ti1 tau(  25) = (   0.0000382   5.9609847   6.0000000  )
        26           Ti1 tau(  26) = (   3.2902200   4.4714249   6.0002472  )
        27           O1  tau(  27) = (   0.0002396   2.9813036   7.9858123  )
        28           O1  tau(  28) = (   3.2902150   2.9813002   7.3038282  )
        29           O1  tau(  29) = (   4.5938453   4.4726049   9.2879030  )
        30           O1  tau(  30) = (   1.9864658   4.4711199   9.2879459  )
        31           Ti1 tau(  31) = (   3.2891106   5.8743827   9.1763621  )
        32           Ti1 tau(  32) = (   0.0006254   4.4649316   9.2693709  )
        33           O1  tau(  33) = (   3.3137399   2.9960163  11.2943833  )
        34           O1  tau(  34) = (   0.0092240   2.9805883  10.6323155  )
        35           O1  tau(  35) = (   1.3234708   4.4688006  12.5930975  )
        36           O1  tau(  36) = (   5.3222282   4.4932535  12.6449723  )
        37           Ti1 tau(  37) = (   6.5041614   0.0053836  12.5833808  )
        38           Ti1 tau(  38) = (   3.1843229   4.4812189  12.4522442  )
        39           O1  tau(  39) = (   0.0584892   2.9792810  14.6723703  )
        40           O1  tau(  40) = (   3.3232524   2.9928384  13.8523860  )
        41           O1  tau(  41) = (   4.6237859   4.5837569  15.7472905  )
        42           O1  tau(  42) = (   2.1882403   4.4693611  16.1038286  )
        43           Ti1 tau(  43) = (   3.3015484   0.0242660  15.6383815  )
        44           Ti1 tau(  44) = (   0.0181797   4.4930750  16.1931172  )
        45           O1  tau(  45) = (   3.2900926   2.9813045   4.7018136  )
        46           O1  tau(  46) = (   1.3039711   4.4726057   6.0039043  )
        47           O1  tau(  47) = (   5.2763189   4.4711207   6.0039473  )
        48           N1  tau(  48) = (   0.2677213   2.8760844  17.5655548  )
        49           C1  tau(  49) = (   1.2371684   2.7639891  18.6598760  )
        50           H1  tau(  50) = (   1.2930054   3.7106696  19.2072709  )
        51           H1  tau(  51) = (   0.8976878   1.9730418  19.3402421  )
        52           H1  tau(  52) = (   2.2102292   2.4972526  18.2850250  )
        53           N1  tau(  53) = (   5.6732178   3.4927010  17.8452151  )
        54           H1  tau(  54) = (   5.7345573   4.0058295  18.7343860  )

     number of k points=    10  Fermi-Dirac smearing, width (Ry)=  0.0073
                       cart. coord. in units 2pi/alat
        k(    1) = (   0.0000000   0.0000000   0.0000000), wk =   0.0625000
        k(    2) = (   0.0000000   0.0419351   0.0000000), wk =   0.1250000
        k(    3) = (   0.0000000  -0.0838702   0.0000000), wk =   0.0625000
        k(    4) = (   0.0379955   0.0000049   0.0000000), wk =   0.1250000
        k(    5) = (   0.0379955   0.0419400   0.0000000), wk =   0.1250000
        k(    6) = (   0.0379955  -0.0838652   0.0000000), wk =   0.1250000
        k(    7) = (   0.0379955  -0.0419301   0.0000000), wk =   0.1250000
[...]
     %                                                                      %
     % You are using vdW-DF, which was implemented by the Thonhauser group. %
     % Please cite the following two papers that made this development      %
     % possible and the two reviews that describe the various versions:     %
     %                                                                      %
     %   T. Thonhauser et al., PRL 115, 136402 (2015).                      %
     %   T. Thonhauser et al., PRB 76, 125112 (2007).                       %
     %   K. Berland et al., Rep. Prog. Phys. 78, 066501 (2015).             %
     %   D.C. Langreth et al., J. Phys.: Condens. Matter 21, 084203 (2009). %
     %                                                                      %
     %                                                                      %
     % If you are calculating the stress with vdW-DF, please also cite:     %
     %                                                                      %
     %   R. Sabatini et al., J. Phys.: Condens. Matter 24, 424209 (2012).   %
     %                                                                      %
     %%%%%%%%%%%%%%%%%%%%%%%%%%%%%%%%%%%%%%%%%%%%%%%%%%%%%%%%%%%%%%%%%%%%%%%%

     Adding external electric field

     Computed dipole along edir(3) :
        Dipole               -8.2222 Ry au,        -20.8988 Debye
        Dipole field         -0.0155 Ry au,

        Potential amp.        1.4384 Ry
        Total length         46.3494 bohr

[...]

     Starting wfcs are  300 atomic wfcs
  @ DRIVER MODE: Message from server: STATUS
  @ DRIVER MODE: Message from server: POSDATA
  @ DRIVER MODE: Reading and sharing cell
  @ DRIVER MODE: Reading and sharing positions
  @ DRIVER MODE: Received positions

     Self-consistent Calculation

     iteration #  1     ecut=    29.40 Ry     beta= 0.05
     Davidson diagonalization with overlap
     c_bands:  1 eigenvalues not converged
     c_bands:  1 eigenvalues not converged
     c_bands:  1 eigenvalues not converged
     c_bands:  1 eigenvalues not converged
     c_bands:  4 eigenvalues not converged
     c_bands:  1 eigenvalues not converged
     c_bands:  4 eigenvalues not converged
     c_bands:  2 eigenvalues not converged
     c_bands:  1 eigenvalues not converged
     c_bands:  1 eigenvalues not converged
     c_bands:  1 eigenvalues not converged
     c_bands:  1 eigenvalues not converged
     c_bands:  1 eigenvalues not converged
     c_bands:  1 eigenvalues not converged
     c_bands:  4 eigenvalues not converged
     c_bands:  1 eigenvalues not converged
     c_bands:  4 eigenvalues not converged
     c_bands:  2 eigenvalues not converged
     c_bands:  1 eigenvalues not converged
     c_bands:  1 eigenvalues not converged
     ethr =  1.00E-05,  avg # of iterations = 20.0

[...]

     total energy              =   -2607.58678740 Ry
     estimated scf accuracy    <    3675.27883472 Ry

     total magnetization       =     0.00 Bohr mag/cell
     absolute magnetization    =     0.03 Bohr mag/cell

[...]

     iteration #  3     ecut=    29.40 Ry     beta= 0.05
     Davidson diagonalization with overlap
     ethr =  1.00E-02,  avg # of iterations = 14.2

[...]

     iteration #101     ecut=    29.40 Ry     beta= 0.05
     Davidson diagonalization with overlap
     c_bands:  1 eigenvalues not converged
     ethr =  4.20E-11,  avg # of iterations =  7.4

[...]

     total energy              =   -2940.35355690 Ry
     estimated scf accuracy    <       0.00000007 Ry

[...]

     iteration #103     ecut=    29.40 Ry     beta= 0.05
     Davidson diagonalization with overlap
     ethr =  1.89E-11,  avg # of iterations =  8.0

     negative rho (up, down):  8.754E-03 8.767E-03

[...]

     Adding external electric field

     Computed dipole along edir(3) :
        Dipole                0.7837 Ry au,          1.9919 Debye
        Dipole field          0.0015 Ry au,

        Potential amp.       -0.1371 Ry
        Total length         46.3494 bohr

     Magnetic moment per site  (integrated on atomic sphere of radius R)
     atom   1 (R=0.746)  charge=  8.1025  magn=  0.0015
     atom   2 (R=0.746)  charge=  8.0882  magn=  0.0001
     atom   3 (R=0.746)  charge=  5.0689  magn= -0.0001
     atom   4 (R=0.746)  charge=  5.1050  magn= -0.0000
     atom   5 (R=0.746)  charge=  5.0706  magn= -0.0000
     atom   6 (R=0.746)  charge=  5.0718  magn= -0.0000
     atom   7 (R=0.746)  charge=  8.0837  magn=  0.0001
     atom   8 (R=0.746)  charge=  8.0703  magn=  0.0004
     atom   9 (R=0.746)  charge=  5.0891  magn= -0.0001
     atom  10 (R=0.746)  charge=  5.0576  magn= -0.0001
     atom  11 (R=0.746)  charge=  5.0764  magn= -0.0002
     atom  12 (R=0.746)  charge=  5.0718  magn= -0.0001
     atom  13 (R=0.746)  charge=  8.0706  magn=  0.0006
     atom  14 (R=0.746)  charge=  8.0894  magn=  0.0006
     atom  15 (R=0.746)  charge=  5.0552  magn= -0.0036
     atom  16 (R=0.746)  charge=  5.0985  magn= -0.0002
     atom  17 (R=0.746)  charge=  5.0496  magn= -0.0009
     atom  18 (R=0.746)  charge=  5.0675  magn= -0.0005
     atom  19 (R=0.746)  charge=  8.1080  magn= -0.0000
     atom  20 (R=0.746)  charge=  8.0957  magn= -0.0017
     atom  21 (R=0.746)  charge=  4.9489  magn= -0.0001
     atom  22 (R=0.746)  charge=  5.0412  magn= -0.0052
     atom  23 (R=0.746)  charge=  5.0612  magn= -0.0002
     atom  24 (R=0.746)  charge=  5.0612  magn= -0.0002
     atom  25 (R=0.746)  charge=  8.1024  magn=  0.0014
     atom  26 (R=0.746)  charge=  8.0882  magn=  0.0001
     atom  27 (R=0.746)  charge=  5.0670  magn= -0.0001
     atom  28 (R=0.746)  charge=  5.1051  magn= -0.0000
     atom  29 (R=0.746)  charge=  5.0715  magn= -0.0000
     atom  30 (R=0.746)  charge=  5.0726  magn= -0.0000
     atom  31 (R=0.746)  charge=  8.0846  magn=  0.0001
     atom  32 (R=0.746)  charge=  8.0707  magn=  0.0004
     atom  33 (R=0.746)  charge=  5.0887  magn= -0.0001
     atom  34 (R=0.746)  charge=  5.0201  magn= -0.0002
     atom  35 (R=0.746)  charge=  5.0760  magn= -0.0002
     atom  36 (R=0.746)  charge=  5.0724  magn= -0.0002
     atom  37 (R=0.746)  charge=  8.0778  magn=  0.0013
     atom  38 (R=0.746)  charge=  8.0895  magn=  0.0005
     atom  39 (R=0.746)  charge=  5.0529  magn= -0.0008
     atom  40 (R=0.746)  charge=  5.0889  magn= -0.0006
     atom  41 (R=0.746)  charge=  5.0854  magn=  0.0001
     atom  42 (R=0.746)  charge=  5.0441  magn= -0.0041
     atom  43 (R=0.746)  charge=  8.1146  magn= -0.0001
     atom  44 (R=0.746)  charge=  8.1336  magn= -0.0579
     atom  45 (R=0.746)  charge=  4.9490  magn= -0.0001
     atom  46 (R=0.746)  charge=  5.0612  magn= -0.0002
     atom  47 (R=0.746)  charge=  5.0612  magn= -0.0002
     atom  48 (R=0.424)  charge=  1.3492  magn= -0.0465
     atom  49 (R=0.444)  charge=  0.8234  magn=  0.0017
     atom  50 (R=0.424)  charge=  0.4509  magn= -0.0023
     atom  51 (R=0.424)  charge=  0.4475  magn= -0.0033
     atom  52 (R=0.424)  charge=  0.4612  magn= -0.0002
     atom  53 (R=0.424)  charge=  1.3505  magn= -0.0555
     atom  54 (R=0.424)  charge=  0.4592  magn= -0.0012

     End of self-consistent calculation

 ------ SPIN UP ------------

          k = 0.0000 0.0000 0.0000 ( 18029 PWs)   bands (ev):

   -55.9703 -55.9363 -55.7864 -55.7479 -55.6786 -55.6516 -55.6442 -55.6176
   -55.5978 -55.5965 -55.5618 -55.5154 -55.2736 -54.8708 -54.8368 -54.8030
   -32.4371 -32.3293 -32.2643 -32.2414 -32.1542 -32.1452 -32.1250 -32.0863
   -32.0842 -32.0598 -32.0414 -32.0310 -32.0290 -31.9663 -31.9561 -31.9379
   -31.9311 -31.9136 -31.8974 -31.8792 -31.8730 -31.8507 -31.8251 -31.8248
   -31.8233 -31.8174 -31.8107 -31.7973 -31.7873 -31.7854 -31.7731 -31.7640
   -31.7504 -31.7131 -31.7091 -31.6939 -31.6381 -31.4989 -31.4974 -31.2743
   -31.2451 -31.1945 -31.1715 -31.0916 -31.0055 -30.9984 -30.9151 -30.8942
   -17.2641 -16.5396 -16.3307 -16.0434 -15.9205 -15.9089 -15.7801 -15.6588
   -15.5673 -15.4628 -15.4461 -15.3626 -15.3556 -15.3432 -15.2968 -15.2482
   -15.2353 -15.1986 -15.1892 -15.1516 -15.1424 -15.0790 -15.0685 -15.0569
   -14.9722 -14.9158 -14.8651 -14.7724 -14.5882 -14.4701 -13.3716 -13.2567
   -11.5447  -8.3359  -5.0210  -4.0485  -3.9226  -3.8302  -3.8058  -3.7535
    -3.6631  -3.4555  -3.3962  -3.3510  -3.0312  -2.9999  -2.9803  -2.9686
    -2.8835  -2.7143  -2.6914  -2.6457  -2.6312  -2.6078  -2.5988  -2.5755
    -2.5313  -2.5027  -2.4838  -2.4060  -2.2811  -2.2464  -2.2422  -2.2325
    -2.1669  -2.1446  -2.0825  -2.0537  -2.0333  -2.0028  -1.9900  -1.8757
    -1.8315  -1.7737  -1.6912  -1.5814  -1.4967  -1.4604  -1.3971  -1.3355
    -1.3134  -1.2347  -1.2187  -1.1682  -1.1141  -1.0689  -1.0396  -0.9735
    -0.8708  -0.8615  -0.8134  -0.7438  -0.6908  -0.6759  -0.6319  -0.6152
    -0.6024  -0.5901  -0.5799  -0.4150  -0.3491  -0.2135  -0.1678  -0.1516
    -0.0958  -0.0662  -0.0303   0.0096   0.0169   0.0729   0.0856   0.1164
     0.1571   0.1801   0.2063   0.2812   0.3209   0.3722   0.5061   0.5273
     0.6080   0.6872   0.7589   0.8203   0.8604   0.9634   1.0829   1.1090
     1.1518   1.3562   1.4338   1.7164   1.7590   3.1837   3.2213   3.3147
     3.4189   3.5350   3.5856   3.6588   3.7996   3.8118   3.8672   3.9595

[...]

          k =-0.0760-0.0000 0.0000 ( 17886 PWs)   bands (ev):

[...]

 ------ SPIN DOWN ----------

[...]

          k = 0.0380-0.0419 0.0000 ( 17876 PWs)   bands (ev):

[...]

          k =-0.0760-0.0839 0.0000 ( 17948 PWs)   bands (ev):

   -55.9517 -55.9495 -55.7731 -55.7592 -55.6642 -55.6569 -55.6336 -55.6322
   -55.5943 -55.5830 -55.5750 -55.5193 -55.2762 -54.9014 -54.8536 -54.8535
   -32.2522 -32.2511 -32.2474 -32.2454 -32.1357 -32.1243 -32.0739 -32.0716
   -32.0348 -32.0225 -32.0106 -31.9990 -31.9769 -31.9691 -31.9405 -31.9309
   -31.9278 -31.9271 -31.9204 -31.8956 -31.8657 -31.8637 -31.8590 -31.8580
   -31.8447 -31.8404 -31.8354 -31.8188 -31.8133 -31.8063 -31.7989 -31.7975
   -31.7924 -31.7881 -31.7819 -31.7267 -31.6437 -31.5060 -31.5010 -31.3242
   -31.1842 -31.1841 -31.1276 -31.0875 -31.0873 -31.0485 -31.0484 -31.0446
   -17.4120 -15.9663 -15.9371 -15.7951 -15.7742 -15.7090 -15.6940 -15.5740
   -15.5668 -15.5585 -15.4999 -15.4323 -15.4208 -15.3862 -15.3406 -15.3285
   -15.2951 -15.2762 -15.2700 -15.2657 -15.2578 -15.2132 -15.1534 -15.1481
   -15.1373 -15.0666 -14.9256 -14.8768 -14.7092 -14.5879 -13.3592 -13.3588
   -11.6542  -8.4454  -5.0930  -4.0155  -3.9452  -3.2684  -3.2327  -2.9892
    -2.9793  -2.9577  -2.9061  -2.7382  -2.7325  -2.7105  -2.6912  -2.6871
    -2.6574  -2.6409  -2.6317  -2.5731  -2.5586  -2.5207  -2.5036  -2.4988
    -2.4957  -2.4780  -2.4729  -2.4493  -2.4423  -2.4153  -2.3637  -2.3311
    -2.3025  -2.2071  -2.1023  -2.0216  -1.9849  -1.9755  -1.9648  -1.9533
    -1.9327  -1.9201  -1.8320  -1.6980  -1.6412  -1.5887  -1.5353  -1.5184
    -1.5091  -1.4389  -1.4146  -1.3221  -1.2539  -1.1734  -1.1536  -1.1180
    -1.1013  -1.0211  -0.9776  -0.9498  -0.9305  -0.8924  -0.8615  -0.8578
    -0.8075  -0.7384  -0.6942  -0.6369  -0.6185  -0.5895  -0.5769  -0.5559
    -0.4808  -0.3781  -0.3387  -0.3062  -0.2711  -0.2133  -0.1014  -0.0770
     0.0571   0.1940   0.2325   0.2704   0.3700   0.4245   0.4478   0.4650
     0.5253   0.5983   0.6300   0.6947   0.7369   0.7539   0.8124   0.9491
     1.0961   1.5251   1.5267   1.5772   1.5781   2.7166   3.6922   3.7141
     3.7189   3.7371   3.7512   3.7629   3.8056   3.8372   3.9685   3.9854

     the Fermi energy is     3.1878 ev

!    total energy              =   -2940.35355763 Ry
     estimated scf accuracy    <       0.00000004 Ry
     smearing contrib. (-TS)   =      -0.01700374 Ry
     internal energy E=F+TS    =   -2940.33655389 Ry

     The total energy is F=E-TS. E is the sum of the following terms:
     one-electron contribution =  -24661.83267933 Ry
     hartree contribution      =   12420.20548968 Ry
     xc contribution           =    -486.05783828 Ry
     ewald contribution        =    9787.34731505 Ry
     electric field correction =       0.00115899 Ry

     total magnetization       =    -0.46 Bohr mag/cell
     absolute magnetization    =     0.52 Bohr mag/cell

     convergence has been achieved in 103 iterations

     Forces acting on atoms (cartesian axes, Ry/au):

     atom    1 type  1   force =     0.00023481   -0.00035750    0.10118174
     atom    2 type  1   force =     0.00001361   -0.00086555   -0.17166122
     atom    3 type  2   force =     0.00029607    0.00021213   -0.03273589
     atom    4 type  2   force =     0.00003161   -0.00081260    0.04526552
     atom    5 type  2   force =    -0.01203218   -0.00024521   -0.00204955
     atom    6 type  2   force =     0.01444968    0.00034108   -0.00084291
     atom    7 type  1   force =     0.00140609   -0.00124780   -0.00546172
     atom    8 type  1   force =    -0.00075951    0.02225156    0.05493285
     atom    9 type  2   force =    -0.00003286   -0.00028595    0.00153748
     atom   10 type  2   force =    -0.00272363    0.00206107   -0.02392100
     atom   11 type  2   force =    -0.00013647    0.00024928    0.00055869
     atom   12 type  2   force =    -0.00002300    0.00080644    0.00059360
     atom   13 type  1   force =     0.00001600    0.00022512   -0.00327523
     atom   14 type  1   force =     0.00046464    0.00028202   -0.00193255
     atom   15 type  2   force =     0.00034733    0.00026259    0.00262261
     atom   16 type  2   force =     0.00002689   -0.00015246    0.00305412
     atom   17 type  2   force =     0.00010154   -0.00067912    0.00060247
     atom   18 type  2   force =     0.00019057   -0.00060258    0.00088452
     atom   19 type  1   force =    -0.00044725   -0.00082740   -0.00263185
     atom   20 type  1   force =    -0.00005581   -0.00038726   -0.00311861
     atom   21 type  2   force =     0.00006463   -0.00001196    0.10218892
     atom   22 type  2   force =    -0.00034654   -0.00108986    0.00070489
     atom   23 type  2   force =    -0.07316005   -0.00016607   -0.02881547
     atom   24 type  2   force =     0.07311284    0.00033305   -0.02886250
     atom   25 type  1   force =    -0.00026335   -0.00029778    0.10160968
     atom   26 type  1   force =     0.00003142   -0.00019620   -0.17166837
     atom   27 type  2   force =     0.00035644   -0.00023036   -0.03146360
     atom   28 type  2   force =     0.00009249   -0.00060089    0.04588936
     atom   29 type  2   force =    -0.01217599    0.00210612   -0.00260175
     atom   30 type  2   force =     0.01447434    0.00227139   -0.00133709
     atom   31 type  1   force =     0.00159335    0.00099870   -0.00676573
     atom   32 type  1   force =    -0.00058673   -0.02477033    0.05595969
     atom   33 type  2   force =     0.00011308    0.00033307    0.00172162
     atom   34 type  2   force =    -0.00425111    0.00210077   -0.04655695
     atom   35 type  2   force =     0.00041193   -0.00061030    0.00059146
     atom   36 type  2   force =    -0.00050727   -0.00083527    0.00071053
     atom   37 type  1   force =     0.00016074    0.00058816   -0.00356868
     atom   38 type  1   force =     0.00024186   -0.00004261   -0.00195682
     atom   39 type  2   force =     0.00031255   -0.00017825    0.00232019
     atom   40 type  2   force =     0.00006249   -0.00003318    0.00216883
     atom   41 type  2   force =     0.00067950    0.00045588    0.00038214
     atom   42 type  2   force =    -0.00053070    0.00029362    0.00125125
     atom   43 type  1   force =    -0.00026483    0.00022412   -0.00199053
     atom   44 type  1   force =    -0.00011680    0.00053579   -0.00185580
     atom   45 type  2   force =     0.00004708   -0.00005114    0.10224414
     atom   46 type  2   force =    -0.07316431   -0.00009259   -0.02878490
     atom   47 type  2   force =     0.07311739    0.00027586   -0.02882272
     atom   48 type  3   force =     0.00297898    0.00120961    0.00251891
     atom   49 type  4   force =    -0.02030567   -0.00013594    0.00379058
     atom   50 type  5   force =     0.00182501   -0.00003846   -0.00017270
     atom   51 type  5   force =     0.00231872    0.00183811   -0.00147087
     atom   52 type  5   force =     0.00972137   -0.00271954   -0.00350411
     atom   53 type  3   force =     0.00305733   -0.00111753    0.00271602
     atom   54 type  5   force =    -0.00046830   -0.00057385   -0.00017269

     Total force =     0.377988     Total SCF correction =     0.000248
  @ DRIVER MODE: Message from server: STATUS
  @ DRIVER MODE: Message from server: GETFORCE
  @ DRIVER MODE: Returning v,forces,stress,ensemble

     Writing output data file ./calc.save/
  @ DRIVER MODE: Message from server: EXIT
  @ DRIVE MODE: Exiting

     General routines

     Parallel routines

   This run was terminated on:  22:38: 6  15Jul2021

   JOB DONE.