     Program PWSCF v.6.7GPU starts on 22Sep2021 at 21:40:28

     R & G space division:  proc/nbgrp/npool/nimage =      10
     Reading input from /storage/home/hcoda1/3/ntian30/research/carbon/CxH_vib/H2O_calc/ads_slab/CHNHHO_a/out_0018/pw.inp
Warning: card &CELL ignored
Warning: card   CELL_DYNAMICS='IPI', ignored
Warning: card / ignored

     Current dimensions of program PWSCF are:
     Max number of different atomic species (ntypx) = 10
     Max number of k-points (npk) =  40000
     Max angular momentum in pseudopotentials (lmaxx) =  3
     Presently no symmetry can be used with electric field

     Message from routine cell_base_init:
     DEPRECATED: use true lattice parameter, not A to a.u. conversion factor

     IMPORTANT: XC functional enforced from input :
     Exchange-correlation= BEEF-VDW
                           (   1   4  43  14   2   0   0)
     Any further DFT definition will be discarded
     Please, verify this is what you really want

  @ DRIVER MODE: Connecting to
 qe_1139763_2937314.sched-torque.pace.gatech.eduih9ox34p_scratch
  using UNIX socket
  @ DRIVER MODE: Message from server: STATUS
  @ DRIVER MODE: Message from server: INIT
  @ DRIVER MODE: Receiving replica           0          -1
  @ DRIVER MODE: Receiving encoded integer          25
  @ DRIVER MODE:  SCF:  T  FORCE:  T  STRESS:  F  VC:  F  ENSEMBLE:  F
  @ DRIVER MODE:  SCF:  T  FORCE:  T  STRESS:  F  VC:  F  ENSEMBLE:  F

     Using Slab Decomposition

     bravais-lattice index     =            0
     lattice parameter (alat)  =       1.8897  a.u.
     unit-cell volume          =    6658.9804 (a.u.)^3
     number of atoms/cell      =           53
     number of atomic types    =            5
     number of electrons       =       396.00
     number of Kohn-Sham states=          208
     kinetic-energy cutoff     =      29.3995  Ry
     charge density cutoff     =     293.9946  Ry
     scf convergence threshold =      7.3E-08
     mixing beta               =       0.0500
     number of iterations used =            8  plain     mixing
     Exchange-correlation= BEEF-VDW
                           (   1   4  43  14   2   0   0)

     celldm(1)=   1.889726  celldm(2)=   0.000000  celldm(3)=   0.000000
     celldm(4)=   0.000000  celldm(5)=   0.000000  celldm(6)=   0.000000

     crystal axes: (cart. coord. in units of alat)
               a(1) = (   6.579727   0.000000   0.000000 )
               a(2) = (  -0.000775   5.961596   0.000000 )
               a(3) = (   0.000000   0.000000  25.155947 )

     reciprocal axes: (cart. coord. in units 2 pi/alat)
               b(1) = (  0.151982  0.000020  0.000000 )
               b(2) = (  0.000000  0.167740  0.000000 )
               b(3) = (  0.000000  0.000000  0.039752 )

     PseudoPot. # 1 for Ti read from file:
     /storage/coda1/p-amedford6/0/shared/rich_project_chbe-medford/medford-share/data/pseudos_module/espresso/nninc/pbe/van/Ti.UPF
     MD5 check sum: 8e4df49b7f0d34bbd5052bf3f5ea0213
     Pseudo is Ultrasoft, Zval = 12.0
     Generated by new atomic code, or converted to UPF format
     Using radial grid of  851 points,  6 beta functions with:
                l(1) =   0
                l(2) =   0
                l(3) =   1
                l(4) =   1
                l(5) =   2
                l(6) =   2
     Q(r) pseudized with  8 coefficients,  rinner =    1.000   1.000   1.000
                                                       1.000   1.000

     PseudoPot. # 2 for O  read from file:
     /storage/coda1/p-amedford6/0/shared/rich_project_chbe-medford/medford-share/data/pseudos_module/espresso/nninc/pbe/van/O.UPF
     MD5 check sum: 78c19812648e8988a0fe644b0f25305e
     Pseudo is Ultrasoft, Zval =  6.0
     Generated by new atomic code, or converted to UPF format
     Using radial grid of  737 points,  4 beta functions with:
                l(1) =   0
                l(2) =   0
                l(3) =   1
                l(4) =   1
     Q(r) pseudized with  8 coefficients,  rinner =    0.800   0.800   0.800

     PseudoPot. # 3 for N  read from file:
     /storage/coda1/p-amedford6/0/shared/rich_project_chbe-medford/medford-share/data/pseudos_module/espresso/nninc/pbe/van/N.UPF
     MD5 check sum: 90d10febe142ad51ac9d5be1deb811c4
     Pseudo is Ultrasoft, Zval =  5.0
     Generated by new atomic code, or converted to UPF format
     Using radial grid of  729 points,  4 beta functions with:
                l(1) =   0
                l(2) =   0
                l(3) =   1
                l(4) =   1
     Q(r) pseudized with  8 coefficients,  rinner =    0.800   0.800   0.800

     PseudoPot. # 4 for C  read from file:
     /storage/coda1/p-amedford6/0/shared/rich_project_chbe-medford/medford-share/data/pseudos_module/espresso/nninc/pbe/van/C.UPF
     MD5 check sum: 1a69bf6b8db32088f5b2163dbdb77a27
     Pseudo is Ultrasoft, Zval =  4.0
     Generated by new atomic code, or converted to UPF format
     Using radial grid of  721 points,  4 beta functions with:
                l(1) =   0
                l(2) =   0
                l(3) =   1
                l(4) =   1
     Q(r) pseudized with  8 coefficients,  rinner =    0.800   0.800   0.800

     PseudoPot. # 5 for H  read from file:
     /storage/coda1/p-amedford6/0/shared/rich_project_chbe-medford/medford-share/data/pseudos_module/espresso/nninc/pbe/van/H.UPF
     MD5 check sum: b5ee9d7bfd3a09ee7748110bda690ff7
     Pseudo is Ultrasoft, Zval =  1.0
     Generated by new atomic code, or converted to UPF format
     Using radial grid of  615 points,  1 beta functions with:
                l(1) =   0
     Q(r) pseudized with  8 coefficients,  rinner =    0.800

     atomic species   valence    mass     pseudopotential
        Ti1           12.00    47.86700     Ti( 1.00)
        O1             6.00    15.99900     O ( 1.00)
        N1             5.00    14.00700     N ( 1.00)
        C1             4.00    12.01100     C ( 1.00)
        H1             1.00     1.00800     H ( 1.00)

     No symmetry found

   Cartesian axes

     site n.     atom                  positions (alat units)
         1           Ti1 tau(   1) = (   0.0004258   2.9801865   6.0000000  )
         2           Ti1 tau(   2) = (   3.2906075   1.4906267   6.0002472  )
         3           O1  tau(   3) = (   0.0006271   0.0005054   7.9858123  )
         4           O1  tau(   4) = (   3.2906025   0.0005020   7.3038282  )
         5           O1  tau(   5) = (   4.5942328   1.4918067   9.2879030  )
         6           O1  tau(   6) = (   1.9868534   1.4903216   9.2879459  )
         7           Ti1 tau(   7) = (   3.2907910   2.8959150   9.1758416  )
         8           Ti1 tau(   8) = (   0.0015273   1.4827037   9.2680791  )
         9           O1  tau(   9) = (   3.2817170   5.9459930  11.3074998  )
        10           O1  tau(  10) = (   0.0116148   5.9584955  10.6183126  )
        11           O1  tau(  11) = (   1.2737360   1.4926482  12.6406718  )
        12           O1  tau(  12) = (   5.2902952   1.4950437  12.6299455  )
        13           Ti1 tau(  13) = (   6.5743562   2.8588748  12.6391164  )
        14           Ti1 tau(  14) = (   3.2840152   1.3010445  12.6757008  )
        15           O1  tau(  15) = (   6.5722207   0.0022838  14.6395268  )
        16           O1  tau(  16) = (   3.2882888   0.0547267  13.9272720  )
        17           O1  tau(  17) = (   4.5277618   1.5549090  16.0796657  )
        18           O1  tau(  18) = (   1.9889223   1.5445724  16.0964948  )
        19           Ti1 tau(  19) = (   3.2710169   3.0098750  15.6493427  )
        20           Ti1 tau(  20) = (   0.0212523   1.3583160  16.0154628  )
        21           O1  tau(  21) = (   3.2904802   0.0005063   4.7018136  )
        22           O1  tau(  22) = (   6.5278121   5.9442159  17.1408904  )
        23           O1  tau(  23) = (   1.3043587   1.4918075   6.0039043  )
        24           O1  tau(  24) = (   5.2767064   1.4903225   6.0039473  )
        25           Ti1 tau(  25) = (   0.0000382   5.9609847   6.0000000  )
        26           Ti1 tau(  26) = (   3.2902200   4.4714249   6.0002472  )
        27           O1  tau(  27) = (   0.0002396   2.9813036   7.9858123  )
        28           O1  tau(  28) = (   3.2902150   2.9813002   7.3038282  )
        29           O1  tau(  29) = (   4.5938453   4.4726049   9.2879030  )
        30           O1  tau(  30) = (   1.9864658   4.4711199   9.2879459  )
        31           Ti1 tau(  31) = (   3.2891106   5.8743827   9.1763621  )
        32           Ti1 tau(  32) = (   0.0006254   4.4649316   9.2693709  )
        33           O1  tau(  33) = (   3.2809651   3.0158959  11.2742024  )
        34           O1  tau(  34) = (   0.0092240   2.9805883  10.6323155  )
        35           O1  tau(  35) = (   1.2801966   4.4796301  12.6363892  )
        36           O1  tau(  36) = (   5.2833020   4.4787161  12.6245292  )
        37           Ti1 tau(  37) = (   6.5725262   5.8449372  12.5269696  )
        38           Ti1 tau(  38) = (   3.2830651   4.3950422  12.4122791  )
        39           O1  tau(  39) = (   6.5612936   2.9998473  14.7091997  )
        40           O1  tau(  40) = (   3.2734765   2.9867355  13.8776313  )
        41           O1  tau(  41) = (   4.5260587   4.4294304  16.0527172  )
        42           O1  tau(  42) = (   1.9919704   4.4458081  16.0639873  )
        43           Ti1 tau(  43) = (   3.3135318   0.0270965  16.3071496  )
        44           Ti1 tau(  44) = (   0.0294795   4.5257316  15.8201724  )
        45           O1  tau(  45) = (   3.2900926   2.9813045   4.7018136  )
        46           O1  tau(  46) = (   1.3039711   4.4726057   6.0039043  )
        47           O1  tau(  47) = (   5.2763189   4.4711207   6.0039473  )
        48           N1  tau(  48) = (   6.4282372   2.9740631  17.7102171  )
        49           C1  tau(  49) = (   0.6535733   3.0176064  18.7020832  )
        50           H1  tau(  50) = (   1.7291544   2.9413089  18.4920742  )
        51           H1  tau(  51) = (   5.4410488   3.0579230  17.9716058  )
        52           O1  tau(  52) = (   3.3635319   0.0010587  18.1193045  )
        53           H1  tau(  53) = (   4.1580425   0.0400832  18.6733683  )

     number of k points=    10  Fermi-Dirac smearing, width (Ry)=  0.0073
                       cart. coord. in units 2pi/alat
        k(    1) = (   0.0000000   0.0000000   0.0000000), wk =   0.1250000
        k(    2) = (   0.0000000   0.0419351   0.0000000), wk =   0.2500000
        k(    3) = (   0.0000000  -0.0838702   0.0000000), wk =   0.1250000
        k(    4) = (   0.0379955   0.0000049   0.0000000), wk =   0.2500000
        k(    5) = (   0.0379955   0.0419400   0.0000000), wk =   0.2500000
        k(    6) = (   0.0379955  -0.0838652   0.0000000), wk =   0.2500000
        k(    7) = (   0.0379955  -0.0419301   0.0000000), wk =   0.2500000
        k(    8) = (  -0.0759910  -0.0000099   0.0000000), wk =   0.1250000
        k(    9) = (  -0.0759910   0.0419252   0.0000000), wk =   0.2500000
        k(   10) = (  -0.0759910  -0.0838800   0.0000000), wk =   0.1250000

     Initial potential from superposition of free atoms

     starting charge  379.99917, renormalised to  396.00000

     negative rho (up, down):  1.778E-02 0.000E+00

     %%%%%%%%%%%%%%%%%%%%%%%%%%%%%%%%%%%%%%%%%%%%%%%%%%%%%%%%%%%%%%%%%%%%%%%%
     %                                                                      %
     % You are using vdW-DF, which was implemented by the Thonhauser group. %
     % Please cite the following two papers that made this development      %
     % possible and the two reviews that describe the various versions:     %
     %                                                                      %
     %   T. Thonhauser et al., PRL 115, 136402 (2015).                      %
     %   T. Thonhauser et al., PRB 76, 125112 (2007).                       %
     %   K. Berland et al., Rep. Prog. Phys. 78, 066501 (2015).             %
     %   D.C. Langreth et al., J. Phys.: Condens. Matter 21, 084203 (2009). %
     %                                                                      %
     %                                                                      %
     % If you are calculating the stress with vdW-DF, please also cite:     %
     %                                                                      %
     %   R. Sabatini et al., J. Phys.: Condens. Matter 24, 424209 (2012).   %
     %                                                                      %
     %%%%%%%%%%%%%%%%%%%%%%%%%%%%%%%%%%%%%%%%%%%%%%%%%%%%%%%%%%%%%%%%%%%%%%%%

     Adding external electric field

     Computed dipole along edir(3) :
        Dipole               -8.0661 Ry au,        -20.5020 Debye
        Dipole field         -0.0152 Ry au,

        Potential amp.        1.4110 Ry
        Total length         46.3494 bohr

     Starting wfcs are  299 atomic wfcs
  @ DRIVER MODE: Message from server: STATUS
  @ DRIVER MODE: Message from server: POSDATA
  @ DRIVER MODE: Reading and sharing cell
  @ DRIVER MODE: Reading and sharing positions
  @ DRIVER MODE: Received positions

     Self-consistent Calculation

     iteration #  1     ecut=    29.40 Ry     beta= 0.05
     Davidson diagonalization with overlap
     c_bands:  1 eigenvalues not converged
     c_bands:  1 eigenvalues not converged
     c_bands:  3 eigenvalues not converged
     c_bands:  1 eigenvalues not converged
     c_bands:  1 eigenvalues not converged
     c_bands:  1 eigenvalues not converged
     ethr =  1.00E-05,  avg # of iterations = 18.6

[...]

     total energy              =   -2618.22247230 Ry
     estimated scf accuracy    <    3681.47300287 Ry

     iteration #  2     ecut=    29.40 Ry     beta= 0.05
     Davidson diagonalization with overlap
     ethr =  1.00E-02,  avg # of iterations = 22.0

[...]

     iteration # 56     ecut=    29.40 Ry     beta= 0.05
     Davidson diagonalization with overlap
     c_bands:  1 eigenvalues not converged
     ethr =  6.41E-07,  avg # of iterations = 10.0

[...]

     total energy              =   -2951.37645975 Ry
     estimated scf accuracy    <       0.00000024 Ry

     iteration # 83     ecut=    29.40 Ry     beta= 0.05
     Davidson diagonalization with overlap
     ethr =  5.74E-11,  avg # of iterations =  2.0

     negative rho (up, down):  1.666E-02 0.000E+00

     Adding external electric field

     Computed dipole along edir(3) :
        Dipole                0.1872 Ry au,          0.4758 Debye
        Dipole field          0.0004 Ry au,

        Potential amp.       -0.0327 Ry
        Total length         46.3494 bohr

     End of self-consistent calculation

          k = 0.0000 0.0000 0.0000 ( 18029 PWs)   bands (ev):

   -56.4223 -56.3884 -56.1537 -56.1448 -56.1110 -55.9457 -55.8926 -55.8632
   -55.8575 -55.8487 -55.8136 -55.7243 -55.6706 -55.5304 -55.2737 -55.2397
   -32.8868 -32.7165 -32.6962 -32.6177 -32.5766 -32.5100 -32.4830 -32.4471
   -32.4294 -32.4237 -32.3733 -32.3635 -32.3617 -32.3607 -32.3499 -32.3054
   -32.2836 -32.2643 -32.2500 -32.1757 -32.1621 -32.1548 -32.1448 -32.1194
   -32.1025 -32.1010 -32.0938 -32.0664 -32.0618 -32.0527 -32.0363 -32.0136
   -31.9971 -31.9771 -31.9651 -31.9577 -31.9402 -31.8699 -31.8658 -31.7897
   -31.7607 -31.7422 -31.6740 -31.6018 -31.5786 -31.4923 -31.4069 -31.2948
   -16.9202 -16.8199 -16.5907 -16.4375 -16.2721 -16.1788 -16.0511 -16.0244
   -15.9253 -15.8957 -15.8133 -15.7754 -15.7368 -15.6625 -15.6054 -15.5858
   -15.5542 -15.5227 -15.5147 -15.5066 -15.4991 -15.4885 -15.4527 -15.3347
   -15.2938 -15.2462 -15.2293 -15.2154 -15.0850 -14.8300 -14.7835 -13.7709
   -13.6570  -8.2172  -4.6884  -4.2748  -4.2353  -4.1193  -3.9449  -3.8846
    -3.8368  -3.5987  -3.5563  -3.5489  -3.3543  -3.2935  -3.2014  -3.1566
    -3.1413  -3.0979  -3.0259  -3.0146  -2.9854  -2.8964  -2.8564  -2.8481
    -2.8219  -2.7753  -2.7678  -2.6832  -2.6428  -2.6213  -2.5520  -2.5004
    -2.4696  -2.4552  -2.4328  -2.4222  -2.3797  -2.3674  -2.3445  -2.1976
    -2.1835  -2.1607  -2.0822  -2.0082  -1.8498  -1.7680  -1.7598  -1.6600
    -1.5814  -1.5720  -1.5205  -1.4722  -1.3852  -1.3717  -1.3649  -1.3257
    -1.2397  -1.2207  -1.1775  -1.1254  -1.0491  -0.9606  -0.9536  -0.9054
    -0.8737  -0.8077  -0.7200  -0.6836  -0.6251  -0.5855  -0.5521  -0.4809
    -0.4305  -0.4040  -0.3795  -0.3695  -0.3082  -0.2482  -0.2021  -0.1758
    -0.1068  -0.0934  -0.0495   0.0136   0.0359   0.0441   0.1628   0.2060
     0.2190   0.2687   0.3795   0.4367   0.5242   0.5842   0.6553   0.7524
     0.7586   0.9665   1.0727   1.3066   1.3470   2.5853   2.7664   2.8881
     2.9568   3.1577   3.2051   3.2356   3.5135   3.5284   3.5365   3.6195

[...]

          k = 0.0380-0.0419 0.0000 ( 17876 PWs)   bands (ev):

[...]

          k =-0.0760-0.0000 0.0000 ( 17886 PWs)   bands (ev):

[...]

          k =-0.0760-0.0839 0.0000 ( 17948 PWs)   bands (ev):

   -56.4058 -56.4048 -56.1530 -56.1296 -56.1260 -55.9395 -55.8986 -55.8606
   -55.8585 -55.8354 -55.8267 -55.7263 -55.6686 -55.5322 -55.2572 -55.2561
   -32.7033 -32.7030 -32.7013 -32.7009 -32.5285 -32.5271 -32.4496 -32.4449
   -32.4252 -32.3821 -32.3707 -32.3378 -32.3330 -32.3217 -32.3153 -32.2853
   -32.2426 -32.2411 -32.2126 -32.1681 -32.1650 -32.1647 -32.1602 -32.1529
   -32.1245 -32.1216 -32.1158 -32.0708 -32.0681 -32.0622 -32.0587 -32.0577
   -32.0420 -32.0077 -31.9870 -31.9620 -31.9487 -31.9321 -31.8790 -31.8714
   -31.7923 -31.7458 -31.5919 -31.5911 -31.4885 -31.4871 -31.4502 -31.4492
   -16.9053 -16.2397 -16.2143 -16.1238 -16.0937 -16.0689 -16.0470 -16.0345
   -15.8893 -15.8794 -15.8654 -15.7977 -15.7475 -15.7294 -15.6967 -15.6915
   -15.6344 -15.6201 -15.6087 -15.5558 -15.5472 -15.5249 -15.5106 -15.4767
   -15.4460 -15.4180 -15.2529 -15.1995 -15.1430 -15.1199 -14.9165 -13.7599
   -13.7593  -8.2287  -4.6802  -4.1370  -3.5307  -3.4880  -3.3644  -3.3545
    -3.2269  -3.2218  -3.1429  -3.0707  -3.0697  -2.9957  -2.9814  -2.9722
    -2.9340  -2.9155  -2.9084  -2.9067  -2.8672  -2.8568  -2.8353  -2.8193
    -2.8159  -2.8008  -2.7621  -2.7241  -2.7015  -2.6894  -2.6339  -2.6209
    -2.5008  -2.4357  -2.4059  -2.4054  -2.3868  -2.3493  -2.3157  -2.2997
    -2.2711  -2.2353  -2.1546  -2.0344  -2.0135  -1.8185  -1.7996  -1.7695
    -1.7491  -1.7020  -1.6980  -1.6319  -1.5805  -1.5664  -1.5498  -1.5257
    -1.4248  -1.3722  -1.3229  -1.3186  -1.2657  -1.2478  -1.2006  -1.0979
    -1.0490  -1.0189  -0.9915  -0.9795  -0.9419  -0.9158  -0.8617  -0.8223
    -0.8181  -0.7905  -0.7491  -0.5781  -0.4084  -0.3661  -0.3442  -0.2732
    -0.2586  -0.2088  -0.0731  -0.0274  -0.0208   0.0184   0.0596   0.0869
     0.1022   0.1637   0.3452   0.3622   0.4289   0.4782   0.4844   0.5709
     0.6677   1.1311   1.1388   1.1658   1.1666   2.6141   3.3113   3.3133
     3.3149   3.3313   3.4058   3.4717   3.4809   3.5163   3.5966   3.6340

     the Fermi energy is     2.7301 ev

!    total energy              =   -2951.37646786 Ry
     estimated scf accuracy    <       0.00000007 Ry
     smearing contrib. (-TS)   =      -0.01734496 Ry
     internal energy E=F+TS    =   -2951.35912290 Ry

     The total energy is F=E-TS. E is the sum of the following terms:
     one-electron contribution =  -24272.89894837 Ry
     hartree contribution      =   12222.52518384 Ry
     xc contribution           =    -487.04657084 Ry
     ewald contribution        =    9586.06114635 Ry
     electric field correction =       0.00006612 Ry

     convergence has been achieved in  83 iterations

     Forces acting on atoms (cartesian axes, Ry/au):

     atom    1 type  1   force =     0.00006737   -0.00028528    0.10079726
     atom    2 type  1   force =    -0.00005524    0.00024695   -0.16927366
     atom    3 type  2   force =     0.00000576   -0.00004415   -0.02990976
     atom    4 type  2   force =     0.00000180   -0.00099396    0.04192380
     atom    5 type  2   force =    -0.00520318   -0.00242187   -0.00302808
     atom    6 type  2   force =     0.00635443   -0.00183928   -0.00463747
     atom    7 type  1   force =    -0.00065890   -0.00536920    0.02523861
     atom    8 type  1   force =     0.00077820    0.01605272    0.04126462
     atom    9 type  2   force =    -0.00021525    0.00023763    0.00022335
     atom   10 type  2   force =    -0.00258107    0.00082960   -0.03427523
     atom   11 type  2   force =     0.00011482    0.00002640    0.00009727
     atom   12 type  2   force =     0.00022006   -0.00035948    0.00007597
     atom   13 type  1   force =    -0.00070427   -0.00009241   -0.00033673
     atom   14 type  1   force =     0.00018403    0.00008948    0.00014323
     atom   15 type  2   force =     0.00020925    0.00007894    0.00017658
     atom   16 type  2   force =     0.00004715   -0.00016058   -0.00005148
     atom   17 type  2   force =    -0.00006732    0.00010369    0.00023257
     atom   18 type  2   force =     0.00019196   -0.00008824    0.00016604
     atom   19 type  1   force =    -0.00001208    0.00020443    0.00010839
     atom   20 type  1   force =     0.00003497    0.00025724    0.00035197
     atom   21 type  2   force =     0.00007241    0.00015261    0.10151979
     atom   22 type  2   force =    -0.00002534    0.00017320    0.00037985
     atom   23 type  2   force =    -0.07486602   -0.00008612   -0.02882816
     atom   24 type  2   force =     0.07479815    0.00036549   -0.02885895
     atom   25 type  1   force =     0.00018805   -0.00035332    0.10065639
     atom   26 type  1   force =     0.00001167   -0.00114516   -0.16949218
     atom   27 type  2   force =     0.00004593   -0.00040049   -0.02839798
     atom   28 type  2   force =     0.00000932    0.00074513    0.03790588
     atom   29 type  2   force =    -0.00389642    0.00436056   -0.00525392
     atom   30 type  2   force =     0.00497485    0.00488463   -0.00692516
     atom   31 type  1   force =    -0.00064214    0.00466785    0.01107812
     atom   32 type  1   force =     0.00089052   -0.01904997    0.04062860
     atom   33 type  2   force =     0.00044176   -0.00000343    0.00030525
     atom   34 type  2   force =    -0.00214234    0.00070579   -0.03952455
     atom   35 type  2   force =     0.00012930   -0.00049558   -0.00011189
     atom   36 type  2   force =     0.00014257   -0.00022995    0.00013033
     atom   37 type  1   force =    -0.00004300   -0.00010477   -0.00009938
     atom   38 type  1   force =     0.00001761    0.00007397    0.00003469
     atom   39 type  2   force =    -0.00003504    0.00036892   -0.00010743
     atom   40 type  2   force =     0.00032567   -0.00005775    0.00033838
     atom   41 type  2   force =     0.00006778    0.00010224    0.00036495
     atom   42 type  2   force =    -0.00008156    0.00012431    0.00034232
     atom   43 type  1   force =     0.00016019   -0.00003245    0.00035868
     atom   44 type  1   force =    -0.00017527    0.00011605   -0.00075091
     atom   45 type  2   force =     0.00006791   -0.00000105    0.10131303
     atom   46 type  2   force =    -0.07491376   -0.00001406   -0.02885788
     atom   47 type  2   force =     0.07482970    0.00041365   -0.02888493
     atom   48 type  3   force =     0.00099319   -0.00016601    0.00147278
     atom   49 type  4   force =    -0.00332085    0.00028930    0.00077856
     atom   50 type  5   force =     0.00102415   -0.00064356   -0.00158491
     atom   51 type  5   force =     0.00185094   -0.00067520   -0.00005605
     atom   52 type  2   force =    -0.00021864   -0.00018171    0.00177140
     atom   53 type  5   force =     0.00060623   -0.00037574   -0.00093197

     Total force =     0.369754     Total SCF correction =     0.001003
  @ DRIVER MODE: Message from server: STATUS
  @ DRIVER MODE: Message from server: GETFORCE
  @ DRIVER MODE: Returning v,forces,stress,ensemble

     Writing output data file ./calc.save/
  @ DRIVER MODE: Message from server: EXIT
  @ DRIVE MODE: Exiting

     General routines

     Parallel routines

   This run was terminated on:  22: 1:24  22Sep2021

   JOB DONE.