     Program PWSCF v.6.7GPU starts on 24Sep2021 at  4:46: 5

     R & G space division:  proc/nbgrp/npool/nimage =       8
     Reading input from /storage/home/hcoda1/3/ntian30/research/carbon/CxH_vib/H2O_calc/ads_slab/CH2NNHHHO_a/out_0041/pw.inp
Warning: card &CELL ignored
Warning: card   CELL_DYNAMICS='IPI', ignored
Warning: card / ignored

     Current dimensions of program PWSCF are:
     Max number of different atomic species (ntypx) = 10
     Max number of k-points (npk) =  40000
     Max angular momentum in pseudopotentials (lmaxx) =  3
     Presently no symmetry can be used with electric field

     Message from routine cell_base_init:
     DEPRECATED: use true lattice parameter, not A to a.u. conversion factor

     IMPORTANT: XC functional enforced from input :
     Exchange-correlation= BEEF-VDW
                           (   1   4  43  14   2   0   0)
     Any further DFT definition will be discarded
     Please, verify this is what you really want

  @ DRIVER MODE: Connecting to
 qe_1139763_2947314.sched-torque.pace.gatech.edu1_y5mc4e_scratch
  using UNIX socket
  @ DRIVER MODE: Message from server: STATUS
  @ DRIVER MODE: Message from server: INIT
  @ DRIVER MODE: Receiving replica           0          -1
  @ DRIVER MODE: Receiving encoded integer          25
  @ DRIVER MODE:  SCF:  T  FORCE:  T  STRESS:  F  VC:  F  ENSEMBLE:  F
  @ DRIVER MODE:  SCF:  T  FORCE:  T  STRESS:  F  VC:  F  ENSEMBLE:  F

     Using Slab Decomposition

     bravais-lattice index     =            0
     lattice parameter (alat)  =       1.8897  a.u.
     unit-cell volume          =    6658.9804 (a.u.)^3
     number of atoms/cell      =           56
     number of atomic types    =            5
     number of electrons       =       403.00
     number of Kohn-Sham states=          211
     kinetic-energy cutoff     =      29.3995  Ry
     charge density cutoff     =     293.9946  Ry
     scf convergence threshold =      7.3E-08
     mixing beta               =       0.0500
     number of iterations used =            8  plain     mixing
     Exchange-correlation= BEEF-VDW
                           (   1   4  43  14   2   0   0)

     celldm(1)=   1.889726  celldm(2)=   0.000000  celldm(3)=   0.000000
     celldm(4)=   0.000000  celldm(5)=   0.000000  celldm(6)=   0.000000

     crystal axes: (cart. coord. in units of alat)
               a(1) = (   6.579727   0.000000   0.000000 )
               a(2) = (  -0.000775   5.961596   0.000000 )
               a(3) = (   0.000000   0.000000  25.155947 )

     reciprocal axes: (cart. coord. in units 2 pi/alat)
               b(1) = (  0.151982  0.000020  0.000000 )
               b(2) = (  0.000000  0.167740  0.000000 )
               b(3) = (  0.000000  0.000000  0.039752 )

     PseudoPot. # 1 for Ti read from file:
     /storage/coda1/p-amedford6/0/shared/rich_project_chbe-medford/medford-share/data/pseudos_module/espresso/nninc/pbe/van/Ti.UPF
     MD5 check sum: 8e4df49b7f0d34bbd5052bf3f5ea0213
     Pseudo is Ultrasoft, Zval = 12.0
     Generated by new atomic code, or converted to UPF format
     Using radial grid of  851 points,  6 beta functions with:
                l(1) =   0
                l(2) =   0
                l(3) =   1
                l(4) =   1
                l(5) =   2
                l(6) =   2
     Q(r) pseudized with  8 coefficients,  rinner =    1.000   1.000   1.000
                                                       1.000   1.000

     PseudoPot. # 2 for O  read from file:
     /storage/coda1/p-amedford6/0/shared/rich_project_chbe-medford/medford-share/data/pseudos_module/espresso/nninc/pbe/van/O.UPF
     MD5 check sum: 78c19812648e8988a0fe644b0f25305e
     Pseudo is Ultrasoft, Zval =  6.0
     Generated by new atomic code, or converted to UPF format
     Using radial grid of  737 points,  4 beta functions with:
                l(1) =   0
                l(2) =   0
                l(3) =   1
                l(4) =   1
     Q(r) pseudized with  8 coefficients,  rinner =    0.800   0.800   0.800

     PseudoPot. # 3 for N  read from file:
     /storage/coda1/p-amedford6/0/shared/rich_project_chbe-medford/medford-share/data/pseudos_module/espresso/nninc/pbe/van/N.UPF
     MD5 check sum: 90d10febe142ad51ac9d5be1deb811c4
     Pseudo is Ultrasoft, Zval =  5.0
     Generated by new atomic code, or converted to UPF format
     Using radial grid of  729 points,  4 beta functions with:
                l(1) =   0
                l(2) =   0
                l(3) =   1
                l(4) =   1
     Q(r) pseudized with  8 coefficients,  rinner =    0.800   0.800   0.800

     PseudoPot. # 4 for C  read from file:
     /storage/coda1/p-amedford6/0/shared/rich_project_chbe-medford/medford-share/data/pseudos_module/espresso/nninc/pbe/van/C.UPF
     MD5 check sum: 1a69bf6b8db32088f5b2163dbdb77a27
     Pseudo is Ultrasoft, Zval =  4.0
     Generated by new atomic code, or converted to UPF format
     Using radial grid of  721 points,  4 beta functions with:
                l(1) =   0
                l(2) =   0
                l(3) =   1
                l(4) =   1
     Q(r) pseudized with  8 coefficients,  rinner =    0.800   0.800   0.800

     PseudoPot. # 5 for H  read from file:
     /storage/coda1/p-amedford6/0/shared/rich_project_chbe-medford/medford-share/data/pseudos_module/espresso/nninc/pbe/van/H.UPF
     MD5 check sum: b5ee9d7bfd3a09ee7748110bda690ff7
     Pseudo is Ultrasoft, Zval =  1.0
     Generated by new atomic code, or converted to UPF format
     Using radial grid of  615 points,  1 beta functions with:
                l(1) =   0
     Q(r) pseudized with  8 coefficients,  rinner =    0.800

     atomic species   valence    mass     pseudopotential
        Ti1           12.00    47.86700     Ti( 1.00)
        O1             6.00    15.99900     O ( 1.00)
        N1             5.00    14.00700     N ( 1.00)
        C1             4.00    12.01100     C ( 1.00)
        H1             1.00     1.00800     H ( 1.00)

     No symmetry found

   Cartesian axes

     site n.     atom                  positions (alat units)
         1           Ti1 tau(   1) = (   0.0004258   2.9801865   6.0000000  )
         2           Ti1 tau(   2) = (   3.2906075   1.4906267   6.0002472  )
         3           O1  tau(   3) = (   0.0006271   0.0005054   7.9858123  )
         4           O1  tau(   4) = (   3.2906025   0.0005020   7.3038282  )
         5           O1  tau(   5) = (   4.5942328   1.4918067   9.2879030  )
         6           O1  tau(   6) = (   1.9868534   1.4903216   9.2879459  )
         7           Ti1 tau(   7) = (   3.2907910   2.8959150   9.1758416  )
         8           Ti1 tau(   8) = (   0.0015273   1.4827037   9.2680791  )
         9           O1  tau(   9) = (   3.2834828   5.9254549  11.3560997  )
        10           O1  tau(  10) = (   0.0116148   5.9584955  10.6183126  )
        11           O1  tau(  11) = (   1.2632982   1.4794151  12.6467768  )
        12           O1  tau(  12) = (   5.2979234   1.4912170  12.6376735  )
        13           Ti1 tau(  13) = (   6.5593102   2.9584919  12.5255918  )
        14           Ti1 tau(  14) = (   3.2941082   1.2876829  12.7086691  )
        15           O1  tau(  15) = (   6.5459232   0.0848410  14.6672212  )
        16           O1  tau(  16) = (   3.2899079   0.0686032  13.9983899  )
        17           O1  tau(  17) = (   4.5347701   1.5447734  16.1667714  )
        18           O1  tau(  18) = (   1.9898569   1.5359154  16.1924900  )
        19           Ti1 tau(  19) = (   3.2532585   2.9792413  15.6887139  )
        20           Ti1 tau(  20) = (   6.5162390   1.4193964  16.0443711  )
        21           O1  tau(  21) = (   3.2904802   0.0005063   4.7018136  )
        22           O1  tau(  22) = (   6.5314393   5.8470953  17.1670503  )
        23           O1  tau(  23) = (   1.3043587   1.4918075   6.0039043  )
        24           O1  tau(  24) = (   5.2767064   1.4903225   6.0039473  )
        25           Ti1 tau(  25) = (   0.0000382   5.9609847   6.0000000  )
        26           Ti1 tau(  26) = (   3.2902200   4.4714249   6.0002472  )
        27           O1  tau(  27) = (   0.0002396   2.9813036   7.9858123  )
        28           O1  tau(  28) = (   3.2902150   2.9813002   7.3038282  )
        29           O1  tau(  29) = (   4.5938453   4.4726049   9.2879030  )
        30           O1  tau(  30) = (   1.9864658   4.4711199   9.2879459  )
        31           Ti1 tau(  31) = (   3.2891106   5.8743827   9.1763621  )
        32           Ti1 tau(  32) = (   0.0006254   4.4649316   9.2693709  )
        33           O1  tau(  33) = (   3.2801501   3.0037454  11.3162440  )
        34           O1  tau(  34) = (   0.0092240   2.9805883  10.6323155  )
        35           O1  tau(  35) = (   1.2628463   4.4620516  12.6871769  )
        36           O1  tau(  36) = (   5.2965349   4.4479299  12.6783795  )
        37           Ti1 tau(  37) = (   0.0245004   5.9521619  12.5031165  )
        38           Ti1 tau(  38) = (   3.2934334   4.3725749  12.4478892  )
        39           O1  tau(  39) = (   0.0012172   2.9324930  14.9038371  )
        40           O1  tau(  40) = (   3.2612729   2.9642313  13.9201381  )
        41           O1  tau(  41) = (   4.5459169   4.3864222  16.0774642  )
        42           O1  tau(  42) = (   2.0085495   4.4473877  16.1057765  )
        43           Ti1 tau(  43) = (   3.2275989   5.9528725  16.3079466  )
        44           Ti1 tau(  44) = (   6.5418721   4.6299905  15.7990834  )
        45           O1  tau(  45) = (   3.2900926   2.9813045   4.7018136  )
        46           O1  tau(  46) = (   1.3039711   4.4726057   6.0039043  )
        47           O1  tau(  47) = (   5.2763189   4.4711207   6.0039473  )
        48           N1  tau(  48) = (   6.5153795   2.7269917  18.1720481  )
        49           C1  tau(  49) = (   0.9714328   2.6352729  18.9176740  )
        50           H1  tau(  50) = (   0.9613011   2.9697384  19.9541300  )
        51           H1  tau(  51) = (   1.8619620   2.1844435  18.5121220  )
        52           N1  tau(  52) = (   5.3313596   3.1722530  18.7397816  )
        53           H1  tau(  53) = (   5.4931776   3.7097374  19.5894643  )
        54           H1  tau(  54) = (   4.8256156   3.7472006  18.0607398  )
        55           O1  tau(  55) = (   3.3867674   5.8992794  18.1610867  )
        56           H1  tau(  56) = (   4.0349165   0.5560778  18.5374839  )

     number of k points=    10  Fermi-Dirac smearing, width (Ry)=  0.0073
                       cart. coord. in units 2pi/alat
        k(    1) = (   0.0000000   0.0000000   0.0000000), wk =   0.1250000
        k(    2) = (   0.0000000   0.0419351   0.0000000), wk =   0.2500000
        k(    3) = (   0.0000000  -0.0838702   0.0000000), wk =   0.1250000
        k(    4) = (   0.0379955   0.0000049   0.0000000), wk =   0.2500000
        k(    5) = (   0.0379955   0.0419400   0.0000000), wk =   0.2500000
        k(    6) = (   0.0379955  -0.0838652   0.0000000), wk =   0.2500000
        k(    7) = (   0.0379955  -0.0419301   0.0000000), wk =   0.2500000
        k(    8) = (  -0.0759910  -0.0000099   0.0000000), wk =   0.1250000
        k(    9) = (  -0.0759910   0.0419252   0.0000000), wk =   0.2500000
        k(   10) = (  -0.0759910  -0.0838800   0.0000000), wk =   0.1250000

     Initial potential from superposition of free atoms

     starting charge  386.99914, renormalised to  403.00000

     negative rho (up, down):  1.547E-02 0.000E+00

     %%%%%%%%%%%%%%%%%%%%%%%%%%%%%%%%%%%%%%%%%%%%%%%%%%%%%%%%%%%%%%%%%%%%%%%%
     %                                                                      %
     % You are using vdW-DF, which was implemented by the Thonhauser group. %
     % Please cite the following two papers that made this development      %
     % possible and the two reviews that describe the various versions:     %
     %                                                                      %
     %   T. Thonhauser et al., PRL 115, 136402 (2015).                      %
     %   T. Thonhauser et al., PRB 76, 125112 (2007).                       %
     %   K. Berland et al., Rep. Prog. Phys. 78, 066501 (2015).             %
     %   D.C. Langreth et al., J. Phys.: Condens. Matter 21, 084203 (2009). %
     %                                                                      %
     %                                                                      %
     % If you are calculating the stress with vdW-DF, please also cite:     %
     %                                                                      %
     %   R. Sabatini et al., J. Phys.: Condens. Matter 24, 424209 (2012).   %
     %                                                                      %
     %%%%%%%%%%%%%%%%%%%%%%%%%%%%%%%%%%%%%%%%%%%%%%%%%%%%%%%%%%%%%%%%%%%%%%%%

     Adding external electric field

     Computed dipole along edir(3) :
        Dipole              -13.0221 Ry au,        -33.0988 Debye
        Dipole field         -0.0246 Ry au,

        Potential amp.        2.2780 Ry
        Total length         46.3494 bohr

     Starting wfcs are  305 atomic wfcs
  @ DRIVER MODE: Message from server: STATUS
  @ DRIVER MODE: Message from server: POSDATA
  @ DRIVER MODE: Reading and sharing cell
  @ DRIVER MODE: Reading and sharing positions
  @ DRIVER MODE: Received positions

     Self-consistent Calculation

     iteration #  1     ecut=    29.40 Ry     beta= 0.05
     Davidson diagonalization with overlap
     c_bands:  4 eigenvalues not converged
     c_bands:  5 eigenvalues not converged
     c_bands:  3 eigenvalues not converged
     c_bands:  1 eigenvalues not converged
     c_bands:  5 eigenvalues not converged
     c_bands:  2 eigenvalues not converged
     c_bands:  3 eigenvalues not converged
     ethr =  1.00E-05,  avg # of iterations = 28.6

[...]

     total energy              =   -2311.56930983 Ry
     estimated scf accuracy    <    7504.57372329 Ry

     iteration #  2     ecut=    29.40 Ry     beta= 0.05
     Davidson diagonalization with overlap
     ethr =  1.00E-02,  avg # of iterations = 25.3

[...]

     iteration # 65     ecut=    29.40 Ry     beta= 0.05
     Davidson diagonalization with overlap
     c_bands:  1 eigenvalues not converged
     ethr =  1.92E-07,  avg # of iterations = 11.4

[...]

     total energy              =   -2974.00151976 Ry
     estimated scf accuracy    <       0.00000012 Ry

     iteration # 85     ecut=    29.40 Ry     beta= 0.05
     Davidson diagonalization with overlap
     ethr =  3.07E-11,  avg # of iterations =  5.4

     negative rho (up, down):  1.591E-02 0.000E+00

     Adding external electric field

     Computed dipole along edir(3) :
        Dipole                1.0873 Ry au,          2.7636 Debye
        Dipole field          0.0021 Ry au,

        Potential amp.       -0.1902 Ry
        Total length         46.3494 bohr

     End of self-consistent calculation

          k = 0.0000 0.0000 0.0000 ( 18029 PWs)   bands (ev):

   -55.5972 -55.5321 -55.4980 -55.3815 -55.3749 -55.3588 -55.3453 -55.3331
   -55.3249 -55.2971 -55.2496 -55.1499 -55.1339 -55.0577 -54.5001 -54.4661
   -32.0163 -31.9347 -31.8990 -31.8669 -31.8617 -31.8266 -31.8230 -31.8085
   -31.7820 -31.7778 -31.7599 -31.6846 -31.6589 -31.6505 -31.6383 -31.6351
   -31.6235 -31.6130 -31.5896 -31.5894 -31.5833 -31.5554 -31.5449 -31.5400
   -31.5220 -31.5177 -31.5135 -31.4987 -31.4893 -31.4864 -31.4785 -31.4694
   -31.4693 -31.4459 -31.4238 -31.4048 -31.3465 -31.3387 -31.3060 -31.2952
   -31.2764 -31.2640 -30.9057 -30.8202 -30.7978 -30.7234 -30.6370 -30.5251
   -18.3718 -16.4384 -16.1691 -16.0020 -15.7895 -15.7095 -15.6708 -15.4775
   -15.3854 -15.3238 -15.0948 -15.0716 -15.0662 -15.0412 -15.0327 -15.0153
   -14.9987 -14.9589 -14.9499 -14.9417 -14.9181 -14.9034 -14.8713 -14.8196
   -14.7775 -14.7606 -14.6654 -14.5972 -14.5507 -14.3163 -14.2169 -13.4760
   -12.9985 -12.8823  -8.5455  -6.2498  -5.8394  -4.0409  -3.8420  -3.5308
    -3.4352  -3.4142  -3.3538  -3.2901  -3.0491  -2.9738  -2.8856  -2.8358
    -2.7633  -2.6480  -2.5992  -2.5288  -2.4576  -2.4483  -2.4011  -2.3717
    -2.3101  -2.2972  -2.2613  -2.2541  -2.1838  -2.1640  -2.0632  -2.0510
    -2.0360  -1.9016  -1.8890  -1.8458  -1.8381  -1.8378  -1.7991  -1.7803
    -1.7646  -1.7481  -1.6432  -1.6044  -1.5834  -1.5119  -1.4794  -1.1635
    -1.1309  -1.0847  -1.0689  -1.0184  -0.9658  -0.9427  -0.9200  -0.8555
    -0.8173  -0.7671  -0.7346  -0.7017  -0.6208  -0.5845  -0.5427  -0.4595
    -0.3854  -0.3105  -0.3053  -0.2608  -0.2328  -0.2064  -0.1082  -0.0827
    -0.0698   0.0289   0.0507   0.1251   0.1655   0.2092   0.2478   0.2954
     0.3604   0.3775   0.4032   0.4390   0.4469   0.5019   0.5222   0.5810
     0.6341   0.6490   0.7469   0.8049   0.8194   0.8390   0.9540   1.0243
     1.1440   1.1521   1.2527   1.4785   1.5265   1.5702   1.7198   2.0926
     2.1377   3.5545   3.7033   3.7199   3.7638   3.8108   3.8949   4.0414
     4.1041   4.2423   4.2587

[...]

          k = 0.0380-0.0419 0.0000 ( 17876 PWs)   bands (ev):

[...]

          k =-0.0760-0.0000 0.0000 ( 17886 PWs)   bands (ev):

[...]

          k =-0.0760-0.0839 0.0000 ( 17948 PWs)   bands (ev):

   -55.5965 -55.5151 -55.5148 -55.3736 -55.3682 -55.3584 -55.3419 -55.3414
   -55.3337 -55.2901 -55.2566 -55.1468 -55.1351 -55.0607 -54.4834 -54.4826
   -31.8801 -31.8317 -31.8316 -31.8295 -31.8176 -31.8086 -31.8083 -31.8015
   -31.7348 -31.6873 -31.6783 -31.6679 -31.6629 -31.6353 -31.6350 -31.6335
   -31.6317 -31.6171 -31.6146 -31.5998 -31.5872 -31.5782 -31.5681 -31.5579
   -31.5492 -31.5450 -31.5362 -31.5355 -31.5200 -31.5146 -31.5120 -31.5082
   -31.5078 -31.4798 -31.4758 -31.4178 -31.3989 -31.3748 -31.3490 -31.3424
   -31.3125 -31.2680 -30.8107 -30.8102 -30.7192 -30.7180 -30.6805 -30.6799
   -18.3688 -16.4227 -15.7502 -15.6253 -15.4993 -15.4949 -15.3744 -15.2967
   -15.2793 -15.2510 -15.2389 -15.2049 -15.1874 -15.1517 -15.1205 -15.0886
   -15.0486 -15.0276 -15.0143 -14.9750 -14.9644 -14.9474 -14.9377 -14.9146
   -14.8734 -14.8376 -14.8267 -14.6833 -14.6287 -14.5809 -14.4428 -13.4849
   -12.9844 -12.9840  -8.5221  -6.2149  -5.8590  -3.9922  -3.9186  -2.9813
    -2.9199  -2.8191  -2.7155  -2.6207  -2.5664  -2.5310  -2.4937  -2.4490
    -2.4267  -2.3765  -2.3360  -2.3154  -2.3071  -2.2744  -2.2655  -2.2504
    -2.2305  -2.2154  -2.2003  -2.1901  -2.1618  -2.1446  -2.1437  -2.1100
    -2.0986  -2.0710  -2.0631  -2.0107  -1.9129  -1.8845  -1.7910  -1.6909
    -1.6830  -1.6700  -1.6461  -1.6081  -1.5970  -1.5714  -1.5350  -1.4743
    -1.4661  -1.3027  -1.2491  -1.2189  -1.1452  -1.0895  -1.0588  -1.0314
    -0.9880  -0.9633  -0.8898  -0.8599  -0.7635  -0.7092  -0.6828  -0.6230
    -0.5473  -0.4831  -0.4741  -0.4681  -0.4412  -0.4181  -0.3927  -0.3623
    -0.3379  -0.2674  -0.2295  -0.2108  -0.2007  -0.1458  -0.1000   0.0029
     0.1293   0.2379   0.2548   0.2851   0.3241   0.4744   0.5190   0.5798
     0.6277   0.6588   0.6890   0.7826   0.7938   0.8770   0.9034   0.9462
     0.9861   1.0095   1.0419   1.0713   1.0801   1.8900   1.8973   1.9580
     1.9583   3.7727   4.0506   4.0756   4.0841   4.1026   4.1218   4.1374
     4.1568   4.2283   4.2321

     the Fermi energy is     3.5900 ev

!    total energy              =   -2974.00153093 Ry
     estimated scf accuracy    <       0.00000005 Ry
     smearing contrib. (-TS)   =      -0.01962122 Ry
     internal energy E=F+TS    =   -2973.98190971 Ry

     The total energy is F=E-TS. E is the sum of the following terms:
     one-electron contribution =  -23472.43576587 Ry
     hartree contribution      =   11831.61869725 Ry
     xc contribution           =    -494.06003048 Ry
     ewald contribution        =    9160.89295843 Ry
     electric field correction =       0.00223096 Ry

     convergence has been achieved in  85 iterations

     Forces acting on atoms (cartesian axes, Ry/au):

     atom    1 type  1   force =     0.00012746   -0.00018965    0.09454680
     atom    2 type  1   force =    -0.00003467    0.00035050   -0.17511451
     atom    3 type  2   force =    -0.00002614   -0.00002797   -0.02133023
     atom    4 type  2   force =     0.00001403   -0.00189705    0.05325929
     atom    5 type  2   force =    -0.00695050   -0.00239505    0.00356119
     atom    6 type  2   force =     0.00805876   -0.00193160    0.00204002
     atom    7 type  1   force =    -0.00070118   -0.00278069    0.01000025
     atom    8 type  1   force =     0.00060868    0.00276570    0.00500086
     atom    9 type  2   force =     0.00003314   -0.00046614    0.00024252
     atom   10 type  2   force =    -0.00253917   -0.00140526   -0.01077113
     atom   11 type  2   force =     0.00128967   -0.00017777    0.00054953
     atom   12 type  2   force =    -0.00082485   -0.00022915    0.00065747
     atom   13 type  1   force =    -0.00094784   -0.00096180    0.00046242
     atom   14 type  1   force =     0.00031700    0.00031655    0.00008360
     atom   15 type  2   force =     0.00010361    0.00022862   -0.00041543
     atom   16 type  2   force =    -0.00044605    0.00019169    0.00009288
     atom   17 type  2   force =    -0.00018001    0.00031895    0.00013093
     atom   18 type  2   force =     0.00101110   -0.00017031   -0.00036126
     atom   19 type  1   force =     0.00094852    0.00044181    0.00000033
     atom   20 type  1   force =    -0.00070148    0.00006014    0.00012456
     atom   21 type  2   force =     0.00006249    0.00009500    0.10307195
     atom   22 type  2   force =     0.00057572    0.00069305    0.00037553
     atom   23 type  2   force =    -0.07210568   -0.00013536   -0.02733221
     atom   24 type  2   force =     0.07199058    0.00029593   -0.02733438
     atom   25 type  1   force =     0.00002455   -0.00014925    0.09403965
     atom   26 type  1   force =    -0.00015309   -0.00110122   -0.17520818
     atom   27 type  2   force =     0.00012166   -0.00024525   -0.02012357
     atom   28 type  2   force =    -0.00000322   -0.00027091    0.04933480
     atom   29 type  2   force =    -0.00564471    0.00192119    0.00158001
     atom   30 type  2   force =     0.00667236    0.00249324   -0.00001816
     atom   31 type  1   force =    -0.00072294    0.00677630   -0.00112116
     atom   32 type  1   force =     0.00050021   -0.00384958    0.00431695
     atom   33 type  2   force =     0.00016215   -0.00009814   -0.00079522
     atom   34 type  2   force =    -0.00187346    0.00169721   -0.01045629
     atom   35 type  2   force =     0.00118156    0.00029161   -0.00017002
     atom   36 type  2   force =    -0.00057341    0.00043256   -0.00025178
     atom   37 type  1   force =    -0.00064179    0.00044614   -0.00025621
     atom   38 type  1   force =     0.00055155    0.00014738    0.00011367
     atom   39 type  2   force =     0.00031178   -0.00038064    0.00038479
     atom   40 type  2   force =     0.00020967    0.00014356   -0.00033225
     atom   41 type  2   force =     0.00011959   -0.00021272   -0.00083795
     atom   42 type  2   force =     0.00039565   -0.00035723    0.00035419
     atom   43 type  1   force =    -0.00000487   -0.00057584    0.00064796
     atom   44 type  1   force =    -0.00023802   -0.00005430    0.00014238
     atom   45 type  2   force =     0.00007634   -0.00006891    0.10286122
     atom   46 type  2   force =    -0.07214436   -0.00002745   -0.02732926
     atom   47 type  2   force =     0.07206590    0.00040858   -0.02736661
     atom   48 type  3   force =     0.00084226   -0.00045015    0.00041278
     atom   49 type  4   force =     0.00048185   -0.00046019   -0.00021436
     atom   50 type  5   force =    -0.00010674   -0.00035023   -0.00011167
     atom   51 type  5   force =    -0.00023663    0.00015554    0.00009360
     atom   52 type  3   force =    -0.00507355    0.00401956   -0.00812836
     atom   53 type  5   force =    -0.00037824    0.00063198   -0.00040228
     atom   54 type  5   force =     0.00423906   -0.00436945    0.00766041
     atom   55 type  2   force =    -0.00021942    0.00096246   -0.00018640
     atom   56 type  5   force =     0.00037510   -0.00049600   -0.00017366

     Total force =     0.362176     Total SCF correction =     0.000701
  @ DRIVER MODE: Message from server: STATUS
  @ DRIVER MODE: Message from server: GETFORCE
  @ DRIVER MODE: Returning v,forces,stress,ensemble

     Writing output data file ./calc.save/
  @ DRIVER MODE: Message from server: EXIT
  @ DRIVE MODE: Exiting

     General routines

     Parallel routines

   This run was terminated on:   5:16:36  24Sep2021

   JOB DONE.