     Program PWSCF v.6.7GPU starts on 16Sep2021 at  6:28: 0

     R & G space division:  proc/nbgrp/npool/nimage =      10
     Reading input from /storage/home/hcoda1/3/ntian30/research/carbon/CxH_vib/H2O_calc/ads_slab/CH2NHHH2O_a/out_0044/pw.inp
Warning: card &CELL ignored
Warning: card   CELL_DYNAMICS='IPI', ignored
Warning: card / ignored

     Current dimensions of program PWSCF are:
     Max number of different atomic species (ntypx) = 10
     Max number of k-points (npk) =  40000
     Max angular momentum in pseudopotentials (lmaxx) =  3
     Presently no symmetry can be used with electric field

     Message from routine cell_base_init:
     DEPRECATED: use true lattice parameter, not A to a.u. conversion factor

     IMPORTANT: XC functional enforced from input :
     Exchange-correlation= BEEF-VDW
                           (   1   4  43  14   2   0   0)
     Any further DFT definition will be discarded
     Please, verify this is what you really want

  @ DRIVER MODE: Connecting to
 qe_1139763_2852609.sched-torque.pace.gatech.eduf54yytal_scratch
  using UNIX socket
  @ DRIVER MODE: Message from server: STATUS
  @ DRIVER MODE: Message from server: INIT
  @ DRIVER MODE: Receiving replica           0          -1
  @ DRIVER MODE: Receiving encoded integer          25
  @ DRIVER MODE:  SCF:  T  FORCE:  T  STRESS:  F  VC:  F  ENSEMBLE:  F
  @ DRIVER MODE:  SCF:  T  FORCE:  T  STRESS:  F  VC:  F  ENSEMBLE:  F

     Using Slab Decomposition

     bravais-lattice index     =            0
     lattice parameter (alat)  =       1.8897  a.u.
     unit-cell volume          =    6658.9804 (a.u.)^3
     number of atoms/cell      =           56
     number of atomic types    =            5
     number of electrons       =       399.00
     number of Kohn-Sham states=          209
     kinetic-energy cutoff     =      29.3995  Ry
     charge density cutoff     =     293.9946  Ry
     scf convergence threshold =      7.3E-08
     mixing beta               =       0.0500
     number of iterations used =            8  plain     mixing
     Exchange-correlation= BEEF-VDW
                           (   1   4  43  14   2   0   0)

     celldm(1)=   1.889726  celldm(2)=   0.000000  celldm(3)=   0.000000
     celldm(4)=   0.000000  celldm(5)=   0.000000  celldm(6)=   0.000000

     crystal axes: (cart. coord. in units of alat)
               a(1) = (   6.579727   0.000000   0.000000 )
               a(2) = (  -0.000775   5.961596   0.000000 )
               a(3) = (   0.000000   0.000000  25.155947 )

     reciprocal axes: (cart. coord. in units 2 pi/alat)
               b(1) = (  0.151982  0.000020  0.000000 )
               b(2) = (  0.000000  0.167740  0.000000 )
               b(3) = (  0.000000  0.000000  0.039752 )

     PseudoPot. # 1 for Ti read from file:
     /storage/coda1/p-amedford6/0/shared/rich_project_chbe-medford/medford-share/data/pseudos_module/espresso/nninc/pbe/van/Ti.UPF
     MD5 check sum: 8e4df49b7f0d34bbd5052bf3f5ea0213
     Pseudo is Ultrasoft, Zval = 12.0
     Generated by new atomic code, or converted to UPF format
     Using radial grid of  851 points,  6 beta functions with:
                l(1) =   0
                l(2) =   0
                l(3) =   1
                l(4) =   1
                l(5) =   2
                l(6) =   2
     Q(r) pseudized with  8 coefficients,  rinner =    1.000   1.000   1.000
                                                       1.000   1.000

     PseudoPot. # 2 for O  read from file:
     /storage/coda1/p-amedford6/0/shared/rich_project_chbe-medford/medford-share/data/pseudos_module/espresso/nninc/pbe/van/O.UPF
     MD5 check sum: 78c19812648e8988a0fe644b0f25305e
     Pseudo is Ultrasoft, Zval =  6.0
     Generated by new atomic code, or converted to UPF format
     Using radial grid of  737 points,  4 beta functions with:
                l(1) =   0
                l(2) =   0
                l(3) =   1
                l(4) =   1
     Q(r) pseudized with  8 coefficients,  rinner =    0.800   0.800   0.800

     PseudoPot. # 3 for N  read from file:
     /storage/coda1/p-amedford6/0/shared/rich_project_chbe-medford/medford-share/data/pseudos_module/espresso/nninc/pbe/van/N.UPF
     MD5 check sum: 90d10febe142ad51ac9d5be1deb811c4
     Pseudo is Ultrasoft, Zval =  5.0
     Generated by new atomic code, or converted to UPF format
     Using radial grid of  729 points,  4 beta functions with:
                l(1) =   0
                l(2) =   0
                l(3) =   1
                l(4) =   1
     Q(r) pseudized with  8 coefficients,  rinner =    0.800   0.800   0.800

     PseudoPot. # 4 for C  read from file:
     /storage/coda1/p-amedford6/0/shared/rich_project_chbe-medford/medford-share/data/pseudos_module/espresso/nninc/pbe/van/C.UPF
     MD5 check sum: 1a69bf6b8db32088f5b2163dbdb77a27
     Pseudo is Ultrasoft, Zval =  4.0
     Generated by new atomic code, or converted to UPF format
     Using radial grid of  721 points,  4 beta functions with:
                l(1) =   0
                l(2) =   0
                l(3) =   1
                l(4) =   1
     Q(r) pseudized with  8 coefficients,  rinner =    0.800   0.800   0.800

     PseudoPot. # 5 for H  read from file:
     /storage/coda1/p-amedford6/0/shared/rich_project_chbe-medford/medford-share/data/pseudos_module/espresso/nninc/pbe/van/H.UPF
     MD5 check sum: b5ee9d7bfd3a09ee7748110bda690ff7
     Pseudo is Ultrasoft, Zval =  1.0
     Generated by new atomic code, or converted to UPF format
     Using radial grid of  615 points,  1 beta functions with:
                l(1) =   0
     Q(r) pseudized with  8 coefficients,  rinner =    0.800

     atomic species   valence    mass     pseudopotential
        Ti1           12.00    47.86700     Ti( 1.00)
        O1             6.00    15.99900     O ( 1.00)
        N1             5.00    14.00700     N ( 1.00)
        C1             4.00    12.01100     C ( 1.00)
        H1             1.00     1.00800     H ( 1.00)

     No symmetry found

   Cartesian axes

     site n.     atom                  positions (alat units)
         1           Ti1 tau(   1) = (   0.0004258   2.9801865   6.0000000  )
         2           Ti1 tau(   2) = (   3.2906075   1.4906267   6.0002472  )
         3           O1  tau(   3) = (   0.0006271   0.0005054   7.9858123  )
         4           O1  tau(   4) = (   3.2906025   0.0005020   7.3038282  )
         5           O1  tau(   5) = (   4.5942328   1.4918067   9.2879030  )
         6           O1  tau(   6) = (   1.9868534   1.4903216   9.2879459  )
         7           Ti1 tau(   7) = (   3.2907910   2.8959150   9.1758416  )
         8           Ti1 tau(   8) = (   0.0015273   1.4827037   9.2680791  )
         9           O1  tau(   9) = (   3.2861202   0.0128588  11.3777969  )
        10           O1  tau(  10) = (   0.0116148   5.9584955  10.6183126  )
        11           O1  tau(  11) = (   1.2831632   1.4993340  12.6921085  )
        12           O1  tau(  12) = (   5.2921761   1.5015178  12.6679780  )
        13           Ti1 tau(  13) = (   0.0111066   2.9912061  12.5123142  )
        14           Ti1 tau(  14) = (   3.3187119   1.4875497  12.5412637  )
        15           O1  tau(  15) = (   6.5416963   5.9006142  14.6662030  )
        16           O1  tau(  16) = (   3.3066524   0.0016155  14.0179881  )
        17           O1  tau(  17) = (   4.5377470   1.5714702  16.1207712  )
        18           O1  tau(  18) = (   1.9925948   1.5577299  16.0387284  )
        19           Ti1 tau(  19) = (   3.2598466   3.0207798  15.7337896  )
        20           Ti1 tau(  20) = (   0.0086319   1.3133152  15.8444473  )
        21           O1  tau(  21) = (   3.2904802   0.0005063   4.7018136  )
        22           O1  tau(  22) = (   6.5660721   0.1678205  17.2271563  )
        23           O1  tau(  23) = (   1.3043587   1.4918075   6.0039043  )
        24           O1  tau(  24) = (   5.2767064   1.4903225   6.0039473  )
        25           Ti1 tau(  25) = (   0.0000382   5.9609847   6.0000000  )
        26           Ti1 tau(  26) = (   3.2902200   4.4714249   6.0002472  )
        27           O1  tau(  27) = (   0.0002396   2.9813036   7.9858123  )
        28           O1  tau(  28) = (   3.2902150   2.9813002   7.3038282  )
        29           O1  tau(  29) = (   4.5938453   4.4726049   9.2879030  )
        30           O1  tau(  30) = (   1.9864658   4.4711199   9.2879459  )
        31           Ti1 tau(  31) = (   3.2891106   5.8743827   9.1763621  )
        32           Ti1 tau(  32) = (   0.0006254   4.4649316   9.2693709  )
        33           O1  tau(  33) = (   3.2870289   2.9785969  11.3746142  )
        34           O1  tau(  34) = (   0.0092240   2.9805883  10.6323155  )
        35           O1  tau(  35) = (   1.2865429   4.4729593  12.6568099  )
        36           O1  tau(  36) = (   5.2907978   4.4713399  12.6331247  )
        37           Ti1 tau(  37) = (   0.0245089   0.0029545  12.5000319  )
        38           Ti1 tau(  38) = (   3.3192338   4.4773935  12.5310228  )
        39           O1  tau(  39) = (   6.5398775   3.0461246  14.9162120  )
        40           O1  tau(  40) = (   3.2968145   3.0151409  13.9465962  )
        41           O1  tau(  41) = (   4.5189833   4.4812017  16.2068643  )
        42           O1  tau(  42) = (   1.9905864   4.4756957  16.1679402  )
        43           Ti1 tau(  43) = (   3.3140030   0.0507474  15.8534526  )
        44           Ti1 tau(  44) = (   0.0184218   4.5194176  15.9927436  )
        45           O1  tau(  45) = (   3.2900926   2.9813045   4.7018136  )
        46           O1  tau(  46) = (   1.3039711   4.4726057   6.0039043  )
        47           O1  tau(  47) = (   5.2763189   4.4711207   6.0039473  )
        48           N1  tau(  48) = (   6.2908993   3.4294391  18.1752670  )
        49           C1  tau(  49) = (   0.7550536   3.1452864  19.0745941  )
        50           H1  tau(  50) = (   1.1396299   3.9643166  19.6610198  )
        51           H1  tau(  51) = (   1.3301158   2.2513941  18.9084762  )
        52           H1  tau(  52) = (   5.7550451   4.2450011  18.4501662  )
        53           H1  tau(  53) = (   5.6463078   2.6497838  18.0429669  )
        54           O1  tau(  54) = (   3.1180431   0.1968263  18.2683150  )
        55           H1  tau(  55) = (   3.8787171   5.7182160  18.6922429  )
        56           H1  tau(  56) = (   2.3371514   5.6040609  18.4451484  )

     number of k points=    10  Fermi-Dirac smearing, width (Ry)=  0.0073
                       cart. coord. in units 2pi/alat
        k(    1) = (   0.0000000   0.0000000   0.0000000), wk =   0.1250000
        k(    2) = (   0.0000000   0.0419351   0.0000000), wk =   0.2500000
        k(    3) = (   0.0000000  -0.0838702   0.0000000), wk =   0.1250000
        k(    4) = (   0.0379955   0.0000049   0.0000000), wk =   0.2500000
        k(    5) = (   0.0379955   0.0419400   0.0000000), wk =   0.2500000
        k(    6) = (   0.0379955  -0.0838652   0.0000000), wk =   0.2500000
        k(    7) = (   0.0379955  -0.0419301   0.0000000), wk =   0.2500000
        k(    8) = (  -0.0759910  -0.0000099   0.0000000), wk =   0.1250000
        k(    9) = (  -0.0759910   0.0419252   0.0000000), wk =   0.2500000
        k(   10) = (  -0.0759910  -0.0838800   0.0000000), wk =   0.1250000

     Initial potential from superposition of free atoms

     starting charge  382.99914, renormalised to  399.00000

     negative rho (up, down):  1.613E-02 0.000E+00

     %%%%%%%%%%%%%%%%%%%%%%%%%%%%%%%%%%%%%%%%%%%%%%%%%%%%%%%%%%%%%%%%%%%%%%%%
     %                                                                      %
     % You are using vdW-DF, which was implemented by the Thonhauser group. %
     % Please cite the following two papers that made this development      %
     % possible and the two reviews that describe the various versions:     %
     %                                                                      %
     %   T. Thonhauser et al., PRL 115, 136402 (2015).                      %
     %   T. Thonhauser et al., PRB 76, 125112 (2007).                       %
     %   K. Berland et al., Rep. Prog. Phys. 78, 066501 (2015).             %
     %   D.C. Langreth et al., J. Phys.: Condens. Matter 21, 084203 (2009). %
     %                                                                      %
     %                                                                      %
     % If you are calculating the stress with vdW-DF, please also cite:     %
     %                                                                      %
     %   R. Sabatini et al., J. Phys.: Condens. Matter 24, 424209 (2012).   %
     %                                                                      %
     %%%%%%%%%%%%%%%%%%%%%%%%%%%%%%%%%%%%%%%%%%%%%%%%%%%%%%%%%%%%%%%%%%%%%%%%

     Adding external electric field

     Computed dipole along edir(3) :
        Dipole              -11.3169 Ry au,        -28.7647 Debye
        Dipole field         -0.0214 Ry au,

        Potential amp.        1.9797 Ry
        Total length         46.3494 bohr

     Starting wfcs are  302 atomic wfcs
  @ DRIVER MODE: Message from server: STATUS
  @ DRIVER MODE: Message from server: POSDATA
  @ DRIVER MODE: Reading and sharing cell
  @ DRIVER MODE: Reading and sharing positions
  @ DRIVER MODE: Received positions

     Self-consistent Calculation

     iteration #  1     ecut=    29.40 Ry     beta= 0.05
     Davidson diagonalization with overlap
     c_bands:  3 eigenvalues not converged
     c_bands:  3 eigenvalues not converged
     c_bands:  1 eigenvalues not converged
     c_bands:  4 eigenvalues not converged
     c_bands:  1 eigenvalues not converged
     c_bands:  1 eigenvalues not converged
     c_bands:  1 eigenvalues not converged
     c_bands:  2 eigenvalues not converged
     c_bands:  3 eigenvalues not converged
     ethr =  1.00E-05,  avg # of iterations = 24.0

[...]

     total energy              =   -2437.58341661 Ry
     estimated scf accuracy    <    5825.84230283 Ry

     iteration #  2     ecut=    29.40 Ry     beta= 0.05
     Davidson diagonalization with overlap
     ethr =  1.00E-02,  avg # of iterations = 29.4

[...]

     iteration # 60     ecut=    29.40 Ry     beta= 0.05
     Davidson diagonalization with overlap
     c_bands:  1 eigenvalues not converged
     c_bands:  1 eigenvalues not converged
     ethr =  3.25E-07,  avg # of iterations =  7.0

[...]

     total energy              =   -2955.08671837 Ry
     estimated scf accuracy    <       0.00000008 Ry

     iteration # 82     ecut=    29.40 Ry     beta= 0.05
     Davidson diagonalization with overlap
     ethr =  1.97E-11,  avg # of iterations =  8.4

     negative rho (up, down):  1.530E-02 0.000E+00

     Adding external electric field

     Computed dipole along edir(3) :
        Dipole                0.9578 Ry au,          2.4345 Debye
        Dipole field          0.0018 Ry au,

        Potential amp.       -0.1676 Ry
        Total length         46.3494 bohr

     End of self-consistent calculation

          k = 0.0000 0.0000 0.0000 ( 18029 PWs)   bands (ev):

   -55.5436 -55.5100 -55.5070 -55.4891 -55.4759 -55.4274 -55.3911 -55.3715
   -55.3547 -55.3420 -55.3366 -55.3084 -55.2968 -55.1146 -54.5359 -54.5019
   -32.0994 -32.0021 -31.9156 -31.9005 -31.8758 -31.8603 -31.8467 -31.8418
   -31.7990 -31.7636 -31.7581 -31.7549 -31.7449 -31.7207 -31.7153 -31.6944
   -31.6849 -31.6823 -31.6706 -31.6622 -31.6411 -31.6235 -31.6064 -31.6002
   -31.5711 -31.5671 -31.5627 -31.5600 -31.5577 -31.5452 -31.5360 -31.5291
   -31.5249 -31.5197 -31.5090 -31.4969 -31.4852 -31.4700 -31.4682 -31.4529
   -31.3400 -31.2955 -30.9451 -30.8513 -30.8293 -30.7615 -30.6748 -30.5639
   -19.1875 -16.4011 -16.3108 -16.0879 -15.9230 -15.8437 -15.7470 -15.6064
   -15.5349 -15.4243 -15.3882 -15.2293 -15.2047 -15.1983 -15.1633 -15.1462
   -15.1069 -15.0887 -15.0596 -15.0480 -15.0465 -15.0247 -14.9881 -14.9842
   -14.9417 -14.9287 -14.8696 -14.7734 -14.7055 -14.6415 -14.3295 -13.0384
   -12.9210  -9.2149  -6.9882  -6.5567  -4.6059  -3.7139  -3.5724  -3.5615
    -3.5015  -3.4482  -3.4023  -3.2997  -3.0688  -3.0220  -2.9784  -2.9309
    -2.8114  -2.7398  -2.7359  -2.6564  -2.5811  -2.5392  -2.4845  -2.4757
    -2.3978  -2.3638  -2.3460  -2.3227  -2.2789  -2.2513  -2.2101  -2.1188
    -2.0979  -2.0199  -1.9901  -1.9458  -1.9420  -1.8946  -1.8766  -1.8378
    -1.8367  -1.8268  -1.8058  -1.7684  -1.7261  -1.6684  -1.5795  -1.5501
    -1.3861  -1.2744  -1.2088  -1.1821  -1.1300  -1.0984  -1.0329  -0.9845
    -0.9708  -0.9343  -0.8674  -0.7648  -0.6979  -0.6862  -0.6265  -0.5352
    -0.4772  -0.4377  -0.3570  -0.3313  -0.3126  -0.3073  -0.2434  -0.1754
    -0.1291  -0.0549  -0.0388   0.0169   0.0394   0.0893   0.1205   0.1872
     0.2429   0.2832   0.3349   0.3892   0.3908   0.4058   0.4409   0.4425
     0.5425   0.5545   0.5768   0.6775   0.7766   0.9640   1.0625   1.0975
     1.3951   1.4106   1.4870   1.6714   2.0626   2.1106   3.5174   3.5477
     3.6316   3.6869   3.6959   3.7257   3.7823   4.0356   4.0471   4.0691
     4.0822

[...]

          k = 0.0380-0.0419 0.0000 ( 17876 PWs)   bands (ev):

[...]

          k =-0.0760-0.0000 0.0000 ( 17886 PWs)   bands (ev):

[...]

          k =-0.0760-0.0839 0.0000 ( 17948 PWs)   bands (ev):

   -55.5291 -55.5212 -55.4929 -55.4928 -55.4869 -55.4151 -55.4034 -55.3568
   -55.3567 -55.3508 -55.3255 -55.3251 -55.2950 -55.1163 -54.5190 -54.5187
   -31.9112 -31.8989 -31.8173 -31.8172 -31.8005 -31.7993 -31.7884 -31.7844
   -31.7843 -31.7680 -31.7568 -31.7496 -31.7321 -31.7145 -31.6953 -31.6893
   -31.6862 -31.6841 -31.6796 -31.6729 -31.6702 -31.6603 -31.6326 -31.6316
   -31.6125 -31.6123 -31.6096 -31.6001 -31.5888 -31.5806 -31.5702 -31.5645
   -31.5552 -31.5551 -31.5525 -31.5430 -31.5134 -31.5052 -31.5046 -31.4823
   -31.3792 -31.3429 -30.8420 -30.8418 -30.7578 -30.7575 -30.7182 -30.7181
   -19.1866 -16.3303 -15.8846 -15.7852 -15.6552 -15.5723 -15.5497 -15.4763
   -15.4180 -15.3845 -15.3281 -15.3053 -15.2914 -15.2759 -15.2412 -15.2154
   -15.1957 -15.1523 -15.1350 -15.1168 -15.0855 -15.0604 -15.0494 -15.0442
   -15.0385 -15.0040 -14.9996 -14.9142 -14.9048 -14.9014 -14.5716 -13.0226
   -13.0224  -9.2140  -7.0218  -6.4946  -4.5886  -3.5262  -3.0945  -3.0487
    -2.9944  -2.8538  -2.7949  -2.7290  -2.6933  -2.6503  -2.6001  -2.5665
    -2.5484  -2.4971  -2.4896  -2.4244  -2.4089  -2.3937  -2.3751  -2.3715
    -2.3631  -2.3259  -2.2907  -2.2774  -2.2704  -2.2612  -2.2475  -2.2006
    -2.1851  -2.1538  -2.1441  -2.1108  -2.0811  -2.0515  -1.9380  -1.9063
    -1.8813  -1.8177  -1.7533  -1.7475  -1.6661  -1.6443  -1.5879  -1.5841
    -1.5616  -1.5260  -1.3987  -1.2925  -1.2811  -1.2301  -1.1961  -1.1734
    -1.1108  -1.0602  -1.0052  -1.0026  -0.9118  -0.8654  -0.8391  -0.7372
    -0.7065  -0.6991  -0.5823  -0.5564  -0.5188  -0.5076  -0.5013  -0.4421
    -0.4346  -0.4098  -0.3279  -0.3094  -0.2824  -0.2708  -0.2083  -0.0478
    -0.0171   0.0272   0.1550   0.1941   0.3578   0.3889   0.4209   0.5270
     0.5720   0.6196   0.6241   0.7469   0.7568   0.8440   0.8553   0.8733
     0.9092   0.9209   1.8438   1.8452   1.9305   1.9307   3.5334   3.7769
     3.8424   3.8497   3.8868   4.0231   4.0668   4.1254   4.1288   4.1386
     4.1570

     the Fermi energy is     3.6039 ev

!    total energy              =   -2955.08672589 Ry
     estimated scf accuracy    <       0.00000004 Ry
     smearing contrib. (-TS)   =      -0.04071633 Ry
     internal energy E=F+TS    =   -2955.04600956 Ry

     The total energy is F=E-TS. E is the sum of the following terms:
     one-electron contribution =  -23873.22513759 Ry
     hartree contribution      =   12028.78876052 Ry
     xc contribution           =    -489.72577442 Ry
     ewald contribution        =    9379.11441075 Ry
     electric field correction =       0.00173119 Ry

     convergence has been achieved in  82 iterations

     Forces acting on atoms (cartesian axes, Ry/au):

     atom    1 type  1   force =    -0.00000417   -0.00025824    0.09337207
     atom    2 type  1   force =    -0.00015794   -0.00040095   -0.17806066
     atom    3 type  2   force =     0.00001273   -0.00035079   -0.02034216
     atom    4 type  2   force =    -0.00003626   -0.00190449    0.05858172
     atom    5 type  2   force =    -0.01018525   -0.00084988    0.00745187
     atom    6 type  2   force =     0.01152491   -0.00017609    0.00625270
     atom    7 type  1   force =    -0.00076516    0.00202649   -0.01057212
     atom    8 type  1   force =     0.00031725    0.00073507   -0.00334962
     atom    9 type  2   force =     0.00024365    0.00042722    0.00014909
     atom   10 type  2   force =    -0.00108460    0.00267252   -0.00405400
     atom   11 type  2   force =    -0.00028085    0.00005188    0.00001527
     atom   12 type  2   force =    -0.00003692   -0.00002939    0.00011723
     atom   13 type  1   force =     0.00075180    0.00072056    0.00040013
     atom   14 type  1   force =    -0.00093263   -0.00011992   -0.00008593
     atom   15 type  2   force =    -0.00013031   -0.00025170    0.00058456
     atom   16 type  2   force =     0.00031761    0.00055675    0.00000041
     atom   17 type  2   force =     0.00015942   -0.00028171    0.00031593
     atom   18 type  2   force =     0.00058884    0.00022051    0.00006415
     atom   19 type  1   force =    -0.00081456   -0.00060372    0.00010137
     atom   20 type  1   force =     0.00023907   -0.00048922   -0.00046881
     atom   21 type  2   force =     0.00002275   -0.00011605    0.10389151
     atom   22 type  2   force =    -0.00006289   -0.00132738    0.00067739
     atom   23 type  2   force =    -0.07055017   -0.00021891   -0.02693721
     atom   24 type  2   force =     0.07036826    0.00021957   -0.02698167
     atom   25 type  1   force =     0.00003441   -0.00022113    0.09298716
     atom   26 type  1   force =    -0.00023853   -0.00043818   -0.17802619
     atom   27 type  2   force =     0.00006925   -0.00024363   -0.01931453
     atom   28 type  2   force =     0.00002410   -0.00162603    0.05768140
     atom   29 type  2   force =    -0.01076641   -0.00046532    0.00807837
     atom   30 type  2   force =     0.01198474   -0.00007568    0.00683960
     atom   31 type  1   force =    -0.00063359    0.00609198   -0.01380659
     atom   32 type  1   force =     0.00028268   -0.00085390   -0.00340502
     atom   33 type  2   force =     0.00014263    0.00006546    0.00001253
     atom   34 type  2   force =    -0.00051072   -0.00106935   -0.00265746
     atom   35 type  2   force =    -0.00042247    0.00006080    0.00003740
     atom   36 type  2   force =     0.00005294    0.00001560    0.00025828
     atom   37 type  1   force =     0.00083122   -0.00082304    0.00024044
     atom   38 type  1   force =    -0.00088687    0.00034330   -0.00053716
     atom   39 type  2   force =    -0.00023202   -0.00017324   -0.00012363
     atom   40 type  2   force =     0.00033291    0.00013972    0.00043305
     atom   41 type  2   force =     0.00007193   -0.00029452   -0.00005480
     atom   42 type  2   force =     0.00052673   -0.00014655   -0.00047493
     atom   43 type  1   force =    -0.00110273    0.00002307    0.00051511
     atom   44 type  1   force =     0.00129978   -0.00050374   -0.00035414
     atom   45 type  2   force =     0.00000916   -0.00012220    0.10388794
     atom   46 type  2   force =    -0.07054614   -0.00016451   -0.02691643
     atom   47 type  2   force =     0.07037582    0.00027402   -0.02698578
     atom   48 type  3   force =     0.00070082   -0.00025670    0.00031376
     atom   49 type  4   force =     0.00079243    0.00138916    0.00001161
     atom   50 type  5   force =    -0.00049669   -0.00093066   -0.00062770
     atom   51 type  5   force =     0.00018532    0.00005924    0.00028356
     atom   52 type  5   force =     0.00030951   -0.00024651   -0.00029069
     atom   53 type  5   force =    -0.00039918   -0.00022240    0.00065336
     atom   54 type  2   force =     0.01179627   -0.00479355    0.00562251
     atom   55 type  5   force =    -0.01339463    0.00571315   -0.00625296
     atom   56 type  5   force =     0.00030274   -0.00075679    0.00084873

     Total force =     0.366389     Total SCF correction =     0.000509
  @ DRIVER MODE: Message from server: STATUS
  @ DRIVER MODE: Message from server: GETFORCE
  @ DRIVER MODE: Returning v,forces,stress,ensemble

     Writing output data file ./calc.save/
  @ DRIVER MODE: Message from server: EXIT
  @ DRIVE MODE: Exiting

     General routines

     Parallel routines

   This run was terminated on:   6:48:18  16Sep2021

   JOB DONE.