     Program PWSCF v.6.7GPU starts on  8Sep2021 at 23:54:11

     R & G space division:  proc/nbgrp/npool/nimage =      10
     Reading input from /storage/home/hcoda1/3/ntian30/research/carbon/CxH_vib/CH2_calc/ads_slab/CH2N2H_a/out_0007/pw.inp
Warning: card &CELL ignored
Warning: card   CELL_DYNAMICS='IPI', ignored
Warning: card / ignored

     Current dimensions of program PWSCF are:
     Max number of different atomic species (ntypx) = 10
     Max number of k-points (npk) =  40000
     Max angular momentum in pseudopotentials (lmaxx) =  3
     Presently no symmetry can be used with electric field

     Message from routine cell_base_init:
     DEPRECATED: use true lattice parameter, not A to a.u. conversion factor

     IMPORTANT: XC functional enforced from input :
     Exchange-correlation= BEEF-VDW
                           (   1   4  43  14   2   0   0)
     Any further DFT definition will be discarded
     Please, verify this is what you really want

  @ DRIVER MODE: Connecting to
 qe_1139763_2767385.sched-torque.pace.gatech.eduog9abntm_scratch
  using UNIX socket
  @ DRIVER MODE: Message from server: STATUS
  @ DRIVER MODE: Message from server: INIT
  @ DRIVER MODE: Receiving replica           0          -1
  @ DRIVER MODE: Receiving encoded integer          25
  @ DRIVER MODE:  SCF:  T  FORCE:  T  STRESS:  F  VC:  F  ENSEMBLE:  F
  @ DRIVER MODE:  SCF:  T  FORCE:  T  STRESS:  F  VC:  F  ENSEMBLE:  F

     Using Slab Decomposition

     bravais-lattice index     =            0
     lattice parameter (alat)  =       1.8897  a.u.
     unit-cell volume          =    6658.9804 (a.u.)^3
     number of atoms/cell      =           53
     number of atomic types    =            5
     number of electrons       =       395.00
     number of Kohn-Sham states=          207
     kinetic-energy cutoff     =      29.3995  Ry
     charge density cutoff     =     293.9946  Ry
     scf convergence threshold =      7.3E-08
     mixing beta               =       0.0500
     number of iterations used =            8  plain     mixing
     Exchange-correlation= BEEF-VDW
                           (   1   4  43  14   2   0   0)

     celldm(1)=   1.889726  celldm(2)=   0.000000  celldm(3)=   0.000000
     celldm(4)=   0.000000  celldm(5)=   0.000000  celldm(6)=   0.000000

     crystal axes: (cart. coord. in units of alat)
               a(1) = (   6.579727   0.000000   0.000000 )
               a(2) = (  -0.000775   5.961596   0.000000 )
               a(3) = (   0.000000   0.000000  25.155947 )

     reciprocal axes: (cart. coord. in units 2 pi/alat)
               b(1) = (  0.151982  0.000020  0.000000 )
               b(2) = (  0.000000  0.167740  0.000000 )
               b(3) = (  0.000000  0.000000  0.039752 )

     PseudoPot. # 1 for Ti read from file:
     /storage/coda1/p-amedford6/0/shared/rich_project_chbe-medford/medford-share/data/pseudos_module/espresso/nninc/pbe/van/Ti.UPF
     MD5 check sum: 8e4df49b7f0d34bbd5052bf3f5ea0213
     Pseudo is Ultrasoft, Zval = 12.0
     Generated by new atomic code, or converted to UPF format
     Using radial grid of  851 points,  6 beta functions with:
                l(1) =   0
                l(2) =   0
                l(3) =   1
                l(4) =   1
                l(5) =   2
                l(6) =   2
     Q(r) pseudized with  8 coefficients,  rinner =    1.000   1.000   1.000
                                                       1.000   1.000

     PseudoPot. # 2 for O  read from file:
     /storage/coda1/p-amedford6/0/shared/rich_project_chbe-medford/medford-share/data/pseudos_module/espresso/nninc/pbe/van/O.UPF
     MD5 check sum: 78c19812648e8988a0fe644b0f25305e
     Pseudo is Ultrasoft, Zval =  6.0
     Generated by new atomic code, or converted to UPF format
     Using radial grid of  737 points,  4 beta functions with:
                l(1) =   0
                l(2) =   0
                l(3) =   1
                l(4) =   1
     Q(r) pseudized with  8 coefficients,  rinner =    0.800   0.800   0.800

     PseudoPot. # 3 for N  read from file:
     /storage/coda1/p-amedford6/0/shared/rich_project_chbe-medford/medford-share/data/pseudos_module/espresso/nninc/pbe/van/N.UPF
     MD5 check sum: 90d10febe142ad51ac9d5be1deb811c4
     Pseudo is Ultrasoft, Zval =  5.0
     Generated by new atomic code, or converted to UPF format
     Using radial grid of  729 points,  4 beta functions with:
                l(1) =   0
                l(2) =   0
                l(3) =   1
                l(4) =   1
     Q(r) pseudized with  8 coefficients,  rinner =    0.800   0.800   0.800

     PseudoPot. # 4 for C  read from file:
     /storage/coda1/p-amedford6/0/shared/rich_project_chbe-medford/medford-share/data/pseudos_module/espresso/nninc/pbe/van/C.UPF
     MD5 check sum: 1a69bf6b8db32088f5b2163dbdb77a27
     Pseudo is Ultrasoft, Zval =  4.0
     Generated by new atomic code, or converted to UPF format
     Using radial grid of  721 points,  4 beta functions with:
                l(1) =   0
                l(2) =   0
                l(3) =   1
                l(4) =   1
     Q(r) pseudized with  8 coefficients,  rinner =    0.800   0.800   0.800

     PseudoPot. # 5 for H  read from file:
     /storage/coda1/p-amedford6/0/shared/rich_project_chbe-medford/medford-share/data/pseudos_module/espresso/nninc/pbe/van/H.UPF
     MD5 check sum: b5ee9d7bfd3a09ee7748110bda690ff7
     Pseudo is Ultrasoft, Zval =  1.0
     Generated by new atomic code, or converted to UPF format
     Using radial grid of  615 points,  1 beta functions with:
                l(1) =   0
     Q(r) pseudized with  8 coefficients,  rinner =    0.800

     atomic species   valence    mass     pseudopotential
        Ti1           12.00    47.86700     Ti( 1.00)
        O1             6.00    15.99900     O ( 1.00)
        N1             5.00    14.00700     N ( 1.00)
        C1             4.00    12.01100     C ( 1.00)
        H1             1.00     1.00800     H ( 1.00)

     No symmetry found

   Cartesian axes

     site n.     atom                  positions (alat units)
         1           Ti1 tau(   1) = (   0.0004258   2.9801865   6.0000000  )
         2           Ti1 tau(   2) = (   3.2906075   1.4906267   6.0002472  )
         3           O1  tau(   3) = (   0.0006271   0.0005054   7.9858123  )
         4           O1  tau(   4) = (   3.2906025   0.0005020   7.3038282  )
         5           O1  tau(   5) = (   4.5942328   1.4918067   9.2879030  )
         6           O1  tau(   6) = (   1.9868534   1.4903216   9.2879459  )
         7           Ti1 tau(   7) = (   3.2907910   2.8959150   9.1758416  )
         8           Ti1 tau(   8) = (   0.0015273   1.4827037   9.2680791  )
         9           O1  tau(   9) = (   3.3007851   0.0027079  11.3193151  )
        10           O1  tau(  10) = (   0.0116148   5.9584955  10.6183126  )
        11           O1  tau(  11) = (   1.3147357   1.5019762  12.6210215  )
        12           O1  tau(  12) = (   5.3120411   1.4917641  12.6342566  )
        13           Ti1 tau(  13) = (   6.5359925   2.9538565  12.6086018  )
        14           Ti1 tau(  14) = (   3.2189980   1.4905645  12.4770757  )
        15           O1  tau(  15) = (   0.0426301   5.9606301  14.6312846  )
        16           O1  tau(  16) = (   3.3149351   0.0098317  13.8848037  )
        17           O1  tau(  17) = (   4.5523768   1.5206755  16.0744300  )
        18           O1  tau(  18) = (   2.0715852   1.4807026  15.9918588  )
        19           Ti1 tau(  19) = (   3.2935730   2.9941335  15.6827836  )
        20           Ti1 tau(  20) = (   0.0200723   1.3023755  15.9747514  )
        21           O1  tau(  21) = (   3.2904802   0.0005063   4.7018136  )
        22           O1  tau(  22) = (   6.5179923   0.0002674  17.1556216  )
        23           O1  tau(  23) = (   1.3043587   1.4918075   6.0039043  )
        24           O1  tau(  24) = (   5.2767064   1.4903225   6.0039473  )
        25           Ti1 tau(  25) = (   0.0000382   5.9609847   6.0000000  )
        26           Ti1 tau(  26) = (   3.2902200   4.4714249   6.0002472  )
        27           O1  tau(  27) = (   0.0002396   2.9813036   7.9858123  )
        28           O1  tau(  28) = (   3.2902150   2.9813002   7.3038282  )
        29           O1  tau(  29) = (   4.5938453   4.4726049   9.2879030  )
        30           O1  tau(  30) = (   1.9864658   4.4711199   9.2879459  )
        31           Ti1 tau(  31) = (   3.2891106   5.8743827   9.1763621  )
        32           Ti1 tau(  32) = (   0.0006254   4.4649316   9.2693709  )
        33           O1  tau(  33) = (   3.3053585   2.9833221  11.3185053  )
        34           O1  tau(  34) = (   0.0092240   2.9805883  10.6323155  )
        35           O1  tau(  35) = (   1.3157767   4.4721532  12.6203727  )
        36           O1  tau(  36) = (   5.3104355   4.4689601  12.6331991  )
        37           Ti1 tau(  37) = (   6.5385524   5.9338372  12.5465384  )
        38           Ti1 tau(  38) = (   3.2200853   4.4710709  12.4725482  )
        39           O1  tau(  39) = (   0.0068575   2.9964749  14.7765288  )
        40           O1  tau(  40) = (   3.3021705   2.9848394  13.8818356  )
        41           O1  tau(  41) = (   4.5334443   4.4765196  15.9883447  )
        42           O1  tau(  42) = (   2.0816803   4.4801587  16.0471567  )
        43           Ti1 tau(  43) = (   3.3155128   0.0116264  15.6901768  )
        44           Ti1 tau(  44) = (   6.5575601   4.4671909  15.9479714  )
        45           O1  tau(  45) = (   3.2900926   2.9813045   4.7018136  )
        46           O1  tau(  46) = (   1.3039711   4.4726057   6.0039043  )
        47           O1  tau(  47) = (   5.2763189   4.4711207   6.0039473  )
        48           N1  tau(  48) = (   0.4270260   2.3853988  17.9668900  )
        49           C1  tau(  49) = (   0.9369377   1.9340014  19.0583692  )
        50           H1  tau(  50) = (   1.0789317   2.5769861  19.9249762  )
        51           H1  tau(  51) = (   1.2326487   0.8959138  19.0941702  )
        52           N1  tau(  52) = (   0.0025679   3.6232397  17.7996529  )
        53           H1  tau(  53) = (   0.1020252   4.2324666  18.6151602  )

     number of k points=    10  Fermi-Dirac smearing, width (Ry)=  0.0073
                       cart. coord. in units 2pi/alat
        k(    1) = (   0.0000000   0.0000000   0.0000000), wk =   0.1250000
        k(    2) = (   0.0000000   0.0419351   0.0000000), wk =   0.2500000
        k(    3) = (   0.0000000  -0.0838702   0.0000000), wk =   0.1250000
        k(    4) = (   0.0379955   0.0000049   0.0000000), wk =   0.2500000
        k(    5) = (   0.0379955   0.0419400   0.0000000), wk =   0.2500000
        k(    6) = (   0.0379955  -0.0838652   0.0000000), wk =   0.2500000
        k(    7) = (   0.0379955  -0.0419301   0.0000000), wk =   0.2500000
        k(    8) = (  -0.0759910  -0.0000099   0.0000000), wk =   0.1250000
        k(    9) = (  -0.0759910   0.0419252   0.0000000), wk =   0.2500000
        k(   10) = (  -0.0759910  -0.0838800   0.0000000), wk =   0.1250000

     Initial potential from superposition of free atoms

     starting charge  378.99916, renormalised to  395.00000

     negative rho (up, down):  1.649E-02 0.000E+00

     %%%%%%%%%%%%%%%%%%%%%%%%%%%%%%%%%%%%%%%%%%%%%%%%%%%%%%%%%%%%%%%%%%%%%%%%
     %                                                                      %
     % You are using vdW-DF, which was implemented by the Thonhauser group. %
     % Please cite the following two papers that made this development      %
     % possible and the two reviews that describe the various versions:     %
     %                                                                      %
     %   T. Thonhauser et al., PRL 115, 136402 (2015).                      %
     %   T. Thonhauser et al., PRB 76, 125112 (2007).                       %
     %   K. Berland et al., Rep. Prog. Phys. 78, 066501 (2015).             %
     %   D.C. Langreth et al., J. Phys.: Condens. Matter 21, 084203 (2009). %
     %                                                                      %
     %                                                                      %
     % If you are calculating the stress with vdW-DF, please also cite:     %
     %                                                                      %
     %   R. Sabatini et al., J. Phys.: Condens. Matter 24, 424209 (2012).   %
     %                                                                      %
     %%%%%%%%%%%%%%%%%%%%%%%%%%%%%%%%%%%%%%%%%%%%%%%%%%%%%%%%%%%%%%%%%%%%%%%%

     Adding external electric field

     Computed dipole along edir(3) :
        Dipole               -8.3970 Ry au,        -21.3430 Debye
        Dipole field         -0.0158 Ry au,

        Potential amp.        1.4689 Ry
        Total length         46.3494 bohr

     Starting wfcs are  299 atomic wfcs
  @ DRIVER MODE: Message from server: STATUS
  @ DRIVER MODE: Message from server: POSDATA
  @ DRIVER MODE: Reading and sharing cell
  @ DRIVER MODE: Reading and sharing positions
  @ DRIVER MODE: Received positions

     Self-consistent Calculation

     iteration #  1     ecut=    29.40 Ry     beta= 0.05
     Davidson diagonalization with overlap
     c_bands:  2 eigenvalues not converged
     c_bands:  1 eigenvalues not converged
     c_bands:  2 eigenvalues not converged
     c_bands:  3 eigenvalues not converged
     c_bands:  3 eigenvalues not converged
     c_bands:  2 eigenvalues not converged
     c_bands:  1 eigenvalues not converged
     ethr =  1.00E-05,  avg # of iterations = 19.3

[...]

     total energy              =   -2613.93941907 Ry
     estimated scf accuracy    <    3601.35915255 Ry

[...]

     iteration #  3     ecut=    29.40 Ry     beta= 0.05
     Davidson diagonalization with overlap
     ethr =  1.00E-02,  avg # of iterations = 14.3

[...]

     iteration # 53     ecut=    29.40 Ry     beta= 0.05
     Davidson diagonalization with overlap
     c_bands:  1 eigenvalues not converged
     ethr =  3.71E-11,  avg # of iterations = 14.1

[...]

     total energy              =   -2939.13528974 Ry
     estimated scf accuracy    <       0.00000019 Ry

     iteration # 54     ecut=    29.40 Ry     beta= 0.05
     Davidson diagonalization with overlap
     ethr =  3.71E-11,  avg # of iterations = 11.1

     negative rho (up, down):  1.681E-02 0.000E+00

     Adding external electric field

     Computed dipole along edir(3) :
        Dipole                0.7882 Ry au,          2.0035 Debye
        Dipole field          0.0015 Ry au,

        Potential amp.       -0.1379 Ry
        Total length         46.3494 bohr

     End of self-consistent calculation

          k = 0.0000 0.0000 0.0000 ( 18029 PWs)   bands (ev):

   -55.8521 -55.8510 -55.8180 -55.8149 -55.7452 -55.7022 -55.6649 -55.6627
   -55.6299 -55.6287 -55.6241 -55.5904 -55.1889 -55.1431 -54.8275 -54.7934
   -32.4050 -32.3349 -32.2409 -32.1626 -32.1488 -32.1442 -32.1308 -32.1158
   -32.0951 -32.0819 -32.0290 -32.0115 -32.0045 -32.0027 -31.9930 -31.9891
   -31.9568 -31.9450 -31.9389 -31.9363 -31.9094 -31.9073 -31.8911 -31.8890
   -31.8582 -31.8539 -31.8517 -31.8507 -31.8256 -31.8109 -31.8029 -31.7927
   -31.7803 -31.7785 -31.7708 -31.7375 -31.7313 -31.4538 -31.4159 -31.3892
   -31.3357 -31.3011 -31.2343 -31.1466 -31.1242 -31.0513 -30.9648 -30.8534
   -17.9286 -16.6115 -16.3312 -16.0760 -16.0007 -15.9969 -15.8634 -15.7003
   -15.5875 -15.5208 -15.4405 -15.4107 -15.3885 -15.3530 -15.3466 -15.3091
   -15.3000 -15.2747 -15.2711 -15.2088 -15.2056 -15.1979 -15.1881 -15.1040
   -15.0465 -14.9949 -14.9872 -14.9138 -14.8801 -14.3515 -13.3295 -13.2131
   -12.1811  -7.8666  -5.3740  -4.5369  -3.9882  -3.8288  -3.7590  -3.7246
    -3.6473  -3.4882  -3.4096  -3.1282  -3.0799  -3.0232  -3.0137  -2.9773
    -2.9356  -2.7818  -2.7042  -2.6764  -2.6607  -2.6383  -2.6234  -2.6112
    -2.5961  -2.5759  -2.4957  -2.4139  -2.3697  -2.2933  -2.2794  -2.2448
    -2.1641  -2.1638  -2.1235  -2.1035  -2.0854  -2.0691  -2.0607  -2.0452
    -1.9042  -1.8464  -1.8338  -1.6523  -1.6324  -1.5879  -1.4584  -1.4522
    -1.3382  -1.3225  -1.2825  -1.2448  -1.1724  -1.1504  -1.0390  -0.9977
    -0.9360  -0.8888  -0.8734  -0.7981  -0.7333  -0.6940  -0.6810  -0.6167
    -0.6097  -0.5969  -0.4640  -0.3857  -0.3323  -0.2763  -0.2540  -0.1982
    -0.1586  -0.1154  -0.0281  -0.0008   0.0109   0.0689   0.0909   0.1163
     0.1280   0.1476   0.1763   0.2321   0.3503   0.3819   0.4579   0.4722
     0.5326   0.6671   0.8052   0.8722   0.9248   1.0182   1.1258   1.1952
     1.2683   1.3876   1.7654   1.8108   2.1365   3.2677   3.3696   3.4024
     3.4134   3.5165   3.6650   3.7268   3.7418   3.7833   3.8170

[...]

          k = 0.0380-0.0419 0.0000 ( 17876 PWs)   bands (ev):

[...]

          k =-0.0760-0.0000 0.0000 ( 17886 PWs)   bands (ev):

[...]

          k =-0.0760-0.0839 0.0000 ( 17948 PWs)   bands (ev):

   -55.8352 -55.8347 -55.8334 -55.8323 -55.7366 -55.7108 -55.6482 -55.6464
   -55.6459 -55.6450 -55.6079 -55.6067 -55.1811 -55.1509 -54.8105 -54.8102
   -32.2072 -32.2056 -32.1504 -32.1500 -32.1298 -32.1294 -32.0958 -32.0929
   -32.0836 -32.0670 -32.0017 -31.9987 -31.9935 -31.9914 -31.9693 -31.9617
   -31.9550 -31.9544 -31.9493 -31.9480 -31.9461 -31.9349 -31.9291 -31.9220
   -31.9098 -31.9047 -31.8604 -31.8501 -31.8479 -31.8470 -31.8388 -31.8381
   -31.8248 -31.8241 -31.8236 -31.8223 -31.6830 -31.4490 -31.4149 -31.4101
   -31.3929 -31.3366 -31.1370 -31.1368 -31.0471 -31.0469 -31.0082 -31.0080
   -17.9153 -16.0267 -16.0239 -15.8159 -15.7770 -15.7580 -15.7522 -15.6623
   -15.5766 -15.5430 -15.5400 -15.4530 -15.4272 -15.4111 -15.3948 -15.3893
   -15.3807 -15.3508 -15.3157 -15.3082 -15.2940 -15.2884 -15.2767 -15.2196
   -15.1681 -15.1639 -15.1416 -15.0695 -14.8304 -14.6918 -13.3150 -13.3149
   -12.1417  -7.8072  -5.4190  -4.5979  -3.3211  -3.3116  -3.0652  -3.0227
    -3.0200  -2.9968  -2.9502  -2.7891  -2.7767  -2.7570  -2.7496  -2.7047
    -2.6811  -2.6608  -2.6412  -2.6359  -2.6072  -2.5808  -2.5659  -2.5288
    -2.5220  -2.5130  -2.4815  -2.4705  -2.4235  -2.4188  -2.3981  -2.3708
    -2.3610  -2.3260  -2.1814  -2.1069  -2.0788  -1.9937  -1.9868  -1.9460
    -1.9230  -1.9026  -1.8874  -1.8679  -1.8297  -1.6941  -1.6113  -1.5496
    -1.5410  -1.4566  -1.4289  -1.3673  -1.2776  -1.2519  -1.2311  -1.1595
    -1.0840  -1.0457  -0.9939  -0.9813  -0.9135  -0.9051  -0.8473  -0.8104
    -0.8084  -0.7316  -0.7016  -0.6537  -0.6175  -0.6007  -0.5777  -0.5509
    -0.5354  -0.5129  -0.4376  -0.3523  -0.3006  -0.2399  -0.1473  -0.0170
     0.1028   0.2154   0.2375   0.2820   0.3340   0.3682   0.4620   0.4658
     0.5292   0.5525   0.5937   0.6712   0.6827   0.7070   0.8181   0.8464
     1.5597   1.5601   1.6307   1.6309   2.0765   3.5904   3.6193   3.6382
     3.6701   3.7996   3.8057   3.8161   3.8169   3.9517   3.9557

     the Fermi energy is     3.2775 ev

!    total energy              =   -2939.13537117 Ry
     estimated scf accuracy    <       0.00000005 Ry
     smearing contrib. (-TS)   =      -0.02099282 Ry
     internal energy E=F+TS    =   -2939.11437835 Ry

     The total energy is F=E-TS. E is the sum of the following terms:
     one-electron contribution =  -24492.47714681 Ry
     hartree contribution      =   12334.19641869 Ry
     xc contribution           =    -485.37395766 Ry
     ewald contribution        =    9704.53913495 Ry
     electric field correction =       0.00117248 Ry

     convergence has been achieved in  54 iterations

     Forces acting on atoms (cartesian axes, Ry/au):

     atom    1 type  1   force =     0.00008115   -0.00023891    0.09635714
     atom    2 type  1   force =     0.00006051   -0.00056619   -0.17512311
     atom    3 type  2   force =     0.00015046   -0.00013215   -0.02407579
     atom    4 type  2   force =    -0.00000226   -0.00125061    0.05220124
     atom    5 type  2   force =    -0.01055867   -0.00047355    0.00250192
     atom    6 type  2   force =     0.01237722    0.00022541    0.00287480
     atom    7 type  1   force =     0.00098632    0.00027718   -0.01176107
     atom    8 type  1   force =    -0.00013282    0.00773890    0.02262288
     atom    9 type  2   force =    -0.00020131   -0.00015785   -0.00025754
     atom   10 type  2   force =    -0.00262180    0.00115381   -0.01268623
     atom   11 type  2   force =     0.00006329   -0.00012309    0.00004308
     atom   12 type  2   force =     0.00011150    0.00018386   -0.00040044
     atom   13 type  1   force =     0.00043819   -0.00034844    0.00024389
     atom   14 type  1   force =     0.00014692    0.00032180   -0.00015504
     atom   15 type  2   force =    -0.00022589    0.00022518    0.00004535
     atom   16 type  2   force =     0.00010671   -0.00020975    0.00034672
     atom   17 type  2   force =     0.00048984   -0.00000791    0.00039655
     atom   18 type  2   force =     0.00064566   -0.00012495    0.00038563
     atom   19 type  1   force =    -0.00116355    0.00007646    0.00020730
     atom   20 type  1   force =     0.00028564   -0.00051652   -0.00068668
     atom   21 type  2   force =     0.00004832    0.00000007    0.10311462
     atom   22 type  2   force =     0.00010531   -0.00016493   -0.00013333
     atom   23 type  2   force =    -0.07162385   -0.00014983   -0.02765447
     atom   24 type  2   force =     0.07156674    0.00034971   -0.02772530
     atom   25 type  1   force =     0.00014798   -0.00023563    0.09590907
     atom   26 type  1   force =     0.00011477   -0.00040454   -0.17540353
     atom   27 type  2   force =     0.00017719   -0.00021699   -0.02291166
     atom   28 type  2   force =     0.00006815   -0.00101265    0.05215909
     atom   29 type  2   force =    -0.01085795    0.00048519    0.00242314
     atom   30 type  2   force =     0.01255549    0.00064816    0.00277092
     atom   31 type  1   force =     0.00086882    0.00348928   -0.01294403
     atom   32 type  1   force =     0.00002213   -0.00925161    0.02303982
     atom   33 type  2   force =    -0.00048553    0.00013542    0.00024570
     atom   34 type  2   force =    -0.00302643    0.00022806   -0.01290798
     atom   35 type  2   force =     0.00008382    0.00008930   -0.00008946
     atom   36 type  2   force =     0.00011752    0.00033265   -0.00040683
     atom   37 type  1   force =     0.00034527    0.00037398    0.00006194
     atom   38 type  1   force =     0.00002425   -0.00042918    0.00013285
     atom   39 type  2   force =     0.00015479    0.00043921    0.00054467
     atom   40 type  2   force =     0.00035313    0.00012027   -0.00037281
     atom   41 type  2   force =     0.00035585    0.00004122    0.00027164
     atom   42 type  2   force =     0.00103283    0.00003912    0.00046283
     atom   43 type  1   force =    -0.00154214   -0.00047892   -0.00030427
     atom   44 type  1   force =     0.00070901   -0.00043219   -0.00046712
     atom   45 type  2   force =     0.00005869   -0.00004154    0.10308388
     atom   46 type  2   force =    -0.07164944   -0.00007778   -0.02768099
     atom   47 type  2   force =     0.07158929    0.00032550   -0.02774319
     atom   48 type  3   force =    -0.00493561    0.00116538   -0.00554727
     atom   49 type  4   force =     0.00668816   -0.00599083    0.00744129
     atom   50 type  5   force =    -0.00234526    0.00027832   -0.00051397
     atom   51 type  5   force =    -0.00120654    0.00240137   -0.00010016
     atom   52 type  3   force =    -0.00034186    0.00202242   -0.00262815
     atom   53 type  5   force =    -0.00021003   -0.00013067    0.00079246

     Total force =     0.366007     Total SCF correction =     0.000639
  @ DRIVER MODE: Message from server: STATUS
  @ DRIVER MODE: Message from server: GETFORCE
  @ DRIVER MODE: Returning v,forces,stress,ensemble

     Writing output data file ./calc.save/
  @ DRIVER MODE: Message from server: EXIT
  @ DRIVE MODE: Exiting

     General routines

     Parallel routines

   This run was terminated on:   0: 8:56   9Sep2021

   JOB DONE.