     Program PWSCF v.6.7GPU starts on 15Sep2021 at 18:55:37

     R & G space division:  proc/nbgrp/npool/nimage =      10
     Reading input from /storage/home/hcoda1/3/ntian30/research/carbon/CxH_vib/H2O_calc/ads_slab/CHN2HH2O_a/out_0011/pw.inp
Warning: card &CELL ignored
Warning: card   CELL_DYNAMICS='IPI', ignored
Warning: card / ignored

     Current dimensions of program PWSCF are:
     Max number of different atomic species (ntypx) = 10
     Max number of k-points (npk) =  40000
     Max angular momentum in pseudopotentials (lmaxx) =  3
     Presently no symmetry can be used with electric field

     Message from routine cell_base_init:
     DEPRECATED: use true lattice parameter, not A to a.u. conversion factor

     IMPORTANT: XC functional enforced from input :
     Exchange-correlation= BEEF-VDW
                           (   1   4  43  14   2   0   0)
     Any further DFT definition will be discarded
     Please, verify this is what you really want

  @ DRIVER MODE: Connecting to
 qe_1139763_2852626.sched-torque.pace.gatech.edu0xyim7d9_scratch
  using UNIX socket
  @ DRIVER MODE: Message from server: STATUS
  @ DRIVER MODE: Message from server: INIT
  @ DRIVER MODE: Receiving replica           0          -1
  @ DRIVER MODE: Receiving encoded integer          25
  @ DRIVER MODE:  SCF:  T  FORCE:  T  STRESS:  F  VC:  F  ENSEMBLE:  F
  @ DRIVER MODE:  SCF:  T  FORCE:  T  STRESS:  F  VC:  F  ENSEMBLE:  F

     Using Slab Decomposition

     bravais-lattice index     =            0
     lattice parameter (alat)  =       1.8897  a.u.
     unit-cell volume          =    6658.9804 (a.u.)^3
     number of atoms/cell      =           55
     number of atomic types    =            5
     number of electrons       =       402.00
     number of Kohn-Sham states=          211
     kinetic-energy cutoff     =      29.3995  Ry
     charge density cutoff     =     293.9946  Ry
     scf convergence threshold =      7.3E-08
     mixing beta               =       0.0500
     number of iterations used =            8  plain     mixing
     Exchange-correlation= BEEF-VDW
                           (   1   4  43  14   2   0   0)

     celldm(1)=   1.889726  celldm(2)=   0.000000  celldm(3)=   0.000000
     celldm(4)=   0.000000  celldm(5)=   0.000000  celldm(6)=   0.000000

     crystal axes: (cart. coord. in units of alat)
               a(1) = (   6.579727   0.000000   0.000000 )
               a(2) = (  -0.000775   5.961596   0.000000 )
               a(3) = (   0.000000   0.000000  25.155947 )

     reciprocal axes: (cart. coord. in units 2 pi/alat)
               b(1) = (  0.151982  0.000020  0.000000 )
               b(2) = (  0.000000  0.167740  0.000000 )
               b(3) = (  0.000000  0.000000  0.039752 )

     PseudoPot. # 1 for Ti read from file:
     /storage/coda1/p-amedford6/0/shared/rich_project_chbe-medford/medford-share/data/pseudos_module/espresso/nninc/pbe/van/Ti.UPF
     MD5 check sum: 8e4df49b7f0d34bbd5052bf3f5ea0213
     Pseudo is Ultrasoft, Zval = 12.0
     Generated by new atomic code, or converted to UPF format
     Using radial grid of  851 points,  6 beta functions with:
                l(1) =   0
                l(2) =   0
                l(3) =   1
                l(4) =   1
                l(5) =   2
                l(6) =   2
     Q(r) pseudized with  8 coefficients,  rinner =    1.000   1.000   1.000
                                                       1.000   1.000

     PseudoPot. # 2 for O  read from file:
     /storage/coda1/p-amedford6/0/shared/rich_project_chbe-medford/medford-share/data/pseudos_module/espresso/nninc/pbe/van/O.UPF
     MD5 check sum: 78c19812648e8988a0fe644b0f25305e
     Pseudo is Ultrasoft, Zval =  6.0
     Generated by new atomic code, or converted to UPF format
     Using radial grid of  737 points,  4 beta functions with:
                l(1) =   0
                l(2) =   0
                l(3) =   1
                l(4) =   1
     Q(r) pseudized with  8 coefficients,  rinner =    0.800   0.800   0.800

     PseudoPot. # 3 for N  read from file:
     /storage/coda1/p-amedford6/0/shared/rich_project_chbe-medford/medford-share/data/pseudos_module/espresso/nninc/pbe/van/N.UPF
     MD5 check sum: 90d10febe142ad51ac9d5be1deb811c4
     Pseudo is Ultrasoft, Zval =  5.0
     Generated by new atomic code, or converted to UPF format
     Using radial grid of  729 points,  4 beta functions with:
                l(1) =   0
                l(2) =   0
                l(3) =   1
                l(4) =   1
     Q(r) pseudized with  8 coefficients,  rinner =    0.800   0.800   0.800

     PseudoPot. # 4 for C  read from file:
     /storage/coda1/p-amedford6/0/shared/rich_project_chbe-medford/medford-share/data/pseudos_module/espresso/nninc/pbe/van/C.UPF
     MD5 check sum: 1a69bf6b8db32088f5b2163dbdb77a27
     Pseudo is Ultrasoft, Zval =  4.0
     Generated by new atomic code, or converted to UPF format
     Using radial grid of  721 points,  4 beta functions with:
                l(1) =   0
                l(2) =   0
                l(3) =   1
                l(4) =   1
     Q(r) pseudized with  8 coefficients,  rinner =    0.800   0.800   0.800

     PseudoPot. # 5 for H  read from file:
     /storage/coda1/p-amedford6/0/shared/rich_project_chbe-medford/medford-share/data/pseudos_module/espresso/nninc/pbe/van/H.UPF
     MD5 check sum: b5ee9d7bfd3a09ee7748110bda690ff7
     Pseudo is Ultrasoft, Zval =  1.0
     Generated by new atomic code, or converted to UPF format
     Using radial grid of  615 points,  1 beta functions with:
                l(1) =   0
     Q(r) pseudized with  8 coefficients,  rinner =    0.800

     atomic species   valence    mass     pseudopotential
        Ti1           12.00    47.86700     Ti( 1.00)
        O1             6.00    15.99900     O ( 1.00)
        N1             5.00    14.00700     N ( 1.00)
        C1             4.00    12.01100     C ( 1.00)
        H1             1.00     1.00800     H ( 1.00)

     No symmetry found

   Cartesian axes

     site n.     atom                  positions (alat units)
         1           Ti1 tau(   1) = (   0.0004258   2.9801865   6.0000000  )
         2           Ti1 tau(   2) = (   3.2906075   1.4906267   6.0002472  )
         3           O1  tau(   3) = (   0.0006271   0.0005054   7.9858123  )
         4           O1  tau(   4) = (   3.2906025   0.0005020   7.3038282  )
         5           O1  tau(   5) = (   4.5942328   1.4918067   9.2879030  )
         6           O1  tau(   6) = (   1.9868534   1.4903216   9.2879459  )
         7           Ti1 tau(   7) = (   3.2907910   2.8959150   9.1758416  )
         8           Ti1 tau(   8) = (   0.0015273   1.4827037   9.2680791  )
         9           O1  tau(   9) = (   3.2768631   0.0039008  11.3091060  )
        10           O1  tau(  10) = (   0.0116148   5.9584955  10.6183126  )
        11           O1  tau(  11) = (   1.2710838   1.4709840  12.6395574  )
        12           O1  tau(  12) = (   5.2772223   1.5075092  12.6020671  )
        13           Ti1 tau(  13) = (   0.0276258   2.9086511  12.7028215  )
        14           Ti1 tau(  14) = (   3.3492493   1.4375301  12.4845766  )
        15           O1  tau(  15) = (   6.5006329   5.9509897  14.6081112  )
        16           O1  tau(  16) = (   3.3450391   0.0041935  13.9069437  )
        17           O1  tau(  17) = (   4.5555219   1.5659029  16.0522165  )
        18           O1  tau(  18) = (   1.9836904   1.4119734  15.8927236  )
        19           Ti1 tau(  19) = (   3.2827818   2.9316656  15.8555152  )
        20           Ti1 tau(  20) = (   6.5629331   1.3437128  15.9803530  )
        21           O1  tau(  21) = (   3.2904802   0.0005063   4.7018136  )
        22           O1  tau(  22) = (   6.5074089   5.9525318  17.1494500  )
        23           O1  tau(  23) = (   1.3043587   1.4918075   6.0039043  )
        24           O1  tau(  24) = (   5.2767064   1.4903225   6.0039473  )
        25           Ti1 tau(  25) = (   0.0000382   5.9609847   6.0000000  )
        26           Ti1 tau(  26) = (   3.2902200   4.4714249   6.0002472  )
        27           O1  tau(  27) = (   0.0002396   2.9813036   7.9858123  )
        28           O1  tau(  28) = (   3.2902150   2.9813002   7.3038282  )
        29           O1  tau(  29) = (   4.5938453   4.4726049   9.2879030  )
        30           O1  tau(  30) = (   1.9864658   4.4711199   9.2879459  )
        31           Ti1 tau(  31) = (   3.2891106   5.8743827   9.1763621  )
        32           Ti1 tau(  32) = (   0.0006254   4.4649316   9.2693709  )
        33           O1  tau(  33) = (   3.2854303   2.9668816  11.2996989  )
        34           O1  tau(  34) = (   0.0092240   2.9805883  10.6323155  )
        35           O1  tau(  35) = (   1.2743094   4.4851408  12.6236879  )
        36           O1  tau(  36) = (   5.2782958   4.4707264  12.5946799  )
        37           Ti1 tau(  37) = (   0.0481499   5.8920156  12.5607908  )
        38           Ti1 tau(  38) = (   3.3544845   4.3749597  12.5572158  )
        39           O1  tau(  39) = (   6.5410016   3.0017514  14.6365314  )
        40           O1  tau(  40) = (   3.2441134   3.0029108  13.8718978  )
        41           O1  tau(  41) = (   4.5385932   4.4028810  16.0550583  )
        42           O1  tau(  42) = (   1.9619458   4.5383001  15.8611175  )
        43           Ti1 tau(  43) = (   3.2178196   5.9097812  15.7399460  )
        44           Ti1 tau(  44) = (   6.5330930   4.4908980  15.8705378  )
        45           O1  tau(  45) = (   3.2900926   2.9813045   4.7018136  )
        46           O1  tau(  46) = (   1.3039711   4.4726057   6.0039043  )
        47           O1  tau(  47) = (   5.2763189   4.4711207   6.0039473  )
        48           N1  tau(  48) = (   1.2867840   3.0293760  18.3347772  )
        49           C1  tau(  49) = (   2.5003166   3.0326976  17.9607196  )
        50           H1  tau(  50) = (   3.2053588   3.1791635  18.8000936  )
        51           N1  tau(  51) = (   0.2138509   2.9871109  17.4421441  )
        52           H1  tau(  52) = (   5.9621615   2.9869774  18.0311354  )
        53           O1  tau(  53) = (   3.4290693   5.9360351  18.0748810  )
        54           H1  tau(  54) = (   4.3780305   0.1327944  18.2306609  )
        55           H1  tau(  55) = (   2.9458904   0.7245148  18.4607207  )

     number of k points=    10  Fermi-Dirac smearing, width (Ry)=  0.0073
                       cart. coord. in units 2pi/alat
        k(    1) = (   0.0000000   0.0000000   0.0000000), wk =   0.1250000
        k(    2) = (   0.0000000   0.0419351   0.0000000), wk =   0.2500000
        k(    3) = (   0.0000000  -0.0838702   0.0000000), wk =   0.1250000
        k(    4) = (   0.0379955   0.0000049   0.0000000), wk =   0.2500000
        k(    5) = (   0.0379955   0.0419400   0.0000000), wk =   0.2500000
        k(    6) = (   0.0379955  -0.0838652   0.0000000), wk =   0.2500000
        k(    7) = (   0.0379955  -0.0419301   0.0000000), wk =   0.2500000
        k(    8) = (  -0.0759910  -0.0000099   0.0000000), wk =   0.1250000
        k(    9) = (  -0.0759910   0.0419252   0.0000000), wk =   0.2500000
        k(   10) = (  -0.0759910  -0.0838800   0.0000000), wk =   0.1250000

     Initial potential from superposition of free atoms

     starting charge  385.99915, renormalised to  402.00000

     negative rho (up, down):  1.831E-02 0.000E+00

     %%%%%%%%%%%%%%%%%%%%%%%%%%%%%%%%%%%%%%%%%%%%%%%%%%%%%%%%%%%%%%%%%%%%%%%%
     %                                                                      %
     % You are using vdW-DF, which was implemented by the Thonhauser group. %
     % Please cite the following two papers that made this development      %
     % possible and the two reviews that describe the various versions:     %
     %                                                                      %
     %   T. Thonhauser et al., PRL 115, 136402 (2015).                      %
     %   T. Thonhauser et al., PRB 76, 125112 (2007).                       %
     %   K. Berland et al., Rep. Prog. Phys. 78, 066501 (2015).             %
     %   D.C. Langreth et al., J. Phys.: Condens. Matter 21, 084203 (2009). %
     %                                                                      %
     %                                                                      %
     % If you are calculating the stress with vdW-DF, please also cite:     %
     %                                                                      %
     %   R. Sabatini et al., J. Phys.: Condens. Matter 24, 424209 (2012).   %
     %                                                                      %
     %%%%%%%%%%%%%%%%%%%%%%%%%%%%%%%%%%%%%%%%%%%%%%%%%%%%%%%%%%%%%%%%%%%%%%%%

     Adding external electric field

     Computed dipole along edir(3) :
        Dipole              -11.0868 Ry au,        -28.1798 Debye
        Dipole field         -0.0209 Ry au,

        Potential amp.        1.9395 Ry
        Total length         46.3494 bohr

     Starting wfcs are  304 atomic wfcs
  @ DRIVER MODE: Message from server: STATUS
  @ DRIVER MODE: Message from server: POSDATA
  @ DRIVER MODE: Reading and sharing cell
  @ DRIVER MODE: Reading and sharing positions
  @ DRIVER MODE: Received positions

     Self-consistent Calculation

     iteration #  1     ecut=    29.40 Ry     beta= 0.05
     Davidson diagonalization with overlap
     c_bands:  5 eigenvalues not converged
     c_bands:  1 eigenvalues not converged
     c_bands:  3 eigenvalues not converged
     c_bands:  5 eigenvalues not converged
     c_bands:  1 eigenvalues not converged
     c_bands:  1 eigenvalues not converged
     c_bands:  1 eigenvalues not converged
     c_bands:  2 eigenvalues not converged
     c_bands:  2 eigenvalues not converged
     ethr =  1.00E-05,  avg # of iterations = 29.7

[...]

     total energy              =   -2403.83918668 Ry
     estimated scf accuracy    <    6374.13254607 Ry

     iteration #  2     ecut=    29.40 Ry     beta= 0.05
     Davidson diagonalization with overlap
     ethr =  1.00E-02,  avg # of iterations = 27.8

[...]

     iteration # 51     ecut=    29.40 Ry     beta= 0.05
     Davidson diagonalization with overlap
     c_bands:  1 eigenvalues not converged
     ethr =  1.33E-06,  avg # of iterations =  7.7

[...]

     total energy              =   -2972.69103054 Ry
     estimated scf accuracy    <       0.00000039 Ry

     iteration # 76     ecut=    29.40 Ry     beta= 0.05
     Davidson diagonalization with overlap
     ethr =  9.53E-11,  avg # of iterations =  6.0

     negative rho (up, down):  1.794E-02 0.000E+00

     Adding external electric field

     Computed dipole along edir(3) :
        Dipole                0.3495 Ry au,          0.8884 Debye
        Dipole field          0.0007 Ry au,

        Potential amp.       -0.0611 Ry
        Total length         46.3494 bohr

     End of self-consistent calculation

          k = 0.0000 0.0000 0.0000 ( 18029 PWs)   bands (ev):

   -56.3585 -56.3247 -55.9522 -55.9185 -55.7630 -55.7265 -55.5633 -55.5517
   -55.5506 -55.5271 -55.5172 -55.4466 -55.2480 -55.2309 -55.1596 -55.1257
   -32.8115 -32.6510 -32.6241 -32.5168 -32.4354 -32.4275 -32.4239 -32.2519
   -32.1698 -32.1651 -32.1068 -32.0941 -32.0715 -32.0543 -32.0424 -31.9854
   -31.9775 -31.9728 -31.9438 -31.9203 -31.9046 -31.8769 -31.8544 -31.8424
   -31.8140 -31.7790 -31.7621 -31.7351 -31.7318 -31.7130 -31.7108 -31.7074
   -31.6853 -31.6728 -31.6560 -31.6346 -31.5581 -31.5439 -31.5047 -31.4921
   -31.4904 -31.4669 -31.4646 -31.4358 -31.3763 -31.3251 -31.2913 -31.1797
   -18.7320 -16.9188 -16.6726 -16.3566 -16.1480 -15.9718 -15.8975 -15.8527
   -15.8023 -15.6815 -15.6083 -15.5881 -15.5145 -15.4101 -15.3947 -15.3530
   -15.3123 -15.2822 -15.2690 -15.2389 -15.1874 -15.1452 -15.1371 -15.0594
   -15.0384 -15.0346 -14.8945 -14.8336 -14.8157 -14.7757 -14.5165 -13.6582
   -13.5452 -12.2421  -6.6953  -6.5100  -4.1756  -4.0716  -3.9156  -3.7529
    -3.6738  -3.6232  -3.4320  -3.3939  -3.3765  -3.2576  -3.1288  -3.0988
    -3.0293  -2.9762  -2.9258  -2.8712  -2.8105  -2.7690  -2.7160  -2.6401
    -2.6325  -2.6201  -2.6031  -2.5954  -2.5665  -2.4465  -2.3555  -2.3380
    -2.3205  -2.2802  -2.2603  -2.2440  -2.1993  -2.1640  -2.0794  -2.0717
    -2.0211  -1.9650  -1.9124  -1.8111  -1.7939  -1.7197  -1.7149  -1.6757
    -1.5337  -1.4137  -1.3854  -1.3221  -1.3045  -1.2232  -1.2138  -1.1800
    -1.0836  -1.0750  -1.0294  -1.0056  -0.8857  -0.8592  -0.8153  -0.7983
    -0.7669  -0.6654  -0.6320  -0.5245  -0.4778  -0.4338  -0.4254  -0.3493
    -0.3252  -0.2830  -0.2302  -0.1783  -0.1724  -0.1448  -0.0584  -0.0201
     0.0276   0.0770   0.1114   0.1953   0.2524   0.2950   0.3096   0.3954
     0.4331   0.4492   0.5163   0.5829   0.6366   0.7032   0.7451   0.8581
     0.8642   0.8835   0.9750   1.0867   1.4048   1.4172   1.4574   1.6812
     2.6304   2.8657   2.9871   3.1539   3.2960   3.3495   3.6347   3.6821
     3.7168   3.7484   3.8314

[...]

          k = 0.0380-0.0419 0.0000 ( 17876 PWs)   bands (ev):

[...]

          k =-0.0760-0.0000 0.0000 ( 17886 PWs)   bands (ev):

[...]

          k =-0.0760-0.0839 0.0000 ( 17948 PWs)   bands (ev):

   -56.3421 -56.3409 -55.9371 -55.9334 -55.7516 -55.7379 -55.5510 -55.5479
   -55.5409 -55.5367 -55.5321 -55.4451 -55.2492 -55.2319 -55.1426 -55.1425
   -32.6371 -32.6358 -32.6277 -32.6271 -32.4691 -32.4679 -32.2527 -32.2487
   -32.1420 -32.1387 -32.1296 -32.1223 -32.0520 -32.0419 -31.9790 -31.9697
   -31.9603 -31.9573 -31.9009 -31.8840 -31.8702 -31.8675 -31.8596 -31.8239
   -31.8114 -31.7788 -31.7761 -31.7615 -31.7583 -31.7489 -31.7484 -31.7340
   -31.7286 -31.7178 -31.7010 -31.6309 -31.6006 -31.5483 -31.5200 -31.5050
   -31.4798 -31.4798 -31.4692 -31.3725 -31.3723 -31.3340 -31.3339 -31.3265
   -18.7296 -16.8966 -16.0768 -16.0646 -15.9473 -15.9425 -15.7629 -15.7456
   -15.7071 -15.6808 -15.6384 -15.5525 -15.4891 -15.4834 -15.4769 -15.4085
   -15.3657 -15.3600 -15.3399 -15.3087 -15.2778 -15.2517 -15.1639 -15.1388
   -15.1319 -15.1035 -15.0243 -15.0078 -14.9475 -14.8180 -14.7330 -13.6483
   -13.6478 -12.2634  -6.6840  -6.4247  -3.9814  -3.7760  -3.2455  -3.1875
    -3.1715  -3.0769  -3.0503  -2.9734  -2.8750  -2.8553  -2.8469  -2.8112
    -2.7903  -2.7812  -2.7610  -2.7107  -2.6689  -2.6464  -2.6307  -2.6221
    -2.6156  -2.5922  -2.5669  -2.5378  -2.4811  -2.4696  -2.4336  -2.4200
    -2.3858  -2.3116  -2.3086  -2.3022  -2.2943  -2.2261  -2.1378  -2.1268
    -2.1176  -2.0726  -1.9955  -1.9304  -1.8447  -1.8009  -1.7345  -1.6790
    -1.6285  -1.5984  -1.5856  -1.4892  -1.4318  -1.4166  -1.3756  -1.3171
    -1.2341  -1.2046  -1.1684  -1.1594  -1.1490  -1.0936  -1.0409  -0.9864
    -0.8717  -0.8498  -0.8394  -0.7815  -0.7774  -0.7650  -0.6488  -0.6185
    -0.5716  -0.5453  -0.5284  -0.4845  -0.4617  -0.3813  -0.2907  -0.2449
    -0.1149  -0.0956  -0.0465  -0.0061   0.0079   0.1133   0.1844   0.2080
     0.3521   0.3673   0.4011   0.5383   0.6015   0.6568   0.6726   0.7962
     0.8141   0.8507   1.0144   1.2509   1.2554   1.2736   1.2747   1.6324
     2.6087   3.4053   3.4075   3.4382   3.4402   3.6518   3.6652   3.7463
     3.7891   3.8827   3.9048

     the Fermi energy is     2.8064 ev

!    total energy              =   -2972.69104373 Ry
     estimated scf accuracy    <       0.00000004 Ry
     smearing contrib. (-TS)   =      -0.01333843 Ry
     internal energy E=F+TS    =   -2972.67770530 Ry

     The total energy is F=E-TS. E is the sum of the following terms:
     one-electron contribution =  -24588.72359647 Ry
     hartree contribution      =   12386.33829520 Ry
     xc contribution           =    -493.16884819 Ry
     ewald contribution        =    9722.87621360 Ry
     electric field correction =       0.00023056 Ry

     convergence has been achieved in  76 iterations

     Forces acting on atoms (cartesian axes, Ry/au):

     atom    1 type  1   force =    -0.00000740   -0.00028340    0.10622558
     atom    2 type  1   force =    -0.00022528   -0.00076878   -0.16684268
     atom    3 type  2   force =    -0.00002427   -0.00013860   -0.03913308
     atom    4 type  2   force =    -0.00009878   -0.00036912    0.03629528
     atom    5 type  2   force =    -0.00751574   -0.00012268   -0.00585763
     atom    6 type  2   force =     0.00853034    0.00078555   -0.00754580
     atom    7 type  1   force =    -0.00079863   -0.00147377    0.02014265
     atom    8 type  1   force =     0.00110494    0.01826323    0.06349608
     atom    9 type  2   force =    -0.00009228   -0.00022333   -0.00000652
     atom   10 type  2   force =    -0.00265535    0.00204171   -0.04812703
     atom   11 type  2   force =    -0.00026494   -0.00002769   -0.00000956
     atom   12 type  2   force =     0.00039407   -0.00013572   -0.00003940
     atom   13 type  1   force =     0.00004933   -0.00009232    0.00025007
     atom   14 type  1   force =    -0.00048066    0.00001128    0.00047494
     atom   15 type  2   force =     0.00033744    0.00010763   -0.00067944
     atom   16 type  2   force =    -0.00010916   -0.00026422    0.00010308
     atom   17 type  2   force =     0.00019206   -0.00036326    0.00025356
     atom   18 type  2   force =    -0.00002559   -0.00028607   -0.00064370
     atom   19 type  1   force =     0.00041960    0.00001027    0.00082931
     atom   20 type  1   force =     0.00007091    0.00028856    0.00038178
     atom   21 type  2   force =     0.00004958   -0.00001940    0.10083841
     atom   22 type  2   force =     0.00033499    0.00028162    0.00033609
     atom   23 type  2   force =    -0.07586368   -0.00011682   -0.02989963
     atom   24 type  2   force =     0.07575334    0.00033858   -0.02990927
     atom   25 type  1   force =     0.00020214   -0.00055986    0.10658988
     atom   26 type  1   force =    -0.00006631   -0.00026709   -0.16728552
     atom   27 type  2   force =    -0.00006208   -0.00032176   -0.03778061
     atom   28 type  2   force =     0.00007096   -0.00044840    0.03675524
     atom   29 type  2   force =    -0.00849063    0.00126298   -0.00525220
     atom   30 type  2   force =     0.00944503    0.00122352   -0.00696824
     atom   31 type  1   force =    -0.00129751   -0.00010114    0.02646996
     atom   32 type  1   force =     0.00116285   -0.02137964    0.06407051
     atom   33 type  2   force =    -0.00003451    0.00023026   -0.00038507
     atom   34 type  2   force =    -0.00008690    0.00091701   -0.05986466
     atom   35 type  2   force =    -0.00012873    0.00011780   -0.00025967
     atom   36 type  2   force =    -0.00006336    0.00038238   -0.00027949
     atom   37 type  1   force =     0.00002093   -0.00034296    0.00069780
     atom   38 type  1   force =    -0.00044387   -0.00017195    0.00035051
     atom   39 type  2   force =    -0.00019608    0.00033390    0.00008970
     atom   40 type  2   force =     0.00040353    0.00023796   -0.00109683
     atom   41 type  2   force =     0.00003480    0.00047923   -0.00024757
     atom   42 type  2   force =     0.00030971    0.00055390   -0.00030087
     atom   43 type  1   force =    -0.00043474    0.00001473    0.00045928
     atom   44 type  1   force =     0.00024340   -0.00002580    0.00007321
     atom   45 type  2   force =     0.00002632   -0.00000146    0.10087375
     atom   46 type  2   force =    -0.07587429   -0.00010682   -0.02985512
     atom   47 type  2   force =     0.07574431    0.00032134   -0.02989197
     atom   48 type  3   force =     0.00483090   -0.00012683   -0.00402522
     atom   49 type  4   force =     0.00120334    0.00209923    0.01357300
     atom   50 type  5   force =    -0.00422172   -0.00237802   -0.00729938
     atom   51 type  3   force =    -0.00083458    0.00026580   -0.00027149
     atom   52 type  5   force =    -0.00018729    0.00026277    0.00020202
     atom   53 type  2   force =    -0.00055788    0.00009400   -0.00100501
     atom   54 type  5   force =    -0.00029762    0.00011019    0.00049069
     atom   55 type  5   force =     0.00050503   -0.00011850    0.00044033

     Total force =     0.384360     Total SCF correction =     0.000554
  @ DRIVER MODE: Message from server: STATUS
  @ DRIVER MODE: Message from server: GETFORCE
  @ DRIVER MODE: Returning v,forces,stress,ensemble

     Writing output data file ./calc.save/
  @ DRIVER MODE: Message from server: EXIT
  @ DRIVE MODE: Exiting

     General routines

     Parallel routines

   This run was terminated on:  19:15: 2  15Sep2021

   JOB DONE.