     Program PWSCF v.6.7GPU starts on 10Sep2021 at 18:37:41

     R & G space division:  proc/nbgrp/npool/nimage =      10
     Reading input from /storage/home/hcoda1/3/ntian30/research/carbon/CxH_vib/CH2_calc/ads_slab/CH2N2H_e/out_0003/pw.inp
Warning: card &CELL ignored
Warning: card   CELL_DYNAMICS='IPI', ignored
Warning: card / ignored

     Current dimensions of program PWSCF are:
     Max number of different atomic species (ntypx) = 10
     Max number of k-points (npk) =  40000
     Max angular momentum in pseudopotentials (lmaxx) =  3
     Presently no symmetry can be used with electric field

     Message from routine cell_base_init:
     DEPRECATED: use true lattice parameter, not A to a.u. conversion factor

     IMPORTANT: XC functional enforced from input :
     Exchange-correlation= BEEF-VDW
                           (   1   4  43  14   2   0   0)
     Any further DFT definition will be discarded
     Please, verify this is what you really want

  @ DRIVER MODE: Connecting to
 qe_1139763_2792041.sched-torque.pace.gatech.eduv_wi1qpt_scratch
  using UNIX socket
  @ DRIVER MODE: Message from server: STATUS
  @ DRIVER MODE: Message from server: INIT
  @ DRIVER MODE: Receiving replica           0          -1
  @ DRIVER MODE: Receiving encoded integer          25
  @ DRIVER MODE:  SCF:  T  FORCE:  T  STRESS:  F  VC:  F  ENSEMBLE:  F
  @ DRIVER MODE:  SCF:  T  FORCE:  T  STRESS:  F  VC:  F  ENSEMBLE:  F

     Using Slab Decomposition

     bravais-lattice index     =            0
     lattice parameter (alat)  =       1.8897  a.u.
     unit-cell volume          =    6658.9804 (a.u.)^3
     number of atoms/cell      =           53
     number of atomic types    =            5
     number of electrons       =       395.00
     number of Kohn-Sham states=          207
     kinetic-energy cutoff     =      29.3995  Ry
     charge density cutoff     =     293.9946  Ry
     scf convergence threshold =      7.3E-08
     mixing beta               =       0.0500
     number of iterations used =            8  plain     mixing
     Exchange-correlation= BEEF-VDW
                           (   1   4  43  14   2   0   0)

     celldm(1)=   1.889726  celldm(2)=   0.000000  celldm(3)=   0.000000
     celldm(4)=   0.000000  celldm(5)=   0.000000  celldm(6)=   0.000000

     crystal axes: (cart. coord. in units of alat)
               a(1) = (   6.579727   0.000000   0.000000 )
               a(2) = (  -0.000775   5.961596   0.000000 )
               a(3) = (   0.000000   0.000000  25.155947 )

     reciprocal axes: (cart. coord. in units 2 pi/alat)
               b(1) = (  0.151982  0.000020  0.000000 )
               b(2) = (  0.000000  0.167740  0.000000 )
               b(3) = (  0.000000  0.000000  0.039752 )

     PseudoPot. # 1 for Ti read from file:
     /storage/coda1/p-amedford6/0/shared/rich_project_chbe-medford/medford-share/data/pseudos_module/espresso/nninc/pbe/van/Ti.UPF
     MD5 check sum: 8e4df49b7f0d34bbd5052bf3f5ea0213
     Pseudo is Ultrasoft, Zval = 12.0
     Generated by new atomic code, or converted to UPF format
     Using radial grid of  851 points,  6 beta functions with:
                l(1) =   0
                l(2) =   0
                l(3) =   1
                l(4) =   1
                l(5) =   2
                l(6) =   2
     Q(r) pseudized with  8 coefficients,  rinner =    1.000   1.000   1.000
                                                       1.000   1.000

     PseudoPot. # 2 for O  read from file:
     /storage/coda1/p-amedford6/0/shared/rich_project_chbe-medford/medford-share/data/pseudos_module/espresso/nninc/pbe/van/O.UPF
     MD5 check sum: 78c19812648e8988a0fe644b0f25305e
     Pseudo is Ultrasoft, Zval =  6.0
     Generated by new atomic code, or converted to UPF format
     Using radial grid of  737 points,  4 beta functions with:
                l(1) =   0
                l(2) =   0
                l(3) =   1
                l(4) =   1
     Q(r) pseudized with  8 coefficients,  rinner =    0.800   0.800   0.800

     PseudoPot. # 3 for N  read from file:
     /storage/coda1/p-amedford6/0/shared/rich_project_chbe-medford/medford-share/data/pseudos_module/espresso/nninc/pbe/van/N.UPF
     MD5 check sum: 90d10febe142ad51ac9d5be1deb811c4
     Pseudo is Ultrasoft, Zval =  5.0
     Generated by new atomic code, or converted to UPF format
     Using radial grid of  729 points,  4 beta functions with:
                l(1) =   0
                l(2) =   0
                l(3) =   1
                l(4) =   1
     Q(r) pseudized with  8 coefficients,  rinner =    0.800   0.800   0.800

     PseudoPot. # 4 for C  read from file:
     /storage/coda1/p-amedford6/0/shared/rich_project_chbe-medford/medford-share/data/pseudos_module/espresso/nninc/pbe/van/C.UPF
     MD5 check sum: 1a69bf6b8db32088f5b2163dbdb77a27
     Pseudo is Ultrasoft, Zval =  4.0
     Generated by new atomic code, or converted to UPF format
     Using radial grid of  721 points,  4 beta functions with:
                l(1) =   0
                l(2) =   0
                l(3) =   1
                l(4) =   1
     Q(r) pseudized with  8 coefficients,  rinner =    0.800   0.800   0.800

     PseudoPot. # 5 for H  read from file:
     /storage/coda1/p-amedford6/0/shared/rich_project_chbe-medford/medford-share/data/pseudos_module/espresso/nninc/pbe/van/H.UPF
     MD5 check sum: b5ee9d7bfd3a09ee7748110bda690ff7
     Pseudo is Ultrasoft, Zval =  1.0
     Generated by new atomic code, or converted to UPF format
     Using radial grid of  615 points,  1 beta functions with:
                l(1) =   0
     Q(r) pseudized with  8 coefficients,  rinner =    0.800

     atomic species   valence    mass     pseudopotential
        Ti1           12.00    47.86700     Ti( 1.00)
        O1             6.00    15.99900     O ( 1.00)
        N1             5.00    14.00700     N ( 1.00)
        C1             4.00    12.01100     C ( 1.00)
        H1             1.00     1.00800     H ( 1.00)

     No symmetry found

   Cartesian axes

     site n.     atom                  positions (alat units)
         1           Ti1 tau(   1) = (   0.0004258   2.9801865   6.0000000  )
         2           Ti1 tau(   2) = (   3.2906075   1.4906267   6.0002472  )
         3           O1  tau(   3) = (   0.0006271   0.0005054   7.9858123  )
         4           O1  tau(   4) = (   3.2906025   0.0005020   7.3038282  )
         5           O1  tau(   5) = (   4.5942328   1.4918067   9.2879030  )
         6           O1  tau(   6) = (   1.9868534   1.4903216   9.2879459  )
         7           Ti1 tau(   7) = (   3.2907910   2.8959150   9.1758416  )
         8           Ti1 tau(   8) = (   0.0015273   1.4827037   9.2680791  )
         9           O1  tau(   9) = (   3.2922140   0.0036562  11.3253104  )
        10           O1  tau(  10) = (   0.0116148   5.9584955  10.6183126  )
        11           O1  tau(  11) = (   1.2860832   1.4889729  12.6258215  )
        12           O1  tau(  12) = (   5.2729595   1.4828594  12.6177116  )
        13           Ti1 tau(  13) = (   0.0641184   3.0073180  12.5883652  )
        14           Ti1 tau(  14) = (   3.3767723   1.4911129  12.4765728  )
        15           O1  tau(  15) = (   6.5781935   5.9569561  14.6821271  )
        16           O1  tau(  16) = (   3.2819581   0.0025077  13.9050320  )
        17           O1  tau(  17) = (   4.5172158   1.5234625  16.0337941  )
        18           O1  tau(  18) = (   2.0475084   1.5263597  16.0453316  )
        19           Ti1 tau(  19) = (   3.2743797   3.0127756  15.6984511  )
        20           Ti1 tau(  20) = (   6.5512008   1.5842238  15.7855373  )
        21           O1  tau(  21) = (   3.2904802   0.0005063   4.7018136  )
        22           O1  tau(  22) = (   6.5742344   0.0609322  17.2932839  )
        23           O1  tau(  23) = (   1.3043587   1.4918075   6.0039043  )
        24           O1  tau(  24) = (   5.2767064   1.4903225   6.0039473  )
        25           Ti1 tau(  25) = (   0.0000382   5.9609847   6.0000000  )
        26           Ti1 tau(  26) = (   3.2902200   4.4714249   6.0002472  )
        27           O1  tau(  27) = (   0.0002396   2.9813036   7.9858123  )
        28           O1  tau(  28) = (   3.2902150   2.9813002   7.3038282  )
        29           O1  tau(  29) = (   4.5938453   4.4726049   9.2879030  )
        30           O1  tau(  30) = (   1.9864658   4.4711199   9.2879459  )
        31           Ti1 tau(  31) = (   3.2891106   5.8743827   9.1763621  )
        32           Ti1 tau(  32) = (   0.0006254   4.4649316   9.2693709  )
        33           O1  tau(  33) = (   3.2917412   2.9831059  11.3263362  )
        34           O1  tau(  34) = (   0.0092240   2.9805883  10.6323155  )
        35           O1  tau(  35) = (   1.2859270   4.4784489  12.6216084  )
        36           O1  tau(  36) = (   5.2779610   4.4756213  12.6128944  )
        37           Ti1 tau(  37) = (   0.0616295   0.0157230  12.5710002  )
        38           Ti1 tau(  38) = (   3.3796684   4.4726909  12.4790056  )
        39           O1  tau(  39) = (   6.5693437   2.9756239  14.6354252  )
        40           O1  tau(  40) = (   3.2842310   3.0020566  13.9003041  )
        41           O1  tau(  41) = (   4.5171552   4.5052370  16.0986928  )
        42           O1  tau(  42) = (   2.0408908   4.5012300  16.0971631  )
        43           Ti1 tau(  43) = (   3.2680294   0.0293594  15.7040856  )
        44           Ti1 tau(  44) = (   6.5592110   4.6908586  16.1766550  )
        45           O1  tau(  45) = (   3.2900926   2.9813045   4.7018136  )
        46           O1  tau(  46) = (   1.3039711   4.4726057   6.0039043  )
        47           O1  tau(  47) = (   5.2763189   4.4711207   6.0039473  )
        48           N1  tau(  48) = (   0.0931655   2.5801963  18.5587852  )
        49           N1  tau(  49) = (   6.5755498   2.9338716  17.3126873  )
        50           C1  tau(  50) = (   0.1889803   3.3462807  19.6294495  )
        51           H1  tau(  51) = (   0.2540540   2.8541835  20.5836859  )
        52           H1  tau(  52) = (   0.1890997   4.4171571  19.5098884  )
        53           H1  tau(  53) = (   0.0969130   1.5623892  18.6894177  )

     number of k points=    10  Fermi-Dirac smearing, width (Ry)=  0.0073
                       cart. coord. in units 2pi/alat
        k(    1) = (   0.0000000   0.0000000   0.0000000), wk =   0.1250000
        k(    2) = (   0.0000000   0.0419351   0.0000000), wk =   0.2500000
        k(    3) = (   0.0000000  -0.0838702   0.0000000), wk =   0.1250000
        k(    4) = (   0.0379955   0.0000049   0.0000000), wk =   0.2500000
        k(    5) = (   0.0379955   0.0419400   0.0000000), wk =   0.2500000
        k(    6) = (   0.0379955  -0.0838652   0.0000000), wk =   0.2500000
        k(    7) = (   0.0379955  -0.0419301   0.0000000), wk =   0.2500000
        k(    8) = (  -0.0759910  -0.0000099   0.0000000), wk =   0.1250000
        k(    9) = (  -0.0759910   0.0419252   0.0000000), wk =   0.2500000
        k(   10) = (  -0.0759910  -0.0838800   0.0000000), wk =   0.1250000

     Initial potential from superposition of free atoms

     starting charge  378.99916, renormalised to  395.00000

     negative rho (up, down):  1.523E-02 0.000E+00

     %%%%%%%%%%%%%%%%%%%%%%%%%%%%%%%%%%%%%%%%%%%%%%%%%%%%%%%%%%%%%%%%%%%%%%%%
     %                                                                      %
     % You are using vdW-DF, which was implemented by the Thonhauser group. %
     % Please cite the following two papers that made this development      %
     % possible and the two reviews that describe the various versions:     %
     %                                                                      %
     %   T. Thonhauser et al., PRL 115, 136402 (2015).                      %
     %   T. Thonhauser et al., PRB 76, 125112 (2007).                       %
     %   K. Berland et al., Rep. Prog. Phys. 78, 066501 (2015).             %
     %   D.C. Langreth et al., J. Phys.: Condens. Matter 21, 084203 (2009). %
     %                                                                      %
     %                                                                      %
     % If you are calculating the stress with vdW-DF, please also cite:     %
     %                                                                      %
     %   R. Sabatini et al., J. Phys.: Condens. Matter 24, 424209 (2012).   %
     %                                                                      %
     %%%%%%%%%%%%%%%%%%%%%%%%%%%%%%%%%%%%%%%%%%%%%%%%%%%%%%%%%%%%%%%%%%%%%%%%

     Adding external electric field

     Computed dipole along edir(3) :
        Dipole               -8.7485 Ry au,        -22.2364 Debye
        Dipole field         -0.0165 Ry au,

        Potential amp.        1.5304 Ry
        Total length         46.3494 bohr

     Starting wfcs are  299 atomic wfcs
  @ DRIVER MODE: Message from server: STATUS
  @ DRIVER MODE: Message from server: POSDATA
  @ DRIVER MODE: Reading and sharing cell
  @ DRIVER MODE: Reading and sharing positions
  @ DRIVER MODE: Received positions

     Self-consistent Calculation

     iteration #  1     ecut=    29.40 Ry     beta= 0.05
     Davidson diagonalization with overlap
     c_bands:  2 eigenvalues not converged
     c_bands:  1 eigenvalues not converged
     c_bands:  1 eigenvalues not converged
     c_bands:  3 eigenvalues not converged
     c_bands:  2 eigenvalues not converged
     c_bands:  1 eigenvalues not converged
     c_bands:  1 eigenvalues not converged
     ethr =  1.00E-05,  avg # of iterations = 19.1

[...]

     total energy              =   -2616.88811259 Ry
     estimated scf accuracy    <    3578.67176023 Ry

     iteration #  2     ecut=    29.40 Ry     beta= 0.05
     Davidson diagonalization with overlap
     ethr =  1.00E-02,  avg # of iterations = 22.5

[...]

     iteration # 76     ecut=    29.40 Ry     beta= 0.05
     Davidson diagonalization with overlap
     c_bands:  1 eigenvalues not converged
     ethr =  1.38E-10,  avg # of iterations = 11.6

[...]

     total energy              =   -2939.15565642 Ry
     estimated scf accuracy    <       0.00000015 Ry

     iteration # 79     ecut=    29.40 Ry     beta= 0.05
     Davidson diagonalization with overlap
     ethr =  3.77E-11,  avg # of iterations =  7.9

     negative rho (up, down):  1.567E-02 0.000E+00

     Adding external electric field

     Computed dipole along edir(3) :
        Dipole                1.1187 Ry au,          2.8435 Debye
        Dipole field          0.0021 Ry au,

        Potential amp.       -0.1957 Ry
        Total length         46.3494 bohr

     End of self-consistent calculation

          k = 0.0000 0.0000 0.0000 ( 18029 PWs)   bands (ev):

   -55.5877 -55.5845 -55.5536 -55.5485 -55.4554 -55.4358 -55.4192 -55.4015
   -55.4006 -55.3675 -55.3626 -55.3290 -54.9544 -54.8695 -54.5658 -54.5318
   -32.1392 -32.0706 -31.9563 -31.8999 -31.8967 -31.8886 -31.8804 -31.8539
   -31.8315 -31.8118 -31.7795 -31.7698 -31.7637 -31.7399 -31.7373 -31.7244
   -31.6925 -31.6820 -31.6719 -31.6590 -31.6560 -31.6448 -31.6101 -31.6037
   -31.5940 -31.5904 -31.5861 -31.5772 -31.5668 -31.5646 -31.5402 -31.5303
   -31.5164 -31.5112 -31.5027 -31.4756 -31.4629 -31.1936 -31.1867 -31.1489
   -31.1019 -31.0478 -30.9728 -30.8847 -30.8623 -30.7897 -30.7032 -30.5920
   -18.9104 -16.3426 -16.0660 -15.8182 -15.7380 -15.7214 -15.6056 -15.4332
   -15.3169 -15.2655 -15.1625 -15.1616 -15.1251 -15.0908 -15.0425 -15.0394
   -15.0347 -15.0077 -14.9978 -14.9780 -14.9482 -14.9299 -14.8903 -14.7913
   -14.7731 -14.7234 -14.6941 -14.6683 -14.6483 -14.2632 -13.0681 -12.9517
   -12.6498  -8.9482  -6.3168  -4.8550  -3.7181  -3.6256  -3.5604  -3.4955
    -3.4638  -3.4337  -3.2375  -3.1946  -3.1433  -2.8367  -2.7759  -2.7576
    -2.7474  -2.7178  -2.4933  -2.4542  -2.4032  -2.3725  -2.3606  -2.3583
    -2.3568  -2.3267  -2.3086  -2.1674  -2.1331  -2.0422  -2.0028  -1.9964
    -1.9876  -1.9009  -1.8682  -1.8422  -1.8322  -1.8223  -1.7945  -1.7851
    -1.7768  -1.6425  -1.5635  -1.4118  -1.3915  -1.3509  -1.2200  -1.1960
    -1.0640  -1.0470  -1.0180  -0.9812  -0.9609  -0.8925  -0.7723  -0.7505
    -0.7147  -0.6994  -0.6094  -0.5711  -0.5033  -0.4688  -0.4449  -0.3963
    -0.3586  -0.3497  -0.3275  -0.2034  -0.0714  -0.0137  -0.0045   0.0230
     0.0914   0.1288   0.1892   0.2385   0.2493   0.2857   0.3372   0.3816
     0.3937   0.3962   0.4112   0.4496   0.5913   0.6074   0.6725   0.7177
     0.7613   0.8765   0.9282   1.0640   1.1561   1.3117   1.3837   1.4564
     1.5292   1.6487   2.0271   2.0524   2.0730   3.5425   3.6312   3.6753
     3.6808   3.7865   3.8824   3.9940   4.0136   4.0331   4.0893

[...]

          k = 0.0380-0.0419 0.0000 ( 17876 PWs)   bands (ev):

[...]

          k =-0.0760-0.0000 0.0000 ( 17886 PWs)   bands (ev):

[...]

          k =-0.0760-0.0839 0.0000 ( 17948 PWs)   bands (ev):

   -55.5708 -55.5704 -55.5667 -55.5661 -55.4428 -55.4317 -55.4215 -55.4148
   -55.3844 -55.3841 -55.3465 -55.3452 -54.9516 -54.8722 -54.5488 -54.5487
   -31.9426 -31.9409 -31.8861 -31.8856 -31.8661 -31.8654 -31.8387 -31.8384
   -31.8039 -31.7915 -31.7672 -31.7610 -31.7266 -31.7186 -31.7037 -31.7011
   -31.6992 -31.6959 -31.6903 -31.6900 -31.6867 -31.6841 -31.6562 -31.6485
   -31.6301 -31.6275 -31.6210 -31.6149 -31.5849 -31.5835 -31.5782 -31.5766
   -31.5620 -31.5615 -31.5612 -31.5592 -31.3653 -31.2323 -31.1943 -31.1619
   -31.1041 -31.0923 -30.8750 -30.8749 -30.7857 -30.7855 -30.7465 -30.7465
   -18.9065 -15.7728 -15.7581 -15.5318 -15.5165 -15.5054 -15.4965 -15.3489
   -15.3220 -15.2840 -15.2810 -15.2089 -15.1637 -15.1471 -15.1316 -15.1290
   -15.1105 -15.1022 -15.0539 -15.0469 -15.0458 -15.0279 -15.0214 -14.9069
   -14.9029 -14.8949 -14.8424 -14.7928 -14.6760 -14.3909 -13.0535 -13.0534
   -12.6554  -8.9480  -6.3111  -4.8165  -3.6398  -3.3487  -3.0604  -3.0492
    -2.7593  -2.7484  -2.7461  -2.7028  -2.5105  -2.5057  -2.4916  -2.4595
    -2.4260  -2.4148  -2.4051  -2.3907  -2.3851  -2.3364  -2.3145  -2.2692
    -2.2560  -2.2530  -2.2515  -2.2163  -2.2059  -2.1635  -2.1529  -2.1299
    -2.1178  -2.0854  -2.0549  -1.9081  -1.8218  -1.8028  -1.7290  -1.7221
    -1.6896  -1.6528  -1.6391  -1.5942  -1.5593  -1.4429  -1.3307  -1.2889
    -1.2744  -1.1739  -1.1378  -1.1000  -1.0470  -0.9729  -0.9646  -0.9360
    -0.8695  -0.7978  -0.7816  -0.7585  -0.6941  -0.6707  -0.5965  -0.5754
    -0.5505  -0.5456  -0.4885  -0.4226  -0.4073  -0.3559  -0.3477  -0.3068
    -0.2723  -0.2431  -0.2236  -0.0843  -0.0829  -0.0438   0.0918   0.1474
     0.3808   0.4301   0.4499   0.5216   0.6214   0.6687   0.6833   0.7248
     0.7343   0.7494   0.8098   0.9393   0.9446   1.0136   1.0544   1.1540
     1.8204   1.8209   1.8928   1.8929   1.9127   3.8383   3.8652   3.8778
     3.9017   4.0490   4.0593   4.0792   4.0798   4.1971   4.2209

     the Fermi energy is     3.5440 ev

!    total energy              =   -2939.15566573 Ry
     estimated scf accuracy    <       0.00000006 Ry
     smearing contrib. (-TS)   =      -0.02147568 Ry
     internal energy E=F+TS    =   -2939.13419005 Ry

     The total energy is F=E-TS. E is the sum of the following terms:
     one-electron contribution =  -24212.72062675 Ry
     hartree contribution      =   12196.20261372 Ry
     xc contribution           =    -485.25213560 Ry
     ewald contribution        =    9562.63359673 Ry
     electric field correction =       0.00236185 Ry

     convergence has been achieved in  79 iterations

     Forces acting on atoms (cartesian axes, Ry/au):

     atom    1 type  1   force =     0.00008415   -0.00017748    0.09641328
     atom    2 type  1   force =    -0.00018381   -0.00071519   -0.17541158
     atom    3 type  2   force =     0.00004477   -0.00013549   -0.02409034
     atom    4 type  2   force =     0.00007734   -0.00140934    0.05269035
     atom    5 type  2   force =    -0.01131087   -0.00007408    0.00339723
     atom    6 type  2   force =     0.01296585    0.00063887    0.00224050
     atom    7 type  1   force =    -0.00120098    0.00045853   -0.01224523
     atom    8 type  1   force =     0.00043455    0.00233759    0.02520878
     atom    9 type  2   force =    -0.00024928    0.00019210    0.00003050
     atom   10 type  2   force =    -0.00120415    0.00198238   -0.01304500
     atom   11 type  2   force =     0.00057752    0.00016120    0.00023299
     atom   12 type  2   force =    -0.00050242    0.00006681    0.00011001
     atom   13 type  1   force =    -0.00050048    0.00027591    0.00020114
     atom   14 type  1   force =     0.00061176   -0.00036828   -0.00029614
     atom   15 type  2   force =    -0.00006298   -0.00000069    0.00008409
     atom   16 type  2   force =    -0.00002196    0.00018048    0.00056397
     atom   17 type  2   force =    -0.00057134   -0.00004377   -0.00006333
     atom   18 type  2   force =     0.00021000   -0.00012683   -0.00030372
     atom   19 type  1   force =     0.00011644    0.00071824    0.00048810
     atom   20 type  1   force =    -0.00002118    0.00048166   -0.00046375
     atom   21 type  2   force =     0.00009908   -0.00012516    0.10316601
     atom   22 type  2   force =    -0.00026453   -0.00025671   -0.00017837
     atom   23 type  2   force =    -0.07150386   -0.00021166   -0.02771743
     atom   24 type  2   force =     0.07150807    0.00025226   -0.02772652
     atom   25 type  1   force =     0.00012052   -0.00024784    0.09594722
     atom   26 type  1   force =    -0.00010956   -0.00044959   -0.17554859
     atom   27 type  2   force =     0.00009655   -0.00013056   -0.02333741
     atom   28 type  2   force =     0.00011090   -0.00121862    0.05265566
     atom   29 type  2   force =    -0.01155905   -0.00030144    0.00347848
     atom   30 type  2   force =     0.01314476    0.00016082    0.00228170
     atom   31 type  1   force =    -0.00120573    0.00343758   -0.01235875
     atom   32 type  1   force =     0.00054996   -0.00378653    0.02549637
     atom   33 type  2   force =     0.00002706   -0.00017841   -0.00002412
     atom   34 type  2   force =    -0.00098372    0.00046442   -0.02167950
     atom   35 type  2   force =     0.00014376    0.00000849    0.00017082
     atom   36 type  2   force =    -0.00015091    0.00002117    0.00005690
     atom   37 type  1   force =    -0.00044688   -0.00032538    0.00018748
     atom   38 type  1   force =     0.00044110    0.00027587   -0.00027444
     atom   39 type  2   force =    -0.00001870   -0.00046309    0.00036730
     atom   40 type  2   force =    -0.00013076   -0.00008161    0.00010961
     atom   41 type  2   force =    -0.00076747   -0.00019014   -0.00025180
     atom   42 type  2   force =     0.00083886   -0.00000152   -0.00001624
     atom   43 type  1   force =    -0.00000757   -0.00073910    0.00009017
     atom   44 type  1   force =    -0.00002422    0.00007085    0.00025632
     atom   45 type  2   force =     0.00010633   -0.00010839    0.10318127
     atom   46 type  2   force =    -0.07150581   -0.00015518   -0.02770290
     atom   47 type  2   force =     0.07151514    0.00029175   -0.02771231
     atom   48 type  3   force =     0.00067256    0.02728943    0.00142640
     atom   49 type  3   force =     0.00045659   -0.00511313    0.00334606
     atom   50 type  4   force =    -0.00074942   -0.00904156   -0.00469076
     atom   51 type  5   force =     0.00028905   -0.00006486    0.00085197
     atom   52 type  5   force =     0.00007002   -0.00132130   -0.00094033
     atom   53 type  5   force =    -0.00005507   -0.01220351    0.00134785

     Total force =     0.368157     Total SCF correction =     0.000647
  @ DRIVER MODE: Message from server: STATUS
  @ DRIVER MODE: Message from server: GETFORCE
  @ DRIVER MODE: Returning v,forces,stress,ensemble

     Writing output data file ./calc.save/
  @ DRIVER MODE: Message from server: EXIT
  @ DRIVE MODE: Exiting

     General routines

     Parallel routines

   This run was terminated on:  18:57:57  10Sep2021

   JOB DONE.