     Program PWSCF v.6.7GPU starts on  7Jul2021 at  8:52: 4

     R & G space division:  proc/nbgrp/npool/nimage =      16
     Reading input from /storage/home/hcoda1/3/ntian30/research/carbon/7Jul_spin_polarized/ads_slab/CH3NNHHH_a/7Jul_spin_pol.log/pw.inp
Warning: card &CELL ignored
Warning: card   CELL_DYNAMICS='IPI', ignored
Warning: card / ignored

     Current dimensions of program PWSCF are:
     Max number of different atomic species (ntypx) = 10
     Max number of k-points (npk) =  40000
     Max angular momentum in pseudopotentials (lmaxx) =  3
     Presently no symmetry can be used with electric field

     Message from routine cell_base_init:
     DEPRECATED: use true lattice parameter, not A to a.u. conversion factor

     IMPORTANT: XC functional enforced from input :
     Exchange-correlation= BEEF-VDW
                           (   1   4  43  14   2   0   0)
     Any further DFT definition will be discarded
     Please, verify this is what you really want

  @ DRIVER MODE: Connecting to
 qe_1139763_2287429.sched-torque.pace.gatech.edun65zw76q_scratch
  using UNIX socket
  @ DRIVER MODE: Message from server: STATUS
  @ DRIVER MODE: Message from server: INIT
  @ DRIVER MODE: Receiving replica           0          -1
  @ DRIVER MODE: Receiving encoded integer          25
  @ DRIVER MODE:  SCF:  T  FORCE:  T  STRESS:  F  VC:  F  ENSEMBLE:  F
  @ DRIVER MODE:  SCF:  T  FORCE:  T  STRESS:  F  VC:  F  ENSEMBLE:  F

     Using Slab Decomposition

     bravais-lattice index     =            0
     lattice parameter (alat)  =       1.8897  a.u.
     unit-cell volume          =    6658.9804 (a.u.)^3
     number of atoms/cell      =           56
     number of atomic types    =            5
     number of electrons       =       398.00
     number of Kohn-Sham states=          209
     kinetic-energy cutoff     =      29.3995  Ry
     charge density cutoff     =     293.9946  Ry
     scf convergence threshold =      7.3E-08
     mixing beta               =       0.0500
     number of iterations used =            8  plain     mixing
     Exchange-correlation= BEEF-VDW
                           (   1   4  43  14   2   0   0)

     celldm(1)=   1.889726  celldm(2)=   0.000000  celldm(3)=   0.000000
     celldm(4)=   0.000000  celldm(5)=   0.000000  celldm(6)=   0.000000

     crystal axes: (cart. coord. in units of alat)
               a(1) = (   6.579727   0.000000   0.000000 )
               a(2) = (  -0.000775   5.961596   0.000000 )
               a(3) = (   0.000000   0.000000  25.155947 )

     reciprocal axes: (cart. coord. in units 2 pi/alat)
               b(1) = (  0.151982  0.000020  0.000000 )
               b(2) = (  0.000000  0.167740  0.000000 )
               b(3) = (  0.000000  0.000000  0.039752 )

     PseudoPot. # 1 for Ti read from file:
     /storage/coda1/p-amedford6/0/shared/rich_project_chbe-medford/medford-share/data/pseudos_module/espresso/nninc/pbe/van/Ti.UPF
     MD5 check sum: 8e4df49b7f0d34bbd5052bf3f5ea0213
     Pseudo is Ultrasoft, Zval = 12.0
     Generated by new atomic code, or converted to UPF format
     Using radial grid of  851 points,  6 beta functions with:
                l(1) =   0
                l(2) =   0
                l(3) =   1
                l(4) =   1
                l(5) =   2
                l(6) =   2
     Q(r) pseudized with  8 coefficients,  rinner =    1.000   1.000   1.000
                                                       1.000   1.000

     PseudoPot. # 2 for O  read from file:
     /storage/coda1/p-amedford6/0/shared/rich_project_chbe-medford/medford-share/data/pseudos_module/espresso/nninc/pbe/van/O.UPF
     MD5 check sum: 78c19812648e8988a0fe644b0f25305e
     Pseudo is Ultrasoft, Zval =  6.0
     Generated by new atomic code, or converted to UPF format
     Using radial grid of  737 points,  4 beta functions with:
                l(1) =   0
                l(2) =   0
                l(3) =   1
                l(4) =   1
     Q(r) pseudized with  8 coefficients,  rinner =    0.800   0.800   0.800

     PseudoPot. # 3 for N  read from file:
     /storage/coda1/p-amedford6/0/shared/rich_project_chbe-medford/medford-share/data/pseudos_module/espresso/nninc/pbe/van/N.UPF
     MD5 check sum: 90d10febe142ad51ac9d5be1deb811c4
     Pseudo is Ultrasoft, Zval =  5.0
     Generated by new atomic code, or converted to UPF format
     Using radial grid of  729 points,  4 beta functions with:
                l(1) =   0
                l(2) =   0
                l(3) =   1
                l(4) =   1
     Q(r) pseudized with  8 coefficients,  rinner =    0.800   0.800   0.800

     PseudoPot. # 4 for C  read from file:
     /storage/coda1/p-amedford6/0/shared/rich_project_chbe-medford/medford-share/data/pseudos_module/espresso/nninc/pbe/van/C.UPF
     MD5 check sum: 1a69bf6b8db32088f5b2163dbdb77a27
     Pseudo is Ultrasoft, Zval =  4.0
     Generated by new atomic code, or converted to UPF format
     Using radial grid of  721 points,  4 beta functions with:
                l(1) =   0
                l(2) =   0
                l(3) =   1
                l(4) =   1
     Q(r) pseudized with  8 coefficients,  rinner =    0.800   0.800   0.800

     PseudoPot. # 5 for H  read from file:
     /storage/coda1/p-amedford6/0/shared/rich_project_chbe-medford/medford-share/data/pseudos_module/espresso/nninc/pbe/van/H.UPF
     MD5 check sum: b5ee9d7bfd3a09ee7748110bda690ff7
     Pseudo is Ultrasoft, Zval =  1.0
     Generated by new atomic code, or converted to UPF format
     Using radial grid of  615 points,  1 beta functions with:
                l(1) =   0
     Q(r) pseudized with  8 coefficients,  rinner =    0.800

     atomic species   valence    mass     pseudopotential
        Ti1           12.00    47.86700     Ti( 1.00)
        O1             6.00    15.99900     O ( 1.00)
        N1             5.00    14.00700     N ( 1.00)
        C1             4.00    12.01100     C ( 1.00)
        H1             1.00     1.00800     H ( 1.00)

     Starting magnetic structure
     atomic species   magnetization
        Ti1          0.000
        O1           0.000
        N1           0.000
        C1           0.025
        H1           0.000

     No symmetry found

   Cartesian axes

     site n.     atom                  positions (alat units)
         1           Ti1 tau(   1) = (   0.0004258   2.9801865   6.0000000  )
         2           Ti1 tau(   2) = (   3.2906075   1.4906267   6.0002472  )
         3           O1  tau(   3) = (   0.0006271   0.0005054   7.9858123  )
         4           O1  tau(   4) = (   3.2906025   0.0005020   7.3038282  )
         5           O1  tau(   5) = (   4.5942328   1.4918067   9.2879030  )
         6           O1  tau(   6) = (   1.9868534   1.4903216   9.2879459  )
         7           Ti1 tau(   7) = (   3.2907910   2.8959150   9.1758416  )
         8           Ti1 tau(   8) = (   0.0015273   1.4827037   9.2680791  )
         9           O1  tau(   9) = (   3.2969863   5.9453513  11.3493076  )
        10           O1  tau(  10) = (   0.0116148   5.9584955  10.6183126  )
        11           O1  tau(  11) = (   1.3059050   1.4736943  12.6642453  )
        12           O1  tau(  12) = (   5.3003793   1.4775083  12.6459419  )
        13           Ti1 tau(  13) = (   0.0167275   2.9625105  12.5508078  )
        14           Ti1 tau(  14) = (   3.3131340   1.4712512  12.4909780  )
        15           O1  tau(  15) = (   6.5517612   5.9325698  14.7566896  )
        16           O1  tau(  16) = (   3.3302114   5.9429442  13.9823395  )
        17           O1  tau(  17) = (   4.5243935   1.5056208  16.2316672  )
        18           O1  tau(  18) = (   2.0170937   1.4633510  16.1378485  )
        19           Ti1 tau(  19) = (   3.2500237   2.9242626  15.6920970  )
        20           Ti1 tau(  20) = (   6.5441017   1.2779805  16.1516014  )
        21           O1  tau(  21) = (   3.2904802   0.0005063   4.7018136  )
        22           O1  tau(  22) = (   6.5540411   5.9581837  17.3465722  )
        23           O1  tau(  23) = (   1.3043587   1.4918075   6.0039043  )
        24           O1  tau(  24) = (   5.2767064   1.4903225   6.0039473  )
        25           Ti1 tau(  25) = (   0.0000382   5.9609847   6.0000000  )
        26           Ti1 tau(  26) = (   3.2902200   4.4714249   6.0002472  )
        27           O1  tau(  27) = (   0.0002396   2.9813036   7.9858123  )
        28           O1  tau(  28) = (   3.2902150   2.9813002   7.3038282  )
        29           O1  tau(  29) = (   4.5938453   4.4726049   9.2879030  )
        30           O1  tau(  30) = (   1.9864658   4.4711199   9.2879459  )
        31           Ti1 tau(  31) = (   3.2891106   5.8743827   9.1763621  )
        32           Ti1 tau(  32) = (   0.0006254   4.4649316   9.2693709  )
        33           O1  tau(  33) = (   3.2962403   2.9651072  11.3429128  )
        34           O1  tau(  34) = (   0.0092240   2.9805883  10.6323155  )
        35           O1  tau(  35) = (   1.3076126   4.4641214  12.6643835  )
        36           O1  tau(  36) = (   5.2981430   4.4591552  12.6429889  )
        37           Ti1 tau(  37) = (   0.0194730   5.9489450  12.5196332  )
        38           Ti1 tau(  38) = (   3.3150505   4.4522436  12.4946186  )
        39           O1  tau(  39) = (   6.5702761   2.9869041  14.8038460  )
        40           O1  tau(  40) = (   3.3119818   2.9576719  13.9204832  )
        41           O1  tau(  41) = (   4.5223198   4.3950437  16.2490866  )
        42           O1  tau(  42) = (   2.0356696   4.4339808  16.1311045  )
        43           Ti1 tau(  43) = (   3.3057863   5.9493229  15.7677403  )
        44           Ti1 tau(  44) = (   0.0958844   4.4293496  15.8701971  )
        45           O1  tau(  45) = (   3.2900926   2.9813045   4.7018136  )
        46           O1  tau(  46) = (   1.3039711   4.4726057   6.0039043  )
        47           O1  tau(  47) = (   5.2763189   4.4711207   6.0039473  )
        48           N1  tau(  48) = (   0.0620580   3.0375546  17.6897758  )
        49           C1  tau(  49) = (   1.1116374   2.9693208  18.6984743  )
        50           H1  tau(  50) = (   1.2951007   3.9532040  19.1583453  )
        51           H1  tau(  51) = (   0.8627774   2.2426413  19.4871689  )
        52           H1  tau(  52) = (   2.0263963   2.6228967  18.2308865  )
        53           N1  tau(  53) = (   5.4279256   3.3744730  18.4033390  )
        54           H1  tau(  54) = (   5.6103604   4.1199394  19.0852601  )
        55           H1  tau(  55) = (   4.7934260   3.8076565  17.6395878  )
        56           H1  tau(  56) = (   5.0090149   2.5598412  18.8678436  )

     number of k points=    10  Fermi-Dirac smearing, width (Ry)=  0.0073
                       cart. coord. in units 2pi/alat
        k(    1) = (   0.0000000   0.0000000   0.0000000), wk =   0.0625000
        k(    2) = (   0.0000000   0.0419351   0.0000000), wk =   0.1250000
        k(    3) = (   0.0000000  -0.0838702   0.0000000), wk =   0.0625000
        k(    4) = (   0.0379955   0.0000049   0.0000000), wk =   0.1250000
        k(    5) = (   0.0379955   0.0419400   0.0000000), wk =   0.1250000
[...]
     atom  25 (R=0.723)  charge=  7.9140  magn=  0.0011
     atom  26 (R=0.723)  charge=  7.8964  magn= -0.0001
     atom  27 (R=0.633)  charge=  4.2077  magn= -0.0001
     atom  28 (R=0.633)  charge=  4.2375  magn=  0.0000
     atom  29 (R=0.633)  charge=  4.2143  magn= -0.0000
     atom  30 (R=0.633)  charge=  4.2144  magn= -0.0000
     atom  31 (R=0.723)  charge=  7.8969  magn=  0.0001
     atom  32 (R=0.723)  charge=  7.8947  magn=  0.0006
     atom  33 (R=0.633)  charge=  4.2222  magn=  0.0000
     atom  34 (R=0.633)  charge=  4.2053  magn= -0.0000
     atom  35 (R=0.633)  charge=  4.2090  magn=  0.0000
     atom  36 (R=0.633)  charge=  4.2115  magn=  0.0000
     atom  37 (R=0.723)  charge=  7.8964  magn=  0.0001
     atom  38 (R=0.723)  charge=  7.9034  magn= -0.0000
     atom  39 (R=0.633)  charge=  4.1926  magn=  0.0000
     atom  40 (R=0.633)  charge=  4.2343  magn=  0.0000
     atom  41 (R=0.633)  charge=  4.2025  magn=  0.0000
     atom  42 (R=0.633)  charge=  4.2135  magn=  0.0000
     atom  43 (R=0.723)  charge=  7.9399  magn=  0.0002
     atom  44 (R=0.723)  charge=  7.9262  magn=  0.0001
     atom  45 (R=0.633)  charge=  4.1284  magn=  0.0005
     atom  46 (R=0.633)  charge=  4.2074  magn= -0.0001
     atom  47 (R=0.633)  charge=  4.2074  magn= -0.0001
     atom  48 (R=0.423)  charge=  1.3356  magn= -0.0000
     atom  49 (R=0.447)  charge=  0.8385  magn=  0.0001
     atom  50 (R=0.423)  charge=  0.4486  magn= -0.0000
     atom  51 (R=0.423)  charge=  0.4499  magn= -0.0000
     atom  52 (R=0.423)  charge=  0.4552  magn= -0.0000
     atom  53 (R=0.423)  charge=  1.3749  magn=  0.0000
     atom  54 (R=0.423)  charge=  0.4520  magn= -0.0000
     atom  55 (R=0.423)  charge=  0.3988  magn= -0.0000
     atom  56 (R=0.423)  charge=  0.4521  magn= -0.0000

     End of self-consistent calculation

 ------ SPIN UP ------------

          k = 0.0000 0.0000 0.0000 ( 18029 PWs)   bands (ev):

   -55.1349 -55.0983 -55.0972 -55.0631 -55.0174 -55.0019 -54.9793 -54.9365
   -54.9244 -54.9155 -54.9013 -54.8915 -54.8570 -54.7860 -54.1083 -54.0743
   -31.7147 -31.5861 -31.5036 -31.4716 -31.4276 -31.4263 -31.4238 -31.3945
   -31.3907 -31.3872 -31.3594 -31.3445 -31.3421 -31.3124 -31.2947 -31.2694
   -31.2531 -31.2500 -31.2389 -31.2337 -31.2077 -31.2016 -31.1945 -31.1677
   -31.1542 -31.1466 -31.1394 -31.1334 -31.1321 -31.1206 -31.1193 -31.1128
   -31.0954 -31.0865 -31.0813 -31.0548 -31.0518 -31.0394 -31.0331 -31.0285
   -31.0173 -30.9755 -30.5166 -30.4247 -30.4025 -30.3332 -30.2465 -30.1354
   -18.9378 -15.9992 -15.7449 -15.6091 -15.3743 -15.3222 -15.2659 -15.0608
   -15.0568 -14.9861 -14.9708 -14.9218 -14.9019 -14.8348 -14.7503 -14.7311
   -14.6614 -14.6599 -14.6303 -14.6201 -14.6178 -14.5552 -14.5457 -14.5160
   -14.5029 -14.4779 -14.3597 -14.2752 -14.2167 -13.9677 -13.5973 -12.6116
   -12.4945  -9.7496  -7.7221  -7.2149  -5.4597  -3.8185  -3.3365  -3.2782
    -3.1625  -3.1326  -3.0558  -3.0262  -2.8415  -2.8207  -2.4790  -2.4438
    -2.3929  -2.3749  -2.3543  -2.3360  -2.1690  -2.1425  -2.0694  -2.0366
    -2.0182  -1.9774  -1.9605  -1.9502  -1.9166  -1.9116  -1.9018  -1.6946
    -1.6382  -1.5432  -1.5208  -1.4998  -1.4618  -1.4263  -1.4171  -1.4139
    -1.4081  -1.3947  -1.3825  -1.3018  -1.2445  -1.1627  -1.1538  -1.1181
    -1.0141  -0.9689  -0.7668  -0.7525  -0.7066  -0.6644  -0.6015  -0.5813
    -0.5137  -0.4830  -0.4642  -0.3427  -0.3140  -0.2743  -0.2461  -0.1785
    -0.1486  -0.1026  -0.0196   0.0523   0.0883   0.1067   0.1653   0.2954
     0.3069   0.3363   0.3974   0.4612   0.5015   0.5216   0.5401   0.5769
     0.6272   0.7528   0.7973   0.8173   0.8215   0.8555   0.8781   0.9291
     0.9537   1.0142   1.0199   1.1374   1.2068   1.4343   1.4687   1.4940
     1.8262   1.8500   1.9137   2.0998   2.4876   2.5349   3.9692   4.0301
     4.0867   4.1028   4.1225   4.2113   4.2457   4.4325   4.4599   4.4632
     4.4662

[...]

          k =-0.0760-0.0000 0.0000 ( 17886 PWs)   bands (ev):

[...]

 ------ SPIN DOWN ----------

[...]

          k = 0.0380-0.0419 0.0000 ( 17876 PWs)   bands (ev):

[...]

          k =-0.0760-0.0839 0.0000 ( 17948 PWs)   bands (ev):

   -55.1194 -55.1135 -55.0781 -55.0781 -55.0067 -54.9983 -54.9897 -54.9202
   -54.9184 -54.9162 -54.9079 -54.9065 -54.8531 -54.7895 -54.0919 -54.0917
   -31.5183 -31.5154 -31.4386 -31.4167 -31.4005 -31.4004 -31.3703 -31.3701
   -31.3458 -31.3400 -31.3371 -31.3367 -31.3035 -31.2673 -31.2612 -31.2568
   -31.2554 -31.2513 -31.2491 -31.2428 -31.2116 -31.2079 -31.2055 -31.2031
   -31.1971 -31.1971 -31.1843 -31.1824 -31.1548 -31.1501 -31.1347 -31.1306
   -31.1280 -31.1273 -31.1273 -31.1182 -31.0940 -31.0888 -31.0864 -31.0654
   -31.0401 -31.0223 -30.4157 -30.4155 -30.3299 -30.3297 -30.2904 -30.2903
   -18.9330 -15.5060 -15.3962 -15.2888 -15.2230 -15.1803 -15.1289 -15.1113
   -15.1007 -15.0558 -15.0261 -14.9572 -14.8925 -14.8395 -14.8384 -14.8040
   -14.7254 -14.7115 -14.7044 -14.6940 -14.6373 -14.6305 -14.5991 -14.5783
   -14.5751 -14.5453 -14.4715 -14.4691 -14.3830 -14.1766 -13.6332 -12.5954
   -12.5944  -9.7185  -7.7187  -7.1609  -5.4626  -3.8402  -3.4331  -2.7546
    -2.6434  -2.4331  -2.4072  -2.3471  -2.3275  -2.2448  -2.1820  -2.1596
    -2.1362  -2.1022  -2.0992  -2.0759  -2.0534  -2.0002  -1.9712  -1.9594
    -1.9536  -1.9387  -1.9260  -1.9062  -1.8496  -1.8393  -1.8319  -1.7894
    -1.7784  -1.7467  -1.7405  -1.7016  -1.6848  -1.6101  -1.5162  -1.4918
    -1.4331  -1.3319  -1.3172  -1.3116  -1.2192  -1.2102  -1.1807  -1.1497
    -1.0952  -0.9961  -0.9412  -0.8645  -0.8613  -0.8320  -0.7444  -0.6809
    -0.6473  -0.6375  -0.5986  -0.5412  -0.5187  -0.4842  -0.4016  -0.3601
    -0.3331  -0.2993  -0.2043  -0.1429  -0.1194  -0.0878  -0.0843   0.0047
     0.0379   0.0748   0.0956   0.1337   0.1605   0.2247   0.2472   0.3575
     0.4255   0.4574   0.5765   0.6006   0.6643   0.7966   0.8683   0.9088
     0.9611   1.0194   1.0469   1.1774   1.1846   1.2044   1.3032   1.3436
     1.3505   1.3634   2.2732   2.2745   2.3557   2.3566   4.1016   4.1883
     4.2316   4.2692   4.3761   4.4867   4.5052   4.5480   4.5486   4.6254
     4.6323

     the Fermi energy is     4.0220 ev

!    total energy              =   -2942.82555579 Ry
     estimated scf accuracy    <       0.00000005 Ry
     smearing contrib. (-TS)   =      -0.03684784 Ry
     internal energy E=F+TS    =   -2942.78870795 Ry

     The total energy is F=E-TS. E is the sum of the following terms:
     one-electron contribution =  -23972.25901904 Ry
     hartree contribution      =   12081.70640869 Ry
     xc contribution           =    -487.77320297 Ry
     ewald contribution        =    9435.53216943 Ry
     electric field correction =       0.00493595 Ry

     total magnetization       =     0.01 Bohr mag/cell
     absolute magnetization    =     0.01 Bohr mag/cell

     convergence has been achieved in 153 iterations

     Forces acting on atoms (cartesian axes, Ry/au):

     atom    1 type  1   force =     0.00014971   -0.00022252    0.09431640
     atom    2 type  1   force =    -0.00009619   -0.00033045   -0.17738927
     atom    3 type  2   force =     0.00005545   -0.00016390   -0.02137558
     atom    4 type  2   force =    -0.00001540   -0.00172574    0.05657990
     atom    5 type  2   force =    -0.01054474   -0.00127716    0.00623539
     atom    6 type  2   force =     0.01221245   -0.00074302    0.00570705
     atom    7 type  1   force =    -0.00032764    0.00172254   -0.01617318
     atom    8 type  1   force =    -0.00011109    0.00438716    0.00561672
     atom    9 type  2   force =     0.00000979   -0.00004437   -0.00005868
     atom   10 type  2   force =    -0.00074370   -0.00022056   -0.00045473
     atom   11 type  2   force =     0.00034823    0.00012723   -0.00019442
     atom   12 type  2   force =    -0.00051972    0.00000458   -0.00013197
     atom   13 type  1   force =     0.00004349   -0.00035500    0.00014154
     atom   14 type  1   force =     0.00055707    0.00011655   -0.00032020
     atom   15 type  2   force =    -0.00040161    0.00024435   -0.00019121
     atom   16 type  2   force =    -0.00033051    0.00019603   -0.00004506
     atom   17 type  2   force =    -0.00017442    0.00009170    0.00044240
     atom   18 type  2   force =     0.00009514    0.00033110   -0.00006879
     atom   19 type  1   force =     0.00016223    0.00005704    0.00002130
     atom   20 type  1   force =     0.00010023    0.00052880   -0.00048148
     atom   21 type  2   force =     0.00003687    0.00004192    0.10363437
     atom   22 type  2   force =    -0.00004110   -0.00080817   -0.00028812
     atom   23 type  2   force =    -0.07082774   -0.00009786   -0.02718892
     atom   24 type  2   force =     0.07069217    0.00034481   -0.02721901
     atom   25 type  1   force =    -0.00009592   -0.00019489    0.09373423
     atom   26 type  1   force =    -0.00015202   -0.00032314   -0.17731881
     atom   27 type  2   force =     0.00008633   -0.00035286   -0.02047555
     atom   28 type  2   force =     0.00003077   -0.00144043    0.05588786
     atom   29 type  2   force =    -0.01090847   -0.00073628    0.00608406
     atom   30 type  2   force =     0.01246061   -0.00029036    0.00556291
     atom   31 type  1   force =    -0.00017533    0.00462405   -0.01720331
     atom   32 type  1   force =    -0.00003749   -0.00480326    0.00559586
     atom   33 type  2   force =     0.00005660    0.00012278    0.00025859
     atom   34 type  2   force =     0.00005658   -0.00085424   -0.00298540
     atom   35 type  2   force =     0.00023659    0.00002935    0.00007482
     atom   36 type  2   force =    -0.00043015    0.00015462   -0.00007150
     atom   37 type  1   force =    -0.00012819   -0.00010623   -0.00017397
     atom   38 type  1   force =     0.00043249   -0.00028393    0.00037723
     atom   39 type  2   force =    -0.00045396    0.00009386    0.00072693
     atom   40 type  2   force =    -0.00011682    0.00018521   -0.00021154
     atom   41 type  2   force =     0.00009449    0.00029717    0.00023684
     atom   42 type  2   force =    -0.00006465    0.00021804   -0.00002828
     atom   43 type  1   force =    -0.00042500    0.00057336   -0.00007171
     atom   44 type  1   force =    -0.00018922    0.00032745   -0.00020903
     atom   45 type  2   force =     0.00002552    0.00001117    0.10364583
     atom   46 type  2   force =    -0.07082960   -0.00004059   -0.02718914
     atom   47 type  2   force =     0.07069534    0.00037727   -0.02719466
     atom   48 type  3   force =     0.00028421   -0.00081429    0.00024022
     atom   49 type  4   force =    -0.00032715    0.00015273   -0.00054631
     atom   50 type  5   force =     0.00003978    0.00002359    0.00005405
     atom   51 type  5   force =    -0.00025125   -0.00030934    0.00002528
     atom   52 type  5   force =    -0.00034924   -0.00001475    0.00012668
     atom   53 type  3   force =     0.00036874    0.00080233    0.00119463
     atom   54 type  5   force =     0.00014002    0.00007158   -0.00022630
     atom   55 type  5   force =    -0.00009882    0.00015443   -0.00083027
     atom   56 type  5   force =    -0.00030376    0.00014055   -0.00020474

     Total force =     0.365585     Total SCF correction =     0.000455
  @ DRIVER MODE: Message from server: STATUS
  @ DRIVER MODE: Message from server: GETFORCE
  @ DRIVER MODE: Returning v,forces,stress,ensemble

     Writing output data file ./calc.save/
  @ DRIVER MODE: Message from server: STATUS
  @ DRIVER MODE: Message from server: INIT
  @ DRIVER MODE: Receiving replica           0           0
  @ DRIVER MODE: Receiving encoded integer           2
  @ DRIVER MODE:  SCF:  T  FORCE:  T  STRESS:  F  VC:  F  ENSEMBLE:  F
  @ DRIVER MODE:  SCF:  F  FORCE:  F  STRESS:  F  VC:  F  ENSEMBLE:  T
  @ DRIVER MODE: Message from server: STATUS
  @ DRIVER MODE: Message from server: POSDATA
  @ DRIVER MODE: Reading and sharing positions
  @ DRIVER MODE: Received positions
     NEW-OLD atomic charge density approx. for the potential

[...]

     Adding external electric field

     Computed dipole along edir(3) :
        Dipole                1.6173 Ry au,          4.1107 Debye
        Dipole field          0.0031 Ry au,

        Potential amp.       -0.2829 Ry
        Total length         46.3494 bohr

     Generating pointlists ...
  @ DRIVER MODE: BEEF-vdw

[...]

     negative rho (up, down):  7.272E-03 7.272E-03

     negative rho (up, down):  7.272E-03 7.272E-03
 BEEFens 2000 ensemble energies
             -0.350009217817951E+02
             -0.203360459874992E+01
             -0.720694897098716E+01
              0.242931253240232E+02
             -0.120194503605048E+02
             -0.930197617110051E+01
             -0.242889515895445E+02
             -0.507839549415202E+02
             -0.216407263958267E+02
             -0.228087160559339E+02
             -0.211966383038479E+02
              0.428283105810909E+01
              0.201048481592763E+01
             -0.107885366297938E+01
              0.174423011693411E+01
              0.267541692267394E+02
             -0.103114993412954E+02
             -0.726599936149445E+01
              0.118702535224785E+02
             -0.624892661961410E+02
              0.313465600409394E+02
             -0.134353498868425E+02
             -0.243521806813710E+01
             -0.564141557845242E+01
             -0.969910749581231E+00
             -0.214206228173867E+01
              0.484662249405508E+02
             -0.151713221965059E+02
             -0.404628266223420E+01
             -0.306737292163887E+02
              0.396141002495896E+02
             -0.436475611909550E+01
             -0.215774078622499E+02
              0.113099879478486E+02
             -0.206619017455679E+01
              0.131708958366754E+02
             -0.543409069841488E+00
              0.272220092350409E+01
              0.191398609344703E+02
             -0.551511264509657E+02
              0.307363408931832E+02
              0.819679446934200E+01
             -0.631594258409831E+01
             -0.176247114847833E+02
              0.696356642930695E+01
             -0.110386112653202E+02
              0.251574443824942E+02
              0.200661857203447E+02
             -0.129286446814857E+02
             -0.165297144221191E+02
             -0.174812103027147E+02
             -0.209840310478063E+02
              0.106733203444445E+02
             -0.273441039911266E+02
              0.837470485533504E+01
              0.349170739748053E+02
              0.402891895101590E+02
              0.187473196059176E+02
              0.837479379697444E+01
              0.175112427626264E+02
[...]
             -0.411903107477762E+02
              0.281107454762872E+01
             -0.146434521129016E+01
             -0.573819488171699E+01
              0.574951052921051E-01
             -0.366647262543123E+02
             -0.706023077270962E+01
              0.498106684886982E+01
              0.748557627402104E+01
              0.274938603519826E+02
             -0.240285585564658E+02
              0.313125505807748E+02
             -0.224373214167248E+02
              0.144350730761136E+02
              0.227141970296760E+02

 BEEF-vdW xc energy contributions
           1 :   -413.213125817546
           2 :    360.036444408546
           3 :   -274.173667729634
           4 :    184.495442557655
           5 :   -114.046320155287
           6 :    71.9558206174945
           7 :   -54.4101389251796
           8 :    51.2084525163890
           9 :   -52.8098167632144
          10 :    53.9493860463315
          11 :   -53.4258880217569
          12 :    51.8137504394133
          13 :   -49.5515952476366
          14 :    46.3927208524195
          15 :   -41.9884886888981
          16 :    36.5460612697296
          17 :   -30.9802631890757
          18 :    26.4515351601850
          19 :   -23.7760810541265
          20 :    23.0668467210523
          21 :   -23.8285677277235
          22 :    25.2910324603311
          23 :   -26.7592243324264
          24 :    27.7459535532310
          25 :   -27.9546512860978
          26 :    27.2089989781244
          27 :   -25.4786480894811
          28 :    22.9500062166598
          29 :   -20.0759519486342
          30 :    17.4716652243056
          31 :   -48.6645108121658
          32 :   -33.0640503333806
  @ DRIVER MODE: Message from server: STATUS
  @ DRIVER MODE: Message from server: GETFORCE
  @ DRIVER MODE: Returning v,forces,stress,ensemble
  @ DRIVE MODE: Returning Ensemble Energies

     Writing output data file ./calc.save/
  @ DRIVER MODE: Message from server: EXIT
  @ DRIVE MODE: Exiting

     General routines

     Parallel routines

   This run was terminated on:   9:51:36   7Jul2021

   JOB DONE.