     Program PWSCF v.6.7GPU starts on 12Oct2021 at  9:40:19

     R & G space division:  proc/nbgrp/npool/nimage =       8
     Reading input from /storage/home/hcoda1/3/ntian30/research/carbon/ACS_vib/ads_slab/N2H/out_0003/pw.inp
Warning: card &CELL ignored
Warning: card   CELL_DYNAMICS='IPI', ignored
Warning: card / ignored

     Current dimensions of program PWSCF are:
     Max number of different atomic species (ntypx) = 10
     Max number of k-points (npk) =  40000
     Max angular momentum in pseudopotentials (lmaxx) =  3
     Presently no symmetry can be used with electric field

     Message from routine cell_base_init:
     DEPRECATED: use true lattice parameter, not A to a.u. conversion factor

     IMPORTANT: XC functional enforced from input :
     Exchange-correlation= BEEF-VDW
                           (   1   4  43  14   2   0   0)
     Any further DFT definition will be discarded
     Please, verify this is what you really want

  @ DRIVER MODE: Connecting to
 qe_1139763_3181314.sched-torque.pace.gatech.edu9c2moq8e_scratch
  using UNIX socket
  @ DRIVER MODE: Message from server: STATUS
  @ DRIVER MODE: Message from server: INIT
  @ DRIVER MODE: Receiving replica           0          -1
  @ DRIVER MODE: Receiving encoded integer          25
  @ DRIVER MODE:  SCF:  T  FORCE:  T  STRESS:  F  VC:  F  ENSEMBLE:  F
  @ DRIVER MODE:  SCF:  T  FORCE:  T  STRESS:  F  VC:  F  ENSEMBLE:  F

     Using Slab Decomposition

     bravais-lattice index     =            0
     lattice parameter (alat)  =       1.8897  a.u.
     unit-cell volume          =    6658.9804 (a.u.)^3
     number of atoms/cell      =           50
     number of atomic types    =            4
     number of electrons       =       389.00
     number of Kohn-Sham states=          204
     kinetic-energy cutoff     =      29.3995  Ry
     charge density cutoff     =     293.9946  Ry
     scf convergence threshold =      7.3E-08
     mixing beta               =       0.0500
     number of iterations used =            8  plain     mixing
     Exchange-correlation= BEEF-VDW
                           (   1   4  43  14   2   0   0)

     celldm(1)=   1.889726  celldm(2)=   0.000000  celldm(3)=   0.000000
     celldm(4)=   0.000000  celldm(5)=   0.000000  celldm(6)=   0.000000

     crystal axes: (cart. coord. in units of alat)
               a(1) = (   6.579727   0.000000   0.000000 )
               a(2) = (  -0.000775   5.961596   0.000000 )
               a(3) = (   0.000000   0.000000  25.155947 )

     reciprocal axes: (cart. coord. in units 2 pi/alat)
               b(1) = (  0.151982  0.000020  0.000000 )
               b(2) = (  0.000000  0.167740  0.000000 )
               b(3) = (  0.000000  0.000000  0.039752 )

     PseudoPot. # 1 for Ti read from file:
     /storage/coda1/p-amedford6/0/shared/rich_project_chbe-medford/medford-share/data/pseudos_module/espresso/nninc/pbe/van/Ti.UPF
     MD5 check sum: 8e4df49b7f0d34bbd5052bf3f5ea0213
     Pseudo is Ultrasoft, Zval = 12.0
     Generated by new atomic code, or converted to UPF format
     Using radial grid of  851 points,  6 beta functions with:
                l(1) =   0
                l(2) =   0
                l(3) =   1
                l(4) =   1
                l(5) =   2
                l(6) =   2
     Q(r) pseudized with  8 coefficients,  rinner =    1.000   1.000   1.000
                                                       1.000   1.000

     PseudoPot. # 2 for O  read from file:
     /storage/coda1/p-amedford6/0/shared/rich_project_chbe-medford/medford-share/data/pseudos_module/espresso/nninc/pbe/van/O.UPF
     MD5 check sum: 78c19812648e8988a0fe644b0f25305e
     Pseudo is Ultrasoft, Zval =  6.0
     Generated by new atomic code, or converted to UPF format
     Using radial grid of  737 points,  4 beta functions with:
                l(1) =   0
                l(2) =   0
                l(3) =   1
                l(4) =   1
     Q(r) pseudized with  8 coefficients,  rinner =    0.800   0.800   0.800

     PseudoPot. # 3 for N  read from file:
     /storage/coda1/p-amedford6/0/shared/rich_project_chbe-medford/medford-share/data/pseudos_module/espresso/nninc/pbe/van/N.UPF
     MD5 check sum: 90d10febe142ad51ac9d5be1deb811c4
     Pseudo is Ultrasoft, Zval =  5.0
     Generated by new atomic code, or converted to UPF format
     Using radial grid of  729 points,  4 beta functions with:
                l(1) =   0
                l(2) =   0
                l(3) =   1
                l(4) =   1
     Q(r) pseudized with  8 coefficients,  rinner =    0.800   0.800   0.800

     PseudoPot. # 4 for H  read from file:
     /storage/coda1/p-amedford6/0/shared/rich_project_chbe-medford/medford-share/data/pseudos_module/espresso/nninc/pbe/van/H.UPF
     MD5 check sum: b5ee9d7bfd3a09ee7748110bda690ff7
     Pseudo is Ultrasoft, Zval =  1.0
     Generated by new atomic code, or converted to UPF format
     Using radial grid of  615 points,  1 beta functions with:
                l(1) =   0
     Q(r) pseudized with  8 coefficients,  rinner =    0.800

     atomic species   valence    mass     pseudopotential
        Ti1           12.00    47.86700     Ti( 1.00)
        O1             6.00    15.99900     O ( 1.00)
        N1             5.00    14.00700     N ( 1.00)
        H1             1.00     1.00800     H ( 1.00)

     No symmetry found

   Cartesian axes

     site n.     atom                  positions (alat units)
         1           Ti1 tau(   1) = (   0.0004258   2.9801865   6.0000000  )
         2           Ti1 tau(   2) = (   3.2906075   1.4906267   6.0002472  )
         3           O1  tau(   3) = (   0.0006271   0.0005054   7.9858123  )
         4           O1  tau(   4) = (   3.2906025   0.0005020   7.3038282  )
         5           O1  tau(   5) = (   4.5942328   1.4918067   9.2879030  )
         6           O1  tau(   6) = (   1.9868534   1.4903216   9.2879459  )
         7           Ti1 tau(   7) = (   3.2913060   3.0378612   9.1552972  )
         8           Ti1 tau(   8) = (   0.0009381   1.5839581   9.3521326  )
         9           O1  tau(   9) = (   3.2925928   0.0151421  11.3436145  )
        10           O1  tau(  10) = (   0.0015930   0.0098544  10.5931849  )
        11           O1  tau(  11) = (   1.2954366   1.5088831  12.6205452  )
        12           O1  tau(  12) = (   5.2873992   1.5081763  12.6209847  )
        13           Ti1 tau(  13) = (   0.0062007   3.0223002  12.7522649  )
        14           Ti1 tau(  14) = (   3.2997597   1.5103467  12.4821987  )
        15           O1  tau(  15) = (   0.0040346   0.0184607  14.6317695  )
        16           O1  tau(  16) = (   3.2910281   0.0168284  13.9441510  )
        17           O1  tau(  17) = (   4.5375602   1.5179921  16.0890948  )
        18           O1  tau(  18) = (   2.0457139   1.5162684  16.0851288  )
        19           Ti1 tau(  19) = (   3.2874297   2.9968575  15.7108406  )
        20           Ti1 tau(  20) = (   6.5695515   1.3443907  16.0039228  )
        21           O1  tau(  21) = (   3.2904802   0.0005063   4.7018136  )
        22           O1  tau(  22) = (   0.0014600   0.0364584  17.1914435  )
        23           O1  tau(  23) = (   1.3043587   1.4918075   6.0039043  )
        24           O1  tau(  24) = (   5.2767064   1.4903225   6.0039473  )
        25           Ti1 tau(  25) = (   0.0000382   5.9609847   6.0000000  )
        26           Ti1 tau(  26) = (   3.2902200   4.4714249   6.0002472  )
        27           O1  tau(  27) = (   0.0002396   2.9813036   7.9858123  )
        28           O1  tau(  28) = (   3.2902150   2.9813002   7.3038282  )
        29           O1  tau(  29) = (   4.5938453   4.4726049   9.2879030  )
        30           O1  tau(  30) = (   1.9864658   4.4711199   9.2879459  )
        31           Ti1 tau(  31) = (   3.2910671   0.0593156   9.1538314  )
        32           Ti1 tau(  32) = (   0.0005551   4.5317022   9.3016378  )
        33           O1  tau(  33) = (   3.2922260   2.9941798  11.3385902  )
        34           O1  tau(  34) = (   0.0008704   2.9922752  10.5694424  )
        35           O1  tau(  35) = (   1.2972379   4.4863578  12.6167950  )
        36           O1  tau(  36) = (   5.2846861   4.4861696  12.6173214  )
        37           Ti1 tau(  37) = (   0.0087596   0.0398615  12.5729301  )
        38           Ti1 tau(  38) = (   3.2994502   4.4862820  12.4776038  )
        39           O1  tau(  39) = (   0.0007913   3.0275094  14.6627896  )
        40           O1  tau(  40) = (   3.2912693   2.9957722  13.9146565  )
        41           O1  tau(  41) = (   4.5447272   4.4665429  16.0834370  )
        42           O1  tau(  42) = (   2.0408322   4.4687941  16.0798044  )
        43           Ti1 tau(  43) = (   3.2813896   0.0196903  15.7368506  )
        44           Ti1 tau(  44) = (   6.5682818   4.5002177  15.9516634  )
        45           O1  tau(  45) = (   3.2900926   2.9813045   4.7018136  )
        46           O1  tau(  46) = (   1.3039711   4.4726057   6.0039043  )
        47           O1  tau(  47) = (   5.2763189   4.4711207   6.0039473  )
        48           N1  tau(  48) = (   0.0702777   2.9830733  18.6664031  )
        49           N1  tau(  49) = (   0.0230277   3.0528524  17.4426018  )
        50           H1  tau(  50) = (   0.0865168   1.9966355  18.9942200  )

     number of k points=    10  Fermi-Dirac smearing, width (Ry)=  0.0073
                       cart. coord. in units 2pi/alat
        k(    1) = (   0.0000000   0.0000000   0.0000000), wk =   0.1250000
        k(    2) = (   0.0000000   0.0419351   0.0000000), wk =   0.2500000
        k(    3) = (   0.0000000  -0.0838702   0.0000000), wk =   0.1250000
        k(    4) = (   0.0379955   0.0000049   0.0000000), wk =   0.2500000
        k(    5) = (   0.0379955   0.0419400   0.0000000), wk =   0.2500000
        k(    6) = (   0.0379955  -0.0838652   0.0000000), wk =   0.2500000
        k(    7) = (   0.0379955  -0.0419301   0.0000000), wk =   0.2500000
        k(    8) = (  -0.0759910  -0.0000099   0.0000000), wk =   0.1250000
        k(    9) = (  -0.0759910   0.0419252   0.0000000), wk =   0.2500000
        k(   10) = (  -0.0759910  -0.0838800   0.0000000), wk =   0.1250000

     Initial potential from superposition of free atoms

     starting charge  372.99922, renormalised to  389.00000

     negative rho (up, down):  2.004E-02 0.000E+00

     %%%%%%%%%%%%%%%%%%%%%%%%%%%%%%%%%%%%%%%%%%%%%%%%%%%%%%%%%%%%%%%%%%%%%%%%
     %                                                                      %
     % You are using vdW-DF, which was implemented by the Thonhauser group. %
     % Please cite the following two papers that made this development      %
     % possible and the two reviews that describe the various versions:     %
     %                                                                      %
     %   T. Thonhauser et al., PRL 115, 136402 (2015).                      %
     %   T. Thonhauser et al., PRB 76, 125112 (2007).                       %
     %   K. Berland et al., Rep. Prog. Phys. 78, 066501 (2015).             %
     %   D.C. Langreth et al., J. Phys.: Condens. Matter 21, 084203 (2009). %
     %                                                                      %
     %                                                                      %
     % If you are calculating the stress with vdW-DF, please also cite:     %
     %                                                                      %
     %   R. Sabatini et al., J. Phys.: Condens. Matter 24, 424209 (2012).   %
     %                                                                      %
     %%%%%%%%%%%%%%%%%%%%%%%%%%%%%%%%%%%%%%%%%%%%%%%%%%%%%%%%%%%%%%%%%%%%%%%%

     Adding external electric field

     Computed dipole along edir(3) :
        Dipole               -4.3819 Ry au,        -11.1376 Debye
        Dipole field         -0.0083 Ry au,

        Potential amp.        0.7665 Ry
        Total length         46.3494 bohr

     Starting wfcs are  293 atomic wfcs
  @ DRIVER MODE: Message from server: STATUS
  @ DRIVER MODE: Message from server: POSDATA
  @ DRIVER MODE: Reading and sharing cell
  @ DRIVER MODE: Reading and sharing positions
  @ DRIVER MODE: Received positions

     Self-consistent Calculation

     iteration #  1     ecut=    29.40 Ry     beta= 0.05
     Davidson diagonalization with overlap
     c_bands:  2 eigenvalues not converged
     c_bands:  3 eigenvalues not converged
     c_bands:  5 eigenvalues not converged
     c_bands:  2 eigenvalues not converged
     c_bands:  3 eigenvalues not converged
     c_bands:  4 eigenvalues not converged
     c_bands:  3 eigenvalues not converged
     c_bands:  1 eigenvalues not converged
     c_bands:  3 eigenvalues not converged
     c_bands:  1 eigenvalues not converged
     ethr =  1.00E-05,  avg # of iterations = 20.0

[...]

     total energy              =   -2891.88244309 Ry
     estimated scf accuracy    <     399.63823779 Ry

     iteration #  2     ecut=    29.40 Ry     beta= 0.05
     Davidson diagonalization with overlap
     ethr =  1.00E-02,  avg # of iterations = 13.6

[...]

     iteration # 51     ecut=    29.40 Ry     beta= 0.05
     Davidson diagonalization with overlap
     c_bands:  3 eigenvalues not converged
     ethr =  8.33E-11,  avg # of iterations = 11.9

[...]

     total energy              =   -2925.19950359 Ry
     estimated scf accuracy    <       0.00000008 Ry

     iteration # 54     ecut=    29.40 Ry     beta= 0.05
     Davidson diagonalization with overlap
     ethr =  2.11E-11,  avg # of iterations = 11.3

     negative rho (up, down):  1.932E-02 0.000E+00

     Adding external electric field

     Computed dipole along edir(3) :
        Dipole                0.3767 Ry au,          0.9574 Debye
        Dipole field          0.0007 Ry au,

        Potential amp.       -0.0659 Ry
        Total length         46.3494 bohr

     End of self-consistent calculation

          k = 0.0000 0.0000 0.0000 ( 18029 PWs)   bands (ev):

   -56.2545 -56.2191 -56.2190 -56.1826 -56.1324 -56.0890 -56.0449 -56.0231
   -55.9909 -55.9746 -55.9410 -55.9089 -55.7739 -55.5969 -55.2485 -55.2145
   -32.7846 -32.7164 -32.5655 -32.5577 -32.5394 -32.5378 -32.5150 -32.4655
   -32.4625 -32.4531 -32.4240 -32.4187 -32.4001 -32.3918 -32.3650 -32.3555
   -32.3497 -32.3393 -32.3241 -32.2957 -32.2932 -32.2771 -32.2583 -32.2303
   -32.2298 -32.2283 -32.2147 -32.2089 -32.2008 -32.1888 -32.1622 -32.1478
   -32.1184 -32.1153 -32.0887 -32.0860 -32.0718 -32.0352 -31.9353 -31.8416
   -31.8391 -31.7966 -31.6576 -31.5619 -31.5394 -31.4746 -31.3887 -31.2773
   -18.6973 -16.9586 -16.6617 -16.5055 -16.3669 -16.3375 -16.2277 -16.0110
   -15.9023 -15.8305 -15.8103 -15.7893 -15.7694 -15.7583 -15.7444 -15.7401
   -15.7143 -15.6773 -15.6417 -15.6363 -15.6298 -15.5893 -15.4940 -15.4443
   -15.4111 -15.3613 -15.3515 -15.2538 -15.2110 -14.9997 -13.7484 -13.6304
    -9.1608  -5.3182  -4.3209  -4.1509  -4.1224  -4.0466  -4.0208  -3.7728
    -3.7643  -3.4786  -3.4177  -3.3620  -3.3506  -3.3301  -3.2412  -3.2179
    -3.0885  -3.0614  -3.0386  -3.0040  -2.9954  -2.9786  -2.9647  -2.9519
    -2.9321  -2.8729  -2.7554  -2.6862  -2.6333  -2.6202  -2.5654  -2.5418
    -2.4938  -2.4699  -2.4649  -2.4489  -2.4383  -2.4143  -2.3663  -2.2479
    -2.1929  -2.1305  -2.0328  -2.0124  -1.9292  -1.7751  -1.7187  -1.6557
    -1.6377  -1.6199  -1.5561  -1.5454  -1.4399  -1.4072  -1.4021  -1.3290
    -1.2342  -1.2158  -1.1195  -1.0684  -0.9930  -0.9736  -0.9539  -0.9411
    -0.9158  -0.7214  -0.6894  -0.6653  -0.6271  -0.5933  -0.5222  -0.5036
    -0.4163  -0.4065  -0.3786  -0.3268  -0.3202  -0.2528  -0.2303  -0.2284
    -0.1668  -0.1416   0.0095   0.0299   0.0416   0.1394   0.1474   0.3252
     0.3435   0.4266   0.5388   0.6831   0.7764   0.8828   0.9484   1.3676
     1.4306   2.2028   2.9466   2.9675   2.9992   3.1052   3.1304   3.2213
     3.2677   3.3952   3.4098   3.4513

[...]

          k = 0.0380-0.0419 0.0000 ( 17876 PWs)   bands (ev):

[...]

          k =-0.0760-0.0000 0.0000 ( 17886 PWs)   bands (ev):

[...]

          k =-0.0760-0.0839 0.0000 ( 17948 PWs)   bands (ev):

   -56.2419 -56.2315 -56.2030 -56.1985 -56.1295 -56.0813 -56.0526 -56.0258
   -55.9866 -55.9599 -55.9561 -55.9127 -55.7722 -55.5985 -55.2318 -55.2311
   -32.5881 -32.5839 -32.5377 -32.5296 -32.5271 -32.5133 -32.5111 -32.4688
   -32.4246 -32.4220 -32.4157 -32.4022 -32.3728 -32.3727 -32.3654 -32.3396
   -32.3324 -32.3286 -32.3221 -32.3210 -32.2888 -32.2880 -32.2815 -32.2764
   -32.2617 -32.2587 -32.2344 -32.2285 -32.2147 -32.2130 -32.1911 -32.1868
   -32.1654 -32.1634 -32.1575 -32.1324 -32.1012 -32.0384 -31.9295 -31.9042
   -31.8422 -31.8324 -31.5524 -31.5517 -31.4710 -31.4705 -31.4319 -31.4314
   -18.6924 -16.3994 -16.3683 -16.1468 -16.1274 -16.1246 -16.0484 -15.9498
   -15.9476 -15.9443 -15.9394 -15.8791 -15.8506 -15.8374 -15.7967 -15.7420
   -15.7338 -15.7237 -15.7228 -15.6736 -15.6727 -15.6172 -15.5575 -15.5453
   -15.5431 -15.5393 -15.5275 -15.4474 -15.4142 -15.1543 -13.7326 -13.7309
    -9.1615  -5.2675  -3.6968  -3.6577  -3.3781  -3.3688  -3.3608  -3.3339
    -3.2466  -3.1548  -3.1316  -3.0975  -3.0679  -3.0625  -3.0604  -3.0229
    -3.0170  -2.9803  -2.9662  -2.9471  -2.9320  -2.8868  -2.8614  -2.8517
    -2.8403  -2.8308  -2.8222  -2.7905  -2.7783  -2.7653  -2.7448  -2.7414
    -2.5861  -2.5297  -2.4488  -2.4485  -2.3369  -2.3284  -2.3208  -2.3105
    -2.2835  -2.2755  -2.2429  -2.1054  -2.0405  -1.9404  -1.9278  -1.9198
    -1.8271  -1.7712  -1.6484  -1.6031  -1.5856  -1.5381  -1.4759  -1.4692
    -1.4388  -1.4319  -1.3230  -1.2997  -1.2732  -1.1976  -1.1893  -1.1832
    -1.0849  -1.0520  -1.0120  -0.9774  -0.9459  -0.9044  -0.8503  -0.8062
    -0.7807  -0.7450  -0.7373  -0.6542  -0.5822  -0.5245  -0.2624  -0.2070
    -0.1933  -0.1253  -0.0312   0.0331   0.0502   0.0990   0.1564   0.2141
     0.2648   0.3227   0.3254   0.3699   0.4164   1.1391   1.1401   1.2299
     1.2364   2.1528   3.0844   3.1933   3.2046   3.2529   3.3263   3.4187
     3.4290   3.4300   3.4327   3.6107

     the Fermi energy is     2.9035 ev

!    total energy              =   -2925.19956809 Ry
     estimated scf accuracy    <       0.00000005 Ry
     smearing contrib. (-TS)   =      -0.02326716 Ry
     internal energy E=F+TS    =   -2925.17630093 Ry

     The total energy is F=E-TS. E is the sum of the following terms:
     one-electron contribution =  -24764.26337422 Ry
     hartree contribution      =   12463.29322001 Ry
     xc contribution           =    -479.96948121 Ry
     ewald contribution        =    9855.76306676 Ry
     electric field correction =       0.00026774 Ry

     convergence has been achieved in  54 iterations

     Forces acting on atoms (cartesian axes, Ry/au):

     atom    1 type  1   force =     0.00007942   -0.00095993    0.11384151
     atom    2 type  1   force =    -0.00009428    0.00026142   -0.17944512
     atom    3 type  2   force =     0.00000010   -0.00523549   -0.03559151
     atom    4 type  2   force =     0.00003897    0.00060901    0.04439038
     atom    5 type  2   force =    -0.02018762   -0.00081825    0.00349765
     atom    6 type  2   force =     0.02027935   -0.00038945    0.00351029
     atom    7 type  1   force =    -0.00022006    0.00018302    0.00019535
     atom    8 type  1   force =     0.00021710    0.00175559   -0.00006059
     atom    9 type  2   force =    -0.00005783    0.00027551   -0.00035936
     atom   10 type  2   force =    -0.00001088    0.00011376    0.00031796
     atom   11 type  2   force =    -0.00019324   -0.00004869    0.00028037
     atom   12 type  2   force =    -0.00008998   -0.00006798    0.00028313
     atom   13 type  1   force =     0.00032137    0.00058170    0.00102333
     atom   14 type  1   force =     0.00030959   -0.00006214    0.00121400
     atom   15 type  2   force =     0.00009248   -0.00045030   -0.00069572
     atom   16 type  2   force =     0.00001303   -0.00038702   -0.00105558
     atom   17 type  2   force =     0.00109522   -0.00025937   -0.00049019
     atom   18 type  2   force =    -0.00068691   -0.00031463   -0.00048389
     atom   19 type  1   force =    -0.00017734    0.00000486    0.00059018
     atom   20 type  1   force =    -0.00012408   -0.00009147    0.00044154
     atom   21 type  2   force =     0.00004045    0.00008351    0.10408837
     atom   22 type  2   force =    -0.00003211   -0.00004932    0.00061196
     atom   23 type  2   force =    -0.06903112    0.00033822   -0.03032764
     atom   24 type  2   force =     0.06890180    0.00077549   -0.03036537
     atom   25 type  1   force =     0.00016819    0.00085710    0.12103656
     atom   26 type  1   force =    -0.00010218    0.00041409   -0.17937130
     atom   27 type  2   force =     0.00002358    0.00097026   -0.03232639
     atom   28 type  2   force =     0.00004067    0.00070952    0.04484029
     atom   29 type  2   force =    -0.01921555    0.00046592    0.00324652
     atom   30 type  2   force =     0.01934571    0.00088122    0.00324330
     atom   31 type  1   force =    -0.00046320    0.00023721    0.00031405
     atom   32 type  1   force =     0.00023291    0.00065715   -0.00088843
     atom   33 type  2   force =    -0.00001495   -0.00009472   -0.00067054
     atom   34 type  2   force =    -0.00006118    0.00026362   -0.00021901
     atom   35 type  2   force =    -0.00033402    0.00018568   -0.00007728
     atom   36 type  2   force =     0.00002524    0.00016953   -0.00007885
     atom   37 type  1   force =     0.00045217    0.00015761   -0.00127442
     atom   38 type  1   force =     0.00034004    0.00037935    0.00131087
     atom   39 type  2   force =     0.00007028   -0.00011863   -0.00024898
     atom   40 type  2   force =     0.00000482    0.00003656   -0.00040305
     atom   41 type  2   force =     0.00081811   -0.00033964    0.00009454
     atom   42 type  2   force =    -0.00024717   -0.00032626    0.00000767
     atom   43 type  1   force =    -0.00058637   -0.00012740    0.00066199
     atom   44 type  1   force =    -0.00038420   -0.00060016    0.00153210
     atom   45 type  2   force =     0.00004478    0.00006002    0.10414688
     atom   46 type  2   force =    -0.06882824   -0.00101774   -0.03037859
     atom   47 type  2   force =     0.06870804   -0.00058002   -0.03042188
     atom   48 type  3   force =    -0.00023626    0.01286003   -0.00293109
     atom   49 type  3   force =     0.00007949   -0.00211058    0.00181879
     atom   50 type  4   force =    -0.00036414   -0.00983777    0.00162524

     Total force =     0.380219     Total SCF correction =     0.000762
  @ DRIVER MODE: Message from server: STATUS
  @ DRIVER MODE: Message from server: GETFORCE
  @ DRIVER MODE: Returning v,forces,stress,ensemble

     Writing output data file ./calc.save/
  @ DRIVER MODE: Message from server: EXIT
  @ DRIVE MODE: Exiting

     General routines

     Parallel routines

   This run was terminated on:   9:57:54  12Oct2021

   JOB DONE.