     Program PWSCF v.6.7GPU starts on 25Aug2021 at  0:11:24

     R & G space division:  proc/nbgrp/npool/nimage =      72
     Reading input from /storage/home/hcoda1/3/ntian30/research/carbon/CH2_vib/ads_slab/CH2NNH3_a/out_0039/pw.inp
Warning: card &CELL ignored
Warning: card   CELL_DYNAMICS='IPI', ignored
Warning: card / ignored

     Current dimensions of program PWSCF are:
     Max number of different atomic species (ntypx) = 10
     Max number of k-points (npk) =  40000
     Max angular momentum in pseudopotentials (lmaxx) =  3
     Presently no symmetry can be used with electric field

     Message from routine cell_base_init:
     DEPRECATED: use true lattice parameter, not A to a.u. conversion factor

     IMPORTANT: XC functional enforced from input :
     Exchange-correlation= BEEF-VDW
                           (   1   4  43  14   2   0   0)
     Any further DFT definition will be discarded
     Please, verify this is what you really want

  @ DRIVER MODE: Connecting to
 qe_1139763_2641442.sched-torque.pace.gatech.edudfy57krq_scratch
  using UNIX socket
  @ DRIVER MODE: Message from server: STATUS
  @ DRIVER MODE: Message from server: INIT
  @ DRIVER MODE: Receiving replica           0          -1
  @ DRIVER MODE: Receiving encoded integer          25
  @ DRIVER MODE:  SCF:  T  FORCE:  T  STRESS:  F  VC:  F  ENSEMBLE:  F
  @ DRIVER MODE:  SCF:  T  FORCE:  T  STRESS:  F  VC:  F  ENSEMBLE:  F

     Using Slab Decomposition

     bravais-lattice index     =            0
     lattice parameter (alat)  =       1.8897  a.u.
     unit-cell volume          =    6658.9804 (a.u.)^3
     number of atoms/cell      =           55
     number of atomic types    =            5
     number of electrons       =       397.00
     number of Kohn-Sham states=          208
     kinetic-energy cutoff     =      29.3995  Ry
     charge density cutoff     =     293.9946  Ry
     scf convergence threshold =      7.3E-08
     mixing beta               =       0.0500
     number of iterations used =            8  plain     mixing
     Exchange-correlation= BEEF-VDW
                           (   1   4  43  14   2   0   0)

     celldm(1)=   1.889726  celldm(2)=   0.000000  celldm(3)=   0.000000
     celldm(4)=   0.000000  celldm(5)=   0.000000  celldm(6)=   0.000000

     crystal axes: (cart. coord. in units of alat)
               a(1) = (   6.579727   0.000000   0.000000 )
               a(2) = (  -0.000775   5.961596   0.000000 )
               a(3) = (   0.000000   0.000000  25.155947 )

     reciprocal axes: (cart. coord. in units 2 pi/alat)
               b(1) = (  0.151982  0.000020  0.000000 )
               b(2) = (  0.000000  0.167740  0.000000 )
               b(3) = (  0.000000  0.000000  0.039752 )

     PseudoPot. # 1 for Ti read from file:
     /storage/coda1/p-amedford6/0/shared/rich_project_chbe-medford/medford-share/data/pseudos_module/espresso/nninc/pbe/van/Ti.UPF
     MD5 check sum: 8e4df49b7f0d34bbd5052bf3f5ea0213
     Pseudo is Ultrasoft, Zval = 12.0
     Generated by new atomic code, or converted to UPF format
     Using radial grid of  851 points,  6 beta functions with:
                l(1) =   0
                l(2) =   0
                l(3) =   1
                l(4) =   1
                l(5) =   2
                l(6) =   2
     Q(r) pseudized with  8 coefficients,  rinner =    1.000   1.000   1.000
                                                       1.000   1.000

     PseudoPot. # 2 for O  read from file:
     /storage/coda1/p-amedford6/0/shared/rich_project_chbe-medford/medford-share/data/pseudos_module/espresso/nninc/pbe/van/O.UPF
     MD5 check sum: 78c19812648e8988a0fe644b0f25305e
     Pseudo is Ultrasoft, Zval =  6.0
     Generated by new atomic code, or converted to UPF format
     Using radial grid of  737 points,  4 beta functions with:
                l(1) =   0
                l(2) =   0
                l(3) =   1
                l(4) =   1
     Q(r) pseudized with  8 coefficients,  rinner =    0.800   0.800   0.800

     PseudoPot. # 3 for N  read from file:
     /storage/coda1/p-amedford6/0/shared/rich_project_chbe-medford/medford-share/data/pseudos_module/espresso/nninc/pbe/van/N.UPF
     MD5 check sum: 90d10febe142ad51ac9d5be1deb811c4
     Pseudo is Ultrasoft, Zval =  5.0
     Generated by new atomic code, or converted to UPF format
     Using radial grid of  729 points,  4 beta functions with:
                l(1) =   0
                l(2) =   0
                l(3) =   1
                l(4) =   1
     Q(r) pseudized with  8 coefficients,  rinner =    0.800   0.800   0.800

     PseudoPot. # 4 for C  read from file:
     /storage/coda1/p-amedford6/0/shared/rich_project_chbe-medford/medford-share/data/pseudos_module/espresso/nninc/pbe/van/C.UPF
     MD5 check sum: 1a69bf6b8db32088f5b2163dbdb77a27
     Pseudo is Ultrasoft, Zval =  4.0
     Generated by new atomic code, or converted to UPF format
     Using radial grid of  721 points,  4 beta functions with:
                l(1) =   0
                l(2) =   0
                l(3) =   1
                l(4) =   1
     Q(r) pseudized with  8 coefficients,  rinner =    0.800   0.800   0.800

     PseudoPot. # 5 for H  read from file:
     /storage/coda1/p-amedford6/0/shared/rich_project_chbe-medford/medford-share/data/pseudos_module/espresso/nninc/pbe/van/H.UPF
     MD5 check sum: b5ee9d7bfd3a09ee7748110bda690ff7
     Pseudo is Ultrasoft, Zval =  1.0
     Generated by new atomic code, or converted to UPF format
     Using radial grid of  615 points,  1 beta functions with:
                l(1) =   0
     Q(r) pseudized with  8 coefficients,  rinner =    0.800

     atomic species   valence    mass     pseudopotential
        Ti1           12.00    47.86700     Ti( 1.00)
        O1             6.00    15.99900     O ( 1.00)
        N1             5.00    14.00700     N ( 1.00)
        C1             4.00    12.01100     C ( 1.00)
        H1             1.00     1.00800     H ( 1.00)

     No symmetry found

   Cartesian axes

     site n.     atom                  positions (alat units)
         1           Ti1 tau(   1) = (   0.0004258   2.9801865   6.0000000  )
         2           Ti1 tau(   2) = (   3.2906075   1.4906267   6.0002472  )
         3           O1  tau(   3) = (   0.0006271   0.0005054   7.9858123  )
         4           O1  tau(   4) = (   3.2906025   0.0005020   7.3038282  )
         5           O1  tau(   5) = (   4.5942328   1.4918067   9.2879030  )
         6           O1  tau(   6) = (   1.9868534   1.4903216   9.2879459  )
         7           Ti1 tau(   7) = (   3.2907910   2.8959150   9.1758416  )
         8           Ti1 tau(   8) = (   0.0015273   1.4827037   9.2680791  )
         9           O1  tau(   9) = (   3.2870044   0.0008392  11.3329265  )
        10           O1  tau(  10) = (   0.0116148   5.9584955  10.6183126  )
        11           O1  tau(  11) = (   1.3103063   1.4923116  12.6208530  )
        12           O1  tau(  12) = (   5.2933663   1.4849185  12.6124200  )
        13           Ti1 tau(  13) = (   6.5212574   2.9536302  12.6166858  )
        14           Ti1 tau(  14) = (   3.2058376   1.4897313  12.4816367  )
        15           O1  tau(  15) = (   6.5713238   0.0136578  14.6546308  )
        16           O1  tau(  16) = (   3.3039920   0.0133407  13.9274802  )
        17           O1  tau(  17) = (   4.5398155   1.5323753  16.0810081  )
        18           O1  tau(  18) = (   2.0543055   1.5218724  16.0470058  )
        19           Ti1 tau(  19) = (   3.2774803   3.0107093  15.7022328  )
        20           Ti1 tau(  20) = (   6.5342633   1.5374647  15.8423947  )
        21           O1  tau(  21) = (   3.2904802   0.0005063   4.7018136  )
        22           O1  tau(  22) = (   0.0034288   0.0322173  17.2228558  )
        23           O1  tau(  23) = (   1.3043587   1.4918075   6.0039043  )
        24           O1  tau(  24) = (   5.2767064   1.4903225   6.0039473  )
        25           Ti1 tau(  25) = (   0.0000382   5.9609847   6.0000000  )
        26           Ti1 tau(  26) = (   3.2902200   4.4714249   6.0002472  )
        27           O1  tau(  27) = (   0.0002396   2.9813036   7.9858123  )
        28           O1  tau(  28) = (   3.2902150   2.9813002   7.3038282  )
        29           O1  tau(  29) = (   4.5938453   4.4726049   9.2879030  )
        30           O1  tau(  30) = (   1.9864658   4.4711199   9.2879459  )
        31           Ti1 tau(  31) = (   3.2891106   5.8743827   9.1763621  )
        32           Ti1 tau(  32) = (   0.0006254   4.4649316   9.2693709  )
        33           O1  tau(  33) = (   3.2848367   2.9872869  11.3311783  )
        34           O1  tau(  34) = (   0.0092240   2.9805883  10.6323155  )
        35           O1  tau(  35) = (   1.3050274   4.4824158  12.6313026  )
        36           O1  tau(  36) = (   5.2955027   4.4751037  12.6224712  )
        37           Ti1 tau(  37) = (   6.5218534   5.9301143  12.5590122  )
        38           Ti1 tau(  38) = (   3.2037265   4.4702053  12.4865905  )
        39           O1  tau(  39) = (   6.5652647   2.9430126  14.6458727  )
        40           O1  tau(  40) = (   3.3006234   2.9978660  13.9063397  )
        41           O1  tau(  41) = (   4.5289998   4.4870283  16.1192093  )
        42           O1  tau(  42) = (   2.0463452   4.4937679  16.0531255  )
        43           Ti1 tau(  43) = (   3.2679282   0.0255942  15.7259849  )
        44           Ti1 tau(  44) = (   6.5624932   4.6695214  16.1100661  )
        45           O1  tau(  45) = (   3.2900926   2.9813045   4.7018136  )
        46           O1  tau(  46) = (   1.3039711   4.4726057   6.0039043  )
        47           O1  tau(  47) = (   5.2763189   4.4711207   6.0039473  )
        48           N1  tau(  48) = (   0.0665130   2.9625449  17.3937163  )
        49           C1  tau(  49) = (   0.2662726   2.8715582  18.6342609  )
        50           H1  tau(  50) = (   0.3859136   3.7587535  19.2661104  )
        51           H1  tau(  51) = (   0.3502417   1.8926937  19.1273272  )
        52           N1  tau(  52) = (   3.5829462   4.8819607  19.5834040  )
        53           H1  tau(  53) = (   4.1394342   5.6873527  19.8504637  )
        54           H1  tau(  54) = (   4.0752263   4.4338539  18.8113048  )
        55           H1  tau(  55) = (   3.6086599   4.2347498  20.3655469  )

     number of k points=    10  Fermi-Dirac smearing, width (Ry)=  0.0073
                       cart. coord. in units 2pi/alat
        k(    1) = (   0.0000000   0.0000000   0.0000000), wk =   0.1250000
        k(    2) = (   0.0000000   0.0419351   0.0000000), wk =   0.2500000
        k(    3) = (   0.0000000  -0.0838702   0.0000000), wk =   0.1250000
        k(    4) = (   0.0379955   0.0000049   0.0000000), wk =   0.2500000
        k(    5) = (   0.0379955   0.0419400   0.0000000), wk =   0.2500000
        k(    6) = (   0.0379955  -0.0838652   0.0000000), wk =   0.2500000
        k(    7) = (   0.0379955  -0.0419301   0.0000000), wk =   0.2500000
        k(    8) = (  -0.0759910  -0.0000099   0.0000000), wk =   0.1250000
        k(    9) = (  -0.0759910   0.0419252   0.0000000), wk =   0.2500000
        k(   10) = (  -0.0759910  -0.0838800   0.0000000), wk =   0.1250000

     Initial potential from superposition of free atoms

     starting charge  380.99914, renormalised to  397.00000

     negative rho (up, down):  1.455E-02 0.000E+00

     %%%%%%%%%%%%%%%%%%%%%%%%%%%%%%%%%%%%%%%%%%%%%%%%%%%%%%%%%%%%%%%%%%%%%%%%
     %                                                                      %
     % You are using vdW-DF, which was implemented by the Thonhauser group. %
     % Please cite the following two papers that made this development      %
     % possible and the two reviews that describe the various versions:     %
     %                                                                      %
     %   T. Thonhauser et al., PRL 115, 136402 (2015).                      %
     %   T. Thonhauser et al., PRB 76, 125112 (2007).                       %
     %   K. Berland et al., Rep. Prog. Phys. 78, 066501 (2015).             %
     %   D.C. Langreth et al., J. Phys.: Condens. Matter 21, 084203 (2009). %
     %                                                                      %
     %                                                                      %
     % If you are calculating the stress with vdW-DF, please also cite:     %
     %                                                                      %
     %   R. Sabatini et al., J. Phys.: Condens. Matter 24, 424209 (2012).   %
     %                                                                      %
     %%%%%%%%%%%%%%%%%%%%%%%%%%%%%%%%%%%%%%%%%%%%%%%%%%%%%%%%%%%%%%%%%%%%%%%%

     Adding external electric field

     Computed dipole along edir(3) :
        Dipole              -10.1102 Ry au,        -25.6976 Debye
        Dipole field         -0.0191 Ry au,

        Potential amp.        1.7686 Ry
        Total length         46.3494 bohr

     Starting wfcs are  301 atomic wfcs
  @ DRIVER MODE: Message from server: STATUS
  @ DRIVER MODE: Message from server: POSDATA
  @ DRIVER MODE: Reading and sharing cell
  @ DRIVER MODE: Reading and sharing positions
  @ DRIVER MODE: Received positions

     Self-consistent Calculation

     iteration #  1     ecut=    29.40 Ry     beta= 0.05
     Davidson diagonalization with overlap
     c_bands:  2 eigenvalues not converged
     c_bands:  1 eigenvalues not converged
     c_bands:  1 eigenvalues not converged
     c_bands:  1 eigenvalues not converged
     c_bands:  1 eigenvalues not converged
     c_bands:  1 eigenvalues not converged
     c_bands:  1 eigenvalues not converged
     c_bands:  2 eigenvalues not converged
     ethr =  1.00E-05,  avg # of iterations = 19.0

[...]

     total energy              =   -2537.33711713 Ry
     estimated scf accuracy    <    4510.14720414 Ry

     iteration #  2     ecut=    29.40 Ry     beta= 0.05
     Davidson diagonalization with overlap
     ethr =  1.00E-02,  avg # of iterations = 24.8

[...]

     iteration # 75     ecut=    29.40 Ry     beta= 0.05
     Davidson diagonalization with overlap
     c_bands:  1 eigenvalues not converged
     ethr =  2.04E-08,  avg # of iterations =  9.6

[...]

     total energy              =   -2941.70792535 Ry
     estimated scf accuracy    <       0.00000010 Ry

     iteration # 90     ecut=    29.40 Ry     beta= 0.05
     Davidson diagonalization with overlap
     ethr =  2.52E-11,  avg # of iterations =  9.2

     negative rho (up, down):  1.502E-02 0.000E+00

     Adding external electric field

     Computed dipole along edir(3) :
        Dipole                0.8869 Ry au,          2.2543 Debye
        Dipole field          0.0017 Ry au,

        Potential amp.       -0.1552 Ry
        Total length         46.3494 bohr

     End of self-consistent calculation

          k = 0.0000 0.0000 0.0000 ( 18029 PWs)   bands (ev):

   -55.7585 -55.7502 -55.7244 -55.7142 -55.6442 -55.6038 -55.5875 -55.5693
   -55.5675 -55.5336 -55.5322 -55.4985 -55.2779 -55.0257 -54.7359 -54.7019
   -32.3031 -32.2407 -32.1050 -32.0940 -32.0662 -32.0627 -32.0515 -32.0226
   -32.0012 -31.9772 -31.9706 -31.9501 -31.9299 -31.9105 -31.9023 -31.8892
   -31.8752 -31.8626 -31.8487 -31.8155 -31.8132 -31.8104 -31.7688 -31.7624
   -31.7621 -31.7598 -31.7554 -31.7460 -31.7339 -31.7186 -31.7106 -31.7072
   -31.7015 -31.6978 -31.6852 -31.6748 -31.6443 -31.5321 -31.4589 -31.3071
   -31.2795 -31.2332 -31.1430 -31.0547 -31.0322 -30.9597 -30.8732 -30.7622
   -16.4987 -16.2335 -16.0165 -15.9123 -15.8769 -15.7612 -15.5973 -15.4781
   -15.4255 -15.3274 -15.3136 -15.2941 -15.2609 -15.2440 -15.2233 -15.2045
   -15.2005 -15.1824 -15.1688 -15.1178 -15.0951 -15.0573 -14.9601 -14.9305
   -14.8929 -14.8762 -14.8185 -14.8138 -14.6800 -14.3294 -14.0293 -13.2383
   -13.1218  -7.2958  -4.1409  -4.1398  -4.0199  -3.8744  -3.7654  -3.7121
    -3.6636  -3.6036  -3.3977  -3.3071  -3.2822  -2.9859  -2.9400  -2.9250
    -2.9029  -2.8773  -2.6581  -2.6030  -2.5715  -2.5544  -2.5397  -2.5266
    -2.5189  -2.4991  -2.4652  -2.3674  -2.3137  -2.2991  -2.1759  -2.1474
    -2.0871  -2.0703  -2.0238  -2.0090  -1.9960  -1.9907  -1.9628  -1.9465
    -1.9210  -1.8428  -1.7273  -1.5747  -1.5564  -1.5226  -1.4031  -1.3656
    -1.3013  -1.2178  -1.1998  -1.1839  -1.1497  -1.1378  -1.0588  -0.9453
    -0.9056  -0.8969  -0.7936  -0.7538  -0.7333  -0.6293  -0.6055  -0.5374
    -0.5211  -0.5111  -0.4781  -0.3180  -0.2603  -0.2254  -0.1608  -0.1375
    -0.0782  -0.0604  -0.0302   0.0526   0.1007   0.1273   0.1291   0.1778
     0.2163   0.2332   0.2373   0.2520   0.2722   0.4393   0.5149   0.5291
     0.5984   0.6102   0.7724   0.8171   0.8989   1.0013   1.0411   1.2119
     1.2862   1.3758   1.4785   1.6809   1.8575   1.9031   3.3785   3.4617
     3.5100   3.5226   3.6205   3.6623   3.8315   3.8395   3.8499   3.9244

[...]

          k = 0.0380-0.0419 0.0000 ( 17876 PWs)   bands (ev):

[...]

          k =-0.0760-0.0000 0.0000 ( 17886 PWs)   bands (ev):

[...]

          k =-0.0760-0.0839 0.0000 ( 17948 PWs)   bands (ev):

   -55.7419 -55.7408 -55.7330 -55.7312 -55.6383 -55.5932 -55.5883 -55.5847
   -55.5512 -55.5494 -55.5161 -55.5148 -55.2768 -55.0266 -54.7189 -54.7187
   -32.1081 -32.1053 -32.0564 -32.0556 -32.0374 -32.0363 -32.0214 -32.0093
   -31.9569 -31.9528 -31.9482 -31.9440 -31.9094 -31.8828 -31.8812 -31.8781
   -31.8690 -31.8631 -31.8612 -31.8602 -31.8549 -31.8525 -31.8415 -31.8075
   -31.8012 -31.7941 -31.7818 -31.7692 -31.7502 -31.7498 -31.7470 -31.7460
   -31.7307 -31.7300 -31.7242 -31.7214 -31.6415 -31.5346 -31.4554 -31.3738
   -31.2812 -31.2552 -31.0450 -31.0449 -30.9558 -30.9557 -30.9165 -30.9164
   -15.9380 -15.9067 -15.7017 -15.6747 -15.6710 -15.6548 -15.5298 -15.4667
   -15.4536 -15.4513 -15.3872 -15.3667 -15.3303 -15.3030 -15.2887 -15.2786
   -15.2727 -15.2665 -15.2182 -15.2123 -15.1945 -15.1874 -15.0842 -15.0749
   -15.0710 -15.0155 -14.9352 -14.7931 -14.6967 -14.5030 -14.0290 -13.2237
   -13.2236  -7.2924  -4.1681  -4.1033  -4.0308  -3.4394  -3.2279  -3.1906
    -2.9315  -2.9133  -2.8997  -2.8446  -2.6717  -2.6543  -2.6329  -2.6148
    -2.5810  -2.5801  -2.5610  -2.5591  -2.5482  -2.5137  -2.5020  -2.4724
    -2.4348  -2.4249  -2.4130  -2.4114  -2.3814  -2.3717  -2.3327  -2.3034
    -2.2942  -2.2757  -2.2608  -2.0914  -1.9832  -1.9580  -1.8952  -1.8874
    -1.8581  -1.8220  -1.8145  -1.7937  -1.7431  -1.6569  -1.4900  -1.4580
    -1.4397  -1.3776  -1.3599  -1.3089  -1.2291  -1.1553  -1.1331  -1.1277
    -1.0780  -0.9684  -0.9458  -0.9376  -0.8680  -0.8216  -0.8148  -0.7793
    -0.7506  -0.7178  -0.7135  -0.6216  -0.5721  -0.5291  -0.5241  -0.4760
    -0.4085  -0.3972  -0.3687  -0.2595  -0.2368  -0.1796  -0.1446  -0.0347
     0.0289   0.2268   0.2807   0.3167   0.3742   0.4490   0.5314   0.5468
     0.5510   0.5614   0.6173   0.6711   0.7749   0.7837   0.8391   0.9460
     1.0079   1.6048   1.6499   1.6506   1.7229   1.7231   3.6611   3.6728
     3.7117   3.7323   3.8704   3.8856   3.9096   3.9105   3.9617   4.0480

     the Fermi energy is     3.3758 ev

!    total energy              =   -2941.70792773 Ry
     estimated scf accuracy    <       0.00000007 Ry
     smearing contrib. (-TS)   =      -0.02185262 Ry
     internal energy E=F+TS    =   -2941.68607511 Ry

     The total energy is F=E-TS. E is the sum of the following terms:
     one-electron contribution =  -23925.24860004 Ry
     hartree contribution      =   12052.26605418 Ry
     xc contribution           =    -486.76121313 Ry
     ewald contribution        =    9418.05619942 Ry
     electric field correction =       0.00148446 Ry

     convergence has been achieved in  90 iterations

     Forces acting on atoms (cartesian axes, Ry/au):

     atom    1 type  1   force =     0.00002354   -0.00025677    0.09661514
     atom    2 type  1   force =     0.00003795   -0.00057489   -0.17541692
     atom    3 type  2   force =     0.00011314   -0.00004062   -0.02487327
     atom    4 type  2   force =     0.00000078   -0.00141918    0.05295289
     atom    5 type  2   force =    -0.01228365   -0.00027521    0.00347871
     atom    6 type  2   force =     0.01363754    0.00025475    0.00255574
     atom    7 type  1   force =     0.00031528    0.00056664   -0.01137704
     atom    8 type  1   force =     0.00052031    0.00785028    0.02843889
     atom    9 type  2   force =     0.00020670    0.00041676    0.00048889
     atom   10 type  2   force =    -0.00291753    0.00138208   -0.01556030
     atom   11 type  2   force =     0.00067434   -0.00000785   -0.00001169
     atom   12 type  2   force =    -0.00009059   -0.00013688   -0.00013152
     atom   13 type  1   force =    -0.00018531   -0.00032146    0.00099826
     atom   14 type  1   force =     0.00018138   -0.00007111   -0.00019351
     atom   15 type  2   force =     0.00017736    0.00049866    0.00020755
     atom   16 type  2   force =    -0.00033141   -0.00035571   -0.00029383
     atom   17 type  2   force =    -0.00065567    0.00003907   -0.00045578
     atom   18 type  2   force =     0.00037324    0.00045093   -0.00004225
     atom   19 type  1   force =    -0.00050614   -0.00077120   -0.00026003
     atom   20 type  1   force =     0.00046644    0.00089874   -0.00115097
     atom   21 type  2   force =     0.00005212   -0.00005980    0.10318685
     atom   22 type  2   force =    -0.00077567    0.00006258    0.00063905
     atom   23 type  2   force =    -0.07149104   -0.00014005   -0.02772244
     atom   24 type  2   force =     0.07141958    0.00032454   -0.02779665
     atom   25 type  1   force =     0.00016673   -0.00025137    0.09626052
     atom   26 type  1   force =     0.00009122   -0.00023543   -0.17565163
     atom   27 type  2   force =     0.00017136   -0.00018884   -0.02392336
     atom   28 type  2   force =    -0.00000100   -0.00117510    0.05286402
     atom   29 type  2   force =    -0.01241141    0.00038511    0.00317257
     atom   30 type  2   force =     0.01366790    0.00084954    0.00221819
     atom   31 type  1   force =     0.00028655    0.00323322   -0.01196588
     atom   32 type  1   force =     0.00065336   -0.01006073    0.02884503
     atom   33 type  2   force =     0.00024456   -0.00024427    0.00062170
     atom   34 type  2   force =    -0.00237692    0.00102540   -0.02370509
     atom   35 type  2   force =     0.00059733   -0.00070779   -0.00008336
     atom   36 type  2   force =    -0.00016433   -0.00079217    0.00018381
     atom   37 type  1   force =    -0.00017390   -0.00013937    0.00050397
     atom   38 type  1   force =     0.00030502    0.00036973   -0.00063963
     atom   39 type  2   force =    -0.00009160   -0.00076108    0.00119307
     atom   40 type  2   force =     0.00026777   -0.00062105   -0.00012631
     atom   41 type  2   force =    -0.00025632   -0.00066845   -0.00004192
     atom   42 type  2   force =    -0.00034826   -0.00026052   -0.00001472
     atom   43 type  1   force =    -0.00048710    0.00068844    0.00012632
     atom   44 type  1   force =    -0.00018750    0.00020321   -0.00035359
     atom   45 type  2   force =     0.00007717   -0.00006898    0.10322127
     atom   46 type  2   force =    -0.07152137   -0.00008858   -0.02774838
     atom   47 type  2   force =     0.07143096    0.00033027   -0.02781201
     atom   48 type  3   force =    -0.00020313   -0.00064517   -0.00124913
     atom   49 type  4   force =     0.00062288   -0.00100324    0.00079298
     atom   50 type  5   force =    -0.00040577    0.00073952    0.00112527
     atom   51 type  5   force =    -0.00026779    0.00063698   -0.00050209
     atom   52 type  3   force =     0.00076840   -0.00443193   -0.00536322
     atom   53 type  5   force =     0.00213158    0.00021463   -0.00110298
     atom   54 type  5   force =    -0.00127769    0.00448253    0.00585694
     atom   55 type  5   force =    -0.00027141    0.00087118   -0.00097816

     Total force =     0.368227     Total SCF correction =     0.000647
  @ DRIVER MODE: Message from server: STATUS
  @ DRIVER MODE: Message from server: GETFORCE
  @ DRIVER MODE: Returning v,forces,stress,ensemble

     Writing output data file ./calc.save/
  @ DRIVER MODE: Message from server: EXIT
  @ DRIVE MODE: Exiting

     General routines

     Parallel routines

   This run was terminated on:   0:36:30  25Aug2021

   JOB DONE.