     Program PWSCF v.6.7GPU starts on 20Sep2021 at 13:54:56

     R & G space division:  proc/nbgrp/npool/nimage =      10
     Reading input from /storage/home/hcoda1/3/ntian30/research/carbon/CxH_vib/CH3_calc/ads_slab/CH3O_a/out_0017/pw.inp
Warning: card &CELL ignored
Warning: card   CELL_DYNAMICS='IPI', ignored
Warning: card / ignored

     Current dimensions of program PWSCF are:
     Max number of different atomic species (ntypx) = 10
     Max number of k-points (npk) =  40000
     Max angular momentum in pseudopotentials (lmaxx) =  3
     Presently no symmetry can be used with electric field

     Message from routine cell_base_init:
     DEPRECATED: use true lattice parameter, not A to a.u. conversion factor

     IMPORTANT: XC functional enforced from input :
     Exchange-correlation= BEEF-VDW
                           (   1   4  43  14   2   0   0)
     Any further DFT definition will be discarded
     Please, verify this is what you really want

  @ DRIVER MODE: Connecting to
 qe_1139763_2907627.sched-torque.pace.gatech.edutvg12zoy_scratch
  using UNIX socket
  @ DRIVER MODE: Message from server: STATUS
  @ DRIVER MODE: Message from server: INIT
  @ DRIVER MODE: Receiving replica           0          -1
  @ DRIVER MODE: Receiving encoded integer          25
  @ DRIVER MODE:  SCF:  T  FORCE:  T  STRESS:  F  VC:  F  ENSEMBLE:  F
  @ DRIVER MODE:  SCF:  T  FORCE:  T  STRESS:  F  VC:  F  ENSEMBLE:  F

     Using Slab Decomposition

     bravais-lattice index     =            0
     lattice parameter (alat)  =       1.8897  a.u.
     unit-cell volume          =    6658.9804 (a.u.)^3
     number of atoms/cell      =           52
     number of atomic types    =            4
     number of electrons       =       391.00
     number of Kohn-Sham states=          205
     kinetic-energy cutoff     =      29.3995  Ry
     charge density cutoff     =     293.9946  Ry
     scf convergence threshold =      7.3E-08
     mixing beta               =       0.0500
     number of iterations used =            8  plain     mixing
     Exchange-correlation= BEEF-VDW
                           (   1   4  43  14   2   0   0)

     celldm(1)=   1.889726  celldm(2)=   0.000000  celldm(3)=   0.000000
     celldm(4)=   0.000000  celldm(5)=   0.000000  celldm(6)=   0.000000

     crystal axes: (cart. coord. in units of alat)
               a(1) = (   6.579727   0.000000   0.000000 )
               a(2) = (  -0.000775   5.961596   0.000000 )
               a(3) = (   0.000000   0.000000  25.155947 )

     reciprocal axes: (cart. coord. in units 2 pi/alat)
               b(1) = (  0.151982  0.000020  0.000000 )
               b(2) = (  0.000000  0.167740  0.000000 )
               b(3) = (  0.000000  0.000000  0.039752 )

     PseudoPot. # 1 for Ti read from file:
     /storage/coda1/p-amedford6/0/shared/rich_project_chbe-medford/medford-share/data/pseudos_module/espresso/nninc/pbe/van/Ti.UPF
     MD5 check sum: 8e4df49b7f0d34bbd5052bf3f5ea0213
     Pseudo is Ultrasoft, Zval = 12.0
     Generated by new atomic code, or converted to UPF format
     Using radial grid of  851 points,  6 beta functions with:
                l(1) =   0
                l(2) =   0
                l(3) =   1
                l(4) =   1
                l(5) =   2
                l(6) =   2
     Q(r) pseudized with  8 coefficients,  rinner =    1.000   1.000   1.000
                                                       1.000   1.000

     PseudoPot. # 2 for O  read from file:
     /storage/coda1/p-amedford6/0/shared/rich_project_chbe-medford/medford-share/data/pseudos_module/espresso/nninc/pbe/van/O.UPF
     MD5 check sum: 78c19812648e8988a0fe644b0f25305e
     Pseudo is Ultrasoft, Zval =  6.0
     Generated by new atomic code, or converted to UPF format
     Using radial grid of  737 points,  4 beta functions with:
                l(1) =   0
                l(2) =   0
                l(3) =   1
                l(4) =   1
     Q(r) pseudized with  8 coefficients,  rinner =    0.800   0.800   0.800

     PseudoPot. # 3 for C  read from file:
     /storage/coda1/p-amedford6/0/shared/rich_project_chbe-medford/medford-share/data/pseudos_module/espresso/nninc/pbe/van/C.UPF
     MD5 check sum: 1a69bf6b8db32088f5b2163dbdb77a27
     Pseudo is Ultrasoft, Zval =  4.0
     Generated by new atomic code, or converted to UPF format
     Using radial grid of  721 points,  4 beta functions with:
                l(1) =   0
                l(2) =   0
                l(3) =   1
                l(4) =   1
     Q(r) pseudized with  8 coefficients,  rinner =    0.800   0.800   0.800

     PseudoPot. # 4 for H  read from file:
     /storage/coda1/p-amedford6/0/shared/rich_project_chbe-medford/medford-share/data/pseudos_module/espresso/nninc/pbe/van/H.UPF
     MD5 check sum: b5ee9d7bfd3a09ee7748110bda690ff7
     Pseudo is Ultrasoft, Zval =  1.0
     Generated by new atomic code, or converted to UPF format
     Using radial grid of  615 points,  1 beta functions with:
                l(1) =   0
     Q(r) pseudized with  8 coefficients,  rinner =    0.800

     atomic species   valence    mass     pseudopotential
        Ti1           12.00    47.86700     Ti( 1.00)
        O1             6.00    15.99900     O ( 1.00)
        C1             4.00    12.01100     C ( 1.00)
        H1             1.00     1.00800     H ( 1.00)

     No symmetry found

   Cartesian axes

     site n.     atom                  positions (alat units)
         1           Ti1 tau(   1) = (   0.0004258   2.9801865   6.0000000  )
         2           Ti1 tau(   2) = (   3.2906075   1.4906267   6.0002472  )
         3           O1  tau(   3) = (   0.0006271   0.0005054   7.9858123  )
         4           O1  tau(   4) = (   3.2906025   0.0005020   7.3038282  )
         5           O1  tau(   5) = (   4.5942328   1.4918067   9.2879030  )
         6           O1  tau(   6) = (   1.9868534   1.4903216   9.2879459  )
         7           Ti1 tau(   7) = (   3.3187032   3.0312427   9.1575206  )
         8           Ti1 tau(   8) = (   0.0282419   1.6147502   9.3704053  )
         9           O1  tau(   9) = (   3.3236385   0.0141534  11.3532293  )
        10           O1  tau(  10) = (   0.0104197   0.0125229  10.6127740  )
        11           O1  tau(  11) = (   1.3245732   1.5021988  12.6430083  )
        12           O1  tau(  12) = (   5.3244981   1.5061434  12.6562219  )
        13           Ti1 tau(  13) = (   0.0403031   3.0097444  12.8244759  )
        14           Ti1 tau(  14) = (   3.3296682   1.5108177  12.4986020  )
        15           O1  tau(  15) = (   0.0398480   0.0117783  14.7343716  )
        16           O1  tau(  16) = (   3.3300567   0.0146708  13.9469669  )
        17           O1  tau(  17) = (   4.5805658   1.5026465  16.1145873  )
        18           O1  tau(  18) = (   2.0880061   1.5021997  16.1152651  )
        19           Ti1 tau(  19) = (   3.3307167   2.9906167  15.7324548  )
        20           Ti1 tau(  20) = (   0.0579274   1.3843852  16.1188819  )
        21           O1  tau(  21) = (   3.2904802   0.0005063   4.7018136  )
        22           O1  tau(  22) = (   0.0436517   5.9586681  17.2572535  )
        23           O1  tau(  23) = (   1.3043587   1.4918075   6.0039043  )
        24           O1  tau(  24) = (   5.2767064   1.4903225   6.0039473  )
        25           Ti1 tau(  25) = (   0.0000382   5.9609847   6.0000000  )
        26           Ti1 tau(  26) = (   3.2902200   4.4714249   6.0002472  )
        27           O1  tau(  27) = (   0.0002396   2.9813036   7.9858123  )
        28           O1  tau(  28) = (   3.2902150   2.9813002   7.3038282  )
        29           O1  tau(  29) = (   4.5938453   4.4726049   9.2879030  )
        30           O1  tau(  30) = (   1.9864658   4.4711199   9.2879459  )
        31           Ti1 tau(  31) = (   3.3083866   0.0539517   9.1541167  )
        32           Ti1 tau(  32) = (   0.0315341   4.5377404   9.2709708  )
        33           O1  tau(  33) = (   3.3215087   2.9954721  11.3555336  )
        34           O1  tau(  34) = (   0.0112336   2.9957203  10.5730616  )
        35           O1  tau(  35) = (   1.3257220   4.4896437  12.6447561  )
        36           O1  tau(  36) = (   5.3225596   4.4851362  12.6583724  )
        37           Ti1 tau(  37) = (   0.0354833   0.0274604  12.5282598  )
        38           Ti1 tau(  38) = (   3.3297026   4.4921445  12.4963722  )
        39           O1  tau(  39) = (   0.0599690   3.0154325  14.7102929  )
        40           O1  tau(  40) = (   3.3251099   2.9889739  13.9402376  )
        41           O1  tau(  41) = (   4.5781535   4.4756942  16.0984728  )
        42           O1  tau(  42) = (   2.0867977   4.4764083  16.0997756  )
        43           Ti1 tau(  43) = (   3.3478802   0.0108728  15.7387323  )
        44           Ti1 tau(  44) = (   0.0598937   4.5429110  15.9843511  )
        45           O1  tau(  45) = (   3.2900926   2.9813045   4.7018136  )
        46           O1  tau(  46) = (   1.3039711   4.4726057   6.0039043  )
        47           O1  tau(  47) = (   5.2763189   4.4711207   6.0039473  )
        48           C1  tau(  48) = (   6.0696523   3.0631652  18.6664891  )
        49           O1  tau(  49) = (   0.0149881   2.9985468  17.3426271  )
        50           H1  tau(  50) = (   4.9903245   2.8753800  18.6481135  )
        51           H1  tau(  51) = (   6.5502243   2.3063723  19.2898855  )
        52           H1  tau(  52) = (   6.2508803   4.0560215  19.0798806  )

     number of k points=    10  Fermi-Dirac smearing, width (Ry)=  0.0073
                       cart. coord. in units 2pi/alat
        k(    1) = (   0.0000000   0.0000000   0.0000000), wk =   0.1250000
        k(    2) = (   0.0000000   0.0419351   0.0000000), wk =   0.2500000
        k(    3) = (   0.0000000  -0.0838702   0.0000000), wk =   0.1250000
        k(    4) = (   0.0379955   0.0000049   0.0000000), wk =   0.2500000
        k(    5) = (   0.0379955   0.0419400   0.0000000), wk =   0.2500000
        k(    6) = (   0.0379955  -0.0838652   0.0000000), wk =   0.2500000
        k(    7) = (   0.0379955  -0.0419301   0.0000000), wk =   0.2500000
        k(    8) = (  -0.0759910  -0.0000099   0.0000000), wk =   0.1250000
        k(    9) = (  -0.0759910   0.0419252   0.0000000), wk =   0.2500000
        k(   10) = (  -0.0759910  -0.0838800   0.0000000), wk =   0.1250000

     Initial potential from superposition of free atoms

     starting charge  374.99918, renormalised to  391.00000

     negative rho (up, down):  1.819E-02 0.000E+00

     %%%%%%%%%%%%%%%%%%%%%%%%%%%%%%%%%%%%%%%%%%%%%%%%%%%%%%%%%%%%%%%%%%%%%%%%
     %                                                                      %
     % You are using vdW-DF, which was implemented by the Thonhauser group. %
     % Please cite the following two papers that made this development      %
     % possible and the two reviews that describe the various versions:     %
     %                                                                      %
     %   T. Thonhauser et al., PRL 115, 136402 (2015).                      %
     %   T. Thonhauser et al., PRB 76, 125112 (2007).                       %
     %   K. Berland et al., Rep. Prog. Phys. 78, 066501 (2015).             %
     %   D.C. Langreth et al., J. Phys.: Condens. Matter 21, 084203 (2009). %
     %                                                                      %
     %                                                                      %
     % If you are calculating the stress with vdW-DF, please also cite:     %
     %                                                                      %
     %   R. Sabatini et al., J. Phys.: Condens. Matter 24, 424209 (2012).   %
     %                                                                      %
     %%%%%%%%%%%%%%%%%%%%%%%%%%%%%%%%%%%%%%%%%%%%%%%%%%%%%%%%%%%%%%%%%%%%%%%%

     Adding external electric field

     Computed dipole along edir(3) :
        Dipole               -5.5393 Ry au,        -14.0795 Debye
        Dipole field         -0.0105 Ry au,

        Potential amp.        0.9690 Ry
        Total length         46.3494 bohr

     Starting wfcs are  295 atomic wfcs
  @ DRIVER MODE: Message from server: STATUS
  @ DRIVER MODE: Message from server: POSDATA
  @ DRIVER MODE: Reading and sharing cell
  @ DRIVER MODE: Reading and sharing positions
  @ DRIVER MODE: Received positions

     Self-consistent Calculation

     iteration #  1     ecut=    29.40 Ry     beta= 0.05
     Davidson diagonalization with overlap
     c_bands:  3 eigenvalues not converged
     c_bands:  2 eigenvalues not converged
     c_bands:  3 eigenvalues not converged
     c_bands:  2 eigenvalues not converged
     c_bands:  3 eigenvalues not converged
     c_bands:  2 eigenvalues not converged
     c_bands:  1 eigenvalues not converged
     c_bands:  1 eigenvalues not converged
     c_bands:  2 eigenvalues not converged
     ethr =  1.00E-05,  avg # of iterations = 19.7

[...]

     total energy              =   -2791.64021371 Ry
     estimated scf accuracy    <    1532.11735051 Ry

     iteration #  2     ecut=    29.40 Ry     beta= 0.05
     Davidson diagonalization with overlap
     ethr =  1.00E-02,  avg # of iterations = 17.8

[...]

     iteration # 68     ecut=    29.40 Ry     beta= 0.05
     Davidson diagonalization with overlap
     c_bands:  1 eigenvalues not converged
     ethr =  5.86E-11,  avg # of iterations = 14.3

[...]

     total energy              =   -2931.50283367 Ry
     estimated scf accuracy    <       0.00000008 Ry

     iteration # 69     ecut=    29.40 Ry     beta= 0.05
     Davidson diagonalization with overlap
     ethr =  2.09E-11,  avg # of iterations = 10.5

     negative rho (up, down):  1.844E-02 0.000E+00

     Adding external electric field

     Computed dipole along edir(3) :
        Dipole                0.7537 Ry au,          1.9157 Debye
        Dipole field          0.0014 Ry au,

        Potential amp.       -0.1318 Ry
        Total length         46.3494 bohr

     End of self-consistent calculation

          k = 0.0000 0.0000 0.0000 ( 18029 PWs)   bands (ev):

   -55.9537 -55.9390 -55.9170 -55.9028 -55.8384 -55.8340 -55.8127 -55.7830
   -55.7787 -55.7279 -55.7183 -55.7122 -55.6782 -55.5955 -54.9667 -54.9326
   -32.5046 -32.4210 -32.3493 -32.2968 -32.2714 -32.2519 -32.2446 -32.2220
   -32.1907 -32.1782 -32.1582 -32.1528 -32.1494 -32.1196 -32.1143 -32.0924
   -32.0867 -32.0849 -32.0692 -32.0438 -32.0428 -32.0192 -32.0131 -31.9951
   -31.9948 -31.9940 -31.9653 -31.9651 -31.9530 -31.9432 -31.9362 -31.9336
   -31.9261 -31.9141 -31.8886 -31.8859 -31.8769 -31.8557 -31.8201 -31.8145
   -31.7921 -31.7841 -31.3766 -31.2793 -31.2569 -31.1933 -31.1072 -30.9960
   -17.6720 -16.6816 -16.3956 -16.2323 -16.0996 -16.0637 -15.9605 -15.7759
   -15.6373 -15.6198 -15.5558 -15.5168 -15.5015 -15.4753 -15.4716 -15.4583
   -15.4560 -15.4063 -15.3708 -15.3699 -15.3545 -15.3322 -15.2712 -15.2299
   -15.1484 -15.0948 -15.0700 -15.0149 -14.9529 -14.9340 -13.4675 -13.3493
    -9.4963  -4.3878  -4.1469  -4.0403  -3.8843  -3.8639  -3.8382  -3.8152
    -3.7526  -3.5022  -3.4870  -3.1676  -3.1087  -3.0844  -3.0703  -3.0644
    -2.8256  -2.8067  -2.7780  -2.7676  -2.7596  -2.7305  -2.7027  -2.6932
    -2.6696  -2.6535  -2.5556  -2.4774  -2.4690  -2.3610  -2.3152  -2.3038
    -2.2536  -2.2154  -2.2078  -2.1884  -2.1633  -2.1462  -2.1181  -2.1150
    -2.0190  -1.8892  -1.7843  -1.7543  -1.7124  -1.6532  -1.4475  -1.4017
    -1.3667  -1.3532  -1.2959  -1.2635  -1.2555  -1.1810  -1.1433  -1.1267
    -1.0196  -0.9588  -0.9316  -0.9070  -0.8440  -0.8085  -0.7604  -0.6893
    -0.6705  -0.6555  -0.4426  -0.4179  -0.4118  -0.4007  -0.2886  -0.2369
    -0.1810  -0.1697  -0.1577  -0.1267  -0.0552   0.0097   0.0209   0.0430
     0.0759   0.1025   0.1800   0.2068   0.2319   0.2561   0.2898   0.3765
     0.4231   0.5645   0.6938   0.7164   0.8164   0.9596   1.0575   1.1301
     1.2279   1.6470   1.7072   3.2319   3.2512   3.2960   3.3255   3.3840
     3.5053   3.6247   3.6599   3.6948   3.7168

[...]

          k = 0.0380-0.0419 0.0000 ( 17876 PWs)   bands (ev):

[...]

          k =-0.0760-0.0000 0.0000 ( 17886 PWs)   bands (ev):

[...]

          k =-0.0760-0.0839 0.0000 ( 17948 PWs)   bands (ev):

   -55.9422 -55.9284 -55.9211 -55.9205 -55.8332 -55.8311 -55.7962 -55.7954
   -55.7881 -55.7252 -55.7208 -55.6984 -55.6923 -55.5977 -54.9502 -54.9490
   -32.3087 -32.3043 -32.2491 -32.2446 -32.2337 -32.2298 -32.2122 -32.2069
   -32.2033 -32.1605 -32.1396 -32.1326 -32.1287 -32.0915 -32.0826 -32.0769
   -32.0689 -32.0652 -32.0621 -32.0598 -32.0496 -32.0376 -32.0337 -32.0276
   -32.0196 -32.0150 -32.0117 -31.9995 -31.9945 -31.9931 -31.9678 -31.9504
   -31.9482 -31.9451 -31.9387 -31.9220 -31.9192 -31.9080 -31.9021 -31.8902
   -31.8278 -31.7922 -31.2703 -31.2689 -31.1900 -31.1891 -31.1508 -31.1498
   -17.6346 -16.1223 -16.1062 -15.8723 -15.8666 -15.8623 -15.7926 -15.7075
   -15.6878 -15.6724 -15.6666 -15.6118 -15.5976 -15.5859 -15.5250 -15.4871
   -15.4610 -15.4529 -15.4495 -15.4007 -15.3967 -15.3436 -15.3254 -15.3111
   -15.2999 -15.2841 -15.2766 -15.1804 -15.1791 -15.1093 -13.4516 -13.4494
    -9.4970  -4.2550  -4.1157  -3.8880  -3.4125  -3.3945  -3.1132  -3.0809
    -3.0774  -2.9883  -2.9026  -2.8603  -2.8242  -2.7920  -2.7876  -2.7854
    -2.7656  -2.7362  -2.7326  -2.7125  -2.6916  -2.6809  -2.6268  -2.5913
    -2.5828  -2.5807  -2.5691  -2.5401  -2.5239  -2.5023  -2.4936  -2.4841
    -2.4637  -2.3658  -2.2362  -2.2036  -2.0916  -2.0833  -2.0465  -2.0332
    -2.0056  -1.9963  -1.9773  -1.8689  -1.8037  -1.6764  -1.6728  -1.6537
    -1.5964  -1.5270  -1.4558  -1.3874  -1.3652  -1.3500  -1.2526  -1.2407
    -1.1716  -1.1518  -1.0947  -1.0629  -1.0519  -0.9522  -0.9185  -0.9040
    -0.8896  -0.8159  -0.7989  -0.7774  -0.7485  -0.6877  -0.6768  -0.6074
    -0.5727  -0.5286  -0.4651  -0.4409  -0.3925  -0.3035  -0.1267  -0.0467
     0.0561   0.0990   0.1583   0.1712   0.2626   0.3067   0.3215   0.3288
     0.4178   0.4817   0.5097   0.5729   0.5862   0.6121   0.6739   1.4172
     1.4190   1.5096   1.5198   3.4398   3.4704   3.4843   3.5328   3.6920
     3.6972   3.7171   3.7222   3.7957   3.8580

     the Fermi energy is     3.2014 ev

!    total energy              =   -2931.50285059 Ry
     estimated scf accuracy    <       0.00000003 Ry
     smearing contrib. (-TS)   =      -0.02313191 Ry
     internal energy E=F+TS    =   -2931.47971868 Ry

     The total energy is F=E-TS. E is the sum of the following terms:
     one-electron contribution =  -24510.76651466 Ry
     hartree contribution      =   12340.39497356 Ry
     xc contribution           =    -482.05288830 Ry
     ewald contribution        =    9720.94363870 Ry
     electric field correction =       0.00107201 Ry

     convergence has been achieved in  69 iterations

     Forces acting on atoms (cartesian axes, Ry/au):

     atom    1 type  1   force =    -0.00013431   -0.00172352    0.10700893
     atom    2 type  1   force =    -0.00041279    0.00039409   -0.17993965
     atom    3 type  2   force =     0.00029768   -0.00715476   -0.03305246
     atom    4 type  2   force =     0.00067531    0.00051984    0.04595777
     atom    5 type  2   force =    -0.01815011    0.00044202    0.00391462
     atom    6 type  2   force =     0.02137228   -0.00104102    0.00543630
     atom    7 type  1   force =    -0.00015869   -0.00030175   -0.00015893
     atom    8 type  1   force =    -0.00008343   -0.00029687   -0.00176916
     atom    9 type  2   force =    -0.00030427   -0.00018452    0.00032246
     atom   10 type  2   force =    -0.00014387   -0.00053048    0.00016353
     atom   11 type  2   force =    -0.00033635    0.00013942    0.00060646
     atom   12 type  2   force =    -0.00019486    0.00021558    0.00021718
     atom   13 type  1   force =    -0.00018090   -0.00038448   -0.00099910
     atom   14 type  1   force =     0.00028759    0.00022211   -0.00049165
     atom   15 type  2   force =    -0.00014697    0.00018037   -0.00120203
     atom   16 type  2   force =    -0.00039697   -0.00027398   -0.00086012
     atom   17 type  2   force =    -0.00127149    0.00046380   -0.00070184
     atom   18 type  2   force =     0.00015494    0.00021423   -0.00078008
     atom   19 type  1   force =    -0.00012824   -0.00001391    0.00006499
     atom   20 type  1   force =    -0.00078489   -0.00078540    0.00113599
     atom   21 type  2   force =    -0.00005753    0.00009481    0.10425361
     atom   22 type  2   force =     0.00011598    0.00026429   -0.00084243
     atom   23 type  2   force =    -0.06895684    0.00066996   -0.02969557
     atom   24 type  2   force =     0.06866546    0.00114133   -0.02975150
     atom   25 type  1   force =    -0.00011869    0.00159410    0.11781123
     atom   26 type  1   force =    -0.00016370    0.00003128   -0.17998943
     atom   27 type  2   force =     0.00043689    0.00401483   -0.02694615
     atom   28 type  2   force =     0.00078230    0.00082841    0.04758262
     atom   29 type  2   force =    -0.01697056    0.00166676    0.00318566
     atom   30 type  2   force =     0.01945499    0.00118825    0.00453563
     atom   31 type  1   force =    -0.00025773    0.00054031   -0.00020728
     atom   32 type  1   force =    -0.00000933    0.00019049   -0.00097302
     atom   33 type  2   force =    -0.00030310   -0.00006538   -0.00005690
     atom   34 type  2   force =    -0.00012399    0.00070293    0.00049401
     atom   35 type  2   force =    -0.00029945   -0.00002242    0.00014464
     atom   36 type  2   force =    -0.00021398   -0.00003255   -0.00020775
     atom   37 type  1   force =    -0.00012267    0.00061864    0.00082567
     atom   38 type  1   force =     0.00019763   -0.00030658   -0.00049736
     atom   39 type  2   force =    -0.00027552   -0.00021485    0.00031562
     atom   40 type  2   force =    -0.00034349    0.00023880   -0.00034223
     atom   41 type  2   force =    -0.00076801   -0.00010909   -0.00038875
     atom   42 type  2   force =     0.00034799    0.00013817   -0.00060303
     atom   43 type  1   force =    -0.00015603    0.00019796    0.00052059
     atom   44 type  1   force =    -0.00067788    0.00059824    0.00137199
     atom   45 type  2   force =    -0.00006229    0.00006126    0.10429035
     atom   46 type  2   force =    -0.06850324   -0.00129781   -0.02972693
     atom   47 type  2   force =     0.06831800   -0.00086032   -0.02980408
     atom   48 type  3   force =    -0.00078132   -0.00137453   -0.00225231
     atom   49 type  2   force =     0.00035833    0.00045966    0.00019484
     atom   50 type  4   force =     0.00074773   -0.00010240    0.00210713
     atom   51 type  4   force =    -0.00037999   -0.00074652   -0.00054642
     atom   52 type  4   force =     0.00016041   -0.00020882    0.00032433

     Total force =     0.376915     Total SCF correction =     0.000395
  @ DRIVER MODE: Message from server: STATUS
  @ DRIVER MODE: Message from server: GETFORCE
  @ DRIVER MODE: Returning v,forces,stress,ensemble

     Writing output data file ./calc.save/
  @ DRIVER MODE: Message from server: EXIT
  @ DRIVE MODE: Exiting

     General routines

     Parallel routines

   This run was terminated on:  14:12:54  20Sep2021

   JOB DONE.