     Program PWSCF v.6.7GPU starts on 22Sep2021 at 21:15:42

     R & G space division:  proc/nbgrp/npool/nimage =      10
     Reading input from /storage/home/hcoda1/3/ntian30/research/carbon/CxH_vib/H2O_calc/ads_slab/CHNHNHH2O_b/out_0016/pw.inp
Warning: card &CELL ignored
Warning: card   CELL_DYNAMICS='IPI', ignored
Warning: card / ignored

     Current dimensions of program PWSCF are:
     Max number of different atomic species (ntypx) = 10
     Max number of k-points (npk) =  40000
     Max angular momentum in pseudopotentials (lmaxx) =  3
     Presently no symmetry can be used with electric field

     Message from routine cell_base_init:
     DEPRECATED: use true lattice parameter, not A to a.u. conversion factor

     IMPORTANT: XC functional enforced from input :
     Exchange-correlation= BEEF-VDW
                           (   1   4  43  14   2   0   0)
     Any further DFT definition will be discarded
     Please, verify this is what you really want

  @ DRIVER MODE: Connecting to
 qe_1139763_2937311.sched-torque.pace.gatech.eduay6p04ts_scratch
  using UNIX socket
  @ DRIVER MODE: Message from server: STATUS
  @ DRIVER MODE: Message from server: INIT
  @ DRIVER MODE: Receiving replica           0          -1
  @ DRIVER MODE: Receiving encoded integer          25
  @ DRIVER MODE:  SCF:  T  FORCE:  T  STRESS:  F  VC:  F  ENSEMBLE:  F
  @ DRIVER MODE:  SCF:  T  FORCE:  T  STRESS:  F  VC:  F  ENSEMBLE:  F

     Using Slab Decomposition

     bravais-lattice index     =            0
     lattice parameter (alat)  =       1.8897  a.u.
     unit-cell volume          =    6658.9804 (a.u.)^3
     number of atoms/cell      =           56
     number of atomic types    =            5
     number of electrons       =       403.00
     number of Kohn-Sham states=          211
     kinetic-energy cutoff     =      29.3995  Ry
     charge density cutoff     =     293.9946  Ry
     scf convergence threshold =      7.3E-08
     mixing beta               =       0.0500
     number of iterations used =            8  plain     mixing
     Exchange-correlation= BEEF-VDW
                           (   1   4  43  14   2   0   0)

     celldm(1)=   1.889726  celldm(2)=   0.000000  celldm(3)=   0.000000
     celldm(4)=   0.000000  celldm(5)=   0.000000  celldm(6)=   0.000000

     crystal axes: (cart. coord. in units of alat)
               a(1) = (   6.579727   0.000000   0.000000 )
               a(2) = (  -0.000775   5.961596   0.000000 )
               a(3) = (   0.000000   0.000000  25.155947 )

     reciprocal axes: (cart. coord. in units 2 pi/alat)
               b(1) = (  0.151982  0.000020  0.000000 )
               b(2) = (  0.000000  0.167740  0.000000 )
               b(3) = (  0.000000  0.000000  0.039752 )

     PseudoPot. # 1 for Ti read from file:
     /storage/coda1/p-amedford6/0/shared/rich_project_chbe-medford/medford-share/data/pseudos_module/espresso/nninc/pbe/van/Ti.UPF
     MD5 check sum: 8e4df49b7f0d34bbd5052bf3f5ea0213
     Pseudo is Ultrasoft, Zval = 12.0
     Generated by new atomic code, or converted to UPF format
     Using radial grid of  851 points,  6 beta functions with:
                l(1) =   0
                l(2) =   0
                l(3) =   1
                l(4) =   1
                l(5) =   2
                l(6) =   2
     Q(r) pseudized with  8 coefficients,  rinner =    1.000   1.000   1.000
                                                       1.000   1.000

     PseudoPot. # 2 for O  read from file:
     /storage/coda1/p-amedford6/0/shared/rich_project_chbe-medford/medford-share/data/pseudos_module/espresso/nninc/pbe/van/O.UPF
     MD5 check sum: 78c19812648e8988a0fe644b0f25305e
     Pseudo is Ultrasoft, Zval =  6.0
     Generated by new atomic code, or converted to UPF format
     Using radial grid of  737 points,  4 beta functions with:
                l(1) =   0
                l(2) =   0
                l(3) =   1
                l(4) =   1
     Q(r) pseudized with  8 coefficients,  rinner =    0.800   0.800   0.800

     PseudoPot. # 3 for N  read from file:
     /storage/coda1/p-amedford6/0/shared/rich_project_chbe-medford/medford-share/data/pseudos_module/espresso/nninc/pbe/van/N.UPF
     MD5 check sum: 90d10febe142ad51ac9d5be1deb811c4
     Pseudo is Ultrasoft, Zval =  5.0
     Generated by new atomic code, or converted to UPF format
     Using radial grid of  729 points,  4 beta functions with:
                l(1) =   0
                l(2) =   0
                l(3) =   1
                l(4) =   1
     Q(r) pseudized with  8 coefficients,  rinner =    0.800   0.800   0.800

     PseudoPot. # 4 for C  read from file:
     /storage/coda1/p-amedford6/0/shared/rich_project_chbe-medford/medford-share/data/pseudos_module/espresso/nninc/pbe/van/C.UPF
     MD5 check sum: 1a69bf6b8db32088f5b2163dbdb77a27
     Pseudo is Ultrasoft, Zval =  4.0
     Generated by new atomic code, or converted to UPF format
     Using radial grid of  721 points,  4 beta functions with:
                l(1) =   0
                l(2) =   0
                l(3) =   1
                l(4) =   1
     Q(r) pseudized with  8 coefficients,  rinner =    0.800   0.800   0.800

     PseudoPot. # 5 for H  read from file:
     /storage/coda1/p-amedford6/0/shared/rich_project_chbe-medford/medford-share/data/pseudos_module/espresso/nninc/pbe/van/H.UPF
     MD5 check sum: b5ee9d7bfd3a09ee7748110bda690ff7
     Pseudo is Ultrasoft, Zval =  1.0
     Generated by new atomic code, or converted to UPF format
     Using radial grid of  615 points,  1 beta functions with:
                l(1) =   0
     Q(r) pseudized with  8 coefficients,  rinner =    0.800

     atomic species   valence    mass     pseudopotential
        Ti1           12.00    47.86700     Ti( 1.00)
        O1             6.00    15.99900     O ( 1.00)
        N1             5.00    14.00700     N ( 1.00)
        C1             4.00    12.01100     C ( 1.00)
        H1             1.00     1.00800     H ( 1.00)

     No symmetry found

   Cartesian axes

     site n.     atom                  positions (alat units)
         1           Ti1 tau(   1) = (   0.0004258   2.9801865   6.0000000  )
         2           Ti1 tau(   2) = (   3.2906075   1.4906267   6.0002472  )
         3           O1  tau(   3) = (   0.0006271   0.0005054   7.9858123  )
         4           O1  tau(   4) = (   3.2906025   0.0005020   7.3038282  )
         5           O1  tau(   5) = (   4.5942328   1.4918067   9.2879030  )
         6           O1  tau(   6) = (   1.9868534   1.4903216   9.2879459  )
         7           Ti1 tau(   7) = (   3.2907910   2.8959150   9.1758416  )
         8           Ti1 tau(   8) = (   0.0015273   1.4827037   9.2680791  )
         9           O1  tau(   9) = (   3.2780774   5.9605562  11.3537357  )
        10           O1  tau(  10) = (   0.0116148   5.9584955  10.6183126  )
        11           O1  tau(  11) = (   1.2922713   1.4781662  12.6511241  )
        12           O1  tau(  12) = (   5.2965393   1.5043564  12.6031353  )
        13           Ti1 tau(  13) = (   6.5273184   3.0207086  12.5807821  )
        14           Ti1 tau(  14) = (   3.2344070   1.4559942  12.5004267  )
        15           O1  tau(  15) = (   6.4759410   0.0295824  14.6525783  )
        16           O1  tau(  16) = (   3.3604338   0.0238249  13.9383540  )
        17           O1  tau(  17) = (   4.5324113   1.5808541  16.1066768  )
        18           O1  tau(  18) = (   1.9684897   1.4712893  15.8817925  )
        19           Ti1 tau(  19) = (   3.2566353   3.0739815  15.8599551  )
        20           Ti1 tau(  20) = (   6.5466614   1.5318677  15.7800735  )
        21           O1  tau(  21) = (   3.2904802   0.0005063   4.7018136  )
        22           O1  tau(  22) = (   6.5744325   0.0155309  17.2227980  )
        23           O1  tau(  23) = (   1.3043587   1.4918075   6.0039043  )
        24           O1  tau(  24) = (   5.2767064   1.4903225   6.0039473  )
        25           Ti1 tau(  25) = (   0.0000382   5.9609847   6.0000000  )
        26           Ti1 tau(  26) = (   3.2902200   4.4714249   6.0002472  )
        27           O1  tau(  27) = (   0.0002396   2.9813036   7.9858123  )
        28           O1  tau(  28) = (   3.2902150   2.9813002   7.3038282  )
        29           O1  tau(  29) = (   4.5938453   4.4726049   9.2879030  )
        30           O1  tau(  30) = (   1.9864658   4.4711199   9.2879459  )
        31           Ti1 tau(  31) = (   3.2891106   5.8743827   9.1763621  )
        32           Ti1 tau(  32) = (   0.0006254   4.4649316   9.2693709  )
        33           O1  tau(  33) = (   3.2727763   2.9788165  11.3438337  )
        34           O1  tau(  34) = (   0.0092240   2.9805883  10.6323155  )
        35           O1  tau(  35) = (   1.2865780   4.4896361  12.6556599  )
        36           O1  tau(  36) = (   5.2967437   4.4749066  12.6066920  )
        37           Ti1 tau(  37) = (   6.5467059   0.0356701  12.5108493  )
        38           Ti1 tau(  38) = (   3.2305653   4.4019604  12.5605372  )
        39           O1  tau(  39) = (   6.5199767   2.9846217  14.6905747  )
        40           O1  tau(  40) = (   3.2851694   3.0254550  13.9321539  )
        41           O1  tau(  41) = (   4.5310495   4.4602642  16.1636806  )
        42           O1  tau(  42) = (   1.9842988   4.5744318  15.9411167  )
        43           Ti1 tau(  43) = (   3.2691225   0.1036042  15.7405456  )
        44           Ti1 tau(  44) = (   6.5697781   4.6877429  16.0360384  )
        45           O1  tau(  45) = (   3.2900926   2.9813045   4.7018136  )
        46           O1  tau(  46) = (   1.3039711   4.4726057   6.0039043  )
        47           O1  tau(  47) = (   5.2763189   4.4711207   6.0039473  )
        48           N1  tau(  48) = (   1.2792381   2.8578196  18.3696018  )
        49           N1  tau(  49) = (   0.1888888   2.9646215  17.5057353  )
        50           C1  tau(  50) = (   2.5352320   2.9181513  18.0382144  )
        51           H1  tau(  51) = (   3.1442446   2.7411670  18.9317345  )
        52           H1  tau(  52) = (   1.0014291   2.6635404  19.3302151  )
        53           H1  tau(  53) = (   5.9397212   2.8571719  18.0851170  )
        54           O1  tau(  54) = (   3.2630597   0.0341043  18.2348460  )
        55           H1  tau(  55) = (   4.0455299   5.4198958  18.2485053  )
        56           H1  tau(  56) = (   2.4923979   5.4091459  18.3156537  )

     number of k points=    10  Fermi-Dirac smearing, width (Ry)=  0.0073
                       cart. coord. in units 2pi/alat
        k(    1) = (   0.0000000   0.0000000   0.0000000), wk =   0.1250000
        k(    2) = (   0.0000000   0.0419351   0.0000000), wk =   0.2500000
        k(    3) = (   0.0000000  -0.0838702   0.0000000), wk =   0.1250000
        k(    4) = (   0.0379955   0.0000049   0.0000000), wk =   0.2500000
        k(    5) = (   0.0379955   0.0419400   0.0000000), wk =   0.2500000
        k(    6) = (   0.0379955  -0.0838652   0.0000000), wk =   0.2500000
        k(    7) = (   0.0379955  -0.0419301   0.0000000), wk =   0.2500000
        k(    8) = (  -0.0759910  -0.0000099   0.0000000), wk =   0.1250000
        k(    9) = (  -0.0759910   0.0419252   0.0000000), wk =   0.2500000
        k(   10) = (  -0.0759910  -0.0838800   0.0000000), wk =   0.1250000

     Initial potential from superposition of free atoms

     starting charge  386.99914, renormalised to  403.00000

     negative rho (up, down):  1.738E-02 0.000E+00

     %%%%%%%%%%%%%%%%%%%%%%%%%%%%%%%%%%%%%%%%%%%%%%%%%%%%%%%%%%%%%%%%%%%%%%%%
     %                                                                      %
     % You are using vdW-DF, which was implemented by the Thonhauser group. %
     % Please cite the following two papers that made this development      %
     % possible and the two reviews that describe the various versions:     %
     %                                                                      %
     %   T. Thonhauser et al., PRL 115, 136402 (2015).                      %
     %   T. Thonhauser et al., PRB 76, 125112 (2007).                       %
     %   K. Berland et al., Rep. Prog. Phys. 78, 066501 (2015).             %
     %   D.C. Langreth et al., J. Phys.: Condens. Matter 21, 084203 (2009). %
     %                                                                      %
     %                                                                      %
     % If you are calculating the stress with vdW-DF, please also cite:     %
     %                                                                      %
     %   R. Sabatini et al., J. Phys.: Condens. Matter 24, 424209 (2012).   %
     %                                                                      %
     %%%%%%%%%%%%%%%%%%%%%%%%%%%%%%%%%%%%%%%%%%%%%%%%%%%%%%%%%%%%%%%%%%%%%%%%

     Adding external electric field

     Computed dipole along edir(3) :
        Dipole              -12.3463 Ry au,        -31.3811 Debye
        Dipole field         -0.0233 Ry au,

        Potential amp.        2.1598 Ry
        Total length         46.3494 bohr

     Starting wfcs are  305 atomic wfcs
  @ DRIVER MODE: Message from server: STATUS
  @ DRIVER MODE: Message from server: POSDATA
  @ DRIVER MODE: Reading and sharing cell
  @ DRIVER MODE: Reading and sharing positions
  @ DRIVER MODE: Received positions

     Self-consistent Calculation

     iteration #  1     ecut=    29.40 Ry     beta= 0.05
     Davidson diagonalization with overlap
     c_bands:  5 eigenvalues not converged
     c_bands:  3 eigenvalues not converged
     c_bands:  3 eigenvalues not converged
     c_bands:  1 eigenvalues not converged
     c_bands:  2 eigenvalues not converged
     c_bands:  2 eigenvalues not converged
     c_bands:  5 eigenvalues not converged
     c_bands:  2 eigenvalues not converged
     c_bands:  4 eigenvalues not converged
     ethr =  1.00E-05,  avg # of iterations = 29.3

[...]

     total energy              =   -2358.73176904 Ry
     estimated scf accuracy    <    6971.28828636 Ry

     iteration #  2     ecut=    29.40 Ry     beta= 0.05
     Davidson diagonalization with overlap
     ethr =  1.00E-02,  avg # of iterations = 25.9

[...]

     iteration # 80     ecut=    29.40 Ry     beta= 0.05
     Davidson diagonalization with overlap
     c_bands:  2 eigenvalues not converged
     ethr =  1.11E-10,  avg # of iterations = 13.7

[...]

     total energy              =   -2973.94007388 Ry
     estimated scf accuracy    <       0.00000009 Ry

     iteration # 82     ecut=    29.40 Ry     beta= 0.05
     Davidson diagonalization with overlap
     ethr =  2.23E-11,  avg # of iterations = 12.3

     negative rho (up, down):  1.725E-02 0.000E+00

     Adding external electric field

     Computed dipole along edir(3) :
        Dipole                1.3979 Ry au,          3.5532 Debye
        Dipole field          0.0026 Ry au,

        Potential amp.       -0.2445 Ry
        Total length         46.3494 bohr

     End of self-consistent calculation

          k = 0.0000 0.0000 0.0000 ( 18029 PWs)   bands (ev):

   -55.3206 -55.2865 -55.2112 -55.1867 -55.1683 -55.1568 -55.1416 -55.1196
   -55.1077 -55.1052 -55.0987 -55.0641 -54.9934 -54.8342 -54.3008 -54.2668
   -31.8048 -31.7321 -31.6578 -31.6512 -31.6414 -31.6123 -31.5883 -31.5656
   -31.5208 -31.5021 -31.4730 -31.4650 -31.4565 -31.4417 -31.4266 -31.4226
   -31.3993 -31.3812 -31.3779 -31.3660 -31.3362 -31.3342 -31.3300 -31.3270
   -31.3240 -31.3203 -31.3163 -31.2981 -31.2901 -31.2803 -31.2735 -31.2727
   -31.2631 -31.2616 -31.2530 -31.2494 -31.2414 -31.2160 -31.2112 -31.0907
   -31.0754 -31.0501 -30.7077 -30.6197 -30.5972 -30.5246 -30.4381 -30.3269
   -18.8750 -18.6518 -15.9788 -15.7949 -15.6137 -15.4749 -15.3929 -15.1613
   -15.1029 -15.0644 -14.9832 -14.9601 -14.8600 -14.8411 -14.8394 -14.8214
   -14.8185 -14.7634 -14.7482 -14.7438 -14.6952 -14.6885 -14.6631 -14.6477
   -14.5946 -14.5165 -14.5077 -14.4615 -14.4162 -14.3697 -14.0235 -13.4112
   -12.8018 -12.6853  -8.8068  -7.2678  -6.6145  -4.3121  -3.7887  -3.3617
    -3.2849  -3.2503  -3.2254  -3.0894  -2.9727  -2.8657  -2.7567  -2.6718
    -2.5857  -2.4813  -2.4244  -2.3791  -2.3183  -2.2586  -2.2324  -2.1467
    -2.1269  -2.1073  -2.0855  -2.0590  -2.0295  -1.9919  -1.8699  -1.8592
    -1.7771  -1.7208  -1.6818  -1.6644  -1.6406  -1.6348  -1.6010  -1.5819
    -1.5734  -1.5616  -1.5602  -1.5248  -1.3861  -1.3620  -1.3333  -1.3110
    -1.1643  -1.0266  -0.9378  -0.9355  -0.8261  -0.7613  -0.7582  -0.7198
    -0.7042  -0.6017  -0.5164  -0.4799  -0.4551  -0.3754  -0.3180  -0.2637
    -0.2119  -0.1760  -0.1100  -0.0857  -0.0696  -0.0526   0.0166   0.0792
     0.1404   0.2260   0.2692   0.2933   0.3844   0.3989   0.4207   0.4863
     0.5182   0.5632   0.5985   0.6276   0.6513   0.6818   0.7070   0.7500
     0.7884   0.9139   0.9324   0.9604   0.9817   1.1562   1.2059   1.3066
     1.3389   1.4403   1.4829   1.6617   1.7230   1.8023   1.9149   2.2930
     2.3388   3.7885   3.8997   3.9339   3.9591   3.9983   4.0496   4.2562
     4.3292   4.3705   4.4273

[...]

          k = 0.0380-0.0419 0.0000 ( 17876 PWs)   bands (ev):

[...]

          k =-0.0760-0.0000 0.0000 ( 17886 PWs)   bands (ev):

[...]

          k =-0.0760-0.0839 0.0000 ( 17948 PWs)   bands (ev):

   -55.3038 -55.3031 -55.2017 -55.1834 -55.1770 -55.1454 -55.1314 -55.1247
   -55.1240 -55.1088 -55.0855 -55.0774 -54.9916 -54.8358 -54.2837 -54.2837
   -31.6203 -31.6198 -31.5980 -31.5975 -31.5664 -31.5344 -31.5032 -31.4907
   -31.4840 -31.4686 -31.4502 -31.4447 -31.4409 -31.4314 -31.4265 -31.4246
   -31.4233 -31.4229 -31.4177 -31.4019 -31.3909 -31.3770 -31.3661 -31.3639
   -31.3590 -31.3545 -31.3454 -31.3328 -31.3270 -31.3255 -31.3103 -31.3011
   -31.2979 -31.2970 -31.2952 -31.2927 -31.2624 -31.2347 -31.2207 -31.1470
   -31.0929 -31.0783 -30.6100 -30.6099 -30.5205 -30.5204 -30.4815 -30.4814
   -18.8642 -18.6583 -15.3562 -15.3210 -15.2831 -15.2559 -15.2397 -15.1189
   -15.1048 -15.0694 -15.0277 -15.0147 -14.9844 -14.9557 -14.9069 -14.8984
   -14.8643 -14.8448 -14.8056 -14.7791 -14.7598 -14.7555 -14.7387 -14.7171
   -14.6734 -14.6517 -14.6392 -14.6349 -14.5831 -14.4886 -14.2087 -13.4338
   -12.7871 -12.7870  -8.8026  -7.1932  -6.6155  -4.5207  -3.5724  -2.8631
    -2.6697  -2.6318  -2.5789  -2.4892  -2.4421  -2.3201  -2.3134  -2.2908
    -2.2456  -2.2325  -2.1915  -2.1516  -2.1456  -2.1178  -2.1054  -2.0607
    -2.0495  -2.0463  -2.0320  -1.9980  -1.9929  -1.9725  -1.9482  -1.9450
    -1.9346  -1.9185  -1.8853  -1.8783  -1.8510  -1.8318  -1.6808  -1.6063
    -1.5640  -1.4866  -1.4635  -1.4467  -1.4276  -1.3929  -1.3728  -1.3470
    -1.3188  -1.1728  -1.0309  -0.9975  -0.9725  -0.8744  -0.8590  -0.8397
    -0.7928  -0.7512  -0.7155  -0.6570  -0.6488  -0.6021  -0.5812  -0.4611
    -0.4236  -0.3242  -0.2891  -0.2875  -0.2694  -0.2549  -0.2376  -0.2117
    -0.1620  -0.0911  -0.0756  -0.0270  -0.0032  -0.0005   0.0126   0.1587
     0.2291   0.2501   0.3522   0.3821   0.5571   0.7211   0.7327   0.8010
     0.8637   0.9185   0.9526   0.9924   1.0022   1.0667   1.0944   1.1970
     1.2080   1.2569   1.2615   1.3408   1.3531   2.0867   2.0884   2.1587
     2.1589   4.1526   4.1667   4.1963   4.2594   4.3026   4.3141   4.3520
     4.3556   4.4584   4.4746

     the Fermi energy is     3.8066 ev

!    total energy              =   -2973.94009520 Ry
     estimated scf accuracy    <       0.00000007 Ry
     smearing contrib. (-TS)   =      -0.02072441 Ry
     internal energy E=F+TS    =   -2973.91937078 Ry

     The total energy is F=E-TS. E is the sum of the following terms:
     one-electron contribution =  -24338.95645225 Ry
     hartree contribution      =   12267.17821094 Ry
     xc contribution           =    -494.11612242 Ry
     ewald contribution        =    9591.97130503 Ry
     electric field correction =       0.00368792 Ry

     convergence has been achieved in  82 iterations

     Forces acting on atoms (cartesian axes, Ry/au):

     atom    1 type  1   force =     0.00002631   -0.00010012    0.09507550
     atom    2 type  1   force =     0.00017780   -0.00068995   -0.17563840
     atom    3 type  2   force =     0.00008839   -0.00004837   -0.02294871
     atom    4 type  2   force =     0.00001943   -0.00143172    0.05289443
     atom    5 type  2   force =    -0.01000499   -0.00031890    0.00379812
     atom    6 type  2   force =     0.01112525    0.00019732    0.00205311
     atom    7 type  1   force =    -0.00021442    0.00177900   -0.00588374
     atom    8 type  1   force =     0.00081159    0.01008632    0.01605496
     atom    9 type  2   force =    -0.00015853    0.00087536    0.00029521
     atom   10 type  2   force =    -0.00227036    0.00217575   -0.01803324
     atom   11 type  2   force =     0.00023841   -0.00003522    0.00008508
     atom   12 type  2   force =    -0.00035576   -0.00018841    0.00056204
     atom   13 type  1   force =    -0.00002306    0.00126344    0.00020361
     atom   14 type  1   force =    -0.00010955    0.00007696    0.00001265
     atom   15 type  2   force =     0.00010946    0.00028394   -0.00002576
     atom   16 type  2   force =    -0.00036513    0.00044651   -0.00026957
     atom   17 type  2   force =    -0.00021954   -0.00012966    0.00009298
     atom   18 type  2   force =     0.00013722    0.00041221    0.00078994
     atom   19 type  1   force =    -0.00049380    0.00079820   -0.00040696
     atom   20 type  1   force =    -0.00028163   -0.00018624    0.00013301
     atom   21 type  2   force =     0.00009042   -0.00008499    0.10317719
     atom   22 type  2   force =     0.00037821    0.00001395    0.00054497
     atom   23 type  2   force =    -0.07158490   -0.00016959   -0.02756029
     atom   24 type  2   force =     0.07154303    0.00024539   -0.02760840
     atom   25 type  1   force =     0.00023466   -0.00038761    0.09517678
     atom   26 type  1   force =    -0.00003642   -0.00020757   -0.17580261
     atom   27 type  2   force =     0.00012353   -0.00012476   -0.02197020
     atom   28 type  2   force =     0.00001471   -0.00139862    0.05321975
     atom   29 type  2   force =    -0.01034714   -0.00022887    0.00363970
     atom   30 type  2   force =     0.01138331    0.00042324    0.00190720
     atom   31 type  1   force =    -0.00029912    0.00266614   -0.00008797
     atom   32 type  1   force =     0.00067485   -0.01114250    0.01693658
     atom   33 type  2   force =     0.00037311   -0.00028273   -0.00002870
     atom   34 type  2   force =    -0.00033730    0.00143735   -0.01896568
     atom   35 type  2   force =    -0.00002140   -0.00034592   -0.00016412
     atom   36 type  2   force =     0.00000346   -0.00023894    0.00044189
     atom   37 type  1   force =    -0.00005319   -0.00123838    0.00036406
     atom   38 type  1   force =    -0.00039504    0.00088957    0.00008803
     atom   39 type  2   force =     0.00009083    0.00006551    0.00008791
     atom   40 type  2   force =    -0.00048197   -0.00055491   -0.00002882
     atom   41 type  2   force =     0.00026668   -0.00010910    0.00016333
     atom   42 type  2   force =    -0.00040104    0.00002566   -0.00067873
     atom   43 type  1   force =    -0.00028919   -0.00040014    0.00054061
     atom   44 type  1   force =     0.00010624   -0.00031034    0.00019103
     atom   45 type  2   force =     0.00010105   -0.00010408    0.10320181
     atom   46 type  2   force =    -0.07156989   -0.00016791   -0.02755278
     atom   47 type  2   force =     0.07157114    0.00024687   -0.02756364
     atom   48 type  3   force =     0.00043233    0.00123892   -0.00052186
     atom   49 type  3   force =     0.00011734    0.00010590    0.00018964
     atom   50 type  4   force =     0.00050085   -0.00419244    0.00269709
     atom   51 type  5   force =    -0.00087805    0.00080268   -0.00159388
     atom   52 type  5   force =     0.00022617   -0.00151955   -0.00093735
     atom   53 type  5   force =     0.00012555   -0.00044912   -0.00061453
     atom   54 type  2   force =    -0.00000889    0.00132538   -0.00013386
     atom   55 type  5   force =     0.00009699   -0.00025095    0.00000385
     atom   56 type  5   force =     0.00001198   -0.00084399    0.00039775

     Total force =     0.365214     Total SCF correction =     0.000630
  @ DRIVER MODE: Message from server: STATUS
  @ DRIVER MODE: Message from server: GETFORCE
  @ DRIVER MODE: Returning v,forces,stress,ensemble

     Writing output data file ./calc.save/
  @ DRIVER MODE: Message from server: EXIT
  @ DRIVE MODE: Exiting

     General routines

     Parallel routines

   This run was terminated on:  21:38:41  22Sep2021

   JOB DONE.