     Program PWSCF v.6.7GPU starts on 16Jul2021 at 12:27:55

     R & G space division:  proc/nbgrp/npool/nimage =      16
     Reading input from /storage/home/hcoda1/3/ntian30/research/carbon/15Jul_vib/ads_slab/CH3N2_b/out_0033/pw.inp
Warning: card &CELL ignored
Warning: card   CELL_DYNAMICS='IPI', ignored
Warning: card / ignored

     Current dimensions of program PWSCF are:
     Max number of different atomic species (ntypx) = 10
     Max number of k-points (npk) =  40000
     Max angular momentum in pseudopotentials (lmaxx) =  3
     Presently no symmetry can be used with electric field

     Message from routine cell_base_init:
     DEPRECATED: use true lattice parameter, not A to a.u. conversion factor

     IMPORTANT: XC functional enforced from input :
     Exchange-correlation= BEEF-VDW
                           (   1   4  43  14   2   0   0)
     Any further DFT definition will be discarded
     Please, verify this is what you really want

  @ DRIVER MODE: Connecting to
 qe_1139763_2351645.sched-torque.pace.gatech.educo3ehknl_scratch
  using UNIX socket
  @ DRIVER MODE: Message from server: STATUS
  @ DRIVER MODE: Message from server: INIT
  @ DRIVER MODE: Receiving replica           0          -1
  @ DRIVER MODE: Receiving encoded integer          25
  @ DRIVER MODE:  SCF:  T  FORCE:  T  STRESS:  F  VC:  F  ENSEMBLE:  F
  @ DRIVER MODE:  SCF:  T  FORCE:  T  STRESS:  F  VC:  F  ENSEMBLE:  F

     Using Slab Decomposition

     bravais-lattice index     =            0
     lattice parameter (alat)  =       1.8897  a.u.
     unit-cell volume          =    6658.9804 (a.u.)^3
     number of atoms/cell      =           53
     number of atomic types    =            5
     number of electrons       =       395.00
     number of Kohn-Sham states=          207
     kinetic-energy cutoff     =      29.3995  Ry
     charge density cutoff     =     293.9946  Ry
     scf convergence threshold =      7.3E-08
     mixing beta               =       0.0500
     number of iterations used =            8  plain     mixing
     Exchange-correlation= BEEF-VDW
                           (   1   4  43  14   2   0   0)

     celldm(1)=   1.889726  celldm(2)=   0.000000  celldm(3)=   0.000000
     celldm(4)=   0.000000  celldm(5)=   0.000000  celldm(6)=   0.000000

     crystal axes: (cart. coord. in units of alat)
               a(1) = (   6.579727   0.000000   0.000000 )
               a(2) = (  -0.000775   5.961596   0.000000 )
               a(3) = (   0.000000   0.000000  25.155947 )

     reciprocal axes: (cart. coord. in units 2 pi/alat)
               b(1) = (  0.151982  0.000020  0.000000 )
               b(2) = (  0.000000  0.167740  0.000000 )
               b(3) = (  0.000000  0.000000  0.039752 )

     PseudoPot. # 1 for Ti read from file:
     /storage/coda1/p-amedford6/0/shared/rich_project_chbe-medford/medford-share/data/pseudos_module/espresso/nninc/pbe/van/Ti.UPF
     MD5 check sum: 8e4df49b7f0d34bbd5052bf3f5ea0213
     Pseudo is Ultrasoft, Zval = 12.0
     Generated by new atomic code, or converted to UPF format
     Using radial grid of  851 points,  6 beta functions with:
                l(1) =   0
                l(2) =   0
                l(3) =   1
                l(4) =   1
                l(5) =   2
                l(6) =   2
     Q(r) pseudized with  8 coefficients,  rinner =    1.000   1.000   1.000
                                                       1.000   1.000

     PseudoPot. # 2 for O  read from file:
     /storage/coda1/p-amedford6/0/shared/rich_project_chbe-medford/medford-share/data/pseudos_module/espresso/nninc/pbe/van/O.UPF
     MD5 check sum: 78c19812648e8988a0fe644b0f25305e
     Pseudo is Ultrasoft, Zval =  6.0
     Generated by new atomic code, or converted to UPF format
     Using radial grid of  737 points,  4 beta functions with:
                l(1) =   0
                l(2) =   0
                l(3) =   1
                l(4) =   1
     Q(r) pseudized with  8 coefficients,  rinner =    0.800   0.800   0.800

     PseudoPot. # 3 for N  read from file:
     /storage/coda1/p-amedford6/0/shared/rich_project_chbe-medford/medford-share/data/pseudos_module/espresso/nninc/pbe/van/N.UPF
     MD5 check sum: 90d10febe142ad51ac9d5be1deb811c4
     Pseudo is Ultrasoft, Zval =  5.0
     Generated by new atomic code, or converted to UPF format
     Using radial grid of  729 points,  4 beta functions with:
                l(1) =   0
                l(2) =   0
                l(3) =   1
                l(4) =   1
     Q(r) pseudized with  8 coefficients,  rinner =    0.800   0.800   0.800

     PseudoPot. # 4 for C  read from file:
     /storage/coda1/p-amedford6/0/shared/rich_project_chbe-medford/medford-share/data/pseudos_module/espresso/nninc/pbe/van/C.UPF
     MD5 check sum: 1a69bf6b8db32088f5b2163dbdb77a27
     Pseudo is Ultrasoft, Zval =  4.0
     Generated by new atomic code, or converted to UPF format
     Using radial grid of  721 points,  4 beta functions with:
                l(1) =   0
                l(2) =   0
                l(3) =   1
                l(4) =   1
     Q(r) pseudized with  8 coefficients,  rinner =    0.800   0.800   0.800

     PseudoPot. # 5 for H  read from file:
     /storage/coda1/p-amedford6/0/shared/rich_project_chbe-medford/medford-share/data/pseudos_module/espresso/nninc/pbe/van/H.UPF
     MD5 check sum: b5ee9d7bfd3a09ee7748110bda690ff7
     Pseudo is Ultrasoft, Zval =  1.0
     Generated by new atomic code, or converted to UPF format
     Using radial grid of  615 points,  1 beta functions with:
                l(1) =   0
     Q(r) pseudized with  8 coefficients,  rinner =    0.800

     atomic species   valence    mass     pseudopotential
        Ti1           12.00    47.86700     Ti( 1.00)
        O1             6.00    15.99900     O ( 1.00)
        N1             5.00    14.00700     N ( 1.00)
        C1             4.00    12.01100     C ( 1.00)
        H1             1.00     1.00800     H ( 1.00)

     Starting magnetic structure
     atomic species   magnetization
        Ti1          0.000
        O1           0.000
        N1           0.000
        C1           0.025
        H1           0.000

     No symmetry found

   Cartesian axes

     site n.     atom                  positions (alat units)
         1           Ti1 tau(   1) = (   0.0004258   2.9801865   6.0000000  )
         2           Ti1 tau(   2) = (   3.2906075   1.4906267   6.0002472  )
         3           O1  tau(   3) = (   0.0006271   0.0005054   7.9858123  )
         4           O1  tau(   4) = (   3.2906025   0.0005020   7.3038282  )
         5           O1  tau(   5) = (   4.5942328   1.4918067   9.2879030  )
         6           O1  tau(   6) = (   1.9868534   1.4903216   9.2879459  )
         7           Ti1 tau(   7) = (   3.2907910   2.8959150   9.1758416  )
         8           Ti1 tau(   8) = (   0.0015273   1.4827037   9.2680791  )
         9           O1  tau(   9) = (   3.3037365   0.0094216  11.3222111  )
        10           O1  tau(  10) = (   0.0116148   5.9584955  10.6183126  )
        11           O1  tau(  11) = (   1.3152514   1.5075076  12.6320051  )
        12           O1  tau(  12) = (   5.3186361   1.4995162  12.6508707  )
        13           Ti1 tau(  13) = (   6.5540705   2.9956815  12.5884341  )
        14           Ti1 tau(  14) = (   3.2234832   1.4927074  12.4921739  )
        15           O1  tau(  15) = (   0.0610261   5.9052480  14.6017706  )
        16           O1  tau(  16) = (   3.2936532   0.0132264  13.8830087  )
        17           O1  tau(  17) = (   4.5722397   1.5061520  16.0138922  )
        18           O1  tau(  18) = (   2.0767725   1.5295127  16.0808449  )
        19           Ti1 tau(  19) = (   3.3650854   3.0251465  15.6907462  )
        20           Ti1 tau(  20) = (   0.0387768   1.3037779  15.7216176  )
        21           O1  tau(  21) = (   3.2904802   0.0005063   4.7018136  )
        22           O1  tau(  22) = (   0.0189486   0.1070799  17.1824039  )
        23           O1  tau(  23) = (   1.3043587   1.4918075   6.0039043  )
        24           O1  tau(  24) = (   5.2767064   1.4903225   6.0039473  )
        25           Ti1 tau(  25) = (   0.0000382   5.9609847   6.0000000  )
        26           Ti1 tau(  26) = (   3.2902200   4.4714249   6.0002472  )
        27           O1  tau(  27) = (   0.0002396   2.9813036   7.9858123  )
        28           O1  tau(  28) = (   3.2902150   2.9813002   7.3038282  )
        29           O1  tau(  29) = (   4.5938453   4.4726049   9.2879030  )
        30           O1  tau(  30) = (   1.9864658   4.4711199   9.2879459  )
        31           Ti1 tau(  31) = (   3.2891106   5.8743827   9.1763621  )
        32           Ti1 tau(  32) = (   0.0006254   4.4649316   9.2693709  )
        33           O1  tau(  33) = (   3.3043114   2.9829305  11.3227053  )
        34           O1  tau(  34) = (   0.0092240   2.9805883  10.6323155  )
        35           O1  tau(  35) = (   1.3131995   4.4620516  12.6081187  )
        36           O1  tau(  36) = (   5.3117129   4.4692194  12.6284301  )
        37           Ti1 tau(  37) = (   6.5303063   5.9583428  12.5400172  )
        38           Ti1 tau(  38) = (   3.2255477   4.4746212  12.4748647  )
        39           O1  tau(  39) = (   0.0377805   3.0059521  14.8845374  )
        40           O1  tau(  40) = (   3.3120027   2.9986483  13.8863452  )
        41           O1  tau(  41) = (   4.5434534   4.5277214  16.0148975  )
        42           O1  tau(  42) = (   2.1165747   4.4940517  16.0783766  )
        43           Ti1 tau(  43) = (   3.3042555   0.0241951  15.7004812  )
        44           Ti1 tau(  44) = (   0.0495666   4.4505358  16.3362958  )
        45           O1  tau(  45) = (   3.2900926   2.9813045   4.7018136  )
        46           O1  tau(  46) = (   1.3039711   4.4726057   6.0039043  )
        47           O1  tau(  47) = (   5.2763189   4.4711207   6.0039473  )
        48           N1  tau(  48) = (   0.5348212   3.4288502  18.0689430  )
        49           C1  tau(  49) = (   1.3556880   3.0079929  19.2215664  )
        50           H1  tau(  50) = (   1.4862090   3.8900195  19.8496782  )
        51           H1  tau(  51) = (   0.8469181   2.2141957  19.7647163  )
        52           H1  tau(  52) = (   2.3296892   2.6851793  18.8624704  )
        53           N1  tau(  53) = (   5.9145885   3.2536146  17.9655992  )

     number of k points=    10  Fermi-Dirac smearing, width (Ry)=  0.0073
                       cart. coord. in units 2pi/alat
        k(    1) = (   0.0000000   0.0000000   0.0000000), wk =   0.0625000
        k(    2) = (   0.0000000   0.0419351   0.0000000), wk =   0.1250000
        k(    3) = (   0.0000000  -0.0838702   0.0000000), wk =   0.0625000
        k(    4) = (   0.0379955   0.0000049   0.0000000), wk =   0.1250000
        k(    5) = (   0.0379955   0.0419400   0.0000000), wk =   0.1250000
        k(    6) = (   0.0379955  -0.0838652   0.0000000), wk =   0.1250000
        k(    7) = (   0.0379955  -0.0419301   0.0000000), wk =   0.1250000
        k(    8) = (  -0.0759910  -0.0000099   0.0000000), wk =   0.0625000
[...]

     Initial potential from superposition of free atoms

     starting charge  378.99916, renormalised to  395.00000

     negative rho (up, down):  8.045E-03 8.052E-03

     %%%%%%%%%%%%%%%%%%%%%%%%%%%%%%%%%%%%%%%%%%%%%%%%%%%%%%%%%%%%%%%%%%%%%%%%
     %                                                                      %
     % You are using vdW-DF, which was implemented by the Thonhauser group. %
     % Please cite the following two papers that made this development      %
     % possible and the two reviews that describe the various versions:     %
     %                                                                      %
     %   T. Thonhauser et al., PRL 115, 136402 (2015).                      %
     %   T. Thonhauser et al., PRB 76, 125112 (2007).                       %
     %   K. Berland et al., Rep. Prog. Phys. 78, 066501 (2015).             %
     %   D.C. Langreth et al., J. Phys.: Condens. Matter 21, 084203 (2009). %
     %                                                                      %
     %                                                                      %
     % If you are calculating the stress with vdW-DF, please also cite:     %
     %                                                                      %
     %   R. Sabatini et al., J. Phys.: Condens. Matter 24, 424209 (2012).   %
     %                                                                      %
     %%%%%%%%%%%%%%%%%%%%%%%%%%%%%%%%%%%%%%%%%%%%%%%%%%%%%%%%%%%%%%%%%%%%%%%%

     Adding external electric field

     Computed dipole along edir(3) :
        Dipole               -8.5786 Ry au,        -21.8047 Debye
        Dipole field         -0.0162 Ry au,

        Potential amp.        1.5007 Ry
        Total length         46.3494 bohr

[...]

     Starting wfcs are  299 atomic wfcs
  @ DRIVER MODE: Message from server: STATUS
  @ DRIVER MODE: Message from server: POSDATA
  @ DRIVER MODE: Reading and sharing cell
  @ DRIVER MODE: Reading and sharing positions
  @ DRIVER MODE: Received positions

     Self-consistent Calculation

     iteration #  1     ecut=    29.40 Ry     beta= 0.05
     Davidson diagonalization with overlap
     c_bands:  1 eigenvalues not converged
     c_bands:  1 eigenvalues not converged
     c_bands:  1 eigenvalues not converged
     c_bands:  3 eigenvalues not converged
     c_bands:  1 eigenvalues not converged
     c_bands:  3 eigenvalues not converged
     c_bands:  1 eigenvalues not converged
     c_bands:  2 eigenvalues not converged
     c_bands:  1 eigenvalues not converged
     c_bands:  1 eigenvalues not converged
     c_bands:  1 eigenvalues not converged
     c_bands:  3 eigenvalues not converged
     c_bands:  1 eigenvalues not converged
     c_bands:  3 eigenvalues not converged
     c_bands:  1 eigenvalues not converged
     c_bands:  2 eigenvalues not converged
     ethr =  1.00E-05,  avg # of iterations = 19.2

[...]

     total energy              =   -2599.55253928 Ry
     estimated scf accuracy    <    3761.70480649 Ry

     total magnetization       =     0.00 Bohr mag/cell
     absolute magnetization    =     0.02 Bohr mag/cell

     iteration #  2     ecut=    29.40 Ry     beta= 0.05
     Davidson diagonalization with overlap
     ethr =  1.00E-02,  avg # of iterations = 22.9

[...]

     iteration #120     ecut=    29.40 Ry     beta= 0.05
     Davidson diagonalization with overlap
     ethr =  2.32E-11,  avg # of iterations =  4.3

[...]

     total energy              =   -2939.12591819 Ry
     estimated scf accuracy    <       0.00000010 Ry

[...]

     iteration #121     ecut=    29.40 Ry     beta= 0.05
     Davidson diagonalization with overlap
     c_bands:  1 eigenvalues not converged
     c_bands:  1 eigenvalues not converged
     c_bands:  1 eigenvalues not converged
     ethr =  2.32E-11,  avg # of iterations = 17.8

     negative rho (up, down):  8.124E-03 8.127E-03

[...]

     Adding external electric field

     Computed dipole along edir(3) :
        Dipole                0.9100 Ry au,          2.3129 Debye
        Dipole field          0.0017 Ry au,

        Potential amp.       -0.1592 Ry
        Total length         46.3494 bohr

     Magnetic moment per site  (integrated on atomic sphere of radius R)
     atom   1 (R=0.727)  charge=  7.9485  magn=  0.0172
     atom   2 (R=0.727)  charge=  7.9315  magn=  0.0009
     atom   3 (R=0.727)  charge=  4.9369  magn= -0.0016
     atom   4 (R=0.727)  charge=  4.9738  magn= -0.0002
     atom   5 (R=0.727)  charge=  4.9424  magn= -0.0003
     atom   6 (R=0.727)  charge=  4.9431  magn= -0.0003
     atom   7 (R=0.727)  charge=  7.9299  magn=  0.0008
     atom   8 (R=0.727)  charge=  7.9249  magn=  0.0076
     atom   9 (R=0.727)  charge=  4.9562  magn= -0.0001
     atom  10 (R=0.727)  charge=  4.9398  magn= -0.0006
     atom  11 (R=0.727)  charge=  4.9438  magn= -0.0002
     atom  12 (R=0.727)  charge=  4.9403  magn= -0.0002
     atom  13 (R=0.727)  charge=  7.9199  magn=  0.0016
     atom  14 (R=0.727)  charge=  7.9286  magn=  0.0004
     atom  15 (R=0.727)  charge=  4.9367  magn= -0.0001
     atom  16 (R=0.727)  charge=  4.9585  magn= -0.0001
     atom  17 (R=0.727)  charge=  4.9268  magn= -0.0000
     atom  18 (R=0.727)  charge=  4.9196  magn= -0.0000
     atom  19 (R=0.727)  charge=  7.9516  magn=  0.0001
     atom  20 (R=0.727)  charge=  7.9765  magn=  0.0001
     atom  21 (R=0.727)  charge=  4.8266  magn= -0.0009
     atom  22 (R=0.727)  charge=  4.9096  magn=  0.0000
     atom  23 (R=0.727)  charge=  4.9340  magn= -0.0020
     atom  24 (R=0.727)  charge=  4.9340  magn= -0.0020
     atom  25 (R=0.727)  charge=  7.9485  magn=  0.0174
     atom  26 (R=0.727)  charge=  7.9315  magn=  0.0009
     atom  27 (R=0.727)  charge=  4.9363  magn= -0.0016
     atom  28 (R=0.727)  charge=  4.9740  magn= -0.0002
     atom  29 (R=0.727)  charge=  4.9433  magn= -0.0003
     atom  30 (R=0.727)  charge=  4.9439  magn= -0.0003
     atom  31 (R=0.727)  charge=  7.9304  magn=  0.0008
     atom  32 (R=0.727)  charge=  7.9251  magn=  0.0075
     atom  33 (R=0.727)  charge=  4.9554  magn= -0.0001
     atom  34 (R=0.727)  charge=  4.9242  magn= -0.0006
     atom  35 (R=0.727)  charge=  4.9447  magn= -0.0002
     atom  36 (R=0.727)  charge=  4.9438  magn= -0.0002
     atom  37 (R=0.727)  charge=  7.9230  magn=  0.0015
     atom  38 (R=0.727)  charge=  7.9295  magn=  0.0004
     atom  39 (R=0.727)  charge=  4.9078  magn= -0.0000
     atom  40 (R=0.727)  charge=  4.9610  magn= -0.0000
     atom  41 (R=0.727)  charge=  4.9355  magn= -0.0000
     atom  42 (R=0.727)  charge=  4.9347  magn= -0.0000
     atom  43 (R=0.727)  charge=  7.9537  magn=  0.0001
     atom  44 (R=0.727)  charge=  7.9721  magn=  0.0000
     atom  45 (R=0.727)  charge=  4.8266  magn= -0.0009
     atom  46 (R=0.727)  charge=  4.9340  magn= -0.0020
     atom  47 (R=0.727)  charge=  4.9341  magn= -0.0020
     atom  48 (R=0.502)  charge=  2.0016  magn= -0.0000
     atom  49 (R=0.448)  charge=  0.8479  magn=  0.0000
     atom  50 (R=0.448)  charge=  0.4993  magn= -0.0000
     atom  51 (R=0.448)  charge=  0.5029  magn= -0.0000
     atom  52 (R=0.448)  charge=  0.5040  magn= -0.0000
     atom  53 (R=0.502)  charge=  1.9591  magn=  0.0000

     End of self-consistent calculation

 ------ SPIN UP ------------

          k = 0.0000 0.0000 0.0000 ( 18029 PWs)   bands (ev):

   -55.7918 -55.7710 -55.7578 -55.7350 -55.6857 -55.6373 -55.6043 -55.5703
   -55.5569 -55.5232 -55.5209 -55.4478 -54.9574 -54.8122 -54.7571 -54.7231
   -32.3196 -32.2665 -32.1761 -32.1059 -32.0859 -32.0574 -32.0484 -32.0373
   -32.0074 -31.9713 -31.9467 -31.9413 -31.9229 -31.9058 -31.8885 -31.8862
   -31.8822 -31.8796 -31.8672 -31.8520 -31.8376 -31.8240 -31.8016 -31.7982
   -31.7941 -31.7838 -31.7830 -31.7567 -31.7422 -31.7394 -31.7336 -31.7148
   -31.7120 -31.6706 -31.6373 -31.5651 -31.4941 -31.3397 -31.1685 -31.1635
   -31.1086 -31.0762 -31.0688 -31.0536 -30.9809 -30.9182 -30.8944 -30.7827
   -19.4141 -16.5178 -16.2521 -15.9665 -15.9159 -15.8417 -15.7484 -15.6246
   -15.5283 -15.4111 -15.3722 -15.3138 -15.3084 -15.2641 -15.2371 -15.2330
   -15.2070 -15.1968 -15.1342 -15.1267 -15.0766 -15.0650 -15.0165 -14.9824
   -14.9705 -14.9137 -14.8459 -14.8053 -14.6865 -14.1605 -13.2566 -13.1400
   -12.2976  -7.2582  -4.9303  -4.7732  -3.9004  -3.7580  -3.6979  -3.6859
    -3.6414  -3.4416  -3.3525  -3.2848  -3.0453  -2.9537  -2.9292  -2.9182
    -2.8693  -2.7114  -2.6617  -2.6042  -2.5891  -2.5632  -2.5410  -2.5326
    -2.4976  -2.4873  -2.4565  -2.4244  -2.3262  -2.2139  -2.1842  -2.1061
    -2.0918  -2.0750  -2.0454  -2.0348  -2.0258  -2.0159  -1.9972  -1.9598
    -1.8913  -1.8527  -1.7871  -1.7028  -1.5617  -1.5396  -1.4614  -1.3854
    -1.3060  -1.2632  -1.2417  -1.2131  -1.1733  -1.0936  -1.0676  -0.9215
    -0.8245  -0.7913  -0.7739  -0.7323  -0.6957  -0.5939  -0.5720  -0.5425
    -0.5323  -0.5056  -0.4329  -0.3760  -0.2430  -0.2129  -0.2090  -0.1714
    -0.1008  -0.0472   0.0062   0.0558   0.0634   0.1000   0.1596   0.1850
     0.1903   0.2324   0.2744   0.3489   0.3752   0.4495   0.4537   0.5176
     0.5612   0.6430   0.7513   0.8734   1.0165   1.1535   1.1985   1.2677
     1.3624   1.4595   1.8386   1.8835   2.1449   3.3268   3.4254   3.4644
     3.4744   3.5833   3.7862   3.8170   3.8652   3.8851   3.8942

[...]

          k =-0.0760-0.0000 0.0000 ( 17886 PWs)   bands (ev):

[...]

 ------ SPIN DOWN ----------

[...]

          k = 0.0380-0.0419 0.0000 ( 17876 PWs)   bands (ev):

[...]

          k =-0.0760-0.0839 0.0000 ( 17948 PWs)   bands (ev):

   -55.7529 -55.7513 -55.7427 -55.7424 -55.6755 -55.6418 -55.5731 -55.5726
   -55.5388 -55.5384 -55.5163 -55.4519 -54.9558 -54.8134 -54.7382 -54.7380
   -32.1227 -32.1192 -32.0682 -32.0680 -32.0352 -32.0347 -32.0197 -32.0052
   -31.9989 -31.9900 -31.9212 -31.9158 -31.8992 -31.8924 -31.8814 -31.8791
   -31.8784 -31.8730 -31.8586 -31.8585 -31.8532 -31.8492 -31.8478 -31.8146
   -31.7852 -31.7792 -31.7775 -31.7681 -31.7678 -31.7559 -31.7549 -31.7523
   -31.7512 -31.7374 -31.7129 -31.6618 -31.4404 -31.3225 -31.1703 -31.1613
   -31.0865 -31.0642 -31.0641 -30.9750 -30.9749 -30.9357 -30.9356 -30.9213
   -19.4119 -15.9186 -15.9124 -15.7513 -15.7168 -15.6508 -15.6419 -15.5745
   -15.5073 -15.4628 -15.4578 -15.3425 -15.3403 -15.3260 -15.3041 -15.2500
   -15.2335 -15.2326 -15.2292 -15.2213 -15.2086 -15.1817 -15.1511 -15.1002
   -15.0952 -15.0746 -15.0645 -14.9431 -14.5327 -14.4707 -13.2441 -13.2440
   -12.3001  -7.2450  -4.9318  -4.7709  -3.6223  -3.2077  -3.1913  -3.0024
    -2.9201  -2.9088  -2.8923  -2.7394  -2.7281  -2.7117  -2.6538  -2.6443
    -2.6372  -2.6007  -2.5843  -2.5607  -2.5197  -2.5150  -2.4668  -2.4637
    -2.4489  -2.4262  -2.4086  -2.4028  -2.3897  -2.3743  -2.3371  -2.2811
    -2.2428  -2.2161  -2.1878  -2.0916  -2.0307  -1.9950  -1.9273  -1.9187
    -1.8678  -1.8427  -1.8284  -1.7590  -1.6915  -1.6631  -1.5774  -1.4867
    -1.4683  -1.4529  -1.3343  -1.3205  -1.2452  -1.2218  -1.1378  -1.1209
    -1.0814  -0.9710  -0.9476  -0.9161  -0.8817  -0.8374  -0.7739  -0.7372
    -0.7352  -0.6868  -0.6423  -0.5858  -0.5241  -0.5123  -0.4975  -0.4890
    -0.4258  -0.3922  -0.3695  -0.2873  -0.2720  -0.1904  -0.0467  -0.0138
     0.1434   0.1928   0.3013   0.3292   0.4201   0.4418   0.5350   0.5381
     0.5724   0.7004   0.7195   0.7371   0.7534   0.7730   0.7968   0.9362
     1.6308   1.6309   1.7024   1.7025   2.0829   3.6715   3.7085   3.7593
     3.7824   3.8932   3.8965   3.8985   3.9069   4.0260   4.0302

     the Fermi energy is     3.3505 ev

!    total energy              =   -2939.12591944 Ry
     estimated scf accuracy    <       0.00000006 Ry
     smearing contrib. (-TS)   =      -0.02049302 Ry
     internal energy E=F+TS    =   -2939.10542642 Ry

     The total energy is F=E-TS. E is the sum of the following terms:
     one-electron contribution =  -24213.23420098 Ry
     hartree contribution      =   12195.35104065 Ry
     xc contribution           =    -485.19646309 Ry
     ewald contribution        =    9563.97263435 Ry
     electric field correction =       0.00156266 Ry

     total magnetization       =     0.07 Bohr mag/cell
     absolute magnetization    =     0.11 Bohr mag/cell

     convergence has been achieved in 121 iterations

     Forces acting on atoms (cartesian axes, Ry/au):

     atom    1 type  1   force =     0.00008735   -0.00020636    0.09576480
     atom    2 type  1   force =     0.00007213   -0.00062631   -0.17551289
     atom    3 type  2   force =     0.00017913   -0.00019293   -0.02301026
     atom    4 type  2   force =     0.00004086   -0.00128865    0.05264890
     atom    5 type  2   force =    -0.00977637   -0.00031700    0.00253979
     atom    6 type  2   force =     0.01165535    0.00022417    0.00292362
     atom    7 type  1   force =     0.00088480   -0.00001060   -0.00991272
     atom    8 type  1   force =     0.00000926    0.00530062    0.01813259
     atom    9 type  2   force =    -0.00001377   -0.00028897   -0.00009821
     atom   10 type  2   force =    -0.00253783    0.00215968   -0.01346438
     atom   11 type  2   force =    -0.00096722    0.00010432    0.00018212
     atom   12 type  2   force =     0.00038485   -0.00026316    0.00050179
     atom   13 type  1   force =     0.00009858   -0.00007089    0.00057244
     atom   14 type  1   force =    -0.00004142   -0.00014567   -0.00018064
     atom   15 type  2   force =    -0.00054600    0.00009037    0.00046427
     atom   16 type  2   force =    -0.00043769    0.00006396    0.00020018
     atom   17 type  2   force =    -0.00032570   -0.00025454   -0.00053527
     atom   18 type  2   force =     0.00029225    0.00023402    0.00004292
     atom   19 type  1   force =    -0.00048748   -0.00074353    0.00071272
     atom   20 type  1   force =    -0.00034179    0.00065258   -0.00057141
     atom   21 type  2   force =     0.00006684   -0.00005754    0.10323577
     atom   22 type  2   force =    -0.00000219   -0.00034597   -0.00047060
     atom   23 type  2   force =    -0.07154772   -0.00019124   -0.02753010
     atom   24 type  2   force =     0.07152704    0.00031186   -0.02758809
     atom   25 type  1   force =     0.00012276   -0.00027763    0.09514737
     atom   26 type  1   force =     0.00009441   -0.00048846   -0.17565536
     atom   27 type  2   force =     0.00016005   -0.00011927   -0.02176115
     atom   28 type  2   force =     0.00008247   -0.00106117    0.05252553
     atom   29 type  2   force =    -0.01015647    0.00023371    0.00291613
     atom   30 type  2   force =     0.01197342    0.00051872    0.00329522
     atom   31 type  1   force =     0.00089031    0.00413386   -0.01179580
     atom   32 type  1   force =     0.00013745   -0.00633250    0.01827527
     atom   33 type  2   force =     0.00016221    0.00041638   -0.00008898
     atom   34 type  2   force =    -0.00308283   -0.00010614   -0.00865624
     atom   35 type  2   force =    -0.00020815    0.00007230    0.00001988
     atom   36 type  2   force =    -0.00003894    0.00027945   -0.00005682
     atom   37 type  1   force =     0.00043007   -0.00096297    0.00018914
     atom   38 type  1   force =    -0.00031770    0.00009047    0.00034127
     atom   39 type  2   force =     0.00017034   -0.00023991    0.00041049
     atom   40 type  2   force =    -0.00008386    0.00028013    0.00017684
     atom   41 type  2   force =     0.00018221   -0.00012424   -0.00002624
     atom   42 type  2   force =    -0.00067680    0.00005669   -0.00035818
     atom   43 type  1   force =     0.00033043    0.00071266    0.00013220
     atom   44 type  1   force =    -0.00082083   -0.00148689   -0.00018528
     atom   45 type  2   force =     0.00007503   -0.00005996    0.10318905
     atom   46 type  2   force =    -0.07156179   -0.00009733   -0.02752258
     atom   47 type  2   force =     0.07154561    0.00025445   -0.02758261
     atom   48 type  3   force =    -0.00317907   -0.00213601    0.00132636
     atom   49 type  4   force =     0.00064286    0.00056911   -0.00064339
     atom   50 type  5   force =     0.00043872    0.00020374   -0.00004637
     atom   51 type  5   force =    -0.00080763   -0.00022373   -0.00020100
     atom   52 type  5   force =     0.00033004   -0.00080373   -0.00060796
     atom   53 type  3   force =     0.00489240    0.00256007   -0.00180414

     Total force =     0.364803     Total SCF correction =     0.000621
  @ DRIVER MODE: Message from server: STATUS
  @ DRIVER MODE: Message from server: GETFORCE
  @ DRIVER MODE: Returning v,forces,stress,ensemble

     Writing output data file ./calc.save/
  @ DRIVER MODE: Message from server: EXIT
  @ DRIVE MODE: Exiting

     General routines

     Parallel routines

   This run was terminated on:  13:26: 9  16Jul2021

   JOB DONE.