     Program PWSCF v.6.7GPU starts on 15Sep2021 at 17: 1:32

     R & G space division:  proc/nbgrp/npool/nimage =      10
     Reading input from /storage/home/hcoda1/3/ntian30/research/carbon/CxH_vib/H2O_calc/ads_slab/CH3NNH3H2O_a/out_0004/pw.inp
Warning: card &CELL ignored
Warning: card   CELL_DYNAMICS='IPI', ignored
Warning: card / ignored

     Current dimensions of program PWSCF are:
     Max number of different atomic species (ntypx) = 10
     Max number of k-points (npk) =  40000
     Max angular momentum in pseudopotentials (lmaxx) =  3
     Presently no symmetry can be used with electric field

     Message from routine cell_base_init:
     DEPRECATED: use true lattice parameter, not A to a.u. conversion factor

     IMPORTANT: XC functional enforced from input :
     Exchange-correlation= BEEF-VDW
                           (   1   4  43  14   2   0   0)
     Any further DFT definition will be discarded
     Please, verify this is what you really want

  @ DRIVER MODE: Connecting to
 qe_1139763_2852621.sched-torque.pace.gatech.edusaq81_q2_scratch
  using UNIX socket
  @ DRIVER MODE: Message from server: STATUS
  @ DRIVER MODE: Message from server: INIT
  @ DRIVER MODE: Receiving replica           0          -1
  @ DRIVER MODE: Receiving encoded integer          25
  @ DRIVER MODE:  SCF:  T  FORCE:  T  STRESS:  F  VC:  F  ENSEMBLE:  F
  @ DRIVER MODE:  SCF:  T  FORCE:  T  STRESS:  F  VC:  F  ENSEMBLE:  F

     Using Slab Decomposition

     bravais-lattice index     =            0
     lattice parameter (alat)  =       1.8897  a.u.
     unit-cell volume          =    6658.9804 (a.u.)^3
     number of atoms/cell      =           59
     number of atomic types    =            5
     number of electrons       =       406.00
     number of Kohn-Sham states=          213
     kinetic-energy cutoff     =      29.3995  Ry
     charge density cutoff     =     293.9946  Ry
     scf convergence threshold =      7.3E-08
     mixing beta               =       0.0500
     number of iterations used =            8  plain     mixing
     Exchange-correlation= BEEF-VDW
                           (   1   4  43  14   2   0   0)

     celldm(1)=   1.889726  celldm(2)=   0.000000  celldm(3)=   0.000000
     celldm(4)=   0.000000  celldm(5)=   0.000000  celldm(6)=   0.000000

     crystal axes: (cart. coord. in units of alat)
               a(1) = (   6.579727   0.000000   0.000000 )
               a(2) = (  -0.000775   5.961596   0.000000 )
               a(3) = (   0.000000   0.000000  25.155947 )

     reciprocal axes: (cart. coord. in units 2 pi/alat)
               b(1) = (  0.151982  0.000020  0.000000 )
               b(2) = (  0.000000  0.167740  0.000000 )
               b(3) = (  0.000000  0.000000  0.039752 )

     PseudoPot. # 1 for Ti read from file:
     /storage/coda1/p-amedford6/0/shared/rich_project_chbe-medford/medford-share/data/pseudos_module/espresso/nninc/pbe/van/Ti.UPF
     MD5 check sum: 8e4df49b7f0d34bbd5052bf3f5ea0213
     Pseudo is Ultrasoft, Zval = 12.0
     Generated by new atomic code, or converted to UPF format
     Using radial grid of  851 points,  6 beta functions with:
                l(1) =   0
                l(2) =   0
                l(3) =   1
                l(4) =   1
                l(5) =   2
                l(6) =   2
     Q(r) pseudized with  8 coefficients,  rinner =    1.000   1.000   1.000
                                                       1.000   1.000

     PseudoPot. # 2 for O  read from file:
     /storage/coda1/p-amedford6/0/shared/rich_project_chbe-medford/medford-share/data/pseudos_module/espresso/nninc/pbe/van/O.UPF
     MD5 check sum: 78c19812648e8988a0fe644b0f25305e
     Pseudo is Ultrasoft, Zval =  6.0
     Generated by new atomic code, or converted to UPF format
     Using radial grid of  737 points,  4 beta functions with:
                l(1) =   0
                l(2) =   0
                l(3) =   1
                l(4) =   1
     Q(r) pseudized with  8 coefficients,  rinner =    0.800   0.800   0.800

     PseudoPot. # 3 for N  read from file:
     /storage/coda1/p-amedford6/0/shared/rich_project_chbe-medford/medford-share/data/pseudos_module/espresso/nninc/pbe/van/N.UPF
     MD5 check sum: 90d10febe142ad51ac9d5be1deb811c4
     Pseudo is Ultrasoft, Zval =  5.0
     Generated by new atomic code, or converted to UPF format
     Using radial grid of  729 points,  4 beta functions with:
                l(1) =   0
                l(2) =   0
                l(3) =   1
                l(4) =   1
     Q(r) pseudized with  8 coefficients,  rinner =    0.800   0.800   0.800

     PseudoPot. # 4 for C  read from file:
     /storage/coda1/p-amedford6/0/shared/rich_project_chbe-medford/medford-share/data/pseudos_module/espresso/nninc/pbe/van/C.UPF
     MD5 check sum: 1a69bf6b8db32088f5b2163dbdb77a27
     Pseudo is Ultrasoft, Zval =  4.0
     Generated by new atomic code, or converted to UPF format
     Using radial grid of  721 points,  4 beta functions with:
                l(1) =   0
                l(2) =   0
                l(3) =   1
                l(4) =   1
     Q(r) pseudized with  8 coefficients,  rinner =    0.800   0.800   0.800

     PseudoPot. # 5 for H  read from file:
     /storage/coda1/p-amedford6/0/shared/rich_project_chbe-medford/medford-share/data/pseudos_module/espresso/nninc/pbe/van/H.UPF
     MD5 check sum: b5ee9d7bfd3a09ee7748110bda690ff7
     Pseudo is Ultrasoft, Zval =  1.0
     Generated by new atomic code, or converted to UPF format
     Using radial grid of  615 points,  1 beta functions with:
                l(1) =   0
     Q(r) pseudized with  8 coefficients,  rinner =    0.800

     atomic species   valence    mass     pseudopotential
        Ti1           12.00    47.86700     Ti( 1.00)
        O1             6.00    15.99900     O ( 1.00)
        N1             5.00    14.00700     N ( 1.00)
        C1             4.00    12.01100     C ( 1.00)
        H1             1.00     1.00800     H ( 1.00)

     No symmetry found

   Cartesian axes

     site n.     atom                  positions (alat units)
         1           Ti1 tau(   1) = (   0.0004258   2.9801865   6.0000000  )
         2           Ti1 tau(   2) = (   3.2906075   1.4906267   6.0002472  )
         3           O1  tau(   3) = (   0.0006271   0.0005054   7.9858123  )
         4           O1  tau(   4) = (   3.2906025   0.0005020   7.3038282  )
         5           O1  tau(   5) = (   4.5942328   1.4918067   9.2879030  )
         6           O1  tau(   6) = (   1.9868534   1.4903216   9.2879459  )
         7           Ti1 tau(   7) = (   3.2907910   2.8959150   9.1758416  )
         8           Ti1 tau(   8) = (   0.0015273   1.4827037   9.2680791  )
         9           O1  tau(   9) = (   3.2954490   0.0159868  11.2922163  )
        10           O1  tau(  10) = (   0.0116148   5.9584955  10.6183126  )
        11           O1  tau(  11) = (   1.3242731   1.5050266  12.6143764  )
        12           O1  tau(  12) = (   5.3073597   1.5103589  12.6267567  )
        13           Ti1 tau(  13) = (   6.4831477   3.0011104  12.7364612  )
        14           Ti1 tau(  14) = (   3.1751638   1.4975352  12.4748964  )
        15           O1  tau(  15) = (   0.0212859   5.9607631  14.5987152  )
        16           O1  tau(  16) = (   3.3058086   0.0238703  13.8910224  )
        17           O1  tau(  17) = (   4.5539421   1.5574750  15.9960573  )
        18           O1  tau(  18) = (   2.0731809   1.5597727  15.9888445  )
        19           Ti1 tau(  19) = (   3.3176354   3.0289328  15.6523405  )
        20           Ti1 tau(  20) = (   0.0198791   1.6227889  16.0606591  )
        21           O1  tau(  21) = (   3.2904802   0.0005063   4.7018136  )
        22           O1  tau(  22) = (   0.0290054   0.0533443  17.2129705  )
        23           O1  tau(  23) = (   1.3043587   1.4918075   6.0039043  )
        24           O1  tau(  24) = (   5.2767064   1.4903225   6.0039473  )
        25           Ti1 tau(  25) = (   0.0000382   5.9609847   6.0000000  )
        26           Ti1 tau(  26) = (   3.2902200   4.4714249   6.0002472  )
        27           O1  tau(  27) = (   0.0002396   2.9813036   7.9858123  )
        28           O1  tau(  28) = (   3.2902150   2.9813002   7.3038282  )
        29           O1  tau(  29) = (   4.5938453   4.4726049   9.2879030  )
        30           O1  tau(  30) = (   1.9864658   4.4711199   9.2879459  )
        31           Ti1 tau(  31) = (   3.2891106   5.8743827   9.1763621  )
        32           Ti1 tau(  32) = (   0.0006254   4.4649316   9.2693709  )
        33           O1  tau(  33) = (   3.2918316   2.9938763  11.2915017  )
        34           O1  tau(  34) = (   0.0092240   2.9805883  10.6323155  )
        35           O1  tau(  35) = (   1.3226278   4.4784642  12.6110361  )
        36           O1  tau(  36) = (   5.3078083   4.4770455  12.6250823  )
        37           Ti1 tau(  37) = (   6.5141033   0.0190828  12.7620745  )
        38           Ti1 tau(  38) = (   3.1722404   4.4939287  12.4712879  )
        39           O1  tau(  39) = (   0.0035410   2.9850241  14.6487316  )
        40           O1  tau(  40) = (   3.3118331   3.0109266  13.8519036  )
        41           O1  tau(  41) = (   4.5522870   4.5059159  16.0259181  )
        42           O1  tau(  42) = (   2.0778134   4.5048723  16.0185459  )
        43           Ti1 tau(  43) = (   3.3116469   0.0596163  15.7453941  )
        44           Ti1 tau(  44) = (   0.0183239   4.5967015  16.1059876  )
        45           O1  tau(  45) = (   3.2900926   2.9813045   4.7018136  )
        46           O1  tau(  46) = (   1.3039711   4.4726057   6.0039043  )
        47           O1  tau(  47) = (   5.2763189   4.4711207   6.0039473  )
        48           N1  tau(  48) = (   0.0600715   3.0365251  17.3188267  )
        49           N1  tau(  49) = (   6.2826239   2.5295367  22.6224490  )
        50           C1  tau(  50) = (   0.2859397   3.0149959  18.7399364  )
        51           H1  tau(  51) = (   0.1411154   4.0060466  19.1894648  )
        52           H1  tau(  52) = (   6.1913215   2.3105648  19.2421896  )
        53           H1  tau(  53) = (   1.3125146   2.6868920  18.9691123  )
        54           H1  tau(  54) = (   6.1000088   3.2491606  23.3142794  )
        55           H1  tau(  55) = (   0.1456284   1.7586669  23.1118534  )
        56           H1  tau(  56) = (   0.3974265   2.9048463  21.9856970  )
        57           O1  tau(  57) = (   3.2908421   0.1144680  18.1630233  )
        58           H1  tau(  58) = (   4.0679411   5.5688996  18.4486002  )
        59           H1  tau(  59) = (   2.5060966   5.5711546  18.4327789  )

     number of k points=    10  Fermi-Dirac smearing, width (Ry)=  0.0073
                       cart. coord. in units 2pi/alat
        k(    1) = (   0.0000000   0.0000000   0.0000000), wk =   0.1250000
        k(    2) = (   0.0000000   0.0419351   0.0000000), wk =   0.2500000
        k(    3) = (   0.0000000  -0.0838702   0.0000000), wk =   0.1250000
        k(    4) = (   0.0379955   0.0000049   0.0000000), wk =   0.2500000
        k(    5) = (   0.0379955   0.0419400   0.0000000), wk =   0.2500000
        k(    6) = (   0.0379955  -0.0838652   0.0000000), wk =   0.2500000
        k(    7) = (   0.0379955  -0.0419301   0.0000000), wk =   0.2500000
        k(    8) = (  -0.0759910  -0.0000099   0.0000000), wk =   0.1250000
        k(    9) = (  -0.0759910   0.0419252   0.0000000), wk =   0.2500000
        k(   10) = (  -0.0759910  -0.0838800   0.0000000), wk =   0.1250000

     Initial potential from superposition of free atoms

     starting charge  389.99912, renormalised to  406.00000

     negative rho (up, down):  6.917E-03 0.000E+00

     %%%%%%%%%%%%%%%%%%%%%%%%%%%%%%%%%%%%%%%%%%%%%%%%%%%%%%%%%%%%%%%%%%%%%%%%
     %                                                                      %
     % You are using vdW-DF, which was implemented by the Thonhauser group. %
     % Please cite the following two papers that made this development      %
     % possible and the two reviews that describe the various versions:     %
     %                                                                      %
     %   T. Thonhauser et al., PRL 115, 136402 (2015).                      %
     %   T. Thonhauser et al., PRB 76, 125112 (2007).                       %
     %   K. Berland et al., Rep. Prog. Phys. 78, 066501 (2015).             %
     %   D.C. Langreth et al., J. Phys.: Condens. Matter 21, 084203 (2009). %
     %                                                                      %
     %                                                                      %
     % If you are calculating the stress with vdW-DF, please also cite:     %
     %                                                                      %
     %   R. Sabatini et al., J. Phys.: Condens. Matter 24, 424209 (2012).   %
     %                                                                      %
     %%%%%%%%%%%%%%%%%%%%%%%%%%%%%%%%%%%%%%%%%%%%%%%%%%%%%%%%%%%%%%%%%%%%%%%%

     Adding external electric field

     Computed dipole along edir(3) :
        Dipole              -16.2336 Ry au,        -41.2616 Debye
        Dipole field         -0.0306 Ry au,

        Potential amp.        2.8398 Ry
        Total length         46.3494 bohr

     Starting wfcs are  308 atomic wfcs
  @ DRIVER MODE: Message from server: STATUS
  @ DRIVER MODE: Message from server: POSDATA
  @ DRIVER MODE: Reading and sharing cell
  @ DRIVER MODE: Reading and sharing positions
  @ DRIVER MODE: Received positions

     Self-consistent Calculation

     iteration #  1     ecut=    29.40 Ry     beta= 0.05
     Davidson diagonalization with overlap
     c_bands:  2 eigenvalues not converged
     c_bands:  3 eigenvalues not converged
     c_bands:  5 eigenvalues not converged
     c_bands:  3 eigenvalues not converged
     c_bands:  4 eigenvalues not converged
     c_bands:  3 eigenvalues not converged
     c_bands:  1 eigenvalues not converged
     c_bands:  5 eigenvalues not converged
     c_bands:  3 eigenvalues not converged
     ethr =  1.00E-05,  avg # of iterations = 20.6

[...]

     total energy              =   -2253.47075676 Ry
     estimated scf accuracy    <    8262.98652664 Ry

     iteration #  2     ecut=    29.40 Ry     beta= 0.05
     Davidson diagonalization with overlap
     ethr =  1.00E-02,  avg # of iterations = 28.9

[...]

     iteration # 56     ecut=    29.40 Ry     beta= 0.05
     Davidson diagonalization with overlap
     c_bands:  1 eigenvalues not converged
     c_bands:  1 eigenvalues not converged
     ethr =  5.23E-07,  avg # of iterations = 11.9

[...]

     total energy              =   -2977.74433743 Ry
     estimated scf accuracy    <       0.00000009 Ry

     iteration # 78     ecut=    29.40 Ry     beta= 0.05
     Davidson diagonalization with overlap
     ethr =  2.11E-11,  avg # of iterations =  2.6

     negative rho (up, down):  8.780E-03 0.000E+00

     Adding external electric field

     Computed dipole along edir(3) :
        Dipole                0.7635 Ry au,          1.9407 Debye
        Dipole field          0.0014 Ry au,

        Potential amp.       -0.1336 Ry
        Total length         46.3494 bohr

     End of self-consistent calculation

          k = 0.0000 0.0000 0.0000 ( 18029 PWs)   bands (ev):

   -56.2619 -56.2283 -55.3795 -55.3456 -55.3373 -55.3023 -55.1550 -55.1198
   -55.0334 -54.9121 -54.8950 -54.8930 -54.8781 -54.8067 -54.3872 -54.3525
   -32.6887 -32.5363 -32.5081 -32.4382 -32.3473 -32.3148 -31.8473 -31.8195
   -31.6904 -31.6453 -31.5965 -31.5786 -31.5484 -31.5393 -31.5103 -31.5053
   -31.4867 -31.4804 -31.4590 -31.4437 -31.4311 -31.3816 -31.3715 -31.3328
   -31.3203 -31.3030 -31.2951 -31.2813 -31.2574 -31.2568 -31.2516 -31.2274
   -31.1336 -31.1220 -31.0829 -31.0731 -31.0450 -31.0389 -31.0298 -31.0108
   -30.9809 -30.9280 -30.9085 -30.6253 -30.6034 -30.5964 -30.5757 -30.4563
   -18.4459 -16.4179 -15.9521 -15.7090 -15.6187 -15.5359 -15.4967 -15.4529
   -15.3018 -15.2334 -15.2106 -15.2105 -15.1402 -14.9921 -14.9444 -14.8465
   -14.7533 -14.6184 -14.6016 -14.5676 -14.5510 -14.5174 -14.5117 -14.4590
   -14.2946 -14.2596 -14.2111 -14.1486 -14.0624 -14.0391 -13.8389 -13.4102
   -13.3005 -12.6421  -7.4495  -6.2362  -4.1053  -4.0846  -3.9852  -3.4517
    -3.1828  -3.1548  -3.0261  -3.0218  -2.9767  -2.8361  -2.8284  -2.7546
    -2.7309  -2.6925  -2.6174  -2.5819  -2.5356  -2.4460  -2.4330  -2.4133
    -2.4023  -2.3839  -2.2630  -2.2214  -2.1694  -2.0658  -1.9574  -1.9146
    -1.8875  -1.8433  -1.8056  -1.7580  -1.7461  -1.7315  -1.7244  -1.6142
    -1.4987  -1.4680  -1.4517  -1.4049  -1.3869  -1.3784  -1.3567  -1.2712
    -1.1608  -1.0658  -1.0005  -0.9892  -0.9207  -0.9129  -0.8492  -0.7384
    -0.6778  -0.6755  -0.6566  -0.5528  -0.5266  -0.4556  -0.3933  -0.3349
    -0.2797  -0.2170  -0.1672  -0.1437  -0.1315  -0.0327   0.0393   0.0623
     0.1137   0.1229   0.1317   0.1532   0.2486   0.2851   0.3588   0.4038
     0.4396   0.4843   0.5668   0.6169   0.6850   0.7347   0.7575   0.8193
     0.8726   0.9278   1.0229   1.0737   1.0781   1.0861   1.1098   1.1696
     1.1832   1.2586   1.3426   1.3583   1.4301   1.4983   1.6599   1.6990
     1.9529   2.0195   2.6478   3.0152   3.1764   3.4716   3.6612   3.7986
     3.9943   4.0048   4.0119   4.2372   4.2611

[...]

          k = 0.0380-0.0419 0.0000 ( 17876 PWs)   bands (ev):

[...]

          k =-0.0760-0.0000 0.0000 ( 17886 PWs)   bands (ev):

[...]

          k =-0.0760-0.0839 0.0000 ( 17948 PWs)   bands (ev):

   -56.2453 -56.2448 -55.3645 -55.3602 -55.3247 -55.3150 -55.1384 -55.1362
   -55.0312 -54.8951 -54.8951 -54.8949 -54.8914 -54.8102 -54.3714 -54.3682
   -32.5222 -32.5218 -32.5057 -32.5054 -32.3914 -32.3910 -31.6710 -31.6652
   -31.6553 -31.6478 -31.5716 -31.5565 -31.5545 -31.5503 -31.5439 -31.5424
   -31.5366 -31.5280 -31.4965 -31.4801 -31.3840 -31.3820 -31.3484 -31.3425
   -31.3237 -31.2874 -31.2489 -31.2407 -31.2405 -31.2403 -31.2163 -31.1939
   -31.1505 -31.1199 -31.1197 -31.1167 -31.0941 -31.0807 -31.0806 -31.0675
   -31.0485 -31.0128 -30.7648 -30.7129 -30.5946 -30.5907 -30.5730 -30.5404
   -18.4450 -15.7685 -15.7665 -15.7313 -15.7306 -15.4638 -15.4604 -15.3673
   -15.3621 -15.2279 -15.1108 -15.0089 -14.9961 -14.9607 -14.9337 -14.8218
   -14.8013 -14.7925 -14.7818 -14.6714 -14.6499 -14.6075 -14.5935 -14.5766
   -14.5665 -14.2749 -14.2593 -14.1586 -14.1326 -14.0384 -13.9905 -13.4041
   -13.4041 -12.6607  -7.4432  -6.2287  -4.1152  -4.0864  -2.8650  -2.8579
    -2.8216  -2.8035  -2.8026  -2.7421  -2.6387  -2.5981  -2.5965  -2.5948
    -2.5138  -2.4472  -2.4393  -2.3687  -2.3347  -2.3157  -2.2579  -2.2480
    -2.1815  -2.1550  -2.1470  -2.1303  -2.1066  -2.1053  -2.0099  -1.9474
    -1.8954  -1.8919  -1.8253  -1.8059  -1.7436  -1.7211  -1.7096  -1.6786
    -1.6368  -1.6131  -1.5826  -1.5492  -1.5074  -1.4468  -1.2807  -1.2717
    -1.2627  -1.2412  -1.1163  -1.1099  -1.0769  -1.0473  -1.0416  -0.9684
    -0.9180  -0.8830  -0.8256  -0.7421  -0.7196  -0.6188  -0.5664  -0.5207
    -0.4642  -0.3585  -0.3409  -0.3302  -0.3208  -0.2905  -0.2247  -0.1953
    -0.1795  -0.0589  -0.0400   0.0135   0.0346   0.0904   0.1176   0.1822
     0.2094   0.2812   0.2927   0.3326   0.4044   0.4866   0.5191   0.5693
     0.5738   0.8497   0.9239   1.0545   1.0645   1.1205   1.1803   1.2503
     1.3118   1.3439   1.3699   1.4938   1.4983   1.5077   1.5082   1.5788
     1.5843   1.9281   2.5249   3.5910   3.5913   3.6578   3.6585   3.9792
     3.9855   4.0923   4.1027   4.2633   4.2781

     the Fermi energy is     2.8434 ev

!    total energy              =   -2977.74435197 Ry
     estimated scf accuracy    <       0.00000005 Ry
     smearing contrib. (-TS)   =      -0.00446644 Ry
     internal energy E=F+TS    =   -2977.73988552 Ry

     The total energy is F=E-TS. E is the sum of the following terms:
     one-electron contribution =  -22875.91827832 Ry
     hartree contribution      =   11535.66053542 Ry
     xc contribution           =    -496.32570360 Ry
     ewald contribution        =    8858.84246081 Ry
     electric field correction =       0.00110016 Ry

     convergence has been achieved in  78 iterations

     Forces acting on atoms (cartesian axes, Ry/au):

     atom    1 type  1   force =    -0.00003435   -0.00045989    0.12448421
     atom    2 type  1   force =    -0.00008848   -0.00048968   -0.15982341
     atom    3 type  2   force =     0.00019146   -0.00024469   -0.06788866
     atom    4 type  2   force =    -0.00000692   -0.00011724    0.02623857
     atom    5 type  2   force =    -0.01448556    0.00181854   -0.00989306
     atom    6 type  2   force =     0.01626460    0.00224369   -0.01023893
     atom    7 type  1   force =     0.00070893   -0.00387587    0.02887660
     atom    8 type  1   force =    -0.00034786   -0.00442035    0.10953086
     atom    9 type  2   force =     0.00023937   -0.00030002   -0.00050008
     atom   10 type  2   force =    -0.00231513    0.00257187   -0.07335739
     atom   11 type  2   force =    -0.00002488   -0.00028955   -0.00000448
     atom   12 type  2   force =    -0.00014286   -0.00074741    0.00003016
     atom   13 type  1   force =     0.00103513   -0.00040980   -0.00016242
     atom   14 type  1   force =    -0.00065488    0.00064430   -0.00012498
     atom   15 type  2   force =    -0.00028403    0.00083672   -0.00127213
     atom   16 type  2   force =    -0.00001484   -0.00005733    0.00069755
     atom   17 type  2   force =     0.00086905   -0.00074554    0.00003034
     atom   18 type  2   force =    -0.00020477   -0.00034723    0.00036082
     atom   19 type  1   force =    -0.00114590    0.00077068   -0.00095315
     atom   20 type  1   force =     0.00089419    0.00057771    0.00098273
     atom   21 type  2   force =     0.00004454   -0.00003711    0.09945121
     atom   22 type  2   force =     0.00003495    0.00176532   -0.00038850
     atom   23 type  2   force =    -0.07967227   -0.00005784   -0.03249102
     atom   24 type  2   force =     0.07951418    0.00038085   -0.03253820
     atom   25 type  1   force =    -0.00000700   -0.00057562    0.12415307
     atom   26 type  1   force =    -0.00008502   -0.00062074   -0.15996340
     atom   27 type  2   force =     0.00030053   -0.00036043   -0.06694053
     atom   28 type  2   force =    -0.00002033    0.00014952    0.02515752
     atom   29 type  2   force =    -0.01510790    0.00192696   -0.00983126
     atom   30 type  2   force =     0.01678316    0.00242638   -0.01014571
     atom   31 type  1   force =     0.00074362   -0.00075898    0.02404234
     atom   32 type  1   force =    -0.00027423    0.00206732    0.11014002
     atom   33 type  2   force =     0.00007805    0.00030453    0.00059979
     atom   34 type  2   force =    -0.00194113    0.00200038   -0.07159563
     atom   35 type  2   force =    -0.00003052    0.00030992    0.00000628
     atom   36 type  2   force =    -0.00052450    0.00053959   -0.00003943
     atom   37 type  1   force =     0.00123031    0.00045182    0.00045440
     atom   38 type  1   force =    -0.00054732   -0.00088064   -0.00025633
     atom   39 type  2   force =    -0.00027310   -0.00065474    0.00134235
     atom   40 type  2   force =     0.00018154   -0.00016405    0.00026850
     atom   41 type  2   force =     0.00038887    0.00027737   -0.00014565
     atom   42 type  2   force =     0.00016443   -0.00009205    0.00022047
     atom   43 type  1   force =    -0.00160277   -0.00083835   -0.00030456
     atom   44 type  1   force =     0.00085363   -0.00008540   -0.00069740
     atom   45 type  2   force =     0.00002157   -0.00004722    0.09941373
     atom   46 type  2   force =    -0.07968715    0.00000472   -0.03250300
     atom   47 type  2   force =     0.07953885    0.00043819   -0.03252799
     atom   48 type  3   force =    -0.00089153   -0.00624753   -0.00130344
     atom   49 type  3   force =    -0.00033373   -0.00049305    0.00130891
     atom   50 type  4   force =    -0.00028337    0.00161787   -0.00001419
     atom   51 type  5   force =    -0.00002147    0.00020280    0.00120989
     atom   52 type  5   force =    -0.00021930   -0.00067482    0.00010490
     atom   53 type  5   force =     0.00049661   -0.00024232   -0.00009253
     atom   54 type  5   force =     0.00006360   -0.00022825   -0.00059436
     atom   55 type  5   force =     0.00003343    0.00031127   -0.00029050
     atom   56 type  5   force =     0.00029402    0.00037529   -0.00182572
     atom   57 type  2   force =     0.00158062   -0.00045455   -0.00038185
     atom   58 type  5   force =    -0.00046657    0.00088779    0.00002109
     atom   59 type  5   force =    -0.00080958    0.00011691   -0.00003645

     Total force =     0.423558     Total SCF correction =     0.000692
  @ DRIVER MODE: Message from server: STATUS
  @ DRIVER MODE: Message from server: GETFORCE
  @ DRIVER MODE: Returning v,forces,stress,ensemble

     Writing output data file ./calc.save/
  @ DRIVER MODE: Message from server: EXIT
  @ DRIVE MODE: Exiting

     General routines

     Parallel routines

   This run was terminated on:  17:23:21  15Sep2021

   JOB DONE.