     Program PWSCF v.6.7GPU starts on 15Jul2021 at 20: 7: 6

     R & G space division:  proc/nbgrp/npool/nimage =      16
     Reading input from /storage/home/hcoda1/3/ntian30/research/carbon/15Jul_vib/ads_slab/CH3N2_b/out_0007/pw.inp
Warning: card &CELL ignored
Warning: card   CELL_DYNAMICS='IPI', ignored
Warning: card / ignored

     Current dimensions of program PWSCF are:
     Max number of different atomic species (ntypx) = 10
     Max number of k-points (npk) =  40000
     Max angular momentum in pseudopotentials (lmaxx) =  3
     Presently no symmetry can be used with electric field

     Message from routine cell_base_init:
     DEPRECATED: use true lattice parameter, not A to a.u. conversion factor

     IMPORTANT: XC functional enforced from input :
     Exchange-correlation= BEEF-VDW
                           (   1   4  43  14   2   0   0)
     Any further DFT definition will be discarded
     Please, verify this is what you really want

  @ DRIVER MODE: Connecting to
 qe_1139763_2351645.sched-torque.pace.gatech.eduy76q2y1i_scratch
  using UNIX socket
  @ DRIVER MODE: Message from server: STATUS
  @ DRIVER MODE: Message from server: INIT
  @ DRIVER MODE: Receiving replica           0          -1
  @ DRIVER MODE: Receiving encoded integer          25
  @ DRIVER MODE:  SCF:  T  FORCE:  T  STRESS:  F  VC:  F  ENSEMBLE:  F
  @ DRIVER MODE:  SCF:  T  FORCE:  T  STRESS:  F  VC:  F  ENSEMBLE:  F

     Using Slab Decomposition

     bravais-lattice index     =            0
     lattice parameter (alat)  =       1.8897  a.u.
     unit-cell volume          =    6658.9804 (a.u.)^3
     number of atoms/cell      =           53
     number of atomic types    =            5
     number of electrons       =       395.00
     number of Kohn-Sham states=          207
     kinetic-energy cutoff     =      29.3995  Ry
     charge density cutoff     =     293.9946  Ry
     scf convergence threshold =      7.3E-08
     mixing beta               =       0.0500
     number of iterations used =            8  plain     mixing
     Exchange-correlation= BEEF-VDW
                           (   1   4  43  14   2   0   0)

     celldm(1)=   1.889726  celldm(2)=   0.000000  celldm(3)=   0.000000
     celldm(4)=   0.000000  celldm(5)=   0.000000  celldm(6)=   0.000000

     crystal axes: (cart. coord. in units of alat)
               a(1) = (   6.579727   0.000000   0.000000 )
               a(2) = (  -0.000775   5.961596   0.000000 )
               a(3) = (   0.000000   0.000000  25.155947 )

     reciprocal axes: (cart. coord. in units 2 pi/alat)
               b(1) = (  0.151982  0.000020  0.000000 )
               b(2) = (  0.000000  0.167740  0.000000 )
               b(3) = (  0.000000  0.000000  0.039752 )

     PseudoPot. # 1 for Ti read from file:
     /storage/coda1/p-amedford6/0/shared/rich_project_chbe-medford/medford-share/data/pseudos_module/espresso/nninc/pbe/van/Ti.UPF
     MD5 check sum: 8e4df49b7f0d34bbd5052bf3f5ea0213
     Pseudo is Ultrasoft, Zval = 12.0
     Generated by new atomic code, or converted to UPF format
     Using radial grid of  851 points,  6 beta functions with:
                l(1) =   0
                l(2) =   0
                l(3) =   1
                l(4) =   1
                l(5) =   2
                l(6) =   2
     Q(r) pseudized with  8 coefficients,  rinner =    1.000   1.000   1.000
                                                       1.000   1.000

     PseudoPot. # 2 for O  read from file:
     /storage/coda1/p-amedford6/0/shared/rich_project_chbe-medford/medford-share/data/pseudos_module/espresso/nninc/pbe/van/O.UPF
     MD5 check sum: 78c19812648e8988a0fe644b0f25305e
     Pseudo is Ultrasoft, Zval =  6.0
     Generated by new atomic code, or converted to UPF format
     Using radial grid of  737 points,  4 beta functions with:
                l(1) =   0
                l(2) =   0
                l(3) =   1
                l(4) =   1
     Q(r) pseudized with  8 coefficients,  rinner =    0.800   0.800   0.800

     PseudoPot. # 3 for N  read from file:
     /storage/coda1/p-amedford6/0/shared/rich_project_chbe-medford/medford-share/data/pseudos_module/espresso/nninc/pbe/van/N.UPF
     MD5 check sum: 90d10febe142ad51ac9d5be1deb811c4
     Pseudo is Ultrasoft, Zval =  5.0
     Generated by new atomic code, or converted to UPF format
     Using radial grid of  729 points,  4 beta functions with:
                l(1) =   0
                l(2) =   0
                l(3) =   1
                l(4) =   1
     Q(r) pseudized with  8 coefficients,  rinner =    0.800   0.800   0.800

     PseudoPot. # 4 for C  read from file:
     /storage/coda1/p-amedford6/0/shared/rich_project_chbe-medford/medford-share/data/pseudos_module/espresso/nninc/pbe/van/C.UPF
     MD5 check sum: 1a69bf6b8db32088f5b2163dbdb77a27
     Pseudo is Ultrasoft, Zval =  4.0
     Generated by new atomic code, or converted to UPF format
     Using radial grid of  721 points,  4 beta functions with:
                l(1) =   0
                l(2) =   0
                l(3) =   1
                l(4) =   1
     Q(r) pseudized with  8 coefficients,  rinner =    0.800   0.800   0.800

     PseudoPot. # 5 for H  read from file:
     /storage/coda1/p-amedford6/0/shared/rich_project_chbe-medford/medford-share/data/pseudos_module/espresso/nninc/pbe/van/H.UPF
     MD5 check sum: b5ee9d7bfd3a09ee7748110bda690ff7
     Pseudo is Ultrasoft, Zval =  1.0
     Generated by new atomic code, or converted to UPF format
     Using radial grid of  615 points,  1 beta functions with:
                l(1) =   0
     Q(r) pseudized with  8 coefficients,  rinner =    0.800

     atomic species   valence    mass     pseudopotential
        Ti1           12.00    47.86700     Ti( 1.00)
        O1             6.00    15.99900     O ( 1.00)
        N1             5.00    14.00700     N ( 1.00)
        C1             4.00    12.01100     C ( 1.00)
        H1             1.00     1.00800     H ( 1.00)

     Starting magnetic structure
     atomic species   magnetization
        Ti1          0.000
        O1           0.000
        N1           0.000
        C1           0.025
        H1           0.000

     No symmetry found

   Cartesian axes

     site n.     atom                  positions (alat units)
         1           Ti1 tau(   1) = (   0.0004258   2.9801865   6.0000000  )
         2           Ti1 tau(   2) = (   3.2906075   1.4906267   6.0002472  )
         3           O1  tau(   3) = (   0.0006271   0.0005054   7.9858123  )
         4           O1  tau(   4) = (   3.2906025   0.0005020   7.3038282  )
         5           O1  tau(   5) = (   4.5942328   1.4918067   9.2879030  )
         6           O1  tau(   6) = (   1.9868534   1.4903216   9.2879459  )
         7           Ti1 tau(   7) = (   3.2907910   2.8959150   9.1758416  )
         8           Ti1 tau(   8) = (   0.0015273   1.4827037   9.2680791  )
         9           O1  tau(   9) = (   3.3037365   0.0094216  11.3222111  )
        10           O1  tau(  10) = (   0.0116148   5.9584955  10.6183126  )
        11           O1  tau(  11) = (   1.3152514   1.5075076  12.6320051  )
        12           O1  tau(  12) = (   5.3186361   1.4995162  12.6508707  )
        13           Ti1 tau(  13) = (   6.5540705   2.9956815  12.5884341  )
        14           Ti1 tau(  14) = (   3.2234832   1.4927074  12.4921739  )
        15           O1  tau(  15) = (   0.0610261   5.9052480  14.6017706  )
        16           O1  tau(  16) = (   3.2936532   0.0132264  13.8830087  )
        17           O1  tau(  17) = (   4.5722397   1.5061520  16.0138922  )
        18           O1  tau(  18) = (   2.0767725   1.5295127  16.0808449  )
        19           Ti1 tau(  19) = (   3.3650854   3.0251465  15.6907462  )
        20           Ti1 tau(  20) = (   0.0387768   1.3037779  15.7216176  )
        21           O1  tau(  21) = (   3.2904802   0.0005063   4.7018136  )
        22           O1  tau(  22) = (   0.0189486   0.1070799  17.1824039  )
        23           O1  tau(  23) = (   1.3043587   1.4918075   6.0039043  )
        24           O1  tau(  24) = (   5.2767064   1.4903225   6.0039473  )
        25           Ti1 tau(  25) = (   0.0000382   5.9609847   6.0000000  )
        26           Ti1 tau(  26) = (   3.2902200   4.4714249   6.0002472  )
        27           O1  tau(  27) = (   0.0002396   2.9813036   7.9858123  )
        28           O1  tau(  28) = (   3.2902150   2.9813002   7.3038282  )
        29           O1  tau(  29) = (   4.5938453   4.4726049   9.2879030  )
        30           O1  tau(  30) = (   1.9864658   4.4711199   9.2879459  )
        31           Ti1 tau(  31) = (   3.2891106   5.8743827   9.1763621  )
        32           Ti1 tau(  32) = (   0.0006254   4.4649316   9.2693709  )
        33           O1  tau(  33) = (   3.3043114   2.9829305  11.3227053  )
        34           O1  tau(  34) = (   0.0092240   2.9805883  10.6323155  )
        35           O1  tau(  35) = (   1.3131995   4.4620516  12.6081187  )
        36           O1  tau(  36) = (   5.3117129   4.4692194  12.6284301  )
        37           Ti1 tau(  37) = (   6.5303063   5.9583428  12.5400172  )
        38           Ti1 tau(  38) = (   3.2255477   4.4746212  12.4748647  )
        39           O1  tau(  39) = (   0.0377805   3.0059521  14.8845374  )
        40           O1  tau(  40) = (   3.3120027   2.9986483  13.8863452  )
        41           O1  tau(  41) = (   4.5434534   4.5277214  16.0148975  )
        42           O1  tau(  42) = (   2.1165747   4.4940517  16.0783766  )
        43           Ti1 tau(  43) = (   3.3042555   0.0241951  15.7004812  )
        44           Ti1 tau(  44) = (   0.0495666   4.4505358  16.3362958  )
        45           O1  tau(  45) = (   3.2900926   2.9813045   4.7018136  )
        46           O1  tau(  46) = (   1.3039711   4.4726057   6.0039043  )
        47           O1  tau(  47) = (   5.2763189   4.4711207   6.0039473  )
        48           N1  tau(  48) = (   0.5348212   3.4288502  18.0689430  )
        49           C1  tau(  49) = (   1.3456880   3.0079929  19.2215664  )
        50           H1  tau(  50) = (   1.4862090   3.8900195  19.8496782  )
        51           H1  tau(  51) = (   0.8469181   2.2141957  19.7647163  )
        52           H1  tau(  52) = (   2.3296892   2.6851793  18.8624704  )
        53           N1  tau(  53) = (   5.9145885   3.2636146  17.9655992  )

     number of k points=    10  Fermi-Dirac smearing, width (Ry)=  0.0073
                       cart. coord. in units 2pi/alat
        k(    1) = (   0.0000000   0.0000000   0.0000000), wk =   0.0625000
        k(    2) = (   0.0000000   0.0419351   0.0000000), wk =   0.1250000
        k(    3) = (   0.0000000  -0.0838702   0.0000000), wk =   0.0625000
        k(    4) = (   0.0379955   0.0000049   0.0000000), wk =   0.1250000
        k(    5) = (   0.0379955   0.0419400   0.0000000), wk =   0.1250000
        k(    6) = (   0.0379955  -0.0838652   0.0000000), wk =   0.1250000
        k(    7) = (   0.0379955  -0.0419301   0.0000000), wk =   0.1250000
        k(    8) = (  -0.0759910  -0.0000099   0.0000000), wk =   0.0625000
[...]
        k(   10) = (  -0.0759910  -0.0838800   0.0000000), wk =   0.0625000

     Initial potential from superposition of free atoms

     starting charge  378.99916, renormalised to  395.00000

     negative rho (up, down):  8.049E-03 8.056E-03

     %%%%%%%%%%%%%%%%%%%%%%%%%%%%%%%%%%%%%%%%%%%%%%%%%%%%%%%%%%%%%%%%%%%%%%%%
     %                                                                      %
     % You are using vdW-DF, which was implemented by the Thonhauser group. %
     % Please cite the following two papers that made this development      %
     % possible and the two reviews that describe the various versions:     %
     %                                                                      %
     %   T. Thonhauser et al., PRL 115, 136402 (2015).                      %
     %   T. Thonhauser et al., PRB 76, 125112 (2007).                       %
     %   K. Berland et al., Rep. Prog. Phys. 78, 066501 (2015).             %
     %   D.C. Langreth et al., J. Phys.: Condens. Matter 21, 084203 (2009). %
     %                                                                      %
     %                                                                      %
     % If you are calculating the stress with vdW-DF, please also cite:     %
     %                                                                      %
     %   R. Sabatini et al., J. Phys.: Condens. Matter 24, 424209 (2012).   %
     %                                                                      %
     %%%%%%%%%%%%%%%%%%%%%%%%%%%%%%%%%%%%%%%%%%%%%%%%%%%%%%%%%%%%%%%%%%%%%%%%

     Adding external electric field

     Computed dipole along edir(3) :
        Dipole               -8.5786 Ry au,        -21.8047 Debye
        Dipole field         -0.0162 Ry au,

        Potential amp.        1.5007 Ry
        Total length         46.3494 bohr

[...]

     Starting wfcs are  299 atomic wfcs
  @ DRIVER MODE: Message from server: STATUS
  @ DRIVER MODE: Message from server: POSDATA
  @ DRIVER MODE: Reading and sharing cell
  @ DRIVER MODE: Reading and sharing positions
  @ DRIVER MODE: Received positions

     Self-consistent Calculation

     iteration #  1     ecut=    29.40 Ry     beta= 0.05
     Davidson diagonalization with overlap
     c_bands:  1 eigenvalues not converged
     c_bands:  1 eigenvalues not converged
     c_bands:  1 eigenvalues not converged
     c_bands:  3 eigenvalues not converged
     c_bands:  1 eigenvalues not converged
     c_bands:  3 eigenvalues not converged
     c_bands:  1 eigenvalues not converged
     c_bands:  2 eigenvalues not converged
     c_bands:  1 eigenvalues not converged
     c_bands:  1 eigenvalues not converged
     c_bands:  1 eigenvalues not converged
     c_bands:  3 eigenvalues not converged
     c_bands:  1 eigenvalues not converged
     c_bands:  3 eigenvalues not converged
     c_bands:  1 eigenvalues not converged
     c_bands:  2 eigenvalues not converged
     ethr =  1.00E-05,  avg # of iterations = 19.2

[...]

     total energy              =   -2599.55126221 Ry
     estimated scf accuracy    <    3761.66718247 Ry

     total magnetization       =     0.00 Bohr mag/cell
     absolute magnetization    =     0.02 Bohr mag/cell

     iteration #  2     ecut=    29.40 Ry     beta= 0.05
     Davidson diagonalization with overlap
     ethr =  1.00E-02,  avg # of iterations = 22.6

[...]

     iteration # 64     ecut=    29.40 Ry     beta= 0.05
     Davidson diagonalization with overlap
     c_bands:  1 eigenvalues not converged
     c_bands:  1 eigenvalues not converged
     ethr =  2.65E-08,  avg # of iterations = 12.4

[...]

     total energy              =   -2939.12575013 Ry
     estimated scf accuracy    <       0.00000010 Ry

[...]

     iteration # 82     ecut=    29.40 Ry     beta= 0.05
     Davidson diagonalization with overlap
     ethr =  1.98E-11,  avg # of iterations =  9.6

     negative rho (up, down):  8.122E-03 8.122E-03

[...]

     Adding external electric field

     Computed dipole along edir(3) :
        Dipole                0.9123 Ry au,          2.3187 Debye
        Dipole field          0.0017 Ry au,

        Potential amp.       -0.1596 Ry
        Total length         46.3494 bohr

     Magnetic moment per site  (integrated on atomic sphere of radius R)
     atom   1 (R=0.727)  charge=  7.9485  magn= -0.0045
     atom   2 (R=0.727)  charge=  7.9316  magn= -0.0004
     atom   3 (R=0.727)  charge=  4.9369  magn=  0.0004
     atom   4 (R=0.727)  charge=  4.9738  magn=  0.0001
     atom   5 (R=0.727)  charge=  4.9423  magn=  0.0000
     atom   6 (R=0.727)  charge=  4.9431  magn=  0.0000
     atom   7 (R=0.727)  charge=  7.9299  magn= -0.0002
     atom   8 (R=0.727)  charge=  7.9249  magn= -0.0015
     atom   9 (R=0.727)  charge=  4.9562  magn=  0.0000
     atom  10 (R=0.727)  charge=  4.9398  magn=  0.0001
     atom  11 (R=0.727)  charge=  4.9438  magn=  0.0000
     atom  12 (R=0.727)  charge=  4.9403  magn=  0.0001
     atom  13 (R=0.727)  charge=  7.9199  magn= -0.0004
     atom  14 (R=0.727)  charge=  7.9286  magn= -0.0001
     atom  15 (R=0.727)  charge=  4.9367  magn= -0.0000
     atom  16 (R=0.727)  charge=  4.9585  magn=  0.0000
     atom  17 (R=0.727)  charge=  4.9268  magn= -0.0000
     atom  18 (R=0.727)  charge=  4.9195  magn= -0.0000
     atom  19 (R=0.727)  charge=  7.9516  magn= -0.0000
     atom  20 (R=0.727)  charge=  7.9765  magn= -0.0000
     atom  21 (R=0.727)  charge=  4.8266  magn=  0.0005
     atom  22 (R=0.727)  charge=  4.9097  magn= -0.0000
     atom  23 (R=0.727)  charge=  4.9340  magn=  0.0006
     atom  24 (R=0.727)  charge=  4.9340  magn=  0.0006
     atom  25 (R=0.727)  charge=  7.9485  magn= -0.0045
     atom  26 (R=0.727)  charge=  7.9316  magn= -0.0004
     atom  27 (R=0.727)  charge=  4.9363  magn=  0.0004
     atom  28 (R=0.727)  charge=  4.9740  magn=  0.0001
     atom  29 (R=0.727)  charge=  4.9433  magn=  0.0000
     atom  30 (R=0.727)  charge=  4.9439  magn=  0.0000
     atom  31 (R=0.727)  charge=  7.9304  magn= -0.0002
     atom  32 (R=0.727)  charge=  7.9251  magn= -0.0015
     atom  33 (R=0.727)  charge=  4.9553  magn=  0.0000
     atom  34 (R=0.727)  charge=  4.9242  magn=  0.0001
     atom  35 (R=0.727)  charge=  4.9447  magn=  0.0000
     atom  36 (R=0.727)  charge=  4.9438  magn=  0.0001
     atom  37 (R=0.727)  charge=  7.9230  magn= -0.0003
     atom  38 (R=0.727)  charge=  7.9295  magn= -0.0001
     atom  39 (R=0.727)  charge=  4.9078  magn= -0.0000
     atom  40 (R=0.727)  charge=  4.9610  magn=  0.0000
     atom  41 (R=0.727)  charge=  4.9355  magn= -0.0000
     atom  42 (R=0.727)  charge=  4.9347  magn= -0.0000
     atom  43 (R=0.727)  charge=  7.9538  magn= -0.0000
     atom  44 (R=0.727)  charge=  7.9724  magn=  0.0000
     atom  45 (R=0.727)  charge=  4.8266  magn=  0.0004
     atom  46 (R=0.727)  charge=  4.9340  magn=  0.0006
     atom  47 (R=0.727)  charge=  4.9341  magn=  0.0006
     atom  48 (R=0.501)  charge=  1.9989  magn= -0.0000
     atom  49 (R=0.447)  charge=  0.8400  magn=  0.0000
     atom  50 (R=0.447)  charge=  0.4950  magn= -0.0000
     atom  51 (R=0.447)  charge=  0.5026  magn= -0.0000
     atom  52 (R=0.447)  charge=  0.4947  magn= -0.0000
     atom  53 (R=0.501)  charge=  1.9559  magn= -0.0000

     End of self-consistent calculation

 ------ SPIN UP ------------

          k = 0.0000 0.0000 0.0000 ( 18029 PWs)   bands (ev):

   -55.7711 -55.7691 -55.7371 -55.7331 -55.6825 -55.6341 -55.5945 -55.5606
   -55.5547 -55.5210 -55.5191 -55.4460 -54.9563 -54.8093 -54.7550 -54.7210
   -32.3179 -32.2573 -32.1738 -32.0932 -32.0626 -32.0554 -32.0466 -32.0161
   -32.0048 -31.9695 -31.9393 -31.9225 -31.9209 -31.9040 -31.8815 -31.8791
   -31.8777 -31.8771 -31.8642 -31.8340 -31.8272 -31.8205 -31.7996 -31.7901
   -31.7871 -31.7814 -31.7801 -31.7545 -31.7404 -31.7350 -31.7236 -31.7097
   -31.7046 -31.6684 -31.6355 -31.5633 -31.4928 -31.3384 -31.1673 -31.1618
   -31.1068 -31.0737 -31.0675 -31.0514 -30.9788 -30.9150 -30.8923 -30.7810
   -19.4515 -16.5166 -16.2519 -15.9667 -15.9147 -15.8402 -15.7470 -15.6241
   -15.5285 -15.4097 -15.3710 -15.3153 -15.3075 -15.2631 -15.2361 -15.2321
   -15.2059 -15.1981 -15.1336 -15.1261 -15.0753 -15.0637 -15.0159 -14.9805
   -14.9693 -14.9145 -14.8455 -14.8046 -14.6846 -14.1601 -13.2575 -13.1411
   -12.3218  -7.2718  -4.9400  -4.7847  -3.8988  -3.7564  -3.7153  -3.6843
    -3.6399  -3.4386  -3.3488  -3.2829  -3.0432  -2.9521  -2.9275  -2.9168
    -2.8676  -2.7091  -2.6519  -2.6008  -2.5848  -2.5616  -2.5394  -2.5312
    -2.4963  -2.4857  -2.4597  -2.4187  -2.3257  -2.2123  -2.1819  -2.1042
    -2.0896  -2.0729  -2.0438  -2.0330  -2.0243  -2.0144  -1.9961  -1.9582
    -1.8896  -1.8509  -1.7850  -1.7008  -1.5588  -1.5378  -1.4600  -1.3846
    -1.3049  -1.2621  -1.2404  -1.2119  -1.1722  -1.0921  -1.0664  -0.9203
    -0.8233  -0.7902  -0.7730  -0.7310  -0.6947  -0.5924  -0.5707  -0.5418
    -0.5329  -0.5050  -0.4310  -0.3747  -0.2431  -0.2121  -0.2082  -0.1704
    -0.0997  -0.0459   0.0077   0.0565   0.0646   0.1003   0.1606   0.1855
     0.1902   0.2332   0.2754   0.3506   0.3765   0.4506   0.4547   0.5187
     0.5625   0.6439   0.7517   0.8738   1.0173   1.1543   1.1987   1.2674
     1.3633   1.4594   1.8374   1.8832   2.1400   3.3405   3.4506   3.4698
     3.4825   3.5888   3.7991   3.8192   3.8682   3.8888   3.8969

[...]

          k =-0.0760-0.0000 0.0000 ( 17886 PWs)   bands (ev):

[...]

 ------ SPIN DOWN ----------

[...]

          k = 0.0380-0.0419 0.0000 ( 17876 PWs)   bands (ev):

[...]

          k =-0.0760-0.0839 0.0000 ( 17948 PWs)   bands (ev):

   -55.7625 -55.7623 -55.7520 -55.7505 -55.6760 -55.6420 -55.5801 -55.5797
   -55.5385 -55.5381 -55.5146 -55.4503 -54.9549 -54.8104 -54.7390 -54.7388
   -32.1216 -32.1181 -32.0763 -32.0761 -32.0575 -32.0573 -32.0192 -32.0043
   -31.9980 -31.9893 -31.9206 -31.9154 -31.9055 -31.8993 -31.8830 -31.8826
   -31.8812 -31.8794 -31.8784 -31.8717 -31.8537 -31.8512 -31.8500 -31.8130
   -31.7836 -31.7828 -31.7810 -31.7678 -31.7676 -31.7592 -31.7582 -31.7556
   -31.7544 -31.7357 -31.7112 -31.6602 -31.4396 -31.3210 -31.1692 -31.1597
   -31.0854 -31.0651 -31.0649 -30.9754 -30.9752 -30.9365 -30.9364 -30.9180
   -19.4495 -15.9169 -15.9108 -15.7493 -15.7148 -15.6491 -15.6403 -15.5726
   -15.5055 -15.4606 -15.4555 -15.3406 -15.3385 -15.3239 -15.3023 -15.2481
   -15.2318 -15.2304 -15.2268 -15.2191 -15.2073 -15.1800 -15.1494 -15.0987
   -15.0936 -15.0727 -15.0627 -14.9413 -14.5322 -14.4700 -13.2416 -13.2416
   -12.3243  -7.2590  -4.9412  -4.7828  -3.6406  -3.2062  -3.1898  -3.0023
    -2.9187  -2.9074  -2.8922  -2.7349  -2.7207  -2.7106  -2.6521  -2.6378
    -2.6225  -2.5998  -2.5835  -2.5598  -2.5189  -2.5140  -2.4663  -2.4635
    -2.4481  -2.4327  -2.4079  -2.4026  -2.3889  -2.3742  -2.3367  -2.2796
    -2.2421  -2.2144  -2.1864  -2.0901  -2.0293  -1.9936  -1.9266  -1.9180
    -1.8670  -1.8422  -1.8277  -1.7570  -1.6902  -1.6602  -1.5767  -1.4853
    -1.4673  -1.4516  -1.3332  -1.3192  -1.2448  -1.2207  -1.1368  -1.1197
    -1.0802  -0.9694  -0.9462  -0.9148  -0.8802  -0.8363  -0.7727  -0.7357
    -0.7337  -0.6851  -0.6410  -0.5847  -0.5237  -0.5118  -0.4963  -0.4875
    -0.4240  -0.3901  -0.3682  -0.2861  -0.2708  -0.1892  -0.0453  -0.0125
     0.1446   0.1938   0.3031   0.3305   0.4214   0.4430   0.5374   0.5406
     0.5735   0.7023   0.7210   0.7386   0.7548   0.7746   0.7985   0.9375
     1.6326   1.6327   1.7042   1.7044   2.0772   3.6710   3.7081   3.7581
     3.7796   3.8819   3.8875   3.8903   3.8978   4.0196   4.0242

     the Fermi energy is     3.3518 ev

!    total energy              =   -2939.12575751 Ry
     estimated scf accuracy    <       0.00000004 Ry
     smearing contrib. (-TS)   =      -0.02052207 Ry
     internal energy E=F+TS    =   -2939.10523544 Ry

     The total energy is F=E-TS. E is the sum of the following terms:
     one-electron contribution =  -24213.50091669 Ry
     hartree contribution      =   12195.49300490 Ry
     xc contribution           =    -485.20056852 Ry
     ewald contribution        =    9564.10167438 Ry
     electric field correction =       0.00157050 Ry

     total magnetization       =    -0.02 Bohr mag/cell
     absolute magnetization    =     0.03 Bohr mag/cell

     convergence has been achieved in  82 iterations

     Forces acting on atoms (cartesian axes, Ry/au):

     atom    1 type  1   force =     0.00008985   -0.00021163    0.09582220
     atom    2 type  1   force =     0.00007261   -0.00063066   -0.17548562
     atom    3 type  2   force =     0.00017858   -0.00019297   -0.02305436
     atom    4 type  2   force =     0.00004116   -0.00128626    0.05262944
     atom    5 type  2   force =    -0.00977649   -0.00031657    0.00254006
     atom    6 type  2   force =     0.01165659    0.00022470    0.00292250
     atom    7 type  1   force =     0.00088161   -0.00000842   -0.00988811
     atom    8 type  1   force =     0.00000690    0.00530933    0.01816340
     atom    9 type  2   force =    -0.00001537   -0.00029034   -0.00010236
     atom   10 type  2   force =    -0.00253877    0.00216296   -0.01347219
     atom   11 type  2   force =    -0.00097823    0.00010362    0.00017993
     atom   12 type  2   force =     0.00039986   -0.00026040    0.00049277
     atom   13 type  1   force =     0.00009226   -0.00007910    0.00053472
     atom   14 type  1   force =    -0.00003933   -0.00014097   -0.00016114
     atom   15 type  2   force =    -0.00061817    0.00019766    0.00045362
     atom   16 type  2   force =    -0.00043691    0.00007585    0.00017390
     atom   17 type  2   force =    -0.00014577   -0.00011046   -0.00037131
     atom   18 type  2   force =     0.00025794    0.00020389   -0.00000449
     atom   19 type  1   force =    -0.00058079   -0.00059550    0.00080488
     atom   20 type  1   force =    -0.00026722    0.00046716   -0.00074799
     atom   21 type  2   force =     0.00006875   -0.00005919    0.10321349
     atom   22 type  2   force =     0.00009372   -0.00011438   -0.00040352
     atom   23 type  2   force =    -0.07154960   -0.00019134   -0.02752865
     atom   24 type  2   force =     0.07152791    0.00031210   -0.02758774
     atom   25 type  1   force =     0.00012022   -0.00027777    0.09520187
     atom   26 type  1   force =     0.00009090   -0.00048582   -0.17563415
     atom   27 type  2   force =     0.00016017   -0.00012191   -0.02180452
     atom   28 type  2   force =     0.00008204   -0.00106003    0.05250509
     atom   29 type  2   force =    -0.01015822    0.00023452    0.00291722
     atom   30 type  2   force =     0.01197491    0.00052032    0.00329604
     atom   31 type  1   force =     0.00088682    0.00413594   -0.01176010
     atom   32 type  1   force =     0.00013984   -0.00633655    0.01830286
     atom   33 type  2   force =     0.00016145    0.00041763   -0.00009610
     atom   34 type  2   force =    -0.00308368   -0.00010673   -0.00866228
     atom   35 type  2   force =    -0.00021516    0.00007223    0.00001682
     atom   36 type  2   force =    -0.00002095    0.00028507   -0.00005851
     atom   37 type  1   force =     0.00043160   -0.00095241    0.00017344
     atom   38 type  1   force =    -0.00032039    0.00009820    0.00035064
     atom   39 type  2   force =     0.00012361   -0.00024139    0.00053363
     atom   40 type  2   force =    -0.00008253    0.00027092    0.00014464
     atom   41 type  2   force =     0.00003941   -0.00010364   -0.00025229
     atom   42 type  2   force =    -0.00049502    0.00015503   -0.00046627
     atom   43 type  1   force =     0.00025532    0.00054909    0.00013786
     atom   44 type  1   force =    -0.00029700   -0.00089063   -0.00096503
     atom   45 type  2   force =     0.00007460   -0.00005936    0.10317133
     atom   46 type  2   force =    -0.07156282   -0.00009522   -0.02752212
     atom   47 type  2   force =     0.07154564    0.00025547   -0.02758312
     atom   48 type  3   force =    -0.00180681   -0.00048892    0.00082978
     atom   49 type  4   force =     0.01992439    0.00161689   -0.00385817
     atom   50 type  5   force =    -0.00129307   -0.00071390   -0.00067655
     atom   51 type  5   force =    -0.00502560   -0.00373786    0.00224866
     atom   52 type  5   force =    -0.00912150    0.00170623    0.00261644
     atom   53 type  3   force =    -0.00094924    0.00078553   -0.00223052

     Total force =     0.365498     Total SCF correction =     0.000607
  @ DRIVER MODE: Message from server: STATUS
  @ DRIVER MODE: Message from server: GETFORCE
  @ DRIVER MODE: Returning v,forces,stress,ensemble

     Writing output data file ./calc.save/
  @ DRIVER MODE: Message from server: EXIT
  @ DRIVE MODE: Exiting

     General routines

     Parallel routines

   This run was terminated on:  20:42:20  15Jul2021

   JOB DONE.