     Program PWSCF v.6.7GPU starts on  9Sep2021 at 12:59:50

     R & G space division:  proc/nbgrp/npool/nimage =      10
     Reading input from /storage/home/hcoda1/3/ntian30/research/carbon/CxH_vib/CH3_calc/ads_slab/CH3NHNH_a/out_0048/pw.inp
Warning: card &CELL ignored
Warning: card   CELL_DYNAMICS='IPI', ignored
Warning: card / ignored

     Current dimensions of program PWSCF are:
     Max number of different atomic species (ntypx) = 10
     Max number of k-points (npk) =  40000
     Max angular momentum in pseudopotentials (lmaxx) =  3
     Presently no symmetry can be used with electric field

     Message from routine cell_base_init:
     DEPRECATED: use true lattice parameter, not A to a.u. conversion factor

     IMPORTANT: XC functional enforced from input :
     Exchange-correlation= BEEF-VDW
                           (   1   4  43  14   2   0   0)
     Any further DFT definition will be discarded
     Please, verify this is what you really want

  @ DRIVER MODE: Connecting to
 qe_1139763_2767401.sched-torque.pace.gatech.eductd48tfy_scratch
  using UNIX socket
  @ DRIVER MODE: Message from server: STATUS
  @ DRIVER MODE: Message from server: INIT
  @ DRIVER MODE: Receiving replica           0          -1
  @ DRIVER MODE: Receiving encoded integer          25
  @ DRIVER MODE:  SCF:  T  FORCE:  T  STRESS:  F  VC:  F  ENSEMBLE:  F
  @ DRIVER MODE:  SCF:  T  FORCE:  T  STRESS:  F  VC:  F  ENSEMBLE:  F

     Using Slab Decomposition

     bravais-lattice index     =            0
     lattice parameter (alat)  =       1.8897  a.u.
     unit-cell volume          =    6658.9804 (a.u.)^3
     number of atoms/cell      =           55
     number of atomic types    =            5
     number of electrons       =       397.00
     number of Kohn-Sham states=          208
     kinetic-energy cutoff     =      29.3995  Ry
     charge density cutoff     =     293.9946  Ry
     scf convergence threshold =      7.3E-08
     mixing beta               =       0.0500
     number of iterations used =            8  plain     mixing
     Exchange-correlation= BEEF-VDW
                           (   1   4  43  14   2   0   0)

     celldm(1)=   1.889726  celldm(2)=   0.000000  celldm(3)=   0.000000
     celldm(4)=   0.000000  celldm(5)=   0.000000  celldm(6)=   0.000000

     crystal axes: (cart. coord. in units of alat)
               a(1) = (   6.579727   0.000000   0.000000 )
               a(2) = (  -0.000775   5.961596   0.000000 )
               a(3) = (   0.000000   0.000000  25.155947 )

     reciprocal axes: (cart. coord. in units 2 pi/alat)
               b(1) = (  0.151982  0.000020  0.000000 )
               b(2) = (  0.000000  0.167740  0.000000 )
               b(3) = (  0.000000  0.000000  0.039752 )

     PseudoPot. # 1 for Ti read from file:
     /storage/coda1/p-amedford6/0/shared/rich_project_chbe-medford/medford-share/data/pseudos_module/espresso/nninc/pbe/van/Ti.UPF
     MD5 check sum: 8e4df49b7f0d34bbd5052bf3f5ea0213
     Pseudo is Ultrasoft, Zval = 12.0
     Generated by new atomic code, or converted to UPF format
     Using radial grid of  851 points,  6 beta functions with:
                l(1) =   0
                l(2) =   0
                l(3) =   1
                l(4) =   1
                l(5) =   2
                l(6) =   2
     Q(r) pseudized with  8 coefficients,  rinner =    1.000   1.000   1.000
                                                       1.000   1.000

     PseudoPot. # 2 for O  read from file:
     /storage/coda1/p-amedford6/0/shared/rich_project_chbe-medford/medford-share/data/pseudos_module/espresso/nninc/pbe/van/O.UPF
     MD5 check sum: 78c19812648e8988a0fe644b0f25305e
     Pseudo is Ultrasoft, Zval =  6.0
     Generated by new atomic code, or converted to UPF format
     Using radial grid of  737 points,  4 beta functions with:
                l(1) =   0
                l(2) =   0
                l(3) =   1
                l(4) =   1
     Q(r) pseudized with  8 coefficients,  rinner =    0.800   0.800   0.800

     PseudoPot. # 3 for N  read from file:
     /storage/coda1/p-amedford6/0/shared/rich_project_chbe-medford/medford-share/data/pseudos_module/espresso/nninc/pbe/van/N.UPF
     MD5 check sum: 90d10febe142ad51ac9d5be1deb811c4
     Pseudo is Ultrasoft, Zval =  5.0
     Generated by new atomic code, or converted to UPF format
     Using radial grid of  729 points,  4 beta functions with:
                l(1) =   0
                l(2) =   0
                l(3) =   1
                l(4) =   1
     Q(r) pseudized with  8 coefficients,  rinner =    0.800   0.800   0.800

     PseudoPot. # 4 for C  read from file:
     /storage/coda1/p-amedford6/0/shared/rich_project_chbe-medford/medford-share/data/pseudos_module/espresso/nninc/pbe/van/C.UPF
     MD5 check sum: 1a69bf6b8db32088f5b2163dbdb77a27
     Pseudo is Ultrasoft, Zval =  4.0
     Generated by new atomic code, or converted to UPF format
     Using radial grid of  721 points,  4 beta functions with:
                l(1) =   0
                l(2) =   0
                l(3) =   1
                l(4) =   1
     Q(r) pseudized with  8 coefficients,  rinner =    0.800   0.800   0.800

     PseudoPot. # 5 for H  read from file:
     /storage/coda1/p-amedford6/0/shared/rich_project_chbe-medford/medford-share/data/pseudos_module/espresso/nninc/pbe/van/H.UPF
     MD5 check sum: b5ee9d7bfd3a09ee7748110bda690ff7
     Pseudo is Ultrasoft, Zval =  1.0
     Generated by new atomic code, or converted to UPF format
     Using radial grid of  615 points,  1 beta functions with:
                l(1) =   0
     Q(r) pseudized with  8 coefficients,  rinner =    0.800

     atomic species   valence    mass     pseudopotential
        Ti1           12.00    47.86700     Ti( 1.00)
        O1             6.00    15.99900     O ( 1.00)
        N1             5.00    14.00700     N ( 1.00)
        C1             4.00    12.01100     C ( 1.00)
        H1             1.00     1.00800     H ( 1.00)

     No symmetry found

   Cartesian axes

     site n.     atom                  positions (alat units)
         1           Ti1 tau(   1) = (   0.0004258   2.9801865   6.0000000  )
         2           Ti1 tau(   2) = (   3.2906075   1.4906267   6.0002472  )
         3           O1  tau(   3) = (   0.0006271   0.0005054   7.9858123  )
         4           O1  tau(   4) = (   3.2906025   0.0005020   7.3038282  )
         5           O1  tau(   5) = (   4.5942328   1.4918067   9.2879030  )
         6           O1  tau(   6) = (   1.9868534   1.4903216   9.2879459  )
         7           Ti1 tau(   7) = (   3.2907910   2.8959150   9.1758416  )
         8           Ti1 tau(   8) = (   0.0015273   1.4827037   9.2680791  )
         9           O1  tau(   9) = (   3.2830128   5.9597860  11.3344455  )
        10           O1  tau(  10) = (   0.0116148   5.9584955  10.6183126  )
        11           O1  tau(  11) = (   1.2885291   1.4855062  12.6376555  )
        12           O1  tau(  12) = (   5.2724004   1.4911608  12.5936499  )
        13           Ti1 tau(  13) = (   0.0410009   3.0319447  12.6084003  )
        14           Ti1 tau(  14) = (   3.3739341   1.4916561  12.4823474  )
        15           O1  tau(  15) = (   6.4862162   0.0153916  14.6455093  )
        16           O1  tau(  16) = (   3.3439542   5.9611638  13.9051029  )
        17           O1  tau(  17) = (   4.4933269   1.5483200  16.1231154  )
        18           O1  tau(  18) = (   1.9964937   1.4536654  15.9127221  )
        19           Ti1 tau(  19) = (   3.1412959   3.0017366  15.7441667  )
        20           Ti1 tau(  20) = (   6.4823597   1.5369342  15.8006069  )
        21           O1  tau(  21) = (   3.2904802   0.0005063   4.7018136  )
        22           O1  tau(  22) = (   6.5709111   0.0522475  17.2082838  )
        23           O1  tau(  23) = (   1.3043587   1.4918075   6.0039043  )
        24           O1  tau(  24) = (   5.2767064   1.4903225   6.0039473  )
        25           Ti1 tau(  25) = (   0.0000382   5.9609847   6.0000000  )
        26           Ti1 tau(  26) = (   3.2902200   4.4714249   6.0002472  )
        27           O1  tau(  27) = (   0.0002396   2.9813036   7.9858123  )
        28           O1  tau(  28) = (   3.2902150   2.9813002   7.3038282  )
        29           O1  tau(  29) = (   4.5938453   4.4726049   9.2879030  )
        30           O1  tau(  30) = (   1.9864658   4.4711199   9.2879459  )
        31           Ti1 tau(  31) = (   3.2891106   5.8743827   9.1763621  )
        32           Ti1 tau(  32) = (   0.0006254   4.4649316   9.2693709  )
        33           O1  tau(  33) = (   3.2833609   2.9822938  11.3349093  )
        34           O1  tau(  34) = (   0.0092240   2.9805883  10.6323155  )
        35           O1  tau(  35) = (   1.2838611   4.4860338  12.6468719  )
        36           O1  tau(  36) = (   5.2760156   4.4607002  12.6015494  )
        37           Ti1 tau(  37) = (   0.0673138   0.0440259  12.5461749  )
        38           Ti1 tau(  38) = (   3.3712377   4.4654930  12.4933830  )
        39           O1  tau(  39) = (   6.5217465   2.9589972  14.6412948  )
        40           O1  tau(  40) = (   3.2809526   2.9956502  13.9333893  )
        41           O1  tau(  41) = (   4.4911989   4.4583117  16.1637052  )
        42           O1  tau(  42) = (   1.9937212   4.5427850  15.9740970  )
        43           Ti1 tau(  43) = (   3.2955853   0.0167752  15.6963065  )
        44           Ti1 tau(  44) = (   6.5082246   4.6715011  16.1069148  )
        45           O1  tau(  45) = (   3.2900926   2.9813045   4.7018136  )
        46           O1  tau(  46) = (   1.3039711   4.4726057   6.0039043  )
        47           O1  tau(  47) = (   5.2763189   4.4711207   6.0039473  )
        48           N1  tau(  48) = (   1.3945086   2.8365607  18.1849301  )
        49           N1  tau(  49) = (   0.1777896   2.9650562  17.4211889  )
        50           C1  tau(  50) = (   1.4118813   3.7128676  19.3556819  )
        51           H1  tau(  51) = (   0.5171711   3.5996102  19.9880000  )
        52           H1  tau(  52) = (   2.2935099   3.4681107  19.9517681  )
        53           H1  tau(  53) = (   1.4703795   4.7520035  19.0319817  )
        54           H1  tau(  54) = (   1.4579882   1.8621926  18.4823179  )
        55           H1  tau(  55) = (   5.9558665   2.8747675  18.0651794  )

     number of k points=    10  Fermi-Dirac smearing, width (Ry)=  0.0073
                       cart. coord. in units 2pi/alat
        k(    1) = (   0.0000000   0.0000000   0.0000000), wk =   0.1250000
        k(    2) = (   0.0000000   0.0419351   0.0000000), wk =   0.2500000
        k(    3) = (   0.0000000  -0.0838702   0.0000000), wk =   0.1250000
        k(    4) = (   0.0379955   0.0000049   0.0000000), wk =   0.2500000
        k(    5) = (   0.0379955   0.0419400   0.0000000), wk =   0.2500000
        k(    6) = (   0.0379955  -0.0838652   0.0000000), wk =   0.2500000
        k(    7) = (   0.0379955  -0.0419301   0.0000000), wk =   0.2500000
        k(    8) = (  -0.0759910  -0.0000099   0.0000000), wk =   0.1250000
        k(    9) = (  -0.0759910   0.0419252   0.0000000), wk =   0.2500000
        k(   10) = (  -0.0759910  -0.0838800   0.0000000), wk =   0.1250000

     Initial potential from superposition of free atoms

     starting charge  380.99914, renormalised to  397.00000

     negative rho (up, down):  1.540E-02 0.000E+00

     %%%%%%%%%%%%%%%%%%%%%%%%%%%%%%%%%%%%%%%%%%%%%%%%%%%%%%%%%%%%%%%%%%%%%%%%
     %                                                                      %
     % You are using vdW-DF, which was implemented by the Thonhauser group. %
     % Please cite the following two papers that made this development      %
     % possible and the two reviews that describe the various versions:     %
     %                                                                      %
     %   T. Thonhauser et al., PRL 115, 136402 (2015).                      %
     %   T. Thonhauser et al., PRB 76, 125112 (2007).                       %
     %   K. Berland et al., Rep. Prog. Phys. 78, 066501 (2015).             %
     %   D.C. Langreth et al., J. Phys.: Condens. Matter 21, 084203 (2009). %
     %                                                                      %
     %                                                                      %
     % If you are calculating the stress with vdW-DF, please also cite:     %
     %                                                                      %
     %   R. Sabatini et al., J. Phys.: Condens. Matter 24, 424209 (2012).   %
     %                                                                      %
     %%%%%%%%%%%%%%%%%%%%%%%%%%%%%%%%%%%%%%%%%%%%%%%%%%%%%%%%%%%%%%%%%%%%%%%%

     Adding external electric field

     Computed dipole along edir(3) :
        Dipole               -9.6188 Ry au,        -24.4486 Debye
        Dipole field         -0.0182 Ry au,

        Potential amp.        1.6827 Ry
        Total length         46.3494 bohr

     Starting wfcs are  301 atomic wfcs
  @ DRIVER MODE: Message from server: STATUS
  @ DRIVER MODE: Message from server: POSDATA
  @ DRIVER MODE: Reading and sharing cell
  @ DRIVER MODE: Reading and sharing positions
  @ DRIVER MODE: Received positions

     Self-consistent Calculation

     iteration #  1     ecut=    29.40 Ry     beta= 0.05
     Davidson diagonalization with overlap
     c_bands:  1 eigenvalues not converged
     c_bands:  1 eigenvalues not converged
     c_bands:  1 eigenvalues not converged
     c_bands:  1 eigenvalues not converged
     c_bands:  1 eigenvalues not converged
     c_bands:  1 eigenvalues not converged
     c_bands:  2 eigenvalues not converged
     ethr =  1.00E-05,  avg # of iterations = 18.8

[...]

     total energy              =   -2532.97941069 Ry
     estimated scf accuracy    <    4545.66681307 Ry

     iteration #  2     ecut=    29.40 Ry     beta= 0.05
     Davidson diagonalization with overlap
     ethr =  1.00E-02,  avg # of iterations = 24.8

[...]

     iteration # 72     ecut=    29.40 Ry     beta= 0.05
     Davidson diagonalization with overlap
     c_bands:  1 eigenvalues not converged
     ethr =  6.18E-11,  avg # of iterations = 13.9

[...]

     total energy              =   -2941.66152035 Ry
     estimated scf accuracy    <       0.00000012 Ry

     iteration # 74     ecut=    29.40 Ry     beta= 0.05
     Davidson diagonalization with overlap
     ethr =  3.00E-11,  avg # of iterations = 12.5

     negative rho (up, down):  1.606E-02 0.000E+00

     Adding external electric field

     Computed dipole along edir(3) :
        Dipole                0.9410 Ry au,          2.3918 Debye
        Dipole field          0.0018 Ry au,

        Potential amp.       -0.1646 Ry
        Total length         46.3494 bohr

     End of self-consistent calculation

          k = 0.0000 0.0000 0.0000 ( 18029 PWs)   bands (ev):

   -55.6869 -55.6699 -55.6528 -55.6333 -55.5925 -55.5382 -55.5317 -55.5012
   -55.4956 -55.4672 -55.4654 -55.4313 -55.2592 -55.0352 -54.6669 -54.6329
   -32.2209 -32.1699 -32.0428 -32.0332 -31.9996 -31.9849 -31.9798 -31.9557
   -31.9310 -31.8990 -31.8966 -31.8904 -31.8474 -31.8391 -31.8251 -31.8236
   -31.8070 -31.7918 -31.7829 -31.7479 -31.7440 -31.7373 -31.7214 -31.7184
   -31.6951 -31.6904 -31.6881 -31.6802 -31.6660 -31.6642 -31.6560 -31.6473
   -31.6413 -31.6317 -31.6183 -31.6087 -31.5775 -31.5093 -31.4655 -31.3014
   -31.2918 -31.2379 -31.0742 -30.9857 -30.9632 -30.8909 -30.8044 -30.6933
   -16.7699 -16.4175 -16.1626 -15.9331 -15.8421 -15.8120 -15.6595 -15.5278
   -15.4184 -15.3368 -15.2520 -15.2328 -15.2254 -15.2149 -15.1886 -15.1831
   -15.1357 -15.1308 -15.1114 -15.0986 -15.0485 -15.0324 -15.0286 -14.9340
   -14.8699 -14.8345 -14.8199 -14.7853 -14.7478 -14.3342 -13.1694 -13.0529
   -11.7897  -8.9706  -5.4134  -4.3626  -3.8436  -3.7890  -3.6450  -3.5943
    -3.5341  -3.4958  -3.3176  -3.2151  -2.9424  -2.8852  -2.8558  -2.8468
    -2.7899  -2.7585  -2.6016  -2.5756  -2.5046  -2.4953  -2.4804  -2.4514
    -2.4427  -2.4359  -2.3976  -2.3761  -2.3476  -2.2433  -2.1035  -2.0943
    -2.0718  -2.0384  -2.0007  -1.9521  -1.9357  -1.9154  -1.8970  -1.8843
    -1.8719  -1.7370  -1.7021  -1.5861  -1.4962  -1.4495  -1.3704  -1.2988
    -1.2703  -1.1582  -1.1184  -1.1067  -1.0917  -1.0809  -0.9814  -0.8757
    -0.8585  -0.8207  -0.7664  -0.7097  -0.6391  -0.5942  -0.5431  -0.4909
    -0.4666  -0.4514  -0.4486  -0.4134  -0.3219  -0.1806  -0.1287  -0.0943
    -0.0720   0.0047   0.0397   0.0958   0.1205   0.1437   0.1794   0.2325
     0.2760   0.2826   0.2960   0.3105   0.3152   0.4895   0.5389   0.5808
     0.6140   0.6601   0.8212   0.8435   0.9653   1.0392   1.2016   1.2807
     1.3552   1.4331   1.5470   1.6236   1.9264   1.9722   3.4439   3.5314
     3.5762   3.5897   3.6852   3.7271   3.8966   3.9271   3.9414   4.0018

[...]

          k = 0.0380-0.0419 0.0000 ( 17876 PWs)   bands (ev):

[...]

          k =-0.0760-0.0000 0.0000 ( 17886 PWs)   bands (ev):

[...]

          k =-0.0760-0.0839 0.0000 ( 17948 PWs)   bands (ev):

   -55.6702 -55.6693 -55.6552 -55.6478 -55.5865 -55.5441 -55.5192 -55.5082
   -55.4847 -55.4832 -55.4513 -55.4455 -55.2581 -55.0362 -54.6499 -54.6498
   -32.0300 -32.0204 -31.9856 -31.9849 -31.9656 -31.9647 -31.9445 -31.9381
   -31.8853 -31.8847 -31.8745 -31.8691 -31.8522 -31.8341 -31.8098 -31.8049
   -31.8006 -31.7969 -31.7903 -31.7901 -31.7890 -31.7886 -31.7848 -31.7450
   -31.7372 -31.7255 -31.7172 -31.7061 -31.6852 -31.6842 -31.6823 -31.6756
   -31.6656 -31.6615 -31.6582 -31.6558 -31.6153 -31.5118 -31.4622 -31.3637
   -31.2939 -31.2638 -30.9760 -30.9759 -30.8870 -30.8869 -30.8477 -30.8477
   -16.7437 -15.8647 -15.8037 -15.6457 -15.6104 -15.5909 -15.5560 -15.4954
   -15.4123 -15.3847 -15.3802 -15.3334 -15.3072 -15.2745 -15.2364 -15.2223
   -15.2149 -15.1961 -15.1835 -15.1500 -15.1405 -15.1288 -15.1216 -15.0463
   -15.0084 -15.0041 -14.9987 -14.8952 -14.7690 -14.5019 -13.1548 -13.1547
   -11.7960  -8.9851  -5.4274  -4.3497  -3.7684  -3.1575  -3.0705  -2.8957
    -2.8402  -2.8114  -2.7955  -2.6293  -2.6184  -2.6037  -2.5567  -2.5362
    -2.5261  -2.5174  -2.5088  -2.4877  -2.4749  -2.4403  -2.4302  -2.3950
    -2.3805  -2.3630  -2.3461  -2.3292  -2.3093  -2.2951  -2.2787  -2.2377
    -2.2180  -2.2072  -2.1865  -2.1428  -1.9327  -1.8826  -1.8375  -1.8333
    -1.8221  -1.8028  -1.7477  -1.7427  -1.7088  -1.6581  -1.5787  -1.4342
    -1.3887  -1.3723  -1.2793  -1.2577  -1.2051  -1.1327  -1.0871  -1.0701
    -1.0352  -0.9708  -0.9345  -0.8976  -0.8311  -0.8064  -0.8006  -0.7071
    -0.6861  -0.6498  -0.6431  -0.5646  -0.5141  -0.4511  -0.4357  -0.4193
    -0.3878  -0.3542  -0.3361  -0.2695  -0.1762  -0.1751  -0.1521  -0.0430
     0.0472   0.2760   0.3387   0.3758   0.4207   0.5144   0.5826   0.6073
     0.6233   0.6445   0.6643   0.7124   0.8395   0.8496   0.8837   0.9966
     1.1007   1.6402   1.7187   1.7195   1.7920   1.7921   3.7455   3.7637
     3.7842   3.8307   3.9499   3.9569   3.9790   3.9813   4.1040   4.1173

     the Fermi energy is     3.4455 ev

!    total energy              =   -2941.66153458 Ry
     estimated scf accuracy    <       0.00000005 Ry
     smearing contrib. (-TS)   =      -0.02152039 Ry
     internal energy E=F+TS    =   -2941.64001419 Ry

     The total energy is F=E-TS. E is the sum of the following terms:
     one-electron contribution =  -24275.48520838 Ry
     hartree contribution      =   12228.20109467 Ry
     xc contribution           =    -486.86791930 Ry
     ewald contribution        =    9592.51034781 Ry
     electric field correction =       0.00167102 Ry

     convergence has been achieved in  74 iterations

     Forces acting on atoms (cartesian axes, Ry/au):

     atom    1 type  1   force =     0.00017503   -0.00011591    0.09634855
     atom    2 type  1   force =    -0.00021754   -0.00063428   -0.17553849
     atom    3 type  2   force =    -0.00004145   -0.00003757   -0.02420773
     atom    4 type  2   force =     0.00004961   -0.00143765    0.05291223
     atom    5 type  2   force =    -0.01180449   -0.00049330    0.00395353
     atom    6 type  2   force =     0.01311792    0.00023456    0.00228966
     atom    7 type  1   force =    -0.00140276    0.00080012   -0.01149880
     atom    8 type  1   force =     0.00053094    0.00921208    0.02522391
     atom    9 type  2   force =    -0.00011081    0.00017620    0.00037544
     atom   10 type  2   force =    -0.00086254    0.00148571   -0.01579400
     atom   11 type  2   force =    -0.00018142   -0.00049722    0.00038877
     atom   12 type  2   force =    -0.00012640   -0.00026097    0.00002277
     atom   13 type  1   force =     0.00054209   -0.00091593    0.00003789
     atom   14 type  1   force =    -0.00008870   -0.00040732    0.00025144
     atom   15 type  2   force =     0.00016689    0.00005205   -0.00026255
     atom   16 type  2   force =     0.00006606    0.00024564    0.00001733
     atom   17 type  2   force =    -0.00055865    0.00028727    0.00040929
     atom   18 type  2   force =     0.00003294    0.00012747    0.00028300
     atom   19 type  1   force =     0.00021335   -0.00057544    0.00033438
     atom   20 type  1   force =    -0.00004276    0.00024915    0.00072861
     atom   21 type  2   force =     0.00007530   -0.00008031    0.10323998
     atom   22 type  2   force =    -0.00040947   -0.00030685    0.00022537
     atom   23 type  2   force =    -0.07147119   -0.00018691   -0.02770321
     atom   24 type  2   force =     0.07139281    0.00024704   -0.02770591
     atom   25 type  1   force =     0.00003342   -0.00027862    0.09581381
     atom   26 type  1   force =    -0.00014848   -0.00023663   -0.17570528
     atom   27 type  2   force =     0.00009420   -0.00012481   -0.02330774
     atom   28 type  2   force =     0.00008019   -0.00129636    0.05333610
     atom   29 type  2   force =    -0.01193244   -0.00005659    0.00375078
     atom   30 type  2   force =     0.01318413    0.00042970    0.00212670
     atom   31 type  1   force =    -0.00141636    0.00344827   -0.01082116
     atom   32 type  1   force =     0.00064075   -0.01009664    0.02563208
     atom   33 type  2   force =    -0.00039248    0.00005163    0.00003641
     atom   34 type  2   force =     0.00075316    0.00090245   -0.02306203
     atom   35 type  2   force =    -0.00010235    0.00029694   -0.00002864
     atom   36 type  2   force =    -0.00021745    0.00059993   -0.00029637
     atom   37 type  1   force =    -0.00082858   -0.00102427   -0.00016226
     atom   38 type  1   force =    -0.00003301   -0.00009911   -0.00002627
     atom   39 type  2   force =    -0.00031525    0.00005758    0.00066160
     atom   40 type  2   force =     0.00048718    0.00025137    0.00023428
     atom   41 type  2   force =     0.00001576    0.00055863    0.00020589
     atom   42 type  2   force =    -0.00000616    0.00026154   -0.00018339
     atom   43 type  1   force =     0.00028449    0.00011150   -0.00015778
     atom   44 type  1   force =    -0.00044062   -0.00048453    0.00011347
     atom   45 type  2   force =     0.00007181   -0.00008774    0.10326768
     atom   46 type  2   force =    -0.07147327   -0.00016552   -0.02770024
     atom   47 type  2   force =     0.07139947    0.00031003   -0.02771378
     atom   48 type  3   force =     0.00037016   -0.00006160   -0.00043416
     atom   49 type  3   force =    -0.00606937   -0.00117569    0.00762965
     atom   50 type  4   force =     0.00084146   -0.00004844    0.00075944
     atom   51 type  5   force =     0.00104100    0.00035285   -0.00060368
     atom   52 type  5   force =    -0.00029793    0.00072277   -0.00065511
     atom   53 type  5   force =    -0.00024725   -0.00166810    0.00056973
     atom   54 type  5   force =     0.00004366    0.00070637   -0.00046377
     atom   55 type  5   force =     0.00553538    0.00067547   -0.00714740

     Total force =     0.367597     Total SCF correction =     0.000703
  @ DRIVER MODE: Message from server: STATUS
  @ DRIVER MODE: Message from server: GETFORCE
  @ DRIVER MODE: Returning v,forces,stress,ensemble

     Writing output data file ./calc.save/
  @ DRIVER MODE: Message from server: EXIT
  @ DRIVE MODE: Exiting

     General routines

     Parallel routines

   This run was terminated on:  13:20:50   9Sep2021

   JOB DONE.