     Program PWSCF v.6.7GPU starts on 19Oct2021 at  4:43:36

     R & G space division:  proc/nbgrp/npool/nimage =       8
     Reading input from /storage/home/hcoda1/3/ntian30/research/carbon/CxH_vib/Thiel_calc/ads_slab/NH2NH3H_perslab/out_0036/pw.inp
Warning: card &CELL ignored
Warning: card   CELL_DYNAMICS='IPI', ignored
Warning: card / ignored

     Current dimensions of program PWSCF are:
     Max number of different atomic species (ntypx) = 10
     Max number of k-points (npk) =  40000
     Max angular momentum in pseudopotentials (lmaxx) =  3
     Presently no symmetry can be used with electric field

     Message from routine cell_base_init:
     DEPRECATED: use true lattice parameter, not A to a.u. conversion factor

     IMPORTANT: XC functional enforced from input :
     Exchange-correlation= BEEF-VDW
                           (   1   4  43  14   2   0   0)
     Any further DFT definition will be discarded
     Please, verify this is what you really want

  @ DRIVER MODE: Connecting to
 qe_1139763_3255138.sched-torque.pace.gatech.eduofyxvbfp_scratch
  using UNIX socket
  @ DRIVER MODE: Message from server: STATUS
  @ DRIVER MODE: Message from server: INIT
  @ DRIVER MODE: Receiving replica           0          -1
  @ DRIVER MODE: Receiving encoded integer          25
  @ DRIVER MODE:  SCF:  T  FORCE:  T  STRESS:  F  VC:  F  ENSEMBLE:  F
  @ DRIVER MODE:  SCF:  T  FORCE:  T  STRESS:  F  VC:  F  ENSEMBLE:  F

     Using Slab Decomposition

     bravais-lattice index     =            0
     lattice parameter (alat)  =       1.8897  a.u.
     unit-cell volume          =    9988.4706 (a.u.)^3
     number of atoms/cell      =           61
     number of atomic types    =            4
     number of electrons       =       442.00
     number of Kohn-Sham states=          231
     kinetic-energy cutoff     =      29.3995  Ry
     charge density cutoff     =     293.9946  Ry
     scf convergence threshold =      7.3E-08
     mixing beta               =       0.0500
     number of iterations used =            8  plain     mixing
     Exchange-correlation= BEEF-VDW
                           (   1   4  43  14   2   0   0)

     celldm(1)=   1.889726  celldm(2)=   0.000000  celldm(3)=   0.000000
     celldm(4)=   0.000000  celldm(5)=   0.000000  celldm(6)=   0.000000

     crystal axes: (cart. coord. in units of alat)
               a(1) = (   6.579727   0.000000   0.000000 )
               a(2) = (  -0.001163   8.942395   0.000000 )
               a(3) = (   0.000000   0.000000  25.155947 )

     reciprocal axes: (cart. coord. in units 2 pi/alat)
               b(1) = (  0.151982  0.000020  0.000000 )
               b(2) = (  0.000000  0.111827  0.000000 )
               b(3) = (  0.000000  0.000000  0.039752 )

     PseudoPot. # 1 for O  read from file:
     /storage/coda1/p-amedford6/0/shared/rich_project_chbe-medford/medford-share/data/pseudos_module/espresso/nninc/pbe/van/O.UPF
     MD5 check sum: 78c19812648e8988a0fe644b0f25305e
     Pseudo is Ultrasoft, Zval =  6.0
     Generated by new atomic code, or converted to UPF format
     Using radial grid of  737 points,  4 beta functions with:
                l(1) =   0
                l(2) =   0
                l(3) =   1
                l(4) =   1
     Q(r) pseudized with  8 coefficients,  rinner =    0.800   0.800   0.800

     PseudoPot. # 2 for Ti read from file:
     /storage/coda1/p-amedford6/0/shared/rich_project_chbe-medford/medford-share/data/pseudos_module/espresso/nninc/pbe/van/Ti.UPF
     MD5 check sum: 8e4df49b7f0d34bbd5052bf3f5ea0213
     Pseudo is Ultrasoft, Zval = 12.0
     Generated by new atomic code, or converted to UPF format
     Using radial grid of  851 points,  6 beta functions with:
                l(1) =   0
                l(2) =   0
                l(3) =   1
                l(4) =   1
                l(5) =   2
                l(6) =   2
     Q(r) pseudized with  8 coefficients,  rinner =    1.000   1.000   1.000
                                                       1.000   1.000

     PseudoPot. # 3 for N  read from file:
     /storage/coda1/p-amedford6/0/shared/rich_project_chbe-medford/medford-share/data/pseudos_module/espresso/nninc/pbe/van/N.UPF
     MD5 check sum: 90d10febe142ad51ac9d5be1deb811c4
     Pseudo is Ultrasoft, Zval =  5.0
     Generated by new atomic code, or converted to UPF format
     Using radial grid of  729 points,  4 beta functions with:
                l(1) =   0
                l(2) =   0
                l(3) =   1
                l(4) =   1
     Q(r) pseudized with  8 coefficients,  rinner =    0.800   0.800   0.800

     PseudoPot. # 4 for H  read from file:
     /storage/coda1/p-amedford6/0/shared/rich_project_chbe-medford/medford-share/data/pseudos_module/espresso/nninc/pbe/van/H.UPF
     MD5 check sum: b5ee9d7bfd3a09ee7748110bda690ff7
     Pseudo is Ultrasoft, Zval =  1.0
     Generated by new atomic code, or converted to UPF format
     Using radial grid of  615 points,  1 beta functions with:
                l(1) =   0
     Q(r) pseudized with  8 coefficients,  rinner =    0.800

     atomic species   valence    mass     pseudopotential
        O1             6.00    15.99900     O ( 1.00)
        Ti1           12.00    47.86700     Ti( 1.00)
        N1             5.00    14.00700     N ( 1.00)
        H1             1.00     1.00800     H ( 1.00)

     No symmetry found

   Cartesian axes

     site n.     atom                  positions (alat units)
         1           O1  tau(   1) = (   0.0007354   0.0005023  10.5931620  )
         2           O1  tau(   2) = (   3.2893251   8.9324977  13.8850595  )
         3           O1  tau(   3) = (   0.0000810   0.0519898  17.3357851  )
         4           O1  tau(   4) = (   0.0006271   0.0005054   7.9858123  )
         5           O1  tau(   5) = (   3.2891750   8.9291278  11.1853435  )
         6           O1  tau(   6) = (   0.0004222   0.0485762  14.6167438  )
         7           O1  tau(   7) = (   1.9868534   1.4903216   9.2879459  )
         8           O1  tau(   8) = (   5.2393499   1.5905449  12.5682489  )
         9           O1  tau(   9) = (   1.9991366   1.5492019  16.1124644  )
        10           Ti1 tau(  10) = (   0.0007404   1.4906270   9.2895810  )
        11           Ti1 tau(  11) = (   3.2902999   1.3249318  12.4520864  )
        12           Ti1 tau(  12) = (   0.0005939   1.3452645  15.7597600  )
        13           O1  tau(  13) = (   4.5942328   1.4918067   9.2879030  )
        14           O1  tau(  14) = (   1.3411764   1.5910169  12.5684512  )
        15           O1  tau(  15) = (   4.5798538   1.5480364  16.1129854  )
        16           Ti1 tau(  16) = (   3.2902859   2.9801868   9.2893338  )
        17           Ti1 tau(  17) = (   0.0006295   2.8174385  12.4372122  )
        18           Ti1 tau(  18) = (   3.2897038   2.9127836  15.6935398  )
        19           O1  tau(  19) = (   0.0003479   2.9813005  10.5931620  )
        20           O1  tau(  20) = (   3.2904107   2.9319293  13.8952334  )
        21           O1  tau(  21) = (   0.0002396   2.9813036   7.9858123  )
        22           O1  tau(  22) = (   3.2903884   2.9732875  11.2024877  )
        23           O1  tau(  23) = (   6.5791771   2.9400465  14.7470945  )
        24           O1  tau(  24) = (   1.9864658   4.4711199   9.2879459  )
        25           O1  tau(  25) = (   5.2507180   4.5586503  12.6053682  )
        26           O1  tau(  26) = (   1.9989508   4.4013585  16.0758979  )
        27           Ti1 tau(  27) = (   0.0003529   4.4714252   9.2895810  )
        28           Ti1 tau(  28) = (   3.2908498   4.3294621  12.5515864  )
        29           Ti1 tau(  29) = (   0.0012874   4.5361023  15.7587160  )
        30           O1  tau(  30) = (   4.5938453   4.4726049   9.2879030  )
        31           O1  tau(  31) = (   1.3295807   4.5581274  12.6051842  )
        32           O1  tau(  32) = (   4.5807093   4.4011557  16.0767203  )
        33           Ti1 tau(  33) = (   3.2898983   5.9609850   9.2893338  )
        34           Ti1 tau(  34) = (   0.0011720   5.8030845  12.4395124  )
        35           Ti1 tau(  35) = (   3.2913837   5.8399099  16.1904745  )
        36           O1  tau(  36) = (  -0.0000397   5.9620987  10.5931620  )
        37           O1  tau(  37) = (   3.2897076   5.9457256  13.9643012  )
        38           O1  tau(  38) = (   0.0001823   5.8979554  17.1998916  )
        39           O1  tau(  39) = (  -0.0001480   5.9621018   7.9858123  )
        40           O1  tau(  40) = (   3.2897623   5.9362706  11.2341171  )
        41           O1  tau(  41) = (   0.0004469   5.9800359  14.6665197  )
        42           O1  tau(  42) = (   1.9860782   7.4519181   9.2879459  )
        43           O1  tau(  43) = (   5.2507221   7.5245448  12.5933772  )
        44           O1  tau(  44) = (   1.9799843   7.5745874  16.0532815  )
        45           Ti1 tau(  45) = (  -0.0000347   7.4522234   9.2895810  )
        46           Ti1 tau(  46) = (   3.2894177   7.1911746  12.6495270  )
        47           Ti1 tau(  47) = (   0.0007314   7.2822180  16.1322395  )
        48           O1  tau(  48) = (   4.5934577   7.4534031   9.2879030  )
        49           O1  tau(  49) = (   1.3275845   7.5244469  12.5935105  )
        50           O1  tau(  50) = (   4.5990354   7.5728923  16.0522427  )
        51           Ti1 tau(  51) = (   3.2895107   8.9417832   9.2893338  )
        52           Ti1 tau(  52) = (  -0.0007012   8.7603021  12.4499776  )
        53           Ti1 tau(  53) = (   3.2901857   8.8509785  15.6953962  )
        54           N1  tau(  54) = (   3.2899770   5.9827455  18.1265562  )
        55           H1  tau(  55) = (   3.2886311   5.2071789  18.7771882  )
        56           H1  tau(  56) = (   3.2869209   6.8541504  18.6418389  )
        57           H1  tau(  57) = (   6.5771076   8.8877891  18.2917622  )
        58           N1  tau(  58) = (   6.5788838   3.2021548  17.9140464  )
        59           H1  tau(  59) = (   6.5785461   2.2502248  18.2748563  )
        60           H1  tau(  60) = (   5.7591345   3.6762813  18.2792932  )
        61           H1  tau(  61) = (   0.8178175   3.6764091  18.2810048  )

     number of k points=    10  Fermi-Dirac smearing, width (Ry)=  0.0073
                       cart. coord. in units 2pi/alat
        k(    1) = (   0.0000000   0.0000000   0.0000000), wk =   0.1250000
        k(    2) = (   0.0000000   0.0279567   0.0000000), wk =   0.2500000
        k(    3) = (   0.0000000  -0.0559134   0.0000000), wk =   0.1250000
        k(    4) = (   0.0379955   0.0000049   0.0000000), wk =   0.2500000
        k(    5) = (   0.0379955   0.0279617   0.0000000), wk =   0.2500000
        k(    6) = (   0.0379955  -0.0559085   0.0000000), wk =   0.2500000
        k(    7) = (   0.0379955  -0.0279518   0.0000000), wk =   0.2500000
        k(    8) = (  -0.0759910  -0.0000099   0.0000000), wk =   0.1250000
        k(    9) = (  -0.0759910   0.0279468   0.0000000), wk =   0.2500000
        k(   10) = (  -0.0759910  -0.0559233   0.0000000), wk =   0.1250000

     Initial potential from superposition of free atoms

     starting charge  423.99908, renormalised to  442.00000

     negative rho (up, down):  3.660E-02 0.000E+00

     %%%%%%%%%%%%%%%%%%%%%%%%%%%%%%%%%%%%%%%%%%%%%%%%%%%%%%%%%%%%%%%%%%%%%%%%
     %                                                                      %
     % You are using vdW-DF, which was implemented by the Thonhauser group. %
     % Please cite the following two papers that made this development      %
     % possible and the two reviews that describe the various versions:     %
     %                                                                      %
     %   T. Thonhauser et al., PRL 115, 136402 (2015).                      %
     %   T. Thonhauser et al., PRB 76, 125112 (2007).                       %
     %   K. Berland et al., Rep. Prog. Phys. 78, 066501 (2015).             %
     %   D.C. Langreth et al., J. Phys.: Condens. Matter 21, 084203 (2009). %
     %                                                                      %
     %                                                                      %
     % If you are calculating the stress with vdW-DF, please also cite:     %
     %                                                                      %
     %   R. Sabatini et al., J. Phys.: Condens. Matter 24, 424209 (2012).   %
     %                                                                      %
     %%%%%%%%%%%%%%%%%%%%%%%%%%%%%%%%%%%%%%%%%%%%%%%%%%%%%%%%%%%%%%%%%%%%%%%%

     Adding external electric field

     Computed dipole along edir(3) :
        Dipole               -6.2851 Ry au,        -15.9752 Debye
        Dipole field         -0.0079 Ry au,

        Potential amp.        0.7330 Ry
        Total length         46.3494 bohr

     Starting wfcs are  334 atomic wfcs
  @ DRIVER MODE: Message from server: STATUS
  @ DRIVER MODE: Message from server: POSDATA
  @ DRIVER MODE: Reading and sharing cell
  @ DRIVER MODE: Reading and sharing positions
  @ DRIVER MODE: Received positions

     Self-consistent Calculation

     iteration #  1     ecut=    29.40 Ry     beta= 0.05
     Davidson diagonalization with overlap
     c_bands:  2 eigenvalues not converged
     c_bands:  4 eigenvalues not converged
     c_bands:  3 eigenvalues not converged
     c_bands:  4 eigenvalues not converged
     c_bands:  5 eigenvalues not converged
     c_bands:  4 eigenvalues not converged
     c_bands:  2 eigenvalues not converged
     c_bands:  2 eigenvalues not converged
     ethr =  1.00E-05,  avg # of iterations = 21.5

[...]

     total energy              =   -3276.09424076 Ry
     estimated scf accuracy    <     260.40379011 Ry

     iteration #  2     ecut=    29.40 Ry     beta= 0.05
     Davidson diagonalization with overlap
     ethr =  1.00E-02,  avg # of iterations = 15.1

[...]

     iteration # 49     ecut=    29.40 Ry     beta= 0.05
     Davidson diagonalization with overlap
     c_bands:  1 eigenvalues not converged
     ethr =  1.91E-11,  avg # of iterations = 15.7

[...]

     total energy              =   -3295.82441249 Ry
     estimated scf accuracy    <       0.00000012 Ry

     iteration # 50     ecut=    29.40 Ry     beta= 0.05
     Davidson diagonalization with overlap
     ethr =  1.91E-11,  avg # of iterations =  5.6

     negative rho (up, down):  3.545E-02 0.000E+00

     Adding external electric field

     Computed dipole along edir(3) :
        Dipole                1.9346 Ry au,          4.9172 Debye
        Dipole field          0.0024 Ry au,

        Potential amp.       -0.2256 Ry
        Total length         46.3494 bohr

     End of self-consistent calculation

          k = 0.0000 0.0000 0.0000 ( 26871 PWs)   bands (ev):

   -57.4676 -57.4324 -57.4196 -57.3801 -57.3709 -57.3625 -57.3523 -57.3410
   -57.3204 -57.2819 -57.2754 -57.2387 -57.2172 -57.2005 -57.1810 -56.5410
   -56.5167 -56.5106 -33.9383 -33.8515 -33.8503 -33.8286 -33.8085 -33.7912
   -33.7734 -33.7694 -33.7657 -33.7523 -33.7270 -33.7060 -33.7004 -33.6864
   -33.6845 -33.6802 -33.6593 -33.6505 -33.6290 -33.6235 -33.5919 -33.5773
   -33.5598 -33.5554 -33.5477 -33.5470 -33.5433 -33.5358 -33.5240 -33.5207
   -33.5139 -33.4997 -33.4908 -33.4901 -33.4833 -33.4818 -33.4730 -33.4712
   -33.4631 -33.4522 -33.4403 -33.4235 -33.4079 -33.4013 -33.3867 -32.8597
   -32.8515 -32.8505 -32.8338 -32.8284 -32.7690 -32.7077 -32.7004 -32.5688
   -19.3404 -18.2716 -17.9718 -17.7746 -17.7249 -17.6912 -17.5712 -17.5470
   -17.4946 -17.4412 -17.4043 -17.3609 -17.2866 -17.2461 -17.2448 -17.2202
   -17.1664 -17.1425 -17.1345 -17.1243 -17.1225 -17.0977 -17.0482 -17.0444
   -16.9879 -16.9465 -16.9149 -16.9046 -16.8958 -16.8632 -16.8556 -16.8028
   -16.6042 -15.0247 -15.0070 -14.9481 -14.9446  -7.8328  -7.6276  -7.3872
    -6.4605  -5.5802  -5.4285  -5.3973  -5.2335  -4.9621  -4.9103  -4.8671
    -4.8207  -4.7832  -4.7447  -4.7218  -4.6928  -4.6613  -4.6098  -4.5791
    -4.5624  -4.5290  -4.5090  -4.4780  -4.4480  -4.4425  -4.4132  -4.3245
    -4.3153  -4.2914  -4.2737  -4.2385  -4.2200  -4.2172  -4.1684  -4.1567
    -4.0680  -3.9815  -3.8948  -3.8428  -3.8166  -3.7932  -3.7460  -3.7084
    -3.6792  -3.6347  -3.6146  -3.5461  -3.5182  -3.5077  -3.4315  -3.3966
    -3.3014  -3.2631  -3.2517  -3.2308  -3.1884  -3.1768  -3.0939  -3.0815
    -2.9722  -2.9533  -2.8671  -2.7899  -2.7403  -2.7126  -2.6746  -2.6130
    -2.5935  -2.5500  -2.5199  -2.4593  -2.4454  -2.3203  -2.2520  -2.2484
    -2.2286  -2.1899  -2.1605  -2.1464  -2.1240  -2.1210  -2.0425  -2.0337
    -1.9838  -1.9088  -1.8830  -1.8462  -1.8336  -1.7983  -1.7560  -1.6913
    -1.6858  -1.6502  -1.5623  -1.5014  -1.5005  -1.3542  -1.3482  -1.3145
    -1.2663  -1.2127  -1.1822  -0.7798  -0.6039  -0.4349  -0.3084  -0.2476
    -0.2463   0.0283   0.0334   0.1658   1.6147   1.7657   1.8262   1.9601
     1.9785   2.0378   2.1194   2.1414   2.2083   2.2360   2.2448

[...]

          k = 0.0380-0.0280 0.0000 ( 26873 PWs)   bands (ev):

[...]

          k =-0.0760-0.0000 0.0000 ( 26902 PWs)   bands (ev):

[...]

          k =-0.0760-0.0559 0.0000 ( 26868 PWs)   bands (ev):

   -57.4659 -57.4370 -57.4166 -57.3777 -57.3667 -57.3643 -57.3607 -57.3376
   -57.3199 -57.2816 -57.2758 -57.2350 -57.2239 -57.1976 -57.1810 -56.5357
   -56.5276 -56.5049 -33.9830 -33.9343 -33.8623 -33.8180 -33.8015 -33.7896
   -33.7832 -33.7752 -33.7647 -33.7432 -33.7143 -33.6960 -33.6585 -33.6561
   -33.6367 -33.6233 -33.6086 -33.5949 -33.5938 -33.5893 -33.5849 -33.5754
   -33.5715 -33.5645 -33.5626 -33.5498 -33.5417 -33.5271 -33.5208 -33.5192
   -33.5147 -33.5142 -33.5103 -33.5073 -33.5052 -33.4938 -33.4874 -33.4836
   -33.4807 -33.4736 -33.4460 -33.4399 -33.4346 -33.4225 -33.3986 -32.9471
   -32.8523 -32.8442 -32.8225 -32.7517 -32.7431 -32.6826 -32.6695 -32.6618
   -19.3338 -17.9689 -17.8302 -17.8235 -17.6457 -17.6007 -17.5992 -17.5294
   -17.4838 -17.4363 -17.4337 -17.4024 -17.3535 -17.3292 -17.2996 -17.2741
   -17.2584 -17.2232 -17.1820 -17.1809 -17.1473 -17.1138 -17.0875 -17.0453
   -17.0386 -16.9838 -16.9201 -16.8830 -16.8584 -16.8562 -16.8195 -16.7944
   -16.6373 -15.0253 -15.0049 -15.0005 -14.8847  -7.8412  -7.6455  -7.3759
    -6.4519  -5.2146  -5.1770  -5.1314  -5.0384  -5.0010  -4.9689  -4.8325
    -4.7727  -4.7309  -4.6855  -4.6433  -4.6355  -4.6212  -4.5655  -4.5481
    -4.5325  -4.4864  -4.4456  -4.4255  -4.4026  -4.4013  -4.3976  -4.3944
    -4.2624  -4.2505  -4.1975  -4.1775  -4.1552  -4.1324  -4.1303  -4.0757
    -4.0336  -3.9926  -3.9804  -3.9548  -3.8923  -3.8370  -3.7543  -3.6570
    -3.6461  -3.5891  -3.5790  -3.4864  -3.4809  -3.3891  -3.3244  -3.2792
    -3.2511  -3.2263  -3.1497  -3.1448  -3.1357  -3.0855  -3.0514  -3.0227
    -2.9749  -2.9645  -2.9197  -2.8170  -2.7815  -2.7234  -2.6967  -2.6943
    -2.6354  -2.6317  -2.5943  -2.5928  -2.5860  -2.5411  -2.4862  -2.4533
    -2.4353  -2.4038  -2.3152  -2.2909  -2.2383  -2.2302  -2.1646  -2.1502
    -2.1356  -2.0721  -2.0205  -1.9890  -1.9811  -1.9072  -1.8036  -1.7455
    -1.7232  -1.7021  -1.5963  -1.5477  -1.4919  -1.4494  -1.2671  -1.2549
    -1.1824  -1.1427  -1.0898  -1.0411  -0.8541  -0.4555  -0.4044  -0.1861
    -0.1707  -0.1333   0.0331   0.0387   1.7072   1.7189   1.8164   1.8578
     1.9197   1.9305   1.9748   1.9919   2.0018   2.0480   2.0531

     the Fermi energy is     1.6462 ev

!    total energy              =   -3295.82452092 Ry
     estimated scf accuracy    <       0.00000005 Ry
     smearing contrib. (-TS)   =      -0.03670547 Ry
     internal energy E=F+TS    =   -3295.78781545 Ry

     The total energy is F=E-TS. E is the sum of the following terms:
     one-electron contribution =  -34289.40396090 Ry
     hartree contribution      =   17213.70918202 Ry
     xc contribution           =    -543.77109414 Ry
     ewald contribution        =   14323.67334898 Ry
     electric field correction =       0.00470858 Ry

     convergence has been achieved in  50 iterations

     Forces acting on atoms (cartesian axes, Ry/au):

     atom    1 type  1   force =     0.00001406    0.00239635    0.05210791
     atom    2 type  1   force =    -0.00004381   -0.00061555   -0.00560189
     atom    3 type  1   force =     0.00003155   -0.00304884   -0.00293226
     atom    4 type  1   force =     0.00005450   -0.00037252    0.10762981
     atom    5 type  1   force =    -0.00002141    0.00171607    0.00528629
     atom    6 type  1   force =     0.00000902   -0.00054553    0.00053562
     atom    7 type  1   force =     0.06436494    0.00076544   -0.03003320
     atom    8 type  1   force =     0.00532004   -0.02658334    0.00244360
     atom    9 type  1   force =     0.00851706   -0.01289880   -0.00079902
     atom   10 type  2   force =    -0.00006028   -0.00537625   -0.18727060
     atom   11 type  2   force =     0.00012313    0.02016012   -0.00478825
     atom   12 type  2   force =    -0.00010607    0.01864086   -0.00010096
     atom   13 type  1   force =    -0.06446923    0.00028891   -0.02999176
     atom   14 type  1   force =    -0.00513724   -0.02679141    0.00247098
     atom   15 type  1   force =    -0.00846355   -0.01280607   -0.00078252
     atom   16 type  2   force =     0.00009226   -0.00105932    0.07213270
     atom   17 type  2   force =    -0.00026433    0.03301463    0.00617405
     atom   18 type  2   force =     0.00002330    0.00450479   -0.00756091
     atom   19 type  1   force =     0.00001534    0.00395103    0.05308180
     atom   20 type  1   force =    -0.00004043   -0.00054248   -0.00173079
     atom   21 type  1   force =     0.00005416    0.00130070    0.10847954
     atom   22 type  1   force =    -0.00002626   -0.00118690    0.00630296
     atom   23 type  1   force =     0.00002944   -0.00514164    0.00192352
     atom   24 type  1   force =     0.06587994    0.00139605   -0.02849425
     atom   25 type  1   force =     0.00547035   -0.02924113    0.00262653
     atom   26 type  1   force =     0.00971203   -0.00194255   -0.00018545
     atom   27 type  2   force =    -0.00006919   -0.00076380   -0.19124196
     atom   28 type  2   force =     0.00014769    0.02480062   -0.00469138
     atom   29 type  2   force =    -0.00009592   -0.00408785    0.00908380
     atom   30 type  1   force =    -0.06598401    0.00095690   -0.02846495
     atom   31 type  1   force =    -0.00532086   -0.02936254    0.00266428
     atom   32 type  1   force =    -0.00962375   -0.00194515   -0.00018342
     atom   33 type  2   force =     0.00013531    0.00069114    0.08052120
     atom   34 type  2   force =    -0.00029073    0.03538177    0.00620219
     atom   35 type  2   force =     0.00004994    0.01549412    0.00194868
     atom   36 type  1   force =     0.00006605    0.00027062    0.05320590
     atom   37 type  1   force =    -0.00003287    0.00176690   -0.00891336
     atom   38 type  1   force =     0.00001059    0.00125779   -0.00012163
     atom   39 type  1   force =     0.00005426   -0.00117087    0.10820268
     atom   40 type  1   force =    -0.00003387   -0.00138109    0.00603652
     atom   41 type  1   force =     0.00001833    0.00382387    0.00144739
     atom   42 type  1   force =     0.06614126   -0.00348790   -0.02908576
     atom   43 type  1   force =     0.00366310   -0.02410465    0.00085387
     atom   44 type  1   force =     0.01422684   -0.01862702    0.00311444
     atom   45 type  2   force =    -0.00009534    0.00311257   -0.18717594
     atom   46 type  2   force =     0.00013555    0.01624954    0.00222143
     atom   47 type  2   force =    -0.00007377    0.01870747   -0.00289583
     atom   48 type  1   force =    -0.06624066   -0.00392406   -0.02904331
     atom   49 type  1   force =    -0.00341338   -0.02429627    0.00086828
     atom   50 type  1   force =    -0.01422101   -0.01857286    0.00311583
     atom   51 type  2   force =     0.00012821   -0.00295268    0.07345253
     atom   52 type  2   force =    -0.00027743    0.03103383    0.00788172
     atom   53 type  2   force =     0.00000946    0.02032074    0.00048172
     atom   54 type  3   force =     0.00000142   -0.00078063   -0.00279173
     atom   55 type  4   force =     0.00000219   -0.00039099    0.00066348
     atom   56 type  4   force =    -0.00003729    0.00035015   -0.00028880
     atom   57 type  4   force =    -0.00005564   -0.00019179   -0.00009080
     atom   58 type  3   force =    -0.00026273   -0.00558560    0.00284406
     atom   59 type  4   force =     0.00000844    0.00492236   -0.00231649
     atom   60 type  4   force =     0.00008307    0.00118456    0.00071832
     atom   61 type  4   force =     0.00016826    0.00131819    0.00085359

     Total force =     0.459478     Total SCF correction =     0.000453
  @ DRIVER MODE: Message from server: STATUS
  @ DRIVER MODE: Message from server: GETFORCE
  @ DRIVER MODE: Returning v,forces,stress,ensemble

     Writing output data file ./calc.save/
  @ DRIVER MODE: Message from server: EXIT
  @ DRIVE MODE: Exiting

     General routines

     Parallel routines

   This run was terminated on:   5:11:51  19Oct2021

   JOB DONE.