     Program PWSCF v.6.7GPU starts on 15Sep2021 at  2:25:27

     R & G space division:  proc/nbgrp/npool/nimage =      10
     Reading input from /storage/home/hcoda1/3/ntian30/research/carbon/CxH_vib/CH2_calc/ads_slab/CH2OHN2_a/out_0037/pw.inp
Warning: card &CELL ignored
Warning: card   CELL_DYNAMICS='IPI', ignored
Warning: card / ignored

     Current dimensions of program PWSCF are:
     Max number of different atomic species (ntypx) = 10
     Max number of k-points (npk) =  40000
     Max angular momentum in pseudopotentials (lmaxx) =  3
     Presently no symmetry can be used with electric field

     Message from routine cell_base_init:
     DEPRECATED: use true lattice parameter, not A to a.u. conversion factor

     IMPORTANT: XC functional enforced from input :
     Exchange-correlation= BEEF-VDW
                           (   1   4  43  14   2   0   0)
     Any further DFT definition will be discarded
     Please, verify this is what you really want

  @ DRIVER MODE: Connecting to
 qe_1139763_2840440.sched-torque.pace.gatech.edua07xf_js_scratch
  using UNIX socket
  @ DRIVER MODE: Message from server: STATUS
  @ DRIVER MODE: Message from server: INIT
  @ DRIVER MODE: Receiving replica           0          -1
  @ DRIVER MODE: Receiving encoded integer          25
  @ DRIVER MODE:  SCF:  T  FORCE:  T  STRESS:  F  VC:  F  ENSEMBLE:  F
  @ DRIVER MODE:  SCF:  T  FORCE:  T  STRESS:  F  VC:  F  ENSEMBLE:  F

     Using Slab Decomposition

     bravais-lattice index     =            0
     lattice parameter (alat)  =       1.8897  a.u.
     unit-cell volume          =    6658.9804 (a.u.)^3
     number of atoms/cell      =           54
     number of atomic types    =            5
     number of electrons       =       401.00
     number of Kohn-Sham states=          210
     kinetic-energy cutoff     =      29.3995  Ry
     charge density cutoff     =     293.9946  Ry
     scf convergence threshold =      7.3E-08
     mixing beta               =       0.0500
     number of iterations used =            8  plain     mixing
     Exchange-correlation= BEEF-VDW
                           (   1   4  43  14   2   0   0)

     celldm(1)=   1.889726  celldm(2)=   0.000000  celldm(3)=   0.000000
     celldm(4)=   0.000000  celldm(5)=   0.000000  celldm(6)=   0.000000

     crystal axes: (cart. coord. in units of alat)
               a(1) = (   6.579727   0.000000   0.000000 )
               a(2) = (  -0.000775   5.961596   0.000000 )
               a(3) = (   0.000000   0.000000  25.155947 )

     reciprocal axes: (cart. coord. in units 2 pi/alat)
               b(1) = (  0.151982  0.000020  0.000000 )
               b(2) = (  0.000000  0.167740  0.000000 )
               b(3) = (  0.000000  0.000000  0.039752 )

     PseudoPot. # 1 for C  read from file:
     /storage/coda1/p-amedford6/0/shared/rich_project_chbe-medford/medford-share/data/pseudos_module/espresso/nninc/pbe/van/C.UPF
     MD5 check sum: 1a69bf6b8db32088f5b2163dbdb77a27
     Pseudo is Ultrasoft, Zval =  4.0
     Generated by new atomic code, or converted to UPF format
     Using radial grid of  721 points,  4 beta functions with:
                l(1) =   0
                l(2) =   0
                l(3) =   1
                l(4) =   1
     Q(r) pseudized with  8 coefficients,  rinner =    0.800   0.800   0.800

     PseudoPot. # 2 for H  read from file:
     /storage/coda1/p-amedford6/0/shared/rich_project_chbe-medford/medford-share/data/pseudos_module/espresso/nninc/pbe/van/H.UPF
     MD5 check sum: b5ee9d7bfd3a09ee7748110bda690ff7
     Pseudo is Ultrasoft, Zval =  1.0
     Generated by new atomic code, or converted to UPF format
     Using radial grid of  615 points,  1 beta functions with:
                l(1) =   0
     Q(r) pseudized with  8 coefficients,  rinner =    0.800

     PseudoPot. # 3 for O  read from file:
     /storage/coda1/p-amedford6/0/shared/rich_project_chbe-medford/medford-share/data/pseudos_module/espresso/nninc/pbe/van/O.UPF
     MD5 check sum: 78c19812648e8988a0fe644b0f25305e
     Pseudo is Ultrasoft, Zval =  6.0
     Generated by new atomic code, or converted to UPF format
     Using radial grid of  737 points,  4 beta functions with:
                l(1) =   0
                l(2) =   0
                l(3) =   1
                l(4) =   1
     Q(r) pseudized with  8 coefficients,  rinner =    0.800   0.800   0.800

     PseudoPot. # 4 for Ti read from file:
     /storage/coda1/p-amedford6/0/shared/rich_project_chbe-medford/medford-share/data/pseudos_module/espresso/nninc/pbe/van/Ti.UPF
     MD5 check sum: 8e4df49b7f0d34bbd5052bf3f5ea0213
     Pseudo is Ultrasoft, Zval = 12.0
     Generated by new atomic code, or converted to UPF format
     Using radial grid of  851 points,  6 beta functions with:
                l(1) =   0
                l(2) =   0
                l(3) =   1
                l(4) =   1
                l(5) =   2
                l(6) =   2
     Q(r) pseudized with  8 coefficients,  rinner =    1.000   1.000   1.000
                                                       1.000   1.000

     PseudoPot. # 5 for N  read from file:
     /storage/coda1/p-amedford6/0/shared/rich_project_chbe-medford/medford-share/data/pseudos_module/espresso/nninc/pbe/van/N.UPF
     MD5 check sum: 90d10febe142ad51ac9d5be1deb811c4
     Pseudo is Ultrasoft, Zval =  5.0
     Generated by new atomic code, or converted to UPF format
     Using radial grid of  729 points,  4 beta functions with:
                l(1) =   0
                l(2) =   0
                l(3) =   1
                l(4) =   1
     Q(r) pseudized with  8 coefficients,  rinner =    0.800   0.800   0.800

     atomic species   valence    mass     pseudopotential
        C1             4.00    12.01100     C ( 1.00)
        H1             1.00     1.00800     H ( 1.00)
        O1             6.00    15.99900     O ( 1.00)
        Ti1           12.00    47.86700     Ti( 1.00)
        N1             5.00    14.00700     N ( 1.00)

     No symmetry found

   Cartesian axes

     site n.     atom                  positions (alat units)
         1           C1  tau(   1) = (   5.1764158   1.5385028  19.8564928  )
         2           H1  tau(   2) = (   4.2418317   1.4168958  19.3325039  )
         3           H1  tau(   3) = (   6.1328006   2.9100337  18.2018079  )
         4           H1  tau(   4) = (   6.0297582   0.9181690  19.6386741  )
         5           O1  tau(   5) = (   0.0006271   0.0005054   7.9858123  )
         6           O1  tau(   6) = (   3.2906025   0.0005020   7.3038282  )
         7           O1  tau(   7) = (   4.5942328   1.4918067   9.2879030  )
         8           O1  tau(   8) = (   1.9868534   1.4903216   9.2879459  )
         9           O1  tau(   9) = (   3.2696825   0.0177092  11.3460806  )
        10           O1  tau(  10) = (   6.5743896   0.0111799  10.6115589  )
        11           O1  tau(  11) = (   1.2770957   1.5070501  12.6511825  )
        12           O1  tau(  12) = (   5.2749141   1.5057152  12.6378801  )
        13           O1  tau(  13) = (   6.5263050   0.0247340  14.7317399  )
        14           O1  tau(  14) = (   3.2747511   0.0213673  13.9312909  )
        15           O1  tau(  15) = (   4.4933390   1.5239927  16.1070736  )
        16           O1  tau(  16) = (   2.0026543   1.5217075  16.0711130  )
        17           O1  tau(  17) = (   3.2904802   0.0005063   4.7018136  )
        18           O1  tau(  18) = (   6.5469758   0.0421337  17.2556835  )
        19           O1  tau(  19) = (   1.3043587   1.4918075   6.0039043  )
        20           O1  tau(  20) = (   5.2767064   1.4903225   6.0039473  )
        21           O1  tau(  21) = (   0.0002396   2.9813036   7.9858123  )
        22           O1  tau(  22) = (   3.2902150   2.9813002   7.3038282  )
        23           O1  tau(  23) = (   4.5938453   4.4726049   9.2879030  )
        24           O1  tau(  24) = (   1.9864658   4.4711199   9.2879459  )
        25           O1  tau(  25) = (   3.2722311   3.0011533  11.3472759  )
        26           O1  tau(  26) = (   6.5787409   2.9955660  10.5677177  )
        27           O1  tau(  27) = (   1.2755865   4.4883074  12.6550720  )
        28           O1  tau(  28) = (   5.2773609   4.4903743  12.6413705  )
        29           O1  tau(  29) = (   6.5451067   2.9841024  14.7029789  )
        30           O1  tau(  30) = (   3.2773495   3.0062142  13.9304278  )
        31           O1  tau(  31) = (   4.4941242   4.5002890  16.1165364  )
        32           O1  tau(  32) = (   2.0016379   4.5015838  16.0818063  )
        33           O1  tau(  33) = (   3.2900926   2.9813045   4.7018136  )
        34           O1  tau(  34) = (   1.3039711   4.4726057   6.0039043  )
        35           O1  tau(  35) = (   5.2763189   4.4711207   6.0039473  )
        36           O1  tau(  36) = (   6.5536212   3.0044252  17.3297899  )
        37           Ti1 tau(  37) = (   0.0004258   2.9801865   6.0000000  )
        38           Ti1 tau(  38) = (   3.2906075   1.4906267   6.0002472  )
        39           Ti1 tau(  39) = (   3.3348906   3.0327224   9.1579215  )
        40           Ti1 tau(  40) = (   0.0203972   1.6099837   9.3624797  )
        41           Ti1 tau(  41) = (   6.5380572   3.0081639  12.8251979  )
        42           Ti1 tau(  42) = (   3.2225065   1.5141752  12.4854623  )
        43           Ti1 tau(  43) = (   3.2525775   3.0161725  15.7233172  )
        44           Ti1 tau(  44) = (   6.5465844   1.4469101  15.9770741  )
        45           Ti1 tau(  45) = (   0.0000382   5.9609847   6.0000000  )
        46           Ti1 tau(  46) = (   3.2902200   4.4714249   6.0002472  )
        47           Ti1 tau(  47) = (   3.2831171   0.0558662   9.1532617  )
        48           Ti1 tau(  48) = (   0.0294011   4.5318189   9.2743274  )
        49           Ti1 tau(  49) = (   6.5160019   0.0223579  12.5245727  )
        50           Ti1 tau(  50) = (   3.2207252   4.4944464  12.4919313  )
        51           Ti1 tau(  51) = (   3.2545639   0.0336594  15.7221480  )
        52           Ti1 tau(  52) = (   6.5427997   4.6104004  16.1309301  )
        53           N1  tau(  53) = (   5.0796009   2.6163306  22.0446247  )
        54           N1  tau(  54) = (   5.1088049   2.0915644  21.0330699  )

     number of k points=    10  Fermi-Dirac smearing, width (Ry)=  0.0073
                       cart. coord. in units 2pi/alat
        k(    1) = (   0.0000000   0.0000000   0.0000000), wk =   0.1250000
        k(    2) = (   0.0000000   0.0419351   0.0000000), wk =   0.2500000
        k(    3) = (   0.0000000  -0.0838702   0.0000000), wk =   0.1250000
        k(    4) = (   0.0379955   0.0000049   0.0000000), wk =   0.2500000
        k(    5) = (   0.0379955   0.0419400   0.0000000), wk =   0.2500000
        k(    6) = (   0.0379955  -0.0838652   0.0000000), wk =   0.2500000
        k(    7) = (   0.0379955  -0.0419301   0.0000000), wk =   0.2500000
        k(    8) = (  -0.0759910  -0.0000099   0.0000000), wk =   0.1250000
        k(    9) = (  -0.0759910   0.0419252   0.0000000), wk =   0.2500000
        k(   10) = (  -0.0759910  -0.0838800   0.0000000), wk =   0.1250000

     Initial potential from superposition of free atoms

     starting charge  384.99916, renormalised to  401.00000

     negative rho (up, down):  1.196E-02 0.000E+00

     %%%%%%%%%%%%%%%%%%%%%%%%%%%%%%%%%%%%%%%%%%%%%%%%%%%%%%%%%%%%%%%%%%%%%%%%
     %                                                                      %
     % You are using vdW-DF, which was implemented by the Thonhauser group. %
     % Please cite the following two papers that made this development      %
     % possible and the two reviews that describe the various versions:     %
     %                                                                      %
     %   T. Thonhauser et al., PRL 115, 136402 (2015).                      %
     %   T. Thonhauser et al., PRB 76, 125112 (2007).                       %
     %   K. Berland et al., Rep. Prog. Phys. 78, 066501 (2015).             %
     %   D.C. Langreth et al., J. Phys.: Condens. Matter 21, 084203 (2009). %
     %                                                                      %
     %                                                                      %
     % If you are calculating the stress with vdW-DF, please also cite:     %
     %                                                                      %
     %   R. Sabatini et al., J. Phys.: Condens. Matter 24, 424209 (2012).   %
     %                                                                      %
     %%%%%%%%%%%%%%%%%%%%%%%%%%%%%%%%%%%%%%%%%%%%%%%%%%%%%%%%%%%%%%%%%%%%%%%%

     Adding external electric field

     Computed dipole along edir(3) :
        Dipole              -14.0962 Ry au,        -35.8290 Debye
        Dipole field         -0.0266 Ry au,

        Potential amp.        2.4659 Ry
        Total length         46.3494 bohr

     Starting wfcs are  303 atomic wfcs
  @ DRIVER MODE: Message from server: STATUS
  @ DRIVER MODE: Message from server: POSDATA
  @ DRIVER MODE: Reading and sharing cell
  @ DRIVER MODE: Reading and sharing positions
  @ DRIVER MODE: Received positions

     Self-consistent Calculation

     iteration #  1     ecut=    29.40 Ry     beta= 0.05
     Davidson diagonalization with overlap
     c_bands:  5 eigenvalues not converged
     c_bands:  4 eigenvalues not converged
     c_bands:  5 eigenvalues not converged
     c_bands:  2 eigenvalues not converged
     c_bands:  4 eigenvalues not converged
     c_bands:  4 eigenvalues not converged
     c_bands:  4 eigenvalues not converged
     c_bands:  4 eigenvalues not converged
     c_bands:  5 eigenvalues not converged
     ethr =  1.00E-05,  avg # of iterations = 22.0

[...]

     total energy              =   -2410.43551036 Ry
     estimated scf accuracy    <    6378.90500791 Ry

     iteration #  2     ecut=    29.40 Ry     beta= 0.05
     Davidson diagonalization with overlap
     ethr =  1.00E-02,  avg # of iterations = 23.9

[...]

     iteration # 76     ecut=    29.40 Ry     beta= 0.05
     Davidson diagonalization with overlap
     c_bands:  1 eigenvalues not converged
     c_bands:  1 eigenvalues not converged
     ethr =  1.54E-10,  avg # of iterations = 15.7

[...]

     total energy              =   -2971.53805696 Ry
     estimated scf accuracy    <       0.00000012 Ry

     iteration # 78     ecut=    29.40 Ry     beta= 0.05
     Davidson diagonalization with overlap
     ethr =  3.11E-11,  avg # of iterations = 11.0

     negative rho (up, down):  1.326E-02 0.000E+00

     Adding external electric field

     Computed dipole along edir(3) :
        Dipole                0.4419 Ry au,          1.1231 Debye
        Dipole field          0.0008 Ry au,

        Potential amp.       -0.0773 Ry
        Total length         46.3494 bohr

     End of self-consistent calculation

          k = 0.0000 0.0000 0.0000 ( 18029 PWs)   bands (ev):

   -55.7644 -55.7515 -55.7273 -55.7152 -55.6723 -55.6511 -55.6254 -55.5922
   -55.5891 -55.5794 -55.5376 -55.5143 -55.4807 -55.4144 -54.7750 -54.7409
   -32.3157 -32.2314 -32.1984 -32.1130 -32.0837 -32.0659 -32.0562 -32.0328
   -31.9940 -31.9897 -31.9750 -31.9670 -31.9616 -31.9325 -31.9248 -31.9215
   -31.9173 -31.8957 -31.8879 -31.8604 -31.8535 -31.8305 -31.8295 -31.8237
   -31.8069 -31.8003 -31.7823 -31.7781 -31.7707 -31.7684 -31.7612 -31.7535
   -31.7419 -31.7385 -31.7338 -31.6949 -31.6938 -31.6592 -31.6364 -31.6205
   -31.6032 -31.6003 -31.1847 -31.0877 -31.0654 -31.0013 -30.9153 -30.8042
   -20.7483 -16.9994 -16.5000 -16.2057 -16.0391 -15.9118 -15.8832 -15.7823
   -15.5914 -15.4569 -15.4400 -15.3657 -15.3313 -15.3237 -15.2932 -15.2835
   -15.2774 -15.2675 -15.2203 -15.1955 -15.1801 -15.1650 -15.1390 -15.0873
   -15.0400 -14.9683 -14.9209 -14.8803 -14.8608 -14.7618 -14.7429 -13.9420
   -13.2755 -13.1573  -6.5462  -5.5901  -4.9820  -4.5233  -3.8636  -3.6873
    -3.6700  -3.6515  -3.5685  -3.5144  -3.3256  -3.3096  -3.0094  -2.9341
    -2.9039  -2.9005  -2.8864  -2.7085  -2.6479  -2.5996  -2.5899  -2.5739
    -2.5717  -2.5482  -2.5294  -2.5178  -2.4901  -2.4690  -2.4606  -2.3225
    -2.2939  -2.1766  -2.1565  -2.1458  -2.0883  -2.0636  -2.0303  -2.0088
    -2.0037  -1.9866  -1.9649  -1.9299  -1.8446  -1.8206  -1.6956  -1.5906
    -1.5540  -1.4603  -1.3138  -1.2405  -1.2210  -1.1898  -1.1633  -1.1487
    -1.1014  -1.0766  -1.0244  -0.9619  -0.9567  -0.8522  -0.7790  -0.7414
    -0.6640  -0.6442  -0.6259  -0.5065  -0.4856  -0.4743  -0.3020  -0.2410
    -0.2291  -0.2264  -0.0973  -0.0558  -0.0216  -0.0083   0.0214   0.0522
     0.0975   0.1399   0.1989   0.2232   0.2340   0.2423   0.2654   0.2913
     0.4072   0.4234   0.4354   0.5524   0.5716   0.7610   0.7685   0.8857
     0.9858   1.1535   1.2495   1.3205   1.4206   1.7204   1.8385   1.8989
     3.4254   3.4563   3.4877   3.5050   3.5762   3.6992   3.8071   3.8627
     3.8838   3.9056

[...]

          k = 0.0380-0.0419 0.0000 ( 17876 PWs)   bands (ev):

[...]

          k =-0.0760-0.0000 0.0000 ( 17886 PWs)   bands (ev):

[...]

          k =-0.0760-0.0839 0.0000 ( 17948 PWs)   bands (ev):

   -55.7533 -55.7383 -55.7344 -55.7321 -55.6688 -55.6463 -55.6133 -55.6011
   -55.5970 -55.5826 -55.5348 -55.4983 -55.4967 -55.4168 -54.7584 -54.7573
   -32.1193 -32.1153 -32.0984 -32.0554 -32.0454 -32.0397 -32.0226 -32.0216
   -32.0149 -31.9784 -31.9539 -31.9463 -31.9439 -31.9096 -31.9048 -31.8963
   -31.8848 -31.8810 -31.8796 -31.8699 -31.8691 -31.8594 -31.8543 -31.8473
   -31.8440 -31.8219 -31.8172 -31.8130 -31.8057 -31.8054 -31.8017 -31.7829
   -31.7761 -31.7579 -31.7549 -31.7489 -31.7332 -31.7166 -31.7035 -31.6964
   -31.6448 -31.6096 -31.0787 -31.0774 -30.9981 -30.9973 -30.9588 -30.9579
   -20.7481 -16.9339 -15.9423 -15.9332 -15.6909 -15.6846 -15.6804 -15.6098
   -15.5257 -15.5046 -15.4827 -15.4784 -15.4287 -15.4151 -15.4032 -15.3400
   -15.3051 -15.2875 -15.2697 -15.2654 -15.2113 -15.2065 -15.1625 -15.1387
   -15.1205 -15.1149 -15.0902 -15.0860 -15.0468 -14.9856 -14.9171 -13.9419
   -13.2597 -13.2573  -6.5404  -5.5925  -4.9203  -4.5221  -3.5140  -3.2340
    -3.2232  -2.9572  -2.9085  -2.8954  -2.8135  -2.7513  -2.6858  -2.6453
    -2.6179  -2.6092  -2.5982  -2.5880  -2.5836  -2.5699  -2.5654  -2.5469
    -2.5267  -2.5154  -2.4575  -2.4377  -2.4126  -2.3931  -2.3852  -2.3744
    -2.3373  -2.3187  -2.3076  -2.2918  -2.2874  -2.2062  -2.0612  -2.0151
    -1.9195  -1.8999  -1.8903  -1.8478  -1.8260  -1.8092  -1.7943  -1.7454
    -1.7289  -1.5609  -1.4914  -1.4746  -1.4567  -1.4247  -1.3679  -1.2786
    -1.2481  -1.1741  -1.1669  -1.1245  -1.0653  -0.9903  -0.9684  -0.9282
    -0.8689  -0.8320  -0.7750  -0.7421  -0.7202  -0.7127  -0.6619  -0.6055
    -0.5670  -0.5067  -0.4805  -0.4173  -0.3774  -0.3410  -0.2846  -0.2584
    -0.2227  -0.1129  -0.0060   0.1302   0.1921   0.2683   0.2818   0.3081
     0.3294   0.4467   0.4778   0.5057   0.5481   0.6354   0.6893   0.7589
     0.7786   0.8069   0.8635   1.6100   1.6112   1.7006   1.7114   1.7236
     3.6224   3.6585   3.6771   3.7261   3.8838   3.8884   3.9071   3.9151
     3.9673   4.0469

     the Fermi energy is     3.3912 ev

!    total energy              =   -2971.53806816 Ry
     estimated scf accuracy    <       0.00000006 Ry
     smearing contrib. (-TS)   =      -0.02329500 Ry
     internal energy E=F+TS    =   -2971.51477316 Ry

     The total energy is F=E-TS. E is the sum of the following terms:
     one-electron contribution =  -22751.42858777 Ry
     hartree contribution      =   11466.78941136 Ry
     xc contribution           =    -492.33129186 Ry
     ewald contribution        =    8805.45532667 Ry
     electric field correction =       0.00036844 Ry

     convergence has been achieved in  78 iterations

     Forces acting on atoms (cartesian axes, Ry/au):

     atom    1 type  1   force =    -0.00441074    0.00194611    0.00078558
     atom    2 type  2   force =    -0.00014787    0.00028402   -0.00159925
     atom    3 type  2   force =    -0.00147007   -0.00069047   -0.00051786
     atom    4 type  2   force =     0.00099304   -0.00035348    0.00078665
     atom    5 type  3   force =     0.00034262   -0.00681169   -0.03336866
     atom    6 type  3   force =    -0.00002061    0.00054757    0.04533871
     atom    7 type  3   force =    -0.02047265    0.00052683    0.00451665
     atom    8 type  3   force =     0.01815335   -0.00160480    0.00414894
     atom    9 type  3   force =     0.00013347    0.00000507   -0.00007524
     atom   10 type  3   force =    -0.00004558   -0.00005168    0.00019517
     atom   11 type  3   force =     0.00022852   -0.00009894   -0.00031100
     atom   12 type  3   force =     0.00049156    0.00011701   -0.00015689
     atom   13 type  3   force =     0.00030498   -0.00020622   -0.00016357
     atom   14 type  3   force =     0.00035580    0.00020956   -0.00006797
     atom   15 type  3   force =    -0.00023186   -0.00013382    0.00033123
     atom   16 type  3   force =     0.00026873   -0.00009340    0.00008099
     atom   17 type  3   force =     0.00003572    0.00006021    0.10413458
     atom   18 type  3   force =    -0.00011941    0.00013147    0.00063634
     atom   19 type  3   force =    -0.06902534    0.00070621   -0.02968054
     atom   20 type  3   force =     0.06879981    0.00126766   -0.02967711
     atom   21 type  3   force =     0.00038231    0.00378386   -0.02829769
     atom   22 type  3   force =     0.00085703    0.00084312    0.04703048
     atom   23 type  3   force =    -0.01799078    0.00140614    0.00375746
     atom   24 type  3   force =     0.01769075    0.00226933    0.00328957
     atom   25 type  3   force =    -0.00015940   -0.00019794    0.00006004
     atom   26 type  3   force =     0.00016913   -0.00003840    0.00039887
     atom   27 type  3   force =    -0.00025340   -0.00014871    0.00025126
     atom   28 type  3   force =    -0.00000799   -0.00020782    0.00058006
     atom   29 type  3   force =     0.00009074   -0.00056750    0.00009870
     atom   30 type  3   force =    -0.00019559   -0.00034200    0.00037114
     atom   31 type  3   force =    -0.00034993   -0.00010685    0.00002846
     atom   32 type  3   force =    -0.00006296   -0.00020228   -0.00036600
     atom   33 type  3   force =     0.00004235    0.00003461    0.10421894
     atom   34 type  3   force =    -0.06860319   -0.00136424   -0.02971855
     atom   35 type  3   force =     0.06848580   -0.00098991   -0.02969782
     atom   36 type  3   force =     0.00111668    0.00048143    0.00013064
     atom   37 type  4   force =    -0.00001160   -0.00158837    0.10640564
     atom   38 type  4   force =    -0.00016747    0.00073728   -0.17963254
     atom   39 type  4   force =    -0.00039859    0.00006841   -0.00013931
     atom   40 type  4   force =     0.00000742    0.00007372   -0.00009127
     atom   41 type  4   force =    -0.00004402    0.00055716   -0.00057039
     atom   42 type  4   force =    -0.00013439    0.00001340    0.00021996
     atom   43 type  4   force =    -0.00015267   -0.00023135   -0.00042695
     atom   44 type  4   force =     0.00054069    0.00049454   -0.00043539
     atom   45 type  4   force =    -0.00000956    0.00122313    0.11837033
     atom   46 type  4   force =    -0.00000238   -0.00034782   -0.17988345
     atom   47 type  4   force =     0.00035941    0.00005930   -0.00027191
     atom   48 type  4   force =    -0.00002357    0.00024854   -0.00033616
     atom   49 type  4   force =     0.00055195    0.00057265   -0.00006974
     atom   50 type  4   force =     0.00013862    0.00011810   -0.00080211
     atom   51 type  4   force =     0.00040846   -0.00076577   -0.00009049
     atom   52 type  4   force =     0.00087113   -0.00101423    0.00049254
     atom   53 type  5   force =    -0.00116588    0.00175225    0.00114143
     atom   54 type  5   force =     0.00385743   -0.00238100   -0.00135251

     Total force =     0.376655     Total SCF correction =     0.000639
  @ DRIVER MODE: Message from server: STATUS
  @ DRIVER MODE: Message from server: GETFORCE
  @ DRIVER MODE: Returning v,forces,stress,ensemble

     Writing output data file ./calc.save/
  @ DRIVER MODE: Message from server: EXIT
  @ DRIVE MODE: Exiting

     General routines

     Parallel routines

   This run was terminated on:   2:45:58  15Sep2021

   JOB DONE.