     Program PWSCF v.6.7GPU starts on 23Sep2021 at  6: 9:30

     R & G space division:  proc/nbgrp/npool/nimage =      10
     Reading input from /storage/home/hcoda1/3/ntian30/research/carbon/CxH_vib/H2O_calc/ads_slab/CHNHNH2H2O_b/out_0039/pw.inp
Warning: card &CELL ignored
Warning: card   CELL_DYNAMICS='IPI', ignored
Warning: card / ignored

     Current dimensions of program PWSCF are:
     Max number of different atomic species (ntypx) = 10
     Max number of k-points (npk) =  40000
     Max angular momentum in pseudopotentials (lmaxx) =  3
     Presently no symmetry can be used with electric field

     Message from routine cell_base_init:
     DEPRECATED: use true lattice parameter, not A to a.u. conversion factor

     IMPORTANT: XC functional enforced from input :
     Exchange-correlation= BEEF-VDW
                           (   1   4  43  14   2   0   0)
     Any further DFT definition will be discarded
     Please, verify this is what you really want

  @ DRIVER MODE: Connecting to
 qe_1139763_2937312.sched-torque.pace.gatech.edutfyf0ulz_scratch
  using UNIX socket
  @ DRIVER MODE: Message from server: STATUS
  @ DRIVER MODE: Message from server: INIT
  @ DRIVER MODE: Receiving replica           0          -1
  @ DRIVER MODE: Receiving encoded integer          25
  @ DRIVER MODE:  SCF:  T  FORCE:  T  STRESS:  F  VC:  F  ENSEMBLE:  F
  @ DRIVER MODE:  SCF:  T  FORCE:  T  STRESS:  F  VC:  F  ENSEMBLE:  F

     Using Slab Decomposition

     bravais-lattice index     =            0
     lattice parameter (alat)  =       1.8897  a.u.
     unit-cell volume          =    6658.9804 (a.u.)^3
     number of atoms/cell      =           57
     number of atomic types    =            5
     number of electrons       =       404.00
     number of Kohn-Sham states=          212
     kinetic-energy cutoff     =      29.3995  Ry
     charge density cutoff     =     293.9946  Ry
     scf convergence threshold =      7.3E-08
     mixing beta               =       0.0500
     number of iterations used =            8  plain     mixing
     Exchange-correlation= BEEF-VDW
                           (   1   4  43  14   2   0   0)

     celldm(1)=   1.889726  celldm(2)=   0.000000  celldm(3)=   0.000000
     celldm(4)=   0.000000  celldm(5)=   0.000000  celldm(6)=   0.000000

     crystal axes: (cart. coord. in units of alat)
               a(1) = (   6.579727   0.000000   0.000000 )
               a(2) = (  -0.000775   5.961596   0.000000 )
               a(3) = (   0.000000   0.000000  25.155947 )

     reciprocal axes: (cart. coord. in units 2 pi/alat)
               b(1) = (  0.151982  0.000020  0.000000 )
               b(2) = (  0.000000  0.167740  0.000000 )
               b(3) = (  0.000000  0.000000  0.039752 )

     PseudoPot. # 1 for Ti read from file:
     /storage/coda1/p-amedford6/0/shared/rich_project_chbe-medford/medford-share/data/pseudos_module/espresso/nninc/pbe/van/Ti.UPF
     MD5 check sum: 8e4df49b7f0d34bbd5052bf3f5ea0213
     Pseudo is Ultrasoft, Zval = 12.0
     Generated by new atomic code, or converted to UPF format
     Using radial grid of  851 points,  6 beta functions with:
                l(1) =   0
                l(2) =   0
                l(3) =   1
                l(4) =   1
                l(5) =   2
                l(6) =   2
     Q(r) pseudized with  8 coefficients,  rinner =    1.000   1.000   1.000
                                                       1.000   1.000

     PseudoPot. # 2 for O  read from file:
     /storage/coda1/p-amedford6/0/shared/rich_project_chbe-medford/medford-share/data/pseudos_module/espresso/nninc/pbe/van/O.UPF
     MD5 check sum: 78c19812648e8988a0fe644b0f25305e
     Pseudo is Ultrasoft, Zval =  6.0
     Generated by new atomic code, or converted to UPF format
     Using radial grid of  737 points,  4 beta functions with:
                l(1) =   0
                l(2) =   0
                l(3) =   1
                l(4) =   1
     Q(r) pseudized with  8 coefficients,  rinner =    0.800   0.800   0.800

     PseudoPot. # 3 for N  read from file:
     /storage/coda1/p-amedford6/0/shared/rich_project_chbe-medford/medford-share/data/pseudos_module/espresso/nninc/pbe/van/N.UPF
     MD5 check sum: 90d10febe142ad51ac9d5be1deb811c4
     Pseudo is Ultrasoft, Zval =  5.0
     Generated by new atomic code, or converted to UPF format
     Using radial grid of  729 points,  4 beta functions with:
                l(1) =   0
                l(2) =   0
                l(3) =   1
                l(4) =   1
     Q(r) pseudized with  8 coefficients,  rinner =    0.800   0.800   0.800

     PseudoPot. # 4 for C  read from file:
     /storage/coda1/p-amedford6/0/shared/rich_project_chbe-medford/medford-share/data/pseudos_module/espresso/nninc/pbe/van/C.UPF
     MD5 check sum: 1a69bf6b8db32088f5b2163dbdb77a27
     Pseudo is Ultrasoft, Zval =  4.0
     Generated by new atomic code, or converted to UPF format
     Using radial grid of  721 points,  4 beta functions with:
                l(1) =   0
                l(2) =   0
                l(3) =   1
                l(4) =   1
     Q(r) pseudized with  8 coefficients,  rinner =    0.800   0.800   0.800

     PseudoPot. # 5 for H  read from file:
     /storage/coda1/p-amedford6/0/shared/rich_project_chbe-medford/medford-share/data/pseudos_module/espresso/nninc/pbe/van/H.UPF
     MD5 check sum: b5ee9d7bfd3a09ee7748110bda690ff7
     Pseudo is Ultrasoft, Zval =  1.0
     Generated by new atomic code, or converted to UPF format
     Using radial grid of  615 points,  1 beta functions with:
                l(1) =   0
     Q(r) pseudized with  8 coefficients,  rinner =    0.800

     atomic species   valence    mass     pseudopotential
        Ti1           12.00    47.86700     Ti( 1.00)
        O1             6.00    15.99900     O ( 1.00)
        N1             5.00    14.00700     N ( 1.00)
        C1             4.00    12.01100     C ( 1.00)
        H1             1.00     1.00800     H ( 1.00)

     No symmetry found

   Cartesian axes

     site n.     atom                  positions (alat units)
         1           Ti1 tau(   1) = (   0.0004258   2.9801865   6.0000000  )
         2           Ti1 tau(   2) = (   3.2906075   1.4906267   6.0002472  )
         3           O1  tau(   3) = (   0.0006271   0.0005054   7.9858123  )
         4           O1  tau(   4) = (   3.2906025   0.0005020   7.3038282  )
         5           O1  tau(   5) = (   4.5942328   1.4918067   9.2879030  )
         6           O1  tau(   6) = (   1.9868534   1.4903216   9.2879459  )
         7           Ti1 tau(   7) = (   3.2907910   2.8959150   9.1758416  )
         8           Ti1 tau(   8) = (   0.0015273   1.4827037   9.2680791  )
         9           O1  tau(   9) = (   3.3066417   5.9496923  11.3845403  )
        10           O1  tau(  10) = (   0.0116148   5.9584955  10.6183126  )
        11           O1  tau(  11) = (   1.3010148   1.4986442  12.6442229  )
        12           O1  tau(  12) = (   5.3085967   1.5001388  12.6592367  )
        13           Ti1 tau(  13) = (   0.0282779   2.9853959  12.5065338  )
        14           Ti1 tau(  14) = (   3.3279724   1.4707331  12.5413945  )
        15           O1  tau(  15) = (   0.0378505   0.0859181  14.6860672  )
        16           O1  tau(  16) = (   3.3018867   0.0259462  14.0338077  )
        17           O1  tau(  17) = (   4.5998927   1.5484098  16.1661054  )
        18           O1  tau(  18) = (   2.0454451   1.5021798  16.2221046  )
        19           Ti1 tau(  19) = (   3.3206312   2.9825829  15.7321521  )
        20           Ti1 tau(  20) = (   0.0140791   1.4435866  15.9983415  )
        21           O1  tau(  21) = (   3.2904802   0.0005063   4.7018136  )
        22           O1  tau(  22) = (   6.5273045   5.8164216  17.2577718  )
        23           O1  tau(  23) = (   1.3043587   1.4918075   6.0039043  )
        24           O1  tau(  24) = (   5.2767064   1.4903225   6.0039473  )
        25           Ti1 tau(  25) = (   0.0000382   5.9609847   6.0000000  )
        26           Ti1 tau(  26) = (   3.2902200   4.4714249   6.0002472  )
        27           O1  tau(  27) = (   0.0002396   2.9813036   7.9858123  )
        28           O1  tau(  28) = (   3.2902150   2.9813002   7.3038282  )
        29           O1  tau(  29) = (   4.5938453   4.4726049   9.2879030  )
        30           O1  tau(  30) = (   1.9864658   4.4711199   9.2879459  )
        31           Ti1 tau(  31) = (   3.2891106   5.8743827   9.1763621  )
        32           Ti1 tau(  32) = (   0.0006254   4.4649316   9.2693709  )
        33           O1  tau(  33) = (   3.3068470   2.9864458  11.3814114  )
        34           O1  tau(  34) = (   0.0092240   2.9805883  10.6323155  )
        35           O1  tau(  35) = (   1.2982948   4.4740332  12.6840172  )
        36           O1  tau(  36) = (   5.3097620   4.4704985  12.6972095  )
        37           Ti1 tau(  37) = (   0.0348817   0.0130325  12.4954113  )
        38           Ti1 tau(  38) = (   3.3270268   4.4633798  12.5435021  )
        39           O1  tau(  39) = (   0.0563025   2.9439880  14.9425960  )
        40           O1  tau(  40) = (   3.2900316   2.9661073  13.9503945  )
        41           O1  tau(  41) = (   4.5967999   4.4093095  16.0633277  )
        42           O1  tau(  42) = (   2.0412097   4.4536800  16.1303113  )
        43           Ti1 tau(  43) = (   3.2964201   5.9600488  15.8742613  )
        44           Ti1 tau(  44) = (   0.0241369   4.6516137  15.8518307  )
        45           O1  tau(  45) = (   3.2900926   2.9813045   4.7018136  )
        46           O1  tau(  46) = (   1.3039711   4.4726057   6.0039043  )
        47           O1  tau(  47) = (   5.2763189   4.4711207   6.0039473  )
        48           N1  tau(  48) = (   1.4509408   2.7109095  18.7602185  )
        49           N1  tau(  49) = (   0.0917387   2.5303350  18.2207845  )
        50           C1  tau(  50) = (   1.9503960   3.7723240  19.2784661  )
        51           H1  tau(  51) = (   1.1612915   4.5273475  19.4152495  )
        52           H1  tau(  52) = (   2.0208952   1.9183395  18.4664618  )
        53           H1  tau(  53) = (   6.1377449   3.3539424  18.4987646  )
        54           H1  tau(  54) = (   6.2616785   1.7035167  18.6767212  )
        55           O1  tau(  55) = (   3.7012217   5.9496235  18.2853534  )
        56           H1  tau(  56) = (   4.6684668   5.8470116  18.1670174  )
        57           H1  tau(  57) = (   3.3852657   5.1278045  18.7338684  )

     number of k points=    10  Fermi-Dirac smearing, width (Ry)=  0.0073
                       cart. coord. in units 2pi/alat
        k(    1) = (   0.0000000   0.0000000   0.0000000), wk =   0.1250000
        k(    2) = (   0.0000000   0.0419351   0.0000000), wk =   0.2500000
        k(    3) = (   0.0000000  -0.0838702   0.0000000), wk =   0.1250000
        k(    4) = (   0.0379955   0.0000049   0.0000000), wk =   0.2500000
        k(    5) = (   0.0379955   0.0419400   0.0000000), wk =   0.2500000
        k(    6) = (   0.0379955  -0.0838652   0.0000000), wk =   0.2500000
        k(    7) = (   0.0379955  -0.0419301   0.0000000), wk =   0.2500000
        k(    8) = (  -0.0759910  -0.0000099   0.0000000), wk =   0.1250000
        k(    9) = (  -0.0759910   0.0419252   0.0000000), wk =   0.2500000
        k(   10) = (  -0.0759910  -0.0838800   0.0000000), wk =   0.1250000

     Initial potential from superposition of free atoms

     starting charge  387.99913, renormalised to  404.00000

     negative rho (up, down):  1.598E-02 0.000E+00

     %%%%%%%%%%%%%%%%%%%%%%%%%%%%%%%%%%%%%%%%%%%%%%%%%%%%%%%%%%%%%%%%%%%%%%%%
     %                                                                      %
     % You are using vdW-DF, which was implemented by the Thonhauser group. %
     % Please cite the following two papers that made this development      %
     % possible and the two reviews that describe the various versions:     %
     %                                                                      %
     %   T. Thonhauser et al., PRL 115, 136402 (2015).                      %
     %   T. Thonhauser et al., PRB 76, 125112 (2007).                       %
     %   K. Berland et al., Rep. Prog. Phys. 78, 066501 (2015).             %
     %   D.C. Langreth et al., J. Phys.: Condens. Matter 21, 084203 (2009). %
     %                                                                      %
     %                                                                      %
     % If you are calculating the stress with vdW-DF, please also cite:     %
     %                                                                      %
     %   R. Sabatini et al., J. Phys.: Condens. Matter 24, 424209 (2012).   %
     %                                                                      %
     %%%%%%%%%%%%%%%%%%%%%%%%%%%%%%%%%%%%%%%%%%%%%%%%%%%%%%%%%%%%%%%%%%%%%%%%

     Adding external electric field

     Computed dipole along edir(3) :
        Dipole              -14.3585 Ry au,        -36.4957 Debye
        Dipole field         -0.0271 Ry au,

        Potential amp.        2.5118 Ry
        Total length         46.3494 bohr

     Starting wfcs are  306 atomic wfcs
  @ DRIVER MODE: Message from server: STATUS
  @ DRIVER MODE: Message from server: POSDATA
  @ DRIVER MODE: Reading and sharing cell
  @ DRIVER MODE: Reading and sharing positions
  @ DRIVER MODE: Received positions

     Self-consistent Calculation

     iteration #  1     ecut=    29.40 Ry     beta= 0.05
     Davidson diagonalization with overlap
     c_bands:  3 eigenvalues not converged
     c_bands:  4 eigenvalues not converged
     c_bands:  4 eigenvalues not converged
     c_bands:  4 eigenvalues not converged
     c_bands:  5 eigenvalues not converged
     c_bands:  3 eigenvalues not converged
     c_bands:  2 eigenvalues not converged
     c_bands:  4 eigenvalues not converged
     ethr =  1.00E-05,  avg # of iterations = 21.9

[...]

     total energy              =   -2220.96361044 Ry
     estimated scf accuracy    <    8587.34388175 Ry

     iteration #  2     ecut=    29.40 Ry     beta= 0.05
     Davidson diagonalization with overlap
     ethr =  1.00E-02,  avg # of iterations = 29.3

[...]

     iteration # 72     ecut=    29.40 Ry     beta= 0.05
     Davidson diagonalization with overlap
     c_bands:  2 eigenvalues not converged
     ethr =  2.06E-11,  avg # of iterations = 16.3

[...]

     total energy              =   -2975.10518646 Ry
     estimated scf accuracy    <       0.00000012 Ry

     iteration # 73     ecut=    29.40 Ry     beta= 0.05
     Davidson diagonalization with overlap
     ethr =  2.06E-11,  avg # of iterations = 11.8

     negative rho (up, down):  1.579E-02 0.000E+00

     Adding external electric field

     Computed dipole along edir(3) :
        Dipole                1.0234 Ry au,          2.6013 Debye
        Dipole field          0.0019 Ry au,

        Potential amp.       -0.1790 Ry
        Total length         46.3494 bohr

     End of self-consistent calculation

          k = 0.0000 0.0000 0.0000 ( 18029 PWs)   bands (ev):

   -55.3859 -55.3501 -55.3460 -55.3119 -55.3087 -55.3031 -55.2680 -55.2327
   -55.2174 -55.1826 -55.1759 -55.1607 -55.1422 -55.1132 -54.3774 -54.3433
   -31.9449 -31.8810 -31.8387 -31.7576 -31.7087 -31.7060 -31.6818 -31.6789
   -31.6347 -31.5990 -31.5919 -31.5905 -31.5837 -31.5801 -31.5620 -31.5599
   -31.5353 -31.5273 -31.5243 -31.5129 -31.4986 -31.4922 -31.4733 -31.4686
   -31.4601 -31.4471 -31.4465 -31.4176 -31.4033 -31.3996 -31.3964 -31.3743
   -31.3705 -31.3663 -31.3628 -31.3417 -31.3305 -31.3186 -31.3038 -31.3036
   -31.2936 -31.2870 -30.7868 -30.6923 -30.6703 -30.6032 -30.5164 -30.4055
   -18.8689 -18.4555 -16.2207 -15.9734 -15.8374 -15.7328 -15.5955 -15.4974
   -15.3882 -15.2750 -15.2518 -15.1581 -15.0838 -15.0796 -15.0424 -15.0170
   -14.9543 -14.9330 -14.9092 -14.9032 -14.8887 -14.8785 -14.8419 -14.8310
   -14.7945 -14.7871 -14.7698 -14.6329 -14.6221 -14.5525 -14.4820 -14.3438
   -12.8797 -12.7622  -9.8321  -6.9688  -6.3773  -6.0803  -4.4239  -3.7295
    -3.5443  -3.4109  -3.3324  -3.3032  -3.2862  -3.1547  -3.0612  -2.9026
    -2.8639  -2.8074  -2.6743  -2.5985  -2.5921  -2.5042  -2.4316  -2.4083
    -2.3753  -2.2661  -2.2598  -2.2100  -2.1928  -2.1696  -2.1603  -2.1137
    -2.0680  -2.0407  -1.9554  -1.8541  -1.8102  -1.7905  -1.7540  -1.7313
    -1.7263  -1.6830  -1.6768  -1.6530  -1.6143  -1.5899  -1.5442  -1.4325
    -1.3906  -1.2320  -1.1947  -1.0406  -1.0202  -0.9809  -0.9604  -0.9175
    -0.8938  -0.8776  -0.8594  -0.7729  -0.7146  -0.6484  -0.5843  -0.4936
    -0.4828  -0.4089  -0.3833  -0.3181  -0.2309  -0.1861  -0.1767  -0.1516
    -0.1483  -0.0344   0.0104   0.0705   0.0893   0.1466   0.1625   0.1846
     0.2547   0.3083   0.3777   0.4083   0.4876   0.5057   0.5408   0.5500
     0.5823   0.5928   0.6690   0.6838   0.7120   0.8147   0.9123   1.0052
     1.2158   1.2178   1.2550   1.5503   1.5525   1.6458   1.8291   2.2220
     2.2704   3.7040   3.7823   3.8319   3.8495   3.8540   3.9389   4.1935
     4.2078   4.2204   4.2266   4.2674

[...]

          k = 0.0380-0.0419 0.0000 ( 17876 PWs)   bands (ev):

[...]

          k =-0.0760-0.0000 0.0000 ( 17886 PWs)   bands (ev):

[...]

          k =-0.0760-0.0839 0.0000 ( 17948 PWs)   bands (ev):

   -55.3691 -55.3667 -55.3291 -55.3286 -55.3058 -55.3022 -55.2543 -55.2463
   -55.2031 -55.1964 -55.1625 -55.1600 -55.1583 -55.1150 -54.3603 -54.3603
   -31.7956 -31.7574 -31.7433 -31.6540 -31.6536 -31.6393 -31.6273 -31.6201
   -31.6197 -31.5992 -31.5941 -31.5910 -31.5680 -31.5604 -31.5484 -31.5345
   -31.5314 -31.5287 -31.5248 -31.5167 -31.5120 -31.5100 -31.5090 -31.5013
   -31.4694 -31.4680 -31.4488 -31.4485 -31.4483 -31.4434 -31.4407 -31.4360
   -31.4266 -31.4152 -31.4095 -31.3928 -31.3910 -31.3815 -31.3399 -31.3389
   -31.3383 -31.3196 -30.6829 -30.6829 -30.5994 -30.5992 -30.5598 -30.5598
   -18.8629 -18.4580 -15.8404 -15.6536 -15.5022 -15.4304 -15.4101 -15.3268
   -15.2715 -15.2681 -15.1947 -15.1771 -15.1647 -15.1431 -15.1334 -15.0861
   -15.0490 -15.0124 -14.9936 -14.9710 -14.9278 -14.9051 -14.9035 -14.8967
   -14.8890 -14.8486 -14.8434 -14.8402 -14.7484 -14.7465 -14.6936 -14.5497
   -12.8636 -12.8636  -9.8414  -6.9578  -6.3522  -6.0559  -4.4377  -3.6564
    -3.0231  -2.9117  -2.9012  -2.6721  -2.6539  -2.5928  -2.5803  -2.4923
    -2.4767  -2.4160  -2.3925  -2.3424  -2.3194  -2.2815  -2.2677  -2.2459
    -2.2249  -2.2112  -2.1846  -2.1685  -2.1516  -2.1319  -2.1209  -2.1095
    -2.0541  -2.0490  -2.0398  -2.0144  -1.9914  -1.9553  -1.9454  -1.9289
    -1.7736  -1.7578  -1.7364  -1.6010  -1.5966  -1.5616  -1.5225  -1.4948
    -1.4369  -1.4284  -1.4001  -1.3414  -1.1463  -1.1366  -1.1249  -1.1063
    -1.0358  -0.9802  -0.9667  -0.9485  -0.8950  -0.8170  -0.7819  -0.7301
    -0.6387  -0.5897  -0.5800  -0.5542  -0.4329  -0.4101  -0.3676  -0.3496
    -0.3334  -0.2990  -0.2974  -0.2394  -0.1871  -0.1519  -0.1289  -0.1146
    -0.0777   0.0772   0.1290   0.1455   0.2592   0.2891   0.4672   0.5100
     0.5317   0.6368   0.7201   0.7482   0.7625   0.8879   0.9101   0.9125
     0.9809   1.0030   1.0631   1.0689   1.2118   2.0018   2.0031   2.0902
     2.0905   3.8291   3.9516   3.9962   4.0319   4.1073   4.1607   4.2177
     4.2769   4.2884   4.2924   4.3584

     the Fermi energy is     3.7660 ev

!    total energy              =   -2975.10520219 Ry
     estimated scf accuracy    <       0.00000006 Ry
     smearing contrib. (-TS)   =      -0.03672119 Ry
     internal energy E=F+TS    =   -2975.06848100 Ry

     The total energy is F=E-TS. E is the sum of the following terms:
     one-electron contribution =  -23505.36983645 Ry
     hartree contribution      =   11848.70181923 Ry
     xc contribution           =    -494.91162640 Ry
     ewald contribution        =    9176.50918595 Ry
     electric field correction =       0.00197667 Ry

     convergence has been achieved in  73 iterations

     Forces acting on atoms (cartesian axes, Ry/au):

     atom    1 type  1   force =     0.00003117   -0.00025075    0.09309092
     atom    2 type  1   force =    -0.00018801   -0.00032647   -0.17837617
     atom    3 type  2   force =     0.00006015   -0.00017123   -0.02025392
     atom    4 type  2   force =     0.00001649   -0.00203597    0.05924931
     atom    5 type  2   force =    -0.01033803   -0.00110440    0.00809250
     atom    6 type  2   force =     0.01218023   -0.00054919    0.00817002
     atom    7 type  1   force =     0.00014827    0.00329083   -0.01112109
     atom    8 type  1   force =    -0.00030258    0.00052644   -0.00561830
     atom    9 type  2   force =     0.00003904    0.00017748   -0.00014532
     atom   10 type  2   force =    -0.00146451   -0.00003863   -0.00171624
     atom   11 type  2   force =     0.00038367   -0.00003596   -0.00005523
     atom   12 type  2   force =    -0.00010335    0.00010547   -0.00008530
     atom   13 type  1   force =    -0.00009270   -0.00017380   -0.00023968
     atom   14 type  1   force =    -0.00021342   -0.00036607    0.00035051
     atom   15 type  2   force =     0.00007058   -0.00049757    0.00008538
     atom   16 type  2   force =     0.00022027    0.00009180    0.00025070
     atom   17 type  2   force =     0.00036071   -0.00018660    0.00016097
     atom   18 type  2   force =    -0.00004547   -0.00016359   -0.00015421
     atom   19 type  1   force =    -0.00028984   -0.00045311    0.00004947
     atom   20 type  1   force =     0.00014154    0.00042931    0.00048593
     atom   21 type  2   force =    -0.00000442   -0.00007592    0.10403170
     atom   22 type  2   force =    -0.00013672   -0.00003032    0.00001500
     atom   23 type  2   force =    -0.07033406   -0.00016296   -0.02683098
     atom   24 type  2   force =     0.07020046    0.00028204   -0.02690929
     atom   25 type  1   force =     0.00002496   -0.00015575    0.09275582
     atom   26 type  1   force =    -0.00015926   -0.00039352   -0.17832355
     atom   27 type  2   force =     0.00011123   -0.00030721   -0.01919217
     atom   28 type  2   force =     0.00004692   -0.00163295    0.05840302
     atom   29 type  2   force =    -0.01028750   -0.00064253    0.00729596
     atom   30 type  2   force =     0.01202239   -0.00030968    0.00743126
     atom   31 type  1   force =     0.00007682    0.00515315   -0.01466260
     atom   32 type  1   force =    -0.00013827   -0.00051392   -0.00596209
     atom   33 type  2   force =     0.00012968   -0.00039365   -0.00022848
     atom   34 type  2   force =    -0.00078843    0.00260937   -0.00103838
     atom   35 type  2   force =    -0.00006774   -0.00011409   -0.00011789
     atom   36 type  2   force =     0.00023280    0.00000171   -0.00014426
     atom   37 type  1   force =    -0.00043952    0.00008556    0.00002683
     atom   38 type  1   force =    -0.00003138   -0.00024327   -0.00023978
     atom   39 type  2   force =    -0.00030885   -0.00018758   -0.00017028
     atom   40 type  2   force =    -0.00013517   -0.00006053   -0.00004385
     atom   41 type  2   force =    -0.00013138   -0.00013908    0.00036220
     atom   42 type  2   force =    -0.00006944   -0.00023409    0.00011706
     atom   43 type  1   force =    -0.00000508   -0.00029905    0.00012954
     atom   44 type  1   force =     0.00002140   -0.00014258    0.00014435
     atom   45 type  2   force =     0.00000956   -0.00010831    0.10396876
     atom   46 type  2   force =    -0.07035653   -0.00011481   -0.02685462
     atom   47 type  2   force =     0.07020342    0.00032039   -0.02691247
     atom   48 type  3   force =    -0.00000810    0.00102617    0.00024394
     atom   49 type  3   force =    -0.00424390   -0.01067604    0.00474010
     atom   50 type  4   force =     0.00039158    0.00114389    0.00057960
     atom   51 type  5   force =    -0.00002802   -0.00065607   -0.00039597
     atom   52 type  5   force =    -0.00004441   -0.00100830   -0.00024892
     atom   53 type  5   force =    -0.00057178   -0.00069143    0.00064899
     atom   54 type  5   force =     0.00432270    0.01110674   -0.00509773
     atom   55 type  2   force =     0.00016480   -0.00013790    0.00055267
     atom   56 type  5   force =     0.00016734   -0.00040419   -0.00043403
     atom   57 type  5   force =    -0.00045028   -0.00016132    0.00014031

     Total force =     0.366617     Total SCF correction =     0.000617
  @ DRIVER MODE: Message from server: STATUS
  @ DRIVER MODE: Message from server: GETFORCE
  @ DRIVER MODE: Returning v,forces,stress,ensemble

     Writing output data file ./calc.save/
  @ DRIVER MODE: Message from server: EXIT
  @ DRIVE MODE: Exiting

     General routines

     Parallel routines

   This run was terminated on:   6:30: 1  23Sep2021

   JOB DONE.