     Program PWSCF v.6.7GPU starts on 23Sep2021 at  6:55: 6

     R & G space division:  proc/nbgrp/npool/nimage =      10
     Reading input from /storage/home/hcoda1/3/ntian30/research/carbon/CxH_vib/H2O_calc/ads_slab/CH2N2HHO_a/out_0043/pw.inp
Warning: card &CELL ignored
Warning: card   CELL_DYNAMICS='IPI', ignored
Warning: card / ignored

     Current dimensions of program PWSCF are:
     Max number of different atomic species (ntypx) = 10
     Max number of k-points (npk) =  40000
     Max angular momentum in pseudopotentials (lmaxx) =  3
     Presently no symmetry can be used with electric field

     Message from routine cell_base_init:
     DEPRECATED: use true lattice parameter, not A to a.u. conversion factor

     IMPORTANT: XC functional enforced from input :
     Exchange-correlation= BEEF-VDW
                           (   1   4  43  14   2   0   0)
     Any further DFT definition will be discarded
     Please, verify this is what you really want

  @ DRIVER MODE: Connecting to
 qe_1139763_2937323.sched-torque.pace.gatech.eduqm99txjv_scratch
  using UNIX socket
  @ DRIVER MODE: Message from server: STATUS
  @ DRIVER MODE: Message from server: INIT
  @ DRIVER MODE: Receiving replica           0          -1
  @ DRIVER MODE: Receiving encoded integer          25
  @ DRIVER MODE:  SCF:  T  FORCE:  T  STRESS:  F  VC:  F  ENSEMBLE:  F
  @ DRIVER MODE:  SCF:  T  FORCE:  T  STRESS:  F  VC:  F  ENSEMBLE:  F

     Using Slab Decomposition

     bravais-lattice index     =            0
     lattice parameter (alat)  =       1.8897  a.u.
     unit-cell volume          =    6658.9804 (a.u.)^3
     number of atoms/cell      =           55
     number of atomic types    =            5
     number of electrons       =       402.00
     number of Kohn-Sham states=          211
     kinetic-energy cutoff     =      29.3995  Ry
     charge density cutoff     =     293.9946  Ry
     scf convergence threshold =      7.3E-08
     mixing beta               =       0.0500
     number of iterations used =            8  plain     mixing
     Exchange-correlation= BEEF-VDW
                           (   1   4  43  14   2   0   0)

     celldm(1)=   1.889726  celldm(2)=   0.000000  celldm(3)=   0.000000
     celldm(4)=   0.000000  celldm(5)=   0.000000  celldm(6)=   0.000000

     crystal axes: (cart. coord. in units of alat)
               a(1) = (   6.579727   0.000000   0.000000 )
               a(2) = (  -0.000775   5.961596   0.000000 )
               a(3) = (   0.000000   0.000000  25.155947 )

     reciprocal axes: (cart. coord. in units 2 pi/alat)
               b(1) = (  0.151982  0.000020  0.000000 )
               b(2) = (  0.000000  0.167740  0.000000 )
               b(3) = (  0.000000  0.000000  0.039752 )

     PseudoPot. # 1 for Ti read from file:
     /storage/coda1/p-amedford6/0/shared/rich_project_chbe-medford/medford-share/data/pseudos_module/espresso/nninc/pbe/van/Ti.UPF
     MD5 check sum: 8e4df49b7f0d34bbd5052bf3f5ea0213
     Pseudo is Ultrasoft, Zval = 12.0
     Generated by new atomic code, or converted to UPF format
     Using radial grid of  851 points,  6 beta functions with:
                l(1) =   0
                l(2) =   0
                l(3) =   1
                l(4) =   1
                l(5) =   2
                l(6) =   2
     Q(r) pseudized with  8 coefficients,  rinner =    1.000   1.000   1.000
                                                       1.000   1.000

     PseudoPot. # 2 for O  read from file:
     /storage/coda1/p-amedford6/0/shared/rich_project_chbe-medford/medford-share/data/pseudos_module/espresso/nninc/pbe/van/O.UPF
     MD5 check sum: 78c19812648e8988a0fe644b0f25305e
     Pseudo is Ultrasoft, Zval =  6.0
     Generated by new atomic code, or converted to UPF format
     Using radial grid of  737 points,  4 beta functions with:
                l(1) =   0
                l(2) =   0
                l(3) =   1
                l(4) =   1
     Q(r) pseudized with  8 coefficients,  rinner =    0.800   0.800   0.800

     PseudoPot. # 3 for N  read from file:
     /storage/coda1/p-amedford6/0/shared/rich_project_chbe-medford/medford-share/data/pseudos_module/espresso/nninc/pbe/van/N.UPF
     MD5 check sum: 90d10febe142ad51ac9d5be1deb811c4
     Pseudo is Ultrasoft, Zval =  5.0
     Generated by new atomic code, or converted to UPF format
     Using radial grid of  729 points,  4 beta functions with:
                l(1) =   0
                l(2) =   0
                l(3) =   1
                l(4) =   1
     Q(r) pseudized with  8 coefficients,  rinner =    0.800   0.800   0.800

     PseudoPot. # 4 for C  read from file:
     /storage/coda1/p-amedford6/0/shared/rich_project_chbe-medford/medford-share/data/pseudos_module/espresso/nninc/pbe/van/C.UPF
     MD5 check sum: 1a69bf6b8db32088f5b2163dbdb77a27
     Pseudo is Ultrasoft, Zval =  4.0
     Generated by new atomic code, or converted to UPF format
     Using radial grid of  721 points,  4 beta functions with:
                l(1) =   0
                l(2) =   0
                l(3) =   1
                l(4) =   1
     Q(r) pseudized with  8 coefficients,  rinner =    0.800   0.800   0.800

     PseudoPot. # 5 for H  read from file:
     /storage/coda1/p-amedford6/0/shared/rich_project_chbe-medford/medford-share/data/pseudos_module/espresso/nninc/pbe/van/H.UPF
     MD5 check sum: b5ee9d7bfd3a09ee7748110bda690ff7
     Pseudo is Ultrasoft, Zval =  1.0
     Generated by new atomic code, or converted to UPF format
     Using radial grid of  615 points,  1 beta functions with:
                l(1) =   0
     Q(r) pseudized with  8 coefficients,  rinner =    0.800

     atomic species   valence    mass     pseudopotential
        Ti1           12.00    47.86700     Ti( 1.00)
        O1             6.00    15.99900     O ( 1.00)
        N1             5.00    14.00700     N ( 1.00)
        C1             4.00    12.01100     C ( 1.00)
        H1             1.00     1.00800     H ( 1.00)

     No symmetry found

   Cartesian axes

     site n.     atom                  positions (alat units)
         1           Ti1 tau(   1) = (   0.0004258   2.9801865   6.0000000  )
         2           Ti1 tau(   2) = (   3.2906075   1.4906267   6.0002472  )
         3           O1  tau(   3) = (   0.0006271   0.0005054   7.9858123  )
         4           O1  tau(   4) = (   3.2906025   0.0005020   7.3038282  )
         5           O1  tau(   5) = (   4.5942328   1.4918067   9.2879030  )
         6           O1  tau(   6) = (   1.9868534   1.4903216   9.2879459  )
         7           Ti1 tau(   7) = (   3.2907910   2.8959150   9.1758416  )
         8           Ti1 tau(   8) = (   0.0015273   1.4827037   9.2680791  )
         9           O1  tau(   9) = (   3.3002520   5.9418316  11.2747492  )
        10           O1  tau(  10) = (   0.0116148   5.9584955  10.6183126  )
        11           O1  tau(  11) = (   1.2897458   1.4862980  12.6211975  )
        12           O1  tau(  12) = (   5.3051886   1.5023792  12.6347999  )
        13           Ti1 tau(  13) = (   0.0146078   2.8478158  12.7200684  )
        14           Ti1 tau(  14) = (   3.3063360   1.3081926  12.6482236  )
        15           O1  tau(  15) = (   0.0235978   5.9609164  14.6274833  )
        16           O1  tau(  16) = (   3.2983906   0.0399142  13.8749830  )
        17           O1  tau(  17) = (   4.5813539   1.5856785  16.0626423  )
        18           O1  tau(  18) = (   2.0324892   1.5097802  16.0098020  )
        19           Ti1 tau(  19) = (   3.2774956   2.9544257  15.6266065  )
        20           Ti1 tau(  20) = (   6.5530467   1.3151789  15.9772938  )
        21           O1  tau(  21) = (   3.2904802   0.0005063   4.7018136  )
        22           O1  tau(  22) = (   6.5059356   5.9265713  17.1294848  )
        23           O1  tau(  23) = (   1.3043587   1.4918075   6.0039043  )
        24           O1  tau(  24) = (   5.2767064   1.4903225   6.0039473  )
        25           Ti1 tau(  25) = (   0.0000382   5.9609847   6.0000000  )
        26           Ti1 tau(  26) = (   3.2902200   4.4714249   6.0002472  )
        27           O1  tau(  27) = (   0.0002396   2.9813036   7.9858123  )
        28           O1  tau(  28) = (   3.2902150   2.9813002   7.3038282  )
        29           O1  tau(  29) = (   4.5938453   4.4726049   9.2879030  )
        30           O1  tau(  30) = (   1.9864658   4.4711199   9.2879459  )
        31           Ti1 tau(  31) = (   3.2891106   5.8743827   9.1763621  )
        32           Ti1 tau(  32) = (   0.0006254   4.4649316   9.2693709  )
        33           O1  tau(  33) = (   3.2992753   3.0242338  11.2405823  )
        34           O1  tau(  34) = (   0.0092240   2.9805883  10.6323155  )
        35           O1  tau(  35) = (   1.2972400   4.4705050  12.6241655  )
        36           O1  tau(  36) = (   5.3008088   4.4694758  12.6340222  )
        37           Ti1 tau(  37) = (   0.0289225   5.8314391  12.5906285  )
        38           Ti1 tau(  38) = (   3.3189507   4.3956991  12.4097224  )
        39           O1  tau(  39) = (   0.0312427   2.9750824  14.7260556  )
        40           O1  tau(  40) = (   3.2762925   2.9668711  13.8358254  )
        41           O1  tau(  41) = (   4.5358187   4.4455929  15.9064879  )
        42           O1  tau(  42) = (   2.0572077   4.4429961  16.0439637  )
        43           Ti1 tau(  43) = (   3.2186928   5.9141907  16.2420754  )
        44           Ti1 tau(  44) = (   6.4642982   4.4840528  15.9061301  )
        45           O1  tau(  45) = (   3.2900926   2.9813045   4.7018136  )
        46           O1  tau(  46) = (   1.3039711   4.4726057   6.0039043  )
        47           O1  tau(  47) = (   5.2763189   4.4711207   6.0039473  )
        48           N1  tau(  48) = (   0.2499663   2.3419386  17.9913213  )
        49           C1  tau(  49) = (   0.6208863   1.8700663  19.1394302  )
        50           H1  tau(  50) = (   0.7431952   2.5333404  19.9929579  )
        51           H1  tau(  51) = (   0.8399735   0.8189210  19.2161768  )
        52           N1  tau(  52) = (   6.5658643   3.6116587  17.7752569  )
        53           H1  tau(  53) = (   0.1300021   4.2235620  18.5825096  )
        54           O1  tau(  54) = (   3.3713844   5.9089882  18.0735649  )
        55           H1  tau(  55) = (   4.1555974   0.3538959  18.4550359  )

     number of k points=    10  Fermi-Dirac smearing, width (Ry)=  0.0073
                       cart. coord. in units 2pi/alat
        k(    1) = (   0.0000000   0.0000000   0.0000000), wk =   0.1250000
        k(    2) = (   0.0000000   0.0419351   0.0000000), wk =   0.2500000
        k(    3) = (   0.0000000  -0.0838702   0.0000000), wk =   0.1250000
        k(    4) = (   0.0379955   0.0000049   0.0000000), wk =   0.2500000
        k(    5) = (   0.0379955   0.0419400   0.0000000), wk =   0.2500000
        k(    6) = (   0.0379955  -0.0838652   0.0000000), wk =   0.2500000
        k(    7) = (   0.0379955  -0.0419301   0.0000000), wk =   0.2500000
        k(    8) = (  -0.0759910  -0.0000099   0.0000000), wk =   0.1250000
        k(    9) = (  -0.0759910   0.0419252   0.0000000), wk =   0.2500000
        k(   10) = (  -0.0759910  -0.0838800   0.0000000), wk =   0.1250000

     Initial potential from superposition of free atoms

     starting charge  385.99915, renormalised to  402.00000

     negative rho (up, down):  1.591E-02 0.000E+00

     %%%%%%%%%%%%%%%%%%%%%%%%%%%%%%%%%%%%%%%%%%%%%%%%%%%%%%%%%%%%%%%%%%%%%%%%
     %                                                                      %
     % You are using vdW-DF, which was implemented by the Thonhauser group. %
     % Please cite the following two papers that made this development      %
     % possible and the two reviews that describe the various versions:     %
     %                                                                      %
     %   T. Thonhauser et al., PRL 115, 136402 (2015).                      %
     %   T. Thonhauser et al., PRB 76, 125112 (2007).                       %
     %   K. Berland et al., Rep. Prog. Phys. 78, 066501 (2015).             %
     %   D.C. Langreth et al., J. Phys.: Condens. Matter 21, 084203 (2009). %
     %                                                                      %
     %                                                                      %
     % If you are calculating the stress with vdW-DF, please also cite:     %
     %                                                                      %
     %   R. Sabatini et al., J. Phys.: Condens. Matter 24, 424209 (2012).   %
     %                                                                      %
     %%%%%%%%%%%%%%%%%%%%%%%%%%%%%%%%%%%%%%%%%%%%%%%%%%%%%%%%%%%%%%%%%%%%%%%%

     Adding external electric field

     Computed dipole along edir(3) :
        Dipole              -11.3527 Ry au,        -28.8557 Debye
        Dipole field         -0.0214 Ry au,

        Potential amp.        1.9860 Ry
        Total length         46.3494 bohr

     Starting wfcs are  304 atomic wfcs
  @ DRIVER MODE: Message from server: STATUS
  @ DRIVER MODE: Message from server: POSDATA
  @ DRIVER MODE: Reading and sharing cell
  @ DRIVER MODE: Reading and sharing positions
  @ DRIVER MODE: Received positions

     Self-consistent Calculation

     iteration #  1     ecut=    29.40 Ry     beta= 0.05
     Davidson diagonalization with overlap
     c_bands:  4 eigenvalues not converged
     c_bands:  3 eigenvalues not converged
     c_bands:  3 eigenvalues not converged
     c_bands:  5 eigenvalues not converged
     c_bands:  5 eigenvalues not converged
     c_bands:  1 eigenvalues not converged
     c_bands:  5 eigenvalues not converged
     c_bands:  4 eigenvalues not converged
     c_bands:  5 eigenvalues not converged
     c_bands:  1 eigenvalues not converged
     ethr =  1.00E-05,  avg # of iterations = 24.0

[...]

     total energy              =   -2410.15375650 Ry
     estimated scf accuracy    <    6308.30486252 Ry

     iteration #  2     ecut=    29.40 Ry     beta= 0.05
     Davidson diagonalization with overlap
     ethr =  1.00E-02,  avg # of iterations = 22.6

[...]

     iteration # 89     ecut=    29.40 Ry     beta= 0.05
     Davidson diagonalization with overlap
     c_bands:  1 eigenvalues not converged
     c_bands:  1 eigenvalues not converged
     c_bands:  1 eigenvalues not converged
     ethr =  2.56E-06,  avg # of iterations = 13.1

[...]

     total energy              =   -2972.72741693 Ry
     estimated scf accuracy    <       0.00000007 Ry

     iteration #119     ecut=    29.40 Ry     beta= 0.05
     Davidson diagonalization with overlap
     ethr =  1.84E-11,  avg # of iterations =  6.0

     negative rho (up, down):  1.620E-02 0.000E+00

     Adding external electric field

     Computed dipole along edir(3) :
        Dipole                0.4610 Ry au,          1.1717 Debye
        Dipole field          0.0009 Ry au,

        Potential amp.       -0.0806 Ry
        Total length         46.3494 bohr

     End of self-consistent calculation

          k = 0.0000 0.0000 0.0000 ( 18029 PWs)   bands (ev):

   -56.5384 -56.5048 -55.8863 -55.8508 -55.6237 -55.5642 -55.3800 -55.3261
   -55.3041 -55.2304 -55.2006 -55.1895 -55.1556 -55.0329 -55.0321 -54.9849
   -32.9707 -32.8232 -32.7952 -32.7058 -32.6146 -32.5964 -32.3694 -32.1058
   -32.1042 -32.0767 -32.0295 -32.0259 -31.9928 -31.8696 -31.8524 -31.8446
   -31.7916 -31.7679 -31.7270 -31.7096 -31.6938 -31.6475 -31.6445 -31.5874
   -31.5863 -31.5820 -31.5784 -31.5346 -31.5305 -31.5293 -31.5063 -31.5061
   -31.4844 -31.4800 -31.4241 -31.4062 -31.3993 -31.3559 -31.3166 -31.2947
   -31.2879 -31.2797 -31.2436 -31.2427 -31.2173 -31.2047 -31.1760 -31.1555
   -17.8177 -16.7238 -16.2902 -16.2189 -15.9836 -15.9082 -15.8839 -15.8521
   -15.7863 -15.6164 -15.5344 -15.5094 -15.4996 -15.4403 -15.2728 -15.1763
   -15.1588 -15.0924 -15.0149 -14.9905 -14.9516 -14.8981 -14.8716 -14.8566
   -14.8408 -14.8060 -14.6828 -14.6026 -14.5046 -14.3240 -14.3059 -13.6872
   -13.5777 -11.9695  -7.7245  -5.1541  -4.3591  -4.2744  -3.8069  -3.7909
    -3.6061  -3.4267  -3.3705  -3.2263  -3.1672  -3.1174  -3.0612  -3.0467
    -2.9430  -2.8006  -2.7941  -2.7400  -2.7177  -2.7141  -2.6951  -2.5937
    -2.5284  -2.5193  -2.4242  -2.3325  -2.3115  -2.2726  -2.2324  -2.2248
    -2.1813  -2.1426  -2.0877  -2.0506  -2.0349  -1.9373  -1.9181  -1.8119
    -1.7851  -1.7610  -1.7515  -1.7187  -1.6793  -1.6210  -1.5497  -1.4325
    -1.3426  -1.3230  -1.2504  -1.2453  -1.2198  -1.0578  -1.0170  -1.0147
    -0.9543  -0.8781  -0.8490  -0.7931  -0.7556  -0.7124  -0.6601  -0.6182
    -0.5823  -0.4530  -0.4492  -0.3982  -0.3149  -0.2931  -0.2615  -0.2386
    -0.1576  -0.1022  -0.0659   0.0057   0.0654   0.0717   0.1165   0.1741
     0.2832   0.3257   0.3506   0.3811   0.4241   0.4480   0.5163   0.5640
     0.5950   0.6039   0.6793   0.7819   0.7988   0.8334   0.9231   0.9473
     1.0316   1.0709   1.0877   1.1727   1.1924   1.3716   1.4099   1.5800
     2.3841   2.7263   2.8763   3.1587   3.1738   3.4661   3.6885   3.7164
     3.7191   3.7992   3.9374

[...]

          k = 0.0380-0.0419 0.0000 ( 17876 PWs)   bands (ev):

[...]

          k =-0.0760-0.0000 0.0000 ( 17886 PWs)   bands (ev):

[...]

          k =-0.0760-0.0839 0.0000 ( 17948 PWs)   bands (ev):

   -56.5219 -56.5212 -55.8744 -55.8626 -55.6184 -55.5694 -55.3739 -55.3320
   -55.3021 -55.2290 -55.2024 -55.1731 -55.1719 -55.0343 -55.0248 -54.9921
   -32.8092 -32.8085 -32.7878 -32.7869 -32.6588 -32.6585 -32.1954 -32.1859
   -32.0680 -32.0552 -32.0548 -32.0469 -31.9265 -31.8877 -31.8462 -31.8396
   -31.7964 -31.7903 -31.7032 -31.6708 -31.6297 -31.6111 -31.5927 -31.5880
   -31.5760 -31.5647 -31.5520 -31.5389 -31.5249 -31.5197 -31.5189 -31.5098
   -31.4739 -31.4698 -31.4304 -31.4109 -31.3971 -31.3957 -31.3875 -31.3587
   -31.3577 -31.2993 -31.2809 -31.2592 -31.2466 -31.2444 -31.2198 -31.1782
   -17.8039 -16.2037 -16.1072 -16.1029 -16.0197 -16.0173 -15.8136 -15.8064
   -15.6258 -15.6021 -15.5283 -15.4595 -15.3505 -15.3172 -15.2933 -15.2421
   -15.1970 -15.1690 -15.1127 -15.0809 -14.9983 -14.9669 -14.9509 -14.9394
   -14.9069 -14.8541 -14.7215 -14.6869 -14.6693 -14.5870 -14.4548 -13.6818
   -13.6810 -11.9270  -7.6547  -5.2153  -4.4328  -3.7771  -3.2193  -3.1911
    -3.1423  -3.1333  -2.9350  -2.8947  -2.8734  -2.8220  -2.7857  -2.7708
    -2.7256  -2.7196  -2.6378  -2.5855  -2.5538  -2.5411  -2.5172  -2.4575
    -2.4358  -2.4059  -2.3938  -2.3622  -2.3513  -2.3417  -2.3182  -2.2510
    -2.2022  -2.1493  -2.1160  -2.0753  -2.0178  -2.0125  -1.9783  -1.9697
    -1.8916  -1.8015  -1.7626  -1.6865  -1.6047  -1.5705  -1.5426  -1.5244
    -1.4818  -1.4247  -1.3976  -1.3489  -1.3231  -1.2694  -1.2340  -1.2240
    -1.1581  -1.1199  -1.0528  -1.0311  -0.9516  -0.8396  -0.7841  -0.7595
    -0.7324  -0.7196  -0.6508  -0.5888  -0.5398  -0.5208  -0.4480  -0.4405
    -0.4139  -0.3637  -0.3491  -0.3145  -0.2018  -0.1388  -0.0782   0.0061
     0.0455   0.0824   0.1626   0.2164   0.2406   0.3162   0.3962   0.4765
     0.4928   0.5303   0.5383   0.7054   0.7351   0.8444   0.8772   0.9517
     0.9867   1.0264   1.1475   1.1897   1.2216   1.2229   1.2435   1.2614
     2.3295   3.2959   3.2986   3.3484   3.3565   3.6242   3.6326   3.7705
     3.7724   3.8911   3.9304

     the Fermi energy is     2.6055 ev

!    total energy              =   -2972.72741716 Ry
     estimated scf accuracy    <       0.00000003 Ry
     smearing contrib. (-TS)   =      -0.00744696 Ry
     internal energy E=F+TS    =   -2972.71997020 Ry

     The total energy is F=E-TS. E is the sum of the following terms:
     one-electron contribution =  -24031.75815726 Ry
     hartree contribution      =   12109.51384246 Ry
     xc contribution           =    -493.29062552 Ry
     ewald contribution        =    9442.81456907 Ry
     electric field correction =       0.00040105 Ry

     convergence has been achieved in 119 iterations

     Forces acting on atoms (cartesian axes, Ry/au):

     atom    1 type  1   force =     0.00000185   -0.00043045    0.11615174
     atom    2 type  1   force =    -0.00007495    0.00014677   -0.15937173
     atom    3 type  2   force =     0.00002658    0.00000726   -0.05253860
     atom    4 type  2   force =     0.00005368   -0.00013626    0.02469985
     atom    5 type  2   force =    -0.00349052   -0.00224381   -0.01042448
     atom    6 type  2   force =     0.00528821   -0.00174556   -0.01062268
     atom    7 type  1   force =     0.00000611   -0.00613766    0.04626841
     atom    8 type  1   force =     0.00041152    0.01612622    0.08038753
     atom    9 type  2   force =    -0.00000885   -0.00061224    0.00014118
     atom   10 type  2   force =    -0.00257374    0.00058694   -0.04975893
     atom   11 type  2   force =    -0.00054580   -0.00013346   -0.00016056
     atom   12 type  2   force =     0.00058304   -0.00027928   -0.00000330
     atom   13 type  1   force =    -0.00017149    0.00043801   -0.00003660
     atom   14 type  1   force =     0.00017079    0.00009090   -0.00113107
     atom   15 type  2   force =    -0.00022004   -0.00041327   -0.00057645
     atom   16 type  2   force =     0.00012296   -0.00065441    0.00079652
     atom   17 type  2   force =    -0.00006225    0.00050210    0.00013546
     atom   18 type  2   force =     0.00016683    0.00053708   -0.00027254
     atom   19 type  1   force =    -0.00055387   -0.00028966   -0.00050056
     atom   20 type  1   force =     0.00054187    0.00022818   -0.00005254
     atom   21 type  2   force =     0.00004650    0.00021904    0.09896439
     atom   22 type  2   force =     0.00003662   -0.00050418   -0.00042616
     atom   23 type  2   force =    -0.07985639    0.00003763   -0.03162281
     atom   24 type  2   force =     0.07975123    0.00047222   -0.03167797
     atom   25 type  1   force =     0.00007286   -0.00057771    0.11646560
     atom   26 type  1   force =    -0.00011809   -0.00143822   -0.15989127
     atom   27 type  2   force =     0.00007217   -0.00070031   -0.05054863
     atom   28 type  2   force =     0.00005470    0.00166484    0.02023395
     atom   29 type  2   force =    -0.00169357    0.00505521   -0.01371221
     atom   30 type  2   force =     0.00360931    0.00547824   -0.01384222
     atom   31 type  1   force =    -0.00017244    0.00218461    0.03175119
     atom   32 type  1   force =     0.00031755   -0.01972782    0.08003411
     atom   33 type  2   force =     0.00014396   -0.00036286    0.00015193
     atom   34 type  2   force =    -0.00158540    0.00085523   -0.06330202
     atom   35 type  2   force =     0.00041204    0.00003161   -0.00017732
     atom   36 type  2   force =     0.00014870   -0.00004971   -0.00024735
     atom   37 type  1   force =    -0.00013212   -0.00023737   -0.00059353
     atom   38 type  1   force =     0.00013391    0.00044740    0.00005609
     atom   39 type  2   force =    -0.00027996    0.00055445    0.00011400
     atom   40 type  2   force =     0.00023744    0.00010914    0.00065060
     atom   41 type  2   force =     0.00121106    0.00002332   -0.00011213
     atom   42 type  2   force =    -0.00117247   -0.00049079    0.00004012
     atom   43 type  1   force =    -0.00061517    0.00041189   -0.00047043
     atom   44 type  1   force =    -0.00003566    0.00044406    0.00026836
     atom   45 type  2   force =     0.00005137    0.00002960    0.09877523
     atom   46 type  2   force =    -0.07990851    0.00000935   -0.03162290
     atom   47 type  2   force =     0.07980400    0.00044240   -0.03169619
     atom   48 type  3   force =    -0.00012895    0.00039644   -0.00017411
     atom   49 type  4   force =    -0.00025891    0.00010443   -0.00027996
     atom   50 type  5   force =    -0.00017037   -0.00029262   -0.00018769
     atom   51 type  5   force =     0.00008554    0.00033440   -0.00030325
     atom   52 type  3   force =    -0.00024870   -0.00075348    0.00044477
     atom   53 type  5   force =    -0.00031460    0.00029555   -0.00004889
     atom   54 type  2   force =    -0.01354223   -0.00699300   -0.00742714
     atom   55 type  5   force =     0.01437263    0.00693964    0.00728320

     Total force =     0.397421     Total SCF correction =     0.000600
  @ DRIVER MODE: Message from server: STATUS
  @ DRIVER MODE: Message from server: GETFORCE
  @ DRIVER MODE: Returning v,forces,stress,ensemble

     Writing output data file ./calc.save/
  @ DRIVER MODE: Message from server: EXIT
  @ DRIVE MODE: Exiting

     General routines

     Parallel routines

   This run was terminated on:   7:24:29  23Sep2021

   JOB DONE.