     Program PWSCF v.6.7GPU starts on 15Jul2021 at 23: 6: 8

     R & G space division:  proc/nbgrp/npool/nimage =      16
     Reading input from /storage/home/hcoda1/3/ntian30/research/carbon/15Jul_vib/ads_slab/CH3N2_b/out_0011/pw.inp
Warning: card &CELL ignored
Warning: card   CELL_DYNAMICS='IPI', ignored
Warning: card / ignored

     Current dimensions of program PWSCF are:
     Max number of different atomic species (ntypx) = 10
     Max number of k-points (npk) =  40000
     Max angular momentum in pseudopotentials (lmaxx) =  3
     Presently no symmetry can be used with electric field

     Message from routine cell_base_init:
     DEPRECATED: use true lattice parameter, not A to a.u. conversion factor

     IMPORTANT: XC functional enforced from input :
     Exchange-correlation= BEEF-VDW
                           (   1   4  43  14   2   0   0)
     Any further DFT definition will be discarded
     Please, verify this is what you really want

  @ DRIVER MODE: Connecting to
 qe_1139763_2351645.sched-torque.pace.gatech.eduyd07tc5k_scratch
  using UNIX socket
  @ DRIVER MODE: Message from server: STATUS
  @ DRIVER MODE: Message from server: INIT
  @ DRIVER MODE: Receiving replica           0          -1
  @ DRIVER MODE: Receiving encoded integer          25
  @ DRIVER MODE:  SCF:  T  FORCE:  T  STRESS:  F  VC:  F  ENSEMBLE:  F
  @ DRIVER MODE:  SCF:  T  FORCE:  T  STRESS:  F  VC:  F  ENSEMBLE:  F

     Using Slab Decomposition

     bravais-lattice index     =            0
     lattice parameter (alat)  =       1.8897  a.u.
     unit-cell volume          =    6658.9804 (a.u.)^3
     number of atoms/cell      =           53
     number of atomic types    =            5
     number of electrons       =       395.00
     number of Kohn-Sham states=          207
     kinetic-energy cutoff     =      29.3995  Ry
     charge density cutoff     =     293.9946  Ry
     scf convergence threshold =      7.3E-08
     mixing beta               =       0.0500
     number of iterations used =            8  plain     mixing
     Exchange-correlation= BEEF-VDW
                           (   1   4  43  14   2   0   0)

     celldm(1)=   1.889726  celldm(2)=   0.000000  celldm(3)=   0.000000
     celldm(4)=   0.000000  celldm(5)=   0.000000  celldm(6)=   0.000000

     crystal axes: (cart. coord. in units of alat)
               a(1) = (   6.579727   0.000000   0.000000 )
               a(2) = (  -0.000775   5.961596   0.000000 )
               a(3) = (   0.000000   0.000000  25.155947 )

     reciprocal axes: (cart. coord. in units 2 pi/alat)
               b(1) = (  0.151982  0.000020  0.000000 )
               b(2) = (  0.000000  0.167740  0.000000 )
               b(3) = (  0.000000  0.000000  0.039752 )

     PseudoPot. # 1 for Ti read from file:
     /storage/coda1/p-amedford6/0/shared/rich_project_chbe-medford/medford-share/data/pseudos_module/espresso/nninc/pbe/van/Ti.UPF
     MD5 check sum: 8e4df49b7f0d34bbd5052bf3f5ea0213
     Pseudo is Ultrasoft, Zval = 12.0
     Generated by new atomic code, or converted to UPF format
     Using radial grid of  851 points,  6 beta functions with:
                l(1) =   0
                l(2) =   0
                l(3) =   1
                l(4) =   1
                l(5) =   2
                l(6) =   2
     Q(r) pseudized with  8 coefficients,  rinner =    1.000   1.000   1.000
                                                       1.000   1.000

     PseudoPot. # 2 for O  read from file:
     /storage/coda1/p-amedford6/0/shared/rich_project_chbe-medford/medford-share/data/pseudos_module/espresso/nninc/pbe/van/O.UPF
     MD5 check sum: 78c19812648e8988a0fe644b0f25305e
     Pseudo is Ultrasoft, Zval =  6.0
     Generated by new atomic code, or converted to UPF format
     Using radial grid of  737 points,  4 beta functions with:
                l(1) =   0
                l(2) =   0
                l(3) =   1
                l(4) =   1
     Q(r) pseudized with  8 coefficients,  rinner =    0.800   0.800   0.800

     PseudoPot. # 3 for N  read from file:
     /storage/coda1/p-amedford6/0/shared/rich_project_chbe-medford/medford-share/data/pseudos_module/espresso/nninc/pbe/van/N.UPF
     MD5 check sum: 90d10febe142ad51ac9d5be1deb811c4
     Pseudo is Ultrasoft, Zval =  5.0
     Generated by new atomic code, or converted to UPF format
     Using radial grid of  729 points,  4 beta functions with:
                l(1) =   0
                l(2) =   0
                l(3) =   1
                l(4) =   1
     Q(r) pseudized with  8 coefficients,  rinner =    0.800   0.800   0.800

     PseudoPot. # 4 for C  read from file:
     /storage/coda1/p-amedford6/0/shared/rich_project_chbe-medford/medford-share/data/pseudos_module/espresso/nninc/pbe/van/C.UPF
     MD5 check sum: 1a69bf6b8db32088f5b2163dbdb77a27
     Pseudo is Ultrasoft, Zval =  4.0
     Generated by new atomic code, or converted to UPF format
     Using radial grid of  721 points,  4 beta functions with:
                l(1) =   0
                l(2) =   0
                l(3) =   1
                l(4) =   1
     Q(r) pseudized with  8 coefficients,  rinner =    0.800   0.800   0.800

     PseudoPot. # 5 for H  read from file:
     /storage/coda1/p-amedford6/0/shared/rich_project_chbe-medford/medford-share/data/pseudos_module/espresso/nninc/pbe/van/H.UPF
     MD5 check sum: b5ee9d7bfd3a09ee7748110bda690ff7
     Pseudo is Ultrasoft, Zval =  1.0
     Generated by new atomic code, or converted to UPF format
     Using radial grid of  615 points,  1 beta functions with:
                l(1) =   0
     Q(r) pseudized with  8 coefficients,  rinner =    0.800

     atomic species   valence    mass     pseudopotential
        Ti1           12.00    47.86700     Ti( 1.00)
        O1             6.00    15.99900     O ( 1.00)
        N1             5.00    14.00700     N ( 1.00)
        C1             4.00    12.01100     C ( 1.00)
        H1             1.00     1.00800     H ( 1.00)

     Starting magnetic structure
     atomic species   magnetization
        Ti1          0.000
        O1           0.000
        N1           0.000
        C1           0.025
        H1           0.000

     No symmetry found

   Cartesian axes

     site n.     atom                  positions (alat units)
         1           Ti1 tau(   1) = (   0.0004258   2.9801865   6.0000000  )
         2           Ti1 tau(   2) = (   3.2906075   1.4906267   6.0002472  )
         3           O1  tau(   3) = (   0.0006271   0.0005054   7.9858123  )
         4           O1  tau(   4) = (   3.2906025   0.0005020   7.3038282  )
         5           O1  tau(   5) = (   4.5942328   1.4918067   9.2879030  )
         6           O1  tau(   6) = (   1.9868534   1.4903216   9.2879459  )
         7           Ti1 tau(   7) = (   3.2907910   2.8959150   9.1758416  )
         8           Ti1 tau(   8) = (   0.0015273   1.4827037   9.2680791  )
         9           O1  tau(   9) = (   3.3037365   0.0094216  11.3222111  )
        10           O1  tau(  10) = (   0.0116148   5.9584955  10.6183126  )
        11           O1  tau(  11) = (   1.3152514   1.5075076  12.6320051  )
        12           O1  tau(  12) = (   5.3186361   1.4995162  12.6508707  )
        13           Ti1 tau(  13) = (   6.5540705   2.9956815  12.5884341  )
        14           Ti1 tau(  14) = (   3.2234832   1.4927074  12.4921739  )
        15           O1  tau(  15) = (   0.0610261   5.9052480  14.6017706  )
        16           O1  tau(  16) = (   3.2936532   0.0132264  13.8830087  )
        17           O1  tau(  17) = (   4.5722397   1.5061520  16.0138922  )
        18           O1  tau(  18) = (   2.0767725   1.5295127  16.0808449  )
        19           Ti1 tau(  19) = (   3.3650854   3.0251465  15.6907462  )
        20           Ti1 tau(  20) = (   0.0387768   1.3037779  15.7216176  )
        21           O1  tau(  21) = (   3.2904802   0.0005063   4.7018136  )
        22           O1  tau(  22) = (   0.0189486   0.1070799  17.1824039  )
        23           O1  tau(  23) = (   1.3043587   1.4918075   6.0039043  )
        24           O1  tau(  24) = (   5.2767064   1.4903225   6.0039473  )
        25           Ti1 tau(  25) = (   0.0000382   5.9609847   6.0000000  )
        26           Ti1 tau(  26) = (   3.2902200   4.4714249   6.0002472  )
        27           O1  tau(  27) = (   0.0002396   2.9813036   7.9858123  )
        28           O1  tau(  28) = (   3.2902150   2.9813002   7.3038282  )
        29           O1  tau(  29) = (   4.5938453   4.4726049   9.2879030  )
        30           O1  tau(  30) = (   1.9864658   4.4711199   9.2879459  )
        31           Ti1 tau(  31) = (   3.2891106   5.8743827   9.1763621  )
        32           Ti1 tau(  32) = (   0.0006254   4.4649316   9.2693709  )
        33           O1  tau(  33) = (   3.3043114   2.9829305  11.3227053  )
        34           O1  tau(  34) = (   0.0092240   2.9805883  10.6323155  )
        35           O1  tau(  35) = (   1.3131995   4.4620516  12.6081187  )
        36           O1  tau(  36) = (   5.3117129   4.4692194  12.6284301  )
        37           Ti1 tau(  37) = (   6.5303063   5.9583428  12.5400172  )
        38           Ti1 tau(  38) = (   3.2255477   4.4746212  12.4748647  )
        39           O1  tau(  39) = (   0.0377805   3.0059521  14.8845374  )
        40           O1  tau(  40) = (   3.3120027   2.9986483  13.8863452  )
        41           O1  tau(  41) = (   4.5434534   4.5277214  16.0148975  )
        42           O1  tau(  42) = (   2.1165747   4.4940517  16.0783766  )
        43           Ti1 tau(  43) = (   3.3042555   0.0241951  15.7004812  )
        44           Ti1 tau(  44) = (   0.0495666   4.4505358  16.3362958  )
        45           O1  tau(  45) = (   3.2900926   2.9813045   4.7018136  )
        46           O1  tau(  46) = (   1.3039711   4.4726057   6.0039043  )
        47           O1  tau(  47) = (   5.2763189   4.4711207   6.0039473  )
        48           N1  tau(  48) = (   0.5348212   3.4288502  18.0689430  )
        49           C1  tau(  49) = (   1.3556880   3.0079929  19.2115664  )
        50           H1  tau(  50) = (   1.4862090   3.8900195  19.8496782  )
        51           H1  tau(  51) = (   0.8469181   2.2141957  19.7647163  )
        52           H1  tau(  52) = (   2.3296892   2.6851793  18.8624704  )
        53           N1  tau(  53) = (   5.9145885   3.2636146  17.9655992  )

     number of k points=    10  Fermi-Dirac smearing, width (Ry)=  0.0073
                       cart. coord. in units 2pi/alat
        k(    1) = (   0.0000000   0.0000000   0.0000000), wk =   0.0625000
        k(    2) = (   0.0000000   0.0419351   0.0000000), wk =   0.1250000
        k(    3) = (   0.0000000  -0.0838702   0.0000000), wk =   0.0625000
        k(    4) = (   0.0379955   0.0000049   0.0000000), wk =   0.1250000
        k(    5) = (   0.0379955   0.0419400   0.0000000), wk =   0.1250000
        k(    6) = (   0.0379955  -0.0838652   0.0000000), wk =   0.1250000
        k(    7) = (   0.0379955  -0.0419301   0.0000000), wk =   0.1250000
        k(    8) = (  -0.0759910  -0.0000099   0.0000000), wk =   0.0625000
        k(    9) = (  -0.0759910   0.0419252   0.0000000), wk =   0.1250000
        k(   10) = (  -0.0759910  -0.0838800   0.0000000), wk =   0.0625000

     Initial potential from superposition of free atoms

     starting charge  378.99916, renormalised to  395.00000

     negative rho (up, down):  8.052E-03 8.059E-03

     %%%%%%%%%%%%%%%%%%%%%%%%%%%%%%%%%%%%%%%%%%%%%%%%%%%%%%%%%%%%%%%%%%%%%%%%
     %                                                                      %
     % You are using vdW-DF, which was implemented by the Thonhauser group. %
     % Please cite the following two papers that made this development      %
     % possible and the two reviews that describe the various versions:     %
     %                                                                      %
     %   T. Thonhauser et al., PRL 115, 136402 (2015).                      %
     %   T. Thonhauser et al., PRB 76, 125112 (2007).                       %
     %   K. Berland et al., Rep. Prog. Phys. 78, 066501 (2015).             %
     %   D.C. Langreth et al., J. Phys.: Condens. Matter 21, 084203 (2009). %
     %                                                                      %
     %                                                                      %
     % If you are calculating the stress with vdW-DF, please also cite:     %
     %                                                                      %
     %   R. Sabatini et al., J. Phys.: Condens. Matter 24, 424209 (2012).   %
     %                                                                      %
     %%%%%%%%%%%%%%%%%%%%%%%%%%%%%%%%%%%%%%%%%%%%%%%%%%%%%%%%%%%%%%%%%%%%%%%%

     Adding external electric field

     Computed dipole along edir(3) :
        Dipole               -8.5754 Ry au,        -21.7966 Debye
        Dipole field         -0.0162 Ry au,

        Potential amp.        1.5001 Ry
        Total length         46.3494 bohr

[...]

     Starting wfcs are  299 atomic wfcs
  @ DRIVER MODE: Message from server: STATUS
  @ DRIVER MODE: Message from server: POSDATA
  @ DRIVER MODE: Reading and sharing cell
  @ DRIVER MODE: Reading and sharing positions
  @ DRIVER MODE: Received positions

     Self-consistent Calculation

     iteration #  1     ecut=    29.40 Ry     beta= 0.05
     Davidson diagonalization with overlap
     c_bands:  1 eigenvalues not converged
     c_bands:  1 eigenvalues not converged
     c_bands:  1 eigenvalues not converged
     c_bands:  3 eigenvalues not converged
     c_bands:  1 eigenvalues not converged
     c_bands:  3 eigenvalues not converged
     c_bands:  1 eigenvalues not converged
     c_bands:  2 eigenvalues not converged
     c_bands:  1 eigenvalues not converged
     c_bands:  1 eigenvalues not converged
     c_bands:  1 eigenvalues not converged
     c_bands:  3 eigenvalues not converged
     c_bands:  1 eigenvalues not converged
     c_bands:  3 eigenvalues not converged
     c_bands:  1 eigenvalues not converged
     c_bands:  2 eigenvalues not converged
     ethr =  1.00E-05,  avg # of iterations = 19.2

[...]

     total energy              =   -2599.58287052 Ry
     estimated scf accuracy    <    3761.29085270 Ry

     total magnetization       =     0.00 Bohr mag/cell
     absolute magnetization    =     0.02 Bohr mag/cell

     iteration #  2     ecut=    29.40 Ry     beta= 0.05
     Davidson diagonalization with overlap
     ethr =  1.00E-02,  avg # of iterations = 22.4

[...]

     iteration # 50     ecut=    29.40 Ry     beta= 0.05
     Davidson diagonalization with overlap
     c_bands:  1 eigenvalues not converged
     ethr =  9.23E-10,  avg # of iterations = 15.4

[...]

     total energy              =   -2939.12579419 Ry
     estimated scf accuracy    <       0.00000008 Ry

[...]

     iteration # 72     ecut=    29.40 Ry     beta= 0.05
     Davidson diagonalization with overlap
     ethr =  2.09E-11,  avg # of iterations =  9.4

     negative rho (up, down):  8.119E-03 8.117E-03

[...]

     Adding external electric field

     Computed dipole along edir(3) :
        Dipole                0.9121 Ry au,          2.3183 Debye
        Dipole field          0.0017 Ry au,

        Potential amp.       -0.1596 Ry
        Total length         46.3494 bohr

     Magnetic moment per site  (integrated on atomic sphere of radius R)
     atom   1 (R=0.727)  charge=  7.9485  magn= -0.0139
     atom   2 (R=0.727)  charge=  7.9315  magn= -0.0008
     atom   3 (R=0.727)  charge=  4.9369  magn=  0.0011
     atom   4 (R=0.727)  charge=  4.9738  magn=  0.0002
     atom   5 (R=0.727)  charge=  4.9424  magn=  0.0002
     atom   6 (R=0.727)  charge=  4.9431  magn=  0.0002
     atom   7 (R=0.727)  charge=  7.9299  magn= -0.0006
     atom   8 (R=0.727)  charge=  7.9249  magn= -0.0046
     atom   9 (R=0.727)  charge=  4.9562  magn=  0.0001
     atom  10 (R=0.727)  charge=  4.9398  magn=  0.0003
     atom  11 (R=0.727)  charge=  4.9438  magn=  0.0002
     atom  12 (R=0.727)  charge=  4.9403  magn=  0.0002
     atom  13 (R=0.727)  charge=  7.9199  magn= -0.0012
     atom  14 (R=0.727)  charge=  7.9286  magn= -0.0004
     atom  15 (R=0.727)  charge=  4.9367  magn=  0.0001
     atom  16 (R=0.727)  charge=  4.9585  magn=  0.0000
     atom  17 (R=0.727)  charge=  4.9269  magn=  0.0000
     atom  18 (R=0.727)  charge=  4.9196  magn=  0.0000
     atom  19 (R=0.727)  charge=  7.9516  magn= -0.0001
     atom  20 (R=0.727)  charge=  7.9765  magn= -0.0001
     atom  21 (R=0.727)  charge=  4.8266  magn=  0.0008
     atom  22 (R=0.727)  charge=  4.9096  magn=  0.0000
     atom  23 (R=0.727)  charge=  4.9340  magn=  0.0016
     atom  24 (R=0.727)  charge=  4.9340  magn=  0.0016
     atom  25 (R=0.727)  charge=  7.9485  magn= -0.0139
     atom  26 (R=0.727)  charge=  7.9316  magn= -0.0008
     atom  27 (R=0.727)  charge=  4.9364  magn=  0.0011
     atom  28 (R=0.727)  charge=  4.9740  magn=  0.0002
     atom  29 (R=0.727)  charge=  4.9433  magn=  0.0002
     atom  30 (R=0.727)  charge=  4.9439  magn=  0.0002
     atom  31 (R=0.727)  charge=  7.9304  magn= -0.0006
     atom  32 (R=0.727)  charge=  7.9251  magn= -0.0046
     atom  33 (R=0.727)  charge=  4.9554  magn=  0.0001
     atom  34 (R=0.727)  charge=  4.9242  magn=  0.0004
     atom  35 (R=0.727)  charge=  4.9448  magn=  0.0002
     atom  36 (R=0.727)  charge=  4.9438  magn=  0.0002
     atom  37 (R=0.727)  charge=  7.9230  magn= -0.0011
     atom  38 (R=0.727)  charge=  7.9295  magn= -0.0004
     atom  39 (R=0.727)  charge=  4.9078  magn=  0.0000
     atom  40 (R=0.727)  charge=  4.9611  magn=  0.0000
     atom  41 (R=0.727)  charge=  4.9355  magn=  0.0000
     atom  42 (R=0.727)  charge=  4.9348  magn=  0.0000
     atom  43 (R=0.727)  charge=  7.9537  magn= -0.0001
     atom  44 (R=0.727)  charge=  7.9726  magn= -0.0001
     atom  45 (R=0.727)  charge=  4.8266  magn=  0.0008
     atom  46 (R=0.727)  charge=  4.9340  magn=  0.0016
     atom  47 (R=0.727)  charge=  4.9341  magn=  0.0016
     atom  48 (R=0.501)  charge=  1.9993  magn=  0.0000
     atom  49 (R=0.447)  charge=  0.8411  magn= -0.0000
     atom  50 (R=0.447)  charge=  0.4923  magn=  0.0000
     atom  51 (R=0.447)  charge=  0.4965  magn=  0.0000
     atom  52 (R=0.447)  charge=  0.5031  magn=  0.0000
     atom  53 (R=0.501)  charge=  1.9556  magn= -0.0000

     End of self-consistent calculation

 ------ SPIN UP ------------

          k = 0.0000 0.0000 0.0000 ( 18029 PWs)   bands (ev):

   -55.7687 -55.7616 -55.7327 -55.7275 -55.6817 -55.6333 -55.5917 -55.5577
   -55.5540 -55.5203 -55.5190 -55.4460 -54.9556 -54.8054 -54.7540 -54.7200
   -32.3176 -32.2531 -32.1734 -32.0891 -32.0551 -32.0518 -32.0460 -32.0063
   -32.0042 -31.9694 -31.9390 -31.9204 -31.9112 -31.9037 -31.8803 -31.8775
   -31.8755 -31.8747 -31.8635 -31.8330 -31.8197 -31.8158 -31.7996 -31.7881
   -31.7847 -31.7810 -31.7791 -31.7538 -31.7404 -31.7335 -31.7211 -31.7090
   -31.7017 -31.6677 -31.6355 -31.5632 -31.4916 -31.3371 -31.1667 -31.1610
   -31.1033 -31.0726 -31.0648 -31.0503 -30.9777 -30.9112 -30.8912 -30.7801
   -19.4550 -16.5166 -16.2520 -15.9668 -15.9147 -15.8405 -15.7471 -15.6241
   -15.5288 -15.4097 -15.3710 -15.3156 -15.3074 -15.2631 -15.2361 -15.2320
   -15.2058 -15.1983 -15.1334 -15.1259 -15.0756 -15.0638 -15.0160 -14.9810
   -14.9694 -14.9146 -14.8454 -14.8040 -14.6852 -14.1593 -13.2573 -13.1409
   -12.3460  -7.2773  -4.9626  -4.7854  -3.8987  -3.7561  -3.7061  -3.6833
    -3.6395  -3.4385  -3.3497  -3.2831  -3.0428  -2.9516  -2.9273  -2.9165
    -2.8676  -2.7099  -2.6574  -2.6035  -2.5872  -2.5608  -2.5391  -2.5312
    -2.4950  -2.4857  -2.4478  -2.4163  -2.3251  -2.2122  -2.1826  -2.1050
    -2.0883  -2.0736  -2.0432  -2.0337  -2.0239  -2.0138  -1.9947  -1.9584
    -1.8926  -1.8513  -1.7854  -1.7014  -1.5600  -1.5375  -1.4601  -1.3842
    -1.3046  -1.2620  -1.2402  -1.2116  -1.1714  -1.0923  -1.0662  -0.9200
    -0.8232  -0.7902  -0.7731  -0.7304  -0.6946  -0.5923  -0.5707  -0.5417
    -0.5331  -0.5049  -0.4311  -0.3746  -0.2433  -0.2120  -0.2082  -0.1705
    -0.0996  -0.0456   0.0076   0.0568   0.0646   0.1003   0.1607   0.1856
     0.1903   0.2331   0.2756   0.3503   0.3767   0.4508   0.4548   0.5190
     0.5628   0.6445   0.7517   0.8741   1.0174   1.1545   1.1991   1.2678
     1.3633   1.4597   1.8375   1.8837   2.1432   3.3454   3.4618   3.4714
     3.4857   3.5909   3.8047   3.8198   3.8689   3.8899   3.8975

[...]

          k =-0.0760-0.0000 0.0000 ( 17886 PWs)   bands (ev):

[...]

 ------ SPIN DOWN ----------

[...]

          k = 0.0380-0.0419 0.0000 ( 17876 PWs)   bands (ev):

[...]

          k =-0.0760-0.0839 0.0000 ( 17948 PWs)   bands (ev):

   -55.7706 -55.7704 -55.7521 -55.7506 -55.6768 -55.6426 -55.5827 -55.5823
   -55.5387 -55.5383 -55.5146 -55.4505 -54.9545 -54.8068 -54.7389 -54.7387
   -32.1217 -32.1181 -32.0793 -32.0792 -32.0667 -32.0665 -32.0195 -32.0044
   -31.9982 -31.9896 -31.9208 -31.9158 -31.9081 -31.9019 -31.8923 -31.8922
   -31.8820 -31.8802 -31.8789 -31.8718 -31.8546 -31.8524 -31.8511 -31.8131
   -31.7844 -31.7837 -31.7826 -31.7680 -31.7678 -31.7613 -31.7605 -31.7558
   -31.7545 -31.7358 -31.7113 -31.6604 -31.4391 -31.3192 -31.1687 -31.1580
   -31.0817 -31.0651 -31.0649 -30.9751 -30.9749 -30.9364 -30.9363 -30.9142
   -19.4528 -15.9169 -15.9107 -15.7488 -15.7141 -15.6489 -15.6401 -15.5721
   -15.5052 -15.4597 -15.4547 -15.3400 -15.3380 -15.3230 -15.3020 -15.2477
   -15.2314 -15.2303 -15.2259 -15.2183 -15.2076 -15.1800 -15.1492 -15.0980
   -15.0930 -15.0731 -15.0624 -14.9412 -14.5310 -14.4695 -13.2407 -13.2405
   -12.3485  -7.2637  -4.9653  -4.7821  -3.6300  -3.2061  -3.1898  -3.0024
    -2.9186  -2.9074  -2.8924  -2.7399  -2.7275  -2.7106  -2.6529  -2.6446
    -2.6362  -2.5996  -2.5835  -2.5597  -2.5185  -2.5140  -2.4656  -2.4618
    -2.4479  -2.4131  -2.4069  -2.3973  -2.3886  -2.3705  -2.3364  -2.2792
    -2.2418  -2.2149  -2.1867  -2.0898  -2.0293  -1.9934  -1.9264  -1.9179
    -1.8667  -1.8419  -1.8274  -1.7616  -1.6908  -1.6613  -1.5769  -1.4855
    -1.4670  -1.4517  -1.3330  -1.3191  -1.2443  -1.2206  -1.1368  -1.1196
    -1.0799  -0.9695  -0.9460  -0.9148  -0.8800  -0.8360  -0.7724  -0.7351
    -0.7330  -0.6850  -0.6407  -0.5848  -0.5238  -0.5118  -0.4959  -0.4869
    -0.4238  -0.3903  -0.3683  -0.2858  -0.2707  -0.1889  -0.0453  -0.0124
     0.1452   0.1944   0.3032   0.3310   0.4217   0.4434   0.5384   0.5416
     0.5731   0.7025   0.7215   0.7391   0.7553   0.7749   0.7988   0.9377
     1.6333   1.6334   1.7050   1.7050   2.0796   3.6704   3.7074   3.7570
     3.7778   3.8765   3.8837   3.8870   3.8936   4.0173   4.0215

     the Fermi energy is     3.3520 ev

!    total energy              =   -2939.12580680 Ry
     estimated scf accuracy    <       0.00000005 Ry
     smearing contrib. (-TS)   =      -0.02050431 Ry
     internal energy E=F+TS    =   -2939.10530249 Ry

     The total energy is F=E-TS. E is the sum of the following terms:
     one-electron contribution =  -24215.23315196 Ry
     hartree contribution      =   12196.35931720 Ry
     xc contribution           =    -485.20064014 Ry
     ewald contribution        =    9564.96760253 Ry
     electric field correction =       0.00156988 Ry

     total magnetization       =    -0.05 Bohr mag/cell
     absolute magnetization    =     0.09 Bohr mag/cell

     convergence has been achieved in  72 iterations

     Forces acting on atoms (cartesian axes, Ry/au):

     atom    1 type  1   force =     0.00008835   -0.00020848    0.09580088
     atom    2 type  1   force =     0.00007521   -0.00063147   -0.17549754
     atom    3 type  2   force =     0.00017913   -0.00019278   -0.02301269
     atom    4 type  2   force =     0.00004116   -0.00128801    0.05264396
     atom    5 type  2   force =    -0.00977830   -0.00031369    0.00254033
     atom    6 type  2   force =     0.01165797    0.00022762    0.00292227
     atom    7 type  1   force =     0.00088516   -0.00000186   -0.00990769
     atom    8 type  1   force =     0.00000275    0.00530295    0.01814220
     atom    9 type  2   force =    -0.00001489   -0.00028952   -0.00009743
     atom   10 type  2   force =    -0.00253780    0.00216410   -0.01348563
     atom   11 type  2   force =    -0.00097254    0.00010895    0.00017355
     atom   12 type  2   force =     0.00039483   -0.00025607    0.00048925
     atom   13 type  1   force =     0.00009574   -0.00008125    0.00053586
     atom   14 type  1   force =    -0.00003855   -0.00013623   -0.00016929
     atom   15 type  2   force =    -0.00058948    0.00025823    0.00042778
     atom   16 type  2   force =    -0.00043766    0.00008183    0.00019371
     atom   17 type  2   force =    -0.00014510   -0.00007216   -0.00031466
     atom   18 type  2   force =     0.00025894    0.00024285    0.00009451
     atom   19 type  1   force =    -0.00053272   -0.00052469    0.00065043
     atom   20 type  1   force =    -0.00027107    0.00032204   -0.00079508
     atom   21 type  2   force =     0.00006728   -0.00006006    0.10322716
     atom   22 type  2   force =     0.00011020   -0.00003620   -0.00042760
     atom   23 type  2   force =    -0.07155245   -0.00019628   -0.02753430
     atom   24 type  2   force =     0.07153125    0.00030733   -0.02759467
     atom   25 type  1   force =     0.00012025   -0.00028129    0.09518218
     atom   26 type  1   force =     0.00008819   -0.00048640   -0.17564708
     atom   27 type  2   force =     0.00016087   -0.00011985   -0.02175785
     atom   28 type  2   force =     0.00008093   -0.00106186    0.05252227
     atom   29 type  2   force =    -0.01015831    0.00023507    0.00291690
     atom   30 type  2   force =     0.01197568    0.00052230    0.00329562
     atom   31 type  1   force =     0.00088522    0.00414181   -0.01178275
     atom   32 type  1   force =     0.00013551   -0.00633857    0.01827985
     atom   33 type  2   force =     0.00016276    0.00041715   -0.00009491
     atom   34 type  2   force =    -0.00308477   -0.00010589   -0.00866994
     atom   35 type  2   force =    -0.00021193    0.00007026    0.00001438
     atom   36 type  2   force =    -0.00002827    0.00028018   -0.00006147
     atom   37 type  1   force =     0.00043002   -0.00094945    0.00019846
     atom   38 type  1   force =    -0.00031834    0.00009500    0.00034484
     atom   39 type  2   force =     0.00011021   -0.00028013    0.00055473
     atom   40 type  2   force =    -0.00008416    0.00026649    0.00015287
     atom   41 type  2   force =    -0.00005457   -0.00014032   -0.00025064
     atom   42 type  2   force =    -0.00043747    0.00009929   -0.00038164
     atom   43 type  1   force =     0.00029148    0.00047021    0.00010150
     atom   44 type  1   force =    -0.00038004   -0.00087965   -0.00064196
     atom   45 type  2   force =     0.00007571   -0.00005926    0.10318020
     atom   46 type  2   force =    -0.07156542   -0.00008989   -0.02752633
     atom   47 type  2   force =     0.07154845    0.00026098   -0.02758934
     atom   48 type  3   force =     0.00025036    0.00047957   -0.00408258
     atom   49 type  4   force =    -0.00300021    0.00090617    0.01558303
     atom   50 type  5   force =    -0.00016717   -0.00416783   -0.00483035
     atom   51 type  5   force =     0.00157060    0.00318431   -0.00399724
     atom   52 type  5   force =     0.00339724   -0.00162908   -0.00359209
     atom   53 type  3   force =    -0.00031026    0.00043355   -0.00042596

     Total force =     0.365236     Total SCF correction =     0.000502
  @ DRIVER MODE: Message from server: STATUS
  @ DRIVER MODE: Message from server: GETFORCE
  @ DRIVER MODE: Returning v,forces,stress,ensemble

     Writing output data file ./calc.save/
  @ DRIVER MODE: Message from server: EXIT
  @ DRIVE MODE: Exiting

     General routines

     Parallel routines

   This run was terminated on:  23:36: 9  15Jul2021

   JOB DONE.