     Program PWSCF v.6.7GPU starts on 23Sep2021 at 12:56:29

     R & G space division:  proc/nbgrp/npool/nimage =       8
     Reading input from /storage/home/hcoda1/3/ntian30/research/carbon/CxH_vib/H2O_calc/ads_slab/CH3N2HHO_a/out_0037/pw.inp
Warning: card &CELL ignored
Warning: card   CELL_DYNAMICS='IPI', ignored
Warning: card / ignored

     Current dimensions of program PWSCF are:
     Max number of different atomic species (ntypx) = 10
     Max number of k-points (npk) =  40000
     Max angular momentum in pseudopotentials (lmaxx) =  3
     Presently no symmetry can be used with electric field

     Message from routine cell_base_init:
     DEPRECATED: use true lattice parameter, not A to a.u. conversion factor

     IMPORTANT: XC functional enforced from input :
     Exchange-correlation= BEEF-VDW
                           (   1   4  43  14   2   0   0)
     Any further DFT definition will be discarded
     Please, verify this is what you really want

  @ DRIVER MODE: Connecting to
 qe_1139763_2941009.sched-torque.pace.gatech.edudx7wpfga_scratch
  using UNIX socket
  @ DRIVER MODE: Message from server: STATUS
  @ DRIVER MODE: Message from server: INIT
  @ DRIVER MODE: Receiving replica           0          -1
  @ DRIVER MODE: Receiving encoded integer          25
  @ DRIVER MODE:  SCF:  T  FORCE:  T  STRESS:  F  VC:  F  ENSEMBLE:  F
  @ DRIVER MODE:  SCF:  T  FORCE:  T  STRESS:  F  VC:  F  ENSEMBLE:  F

     Using Slab Decomposition

     bravais-lattice index     =            0
     lattice parameter (alat)  =       1.8897  a.u.
     unit-cell volume          =    6658.9804 (a.u.)^3
     number of atoms/cell      =           56
     number of atomic types    =            5
     number of electrons       =       403.00
     number of Kohn-Sham states=          211
     kinetic-energy cutoff     =      29.3995  Ry
     charge density cutoff     =     293.9946  Ry
     scf convergence threshold =      7.3E-08
     mixing beta               =       0.0500
     number of iterations used =            8  plain     mixing
     Exchange-correlation= BEEF-VDW
                           (   1   4  43  14   2   0   0)

     celldm(1)=   1.889726  celldm(2)=   0.000000  celldm(3)=   0.000000
     celldm(4)=   0.000000  celldm(5)=   0.000000  celldm(6)=   0.000000

     crystal axes: (cart. coord. in units of alat)
               a(1) = (   6.579727   0.000000   0.000000 )
               a(2) = (  -0.000775   5.961596   0.000000 )
               a(3) = (   0.000000   0.000000  25.155947 )

     reciprocal axes: (cart. coord. in units 2 pi/alat)
               b(1) = (  0.151982  0.000020  0.000000 )
               b(2) = (  0.000000  0.167740  0.000000 )
               b(3) = (  0.000000  0.000000  0.039752 )

     PseudoPot. # 1 for Ti read from file:
     /storage/coda1/p-amedford6/0/shared/rich_project_chbe-medford/medford-share/data/pseudos_module/espresso/nninc/pbe/van/Ti.UPF
     MD5 check sum: 8e4df49b7f0d34bbd5052bf3f5ea0213
     Pseudo is Ultrasoft, Zval = 12.0
     Generated by new atomic code, or converted to UPF format
     Using radial grid of  851 points,  6 beta functions with:
                l(1) =   0
                l(2) =   0
                l(3) =   1
                l(4) =   1
                l(5) =   2
                l(6) =   2
     Q(r) pseudized with  8 coefficients,  rinner =    1.000   1.000   1.000
                                                       1.000   1.000

     PseudoPot. # 2 for O  read from file:
     /storage/coda1/p-amedford6/0/shared/rich_project_chbe-medford/medford-share/data/pseudos_module/espresso/nninc/pbe/van/O.UPF
     MD5 check sum: 78c19812648e8988a0fe644b0f25305e
     Pseudo is Ultrasoft, Zval =  6.0
     Generated by new atomic code, or converted to UPF format
     Using radial grid of  737 points,  4 beta functions with:
                l(1) =   0
                l(2) =   0
                l(3) =   1
                l(4) =   1
     Q(r) pseudized with  8 coefficients,  rinner =    0.800   0.800   0.800

     PseudoPot. # 3 for N  read from file:
     /storage/coda1/p-amedford6/0/shared/rich_project_chbe-medford/medford-share/data/pseudos_module/espresso/nninc/pbe/van/N.UPF
     MD5 check sum: 90d10febe142ad51ac9d5be1deb811c4
     Pseudo is Ultrasoft, Zval =  5.0
     Generated by new atomic code, or converted to UPF format
     Using radial grid of  729 points,  4 beta functions with:
                l(1) =   0
                l(2) =   0
                l(3) =   1
                l(4) =   1
     Q(r) pseudized with  8 coefficients,  rinner =    0.800   0.800   0.800

     PseudoPot. # 4 for C  read from file:
     /storage/coda1/p-amedford6/0/shared/rich_project_chbe-medford/medford-share/data/pseudos_module/espresso/nninc/pbe/van/C.UPF
     MD5 check sum: 1a69bf6b8db32088f5b2163dbdb77a27
     Pseudo is Ultrasoft, Zval =  4.0
     Generated by new atomic code, or converted to UPF format
     Using radial grid of  721 points,  4 beta functions with:
                l(1) =   0
                l(2) =   0
                l(3) =   1
                l(4) =   1
     Q(r) pseudized with  8 coefficients,  rinner =    0.800   0.800   0.800

     PseudoPot. # 5 for H  read from file:
     /storage/coda1/p-amedford6/0/shared/rich_project_chbe-medford/medford-share/data/pseudos_module/espresso/nninc/pbe/van/H.UPF
     MD5 check sum: b5ee9d7bfd3a09ee7748110bda690ff7
     Pseudo is Ultrasoft, Zval =  1.0
     Generated by new atomic code, or converted to UPF format
     Using radial grid of  615 points,  1 beta functions with:
                l(1) =   0
     Q(r) pseudized with  8 coefficients,  rinner =    0.800

     atomic species   valence    mass     pseudopotential
        Ti1           12.00    47.86700     Ti( 1.00)
        O1             6.00    15.99900     O ( 1.00)
        N1             5.00    14.00700     N ( 1.00)
        C1             4.00    12.01100     C ( 1.00)
        H1             1.00     1.00800     H ( 1.00)

     No symmetry found

   Cartesian axes

     site n.     atom                  positions (alat units)
         1           Ti1 tau(   1) = (   0.0004258   2.9801865   6.0000000  )
         2           Ti1 tau(   2) = (   3.2906075   1.4906267   6.0002472  )
         3           O1  tau(   3) = (   0.0006271   0.0005054   7.9858123  )
         4           O1  tau(   4) = (   3.2906025   0.0005020   7.3038282  )
         5           O1  tau(   5) = (   4.5942328   1.4918067   9.2879030  )
         6           O1  tau(   6) = (   1.9868534   1.4903216   9.2879459  )
         7           Ti1 tau(   7) = (   3.2907910   2.8959150   9.1758416  )
         8           Ti1 tau(   8) = (   0.0015273   1.4827037   9.2680791  )
         9           O1  tau(   9) = (   3.2827749   5.9542966  11.3123607  )
        10           O1  tau(  10) = (   0.0116148   5.9584955  10.6183126  )
        11           O1  tau(  11) = (   1.2790800   1.4852124  12.6463597  )
        12           O1  tau(  12) = (   5.2943908   1.4901875  12.6352807  )
        13           Ti1 tau(  13) = (   6.5507123   3.1127926  12.6266869  )
        14           Ti1 tau(  14) = (   3.2873181   1.3120036  12.6863921  )
        15           O1  tau(  15) = (   6.5656690   0.0172326  14.6855350  )
        16           O1  tau(  16) = (   3.2842416   0.0515509  13.9244022  )
        17           O1  tau(  17) = (   4.5437539   1.5966601  16.0680646  )
        18           O1  tau(  18) = (   2.0303991   1.5956099  16.0781401  )
        19           Ti1 tau(  19) = (   3.2961159   3.0594788  15.6697774  )
        20           Ti1 tau(  20) = (   6.5318457   1.5630605  15.7780207  )
        21           O1  tau(  21) = (   3.2904802   0.0005063   4.7018136  )
        22           O1  tau(  22) = (   6.5726385   0.0820865  17.2550913  )
        23           O1  tau(  23) = (   1.3043587   1.4918075   6.0039043  )
        24           O1  tau(  24) = (   5.2767064   1.4903225   6.0039473  )
        25           Ti1 tau(  25) = (   0.0000382   5.9609847   6.0000000  )
        26           Ti1 tau(  26) = (   3.2902200   4.4714249   6.0002472  )
        27           O1  tau(  27) = (   0.0002396   2.9813036   7.9858123  )
        28           O1  tau(  28) = (   3.2902150   2.9813002   7.3038282  )
        29           O1  tau(  29) = (   4.5938453   4.4726049   9.2879030  )
        30           O1  tau(  30) = (   1.9864658   4.4711199   9.2879459  )
        31           Ti1 tau(  31) = (   3.2891106   5.8743827   9.1763621  )
        32           Ti1 tau(  32) = (   0.0006254   4.4649316   9.2693709  )
        33           O1  tau(  33) = (   3.2807365   3.0201584  11.2787527  )
        34           O1  tau(  34) = (   0.0092240   2.9805883  10.6323155  )
        35           O1  tau(  35) = (   1.2751182   4.4744369  12.6357194  )
        36           O1  tau(  36) = (   5.2842299   4.4734050  12.6250694  )
        37           Ti1 tau(  37) = (   0.0094520   0.1224552  12.5707632  )
        38           Ti1 tau(  38) = (   3.2670701   4.4034752  12.4162930  )
        39           O1  tau(  39) = (   6.5622168   3.0106679  14.6773207  )
        40           O1  tau(  40) = (   3.2891587   3.0115246  13.8909557  )
        41           O1  tau(  41) = (   4.5321968   4.4927823  16.1577793  )
        42           O1  tau(  42) = (   2.0250423   4.4919485  16.1304878  )
        43           Ti1 tau(  43) = (   3.2250977   0.0853664  16.3312049  )
        44           Ti1 tau(  44) = (   6.5532039   4.7053171  16.1332850  )
        45           O1  tau(  45) = (   3.2900926   2.9813045   4.7018136  )
        46           O1  tau(  46) = (   1.3039711   4.4726057   6.0039043  )
        47           O1  tau(  47) = (   5.2763189   4.4711207   6.0039473  )
        48           N1  tau(  48) = (   0.0650423   2.5931692  18.6004617  )
        49           N1  tau(  49) = (   0.0051179   2.9528117  17.3995676  )
        50           C1  tau(  50) = (   0.1360749   3.5155665  19.7334966  )
        51           H1  tau(  51) = (   6.1082608   4.3937080  19.5213757  )
        52           H1  tau(  52) = (   6.3628389   3.0028702  20.6266755  )
        53           H1  tau(  53) = (   1.1699357   3.8405576  19.8861820  )
        54           H1  tau(  54) = (   0.0960244   1.5775976  18.7788705  )
        55           O1  tau(  55) = (   3.2396048   0.1449850  18.2004881  )
        56           H1  tau(  56) = (   3.4111690   5.2654565  18.6466900  )

     number of k points=    10  Fermi-Dirac smearing, width (Ry)=  0.0073
                       cart. coord. in units 2pi/alat
        k(    1) = (   0.0000000   0.0000000   0.0000000), wk =   0.1250000
        k(    2) = (   0.0000000   0.0419351   0.0000000), wk =   0.2500000
        k(    3) = (   0.0000000  -0.0838702   0.0000000), wk =   0.1250000
        k(    4) = (   0.0379955   0.0000049   0.0000000), wk =   0.2500000
        k(    5) = (   0.0379955   0.0419400   0.0000000), wk =   0.2500000
        k(    6) = (   0.0379955  -0.0838652   0.0000000), wk =   0.2500000
        k(    7) = (   0.0379955  -0.0419301   0.0000000), wk =   0.2500000
        k(    8) = (  -0.0759910  -0.0000099   0.0000000), wk =   0.1250000
        k(    9) = (  -0.0759910   0.0419252   0.0000000), wk =   0.2500000
        k(   10) = (  -0.0759910  -0.0838800   0.0000000), wk =   0.1250000

     Initial potential from superposition of free atoms

     starting charge  386.99914, renormalised to  403.00000

     negative rho (up, down):  1.429E-02 0.000E+00

     %%%%%%%%%%%%%%%%%%%%%%%%%%%%%%%%%%%%%%%%%%%%%%%%%%%%%%%%%%%%%%%%%%%%%%%%
     %                                                                      %
     % You are using vdW-DF, which was implemented by the Thonhauser group. %
     % Please cite the following two papers that made this development      %
     % possible and the two reviews that describe the various versions:     %
     %                                                                      %
     %   T. Thonhauser et al., PRL 115, 136402 (2015).                      %
     %   T. Thonhauser et al., PRB 76, 125112 (2007).                       %
     %   K. Berland et al., Rep. Prog. Phys. 78, 066501 (2015).             %
     %   D.C. Langreth et al., J. Phys.: Condens. Matter 21, 084203 (2009). %
     %                                                                      %
     %                                                                      %
     % If you are calculating the stress with vdW-DF, please also cite:     %
     %                                                                      %
     %   R. Sabatini et al., J. Phys.: Condens. Matter 24, 424209 (2012).   %
     %                                                                      %
     %%%%%%%%%%%%%%%%%%%%%%%%%%%%%%%%%%%%%%%%%%%%%%%%%%%%%%%%%%%%%%%%%%%%%%%%

     Adding external electric field

     Computed dipole along edir(3) :
        Dipole              -12.7219 Ry au,        -32.3358 Debye
        Dipole field         -0.0240 Ry au,

        Potential amp.        2.2255 Ry
        Total length         46.3494 bohr

     Starting wfcs are  305 atomic wfcs
  @ DRIVER MODE: Message from server: STATUS
  @ DRIVER MODE: Message from server: POSDATA
  @ DRIVER MODE: Reading and sharing cell
  @ DRIVER MODE: Reading and sharing positions
  @ DRIVER MODE: Received positions

     Self-consistent Calculation

     iteration #  1     ecut=    29.40 Ry     beta= 0.05
     Davidson diagonalization with overlap
     c_bands:  5 eigenvalues not converged
     c_bands:  4 eigenvalues not converged
     c_bands:  3 eigenvalues not converged
     c_bands:  4 eigenvalues not converged
     c_bands:  5 eigenvalues not converged
     c_bands:  4 eigenvalues not converged
     c_bands:  1 eigenvalues not converged
     c_bands:  4 eigenvalues not converged
     ethr =  1.00E-05,  avg # of iterations = 25.4

[...]

     total energy              =   -2361.22407693 Ry
     estimated scf accuracy    <    6935.99735244 Ry

     iteration #  2     ecut=    29.40 Ry     beta= 0.05
     Davidson diagonalization with overlap
     ethr =  1.00E-02,  avg # of iterations = 24.3

[...]

     iteration # 52     ecut=    29.40 Ry     beta= 0.05
     Davidson diagonalization with overlap
     c_bands:  1 eigenvalues not converged
     c_bands:  1 eigenvalues not converged
     c_bands:  1 eigenvalues not converged
     ethr =  5.86E-07,  avg # of iterations = 12.6

[...]

     total energy              =   -2973.99528821 Ry
     estimated scf accuracy    <       0.00000020 Ry

     iteration # 77     ecut=    29.40 Ry     beta= 0.05
     Davidson diagonalization with overlap
     ethr =  4.98E-11,  avg # of iterations =  6.4

     negative rho (up, down):  1.502E-02 0.000E+00

     Adding external electric field

     Computed dipole along edir(3) :
        Dipole                1.1962 Ry au,          3.0404 Debye
        Dipole field          0.0023 Ry au,

        Potential amp.       -0.2093 Ry
        Total length         46.3494 bohr

     End of self-consistent calculation

          k = 0.0000 0.0000 0.0000 ( 18029 PWs)   bands (ev):

   -55.7002 -55.6664 -55.3860 -55.3521 -55.2770 -55.1692 -55.1141 -55.0361
   -54.9900 -54.9581 -54.8296 -54.7359 -54.6949 -54.6243 -54.5273 -54.4934
   -32.1602 -31.9945 -31.9707 -31.8616 -31.8553 -31.7837 -31.7620 -31.6514
   -31.6062 -31.6043 -31.5932 -31.5394 -31.5367 -31.5177 -31.4967 -31.4918
   -31.4880 -31.3948 -31.3864 -31.3704 -31.3349 -31.3158 -31.3051 -31.2944
   -31.2745 -31.2708 -31.2371 -31.1993 -31.1758 -31.1743 -31.1648 -31.1467
   -31.0965 -31.0296 -30.9912 -30.9520 -30.9499 -30.9266 -30.9200 -30.9059
   -30.8955 -30.8570 -30.8382 -30.8344 -30.8336 -30.7450 -30.6598 -30.5478
   -19.0757 -16.2296 -16.0567 -15.7653 -15.5943 -15.3873 -15.3586 -15.2636
   -15.1608 -15.1437 -15.0402 -14.9752 -14.8904 -14.8213 -14.8017 -14.7532
   -14.7235 -14.6952 -14.6807 -14.6711 -14.6330 -14.6011 -14.5842 -14.5084
   -14.4635 -14.4452 -14.4178 -14.3527 -14.2566 -13.9910 -13.9278 -13.0249
   -12.9115 -12.5777  -9.3459  -6.2121  -4.7722  -4.7207  -3.7769  -3.5357
    -3.4435  -3.3303  -3.1217  -3.0723  -2.8938  -2.7734  -2.7529  -2.5326
    -2.5050  -2.3932  -2.3781  -2.3315  -2.3252  -2.2912  -2.2246  -2.1964
    -2.1245  -2.0642  -2.0372  -2.0035  -1.9506  -1.8953  -1.8902  -1.8765
    -1.8192  -1.7511  -1.7230  -1.7140  -1.6700  -1.6063  -1.5978  -1.5813
    -1.5622  -1.5408  -1.3978  -1.2915  -1.2304  -1.1921  -1.1425  -1.0858
    -1.0333  -1.0199  -0.9194  -0.8396  -0.7981  -0.6806  -0.6528  -0.6125
    -0.5280  -0.5037  -0.4608  -0.4417  -0.4006  -0.3934  -0.2885  -0.2711
    -0.2369  -0.1942  -0.0750  -0.0271  -0.0190   0.0623   0.1215   0.2017
     0.2432   0.2589   0.2834   0.3693   0.3972   0.4144   0.4225   0.4948
     0.5138   0.5626   0.6162   0.6990   0.7114   0.7513   0.7855   0.7985
     0.9285   0.9366   1.0264   1.0503   1.0613   1.1257   1.2198   1.2796
     1.3909   1.4054   1.4979   1.4980   1.5186   1.7171   1.8914   2.0502
     2.0905   3.5011   3.6204   3.6826   3.7201   3.9309   3.9425   4.2053
     4.2805   4.2837   4.3738

[...]

          k = 0.0380-0.0419 0.0000 ( 17876 PWs)   bands (ev):

[...]

          k =-0.0760-0.0000 0.0000 ( 17886 PWs)   bands (ev):

[...]

          k =-0.0760-0.0839 0.0000 ( 17948 PWs)   bands (ev):

   -55.6834 -55.6830 -55.3716 -55.3663 -55.2763 -55.1634 -55.1199 -55.0283
   -54.9976 -54.9585 -54.8276 -54.7336 -54.6969 -54.6265 -54.5108 -54.5098
   -31.9804 -31.9800 -31.9758 -31.9756 -31.8070 -31.8064 -31.6898 -31.6843
   -31.5698 -31.5657 -31.5643 -31.5580 -31.5532 -31.4925 -31.4824 -31.4674
   -31.4345 -31.3853 -31.3836 -31.3608 -31.3460 -31.3459 -31.3338 -31.3337
   -31.2572 -31.2436 -31.2368 -31.2327 -31.2051 -31.1939 -31.1647 -31.1556
   -31.0886 -31.0393 -31.0348 -30.9917 -30.9585 -30.9534 -30.9525 -30.9108
   -30.8729 -30.8469 -30.8461 -30.8373 -30.7412 -30.7399 -30.7029 -30.7021
   -19.0724 -16.2224 -15.4714 -15.4612 -15.3171 -15.3077 -15.2298 -15.1405
   -15.1223 -15.0935 -15.0447 -15.0226 -14.9412 -14.8849 -14.8654 -14.8400
   -14.8212 -14.8070 -14.7493 -14.7463 -14.7308 -14.7172 -14.6510 -14.6128
   -14.5824 -14.5759 -14.4678 -14.3883 -14.3040 -14.1552 -14.0643 -13.0144
   -13.0139 -12.5781  -9.3525  -6.2048  -4.7621  -4.7214  -3.7699  -3.4154
    -2.6500  -2.6068  -2.5157  -2.4376  -2.4318  -2.3836  -2.3830  -2.3015
    -2.2488  -2.1909  -2.1668  -2.1585  -2.1581  -2.1269  -2.1178  -2.0636
    -2.0586  -2.0410  -2.0381  -1.9816  -1.9567  -1.9424  -1.8906  -1.8353
    -1.7845  -1.7480  -1.7261  -1.6861  -1.6671  -1.6641  -1.5789  -1.5645
    -1.5374  -1.5098  -1.4650  -1.4345  -1.3793  -1.3575  -1.3011  -1.1738
    -1.1025  -1.0169  -0.9114  -0.8900  -0.8572  -0.8240  -0.8112  -0.7885
    -0.7558  -0.6404  -0.6300  -0.5805  -0.5485  -0.5205  -0.5032  -0.4754
    -0.4526  -0.3514  -0.3094  -0.2800  -0.2400  -0.2059  -0.1779  -0.1446
    -0.0929  -0.0539  -0.0439  -0.0126   0.0212   0.0357   0.1889   0.2687
     0.4015   0.4294   0.5196   0.5663   0.5985   0.6276   0.6559   0.7750
     0.8225   0.8450   0.8817   0.9033   1.0020   1.0985   1.1191   1.1872
     1.2218   1.3269   1.3578   1.4455   1.4970   1.8800   1.8878   1.9086
     1.9091   3.3786   4.0462   4.0490   4.0607   4.0739   4.2391   4.2419
     4.3426   4.3669   4.5048

     the Fermi energy is     3.4576 ev

!    total energy              =   -2973.99530700 Ry
     estimated scf accuracy    <       0.00000007 Ry
     smearing contrib. (-TS)   =      -0.01689209 Ry
     internal energy E=F+TS    =   -2973.97841491 Ry

     The total energy is F=E-TS. E is the sum of the following terms:
     one-electron contribution =  -23437.86718454 Ry
     hartree contribution      =   11816.38843147 Ry
     xc contribution           =    -493.95640406 Ry
     ewald contribution        =    9141.45404197 Ry
     electric field correction =       0.00270024 Ry

     convergence has been achieved in  77 iterations

     Forces acting on atoms (cartesian axes, Ry/au):

     atom    1 type  1   force =     0.00011963   -0.00023516    0.10268905
     atom    2 type  1   force =    -0.00011594    0.00008973   -0.16809884
     atom    3 type  2   force =    -0.00000851    0.00045944   -0.03240701
     atom    4 type  2   force =     0.00002717   -0.00097101    0.04009249
     atom    5 type  2   force =    -0.00542942   -0.00191366   -0.00432968
     atom    6 type  2   force =     0.00666422   -0.00135880   -0.00592870
     atom    7 type  1   force =    -0.00053724   -0.00530835    0.03004274
     atom    8 type  1   force =     0.00069651    0.00860991    0.04850864
     atom    9 type  2   force =     0.00012396   -0.00131257   -0.00106583
     atom   10 type  2   force =    -0.00253505    0.00301353   -0.03414880
     atom   11 type  2   force =    -0.00038488   -0.00008835   -0.00022717
     atom   12 type  2   force =     0.00048309   -0.00037028   -0.00010748
     atom   13 type  1   force =     0.00022648   -0.00161503    0.00019540
     atom   14 type  1   force =     0.00017082   -0.00078468    0.00071568
     atom   15 type  2   force =     0.00008650    0.00004287   -0.00027175
     atom   16 type  2   force =    -0.00012772    0.00005253    0.00172606
     atom   17 type  2   force =    -0.00106232   -0.00059415    0.00038528
     atom   18 type  2   force =     0.00063042   -0.00107868    0.00051804
     atom   19 type  1   force =     0.00056813   -0.00098129   -0.00072501
     atom   20 type  1   force =    -0.00081890   -0.00037460   -0.00024156
     atom   21 type  2   force =     0.00004878    0.00012566    0.10114351
     atom   22 type  2   force =    -0.00022055    0.00051239    0.00031331
     atom   23 type  2   force =    -0.07541437   -0.00012076   -0.02930256
     atom   24 type  2   force =     0.07532772    0.00030241   -0.02931994
     atom   25 type  1   force =     0.00013832   -0.00023187    0.10281615
     atom   26 type  1   force =    -0.00004170   -0.00130378   -0.16850401
     atom   27 type  2   force =     0.00011838    0.00017499   -0.03117773
     atom   28 type  2   force =    -0.00000891    0.00072274    0.03581234
     atom   29 type  2   force =    -0.00425859    0.00378599   -0.00625706
     atom   30 type  2   force =     0.00528245    0.00442362   -0.00778216
     atom   31 type  1   force =    -0.00054139    0.00495469    0.01593458
     atom   32 type  1   force =     0.00077123   -0.01041362    0.04919794
     atom   33 type  2   force =     0.00002795   -0.00089535   -0.00136993
     atom   34 type  2   force =    -0.00240584    0.00222466   -0.04431313
     atom   35 type  2   force =     0.00054571    0.00019831   -0.00013488
     atom   36 type  2   force =    -0.00017532    0.00022983   -0.00006387
     atom   37 type  1   force =     0.00026815    0.00037755   -0.00044952
     atom   38 type  1   force =     0.00041511    0.00140364    0.00105856
     atom   39 type  2   force =     0.00036185    0.00045486    0.00010102
     atom   40 type  2   force =     0.00006060    0.00015427    0.00049633
     atom   41 type  2   force =    -0.00087788   -0.00026499    0.00013839
     atom   42 type  2   force =     0.00049103    0.00027712    0.00028103
     atom   43 type  1   force =     0.00021425    0.00026530   -0.00147261
     atom   44 type  1   force =    -0.00053104   -0.00016182   -0.00091818
     atom   45 type  2   force =     0.00007082   -0.00001942    0.10094526
     atom   46 type  2   force =    -0.07547153   -0.00004840   -0.02931903
     atom   47 type  2   force =     0.07538347    0.00038565   -0.02931610
     atom   48 type  3   force =    -0.00167309    0.00032750    0.00059853
     atom   49 type  3   force =     0.00066270   -0.00058031   -0.00126933
     atom   50 type  4   force =     0.00133286    0.00116602    0.00055199
     atom   51 type  5   force =     0.00012806   -0.00070700   -0.00133591
     atom   52 type  5   force =    -0.00018943   -0.00054975   -0.00049136
     atom   53 type  5   force =    -0.00016665   -0.00053883   -0.00102085
     atom   54 type  5   force =     0.00059392   -0.00108973   -0.00119271
     atom   55 type  2   force =    -0.00026717    0.00033960   -0.00101848
     atom   56 type  5   force =     0.00122315   -0.00116259   -0.00068114

     Total force =     0.372782     Total SCF correction =     0.000814
  @ DRIVER MODE: Message from server: STATUS
  @ DRIVER MODE: Message from server: GETFORCE
  @ DRIVER MODE: Returning v,forces,stress,ensemble

     Writing output data file ./calc.save/
  @ DRIVER MODE: Message from server: EXIT
  @ DRIVE MODE: Exiting

     General routines

     Parallel routines

   This run was terminated on:  13:21:32  23Sep2021

   JOB DONE.