     Program PWSCF v.6.7GPU starts on 21Jul2021 at  7:24:57

     R & G space division:  proc/nbgrp/npool/nimage =      16
     Reading input from /storage/home/hcoda1/3/ntian30/research/carbon/15Jul_vib/ads_slab/CH3NHH_a/out_0029/pw.inp
Warning: card &CELL ignored
Warning: card   CELL_DYNAMICS='IPI', ignored
Warning: card / ignored

     Current dimensions of program PWSCF are:
     Max number of different atomic species (ntypx) = 10
     Max number of k-points (npk) =  40000
     Max angular momentum in pseudopotentials (lmaxx) =  3
     Presently no symmetry can be used with electric field

     Message from routine cell_base_init:
     DEPRECATED: use true lattice parameter, not A to a.u. conversion factor

     IMPORTANT: XC functional enforced from input :
     Exchange-correlation= BEEF-VDW
                           (   1   4  43  14   2   0   0)
     Any further DFT definition will be discarded
     Please, verify this is what you really want

  @ DRIVER MODE: Connecting to
 qe_1139763_2382402.sched-torque.pace.gatech.edu6toq84tr_scratch
  using UNIX socket
  @ DRIVER MODE: Message from server: STATUS
  @ DRIVER MODE: Message from server: INIT
  @ DRIVER MODE: Receiving replica           0          -1
  @ DRIVER MODE: Receiving encoded integer          25
  @ DRIVER MODE:  SCF:  T  FORCE:  T  STRESS:  F  VC:  F  ENSEMBLE:  F
  @ DRIVER MODE:  SCF:  T  FORCE:  T  STRESS:  F  VC:  F  ENSEMBLE:  F

     Using Slab Decomposition

     bravais-lattice index     =            0
     lattice parameter (alat)  =       1.8897  a.u.
     unit-cell volume          =    6658.9804 (a.u.)^3
     number of atoms/cell      =           54
     number of atomic types    =            5
     number of electrons       =       392.00
     number of Kohn-Sham states=          206
     kinetic-energy cutoff     =      29.3995  Ry
     charge density cutoff     =     293.9946  Ry
     scf convergence threshold =      7.3E-08
     mixing beta               =       0.0500
     number of iterations used =            8  plain     mixing
     Exchange-correlation= BEEF-VDW
                           (   1   4  43  14   2   0   0)

     celldm(1)=   1.889726  celldm(2)=   0.000000  celldm(3)=   0.000000
     celldm(4)=   0.000000  celldm(5)=   0.000000  celldm(6)=   0.000000

     crystal axes: (cart. coord. in units of alat)
               a(1) = (   6.579727   0.000000   0.000000 )
               a(2) = (  -0.000775   5.961596   0.000000 )
               a(3) = (   0.000000   0.000000  25.155947 )

     reciprocal axes: (cart. coord. in units 2 pi/alat)
               b(1) = (  0.151982  0.000020  0.000000 )
               b(2) = (  0.000000  0.167740  0.000000 )
               b(3) = (  0.000000  0.000000  0.039752 )

     PseudoPot. # 1 for Ti read from file:
     /storage/coda1/p-amedford6/0/shared/rich_project_chbe-medford/medford-share/data/pseudos_module/espresso/nninc/pbe/van/Ti.UPF
     MD5 check sum: 8e4df49b7f0d34bbd5052bf3f5ea0213
     Pseudo is Ultrasoft, Zval = 12.0
     Generated by new atomic code, or converted to UPF format
     Using radial grid of  851 points,  6 beta functions with:
                l(1) =   0
                l(2) =   0
                l(3) =   1
                l(4) =   1
                l(5) =   2
                l(6) =   2
     Q(r) pseudized with  8 coefficients,  rinner =    1.000   1.000   1.000
                                                       1.000   1.000

     PseudoPot. # 2 for O  read from file:
     /storage/coda1/p-amedford6/0/shared/rich_project_chbe-medford/medford-share/data/pseudos_module/espresso/nninc/pbe/van/O.UPF
     MD5 check sum: 78c19812648e8988a0fe644b0f25305e
     Pseudo is Ultrasoft, Zval =  6.0
     Generated by new atomic code, or converted to UPF format
     Using radial grid of  737 points,  4 beta functions with:
                l(1) =   0
                l(2) =   0
                l(3) =   1
                l(4) =   1
     Q(r) pseudized with  8 coefficients,  rinner =    0.800   0.800   0.800

     PseudoPot. # 3 for N  read from file:
     /storage/coda1/p-amedford6/0/shared/rich_project_chbe-medford/medford-share/data/pseudos_module/espresso/nninc/pbe/van/N.UPF
     MD5 check sum: 90d10febe142ad51ac9d5be1deb811c4
     Pseudo is Ultrasoft, Zval =  5.0
     Generated by new atomic code, or converted to UPF format
     Using radial grid of  729 points,  4 beta functions with:
                l(1) =   0
                l(2) =   0
                l(3) =   1
                l(4) =   1
     Q(r) pseudized with  8 coefficients,  rinner =    0.800   0.800   0.800

     PseudoPot. # 4 for C  read from file:
     /storage/coda1/p-amedford6/0/shared/rich_project_chbe-medford/medford-share/data/pseudos_module/espresso/nninc/pbe/van/C.UPF
     MD5 check sum: 1a69bf6b8db32088f5b2163dbdb77a27
     Pseudo is Ultrasoft, Zval =  4.0
     Generated by new atomic code, or converted to UPF format
     Using radial grid of  721 points,  4 beta functions with:
                l(1) =   0
                l(2) =   0
                l(3) =   1
                l(4) =   1
     Q(r) pseudized with  8 coefficients,  rinner =    0.800   0.800   0.800

     PseudoPot. # 5 for H  read from file:
     /storage/coda1/p-amedford6/0/shared/rich_project_chbe-medford/medford-share/data/pseudos_module/espresso/nninc/pbe/van/H.UPF
     MD5 check sum: b5ee9d7bfd3a09ee7748110bda690ff7
     Pseudo is Ultrasoft, Zval =  1.0
     Generated by new atomic code, or converted to UPF format
     Using radial grid of  615 points,  1 beta functions with:
                l(1) =   0
     Q(r) pseudized with  8 coefficients,  rinner =    0.800

     atomic species   valence    mass     pseudopotential
        Ti1           12.00    47.86700     Ti( 1.00)
        O1             6.00    15.99900     O ( 1.00)
        N1             5.00    14.00700     N ( 1.00)
        C1             4.00    12.01100     C ( 1.00)
        H1             1.00     1.00800     H ( 1.00)

     Starting magnetic structure
     atomic species   magnetization
        Ti1          0.000
        O1           0.000
        N1           0.000
        C1           0.025
        H1           0.000

     No symmetry found

   Cartesian axes

     site n.     atom                  positions (alat units)
         1           Ti1 tau(   1) = (   0.0004258   2.9801865   6.0000000  )
         2           Ti1 tau(   2) = (   3.2906075   1.4906267   6.0002472  )
         3           O1  tau(   3) = (   0.0006271   0.0005054   7.9858123  )
         4           O1  tau(   4) = (   3.2906025   0.0005020   7.3038282  )
         5           O1  tau(   5) = (   4.5942328   1.4918067   9.2879030  )
         6           O1  tau(   6) = (   1.9868534   1.4903216   9.2879459  )
         7           Ti1 tau(   7) = (   3.2907910   2.8959150   9.1758416  )
         8           Ti1 tau(   8) = (   0.0015273   1.4827037   9.2680791  )
         9           O1  tau(   9) = (   3.2893523   5.9576907  11.3759447  )
        10           O1  tau(  10) = (   0.0116148   5.9584955  10.6183126  )
        11           O1  tau(  11) = (   1.2892553   1.4862333  12.6941169  )
        12           O1  tau(  12) = (   5.2958346   1.4833122  12.6807028  )
        13           Ti1 tau(  13) = (   0.0095698   2.9692159  12.5083673  )
        14           Ti1 tau(  14) = (   3.3108451   1.4743585  12.5306019  )
        15           O1  tau(  15) = (   6.5736105   5.8801748  14.6991865  )
        16           O1  tau(  16) = (   3.2979610   5.9450902  14.0010558  )
        17           O1  tau(  17) = (   4.5273680   1.5185660  16.1654609  )
        18           O1  tau(  18) = (   2.0122787   1.5163527  16.1384539  )
        19           Ti1 tau(  19) = (   3.2802752   2.9921964  15.7561315  )
        20           Ti1 tau(  20) = (   0.0093588   1.3049760  15.8672178  )
        21           O1  tau(  21) = (   3.2904802   0.0005063   4.7018136  )
        22           O1  tau(  22) = (   6.5538635   0.1342075  17.2452287  )
        23           O1  tau(  23) = (   1.3043587   1.4918075   6.0039043  )
        24           O1  tau(  24) = (   5.2767064   1.4903225   6.0039473  )
        25           Ti1 tau(  25) = (   0.0000382   5.9609847   6.0000000  )
        26           Ti1 tau(  26) = (   3.2902200   4.4714249   6.0002472  )
        27           O1  tau(  27) = (   0.0002396   2.9813036   7.9858123  )
        28           O1  tau(  28) = (   3.2902150   2.9813002   7.3038282  )
        29           O1  tau(  29) = (   4.5938453   4.4726049   9.2879030  )
        30           O1  tau(  30) = (   1.9864658   4.4711199   9.2879459  )
        31           Ti1 tau(  31) = (   3.2891106   5.8743827   9.1763621  )
        32           Ti1 tau(  32) = (   0.0006254   4.4649316   9.2693709  )
        33           O1  tau(  33) = (   3.2933707   2.9638296  11.3700534  )
        34           O1  tau(  34) = (   0.0092240   2.9805883  10.6323155  )
        35           O1  tau(  35) = (   1.2923283   4.4540072  12.6594629  )
        36           O1  tau(  36) = (   5.2938616   4.4568750  12.6477176  )
        37           Ti1 tau(  37) = (   0.0202681   5.9396231  12.5027719  )
        38           Ti1 tau(  38) = (   3.3116628   4.4527548  12.5215617  )
        39           O1  tau(  39) = (   6.5466975   3.0260875  14.9671898  )
        40           O1  tau(  40) = (   3.2966604   2.9917109  13.9679302  )
        41           O1  tau(  41) = (   4.5116687   4.4737236  16.2360857  )
        42           O1  tau(  42) = (   2.0028912   4.4646324  16.2202640  )
        43           Ti1 tau(  43) = (   3.2937213   0.0113368  15.7972781  )
        44           Ti1 tau(  44) = (   0.0208052   4.5175143  16.0574476  )
        45           O1  tau(  45) = (   3.2900926   2.9813045   4.7018136  )
        46           O1  tau(  46) = (   1.3039711   4.4726057   6.0039043  )
        47           O1  tau(  47) = (   5.2763189   4.4711207   6.0039473  )
        48           N1  tau(  48) = (   6.3337458   3.3624127  18.1270434  )
        49           C1  tau(  49) = (   0.8795605   3.2639204  19.0799812  )
        50           H1  tau(  50) = (   1.4196110   4.2071110  19.0760701  )
        51           H1  tau(  51) = (   0.5395241   3.0459488  20.0957609  )
        52           H1  tau(  52) = (   1.5475163   2.4696122  18.7448312  )
        53           H1  tau(  53) = (   5.6940081   4.0973896  18.4182617  )
        54           H1  tau(  54) = (   5.7906660   2.4998151  18.1411682  )

     number of k points=    10  Fermi-Dirac smearing, width (Ry)=  0.0073
                       cart. coord. in units 2pi/alat
        k(    1) = (   0.0000000   0.0000000   0.0000000), wk =   0.0625000
        k(    2) = (   0.0000000   0.0419351   0.0000000), wk =   0.1250000
        k(    3) = (   0.0000000  -0.0838702   0.0000000), wk =   0.0625000
        k(    4) = (   0.0379955   0.0000049   0.0000000), wk =   0.1250000
        k(    5) = (   0.0379955   0.0419400   0.0000000), wk =   0.1250000
        k(    6) = (   0.0379955  -0.0838652   0.0000000), wk =   0.1250000
        k(    7) = (   0.0379955  -0.0419301   0.0000000), wk =   0.1250000
[...]
        k(   10) = (  -0.0759910  -0.0838800   0.0000000), wk =   0.0625000

     Initial potential from superposition of free atoms

     starting charge  375.99915, renormalised to  392.00000

     negative rho (up, down):  8.111E-03 8.118E-03

     %%%%%%%%%%%%%%%%%%%%%%%%%%%%%%%%%%%%%%%%%%%%%%%%%%%%%%%%%%%%%%%%%%%%%%%%
     %                                                                      %
     % You are using vdW-DF, which was implemented by the Thonhauser group. %
     % Please cite the following two papers that made this development      %
     % possible and the two reviews that describe the various versions:     %
     %                                                                      %
     %   T. Thonhauser et al., PRL 115, 136402 (2015).                      %
     %   T. Thonhauser et al., PRB 76, 125112 (2007).                       %
     %   K. Berland et al., Rep. Prog. Phys. 78, 066501 (2015).             %
     %   D.C. Langreth et al., J. Phys.: Condens. Matter 21, 084203 (2009). %
     %                                                                      %
     %                                                                      %
     % If you are calculating the stress with vdW-DF, please also cite:     %
     %                                                                      %
     %   R. Sabatini et al., J. Phys.: Condens. Matter 24, 424209 (2012).   %
     %                                                                      %
     %%%%%%%%%%%%%%%%%%%%%%%%%%%%%%%%%%%%%%%%%%%%%%%%%%%%%%%%%%%%%%%%%%%%%%%%

     Adding external electric field

     Computed dipole along edir(3) :
        Dipole               -7.5463 Ry au,        -19.1807 Debye
        Dipole field         -0.0142 Ry au,

        Potential amp.        1.3201 Ry
        Total length         46.3494 bohr

[...]

     Starting wfcs are  297 atomic wfcs
  @ DRIVER MODE: Message from server: STATUS
  @ DRIVER MODE: Message from server: POSDATA
  @ DRIVER MODE: Reading and sharing cell
  @ DRIVER MODE: Reading and sharing positions
  @ DRIVER MODE: Received positions

     Self-consistent Calculation

     iteration #  1     ecut=    29.40 Ry     beta= 0.05
     Davidson diagonalization with overlap
     c_bands:  1 eigenvalues not converged
     c_bands:  2 eigenvalues not converged
     c_bands:  1 eigenvalues not converged
     c_bands:  1 eigenvalues not converged
     c_bands:  1 eigenvalues not converged
     c_bands:  1 eigenvalues not converged
     c_bands:  1 eigenvalues not converged
     c_bands:  2 eigenvalues not converged
     c_bands:  1 eigenvalues not converged
     c_bands:  1 eigenvalues not converged
     c_bands:  1 eigenvalues not converged
     c_bands:  1 eigenvalues not converged
     ethr =  1.00E-05,  avg # of iterations = 19.6

[...]

     total energy              =   -2679.38418096 Ry
     estimated scf accuracy    <    2680.80553990 Ry

     total magnetization       =     0.00 Bohr mag/cell
     absolute magnetization    =     0.01 Bohr mag/cell

[...]

     iteration #  3     ecut=    29.40 Ry     beta= 0.05
     Davidson diagonalization with overlap
     ethr =  1.00E-02,  avg # of iterations = 15.2

[...]

     iteration # 63     ecut=    29.40 Ry     beta= 0.05
     Davidson diagonalization with overlap
     c_bands:  1 eigenvalues not converged
     c_bands:  1 eigenvalues not converged
     ethr =  3.26E-10,  avg # of iterations = 14.9

[...]

     total energy              =   -2921.63324477 Ry
     estimated scf accuracy    <       0.00000008 Ry

[...]

     iteration # 70     ecut=    29.40 Ry     beta= 0.05
     Davidson diagonalization with overlap
     ethr =  2.11E-11,  avg # of iterations = 12.4

     negative rho (up, down):  8.577E-03 8.576E-03

[...]

     Adding external electric field

     Computed dipole along edir(3) :
        Dipole                1.2972 Ry au,          3.2971 Debye
        Dipole field          0.0024 Ry au,

        Potential amp.       -0.2269 Ry
        Total length         46.3494 bohr

     Magnetic moment per site  (integrated on atomic sphere of radius R)
     atom   1 (R=0.738)  charge=  8.0426  magn= -0.0072
     atom   2 (R=0.738)  charge=  8.0243  magn= -0.0005
     atom   3 (R=0.738)  charge=  5.0120  magn=  0.0006
     atom   4 (R=0.738)  charge=  5.0490  magn=  0.0001
     atom   5 (R=0.738)  charge=  5.0182  magn=  0.0000
     atom   6 (R=0.738)  charge=  5.0186  magn=  0.0000
     atom   7 (R=0.738)  charge=  8.0245  magn= -0.0004
     atom   8 (R=0.738)  charge=  8.0255  magn= -0.0028
     atom   9 (R=0.738)  charge=  5.0260  magn=  0.0001
     atom  10 (R=0.738)  charge=  5.0261  magn=  0.0002
     atom  11 (R=0.738)  charge=  5.0131  magn=  0.0001
     atom  12 (R=0.738)  charge=  5.0142  magn=  0.0001
     atom  13 (R=0.738)  charge=  8.0323  magn= -0.0011
     atom  14 (R=0.738)  charge=  8.0300  magn= -0.0006
     atom  15 (R=0.738)  charge=  5.0263  magn=  0.0000
     atom  16 (R=0.738)  charge=  5.0222  magn=  0.0001
     atom  17 (R=0.738)  charge=  4.9995  magn=  0.0001
     atom  18 (R=0.738)  charge=  5.0035  magn=  0.0001
     atom  19 (R=0.738)  charge=  8.0638  magn= -0.0011
     atom  20 (R=0.738)  charge=  8.0765  magn= -0.0003
     atom  21 (R=0.738)  charge=  4.8971  magn=  0.0005
     atom  22 (R=0.738)  charge=  4.9759  magn=  0.0001
     atom  23 (R=0.738)  charge=  5.0093  magn=  0.0009
     atom  24 (R=0.738)  charge=  5.0095  magn=  0.0009
     atom  25 (R=0.738)  charge=  8.0427  magn= -0.0073
     atom  26 (R=0.738)  charge=  8.0244  magn= -0.0005
     atom  27 (R=0.738)  charge=  5.0118  magn=  0.0006
     atom  28 (R=0.738)  charge=  5.0493  magn=  0.0001
     atom  29 (R=0.738)  charge=  5.0191  magn=  0.0001
     atom  30 (R=0.738)  charge=  5.0194  magn=  0.0001
     atom  31 (R=0.738)  charge=  8.0246  magn= -0.0004
     atom  32 (R=0.738)  charge=  8.0257  magn= -0.0029
     atom  33 (R=0.738)  charge=  5.0254  magn=  0.0001
     atom  34 (R=0.738)  charge=  5.0228  magn=  0.0002
     atom  35 (R=0.738)  charge=  5.0162  magn=  0.0001
     atom  36 (R=0.738)  charge=  5.0179  magn=  0.0001
     atom  37 (R=0.738)  charge=  8.0280  magn= -0.0011
     atom  38 (R=0.738)  charge=  8.0303  magn= -0.0007
     atom  39 (R=0.738)  charge=  5.0062  magn=  0.0000
     atom  40 (R=0.738)  charge=  5.0343  magn=  0.0001
     atom  41 (R=0.738)  charge=  4.9975  magn=  0.0001
     atom  42 (R=0.738)  charge=  5.0021  magn=  0.0001
     atom  43 (R=0.738)  charge=  8.0613  magn= -0.0011
     atom  44 (R=0.738)  charge=  8.0414  magn= -0.0006
     atom  45 (R=0.738)  charge=  4.8971  magn=  0.0006
     atom  46 (R=0.738)  charge=  5.0093  magn=  0.0008
     atom  47 (R=0.738)  charge=  5.0095  magn=  0.0009
     atom  48 (R=0.420)  charge=  1.3385  magn= -0.0000
     atom  49 (R=0.448)  charge=  0.8439  magn=  0.0000
     atom  50 (R=0.420)  charge=  0.4443  magn= -0.0000
     atom  51 (R=0.420)  charge=  0.4452  magn= -0.0000
     atom  52 (R=0.420)  charge=  0.4422  magn= -0.0000
     atom  53 (R=0.420)  charge=  0.4505  magn=  0.0000
     atom  54 (R=0.420)  charge=  0.4502  magn=  0.0000

     End of self-consistent calculation

 ------ SPIN UP ------------

          k = 0.0000 0.0000 0.0000 ( 18029 PWs)   bands (ev):

   -55.4331 -55.3966 -55.3776 -55.3565 -55.3434 -55.3161 -55.3111 -55.2766
   -55.2528 -55.2368 -55.2184 -55.2130 -55.1793 -55.1160 -54.4131 -54.3790
   -32.0022 -31.8883 -31.8738 -31.7999 -31.7489 -31.7426 -31.7411 -31.7182
   -31.6744 -31.6654 -31.6435 -31.6421 -31.6217 -31.6182 -31.6029 -31.5990
   -31.5888 -31.5755 -31.5709 -31.5489 -31.5314 -31.5288 -31.5064 -31.4951
   -31.4886 -31.4857 -31.4835 -31.4553 -31.4416 -31.4331 -31.4325 -31.4142
   -31.4122 -31.4115 -31.4019 -31.3991 -31.3666 -31.3578 -31.3414 -31.3240
   -31.3223 -31.2993 -30.8224 -30.7279 -30.7059 -30.6386 -30.5518 -30.4411
   -16.2938 -16.1639 -15.9773 -15.8306 -15.7501 -15.6329 -15.5175 -15.5008
   -15.3647 -15.2828 -15.1635 -15.1384 -15.1194 -15.0963 -15.0850 -15.0688
   -14.9779 -14.9725 -14.9582 -14.9275 -14.9247 -14.8800 -14.8720 -14.8305
   -14.8104 -14.8082 -14.6842 -14.5927 -14.5203 -14.2810 -12.9168 -12.7993
   -10.2229  -6.2810  -4.8354  -3.9608  -3.6081  -3.4538  -3.3639  -3.3370
    -3.3246  -3.1898  -3.0442  -2.8911  -2.8463  -2.8330  -2.7208  -2.6475
    -2.6376  -2.6181  -2.4632  -2.4316  -2.3885  -2.3416  -2.2976  -2.2428
    -2.2242  -2.2180  -2.2029  -2.1811  -2.1706  -2.0538  -2.0009  -1.9170
    -1.8596  -1.8370  -1.7867  -1.7654  -1.7434  -1.7228  -1.7130  -1.6689
    -1.6582  -1.6278  -1.5723  -1.4616  -1.3624  -1.3095  -1.1916  -1.0704
    -1.0303  -1.0176  -0.9783  -0.9355  -0.9194  -0.8545  -0.8101  -0.7800
    -0.7202  -0.6635  -0.6011  -0.5528  -0.4821  -0.4679  -0.4204  -0.3667
    -0.2535  -0.2157  -0.2011  -0.1751  -0.0820  -0.0458  -0.0010   0.0819
     0.0923   0.1079   0.2083   0.2215   0.2916   0.3378   0.3552   0.4477
     0.4859   0.4956   0.5011   0.5251   0.5512   0.6030   0.6410   0.6689
     0.7393   0.8646   1.0806   1.1546   1.1792   1.5054   1.5145   1.6089
     1.7923   2.1846   2.2331   3.6671   3.7366   3.8174   3.8185   3.8344
     3.9041   4.1395   4.1624   4.1717   4.1775   4.1981

[...]

          k =-0.0760-0.0000 0.0000 ( 17886 PWs)   bands (ev):

[...]

 ------ SPIN DOWN ----------

[...]

          k = 0.0380-0.0419 0.0000 ( 17876 PWs)   bands (ev):

[...]

          k =-0.0760-0.0839 0.0000 ( 17948 PWs)   bands (ev):

   -55.4191 -55.4127 -55.3737 -55.3733 -55.3560 -55.3143 -55.2976 -55.2941
   -55.2424 -55.2380 -55.2341 -55.2009 -55.2002 -55.1177 -54.3974 -54.3971
   -31.8091 -31.8068 -31.8044 -31.7200 -31.6949 -31.6945 -31.6942 -31.6655
   -31.6653 -31.6437 -31.6363 -31.6335 -31.6282 -31.6001 -31.5926 -31.5742
   -31.5709 -31.5667 -31.5658 -31.5633 -31.5603 -31.5563 -31.5184 -31.5148
   -31.5106 -31.5086 -31.5072 -31.4945 -31.4941 -31.4906 -31.4863 -31.4712
   -31.4673 -31.4511 -31.4472 -31.4329 -31.4317 -31.4300 -31.3819 -31.3813
   -31.3776 -31.3279 -30.7200 -30.7198 -30.6359 -30.6357 -30.5965 -30.5964
   -16.1336 -15.7792 -15.6874 -15.6400 -15.4664 -15.4372 -15.4209 -15.4057
   -15.2733 -15.2554 -15.2315 -15.2031 -15.1812 -15.1463 -15.1366 -15.1341
   -15.0546 -15.0405 -15.0335 -15.0177 -14.9515 -14.9418 -14.9394 -14.9321
   -14.8813 -14.8778 -14.8156 -14.7854 -14.7824 -14.5712 -12.8994 -12.8992
   -10.2260  -6.2518  -4.8325  -3.9227  -2.9573  -2.9257  -2.8934  -2.8901
    -2.6823  -2.6407  -2.6054  -2.5799  -2.4900  -2.4503  -2.4353  -2.4271
    -2.3556  -2.3389  -2.3210  -2.2758  -2.2698  -2.2561  -2.2340  -2.2037
    -2.1821  -2.1627  -2.1532  -2.1346  -2.0882  -2.0771  -2.0526  -2.0374
    -2.0344  -2.0164  -1.9882  -1.9419  -1.8150  -1.8069  -1.7398  -1.6403
    -1.6356  -1.5589  -1.5459  -1.5105  -1.4852  -1.4658  -1.4236  -1.2502
    -1.2067  -1.1799  -1.1703  -1.1136  -1.0483  -1.0255  -0.9553  -0.9396
    -0.9210  -0.8173  -0.7726  -0.7579  -0.6683  -0.6556  -0.5774  -0.5130
    -0.4684  -0.4420  -0.3964  -0.3893  -0.3870  -0.3397  -0.3321  -0.2511
    -0.2042  -0.1674  -0.1534  -0.1238   0.0732   0.0839   0.1104   0.2508
     0.2798   0.4030   0.4370   0.4890   0.5640   0.5967   0.6786   0.7139
     0.8436   0.8731   0.8747   0.9468   0.9581   1.0200   1.0295   1.9662
     1.9669   2.0541   2.0542   3.8195   3.8983   3.9250   3.9669   4.0787
     4.1540   4.1771   4.1981   4.2475   4.2500   4.3105

     the Fermi energy is     3.7281 ev

!    total energy              =   -2921.63326338 Ry
     estimated scf accuracy    <       0.00000006 Ry
     smearing contrib. (-TS)   =      -0.03708662 Ry
     internal energy E=F+TS    =   -2921.59617676 Ry

     The total energy is F=E-TS. E is the sum of the following terms:
     one-electron contribution =  -24029.04259414 Ry
     hartree contribution      =   12103.60067027 Ry
     xc contribution           =    -481.74818189 Ry
     ewald contribution        =    9485.59075352 Ry
     electric field correction =       0.00317547 Ry

     total magnetization       =    -0.04 Bohr mag/cell
     absolute magnetization    =     0.05 Bohr mag/cell

     convergence has been achieved in  70 iterations

     Forces acting on atoms (cartesian axes, Ry/au):

     atom    1 type  1   force =     0.00002903   -0.00021549    0.09332954
     atom    2 type  1   force =    -0.00019042   -0.00036376   -0.17829910
     atom    3 type  2   force =     0.00002870   -0.00039636   -0.02020772
     atom    4 type  2   force =    -0.00002665   -0.00194956    0.05877069
     atom    5 type  2   force =    -0.01019856   -0.00112142    0.00777133
     atom    6 type  2   force =     0.01167330   -0.00040237    0.00693700
     atom    7 type  1   force =    -0.00049082    0.00210974   -0.01458683
     atom    8 type  1   force =     0.00024606   -0.00049946   -0.00481690
     atom    9 type  2   force =     0.00015207    0.00011664   -0.00005260
     atom   10 type  2   force =    -0.00113779    0.00137940    0.00052444
     atom   11 type  2   force =    -0.00011403    0.00015531    0.00004973
     atom   12 type  2   force =    -0.00002246    0.00036098    0.00022261
     atom   13 type  1   force =    -0.00005343   -0.00018563   -0.00018649
     atom   14 type  1   force =    -0.00014839    0.00011785    0.00027987
     atom   15 type  2   force =    -0.00020487   -0.00030546    0.00007137
     atom   16 type  2   force =    -0.00022551    0.00019732    0.00017515
     atom   17 type  2   force =     0.00010827   -0.00011193    0.00008084
     atom   18 type  2   force =    -0.00003651   -0.00019126    0.00020145
     atom   19 type  1   force =    -0.00025301    0.00034112    0.00040113
     atom   20 type  1   force =    -0.00006213   -0.00009378   -0.00033365
     atom   21 type  2   force =     0.00002753   -0.00006177    0.10394961
     atom   22 type  2   force =     0.00027151    0.00037888    0.00000324
     atom   23 type  2   force =    -0.07042685   -0.00015177   -0.02694171
     atom   24 type  2   force =     0.07026566    0.00028699   -0.02698680
     atom   25 type  1   force =    -0.00001468   -0.00015030    0.09284423
     atom   26 type  1   force =    -0.00021136   -0.00048644   -0.17831383
     atom   27 type  2   force =     0.00008690   -0.00026945   -0.01927502
     atom   28 type  2   force =     0.00004296   -0.00171735    0.05811083
     atom   29 type  2   force =    -0.01072497   -0.00111268    0.00833086
     atom   30 type  2   force =     0.01207158   -0.00083783    0.00745340
     atom   31 type  1   force =    -0.00039822    0.00596185   -0.01545544
     atom   32 type  1   force =     0.00022410   -0.00004171   -0.00519577
     atom   33 type  2   force =    -0.00008006    0.00001274    0.00009582
     atom   34 type  2   force =    -0.00101449   -0.00248693   -0.00002198
     atom   35 type  2   force =    -0.00006677    0.00024056   -0.00007181
     atom   36 type  2   force =    -0.00011591    0.00009723   -0.00000818
     atom   37 type  1   force =    -0.00003097    0.00006686   -0.00022120
     atom   38 type  1   force =    -0.00007499    0.00000690    0.00010019
     atom   39 type  2   force =     0.00022240   -0.00002960    0.00015551
     atom   40 type  2   force =    -0.00030485    0.00024131   -0.00003881
     atom   41 type  2   force =     0.00015558    0.00045008    0.00007209
     atom   42 type  2   force =    -0.00005248    0.00012131    0.00034943
     atom   43 type  1   force =    -0.00028789    0.00025891    0.00009752
     atom   44 type  1   force =    -0.00005440   -0.00024768    0.00013333
     atom   45 type  2   force =     0.00001844   -0.00007417    0.10392787
     atom   46 type  2   force =    -0.07039853   -0.00009992   -0.02688909
     atom   47 type  2   force =     0.07024701    0.00032494   -0.02694005
     atom   48 type  3   force =    -0.00075675   -0.00048986   -0.00021429
     atom   49 type  4   force =     0.00176670   -0.00280114   -0.00300646
     atom   50 type  5   force =     0.00064877    0.00104195   -0.00008695
     atom   51 type  5   force =     0.00086133   -0.00055637   -0.00084203
     atom   52 type  5   force =    -0.00166328    0.00203963    0.00310613
     atom   53 type  5   force =    -0.00004682    0.00076730    0.00147152
     atom   54 type  5   force =     0.00074093    0.00037563   -0.00002403

     Total force =     0.366293     Total SCF correction =     0.000443
  @ DRIVER MODE: Message from server: STATUS
  @ DRIVER MODE: Message from server: GETFORCE
  @ DRIVER MODE: Returning v,forces,stress,ensemble

     Writing output data file ./calc.save/
  @ DRIVER MODE: Message from server: EXIT
  @ DRIVE MODE: Exiting

     General routines

     Parallel routines

   This run was terminated on:   7:55:43  21Jul2021

   JOB DONE.