     Program PWSCF v.6.7GPU starts on  9Sep2021 at 10:57: 3

     R & G space division:  proc/nbgrp/npool/nimage =      10
     Reading input from /storage/home/hcoda1/3/ntian30/research/carbon/CxH_vib/CH3_calc/ads_slab/CH3NNHHH_a/out_0039/pw.inp
Warning: card &CELL ignored
Warning: card   CELL_DYNAMICS='IPI', ignored
Warning: card / ignored

     Current dimensions of program PWSCF are:
     Max number of different atomic species (ntypx) = 10
     Max number of k-points (npk) =  40000
     Max angular momentum in pseudopotentials (lmaxx) =  3
     Presently no symmetry can be used with electric field

     Message from routine cell_base_init:
     DEPRECATED: use true lattice parameter, not A to a.u. conversion factor

     IMPORTANT: XC functional enforced from input :
     Exchange-correlation= BEEF-VDW
                           (   1   4  43  14   2   0   0)
     Any further DFT definition will be discarded
     Please, verify this is what you really want

  @ DRIVER MODE: Connecting to
 qe_1139763_2767399.sched-torque.pace.gatech.edufmoqzi62_scratch
  using UNIX socket
  @ DRIVER MODE: Message from server: STATUS
  @ DRIVER MODE: Message from server: INIT
  @ DRIVER MODE: Receiving replica           0          -1
  @ DRIVER MODE: Receiving encoded integer          25
  @ DRIVER MODE:  SCF:  T  FORCE:  T  STRESS:  F  VC:  F  ENSEMBLE:  F
  @ DRIVER MODE:  SCF:  T  FORCE:  T  STRESS:  F  VC:  F  ENSEMBLE:  F

     Using Slab Decomposition

     bravais-lattice index     =            0
     lattice parameter (alat)  =       1.8897  a.u.
     unit-cell volume          =    6658.9804 (a.u.)^3
     number of atoms/cell      =           56
     number of atomic types    =            5
     number of electrons       =       398.00
     number of Kohn-Sham states=          209
     kinetic-energy cutoff     =      29.3995  Ry
     charge density cutoff     =     293.9946  Ry
     scf convergence threshold =      7.3E-08
     mixing beta               =       0.0500
     number of iterations used =            8  plain     mixing
     Exchange-correlation= BEEF-VDW
                           (   1   4  43  14   2   0   0)

     celldm(1)=   1.889726  celldm(2)=   0.000000  celldm(3)=   0.000000
     celldm(4)=   0.000000  celldm(5)=   0.000000  celldm(6)=   0.000000

     crystal axes: (cart. coord. in units of alat)
               a(1) = (   6.579727   0.000000   0.000000 )
               a(2) = (  -0.000775   5.961596   0.000000 )
               a(3) = (   0.000000   0.000000  25.155947 )

     reciprocal axes: (cart. coord. in units 2 pi/alat)
               b(1) = (  0.151982  0.000020  0.000000 )
               b(2) = (  0.000000  0.167740  0.000000 )
               b(3) = (  0.000000  0.000000  0.039752 )

     PseudoPot. # 1 for Ti read from file:
     /storage/coda1/p-amedford6/0/shared/rich_project_chbe-medford/medford-share/data/pseudos_module/espresso/nninc/pbe/van/Ti.UPF
     MD5 check sum: 8e4df49b7f0d34bbd5052bf3f5ea0213
     Pseudo is Ultrasoft, Zval = 12.0
     Generated by new atomic code, or converted to UPF format
     Using radial grid of  851 points,  6 beta functions with:
                l(1) =   0
                l(2) =   0
                l(3) =   1
                l(4) =   1
                l(5) =   2
                l(6) =   2
     Q(r) pseudized with  8 coefficients,  rinner =    1.000   1.000   1.000
                                                       1.000   1.000

     PseudoPot. # 2 for O  read from file:
     /storage/coda1/p-amedford6/0/shared/rich_project_chbe-medford/medford-share/data/pseudos_module/espresso/nninc/pbe/van/O.UPF
     MD5 check sum: 78c19812648e8988a0fe644b0f25305e
     Pseudo is Ultrasoft, Zval =  6.0
     Generated by new atomic code, or converted to UPF format
     Using radial grid of  737 points,  4 beta functions with:
                l(1) =   0
                l(2) =   0
                l(3) =   1
                l(4) =   1
     Q(r) pseudized with  8 coefficients,  rinner =    0.800   0.800   0.800

     PseudoPot. # 3 for N  read from file:
     /storage/coda1/p-amedford6/0/shared/rich_project_chbe-medford/medford-share/data/pseudos_module/espresso/nninc/pbe/van/N.UPF
     MD5 check sum: 90d10febe142ad51ac9d5be1deb811c4
     Pseudo is Ultrasoft, Zval =  5.0
     Generated by new atomic code, or converted to UPF format
     Using radial grid of  729 points,  4 beta functions with:
                l(1) =   0
                l(2) =   0
                l(3) =   1
                l(4) =   1
     Q(r) pseudized with  8 coefficients,  rinner =    0.800   0.800   0.800

     PseudoPot. # 4 for C  read from file:
     /storage/coda1/p-amedford6/0/shared/rich_project_chbe-medford/medford-share/data/pseudos_module/espresso/nninc/pbe/van/C.UPF
     MD5 check sum: 1a69bf6b8db32088f5b2163dbdb77a27
     Pseudo is Ultrasoft, Zval =  4.0
     Generated by new atomic code, or converted to UPF format
     Using radial grid of  721 points,  4 beta functions with:
                l(1) =   0
                l(2) =   0
                l(3) =   1
                l(4) =   1
     Q(r) pseudized with  8 coefficients,  rinner =    0.800   0.800   0.800

     PseudoPot. # 5 for H  read from file:
     /storage/coda1/p-amedford6/0/shared/rich_project_chbe-medford/medford-share/data/pseudos_module/espresso/nninc/pbe/van/H.UPF
     MD5 check sum: b5ee9d7bfd3a09ee7748110bda690ff7
     Pseudo is Ultrasoft, Zval =  1.0
     Generated by new atomic code, or converted to UPF format
     Using radial grid of  615 points,  1 beta functions with:
                l(1) =   0
     Q(r) pseudized with  8 coefficients,  rinner =    0.800

     atomic species   valence    mass     pseudopotential
        Ti1           12.00    47.86700     Ti( 1.00)
        O1             6.00    15.99900     O ( 1.00)
        N1             5.00    14.00700     N ( 1.00)
        C1             4.00    12.01100     C ( 1.00)
        H1             1.00     1.00800     H ( 1.00)

     No symmetry found

   Cartesian axes

     site n.     atom                  positions (alat units)
         1           Ti1 tau(   1) = (   0.0004258   2.9801865   6.0000000  )
         2           Ti1 tau(   2) = (   3.2906075   1.4906267   6.0002472  )
         3           O1  tau(   3) = (   0.0006271   0.0005054   7.9858123  )
         4           O1  tau(   4) = (   3.2906025   0.0005020   7.3038282  )
         5           O1  tau(   5) = (   4.5942328   1.4918067   9.2879030  )
         6           O1  tau(   6) = (   1.9868534   1.4903216   9.2879459  )
         7           Ti1 tau(   7) = (   3.2907910   2.8959150   9.1758416  )
         8           Ti1 tau(   8) = (   0.0015273   1.4827037   9.2680791  )
         9           O1  tau(   9) = (   3.3120675   0.0079458  11.3762204  )
        10           O1  tau(  10) = (   0.0116148   5.9584955  10.6183126  )
        11           O1  tau(  11) = (   1.3148726   1.5133626  12.6447579  )
        12           O1  tau(  12) = (   5.3140862   1.5122126  12.6508301  )
        13           Ti1 tau(  13) = (   0.0289753   2.9995974  12.5105963  )
        14           Ti1 tau(  14) = (   3.3300932   1.5144954  12.5190352  )
        15           O1  tau(  15) = (   0.0303621   0.0967028  14.6836000  )
        16           O1  tau(  16) = (   3.3188409   0.0235386  14.0025835  )
        17           O1  tau(  17) = (   4.5661268   1.5053193  16.2317874  )
        18           O1  tau(  18) = (   2.0488868   1.5039614  16.2002260  )
        19           Ti1 tau(  19) = (   3.3211226   2.9745325  15.7560014  )
        20           Ti1 tau(  20) = (   0.0641794   1.4487855  16.0607878  )
        21           O1  tau(  21) = (   3.2904802   0.0005063   4.7018136  )
        22           O1  tau(  22) = (   0.0207051   5.8381987  17.2232637  )
        23           O1  tau(  23) = (   1.3043587   1.4918075   6.0039043  )
        24           O1  tau(  24) = (   5.2767064   1.4903225   6.0039473  )
        25           Ti1 tau(  25) = (   0.0000382   5.9609847   6.0000000  )
        26           Ti1 tau(  26) = (   3.2902200   4.4714249   6.0002472  )
        27           O1  tau(  27) = (   0.0002396   2.9813036   7.9858123  )
        28           O1  tau(  28) = (   3.2902150   2.9813002   7.3038282  )
        29           O1  tau(  29) = (   4.5938453   4.4726049   9.2879030  )
        30           O1  tau(  30) = (   1.9864658   4.4711199   9.2879459  )
        31           Ti1 tau(  31) = (   3.2891106   5.8743827   9.1763621  )
        32           Ti1 tau(  32) = (   0.0006254   4.4649316   9.2693709  )
        33           O1  tau(  33) = (   3.3137607   3.0039157  11.3695003  )
        34           O1  tau(  34) = (   0.0092240   2.9805883  10.6323155  )
        35           O1  tau(  35) = (   1.3103219   4.4840529  12.6837359  )
        36           O1  tau(  36) = (   5.3166572   4.4842854  12.6901167  )
        37           Ti1 tau(  37) = (   0.0376818   0.0300362  12.4998423  )
        38           Ti1 tau(  38) = (   3.3279277   4.4933691  12.5326681  )
        39           O1  tau(  39) = (   0.0236785   2.9473731  14.9547601  )
        40           O1  tau(  40) = (   3.3158584   2.9778716  13.9675922  )
        41           O1  tau(  41) = (   4.5769684   4.4551829  16.1482216  )
        42           O1  tau(  42) = (   2.0574928   4.4544973  16.1629196  )
        43           Ti1 tau(  43) = (   3.3270828   0.0048838  15.7999907  )
        44           Ti1 tau(  44) = (   0.0216784   4.6657176  15.8371636  )
        45           O1  tau(  45) = (   3.2900926   2.9813045   4.7018136  )
        46           O1  tau(  46) = (   1.3039711   4.4726057   6.0039043  )
        47           O1  tau(  47) = (   5.2763189   4.4711207   6.0039473  )
        48           N1  tau(  48) = (   1.0300599   3.1028741  18.8625222  )
        49           N1  tau(  49) = (   6.4529598   2.6395754  18.1308714  )
        50           C1  tau(  50) = (   0.6566364   3.8075245  20.0867497  )
        51           H1  tau(  51) = (   6.5334193   4.6337433  19.9095685  )
        52           H1  tau(  52) = (   0.2127083   3.1054723  20.7945791  )
        53           H1  tau(  53) = (   1.5644534   4.2160081  20.5287796  )
        54           H1  tau(  54) = (   5.6912064   3.3171340  18.1715891  )
        55           H1  tau(  55) = (   6.1153184   1.7991689  18.5966666  )
        56           H1  tau(  56) = (   1.4989484   3.7555826  18.2384742  )

     number of k points=    10  Fermi-Dirac smearing, width (Ry)=  0.0073
                       cart. coord. in units 2pi/alat
        k(    1) = (   0.0000000   0.0000000   0.0000000), wk =   0.1250000
        k(    2) = (   0.0000000   0.0419351   0.0000000), wk =   0.2500000
        k(    3) = (   0.0000000  -0.0838702   0.0000000), wk =   0.1250000
        k(    4) = (   0.0379955   0.0000049   0.0000000), wk =   0.2500000
        k(    5) = (   0.0379955   0.0419400   0.0000000), wk =   0.2500000
        k(    6) = (   0.0379955  -0.0838652   0.0000000), wk =   0.2500000
        k(    7) = (   0.0379955  -0.0419301   0.0000000), wk =   0.2500000
        k(    8) = (  -0.0759910  -0.0000099   0.0000000), wk =   0.1250000
        k(    9) = (  -0.0759910   0.0419252   0.0000000), wk =   0.2500000
        k(   10) = (  -0.0759910  -0.0838800   0.0000000), wk =   0.1250000

     Initial potential from superposition of free atoms

     starting charge  381.99914, renormalised to  398.00000

     negative rho (up, down):  1.340E-02 0.000E+00

     %%%%%%%%%%%%%%%%%%%%%%%%%%%%%%%%%%%%%%%%%%%%%%%%%%%%%%%%%%%%%%%%%%%%%%%%
     %                                                                      %
     % You are using vdW-DF, which was implemented by the Thonhauser group. %
     % Please cite the following two papers that made this development      %
     % possible and the two reviews that describe the various versions:     %
     %                                                                      %
     %   T. Thonhauser et al., PRL 115, 136402 (2015).                      %
     %   T. Thonhauser et al., PRB 76, 125112 (2007).                       %
     %   K. Berland et al., Rep. Prog. Phys. 78, 066501 (2015).             %
     %   D.C. Langreth et al., J. Phys.: Condens. Matter 21, 084203 (2009). %
     %                                                                      %
     %                                                                      %
     % If you are calculating the stress with vdW-DF, please also cite:     %
     %                                                                      %
     %   R. Sabatini et al., J. Phys.: Condens. Matter 24, 424209 (2012).   %
     %                                                                      %
     %%%%%%%%%%%%%%%%%%%%%%%%%%%%%%%%%%%%%%%%%%%%%%%%%%%%%%%%%%%%%%%%%%%%%%%%

     Adding external electric field

     Computed dipole along edir(3) :
        Dipole              -11.7464 Ry au,        -29.8564 Debye
        Dipole field         -0.0222 Ry au,

        Potential amp.        2.0549 Ry
        Total length         46.3494 bohr

     Starting wfcs are  302 atomic wfcs
  @ DRIVER MODE: Message from server: STATUS
  @ DRIVER MODE: Message from server: POSDATA
  @ DRIVER MODE: Reading and sharing cell
  @ DRIVER MODE: Reading and sharing positions
  @ DRIVER MODE: Received positions

     Self-consistent Calculation

     iteration #  1     ecut=    29.40 Ry     beta= 0.05
     Davidson diagonalization with overlap
     c_bands:  1 eigenvalues not converged
     c_bands:  1 eigenvalues not converged
     c_bands:  1 eigenvalues not converged
     c_bands:  3 eigenvalues not converged
     c_bands:  3 eigenvalues not converged
     c_bands:  3 eigenvalues not converged
     c_bands:  4 eigenvalues not converged
     c_bands:  2 eigenvalues not converged
     ethr =  1.00E-05,  avg # of iterations = 21.6

[...]

     total energy              =   -2428.07176914 Ry
     estimated scf accuracy    <    5789.78311245 Ry

     iteration #  2     ecut=    29.40 Ry     beta= 0.05
     Davidson diagonalization with overlap
     ethr =  1.00E-02,  avg # of iterations = 22.2

[...]

     iteration # 71     ecut=    29.40 Ry     beta= 0.05
     Davidson diagonalization with overlap
     c_bands:  1 eigenvalues not converged
     ethr =  3.71E-11,  avg # of iterations = 15.3

[...]

     total energy              =   -2942.85969734 Ry
     estimated scf accuracy    <       0.00000008 Ry

     iteration # 73     ecut=    29.40 Ry     beta= 0.05
     Davidson diagonalization with overlap
     ethr =  1.89E-11,  avg # of iterations = 12.4

     negative rho (up, down):  1.464E-02 0.000E+00

     Adding external electric field

     Computed dipole along edir(3) :
        Dipole                1.2230 Ry au,          3.1085 Debye
        Dipole field          0.0023 Ry au,

        Potential amp.       -0.2139 Ry
        Total length         46.3494 bohr

     End of self-consistent calculation

          k = 0.0000 0.0000 0.0000 ( 18029 PWs)   bands (ev):

   -55.3484 -55.3114 -55.3007 -55.2698 -55.2666 -55.2324 -55.2250 -55.1897
   -55.1685 -55.1450 -55.1341 -55.1322 -55.0986 -55.0262 -54.3301 -54.2960
   -31.9168 -31.8013 -31.7932 -31.7136 -31.6642 -31.6580 -31.6515 -31.6379
   -31.5898 -31.5892 -31.5578 -31.5527 -31.5455 -31.5298 -31.5183 -31.5110
   -31.5036 -31.4884 -31.4858 -31.4658 -31.4533 -31.4452 -31.4185 -31.4145
   -31.4031 -31.4007 -31.3994 -31.3712 -31.3580 -31.3555 -31.3506 -31.3311
   -31.3279 -31.3199 -31.3185 -31.3165 -31.2823 -31.2684 -31.2606 -31.2435
   -31.2325 -31.2081 -30.7395 -30.6452 -30.6231 -30.5558 -30.4690 -30.3582
   -17.8087 -16.1846 -15.9170 -15.7771 -15.6673 -15.5482 -15.4297 -15.4102
   -15.2780 -15.1952 -15.0752 -15.0523 -15.0260 -15.0069 -14.9944 -14.9794
   -14.8937 -14.8878 -14.8704 -14.8431 -14.8367 -14.7940 -14.7865 -14.7468
   -14.7260 -14.7242 -14.5956 -14.5078 -14.4363 -14.1995 -13.1983 -12.8329
   -12.7155  -9.7391  -6.3890  -5.3913  -4.8933  -3.5373  -3.4960  -3.3683
    -3.2788  -3.2636  -3.2414  -3.1052  -2.9519  -2.7819  -2.7697  -2.7557
    -2.6383  -2.5607  -2.5544  -2.5297  -2.3783  -2.3566  -2.3057  -2.2403
    -2.2126  -2.1648  -2.1538  -2.1322  -2.1130  -2.0933  -2.0849  -1.9712
    -1.9201  -1.8274  -1.7714  -1.7440  -1.7084  -1.6806  -1.6656  -1.6382
    -1.6302  -1.5876  -1.5610  -1.5388  -1.4877  -1.3755  -1.2667  -1.2366
    -1.1389  -0.9867  -0.9571  -0.9410  -0.9297  -0.8531  -0.8356  -0.7882
    -0.7354  -0.7269  -0.6959  -0.5851  -0.5268  -0.4618  -0.3951  -0.3837
    -0.3366  -0.2749  -0.1627  -0.1381  -0.1158  -0.0907   0.0030   0.0425
     0.0873   0.1623   0.1816   0.1953   0.3020   0.3099   0.3899   0.4018
     0.4476   0.5341   0.5684   0.5907   0.5946   0.6079   0.6379   0.7051
     0.7294   0.7557   0.8307   0.9545   1.0219   1.1867   1.2497   1.2634
     1.5931   1.5973   1.6924   1.8763   2.2686   2.3168   3.7490   3.8186
     3.8933   3.9001   3.9120   3.9857   4.2230   4.2391   4.2516   4.2578
     4.2927

[...]

          k = 0.0380-0.0419 0.0000 ( 17876 PWs)   bands (ev):

[...]

          k =-0.0760-0.0000 0.0000 ( 17886 PWs)   bands (ev):

[...]

          k =-0.0760-0.0839 0.0000 ( 17948 PWs)   bands (ev):

   -55.3341 -55.3255 -55.2836 -55.2835 -55.2683 -55.2290 -55.2115 -55.2032
   -55.1529 -55.1492 -55.1483 -55.1156 -55.1153 -55.0274 -54.3130 -54.3129
   -31.7240 -31.7215 -31.7175 -31.6340 -31.6083 -31.6082 -31.6055 -31.5749
   -31.5749 -31.5567 -31.5493 -31.5470 -31.5410 -31.5112 -31.5043 -31.4859
   -31.4857 -31.4817 -31.4785 -31.4731 -31.4703 -31.4692 -31.4322 -31.4273
   -31.4250 -31.4203 -31.4163 -31.4047 -31.4034 -31.4033 -31.3960 -31.3864
   -31.3822 -31.3661 -31.3627 -31.3467 -31.3461 -31.3368 -31.2966 -31.2963
   -31.2859 -31.2373 -30.6358 -30.6357 -30.5520 -30.5520 -30.5125 -30.5123
   -17.8041 -15.7081 -15.5961 -15.5498 -15.3766 -15.3543 -15.3318 -15.3171
   -15.1891 -15.1707 -15.1428 -15.1163 -15.0914 -15.0639 -15.0525 -15.0478
   -14.9650 -14.9531 -14.9456 -14.9295 -14.8616 -14.8586 -14.8543 -14.8484
   -14.7979 -14.7953 -14.7149 -14.7013 -14.6998 -14.5015 -13.1992 -12.8169
   -12.8169  -9.7356  -6.3764  -5.3911  -4.8992  -3.4699  -2.8646  -2.8293
    -2.8057  -2.7857  -2.5921  -2.5541  -2.5171  -2.5048  -2.4056  -2.3634
    -2.3458  -2.3385  -2.2681  -2.2647  -2.2340  -2.2037  -2.1827  -2.1657
    -2.1518  -2.1300  -2.1052  -2.0758  -2.0697  -2.0549  -2.0007  -1.9983
    -1.9828  -1.9603  -1.9432  -1.9220  -1.9052  -1.8486  -1.7262  -1.7160
    -1.6622  -1.5554  -1.5508  -1.4709  -1.4657  -1.4220  -1.3940  -1.3817
    -1.3548  -1.1743  -1.1208  -1.0944  -1.0869  -1.0762  -0.9663  -0.9324
    -0.8745  -0.8587  -0.8326  -0.7349  -0.6843  -0.6800  -0.5990  -0.5668
    -0.5282  -0.4865  -0.3850  -0.3552  -0.3356  -0.3064  -0.3030  -0.2494
    -0.2440  -0.1673  -0.1195  -0.0834  -0.0690  -0.0380   0.1612   0.1712
     0.1893   0.3364   0.3590   0.4990   0.5431   0.5853   0.6459   0.6974
     0.7637   0.8043   0.9313   0.9589   0.9597   1.0299   1.0500   1.0532
     1.1083   1.1102   2.0489   2.0496   2.1367   2.1370   3.8919   3.9965
     4.0114   4.0568   4.1665   4.2404   4.2637   4.2905   4.3334   4.3361
     4.4018

     the Fermi energy is     3.8118 ev

!    total energy              =   -2942.85971741 Ry
     estimated scf accuracy    <       0.00000004 Ry
     smearing contrib. (-TS)   =      -0.03700740 Ry
     internal energy E=F+TS    =   -2942.82271002 Ry

     The total energy is F=E-TS. E is the sum of the following terms:
     one-electron contribution =  -23389.53194052 Ry
     hartree contribution      =   11787.30929728 Ry
     xc contribution           =    -487.76187682 Ry
     ewald contribution        =    9147.15898756 Ry
     electric field correction =       0.00282250 Ry

     convergence has been achieved in  73 iterations

     Forces acting on atoms (cartesian axes, Ry/au):

     atom    1 type  1   force =    -0.00000186   -0.00026123    0.09311670
     atom    2 type  1   force =    -0.00014248   -0.00043023   -0.17825045
     atom    3 type  2   force =     0.00007448   -0.00008256   -0.02024536
     atom    4 type  2   force =     0.00001580   -0.00186920    0.05879662
     atom    5 type  2   force =    -0.01019619   -0.00054630    0.00774403
     atom    6 type  2   force =     0.01224904    0.00007360    0.00820469
     atom    7 type  1   force =     0.00038892    0.00328657   -0.01426815
     atom    8 type  1   force =    -0.00045560    0.00045282   -0.00456154
     atom    9 type  2   force =    -0.00002571   -0.00061453   -0.00037216
     atom   10 type  2   force =    -0.00059884    0.00091603   -0.00141697
     atom   11 type  2   force =    -0.00037223   -0.00011756    0.00023430
     atom   12 type  2   force =     0.00006158   -0.00006328    0.00004407
     atom   13 type  1   force =     0.00005141   -0.00032270    0.00016232
     atom   14 type  1   force =    -0.00036082    0.00013138    0.00041644
     atom   15 type  2   force =    -0.00016191    0.00082083    0.00024186
     atom   16 type  2   force =    -0.00008686   -0.00018425    0.00032964
     atom   17 type  2   force =    -0.00042550    0.00009717    0.00047746
     atom   18 type  2   force =     0.00014445   -0.00019706   -0.00007988
     atom   19 type  1   force =     0.00032107    0.00032646    0.00083857
     atom   20 type  1   force =    -0.00057544   -0.00079347    0.00032760
     atom   21 type  2   force =     0.00000164   -0.00010752    0.10395506
     atom   22 type  2   force =    -0.00017443   -0.00000272   -0.00075290
     atom   23 type  2   force =    -0.07035401   -0.00022395   -0.02687116
     atom   24 type  2   force =     0.07024543    0.00020576   -0.02695041
     atom   25 type  1   force =     0.00001876   -0.00026336    0.09277982
     atom   26 type  1   force =    -0.00012380   -0.00044833   -0.17828199
     atom   27 type  2   force =     0.00013747   -0.00033623   -0.01927006
     atom   28 type  2   force =     0.00008053   -0.00155110    0.05819470
     atom   29 type  2   force =    -0.01021243   -0.00033611    0.00696134
     atom   30 type  2   force =     0.01215889   -0.00009427    0.00749316
     atom   31 type  1   force =     0.00040080    0.00496315   -0.01540280
     atom   32 type  1   force =    -0.00037634   -0.00032736   -0.00465993
     atom   33 type  2   force =    -0.00022002   -0.00048121    0.00015981
     atom   34 type  2   force =    -0.00013993    0.00363512   -0.00060376
     atom   35 type  2   force =     0.00003267   -0.00056759    0.00032228
     atom   36 type  2   force =    -0.00019121   -0.00053592   -0.00002854
     atom   37 type  1   force =    -0.00025655   -0.00050078    0.00047775
     atom   38 type  1   force =    -0.00018920   -0.00089889    0.00045648
     atom   39 type  2   force =    -0.00047916   -0.00055159    0.00053665
     atom   40 type  2   force =     0.00001560   -0.00048939   -0.00040634
     atom   41 type  2   force =    -0.00080765   -0.00015036   -0.00012234
     atom   42 type  2   force =     0.00031224   -0.00026399   -0.00030990
     atom   43 type  1   force =     0.00004833   -0.00036601   -0.00008723
     atom   44 type  1   force =    -0.00010836   -0.00058858    0.00080308
     atom   45 type  2   force =     0.00001013   -0.00014263    0.10392925
     atom   46 type  2   force =    -0.07040582   -0.00018539   -0.02689216
     atom   47 type  2   force =     0.07027458    0.00025327   -0.02696466
     atom   48 type  3   force =     0.00024210    0.00213096   -0.00048489
     atom   49 type  3   force =     0.00598229   -0.00708204   -0.00043379
     atom   50 type  4   force =    -0.00200696    0.00018729    0.00003842
     atom   51 type  5   force =    -0.00048526    0.00004291    0.00014595
     atom   52 type  5   force =     0.00029216   -0.00014076    0.00034545
     atom   53 type  5   force =     0.00102265    0.00022363    0.00092185
     atom   54 type  5   force =    -0.00621305    0.00782212   -0.00003898
     atom   55 type  5   force =     0.00151163   -0.00257585   -0.00055134
     atom   56 type  5   force =     0.00005298   -0.00087479   -0.00014767

     Total force =     0.366398     Total SCF correction =     0.000485
  @ DRIVER MODE: Message from server: STATUS
  @ DRIVER MODE: Message from server: GETFORCE
  @ DRIVER MODE: Returning v,forces,stress,ensemble

     Writing output data file ./calc.save/
  @ DRIVER MODE: Message from server: EXIT
  @ DRIVE MODE: Exiting

     General routines

     Parallel routines

   This run was terminated on:  11:16:40   9Sep2021

   JOB DONE.