     Program PWSCF v.6.7GPU starts on 28Sep2021 at 23:54: 7

     R & G space division:  proc/nbgrp/npool/nimage =       8
     Reading input from /storage/home/hcoda1/3/ntian30/research/carbon/CxH_vib/H2O_calc/ads_slab/CH3OHN2H2O_a/out_0060/pw.inp
Warning: card &CELL ignored
Warning: card   CELL_DYNAMICS='IPI', ignored
Warning: card / ignored

     Current dimensions of program PWSCF are:
     Max number of different atomic species (ntypx) = 10
     Max number of k-points (npk) =  40000
     Max angular momentum in pseudopotentials (lmaxx) =  3
     Presently no symmetry can be used with electric field

     Message from routine cell_base_init:
     DEPRECATED: use true lattice parameter, not A to a.u. conversion factor

     IMPORTANT: XC functional enforced from input :
     Exchange-correlation= BEEF-VDW
                           (   1   4  43  14   2   0   0)
     Any further DFT definition will be discarded
     Please, verify this is what you really want

  @ DRIVER MODE: Connecting to
 qe_1139763_3000313.sched-torque.pace.gatech.educ38jedrn_scratch
  using UNIX socket
  @ DRIVER MODE: Message from server: STATUS
  @ DRIVER MODE: Message from server: INIT
  @ DRIVER MODE: Receiving replica           0          -1
  @ DRIVER MODE: Receiving encoded integer          25
  @ DRIVER MODE:  SCF:  T  FORCE:  T  STRESS:  F  VC:  F  ENSEMBLE:  F
  @ DRIVER MODE:  SCF:  T  FORCE:  T  STRESS:  F  VC:  F  ENSEMBLE:  F

     Using Slab Decomposition

     bravais-lattice index     =            0
     lattice parameter (alat)  =       1.8897  a.u.
     unit-cell volume          =    6658.9804 (a.u.)^3
     number of atoms/cell      =           58
     number of atomic types    =            5
     number of electrons       =       410.00
     number of Kohn-Sham states=          215
     kinetic-energy cutoff     =      29.3995  Ry
     charge density cutoff     =     293.9946  Ry
     scf convergence threshold =      7.3E-08
     mixing beta               =       0.0500
     number of iterations used =            8  plain     mixing
     Exchange-correlation= BEEF-VDW
                           (   1   4  43  14   2   0   0)

     celldm(1)=   1.889726  celldm(2)=   0.000000  celldm(3)=   0.000000
     celldm(4)=   0.000000  celldm(5)=   0.000000  celldm(6)=   0.000000

     crystal axes: (cart. coord. in units of alat)
               a(1) = (   6.579727   0.000000   0.000000 )
               a(2) = (  -0.000775   5.961596   0.000000 )
               a(3) = (   0.000000   0.000000  25.155947 )

     reciprocal axes: (cart. coord. in units 2 pi/alat)
               b(1) = (  0.151982  0.000020  0.000000 )
               b(2) = (  0.000000  0.167740  0.000000 )
               b(3) = (  0.000000  0.000000  0.039752 )

     PseudoPot. # 1 for Ti read from file:
     /storage/coda1/p-amedford6/0/shared/rich_project_chbe-medford/medford-share/data/pseudos_module/espresso/nninc/pbe/van/Ti.UPF
     MD5 check sum: 8e4df49b7f0d34bbd5052bf3f5ea0213
     Pseudo is Ultrasoft, Zval = 12.0
     Generated by new atomic code, or converted to UPF format
     Using radial grid of  851 points,  6 beta functions with:
                l(1) =   0
                l(2) =   0
                l(3) =   1
                l(4) =   1
                l(5) =   2
                l(6) =   2
     Q(r) pseudized with  8 coefficients,  rinner =    1.000   1.000   1.000
                                                       1.000   1.000

     PseudoPot. # 2 for O  read from file:
     /storage/coda1/p-amedford6/0/shared/rich_project_chbe-medford/medford-share/data/pseudos_module/espresso/nninc/pbe/van/O.UPF
     MD5 check sum: 78c19812648e8988a0fe644b0f25305e
     Pseudo is Ultrasoft, Zval =  6.0
     Generated by new atomic code, or converted to UPF format
     Using radial grid of  737 points,  4 beta functions with:
                l(1) =   0
                l(2) =   0
                l(3) =   1
                l(4) =   1
     Q(r) pseudized with  8 coefficients,  rinner =    0.800   0.800   0.800

     PseudoPot. # 3 for C  read from file:
     /storage/coda1/p-amedford6/0/shared/rich_project_chbe-medford/medford-share/data/pseudos_module/espresso/nninc/pbe/van/C.UPF
     MD5 check sum: 1a69bf6b8db32088f5b2163dbdb77a27
     Pseudo is Ultrasoft, Zval =  4.0
     Generated by new atomic code, or converted to UPF format
     Using radial grid of  721 points,  4 beta functions with:
                l(1) =   0
                l(2) =   0
                l(3) =   1
                l(4) =   1
     Q(r) pseudized with  8 coefficients,  rinner =    0.800   0.800   0.800

     PseudoPot. # 4 for H  read from file:
     /storage/coda1/p-amedford6/0/shared/rich_project_chbe-medford/medford-share/data/pseudos_module/espresso/nninc/pbe/van/H.UPF
     MD5 check sum: b5ee9d7bfd3a09ee7748110bda690ff7
     Pseudo is Ultrasoft, Zval =  1.0
     Generated by new atomic code, or converted to UPF format
     Using radial grid of  615 points,  1 beta functions with:
                l(1) =   0
     Q(r) pseudized with  8 coefficients,  rinner =    0.800

     PseudoPot. # 5 for N  read from file:
     /storage/coda1/p-amedford6/0/shared/rich_project_chbe-medford/medford-share/data/pseudos_module/espresso/nninc/pbe/van/N.UPF
     MD5 check sum: 90d10febe142ad51ac9d5be1deb811c4
     Pseudo is Ultrasoft, Zval =  5.0
     Generated by new atomic code, or converted to UPF format
     Using radial grid of  729 points,  4 beta functions with:
                l(1) =   0
                l(2) =   0
                l(3) =   1
                l(4) =   1
     Q(r) pseudized with  8 coefficients,  rinner =    0.800   0.800   0.800

     atomic species   valence    mass     pseudopotential
        Ti1           12.00    47.86700     Ti( 1.00)
        O1             6.00    15.99900     O ( 1.00)
        C1             4.00    12.01100     C ( 1.00)
        H1             1.00     1.00800     H ( 1.00)
        N1             5.00    14.00700     N ( 1.00)

     No symmetry found

   Cartesian axes

     site n.     atom                  positions (alat units)
         1           Ti1 tau(   1) = (   0.0004258   2.9801865   6.0000000  )
         2           Ti1 tau(   2) = (   3.2906075   1.4906267   6.0002472  )
         3           O1  tau(   3) = (   0.0006271   0.0005054   7.9858123  )
         4           O1  tau(   4) = (   3.2906025   0.0005020   7.3038282  )
         5           O1  tau(   5) = (   4.5942328   1.4918067   9.2879030  )
         6           O1  tau(   6) = (   1.9868534   1.4903216   9.2879459  )
         7           Ti1 tau(   7) = (   3.3250738   2.9918783   9.1599549  )
         8           Ti1 tau(   8) = (   0.0412716   1.4903975   9.2658274  )
         9           O1  tau(   9) = (   3.2852344   0.0116916  11.3753809  )
        10           O1  tau(  10) = (   6.5701620   0.0027176  10.6052010  )
        11           O1  tau(  11) = (   1.2758103   1.4969824  12.6410148  )
        12           O1  tau(  12) = (   5.2796941   1.4985041  12.6691897  )
        13           Ti1 tau(  13) = (   6.5531116   2.9870417  12.5348353  )
        14           Ti1 tau(  14) = (   3.2504356   1.4995581  12.5215122  )
        15           O1  tau(  15) = (   0.0383206   0.0046779  14.6787597  )
        16           O1  tau(  16) = (   3.2537876   0.0095675  14.0320577  )
        17           O1  tau(  17) = (   4.5855444   1.5609978  16.0639115  )
        18           O1  tau(  18) = (   2.0343745   1.5440679  16.2001998  )
        19           Ti1 tau(  19) = (   3.3058624   3.0043567  15.7064231  )
        20           Ti1 tau(  20) = (   6.5549511   1.4266458  15.8675638  )
        21           O1  tau(  21) = (   3.2904802   0.0005063   4.7018136  )
        22           O1  tau(  22) = (   6.4974171   0.0126247  17.2237355  )
        23           O1  tau(  23) = (   1.3043587   1.4918075   6.0039043  )
        24           O1  tau(  24) = (   5.2767064   1.4903225   6.0039473  )
        25           Ti1 tau(  25) = (   0.0000382   5.9609847   6.0000000  )
        26           Ti1 tau(  26) = (   3.2902200   4.4714249   6.0002472  )
        27           O1  tau(  27) = (   0.0002396   2.9813036   7.9858123  )
        28           O1  tau(  28) = (   3.2902150   2.9813002   7.3038282  )
        29           O1  tau(  29) = (   4.5938453   4.4726049   9.2879030  )
        30           O1  tau(  30) = (   1.9864658   4.4711199   9.2879459  )
        31           Ti1 tau(  31) = (   3.3194574   0.0113313   9.1541029  )
        32           Ti1 tau(  32) = (   0.0414074   4.4589881   9.2683624  )
        33           O1  tau(  33) = (   3.2821265   2.9896323  11.3676027  )
        34           O1  tau(  34) = (   6.5712111   2.9825298  10.6251173  )
        35           O1  tau(  35) = (   1.2751242   4.4805681  12.6359318  )
        36           O1  tau(  36) = (   5.2791817   4.4782367  12.6627471  )
        37           Ti1 tau(  37) = (   6.5506445   0.0032150  12.4806913  )
        38           Ti1 tau(  38) = (   3.2507345   4.4881811  12.5195668  )
        39           O1  tau(  39) = (   0.0469291   2.9928743  14.8464778  )
        40           O1  tau(  40) = (   3.2514374   2.9975957  13.9281162  )
        41           O1  tau(  41) = (   4.5866068   4.4203933  16.0984022  )
        42           O1  tau(  42) = (   2.0418857   4.4579080  16.2200674  )
        43           Ti1 tau(  43) = (   3.2648600   0.0292614  15.8571223  )
        44           Ti1 tau(  44) = (   6.5763064   4.6169283  15.9626260  )
        45           O1  tau(  45) = (   3.2900926   2.9813045   4.7018136  )
        46           O1  tau(  46) = (   1.3039711   4.4726057   6.0039043  )
        47           O1  tau(  47) = (   5.2763189   4.4711207   6.0039473  )
        48           C1  tau(  48) = (   6.0301898   2.9050411  18.9351799  )
        49           O1  tau(  49) = (   0.1575529   2.9516393  17.6723866  )
        50           H1  tau(  50) = (   4.9714676   2.8818909  18.6991823  )
        51           H1  tau(  51) = (   1.1132637   2.8218831  17.8130049  )
        52           H1  tau(  52) = (   6.2985093   1.9952365  19.4696065  )
        53           H1  tau(  53) = (   6.2732381   3.7939772  19.5169533  )
        54           N1  tau(  54) = (   4.8840950   3.1052494  22.6850861  )
        55           N1  tau(  55) = (   4.2680757   3.3403818  21.7970487  )
        56           O1  tau(  56) = (   3.8772584   0.1141246  18.3039653  )
        57           H1  tau(  57) = (   4.8407149   0.0692883  18.0816375  )
        58           H1  tau(  58) = (   3.6680196   5.2122673  18.6877519  )

     number of k points=    10  Fermi-Dirac smearing, width (Ry)=  0.0073
                       cart. coord. in units 2pi/alat
        k(    1) = (   0.0000000   0.0000000   0.0000000), wk =   0.1250000
        k(    2) = (   0.0000000   0.0419351   0.0000000), wk =   0.2500000
        k(    3) = (   0.0000000  -0.0838702   0.0000000), wk =   0.1250000
        k(    4) = (   0.0379955   0.0000049   0.0000000), wk =   0.2500000
        k(    5) = (   0.0379955   0.0419400   0.0000000), wk =   0.2500000
        k(    6) = (   0.0379955  -0.0838652   0.0000000), wk =   0.2500000
        k(    7) = (   0.0379955  -0.0419301   0.0000000), wk =   0.2500000
        k(    8) = (  -0.0759910  -0.0000099   0.0000000), wk =   0.1250000
        k(    9) = (  -0.0759910   0.0419252   0.0000000), wk =   0.2500000
        k(   10) = (  -0.0759910  -0.0838800   0.0000000), wk =   0.1250000

     Initial potential from superposition of free atoms

     starting charge  393.99913, renormalised to  410.00000

     negative rho (up, down):  9.553E-03 0.000E+00

     %%%%%%%%%%%%%%%%%%%%%%%%%%%%%%%%%%%%%%%%%%%%%%%%%%%%%%%%%%%%%%%%%%%%%%%%
     %                                                                      %
     % You are using vdW-DF, which was implemented by the Thonhauser group. %
     % Please cite the following two papers that made this development      %
     % possible and the two reviews that describe the various versions:     %
     %                                                                      %
     %   T. Thonhauser et al., PRL 115, 136402 (2015).                      %
     %   T. Thonhauser et al., PRB 76, 125112 (2007).                       %
     %   K. Berland et al., Rep. Prog. Phys. 78, 066501 (2015).             %
     %   D.C. Langreth et al., J. Phys.: Condens. Matter 21, 084203 (2009). %
     %                                                                      %
     %                                                                      %
     % If you are calculating the stress with vdW-DF, please also cite:     %
     %                                                                      %
     %   R. Sabatini et al., J. Phys.: Condens. Matter 24, 424209 (2012).   %
     %                                                                      %
     %%%%%%%%%%%%%%%%%%%%%%%%%%%%%%%%%%%%%%%%%%%%%%%%%%%%%%%%%%%%%%%%%%%%%%%%

     Adding external electric field

     Computed dipole along edir(3) :
        Dipole              -20.0792 Ry au,        -51.0361 Debye
        Dipole field         -0.0379 Ry au,

        Potential amp.        3.5125 Ry
        Total length         46.3494 bohr

     Starting wfcs are  310 atomic wfcs
  @ DRIVER MODE: Message from server: STATUS
  @ DRIVER MODE: Message from server: POSDATA
  @ DRIVER MODE: Reading and sharing cell
  @ DRIVER MODE: Reading and sharing positions
  @ DRIVER MODE: Received positions

     Self-consistent Calculation

     iteration #  1     ecut=    29.40 Ry     beta= 0.05
     Davidson diagonalization with overlap
     c_bands:  1 eigenvalues not converged
     c_bands:  1 eigenvalues not converged
     c_bands:  5 eigenvalues not converged
     c_bands:  1 eigenvalues not converged
     c_bands:  4 eigenvalues not converged
     c_bands:  3 eigenvalues not converged
     ethr =  1.00E-05,  avg # of iterations = 32.1

[...]

     total energy              =   -2098.60373366 Ry
     estimated scf accuracy    <   10668.40062956 Ry

     iteration #  2     ecut=    29.40 Ry     beta= 0.05
     Davidson diagonalization with overlap
     ethr =  1.00E-02,  avg # of iterations = 30.5

[...]

     iteration # 71     ecut=    29.40 Ry     beta= 0.05
     Davidson diagonalization with overlap
     ethr =  1.06E-06,  avg # of iterations =  8.8

[...]

     total energy              =   -3007.66320541 Ry
     estimated scf accuracy    <       0.00000020 Ry

     iteration # 96     ecut=    29.40 Ry     beta= 0.05
     Davidson diagonalization with overlap
     c_bands:  1 eigenvalues not converged
     ethr =  1.89E-11,  avg # of iterations = 15.6

     negative rho (up, down):  1.050E-02 0.000E+00

     Adding external electric field

     Computed dipole along edir(3) :
        Dipole                1.2313 Ry au,          3.1297 Debye
        Dipole field          0.0023 Ry au,

        Potential amp.       -0.2154 Ry
        Total length         46.3494 bohr

     End of self-consistent calculation

          k = 0.0000 0.0000 0.0000 ( 18029 PWs)   bands (ev):

   -54.9342 -54.9102 -54.8981 -54.8758 -54.8611 -54.8557 -54.8286 -54.8089
   -54.7812 -54.7790 -54.7445 -54.7234 -54.6920 -54.6895 -53.9986 -53.9645
   -31.5000 -31.4738 -31.4059 -31.3133 -31.2546 -31.2486 -31.2364 -31.2344
   -31.1988 -31.1647 -31.1550 -31.1529 -31.1487 -31.1256 -31.1189 -31.1129
   -31.0965 -31.0779 -31.0720 -31.0704 -31.0636 -31.0562 -31.0334 -31.0268
   -31.0265 -31.0205 -31.0058 -31.0036 -31.0031 -30.9667 -30.9498 -30.9297
   -30.9281 -30.9273 -30.9195 -30.9174 -30.9081 -30.8781 -30.8634 -30.8590
   -30.8545 -30.8350 -30.4106 -30.3083 -30.2867 -30.2268 -30.1404 -30.0294
   -21.6225 -19.8099 -18.2979 -15.7673 -15.5212 -15.3818 -15.2845 -15.1610
   -15.0308 -14.9570 -14.8366 -14.7646 -14.6700 -14.6566 -14.6388 -14.6180
   -14.5848 -14.5586 -14.5017 -14.4965 -14.4419 -14.4384 -14.4280 -14.4170
   -14.3841 -14.3679 -14.3377 -14.3286 -14.1661 -14.1004 -14.0409 -13.8948
   -12.4992 -12.3799 -10.8261  -6.8736  -6.5562  -6.0406  -4.8552  -4.7808
    -4.7265  -4.6347  -3.5456  -3.1009  -2.9497  -2.9149  -2.8934  -2.8704
    -2.7460  -2.6606  -2.6299  -2.4704  -2.3717  -2.2366  -2.2089  -2.1771
    -2.1398  -2.0706  -2.0152  -1.9290  -1.8986  -1.8591  -1.8384  -1.8147
    -1.7996  -1.7726  -1.7427  -1.6721  -1.6327  -1.5482  -1.5316  -1.4448
    -1.3915  -1.3831  -1.3400  -1.2771  -1.2736  -1.2630  -1.2240  -1.2093
    -1.2010  -1.1912  -1.1841  -1.0250  -0.9778  -0.9444  -0.8205  -0.7106
    -0.6194  -0.6090  -0.5048  -0.4914  -0.4283  -0.4239  -0.3845  -0.3449
    -0.2827  -0.1859  -0.1280  -0.0833  -0.0686   0.0418   0.1073   0.1221
     0.1827   0.2591   0.2741   0.2956   0.3251   0.4121   0.4799   0.5219
     0.5561   0.6210   0.6308   0.6781   0.7072   0.7482   0.8337   0.8874
     0.8913   0.9781   0.9954   1.0086   1.0339   1.0395   1.1379   1.1720
     1.2157   1.2440   1.3951   1.4323   1.6212   1.6570   1.9168   2.0154
     2.0272   2.1885   2.6132   2.6677   4.1558   4.2237   4.2602   4.2674
     4.2821   4.3616   4.6441   4.6533   4.6642   4.6760   4.6838

[...]

          k = 0.0380-0.0419 0.0000 ( 17876 PWs)   bands (ev):

[...]

          k =-0.0760-0.0000 0.0000 ( 17886 PWs)   bands (ev):

[...]

          k =-0.0760-0.0839 0.0000 ( 17948 PWs)   bands (ev):

   -54.9171 -54.9150 -54.8947 -54.8912 -54.8565 -54.8508 -54.8214 -54.8164
   -54.7885 -54.7639 -54.7592 -54.7078 -54.7052 -54.6937 -53.9815 -53.9815
   -31.3865 -31.3088 -31.2986 -31.2225 -31.2191 -31.1971 -31.1895 -31.1876
   -31.1807 -31.1581 -31.1436 -31.1416 -31.1339 -31.1279 -31.1086 -31.0949
   -31.0799 -31.0779 -31.0685 -31.0673 -31.0653 -31.0644 -31.0589 -31.0536
   -31.0285 -31.0238 -31.0192 -31.0138 -31.0136 -31.0110 -31.0102 -31.0100
   -31.0095 -30.9809 -30.9722 -30.9620 -30.9608 -30.9331 -30.9308 -30.8947
   -30.8915 -30.8770 -30.2993 -30.2993 -30.2234 -30.2230 -30.1837 -30.1835
   -21.6224 -19.8063 -18.2969 -15.3422 -15.2289 -15.0632 -14.9547 -14.9449
   -14.9163 -14.8570 -14.8137 -14.7832 -14.7424 -14.7327 -14.7032 -14.6852
   -14.6801 -14.6224 -14.5385 -14.5328 -14.5190 -14.4838 -14.4567 -14.4427
   -14.4407 -14.4263 -14.3894 -14.3875 -14.3685 -14.3573 -14.3004 -14.2059
   -12.4812 -12.4806 -10.8288  -6.8727  -6.5583  -6.0431  -4.8523  -4.7875
    -4.7206  -4.6227  -3.5372  -2.7723  -2.5487  -2.4967  -2.4241  -2.2581
    -2.1780  -2.1571  -2.0814  -2.0575  -2.0221  -1.9437  -1.9401  -1.9060
    -1.8660  -1.8416  -1.8360  -1.8174  -1.8001  -1.7661  -1.7454  -1.7244
    -1.7108  -1.6963  -1.6491  -1.6401  -1.6042  -1.6007  -1.5861  -1.5741
    -1.5557  -1.5443  -1.4653  -1.4353  -1.3943  -1.3092  -1.2921  -1.1626
    -1.1572  -1.1124  -1.0744  -1.0369  -1.0170  -0.9977  -0.9705  -0.9409
    -0.9087  -0.7368  -0.7157  -0.6726  -0.6210  -0.6147  -0.5427  -0.5266
    -0.4720  -0.4402  -0.3505  -0.3094  -0.2696  -0.1616  -0.1342  -0.1219
     0.0161   0.0218   0.0674   0.0690   0.1114   0.1497   0.1616   0.1692
     0.2439   0.2765   0.3128   0.3388   0.3625   0.5406   0.5768   0.6357
     0.7249   0.7432   0.9219   0.9520   0.9959   1.0768   1.1381   1.1920
     1.2143   1.3241   1.3301   1.3539   1.4449   1.4933   1.4946   1.5246
     2.3784   2.3814   2.4822   2.4850   4.2802   4.4111   4.4172   4.4972
     4.5708   4.6634   4.6680   4.6786   4.7085   4.7185   4.7228

     the Fermi energy is     4.2118 ev

!    total energy              =   -3007.66320885 Ry
     estimated scf accuracy    <       0.00000006 Ry
     smearing contrib. (-TS)   =      -0.03683961 Ry
     internal energy E=F+TS    =   -3007.62636924 Ry

     The total energy is F=E-TS. E is the sum of the following terms:
     one-electron contribution =  -22338.61430145 Ry
     hartree contribution      =   11271.10065565 Ry
     xc contribution           =    -502.08227230 Ry
     ewald contribution        =    8561.96668762 Ry
     electric field correction =       0.00286123 Ry

     convergence has been achieved in  96 iterations

     Forces acting on atoms (cartesian axes, Ry/au):

     atom    1 type  1   force =    -0.00027485   -0.00000956    0.09252368
     atom    2 type  1   force =    -0.00013157    0.00114349   -0.18324898
     atom    3 type  2   force =     0.00055020   -0.00040344   -0.02388521
     atom    4 type  2   force =     0.00079862    0.00021113    0.05086629
     atom    5 type  2   force =    -0.01550582   -0.00014291    0.00436296
     atom    6 type  2   force =     0.01421897   -0.00032777    0.00504688
     atom    7 type  1   force =    -0.00011053    0.00020960    0.00006119
     atom    8 type  1   force =    -0.00007605    0.00016467   -0.00000023
     atom    9 type  2   force =     0.00007402    0.00004466    0.00012964
     atom   10 type  2   force =    -0.00000051    0.00001674   -0.00005144
     atom   11 type  2   force =     0.00017355    0.00001394   -0.00013758
     atom   12 type  2   force =     0.00004076    0.00003200   -0.00006416
     atom   13 type  1   force =     0.00016324    0.00011934   -0.00003569
     atom   14 type  1   force =     0.00027225    0.00017540   -0.00011338
     atom   15 type  2   force =     0.00028459    0.00039301    0.00000627
     atom   16 type  2   force =     0.00014620   -0.00001665    0.00022649
     atom   17 type  2   force =    -0.00004502    0.00019254    0.00008882
     atom   18 type  2   force =     0.00022712    0.00000264    0.00033776
     atom   19 type  1   force =     0.00018798   -0.00014583    0.00005154
     atom   20 type  1   force =     0.00007318   -0.00024575   -0.00009260
     atom   21 type  2   force =     0.00002940    0.00001522    0.10487484
     atom   22 type  2   force =     0.00006063   -0.00008014    0.00006220
     atom   23 type  2   force =    -0.06803125   -0.00011510   -0.02683738
     atom   24 type  2   force =     0.06789535    0.00034272   -0.02688037
     atom   25 type  1   force =    -0.00011875   -0.00002740    0.09598219
     atom   26 type  1   force =    -0.00011209   -0.00143691   -0.18316625
     atom   27 type  2   force =     0.00050073   -0.00019373   -0.02268844
     atom   28 type  2   force =     0.00086526    0.00017957    0.05126072
     atom   29 type  2   force =    -0.01541996    0.00050158    0.00453577
     atom   30 type  2   force =     0.01417361    0.00078080    0.00523657
     atom   31 type  1   force =    -0.00010153    0.00005285    0.00000233
     atom   32 type  1   force =    -0.00007859    0.00016169   -0.00004140
     atom   33 type  2   force =     0.00012460   -0.00002919    0.00017881
     atom   34 type  2   force =     0.00000033    0.00007460    0.00002918
     atom   35 type  2   force =     0.00013063   -0.00000381   -0.00003588
     atom   36 type  2   force =     0.00008506   -0.00000510    0.00008598
     atom   37 type  1   force =     0.00015901    0.00006705   -0.00010932
     atom   38 type  1   force =     0.00015473   -0.00004139    0.00003608
     atom   39 type  2   force =     0.00018767   -0.00008948   -0.00019665
     atom   40 type  2   force =     0.00002024   -0.00018092    0.00002791
     atom   41 type  2   force =     0.00014585   -0.00004646    0.00003550
     atom   42 type  2   force =    -0.00000869    0.00002934    0.00018620
     atom   43 type  1   force =     0.00024423   -0.00017486    0.00115801
     atom   44 type  1   force =    -0.00003949    0.00033968    0.00046769
     atom   45 type  2   force =     0.00003466    0.00001913    0.10480600
     atom   46 type  2   force =    -0.06804233   -0.00051016   -0.02682711
     atom   47 type  2   force =     0.06790356   -0.00008689   -0.02690505
     atom   48 type  3   force =    -0.00008453   -0.00006555   -0.00031892
     atom   49 type  2   force =    -0.00032088   -0.00011677    0.00013724
     atom   50 type  4   force =    -0.00010411   -0.00041168    0.00007560
     atom   51 type  4   force =     0.00011341   -0.00012982    0.00006644
     atom   52 type  4   force =     0.00032203   -0.00034789    0.00009610
     atom   53 type  4   force =     0.00010183    0.00014777   -0.00015560
     atom   54 type  5   force =    -0.00064306   -0.00007431   -0.00066655
     atom   55 type  5   force =     0.00008069    0.00003497   -0.00021943
     atom   56 type  2   force =    -0.00142898    0.00009311    0.00064404
     atom   57 type  4   force =     0.00192928    0.00001336   -0.00161208
     atom   58 type  4   force =    -0.00179490   -0.00011306    0.00060278

     Total force =     0.368171     Total SCF correction =     0.000645
  @ DRIVER MODE: Message from server: STATUS
  @ DRIVER MODE: Message from server: GETFORCE
  @ DRIVER MODE: Returning v,forces,stress,ensemble

     Writing output data file ./calc.save/
  @ DRIVER MODE: Message from server: EXIT
  @ DRIVE MODE: Exiting

     General routines

     Parallel routines

   This run was terminated on:   0:27:34  29Sep2021

   JOB DONE.