     Program PWSCF v.6.7GPU starts on 26Jul2021 at 22:19:19

     R & G space division:  proc/nbgrp/npool/nimage =      16
     Reading input from /storage/home/hcoda1/3/ntian30/research/carbon/15Jul_vib/ads_slab/CH3NHHH_a/out_0004/pw.inp
Warning: card &CELL ignored
Warning: card   CELL_DYNAMICS='IPI', ignored
Warning: card / ignored

     Current dimensions of program PWSCF are:
     Max number of different atomic species (ntypx) = 10
     Max number of k-points (npk) =  40000
     Max angular momentum in pseudopotentials (lmaxx) =  3
     Presently no symmetry can be used with electric field

     Message from routine cell_base_init:
     DEPRECATED: use true lattice parameter, not A to a.u. conversion factor

     IMPORTANT: XC functional enforced from input :
     Exchange-correlation= BEEF-VDW
                           (   1   4  43  14   2   0   0)
     Any further DFT definition will be discarded
     Please, verify this is what you really want

  @ DRIVER MODE: Connecting to
 qe_1139763_2431568.sched-torque.pace.gatech.eduguxs33a3_scratch
  using UNIX socket
  @ DRIVER MODE: Message from server: STATUS
  @ DRIVER MODE: Message from server: INIT
  @ DRIVER MODE: Receiving replica           0          -1
  @ DRIVER MODE: Receiving encoded integer          25
  @ DRIVER MODE:  SCF:  T  FORCE:  T  STRESS:  F  VC:  F  ENSEMBLE:  F
  @ DRIVER MODE:  SCF:  T  FORCE:  T  STRESS:  F  VC:  F  ENSEMBLE:  F

     Using Slab Decomposition

     bravais-lattice index     =            0
     lattice parameter (alat)  =       1.8897  a.u.
     unit-cell volume          =    6658.9804 (a.u.)^3
     number of atoms/cell      =           55
     number of atomic types    =            5
     number of electrons       =       393.00
     number of Kohn-Sham states=          206
     kinetic-energy cutoff     =      29.3995  Ry
     charge density cutoff     =     293.9946  Ry
     scf convergence threshold =      7.3E-08
     mixing beta               =       0.0500
     number of iterations used =            8  plain     mixing
     Exchange-correlation= BEEF-VDW
                           (   1   4  43  14   2   0   0)

     celldm(1)=   1.889726  celldm(2)=   0.000000  celldm(3)=   0.000000
     celldm(4)=   0.000000  celldm(5)=   0.000000  celldm(6)=   0.000000

     crystal axes: (cart. coord. in units of alat)
               a(1) = (   6.579727   0.000000   0.000000 )
               a(2) = (  -0.000775   5.961596   0.000000 )
               a(3) = (   0.000000   0.000000  25.155947 )

     reciprocal axes: (cart. coord. in units 2 pi/alat)
               b(1) = (  0.151982  0.000020  0.000000 )
               b(2) = (  0.000000  0.167740  0.000000 )
               b(3) = (  0.000000  0.000000  0.039752 )

     PseudoPot. # 1 for Ti read from file:
     /storage/coda1/p-amedford6/0/shared/rich_project_chbe-medford/medford-share/data/pseudos_module/espresso/nninc/pbe/van/Ti.UPF
     MD5 check sum: 8e4df49b7f0d34bbd5052bf3f5ea0213
     Pseudo is Ultrasoft, Zval = 12.0
     Generated by new atomic code, or converted to UPF format
     Using radial grid of  851 points,  6 beta functions with:
                l(1) =   0
                l(2) =   0
                l(3) =   1
                l(4) =   1
                l(5) =   2
                l(6) =   2
     Q(r) pseudized with  8 coefficients,  rinner =    1.000   1.000   1.000
                                                       1.000   1.000

     PseudoPot. # 2 for O  read from file:
     /storage/coda1/p-amedford6/0/shared/rich_project_chbe-medford/medford-share/data/pseudos_module/espresso/nninc/pbe/van/O.UPF
     MD5 check sum: 78c19812648e8988a0fe644b0f25305e
     Pseudo is Ultrasoft, Zval =  6.0
     Generated by new atomic code, or converted to UPF format
     Using radial grid of  737 points,  4 beta functions with:
                l(1) =   0
                l(2) =   0
                l(3) =   1
                l(4) =   1
     Q(r) pseudized with  8 coefficients,  rinner =    0.800   0.800   0.800

     PseudoPot. # 3 for N  read from file:
     /storage/coda1/p-amedford6/0/shared/rich_project_chbe-medford/medford-share/data/pseudos_module/espresso/nninc/pbe/van/N.UPF
     MD5 check sum: 90d10febe142ad51ac9d5be1deb811c4
     Pseudo is Ultrasoft, Zval =  5.0
     Generated by new atomic code, or converted to UPF format
     Using radial grid of  729 points,  4 beta functions with:
                l(1) =   0
                l(2) =   0
                l(3) =   1
                l(4) =   1
     Q(r) pseudized with  8 coefficients,  rinner =    0.800   0.800   0.800

     PseudoPot. # 4 for C  read from file:
     /storage/coda1/p-amedford6/0/shared/rich_project_chbe-medford/medford-share/data/pseudos_module/espresso/nninc/pbe/van/C.UPF
     MD5 check sum: 1a69bf6b8db32088f5b2163dbdb77a27
     Pseudo is Ultrasoft, Zval =  4.0
     Generated by new atomic code, or converted to UPF format
     Using radial grid of  721 points,  4 beta functions with:
                l(1) =   0
                l(2) =   0
                l(3) =   1
                l(4) =   1
     Q(r) pseudized with  8 coefficients,  rinner =    0.800   0.800   0.800

     PseudoPot. # 5 for H  read from file:
     /storage/coda1/p-amedford6/0/shared/rich_project_chbe-medford/medford-share/data/pseudos_module/espresso/nninc/pbe/van/H.UPF
     MD5 check sum: b5ee9d7bfd3a09ee7748110bda690ff7
     Pseudo is Ultrasoft, Zval =  1.0
     Generated by new atomic code, or converted to UPF format
     Using radial grid of  615 points,  1 beta functions with:
                l(1) =   0
     Q(r) pseudized with  8 coefficients,  rinner =    0.800

     atomic species   valence    mass     pseudopotential
        Ti1           12.00    47.86700     Ti( 1.00)
        O1             6.00    15.99900     O ( 1.00)
        N1             5.00    14.00700     N ( 1.00)
        C1             4.00    12.01100     C ( 1.00)
        H1             1.00     1.00800     H ( 1.00)

     Starting magnetic structure
     atomic species   magnetization
        Ti1          0.000
        O1           0.000
        N1           0.040
        C1           0.025
        H1           0.000

     No symmetry found

   Cartesian axes

     site n.     atom                  positions (alat units)
         1           Ti1 tau(   1) = (   0.0004258   2.9801865   6.0000000  )
         2           Ti1 tau(   2) = (   3.2906075   1.4906267   6.0002472  )
         3           O1  tau(   3) = (   0.0006271   0.0005054   7.9858123  )
         4           O1  tau(   4) = (   3.2906025   0.0005020   7.3038282  )
         5           O1  tau(   5) = (   4.5942328   1.4918067   9.2879030  )
         6           O1  tau(   6) = (   1.9868534   1.4903216   9.2879459  )
         7           Ti1 tau(   7) = (   3.2907910   2.8959150   9.1758416  )
         8           Ti1 tau(   8) = (   0.0015273   1.4827037   9.2680791  )
         9           O1  tau(   9) = (   3.2636084   5.9406443  11.4082010  )
        10           O1  tau(  10) = (   0.0116148   5.9584955  10.6183126  )
        11           O1  tau(  11) = (   1.2642105   1.4849797  12.6947803  )
        12           O1  tau(  12) = (   5.2691575   1.4821021  12.6650678  )
        13           Ti1 tau(  13) = (   6.5574234   2.9640577  12.4921542  )
        14           Ti1 tau(  14) = (   3.2619390   1.4709553  12.5527290  )
        15           O1  tau(  15) = (   6.5247406   5.9594380  14.6832748  )
        16           O1  tau(  16) = (   3.2695906   5.9428997  14.0562986  )
        17           O1  tau(  17) = (   4.5175969   1.4707097  16.2986306  )
        18           O1  tau(  18) = (   1.9406912   1.4777946  16.2473769  )
        19           Ti1 tau(  19) = (   3.2491105   2.9422209  15.8109686  )
        20           Ti1 tau(  20) = (   6.5361480   1.3378720  15.9626387  )
        21           O1  tau(  21) = (   3.2904802   0.0005063   4.7018136  )
        22           O1  tau(  22) = (   6.5280740   5.8897732  17.4332532  )
        23           O1  tau(  23) = (   1.3043587   1.4918075   6.0039043  )
        24           O1  tau(  24) = (   5.2767064   1.4903225   6.0039473  )
        25           Ti1 tau(  25) = (   0.0000382   5.9609847   6.0000000  )
        26           Ti1 tau(  26) = (   3.2902200   4.4714249   6.0002472  )
        27           O1  tau(  27) = (   0.0002396   2.9813036   7.9858123  )
        28           O1  tau(  28) = (   3.2902150   2.9813002   7.3038282  )
        29           O1  tau(  29) = (   4.5938453   4.4726049   9.2879030  )
        30           O1  tau(  30) = (   1.9864658   4.4711199   9.2879459  )
        31           Ti1 tau(  31) = (   3.2891106   5.8743827   9.1763621  )
        32           Ti1 tau(  32) = (   0.0006254   4.4649316   9.2693709  )
        33           O1  tau(  33) = (   3.2649920   2.9642658  11.3997388  )
        34           O1  tau(  34) = (   0.0092240   2.9805883  10.6323155  )
        35           O1  tau(  35) = (   1.2634527   4.4478426  12.7061968  )
        36           O1  tau(  36) = (   5.2693862   4.4495813  12.6755241  )
        37           Ti1 tau(  37) = (   6.5522441   5.9483113  12.5008436  )
        38           Ti1 tau(  38) = (   3.2626494   4.4468850  12.5575576  )
        39           O1  tau(  39) = (   6.4970557   2.9363996  15.0046851  )
        40           O1  tau(  40) = (   3.2722650   2.9529576  14.0194401  )
        41           O1  tau(  41) = (   4.5170401   4.4205294  16.2730734  )
        42           O1  tau(  42) = (   1.9466746   4.4191161  16.2235312  )
        43           Ti1 tau(  43) = (   3.2419262   5.9323414  15.8513663  )
        44           Ti1 tau(  44) = (   6.5549466   4.5556212  15.8889459  )
        45           O1  tau(  45) = (   3.2900926   2.9813045   4.7018136  )
        46           O1  tau(  46) = (   1.3039711   4.4726057   6.0039043  )
        47           O1  tau(  47) = (   5.2763189   4.4711207   6.0039473  )
        48           N1  tau(  48) = (   4.8657738   4.5898987  19.4796958  )
        49           C1  tau(  49) = (   5.7271871   3.4329544  19.8049648  )
        50           H1  tau(  50) = (   6.3241292   3.1721029  18.9298488  )
        51           H1  tau(  51) = (   6.4229137   3.7195585  20.5942015  )
        52           H1  tau(  52) = (   5.1874390   2.5328885  20.1195193  )
        53           H1  tau(  53) = (   5.9066942   5.7389963  18.1772939  )
        54           H1  tau(  54) = (   4.2103208   4.3266459  18.7469397  )
        55           H1  tau(  55) = (   4.3187305   4.8545830  20.2870342  )

     number of k points=    10  Fermi-Dirac smearing, width (Ry)=  0.0073
                       cart. coord. in units 2pi/alat
        k(    1) = (   0.0000000   0.0000000   0.0000000), wk =   0.0625000
        k(    2) = (   0.0000000   0.0419351   0.0000000), wk =   0.1250000
        k(    3) = (   0.0000000  -0.0838702   0.0000000), wk =   0.0625000
        k(    4) = (   0.0379955   0.0000049   0.0000000), wk =   0.1250000
        k(    5) = (   0.0379955   0.0419400   0.0000000), wk =   0.1250000
        k(    6) = (   0.0379955  -0.0838652   0.0000000), wk =   0.1250000
[...]

     Initial potential from superposition of free atoms

     starting charge  376.99914, renormalised to  393.00000

     negative rho (up, down):  6.644E-03 6.646E-03

     %%%%%%%%%%%%%%%%%%%%%%%%%%%%%%%%%%%%%%%%%%%%%%%%%%%%%%%%%%%%%%%%%%%%%%%%
     %                                                                      %
     % You are using vdW-DF, which was implemented by the Thonhauser group. %
     % Please cite the following two papers that made this development      %
     % possible and the two reviews that describe the various versions:     %
     %                                                                      %
     %   T. Thonhauser et al., PRL 115, 136402 (2015).                      %
     %   T. Thonhauser et al., PRB 76, 125112 (2007).                       %
     %   K. Berland et al., Rep. Prog. Phys. 78, 066501 (2015).             %
     %   D.C. Langreth et al., J. Phys.: Condens. Matter 21, 084203 (2009). %
     %                                                                      %
     %                                                                      %
     % If you are calculating the stress with vdW-DF, please also cite:     %
     %                                                                      %
     %   R. Sabatini et al., J. Phys.: Condens. Matter 24, 424209 (2012).   %
     %                                                                      %
     %%%%%%%%%%%%%%%%%%%%%%%%%%%%%%%%%%%%%%%%%%%%%%%%%%%%%%%%%%%%%%%%%%%%%%%%

     Adding external electric field

     Computed dipole along edir(3) :
        Dipole               -9.4918 Ry au,        -24.1257 Debye
        Dipole field         -0.0179 Ry au,

        Potential amp.        1.6604 Ry
        Total length         46.3494 bohr

[...]

     Starting wfcs are  298 atomic wfcs
  @ DRIVER MODE: Message from server: STATUS
  @ DRIVER MODE: Message from server: POSDATA
  @ DRIVER MODE: Reading and sharing cell
  @ DRIVER MODE: Reading and sharing positions
  @ DRIVER MODE: Received positions

     Self-consistent Calculation

     iteration #  1     ecut=    29.40 Ry     beta= 0.05
     Davidson diagonalization with overlap
     c_bands:  2 eigenvalues not converged
     c_bands:  1 eigenvalues not converged
     c_bands:  2 eigenvalues not converged
     c_bands:  3 eigenvalues not converged
     c_bands:  3 eigenvalues not converged
     c_bands:  1 eigenvalues not converged
     c_bands:  2 eigenvalues not converged
     c_bands:  1 eigenvalues not converged
     c_bands:  2 eigenvalues not converged
     c_bands:  3 eigenvalues not converged
     c_bands:  3 eigenvalues not converged
     c_bands:  1 eigenvalues not converged
     ethr =  1.00E-05,  avg # of iterations = 18.9

[...]

     total energy              =   -2620.52818019 Ry
     estimated scf accuracy    <    3389.56616385 Ry

     total magnetization       =     0.00 Bohr mag/cell
     absolute magnetization    =     0.01 Bohr mag/cell

[...]

     iteration #  3     ecut=    29.40 Ry     beta= 0.05
     Davidson diagonalization with overlap
     ethr =  1.00E-02,  avg # of iterations = 15.2

[...]

     iteration #131     ecut=    29.40 Ry     beta= 0.05
     Davidson diagonalization with overlap
     ethr =  1.98E-11,  avg # of iterations =  1.8

[...]

     total energy              =   -2922.77417610 Ry
     estimated scf accuracy    <       0.00000009 Ry

[...]

     iteration #134     ecut=    29.40 Ry     beta= 0.05
     Davidson diagonalization with overlap
     c_bands:  1 eigenvalues not converged
     c_bands:  1 eigenvalues not converged
     ethr =  1.88E-11,  avg # of iterations = 13.0

     negative rho (up, down):  7.251E-03 7.254E-03

[...]

     Adding external electric field

     Computed dipole along edir(3) :
        Dipole                1.4076 Ry au,          3.5777 Debye
        Dipole field          0.0027 Ry au,

        Potential amp.       -0.2462 Ry
        Total length         46.3494 bohr

     Magnetic moment per site  (integrated on atomic sphere of radius R)
     atom   1 (R=0.739)  charge=  8.0547  magn=  0.0032
     atom   2 (R=0.739)  charge=  8.0362  magn=  0.0001
     atom   3 (R=0.405)  charge=  2.0075  magn= -0.0004
     atom   4 (R=0.405)  charge=  2.0190  magn= -0.0000
     atom   5 (R=0.405)  charge=  2.0104  magn= -0.0001
     atom   6 (R=0.405)  charge=  2.0107  magn= -0.0001
     atom   7 (R=0.739)  charge=  8.0371  magn=  0.0005
     atom   8 (R=0.739)  charge=  8.0393  magn=  0.0079
     atom   9 (R=0.405)  charge=  2.0112  magn= -0.0002
     atom  10 (R=0.405)  charge=  2.0118  magn= -0.0003
     atom  11 (R=0.405)  charge=  2.0092  magn= -0.0002
     atom  12 (R=0.405)  charge=  2.0092  magn= -0.0002
     atom  13 (R=0.739)  charge=  8.0499  magn=  0.0032
     atom  14 (R=0.739)  charge=  8.0432  magn=  0.0028
     atom  15 (R=0.405)  charge=  2.0128  magn= -0.0001
     atom  16 (R=0.405)  charge=  2.0108  magn= -0.0001
     atom  17 (R=0.405)  charge=  2.0009  magn=  0.0000
     atom  18 (R=0.405)  charge=  2.0012  magn=  0.0000
     atom  19 (R=0.739)  charge=  8.0824  magn=  0.0001
     atom  20 (R=0.739)  charge=  8.1004  magn=  0.0008
     atom  21 (R=0.405)  charge=  1.9825  magn= -0.0000
     atom  22 (R=0.405)  charge=  2.0201  magn= -0.0000
     atom  23 (R=0.405)  charge=  2.0078  magn= -0.0001
     atom  24 (R=0.405)  charge=  2.0078  magn= -0.0001
     atom  25 (R=0.739)  charge=  8.0548  magn=  0.0032
     atom  26 (R=0.739)  charge=  8.0362  magn=  0.0001
     atom  27 (R=0.405)  charge=  2.0075  magn= -0.0004
     atom  28 (R=0.405)  charge=  2.0191  magn= -0.0000
     atom  29 (R=0.405)  charge=  2.0107  magn= -0.0001
     atom  30 (R=0.405)  charge=  2.0109  magn= -0.0001
     atom  31 (R=0.739)  charge=  8.0372  magn=  0.0005
     atom  32 (R=0.739)  charge=  8.0393  magn=  0.0078
     atom  33 (R=0.405)  charge=  2.0120  magn= -0.0002
     atom  34 (R=0.405)  charge=  2.0122  magn= -0.0003
     atom  35 (R=0.405)  charge=  2.0082  magn= -0.0002
     atom  36 (R=0.405)  charge=  2.0092  magn= -0.0002
     atom  37 (R=0.739)  charge=  8.0419  magn=  0.0034
     atom  38 (R=0.739)  charge=  8.0432  magn=  0.0028
     atom  39 (R=0.405)  charge=  2.0116  magn= -0.0000
     atom  40 (R=0.405)  charge=  2.0126  magn= -0.0001
     atom  41 (R=0.405)  charge=  2.0020  magn=  0.0000
     atom  42 (R=0.405)  charge=  2.0020  magn=  0.0000
     atom  43 (R=0.739)  charge=  8.0813  magn= -0.0001
     atom  44 (R=0.739)  charge=  8.1023  magn=  0.0007
     atom  45 (R=0.405)  charge=  1.9825  magn= -0.0000
     atom  46 (R=0.405)  charge=  2.0078  magn= -0.0001
     atom  47 (R=0.405)  charge=  2.0078  magn= -0.0001
     atom  48 (R=0.417)  charge=  1.3144  magn= -0.0000
     atom  49 (R=0.450)  charge=  0.8480  magn= -0.0000
     atom  50 (R=0.405)  charge=  0.4136  magn=  0.0000
     atom  51 (R=0.405)  charge=  0.4139  magn=  0.0000
     atom  52 (R=0.405)  charge=  0.4125  magn=  0.0000
     atom  53 (R=0.405)  charge=  0.3971  magn=  0.0000
     atom  54 (R=0.405)  charge=  0.4193  magn=  0.0000
     atom  55 (R=0.405)  charge=  0.4277  magn=  0.0000

     End of self-consistent calculation

 ------ SPIN UP ------------

          k = 0.0000 0.0000 0.0000 ( 18029 PWs)   bands (ev):

   -55.3093 -55.2735 -55.2573 -55.2232 -55.1734 -55.1470 -55.1453 -55.1391
   -55.1126 -55.0888 -55.0712 -55.0549 -55.0296 -54.9715 -54.2988 -54.2647
   -31.8749 -31.7501 -31.6872 -31.6611 -31.6347 -31.6150 -31.5954 -31.5483
   -31.5462 -31.5451 -31.5167 -31.5032 -31.5021 -31.4770 -31.4651 -31.4616
   -31.4482 -31.4365 -31.4101 -31.4023 -31.3950 -31.3791 -31.3714 -31.3560
   -31.3509 -31.3150 -31.3145 -31.3056 -31.3007 -31.2897 -31.2892 -31.2830
   -31.2761 -31.2740 -31.2587 -31.2554 -31.2229 -31.2179 -31.1998 -31.1985
   -31.1796 -31.1051 -30.7088 -30.6125 -30.5905 -30.5248 -30.4379 -30.3274
   -16.8206 -16.1451 -15.8889 -15.7680 -15.6588 -15.5643 -15.5185 -15.4391
   -15.3553 -15.2547 -15.1930 -15.0882 -15.0540 -15.0140 -14.9996 -14.9803
   -14.9531 -14.8736 -14.8625 -14.8515 -14.8260 -14.8081 -14.7799 -14.7706
   -14.7641 -14.7249 -14.6877 -14.5748 -14.4846 -14.3994 -12.8017 -12.6840
   -10.0185  -5.8467  -4.7369  -4.3966  -3.4981  -3.4674  -3.3417  -3.2365
    -3.2030  -3.1946  -3.0744  -2.8912  -2.7959  -2.7691  -2.7038  -2.6278
    -2.5321  -2.5280  -2.4877  -2.3873  -2.3497  -2.3230  -2.2397  -2.2129
    -2.1666  -2.1158  -2.1054  -2.1022  -2.0818  -2.0410  -2.0026  -1.8837
    -1.7991  -1.7770  -1.7033  -1.6870  -1.6810  -1.6530  -1.6100  -1.5909
    -1.5413  -1.5243  -1.4837  -1.4149  -1.3538  -1.2712  -1.2345  -1.1975
    -0.9911  -0.9626  -0.9120  -0.9095  -0.8810  -0.8127  -0.7829  -0.7533
    -0.6878  -0.6849  -0.6566  -0.5503  -0.5076  -0.3868  -0.3163  -0.2364
    -0.1149  -0.1018  -0.0781  -0.0281  -0.0045   0.0553   0.1149   0.1520
     0.1912   0.2039   0.2913   0.3192   0.3917   0.4068   0.4402   0.5128
     0.5266   0.5534   0.5655   0.5858   0.6199   0.6358   0.6700   0.7367
     0.7689   0.8704   0.9190   1.2029   1.2880   1.5973   1.6203   1.7237
     1.9049   2.3021   2.3511   3.7803   3.8460   3.8892   3.9302   3.9333
     4.0152   4.1470   4.2888   4.2988   4.3101   4.3169

[...]

          k =-0.0760-0.0000 0.0000 ( 17886 PWs)   bands (ev):

[...]

 ------ SPIN DOWN ----------

[...]

          k = 0.0380-0.0419 0.0000 ( 17876 PWs)   bands (ev):

[...]

          k =-0.0760-0.0839 0.0000 ( 17948 PWs)   bands (ev):

   -55.2872 -55.2843 -55.2361 -55.2353 -55.1504 -55.1496 -55.1416 -55.1308
   -55.1265 -55.0749 -55.0593 -55.0567 -55.0217 -54.9777 -54.2815 -54.2815
   -31.6797 -31.6746 -31.5853 -31.5798 -31.5636 -31.5630 -31.5531 -31.5254
   -31.5247 -31.5042 -31.4998 -31.4976 -31.4856 -31.4603 -31.4554 -31.4513
   -31.4261 -31.4246 -31.4189 -31.4013 -31.3728 -31.3707 -31.3658 -31.3623
   -31.3612 -31.3554 -31.3546 -31.3448 -31.3432 -31.3390 -31.3353 -31.3211
   -31.3185 -31.3026 -31.2995 -31.2913 -31.2627 -31.2414 -31.2374 -31.2352
   -31.2232 -31.1704 -30.6030 -30.6030 -30.5211 -30.5211 -30.4813 -30.4811
   -16.7591 -15.8182 -15.5662 -15.5372 -15.4972 -15.4026 -15.3289 -15.2979
   -15.2877 -15.2747 -15.1485 -15.1205 -15.1111 -15.0830 -15.0510 -15.0266
   -15.0228 -14.9877 -14.9307 -14.9246 -14.9168 -14.9085 -14.8448 -14.8366
   -14.8328 -14.8260 -14.7605 -14.7581 -14.6761 -14.6741 -12.7854 -12.7854
   -10.0283  -5.8470  -4.8647  -4.3783  -3.5037  -2.8212  -2.7941  -2.7433
    -2.7195  -2.6100  -2.5250  -2.4980  -2.4615  -2.4030  -2.3512  -2.3039
    -2.3019  -2.2664  -2.2465  -2.2278  -2.1842  -2.1626  -2.1402  -2.1218
    -2.1072  -2.0535  -2.0504  -2.0412  -2.0173  -1.9830  -1.9657  -1.9525
    -1.9361  -1.9178  -1.8922  -1.8730  -1.7298  -1.7089  -1.6685  -1.5515
    -1.5334  -1.5300  -1.4969  -1.4531  -1.4282  -1.4206  -1.3469  -1.3397
    -1.3067  -1.1499  -1.0779  -1.0761  -1.0528  -1.0290  -0.9337  -0.8822
    -0.8417  -0.7920  -0.7164  -0.6847  -0.6662  -0.5936  -0.5667  -0.4752
    -0.3859  -0.3589  -0.3507  -0.2735  -0.2720  -0.2383  -0.2253  -0.1564
    -0.0961  -0.0444  -0.0404  -0.0365   0.0922   0.1292   0.2094   0.3234
     0.4037   0.4120   0.4608   0.5235   0.5807   0.6489   0.6624   0.7902
     0.7922   0.9786   0.9819   1.0300   1.0451   1.1257   1.1308   2.0778
     2.0785   2.1709   2.1713   3.7646   3.9468   4.0011   4.0772   4.1022
     4.1983   4.2836   4.3177   4.3470   4.3687   4.3746

     the Fermi energy is     3.8565 ev

!    total energy              =   -2922.77417630 Ry
     estimated scf accuracy    <       0.00000007 Ry
     smearing contrib. (-TS)   =      -0.04551238 Ry
     internal energy E=F+TS    =   -2922.72866392 Ry

     The total energy is F=E-TS. E is the sum of the following terms:
     one-electron contribution =  -23201.57049308 Ry
     hartree contribution      =   11691.09348944 Ry
     xc contribution           =    -482.54313343 Ry
     ewald contribution        =    9070.28773422 Ry
     electric field correction =       0.00373892 Ry

     total magnetization       =     0.05 Bohr mag/cell
     absolute magnetization    =     0.07 Bohr mag/cell

     convergence has been achieved in 134 iterations

     Forces acting on atoms (cartesian axes, Ry/au):

     atom    1 type  1   force =     0.00017106   -0.00009031    0.09306203
     atom    2 type  1   force =     0.00000854   -0.00016072   -0.17884707
     atom    3 type  2   force =     0.00002412   -0.00029869   -0.02024613
     atom    4 type  2   force =    -0.00000080   -0.00223532    0.06097915
     atom    5 type  2   force =    -0.01150202   -0.00128141    0.01054269
     atom    6 type  2   force =     0.01241426   -0.00058651    0.00810628
     atom    7 type  1   force =    -0.00122414    0.00344201   -0.01489798
     atom    8 type  1   force =     0.00122820   -0.00358533   -0.00843181
     atom    9 type  2   force =     0.00001080   -0.00005220   -0.00025956
     atom   10 type  2   force =    -0.00281473   -0.00048082    0.00153864
     atom   11 type  2   force =     0.00012879   -0.00023330   -0.00027997
     atom   12 type  2   force =    -0.00000864    0.00009002   -0.00009274
     atom   13 type  1   force =    -0.00019645   -0.00031317   -0.00063098
     atom   14 type  1   force =    -0.00005170   -0.00004884    0.00024541
     atom   15 type  2   force =    -0.00011054   -0.00024050   -0.00011426
     atom   16 type  2   force =     0.00032728    0.00034999   -0.00008677
     atom   17 type  2   force =     0.00077673    0.00030025   -0.00025802
     atom   18 type  2   force =     0.00010354   -0.00026121   -0.00003723
     atom   19 type  1   force =     0.00025362    0.00043190   -0.00049967
     atom   20 type  1   force =     0.00011676   -0.00001800    0.00046709
     atom   21 type  2   force =     0.00012784   -0.00002835    0.10425006
     atom   22 type  2   force =    -0.00040453    0.00018030   -0.00002667
     atom   23 type  2   force =    -0.06991421   -0.00011111   -0.02678812
     atom   24 type  2   force =     0.06988711    0.00034988   -0.02678617
     atom   25 type  1   force =     0.00018638   -0.00019200    0.09236228
     atom   26 type  1   force =    -0.00006984   -0.00036016   -0.17903650
     atom   27 type  2   force =     0.00004260   -0.00025943   -0.01898021
     atom   28 type  2   force =     0.00006498   -0.00193362    0.06023268
     atom   29 type  2   force =    -0.01169159   -0.00162607    0.01033852
     atom   30 type  2   force =     0.01247636   -0.00120924    0.00786885
     atom   31 type  1   force =    -0.00101463    0.00609029   -0.01575925
     atom   32 type  1   force =     0.00118687    0.00333801   -0.00864381
     atom   33 type  2   force =     0.00002775    0.00019982   -0.00024674
     atom   34 type  2   force =    -0.00240781   -0.00053977    0.00059575
     atom   35 type  2   force =     0.00001243   -0.00000083    0.00006252
     atom   36 type  2   force =     0.00002556   -0.00007408    0.00037632
     atom   37 type  1   force =     0.00035140   -0.00004015   -0.00008619
     atom   38 type  1   force =    -0.00036327   -0.00032122    0.00048387
     atom   39 type  2   force =     0.00035939   -0.00014566    0.00063840
     atom   40 type  2   force =     0.00025182   -0.00017406    0.00005569
     atom   41 type  2   force =     0.00005978    0.00032572   -0.00039916
     atom   42 type  2   force =     0.00051372    0.00020460   -0.00018109
     atom   43 type  1   force =     0.00024142   -0.00021192   -0.00037059
     atom   44 type  1   force =     0.00016144   -0.00119054    0.00061715
     atom   45 type  2   force =     0.00012207   -0.00005297    0.10421244
     atom   46 type  2   force =    -0.06992678   -0.00005416   -0.02677543
     atom   47 type  2   force =     0.06991636    0.00034767   -0.02679440
     atom   48 type  3   force =     0.00529616   -0.01065134   -0.00652482
     atom   49 type  4   force =    -0.00085027    0.00660137   -0.00107809
     atom   50 type  5   force =    -0.00035659    0.00050454   -0.00011901
     atom   51 type  5   force =    -0.00068925   -0.00048568    0.00018944
     atom   52 type  5   force =    -0.00105951    0.00077263   -0.00007260
     atom   53 type  5   force =     0.00005495    0.00084340   -0.00088506
     atom   54 type  5   force =     0.00127392    0.00260324    0.00220487
     atom   55 type  5   force =    -0.00354671    0.00257307    0.00480594

     Total force =     0.368028     Total SCF correction =     0.000230
  @ DRIVER MODE: Message from server: STATUS
  @ DRIVER MODE: Message from server: GETFORCE
  @ DRIVER MODE: Returning v,forces,stress,ensemble

     Writing output data file ./calc.save/
  @ DRIVER MODE: Message from server: EXIT
  @ DRIVE MODE: Exiting

     General routines

     Parallel routines

   This run was terminated on:  23:17: 4  26Jul2021

   JOB DONE.