     Program PWSCF v.6.7GPU starts on 15Sep2021 at 21:48:40

     R & G space division:  proc/nbgrp/npool/nimage =      10
     Reading input from /storage/home/hcoda1/3/ntian30/research/carbon/CxH_vib/H2O_calc/ads_slab/CH3NHNHH2O_a/out_0019/pw.inp
Warning: card &CELL ignored
Warning: card   CELL_DYNAMICS='IPI', ignored
Warning: card / ignored

     Current dimensions of program PWSCF are:
     Max number of different atomic species (ntypx) = 10
     Max number of k-points (npk) =  40000
     Max angular momentum in pseudopotentials (lmaxx) =  3
     Presently no symmetry can be used with electric field

     Message from routine cell_base_init:
     DEPRECATED: use true lattice parameter, not A to a.u. conversion factor

     IMPORTANT: XC functional enforced from input :
     Exchange-correlation= BEEF-VDW
                           (   1   4  43  14   2   0   0)
     Any further DFT definition will be discarded
     Please, verify this is what you really want

  @ DRIVER MODE: Connecting to
 qe_1139763_2852620.sched-torque.pace.gatech.eduqg9zisxe_scratch
  using UNIX socket
  @ DRIVER MODE: Message from server: STATUS
  @ DRIVER MODE: Message from server: INIT
  @ DRIVER MODE: Receiving replica           0          -1
  @ DRIVER MODE: Receiving encoded integer          25
  @ DRIVER MODE:  SCF:  T  FORCE:  T  STRESS:  F  VC:  F  ENSEMBLE:  F
  @ DRIVER MODE:  SCF:  T  FORCE:  T  STRESS:  F  VC:  F  ENSEMBLE:  F

     Using Slab Decomposition

     bravais-lattice index     =            0
     lattice parameter (alat)  =       1.8897  a.u.
     unit-cell volume          =    6658.9804 (a.u.)^3
     number of atoms/cell      =           58
     number of atomic types    =            5
     number of electrons       =       405.00
     number of Kohn-Sham states=          212
     kinetic-energy cutoff     =      29.3995  Ry
     charge density cutoff     =     293.9946  Ry
     scf convergence threshold =      7.3E-08
     mixing beta               =       0.0500
     number of iterations used =            8  plain     mixing
     Exchange-correlation= BEEF-VDW
                           (   1   4  43  14   2   0   0)

     celldm(1)=   1.889726  celldm(2)=   0.000000  celldm(3)=   0.000000
     celldm(4)=   0.000000  celldm(5)=   0.000000  celldm(6)=   0.000000

     crystal axes: (cart. coord. in units of alat)
               a(1) = (   6.579727   0.000000   0.000000 )
               a(2) = (  -0.000775   5.961596   0.000000 )
               a(3) = (   0.000000   0.000000  25.155947 )

     reciprocal axes: (cart. coord. in units 2 pi/alat)
               b(1) = (  0.151982  0.000020  0.000000 )
               b(2) = (  0.000000  0.167740  0.000000 )
               b(3) = (  0.000000  0.000000  0.039752 )

     PseudoPot. # 1 for Ti read from file:
     /storage/coda1/p-amedford6/0/shared/rich_project_chbe-medford/medford-share/data/pseudos_module/espresso/nninc/pbe/van/Ti.UPF
     MD5 check sum: 8e4df49b7f0d34bbd5052bf3f5ea0213
     Pseudo is Ultrasoft, Zval = 12.0
     Generated by new atomic code, or converted to UPF format
     Using radial grid of  851 points,  6 beta functions with:
                l(1) =   0
                l(2) =   0
                l(3) =   1
                l(4) =   1
                l(5) =   2
                l(6) =   2
     Q(r) pseudized with  8 coefficients,  rinner =    1.000   1.000   1.000
                                                       1.000   1.000

     PseudoPot. # 2 for O  read from file:
     /storage/coda1/p-amedford6/0/shared/rich_project_chbe-medford/medford-share/data/pseudos_module/espresso/nninc/pbe/van/O.UPF
     MD5 check sum: 78c19812648e8988a0fe644b0f25305e
     Pseudo is Ultrasoft, Zval =  6.0
     Generated by new atomic code, or converted to UPF format
     Using radial grid of  737 points,  4 beta functions with:
                l(1) =   0
                l(2) =   0
                l(3) =   1
                l(4) =   1
     Q(r) pseudized with  8 coefficients,  rinner =    0.800   0.800   0.800

     PseudoPot. # 3 for N  read from file:
     /storage/coda1/p-amedford6/0/shared/rich_project_chbe-medford/medford-share/data/pseudos_module/espresso/nninc/pbe/van/N.UPF
     MD5 check sum: 90d10febe142ad51ac9d5be1deb811c4
     Pseudo is Ultrasoft, Zval =  5.0
     Generated by new atomic code, or converted to UPF format
     Using radial grid of  729 points,  4 beta functions with:
                l(1) =   0
                l(2) =   0
                l(3) =   1
                l(4) =   1
     Q(r) pseudized with  8 coefficients,  rinner =    0.800   0.800   0.800

     PseudoPot. # 4 for C  read from file:
     /storage/coda1/p-amedford6/0/shared/rich_project_chbe-medford/medford-share/data/pseudos_module/espresso/nninc/pbe/van/C.UPF
     MD5 check sum: 1a69bf6b8db32088f5b2163dbdb77a27
     Pseudo is Ultrasoft, Zval =  4.0
     Generated by new atomic code, or converted to UPF format
     Using radial grid of  721 points,  4 beta functions with:
                l(1) =   0
                l(2) =   0
                l(3) =   1
                l(4) =   1
     Q(r) pseudized with  8 coefficients,  rinner =    0.800   0.800   0.800

     PseudoPot. # 5 for H  read from file:
     /storage/coda1/p-amedford6/0/shared/rich_project_chbe-medford/medford-share/data/pseudos_module/espresso/nninc/pbe/van/H.UPF
     MD5 check sum: b5ee9d7bfd3a09ee7748110bda690ff7
     Pseudo is Ultrasoft, Zval =  1.0
     Generated by new atomic code, or converted to UPF format
     Using radial grid of  615 points,  1 beta functions with:
                l(1) =   0
     Q(r) pseudized with  8 coefficients,  rinner =    0.800

     atomic species   valence    mass     pseudopotential
        Ti1           12.00    47.86700     Ti( 1.00)
        O1             6.00    15.99900     O ( 1.00)
        N1             5.00    14.00700     N ( 1.00)
        C1             4.00    12.01100     C ( 1.00)
        H1             1.00     1.00800     H ( 1.00)

     No symmetry found

   Cartesian axes

     site n.     atom                  positions (alat units)
         1           Ti1 tau(   1) = (   0.0004258   2.9801865   6.0000000  )
         2           Ti1 tau(   2) = (   3.2906075   1.4906267   6.0002472  )
         3           O1  tau(   3) = (   0.0006271   0.0005054   7.9858123  )
         4           O1  tau(   4) = (   3.2906025   0.0005020   7.3038282  )
         5           O1  tau(   5) = (   4.5942328   1.4918067   9.2879030  )
         6           O1  tau(   6) = (   1.9868534   1.4903216   9.2879459  )
         7           Ti1 tau(   7) = (   3.2907910   2.8959150   9.1758416  )
         8           Ti1 tau(   8) = (   0.0015273   1.4827037   9.2680791  )
         9           O1  tau(   9) = (   3.2925356   5.9605122  11.3387169  )
        10           O1  tau(  10) = (   0.0116148   5.9584955  10.6183126  )
        11           O1  tau(  11) = (   1.2897729   1.4809555  12.6268520  )
        12           O1  tau(  12) = (   5.2791511   1.4810064  12.6173870  )
        13           Ti1 tau(  13) = (   0.0595640   3.0140846  12.5912772  )
        14           Ti1 tau(  14) = (   3.3761946   1.4800080  12.4968112  )
        15           O1  tau(  15) = (   6.5629824   0.0009262  14.6613707  )
        16           O1  tau(  16) = (   3.3123588   5.9604043  13.9421911  )
        17           O1  tau(  17) = (   4.5376415   1.5680301  16.0260299  )
        18           O1  tau(  18) = (   2.0142527   1.4857506  15.9764776  )
        19           Ti1 tau(  19) = (   3.2467940   3.0138708  15.6952036  )
        20           Ti1 tau(  20) = (   6.5376764   1.5432071  15.7832198  )
        21           O1  tau(  21) = (   3.2904802   0.0005063   4.7018136  )
        22           O1  tau(  22) = (   6.4898080   0.0110182  17.2547379  )
        23           O1  tau(  23) = (   1.3043587   1.4918075   6.0039043  )
        24           O1  tau(  24) = (   5.2767064   1.4903225   6.0039473  )
        25           Ti1 tau(  25) = (   0.0000382   5.9609847   6.0000000  )
        26           Ti1 tau(  26) = (   3.2902200   4.4714249   6.0002472  )
        27           O1  tau(  27) = (   0.0002396   2.9813036   7.9858123  )
        28           O1  tau(  28) = (   3.2902150   2.9813002   7.3038282  )
        29           O1  tau(  29) = (   4.5938453   4.4726049   9.2879030  )
        30           O1  tau(  30) = (   1.9864658   4.4711199   9.2879459  )
        31           Ti1 tau(  31) = (   3.2891106   5.8743827   9.1763621  )
        32           Ti1 tau(  32) = (   0.0006254   4.4649316   9.2693709  )
        33           O1  tau(  33) = (   3.2967638   2.9790471  11.3409087  )
        34           O1  tau(  34) = (   0.0092240   2.9805883  10.6323155  )
        35           O1  tau(  35) = (   1.2869154   4.4778632  12.6304858  )
        36           O1  tau(  36) = (   5.2845859   4.4648683  12.6187650  )
        37           Ti1 tau(  37) = (   0.0627082   0.0241251  12.5486904  )
        38           Ti1 tau(  38) = (   3.3788516   4.4738568  12.4976958  )
        39           O1  tau(  39) = (   6.5772583   2.9562949  14.6416036  )
        40           O1  tau(  40) = (   3.2725681   2.9944745  13.9013672  )
        41           O1  tau(  41) = (   4.5452577   4.4055011  16.0651929  )
        42           O1  tau(  42) = (   2.0228361   4.5129635  16.0417754  )
        43           Ti1 tau(  43) = (   3.2583029   0.0391736  15.7773877  )
        44           Ti1 tau(  44) = (   6.5476622   4.6515957  16.1089089  )
        45           O1  tau(  45) = (   3.2900926   2.9813045   4.7018136  )
        46           O1  tau(  46) = (   1.3039711   4.4726057   6.0039043  )
        47           O1  tau(  47) = (   5.2763189   4.4711207   6.0039473  )
        48           N1  tau(  48) = (   1.2275869   2.8250850  18.3327965  )
        49           N1  tau(  49) = (   0.1007212   2.9268546  17.4424539  )
        50           C1  tau(  50) = (   0.9834745   3.5098297  19.5973225  )
        51           H1  tau(  51) = (   0.0700711   3.1483545  20.1177682  )
        52           H1  tau(  52) = (   1.8428167   3.3484677  20.2521386  )
        53           H1  tau(  53) = (   0.8645268   4.5787652  19.4145101  )
        54           H1  tau(  54) = (   1.4038961   1.8348574  18.5000659  )
        55           H1  tau(  55) = (   5.8167727   2.7947134  17.9807349  )
        56           O1  tau(  56) = (   3.6251350   0.0523402  18.1652986  )
        57           H1  tau(  57) = (   4.6063402   0.0342754  18.1216558  )
        58           H1  tau(  58) = (   3.3562690   5.1322054  18.4688733  )

     number of k points=    10  Fermi-Dirac smearing, width (Ry)=  0.0073
                       cart. coord. in units 2pi/alat
        k(    1) = (   0.0000000   0.0000000   0.0000000), wk =   0.1250000
        k(    2) = (   0.0000000   0.0419351   0.0000000), wk =   0.2500000
        k(    3) = (   0.0000000  -0.0838702   0.0000000), wk =   0.1250000
        k(    4) = (   0.0379955   0.0000049   0.0000000), wk =   0.2500000
        k(    5) = (   0.0379955   0.0419400   0.0000000), wk =   0.2500000
        k(    6) = (   0.0379955  -0.0838652   0.0000000), wk =   0.2500000
        k(    7) = (   0.0379955  -0.0419301   0.0000000), wk =   0.2500000
        k(    8) = (  -0.0759910  -0.0000099   0.0000000), wk =   0.1250000
        k(    9) = (  -0.0759910   0.0419252   0.0000000), wk =   0.2500000
        k(   10) = (  -0.0759910  -0.0838800   0.0000000), wk =   0.1250000

     Initial potential from superposition of free atoms

     starting charge  388.99913, renormalised to  405.00000

     negative rho (up, down):  1.444E-02 0.000E+00

     %%%%%%%%%%%%%%%%%%%%%%%%%%%%%%%%%%%%%%%%%%%%%%%%%%%%%%%%%%%%%%%%%%%%%%%%
     %                                                                      %
     % You are using vdW-DF, which was implemented by the Thonhauser group. %
     % Please cite the following two papers that made this development      %
     % possible and the two reviews that describe the various versions:     %
     %                                                                      %
     %   T. Thonhauser et al., PRL 115, 136402 (2015).                      %
     %   T. Thonhauser et al., PRB 76, 125112 (2007).                       %
     %   K. Berland et al., Rep. Prog. Phys. 78, 066501 (2015).             %
     %   D.C. Langreth et al., J. Phys.: Condens. Matter 21, 084203 (2009). %
     %                                                                      %
     %                                                                      %
     % If you are calculating the stress with vdW-DF, please also cite:     %
     %                                                                      %
     %   R. Sabatini et al., J. Phys.: Condens. Matter 24, 424209 (2012).   %
     %                                                                      %
     %%%%%%%%%%%%%%%%%%%%%%%%%%%%%%%%%%%%%%%%%%%%%%%%%%%%%%%%%%%%%%%%%%%%%%%%

     Adding external electric field

     Computed dipole along edir(3) :
        Dipole              -14.1501 Ry au,        -35.9660 Debye
        Dipole field         -0.0267 Ry au,

        Potential amp.        2.4753 Ry
        Total length         46.3494 bohr

     Starting wfcs are  307 atomic wfcs
  @ DRIVER MODE: Message from server: STATUS
  @ DRIVER MODE: Message from server: POSDATA
  @ DRIVER MODE: Reading and sharing cell
  @ DRIVER MODE: Reading and sharing positions
  @ DRIVER MODE: Received positions

     Self-consistent Calculation

     iteration #  1     ecut=    29.40 Ry     beta= 0.05
     Davidson diagonalization with overlap
     c_bands:  4 eigenvalues not converged
     c_bands:  1 eigenvalues not converged
     c_bands:  1 eigenvalues not converged
     c_bands:  3 eigenvalues not converged
     c_bands:  2 eigenvalues not converged
     ethr =  1.00E-05,  avg # of iterations = 29.4

[...]

     total energy              =   -2232.58460197 Ry
     estimated scf accuracy    <    8442.87100538 Ry

     iteration #  2     ecut=    29.40 Ry     beta= 0.05
     Davidson diagonalization with overlap
     ethr =  1.00E-02,  avg # of iterations = 29.8

[...]

     iteration # 64     ecut=    29.40 Ry     beta= 0.05
     Davidson diagonalization with overlap
     c_bands:  1 eigenvalues not converged
     ethr =  1.99E-10,  avg # of iterations = 12.8

[...]

     total energy              =   -2976.50547791 Ry
     estimated scf accuracy    <       0.00000022 Ry

     iteration # 68     ecut=    29.40 Ry     beta= 0.05
     Davidson diagonalization with overlap
     ethr =  2.68E-11,  avg # of iterations = 13.2

     negative rho (up, down):  1.503E-02 0.000E+00

     Adding external electric field

     Computed dipole along edir(3) :
        Dipole                0.9829 Ry au,          2.4983 Debye
        Dipole field          0.0019 Ry au,

        Potential amp.       -0.1719 Ry
        Total length         46.3494 bohr

     End of self-consistent calculation

          k = 0.0000 0.0000 0.0000 ( 18029 PWs)   bands (ev):

   -55.5123 -55.4818 -55.4782 -55.4484 -55.4457 -55.3604 -55.3296 -55.3279
   -55.3253 -55.2957 -55.2944 -55.2607 -55.0520 -54.8876 -54.4947 -54.4607
   -32.0260 -31.9960 -31.8845 -31.8616 -31.8278 -31.8049 -31.7863 -31.7846
   -31.7568 -31.7133 -31.7018 -31.6823 -31.6790 -31.6645 -31.6588 -31.6370
   -31.6179 -31.6123 -31.6112 -31.5790 -31.5693 -31.5603 -31.5343 -31.5224
   -31.5198 -31.5180 -31.5148 -31.5091 -31.4939 -31.4858 -31.4828 -31.4731
   -31.4706 -31.4592 -31.4477 -31.4386 -31.4066 -31.3078 -31.2624 -31.1509
   -31.1424 -31.0783 -30.9020 -30.8132 -30.7908 -30.7187 -30.6322 -30.5211
   -18.7239 -16.5598 -16.2224 -15.9851 -15.7629 -15.6695 -15.6273 -15.4304
   -15.3360 -15.2513 -15.1311 -15.0800 -15.0542 -15.0466 -15.0329 -15.0076
   -14.9734 -14.9672 -14.9642 -14.9400 -14.9206 -14.8692 -14.8631 -14.8564
   -14.7630 -14.6990 -14.6642 -14.6509 -14.6414 -14.5757 -14.2033 -12.9972
   -12.8807 -11.6369  -8.8587  -6.4620  -5.1558  -4.2750  -3.6904  -3.5962
    -3.4687  -3.4210  -3.3718  -3.3440  -3.1523  -3.0954  -2.9440  -2.7729
    -2.6994  -2.6611  -2.6278  -2.5873  -2.5558  -2.4352  -2.4101  -2.3367
    -2.3211  -2.3100  -2.2775  -2.2678  -2.2529  -2.2321  -2.1586  -2.1499
    -2.0642  -1.9528  -1.9022  -1.8873  -1.8685  -1.8275  -1.7898  -1.7766
    -1.7634  -1.7451  -1.7319  -1.6941  -1.5784  -1.5278  -1.4483  -1.3686
    -1.2976  -1.2098  -1.1333  -1.1047  -1.0375  -1.0124  -0.9524  -0.9279
    -0.9137  -0.9076  -0.7902  -0.6821  -0.6639  -0.5942  -0.5333  -0.4568
    -0.4130  -0.3873  -0.3179  -0.2848  -0.2741  -0.2604  -0.2343  -0.2194
    -0.1630  -0.0160   0.0611   0.0796   0.1383   0.1791   0.2304   0.2558
     0.2836   0.3315   0.3628   0.4029   0.4526   0.4562   0.4682   0.4924
     0.5065   0.6659   0.7209   0.7540   0.7797   0.8284   0.9408   0.9837
     1.1374   1.2059   1.2709   1.4536   1.5275   1.6083   1.7191   2.0637
     2.0988   2.1446   3.6135   3.7058   3.7469   3.7682   3.8552   3.8577
     4.0684   4.1134   4.1214   4.1881

[...]

          k = 0.0380-0.0419 0.0000 ( 17876 PWs)   bands (ev):

[...]

          k =-0.0760-0.0000 0.0000 ( 17886 PWs)   bands (ev):

[...]

          k =-0.0760-0.0839 0.0000 ( 17948 PWs)   bands (ev):

   -55.4957 -55.4948 -55.4658 -55.4614 -55.4458 -55.3461 -55.3396 -55.3303
   -55.3127 -55.3121 -55.2787 -55.2765 -55.0505 -54.8890 -54.4777 -54.4776
   -31.8395 -31.8228 -31.8117 -31.8109 -31.7907 -31.7898 -31.7498 -31.7424
   -31.7343 -31.7063 -31.6953 -31.6762 -31.6606 -31.6589 -31.6334 -31.6314
   -31.6289 -31.6269 -31.6188 -31.6178 -31.6155 -31.6143 -31.6137 -31.5620
   -31.5536 -31.5473 -31.5393 -31.5287 -31.5144 -31.5133 -31.5089 -31.5045
   -31.4941 -31.4916 -31.4865 -31.4845 -31.4132 -31.3106 -31.2578 -31.2123
   -31.1534 -31.1059 -30.8036 -30.8035 -30.7148 -30.7146 -30.6755 -30.6755
   -18.7225 -16.5364 -15.6593 -15.5882 -15.4723 -15.4433 -15.3835 -15.3335
   -15.3159 -15.2467 -15.2106 -15.1981 -15.1462 -15.1436 -15.0958 -15.0720
   -15.0452 -15.0414 -15.0262 -14.9837 -14.9729 -14.9577 -14.9535 -14.9501
   -14.8727 -14.8369 -14.8328 -14.8281 -14.7589 -14.6252 -14.3523 -12.9825
   -12.9824 -11.6438  -8.8677  -6.4578  -5.1592  -4.2696  -3.6300  -3.0834
    -2.9446  -2.7866  -2.7214  -2.6405  -2.6396  -2.5972  -2.4701  -2.4470
    -2.4083  -2.3809  -2.3502  -2.3409  -2.3316  -2.3254  -2.3153  -2.3018
    -2.2889  -2.2495  -2.2036  -2.1881  -2.1797  -2.1749  -2.1602  -2.1470
    -2.1312  -2.1288  -2.0929  -2.0638  -2.0367  -2.0008  -1.9471  -1.7466
    -1.7189  -1.6979  -1.6701  -1.6585  -1.6467  -1.6135  -1.5750  -1.5649
    -1.4925  -1.4045  -1.3161  -1.2383  -1.2052  -1.1924  -1.1230  -1.0375
    -0.9963  -0.9573  -0.9200  -0.8601  -0.8012  -0.7630  -0.7257  -0.6443
    -0.6259  -0.6159  -0.5545  -0.5379  -0.4781  -0.4698  -0.3917  -0.3499
    -0.3132  -0.2666  -0.2390  -0.2333  -0.2143  -0.1801  -0.1720  -0.1180
    -0.0018   0.0070   0.0265   0.1315   0.2199   0.4590   0.5159   0.5482
     0.6286   0.6912   0.7526   0.7737   0.7955   0.7993   0.8352   0.8961
     1.0099   1.0197   1.0583   1.1465   1.1730   1.8907   1.8915   1.9644
     1.9646   2.0667   3.9256   3.9519   3.9778   4.0136   4.1141   4.1313
     4.1537   4.1557   4.2694   4.2900

     the Fermi energy is     3.6187 ev

!    total energy              =   -2976.50550813 Ry
     estimated scf accuracy    <       0.00000006 Ry
     smearing contrib. (-TS)   =      -0.02132637 Ry
     internal energy E=F+TS    =   -2976.48418177 Ry

     The total energy is F=E-TS. E is the sum of the following terms:
     one-electron contribution =  -23892.15828638 Ry
     hartree contribution      =   12042.58883649 Ry
     xc contribution           =    -495.74882968 Ry
     ewald contribution        =    9368.83227461 Ry
     electric field correction =       0.00182320 Ry

     convergence has been achieved in  68 iterations

     Forces acting on atoms (cartesian axes, Ry/au):

     atom    1 type  1   force =     0.00015424   -0.00028228    0.09583540
     atom    2 type  1   force =    -0.00022984   -0.00062787   -0.17569023
     atom    3 type  2   force =     0.00006308   -0.00014635   -0.02383532
     atom    4 type  2   force =     0.00006453   -0.00154304    0.05349878
     atom    5 type  2   force =    -0.01127138   -0.00075984    0.00355735
     atom    6 type  2   force =     0.01297137    0.00005900    0.00268124
     atom    7 type  1   force =    -0.00096406    0.00065789   -0.00793153
     atom    8 type  1   force =     0.00042523    0.00624223    0.02298484
     atom    9 type  2   force =    -0.00005377   -0.00030963   -0.00096049
     atom   10 type  2   force =    -0.00136738    0.00128114   -0.01513704
     atom   11 type  2   force =    -0.00031123    0.00024843   -0.00023465
     atom   12 type  2   force =    -0.00021135    0.00022859   -0.00033502
     atom   13 type  1   force =     0.00074568   -0.00046850    0.00027564
     atom   14 type  1   force =    -0.00019126    0.00042477    0.00151360
     atom   15 type  2   force =     0.00001027   -0.00002537    0.00033276
     atom   16 type  2   force =     0.00025988    0.00005725    0.00012031
     atom   17 type  2   force =     0.00065662   -0.00023316    0.00035318
     atom   18 type  2   force =     0.00013738   -0.00044197    0.00045399
     atom   19 type  1   force =    -0.00122388    0.00020986    0.00059938
     atom   20 type  1   force =     0.00073449   -0.00004886   -0.00004025
     atom   21 type  2   force =     0.00008626   -0.00008949    0.10323120
     atom   22 type  2   force =    -0.00070126   -0.00048713   -0.00069727
     atom   23 type  2   force =    -0.07142203   -0.00018121   -0.02769308
     atom   24 type  2   force =     0.07139226    0.00027886   -0.02769608
     atom   25 type  1   force =     0.00002549   -0.00031344    0.09555831
     atom   26 type  1   force =    -0.00017818   -0.00031275   -0.17597450
     atom   27 type  2   force =     0.00009911   -0.00011988   -0.02294406
     atom   28 type  2   force =     0.00011533   -0.00127269    0.05314902
     atom   29 type  2   force =    -0.01151931    0.00015182    0.00361545
     atom   30 type  2   force =     0.01316955    0.00046395    0.00270657
     atom   31 type  1   force =    -0.00100839    0.00373912   -0.01104454
     atom   32 type  1   force =     0.00051043   -0.00741085    0.02338803
     atom   33 type  2   force =    -0.00023750    0.00031299   -0.00032850
     atom   34 type  2   force =    -0.00033269    0.00024870   -0.02185896
     atom   35 type  2   force =     0.00010572    0.00030147   -0.00037302
     atom   36 type  2   force =    -0.00036944    0.00030314   -0.00029604
     atom   37 type  1   force =     0.00040599    0.00057278   -0.00026277
     atom   38 type  1   force =    -0.00023321   -0.00042305    0.00134264
     atom   39 type  2   force =    -0.00007028   -0.00029850    0.00038939
     atom   40 type  2   force =     0.00032361    0.00008759   -0.00083110
     atom   41 type  2   force =     0.00117062    0.00050351    0.00013874
     atom   42 type  2   force =    -0.00067780    0.00029591    0.00003328
     atom   43 type  1   force =    -0.00093882   -0.00106826   -0.00008322
     atom   44 type  1   force =     0.00076104    0.00053733   -0.00012367
     atom   45 type  2   force =     0.00008810   -0.00010107    0.10323250
     atom   46 type  2   force =    -0.07143308   -0.00013852   -0.02767660
     atom   47 type  2   force =     0.07143350    0.00029302   -0.02770658
     atom   48 type  3   force =    -0.00069355   -0.00064709    0.00007926
     atom   49 type  3   force =    -0.00046982    0.00040263   -0.00058210
     atom   50 type  4   force =    -0.00729295   -0.00217737    0.00266190
     atom   51 type  5   force =     0.00794902    0.00327156   -0.00329329
     atom   52 type  5   force =    -0.00122325   -0.00061802    0.00043861
     atom   53 type  5   force =     0.00043327   -0.00038620    0.00027812
     atom   54 type  5   force =     0.00013750    0.00013535    0.00004258
     atom   55 type  5   force =     0.00020029   -0.00009635    0.00060007
     atom   56 type  2   force =    -0.00076269   -0.00007825   -0.00007897
     atom   57 type  5   force =     0.00076498   -0.00004982    0.00000318
     atom   58 type  5   force =    -0.00000641   -0.00015208    0.00061351

     Total force =     0.366906     Total SCF correction =     0.000870
  @ DRIVER MODE: Message from server: STATUS
  @ DRIVER MODE: Message from server: GETFORCE
  @ DRIVER MODE: Returning v,forces,stress,ensemble

     Writing output data file ./calc.save/
  @ DRIVER MODE: Message from server: EXIT
  @ DRIVE MODE: Exiting

     General routines

     Parallel routines

   This run was terminated on:  22: 9:25  15Sep2021

   JOB DONE.