     Program PWSCF v.6.7GPU starts on 22Sep2021 at 22: 1:41

     R & G space division:  proc/nbgrp/npool/nimage =      10
     Reading input from /storage/home/hcoda1/3/ntian30/research/carbon/CxH_vib/H2O_calc/ads_slab/CH2HO_a/out_0023/pw.inp
Warning: card &CELL ignored
Warning: card   CELL_DYNAMICS='IPI', ignored
Warning: card / ignored

     Current dimensions of program PWSCF are:
     Max number of different atomic species (ntypx) = 10
     Max number of k-points (npk) =  40000
     Max angular momentum in pseudopotentials (lmaxx) =  3
     Presently no symmetry can be used with electric field

     Message from routine cell_base_init:
     DEPRECATED: use true lattice parameter, not A to a.u. conversion factor

     IMPORTANT: XC functional enforced from input :
     Exchange-correlation= BEEF-VDW
                           (   1   4  43  14   2   0   0)
     Any further DFT definition will be discarded
     Please, verify this is what you really want

  @ DRIVER MODE: Connecting to
 qe_1139763_2937324.sched-torque.pace.gatech.educjytubjt_scratch
  using UNIX socket
  @ DRIVER MODE: Message from server: STATUS
  @ DRIVER MODE: Message from server: INIT
  @ DRIVER MODE: Receiving replica           0          -1
  @ DRIVER MODE: Receiving encoded integer          25
  @ DRIVER MODE:  SCF:  T  FORCE:  T  STRESS:  F  VC:  F  ENSEMBLE:  F
  @ DRIVER MODE:  SCF:  T  FORCE:  T  STRESS:  F  VC:  F  ENSEMBLE:  F

     Using Slab Decomposition

     bravais-lattice index     =            0
     lattice parameter (alat)  =       1.8897  a.u.
     unit-cell volume          =    6658.9804 (a.u.)^3
     number of atoms/cell      =           52
     number of atomic types    =            4
     number of electrons       =       391.00
     number of Kohn-Sham states=          205
     kinetic-energy cutoff     =      29.3995  Ry
     charge density cutoff     =     293.9946  Ry
     scf convergence threshold =      7.3E-08
     mixing beta               =       0.0500
     number of iterations used =            8  plain     mixing
     Exchange-correlation= BEEF-VDW
                           (   1   4  43  14   2   0   0)

     celldm(1)=   1.889726  celldm(2)=   0.000000  celldm(3)=   0.000000
     celldm(4)=   0.000000  celldm(5)=   0.000000  celldm(6)=   0.000000

     crystal axes: (cart. coord. in units of alat)
               a(1) = (   6.579727   0.000000   0.000000 )
               a(2) = (  -0.000775   5.961596   0.000000 )
               a(3) = (   0.000000   0.000000  25.155947 )

     reciprocal axes: (cart. coord. in units 2 pi/alat)
               b(1) = (  0.151982  0.000020  0.000000 )
               b(2) = (  0.000000  0.167740  0.000000 )
               b(3) = (  0.000000  0.000000  0.039752 )

     PseudoPot. # 1 for Ti read from file:
     /storage/coda1/p-amedford6/0/shared/rich_project_chbe-medford/medford-share/data/pseudos_module/espresso/nninc/pbe/van/Ti.UPF
     MD5 check sum: 8e4df49b7f0d34bbd5052bf3f5ea0213
     Pseudo is Ultrasoft, Zval = 12.0
     Generated by new atomic code, or converted to UPF format
     Using radial grid of  851 points,  6 beta functions with:
                l(1) =   0
                l(2) =   0
                l(3) =   1
                l(4) =   1
                l(5) =   2
                l(6) =   2
     Q(r) pseudized with  8 coefficients,  rinner =    1.000   1.000   1.000
                                                       1.000   1.000

     PseudoPot. # 2 for O  read from file:
     /storage/coda1/p-amedford6/0/shared/rich_project_chbe-medford/medford-share/data/pseudos_module/espresso/nninc/pbe/van/O.UPF
     MD5 check sum: 78c19812648e8988a0fe644b0f25305e
     Pseudo is Ultrasoft, Zval =  6.0
     Generated by new atomic code, or converted to UPF format
     Using radial grid of  737 points,  4 beta functions with:
                l(1) =   0
                l(2) =   0
                l(3) =   1
                l(4) =   1
     Q(r) pseudized with  8 coefficients,  rinner =    0.800   0.800   0.800

     PseudoPot. # 3 for C  read from file:
     /storage/coda1/p-amedford6/0/shared/rich_project_chbe-medford/medford-share/data/pseudos_module/espresso/nninc/pbe/van/C.UPF
     MD5 check sum: 1a69bf6b8db32088f5b2163dbdb77a27
     Pseudo is Ultrasoft, Zval =  4.0
     Generated by new atomic code, or converted to UPF format
     Using radial grid of  721 points,  4 beta functions with:
                l(1) =   0
                l(2) =   0
                l(3) =   1
                l(4) =   1
     Q(r) pseudized with  8 coefficients,  rinner =    0.800   0.800   0.800

     PseudoPot. # 4 for H  read from file:
     /storage/coda1/p-amedford6/0/shared/rich_project_chbe-medford/medford-share/data/pseudos_module/espresso/nninc/pbe/van/H.UPF
     MD5 check sum: b5ee9d7bfd3a09ee7748110bda690ff7
     Pseudo is Ultrasoft, Zval =  1.0
     Generated by new atomic code, or converted to UPF format
     Using radial grid of  615 points,  1 beta functions with:
                l(1) =   0
     Q(r) pseudized with  8 coefficients,  rinner =    0.800

     atomic species   valence    mass     pseudopotential
        Ti1           12.00    47.86700     Ti( 1.00)
        O1             6.00    15.99900     O ( 1.00)
        C1             4.00    12.01100     C ( 1.00)
        H1             1.00     1.00800     H ( 1.00)

     No symmetry found

   Cartesian axes

     site n.     atom                  positions (alat units)
         1           Ti1 tau(   1) = (   0.0004258   2.9801865   6.0000000  )
         2           Ti1 tau(   2) = (   3.2906075   1.4906267   6.0002472  )
         3           O1  tau(   3) = (   0.0006271   0.0005054   7.9858123  )
         4           O1  tau(   4) = (   3.2906025   0.0005020   7.3038282  )
         5           O1  tau(   5) = (   4.5942328   1.4918067   9.2879030  )
         6           O1  tau(   6) = (   1.9868534   1.4903216   9.2879459  )
         7           Ti1 tau(   7) = (   3.2576197   2.8654215   9.2214558  )
         8           Ti1 tau(   8) = (   6.5344909   1.4429808   9.3601258  )
         9           O1  tau(   9) = (   3.2692782   5.9266415  11.3199434  )
        10           O1  tau(  10) = (   6.5685443   5.9434748  10.5851361  )
        11           O1  tau(  11) = (   1.2543606   1.4786140  12.6270584  )
        12           O1  tau(  12) = (   5.2804994   1.4734118  12.6291387  )
        13           Ti1 tau(  13) = (   6.5561640   2.8465321  12.8092297  )
        14           Ti1 tau(  14) = (   3.2590950   1.2910582  12.6820668  )
        15           O1  tau(  15) = (   6.5637791   5.9505241  14.6246090  )
        16           O1  tau(  16) = (   3.2632455   0.0300109  13.9168947  )
        17           O1  tau(  17) = (   4.5093043   1.5331652  16.1230905  )
        18           O1  tau(  18) = (   1.9844652   1.5452522  16.1286669  )
        19           Ti1 tau(  19) = (   3.2766647   3.0056044  15.6806532  )
        20           Ti1 tau(  20) = (   0.0376264   1.5104518  16.1289793  )
        21           O1  tau(  21) = (   3.2904802   0.0005063   4.7018136  )
        22           O1  tau(  22) = (   6.5370995   5.9187843  17.1758003  )
        23           O1  tau(  23) = (   1.3043587   1.4918075   6.0039043  )
        24           O1  tau(  24) = (   5.2767064   1.4903225   6.0039473  )
        25           Ti1 tau(  25) = (   0.0000382   5.9609847   6.0000000  )
        26           Ti1 tau(  26) = (   3.2902200   4.4714249   6.0002472  )
        27           O1  tau(  27) = (   0.0002396   2.9813036   7.9858123  )
        28           O1  tau(  28) = (   3.2902150   2.9813002   7.3038282  )
        29           O1  tau(  29) = (   4.5938453   4.4726049   9.2879030  )
        30           O1  tau(  30) = (   1.9864658   4.4711199   9.2879459  )
        31           Ti1 tau(  31) = (   3.2565375   5.8496818   9.1814359  )
        32           Ti1 tau(  32) = (   6.5349656   4.3900073   9.3400910  )
        33           O1  tau(  33) = (   3.2728704   3.0037829  11.2907943  )
        34           O1  tau(  34) = (   6.5689136   2.9626257  10.5472476  )
        35           O1  tau(  35) = (   1.2549189   4.4436098  12.6280720  )
        36           O1  tau(  36) = (   5.2752285   4.4450423  12.6314263  )
        37           Ti1 tau(  37) = (   6.5445616   5.8332433  12.5976854  )
        38           Ti1 tau(  38) = (   3.2543598   4.3897341  12.4334224  )
        39           O1  tau(  39) = (   6.5579435   2.9355163  14.7117218  )
        40           O1  tau(  40) = (   3.2602875   2.9656724  13.9017019  )
        41           O1  tau(  41) = (   4.5395605   4.4315404  16.0360363  )
        42           O1  tau(  42) = (   2.0063696   4.4444213  16.0824092  )
        43           Ti1 tau(  43) = (   3.2990179   0.0081159  16.3450624  )
        44           Ti1 tau(  44) = (   6.5722952   4.6241161  15.8901152  )
        45           O1  tau(  45) = (   3.2900926   2.9813045   4.7018136  )
        46           O1  tau(  46) = (   1.3039711   4.4726057   6.0039043  )
        47           O1  tau(  47) = (   5.2763189   4.4711207   6.0039473  )
        48           C1  tau(  48) = (   6.5366691   2.9215611  17.7332970  )
        49           H1  tau(  49) = (   0.8393079   3.1163452  18.3454380  )
        50           H1  tau(  50) = (   5.6239513   3.1093896  18.3013171  )
        51           O1  tau(  51) = (   3.3457726   5.9061862  18.1508053  )
        52           H1  tau(  52) = (   4.0847859   0.3069366  18.6733355  )

     number of k points=    10  Fermi-Dirac smearing, width (Ry)=  0.0073
                       cart. coord. in units 2pi/alat
        k(    1) = (   0.0000000   0.0000000   0.0000000), wk =   0.1250000
        k(    2) = (   0.0000000   0.0419351   0.0000000), wk =   0.2500000
        k(    3) = (   0.0000000  -0.0838702   0.0000000), wk =   0.1250000
        k(    4) = (   0.0379955   0.0000049   0.0000000), wk =   0.2500000
        k(    5) = (   0.0379955   0.0419400   0.0000000), wk =   0.2500000
        k(    6) = (   0.0379955  -0.0838652   0.0000000), wk =   0.2500000
        k(    7) = (   0.0379955  -0.0419301   0.0000000), wk =   0.2500000
        k(    8) = (  -0.0759910  -0.0000099   0.0000000), wk =   0.1250000
        k(    9) = (  -0.0759910   0.0419252   0.0000000), wk =   0.2500000
        k(   10) = (  -0.0759910  -0.0838800   0.0000000), wk =   0.1250000

     Initial potential from superposition of free atoms

     starting charge  374.99918, renormalised to  391.00000

     negative rho (up, down):  1.929E-02 0.000E+00

     %%%%%%%%%%%%%%%%%%%%%%%%%%%%%%%%%%%%%%%%%%%%%%%%%%%%%%%%%%%%%%%%%%%%%%%%
     %                                                                      %
     % You are using vdW-DF, which was implemented by the Thonhauser group. %
     % Please cite the following two papers that made this development      %
     % possible and the two reviews that describe the various versions:     %
     %                                                                      %
     %   T. Thonhauser et al., PRL 115, 136402 (2015).                      %
     %   T. Thonhauser et al., PRB 76, 125112 (2007).                       %
     %   K. Berland et al., Rep. Prog. Phys. 78, 066501 (2015).             %
     %   D.C. Langreth et al., J. Phys.: Condens. Matter 21, 084203 (2009). %
     %                                                                      %
     %                                                                      %
     % If you are calculating the stress with vdW-DF, please also cite:     %
     %                                                                      %
     %   R. Sabatini et al., J. Phys.: Condens. Matter 24, 424209 (2012).   %
     %                                                                      %
     %%%%%%%%%%%%%%%%%%%%%%%%%%%%%%%%%%%%%%%%%%%%%%%%%%%%%%%%%%%%%%%%%%%%%%%%

     Adding external electric field

     Computed dipole along edir(3) :
        Dipole               -4.4268 Ry au,        -11.2518 Debye
        Dipole field         -0.0084 Ry au,

        Potential amp.        0.7744 Ry
        Total length         46.3494 bohr

     Starting wfcs are  295 atomic wfcs
  @ DRIVER MODE: Message from server: STATUS
  @ DRIVER MODE: Message from server: POSDATA
  @ DRIVER MODE: Reading and sharing cell
  @ DRIVER MODE: Reading and sharing positions
  @ DRIVER MODE: Received positions

     Self-consistent Calculation

     iteration #  1     ecut=    29.40 Ry     beta= 0.05
     Davidson diagonalization with overlap
     c_bands:  4 eigenvalues not converged
     c_bands:  2 eigenvalues not converged
     c_bands:  2 eigenvalues not converged
     c_bands:  2 eigenvalues not converged
     c_bands:  3 eigenvalues not converged
     c_bands:  1 eigenvalues not converged
     c_bands:  3 eigenvalues not converged
     c_bands:  1 eigenvalues not converged
     c_bands:  3 eigenvalues not converged
     ethr =  1.00E-05,  avg # of iterations = 20.0

[...]

     total energy              =   -2883.50597664 Ry
     estimated scf accuracy    <     546.31096623 Ry

     iteration #  2     ecut=    29.40 Ry     beta= 0.05
     Davidson diagonalization with overlap
     ethr =  1.00E-02,  avg # of iterations = 14.3

[...]

     iteration # 41     ecut=    29.40 Ry     beta= 0.05
     Davidson diagonalization with overlap
     c_bands:  1 eigenvalues not converged
     ethr =  2.05E-07,  avg # of iterations =  5.0

[...]

     total energy              =   -2931.27737779 Ry
     estimated scf accuracy    <       0.00000010 Ry

     iteration # 58     ecut=    29.40 Ry     beta= 0.05
     Davidson diagonalization with overlap
     ethr =  2.49E-11,  avg # of iterations =  4.4

     negative rho (up, down):  1.859E-02 0.000E+00

     Adding external electric field

     Computed dipole along edir(3) :
        Dipole                0.4482 Ry au,          1.1393 Debye
        Dipole field          0.0008 Ry au,

        Potential amp.       -0.0784 Ry
        Total length         46.3494 bohr

     End of self-consistent calculation

          k = 0.0000 0.0000 0.0000 ( 18029 PWs)   bands (ev):

   -56.5996 -56.5496 -56.1296 -56.0279 -55.9857 -55.9288 -55.9022 -55.8852
   -55.8440 -55.8025 -55.7722 -55.7183 -55.6718 -55.5985 -55.2091 -55.1752
   -33.0114 -32.8645 -32.8102 -32.7784 -32.6827 -32.6376 -32.4887 -32.4760
   -32.4500 -32.3910 -32.3600 -32.3405 -32.2962 -32.2750 -32.2567 -32.2318
   -32.2304 -32.2137 -32.2001 -32.1341 -32.1314 -32.1179 -32.1155 -32.1001
   -32.0894 -32.0813 -32.0794 -32.0756 -32.0507 -32.0298 -32.0068 -31.9892
   -31.9860 -31.9759 -31.9728 -31.9634 -31.9180 -31.8593 -31.8327 -31.8314
   -31.8105 -31.7820 -31.6036 -31.5497 -31.5253 -31.4202 -31.3352 -31.2246
   -16.9646 -16.7572 -16.6133 -16.3897 -16.2449 -16.1409 -15.9252 -15.9154
   -15.7936 -15.7764 -15.7515 -15.6199 -15.6062 -15.5910 -15.5489 -15.5271
   -15.5207 -15.5190 -15.5081 -15.4805 -15.4488 -15.4283 -15.3882 -15.3062
   -15.2300 -15.2242 -15.1882 -15.1331 -15.0728 -14.8485 -13.7119 -13.6035
    -8.9107  -4.6947  -4.2819  -4.0685  -3.9602  -3.8817  -3.7764  -3.6220
    -3.4239  -3.2850  -3.2370  -3.1997  -3.1511  -3.1369  -3.1145  -3.0715
    -3.0226  -2.9708  -2.9413  -2.8800  -2.8546  -2.8156  -2.7786  -2.7536
    -2.7390  -2.7210  -2.7139  -2.5818  -2.5150  -2.5041  -2.4567  -2.4539
    -2.3976  -2.3801  -2.3564  -2.3073  -2.2747  -2.1785  -2.1196  -2.0874
    -2.0412  -1.8210  -1.8014  -1.7375  -1.6617  -1.6085  -1.5494  -1.5072
    -1.4639  -1.4268  -1.3672  -1.3294  -1.2921  -1.2561  -1.2137  -1.1456
    -1.1264  -1.0920  -1.0314  -0.9529  -0.9075  -0.8409  -0.7776  -0.7390
    -0.6834  -0.6726  -0.6456  -0.5582  -0.4674  -0.4479  -0.4151  -0.3738
    -0.3577  -0.2883  -0.2737  -0.2310  -0.2140  -0.1379  -0.1206  -0.0913
    -0.0615  -0.0365  -0.0152   0.0515   0.1740   0.2419   0.2779   0.3198
     0.3377   0.4241   0.4442   0.5319   0.6877   0.8073   0.8466   1.0175
     1.0694   1.3581   1.4040   1.9295   2.7019   2.8665   3.1521   3.2591
     3.2910   3.3677   3.4123   3.4434   3.6479

[...]

          k = 0.0380-0.0419 0.0000 ( 17876 PWs)   bands (ev):

[...]

          k =-0.0760-0.0000 0.0000 ( 17886 PWs)   bands (ev):

[...]

          k =-0.0760-0.0839 0.0000 ( 17948 PWs)   bands (ev):

   -56.5931 -56.5559 -56.1288 -56.0255 -55.9796 -55.9346 -55.9044 -55.8858
   -55.8353 -55.8113 -55.7705 -55.7120 -55.6780 -55.6000 -55.1924 -55.1918
   -32.8603 -32.8439 -32.8142 -32.8121 -32.7450 -32.7133 -32.4118 -32.3673
   -32.3508 -32.3413 -32.3244 -32.2812 -32.2559 -32.2512 -32.2404 -32.2207
   -32.2051 -32.1927 -32.1818 -32.1716 -32.1529 -32.1525 -32.1302 -32.1280
   -32.1253 -32.1151 -32.0994 -32.0939 -32.0623 -32.0579 -32.0447 -32.0316
   -31.9927 -31.9876 -31.9796 -31.9768 -31.9429 -31.9218 -31.9034 -31.8608
   -31.8137 -31.8054 -31.5385 -31.5382 -31.4192 -31.4173 -31.3775 -31.3765
   -16.9531 -16.1339 -16.0739 -16.0645 -16.0513 -16.0215 -15.9800 -15.9081
   -15.9057 -15.8089 -15.7817 -15.7372 -15.6984 -15.6868 -15.6412 -15.6283
   -15.6154 -15.5529 -15.5112 -15.4924 -15.4767 -15.4639 -15.4431 -15.4186
   -15.4073 -15.3869 -15.3195 -15.2409 -15.2066 -14.9903 -13.7079 -13.7067
    -8.9185  -4.6864  -3.3718  -3.3182  -3.2393  -3.2214  -3.2126  -3.1405
    -3.0840  -3.0787  -3.0213  -3.0072  -2.9647  -2.9348  -2.9050  -2.8992
    -2.8925  -2.8820  -2.8691  -2.8450  -2.7908  -2.7880  -2.7703  -2.7611
    -2.7448  -2.7288  -2.6962  -2.6551  -2.6239  -2.6001  -2.5232  -2.4161
    -2.4104  -2.3781  -2.3455  -2.3126  -2.2702  -2.2492  -2.1728  -2.1656
    -2.1493  -2.1020  -2.0020  -1.7706  -1.7616  -1.7099  -1.6754  -1.6654
    -1.6045  -1.5332  -1.5268  -1.4433  -1.4415  -1.4251  -1.3320  -1.3084
    -1.2741  -1.2564  -1.2294  -1.2173  -1.1054  -1.0763  -1.0702  -1.0381
    -0.9948  -0.9709  -0.8785  -0.8604  -0.8435  -0.8137  -0.7325  -0.6794
    -0.6406  -0.6228  -0.4834  -0.4374  -0.4255  -0.2775  -0.2271  -0.1877
    -0.1712  -0.0887   0.0231   0.0656   0.1231   0.1688   0.2289   0.3357
     0.3475   0.3704   0.4347   0.4749   0.4822   0.4979   0.5742   1.2014
     1.2022   1.2103   1.2173   2.0880   3.2432   3.2687   3.2807   3.3143
     3.5301   3.5517   3.5623   3.6194   3.6609

     the Fermi energy is     2.0091 ev

!    total energy              =   -2931.27742509 Ry
     estimated scf accuracy    <       0.00000005 Ry
     smearing contrib. (-TS)   =      -0.01005608 Ry
     internal energy E=F+TS    =   -2931.26736902 Ry

     The total energy is F=E-TS. E is the sum of the following terms:
     one-electron contribution =  -24335.57860358 Ry
     hartree contribution      =   12251.68474166 Ry
     xc contribution           =    -481.70209170 Ry
     ewald contribution        =    9634.32820547 Ry
     electric field correction =       0.00037913 Ry

     convergence has been achieved in  58 iterations

     Forces acting on atoms (cartesian axes, Ry/au):

     atom    1 type  1   force =     0.00036451   -0.00077687    0.13237149
     atom    2 type  1   force =     0.00014620    0.00690509   -0.15726414
     atom    3 type  2   force =    -0.00018558    0.00281895   -0.05349614
     atom    4 type  2   force =    -0.00072734   -0.00116585    0.04117213
     atom    5 type  2   force =    -0.01140805   -0.00238385    0.00284940
     atom    6 type  2   force =     0.00918865   -0.00643676    0.00177882
     atom    7 type  1   force =     0.00044302    0.00029240   -0.00032514
     atom    8 type  1   force =     0.00019261   -0.00002470    0.00097632
     atom    9 type  2   force =    -0.00002317    0.00041894    0.00034846
     atom   10 type  2   force =     0.00025328    0.00023197   -0.00010168
     atom   11 type  2   force =     0.00046680    0.00034338    0.00026633
     atom   12 type  2   force =    -0.00010767    0.00028011   -0.00025419
     atom   13 type  1   force =    -0.00026108   -0.00048830   -0.00096793
     atom   14 type  1   force =     0.00021069    0.00041922   -0.00011742
     atom   15 type  2   force =     0.00007728   -0.00014649    0.00160916
     atom   16 type  2   force =     0.00048375   -0.00014542   -0.00023192
     atom   17 type  2   force =     0.00059993    0.00017198   -0.00046927
     atom   18 type  2   force =    -0.00141408    0.00000371   -0.00023876
     atom   19 type  1   force =     0.00118535   -0.00003226   -0.00039451
     atom   20 type  1   force =    -0.00028139    0.00033189   -0.00048838
     atom   21 type  2   force =     0.00020989    0.00008794    0.09899140
     atom   22 type  2   force =     0.00004410    0.00093893   -0.00076092
     atom   23 type  2   force =    -0.08050812    0.00137529   -0.03418147
     atom   24 type  2   force =     0.08058319    0.00190482   -0.03419107
     atom   25 type  1   force =     0.00030315   -0.00010657    0.14244854
     atom   26 type  1   force =     0.00016749   -0.00837201   -0.15753791
     atom   27 type  2   force =    -0.00039180   -0.00117202   -0.05199591
     atom   28 type  2   force =    -0.00063963   -0.00037848    0.04297092
     atom   29 type  2   force =    -0.01011720    0.00503588    0.00017643
     atom   30 type  2   force =     0.00779188    0.00128017   -0.00110658
     atom   31 type  1   force =     0.00010542    0.00000429   -0.00019554
     atom   32 type  1   force =     0.00009055   -0.00043515    0.00100976
     atom   33 type  2   force =     0.00003628   -0.00033843   -0.00011502
     atom   34 type  2   force =     0.00024577    0.00012693   -0.00024126
     atom   35 type  2   force =    -0.00053443    0.00035263    0.00018813
     atom   36 type  2   force =     0.00133817    0.00031346   -0.00025020
     atom   37 type  1   force =     0.00001217   -0.00020881   -0.00049351
     atom   38 type  1   force =     0.00029412   -0.00004492   -0.00012000
     atom   39 type  2   force =     0.00003317    0.00008182    0.00022434
     atom   40 type  2   force =     0.00039776    0.00011395   -0.00043878
     atom   41 type  2   force =    -0.00070946   -0.00026990   -0.00018083
     atom   42 type  2   force =    -0.00000875   -0.00004964   -0.00034294
     atom   43 type  1   force =     0.00080086    0.00063391   -0.00728911
     atom   44 type  1   force =    -0.00037407    0.00024555   -0.00053841
     atom   45 type  2   force =     0.00020082   -0.00000098    0.09856591
     atom   46 type  2   force =    -0.08049593   -0.00110062   -0.03416483
     atom   47 type  2   force =     0.08058681   -0.00056207   -0.03424618
     atom   48 type  3   force =     0.00004869    0.00028000   -0.00011787
     atom   49 type  4   force =    -0.00023960   -0.00017186    0.00004946
     atom   50 type  4   force =     0.00016654    0.00019794   -0.00012755
     atom   51 type  2   force =     0.00811907    0.00424569    0.01262492
     atom   52 type  4   force =    -0.00676065   -0.00462486   -0.00563657

     Total force =     0.384226     Total SCF correction =     0.000490
  @ DRIVER MODE: Message from server: STATUS
  @ DRIVER MODE: Message from server: GETFORCE
  @ DRIVER MODE: Returning v,forces,stress,ensemble

     Writing output data file ./calc.save/
  @ DRIVER MODE: Message from server: EXIT
  @ DRIVE MODE: Exiting

     General routines

     Parallel routines

   This run was terminated on:  22:17:37  22Sep2021

   JOB DONE.