     Program PWSCF v.6.7GPU starts on 23Sep2021 at  0:10: 7

     R & G space division:  proc/nbgrp/npool/nimage =      10
     Reading input from /storage/home/hcoda1/3/ntian30/research/carbon/CxH_vib/H2O_calc/ads_slab/CHON2HO_d/out_0024/pw.inp
Warning: card &CELL ignored
Warning: card   CELL_DYNAMICS='IPI', ignored
Warning: card / ignored

     Current dimensions of program PWSCF are:
     Max number of different atomic species (ntypx) = 10
     Max number of k-points (npk) =  40000
     Max angular momentum in pseudopotentials (lmaxx) =  3
     Presently no symmetry can be used with electric field

     Message from routine cell_base_init:
     DEPRECATED: use true lattice parameter, not A to a.u. conversion factor

     IMPORTANT: XC functional enforced from input :
     Exchange-correlation= BEEF-VDW
                           (   1   4  43  14   2   0   0)
     Any further DFT definition will be discarded
     Please, verify this is what you really want

  @ DRIVER MODE: Connecting to
 qe_1139763_2937317.sched-torque.pace.gatech.edul39dsok6_scratch
  using UNIX socket
  @ DRIVER MODE: Message from server: STATUS
  @ DRIVER MODE: Message from server: INIT
  @ DRIVER MODE: Receiving replica           0          -1
  @ DRIVER MODE: Receiving encoded integer          25
  @ DRIVER MODE:  SCF:  T  FORCE:  T  STRESS:  F  VC:  F  ENSEMBLE:  F
  @ DRIVER MODE:  SCF:  T  FORCE:  T  STRESS:  F  VC:  F  ENSEMBLE:  F

     Using Slab Decomposition

     bravais-lattice index     =            0
     lattice parameter (alat)  =       1.8897  a.u.
     unit-cell volume          =    6658.9804 (a.u.)^3
     number of atoms/cell      =           54
     number of atomic types    =            5
     number of electrons       =       406.00
     number of Kohn-Sham states=          213
     kinetic-energy cutoff     =      29.3995  Ry
     charge density cutoff     =     293.9946  Ry
     scf convergence threshold =      7.3E-08
     mixing beta               =       0.0500
     number of iterations used =            8  plain     mixing
     Exchange-correlation= BEEF-VDW
                           (   1   4  43  14   2   0   0)

     celldm(1)=   1.889726  celldm(2)=   0.000000  celldm(3)=   0.000000
     celldm(4)=   0.000000  celldm(5)=   0.000000  celldm(6)=   0.000000

     crystal axes: (cart. coord. in units of alat)
               a(1) = (   6.579727   0.000000   0.000000 )
               a(2) = (  -0.000775   5.961596   0.000000 )
               a(3) = (   0.000000   0.000000  25.155947 )

     reciprocal axes: (cart. coord. in units 2 pi/alat)
               b(1) = (  0.151982  0.000020  0.000000 )
               b(2) = (  0.000000  0.167740  0.000000 )
               b(3) = (  0.000000  0.000000  0.039752 )

     PseudoPot. # 1 for O  read from file:
     /storage/coda1/p-amedford6/0/shared/rich_project_chbe-medford/medford-share/data/pseudos_module/espresso/nninc/pbe/van/O.UPF
     MD5 check sum: 78c19812648e8988a0fe644b0f25305e
     Pseudo is Ultrasoft, Zval =  6.0
     Generated by new atomic code, or converted to UPF format
     Using radial grid of  737 points,  4 beta functions with:
                l(1) =   0
                l(2) =   0
                l(3) =   1
                l(4) =   1
     Q(r) pseudized with  8 coefficients,  rinner =    0.800   0.800   0.800

     PseudoPot. # 2 for Ti read from file:
     /storage/coda1/p-amedford6/0/shared/rich_project_chbe-medford/medford-share/data/pseudos_module/espresso/nninc/pbe/van/Ti.UPF
     MD5 check sum: 8e4df49b7f0d34bbd5052bf3f5ea0213
     Pseudo is Ultrasoft, Zval = 12.0
     Generated by new atomic code, or converted to UPF format
     Using radial grid of  851 points,  6 beta functions with:
                l(1) =   0
                l(2) =   0
                l(3) =   1
                l(4) =   1
                l(5) =   2
                l(6) =   2
     Q(r) pseudized with  8 coefficients,  rinner =    1.000   1.000   1.000
                                                       1.000   1.000

     PseudoPot. # 3 for C  read from file:
     /storage/coda1/p-amedford6/0/shared/rich_project_chbe-medford/medford-share/data/pseudos_module/espresso/nninc/pbe/van/C.UPF
     MD5 check sum: 1a69bf6b8db32088f5b2163dbdb77a27
     Pseudo is Ultrasoft, Zval =  4.0
     Generated by new atomic code, or converted to UPF format
     Using radial grid of  721 points,  4 beta functions with:
                l(1) =   0
                l(2) =   0
                l(3) =   1
                l(4) =   1
     Q(r) pseudized with  8 coefficients,  rinner =    0.800   0.800   0.800

     PseudoPot. # 4 for H  read from file:
     /storage/coda1/p-amedford6/0/shared/rich_project_chbe-medford/medford-share/data/pseudos_module/espresso/nninc/pbe/van/H.UPF
     MD5 check sum: b5ee9d7bfd3a09ee7748110bda690ff7
     Pseudo is Ultrasoft, Zval =  1.0
     Generated by new atomic code, or converted to UPF format
     Using radial grid of  615 points,  1 beta functions with:
                l(1) =   0
     Q(r) pseudized with  8 coefficients,  rinner =    0.800

     PseudoPot. # 5 for N  read from file:
     /storage/coda1/p-amedford6/0/shared/rich_project_chbe-medford/medford-share/data/pseudos_module/espresso/nninc/pbe/van/N.UPF
     MD5 check sum: 90d10febe142ad51ac9d5be1deb811c4
     Pseudo is Ultrasoft, Zval =  5.0
     Generated by new atomic code, or converted to UPF format
     Using radial grid of  729 points,  4 beta functions with:
                l(1) =   0
                l(2) =   0
                l(3) =   1
                l(4) =   1
     Q(r) pseudized with  8 coefficients,  rinner =    0.800   0.800   0.800

     atomic species   valence    mass     pseudopotential
        O1             6.00    15.99900     O ( 1.00)
        Ti1           12.00    47.86700     Ti( 1.00)
        C1             4.00    12.01100     C ( 1.00)
        H1             1.00     1.00800     H ( 1.00)
        N1             5.00    14.00700     N ( 1.00)

     No symmetry found

   Cartesian axes

     site n.     atom                  positions (alat units)
         1           O1  tau(   1) = (   3.2904802   0.0005063   4.7018136  )
         2           O1  tau(   2) = (   3.2900926   2.9813045   4.7018136  )
         3           Ti1 tau(   3) = (   0.0004258   2.9801865   6.0000000  )
         4           Ti1 tau(   4) = (   0.0000382   5.9609847   6.0000000  )
         5           Ti1 tau(   5) = (   3.2906075   1.4906267   6.0002472  )
         6           Ti1 tau(   6) = (   3.2902200   4.4714249   6.0002472  )
         7           O1  tau(   7) = (   1.3043587   1.4918075   6.0039043  )
         8           O1  tau(   8) = (   1.3039711   4.4726057   6.0039043  )
         9           O1  tau(   9) = (   5.2767064   1.4903225   6.0039473  )
        10           O1  tau(  10) = (   5.2763189   4.4711207   6.0039473  )
        11           O1  tau(  11) = (   3.2906025   0.0005020   7.3038282  )
        12           O1  tau(  12) = (   3.2902150   2.9813002   7.3038282  )
        13           O1  tau(  13) = (   0.0006271   0.0005054   7.9858123  )
        14           O1  tau(  14) = (   0.0002396   2.9813036   7.9858123  )
        15           Ti1 tau(  15) = (   3.2350752   0.0608747   9.1773017  )
        16           Ti1 tau(  16) = (   3.2297482   3.0449837   9.2258248  )
        17           Ti1 tau(  17) = (   6.5035314   4.4790947   9.3419400  )
        18           O1  tau(  18) = (   4.5942328   1.4918067   9.2879030  )
        19           O1  tau(  19) = (   4.5938453   4.4726049   9.2879030  )
        20           O1  tau(  20) = (   1.9868534   1.4903216   9.2879459  )
        21           O1  tau(  21) = (   1.9864658   4.4711199   9.2879459  )
        22           Ti1 tau(  22) = (   6.5047199   1.5482117   9.3251357  )
        23           O1  tau(  23) = (   6.5709586   2.9893791  10.5365161  )
        24           O1  tau(  24) = (   6.5791863   0.0068326  10.5847705  )
        25           O1  tau(  25) = (   3.2737170   2.9471243  11.2864913  )
        26           O1  tau(  26) = (   3.2757665   0.0160177  11.3056520  )
        27           Ti1 tau(  27) = (   3.3024496   1.5456137  12.4328335  )
        28           Ti1 tau(  28) = (   0.0381823   0.0558990  12.5328616  )
        29           Ti1 tau(  29) = (   3.2867454   4.6490159  12.6676011  )
        30           O1  tau(  30) = (   1.2579511   1.4933188  12.6274103  )
        31           O1  tau(  31) = (   5.2930440   1.4968169  12.6131059  )
        32           O1  tau(  32) = (   1.2503383   4.4760527  12.6363980  )
        33           O1  tau(  33) = (   5.2887019   4.4660859  12.6249461  )
        34           Ti1 tau(  34) = (   6.5320965   3.0346479  12.8073368  )
        35           O1  tau(  35) = (   3.2762579   2.9735537  13.8874883  )
        36           O1  tau(  36) = (   3.2793791   5.9387796  13.8789893  )
        37           O1  tau(  37) = (   6.5412754   2.9812497  14.6926498  )
        38           O1  tau(  38) = (   6.5531526   0.0082392  14.6823945  )
        39           Ti1 tau(  39) = (   3.2668636   2.9663550  15.6683660  )
        40           Ti1 tau(  40) = (   3.2982107   5.9440960  16.3508785  )
        41           Ti1 tau(  41) = (   0.0141158   4.5598071  15.9269461  )
        42           O1  tau(  42) = (   4.5124726   4.4172202  16.0573870  )
        43           O1  tau(  43) = (   1.9821766   4.4208814  16.0404589  )
        44           O1  tau(  44) = (   4.4954461   1.5000296  16.1066544  )
        45           O1  tau(  45) = (   1.9782815   1.5221889  16.0619205  )
        46           Ti1 tau(  46) = (   0.0269324   1.3869748  16.0447141  )
        47           O1  tau(  47) = (   6.5379229   5.9414530  17.1901000  )
        48           O1  tau(  48) = (   6.5175113   2.9840192  17.3772383  )
        49           C1  tau(  49) = (   5.9742390   3.1768082  18.5865123  )
        50           H1  tau(  50) = (   5.8341806   4.1706531  18.9840957  )
        51           N1  tau(  51) = (   5.5886240   2.1683037  19.3103467  )
        52           N1  tau(  52) = (   5.2398892   1.2394158  19.8970451  )
        53           O1  tau(  53) = (   3.2183551   5.8834210  18.1446619  )
        54           H1  tau(  54) = (   3.7026433   0.4006729  18.8445816  )

     number of k points=    10  Fermi-Dirac smearing, width (Ry)=  0.0073
                       cart. coord. in units 2pi/alat
        k(    1) = (   0.0000000   0.0000000   0.0000000), wk =   0.1250000
        k(    2) = (   0.0000000   0.0419351   0.0000000), wk =   0.2500000
        k(    3) = (   0.0000000  -0.0838702   0.0000000), wk =   0.1250000
        k(    4) = (   0.0379955   0.0000049   0.0000000), wk =   0.2500000
        k(    5) = (   0.0379955   0.0419400   0.0000000), wk =   0.2500000
        k(    6) = (   0.0379955  -0.0838652   0.0000000), wk =   0.2500000
        k(    7) = (   0.0379955  -0.0419301   0.0000000), wk =   0.2500000
        k(    8) = (  -0.0759910  -0.0000099   0.0000000), wk =   0.1250000
        k(    9) = (  -0.0759910   0.0419252   0.0000000), wk =   0.2500000
        k(   10) = (  -0.0759910  -0.0838800   0.0000000), wk =   0.1250000

     Initial potential from superposition of free atoms

     starting charge  389.99917, renormalised to  406.00000

     negative rho (up, down):  1.659E-02 0.000E+00

     %%%%%%%%%%%%%%%%%%%%%%%%%%%%%%%%%%%%%%%%%%%%%%%%%%%%%%%%%%%%%%%%%%%%%%%%
     %                                                                      %
     % You are using vdW-DF, which was implemented by the Thonhauser group. %
     % Please cite the following two papers that made this development      %
     % possible and the two reviews that describe the various versions:     %
     %                                                                      %
     %   T. Thonhauser et al., PRL 115, 136402 (2015).                      %
     %   T. Thonhauser et al., PRB 76, 125112 (2007).                       %
     %   K. Berland et al., Rep. Prog. Phys. 78, 066501 (2015).             %
     %   D.C. Langreth et al., J. Phys.: Condens. Matter 21, 084203 (2009). %
     %                                                                      %
     %                                                                      %
     % If you are calculating the stress with vdW-DF, please also cite:     %
     %                                                                      %
     %   R. Sabatini et al., J. Phys.: Condens. Matter 24, 424209 (2012).   %
     %                                                                      %
     %%%%%%%%%%%%%%%%%%%%%%%%%%%%%%%%%%%%%%%%%%%%%%%%%%%%%%%%%%%%%%%%%%%%%%%%

     Adding external electric field

     Computed dipole along edir(3) :
        Dipole              -13.7826 Ry au,        -35.0318 Debye
        Dipole field         -0.0260 Ry au,

        Potential amp.        2.4111 Ry
        Total length         46.3494 bohr

     Starting wfcs are  306 atomic wfcs
  @ DRIVER MODE: Message from server: STATUS
  @ DRIVER MODE: Message from server: POSDATA
  @ DRIVER MODE: Reading and sharing cell
  @ DRIVER MODE: Reading and sharing positions
  @ DRIVER MODE: Received positions

     Self-consistent Calculation

     iteration #  1     ecut=    29.40 Ry     beta= 0.05
     Davidson diagonalization with overlap
     c_bands:  1 eigenvalues not converged
     c_bands:  1 eigenvalues not converged
     c_bands:  5 eigenvalues not converged
     c_bands:  5 eigenvalues not converged
     ethr =  1.00E-05,  avg # of iterations = 30.9

[...]

     total energy              =   -2308.70842376 Ry
     estimated scf accuracy    <    7887.11938409 Ry

     iteration #  2     ecut=    29.40 Ry     beta= 0.05
     Davidson diagonalization with overlap
     ethr =  1.00E-02,  avg # of iterations = 26.1

[...]

     iteration # 46     ecut=    29.40 Ry     beta= 0.05
     Davidson diagonalization with overlap
     c_bands:  1 eigenvalues not converged
     ethr =  2.36E-07,  avg # of iterations =  7.7

[...]

     total energy              =   -3002.64622507 Ry
     estimated scf accuracy    <       0.00000010 Ry

     iteration # 69     ecut=    29.40 Ry     beta= 0.05
     Davidson diagonalization with overlap
     ethr =  2.35E-11,  avg # of iterations =  2.6

     negative rho (up, down):  1.645E-02 0.000E+00

     Adding external electric field

     Computed dipole along edir(3) :
        Dipole                0.4274 Ry au,          1.0864 Debye
        Dipole field          0.0008 Ry au,

        Potential amp.       -0.0748 Ry
        Total length         46.3494 bohr

     End of self-consistent calculation

          k = 0.0000 0.0000 0.0000 ( 18029 PWs)   bands (ev):

   -56.2428 -56.1862 -55.7586 -55.7093 -55.6988 -55.6859 -55.6512 -55.6455
   -55.6170 -55.6048 -55.5641 -55.5507 -55.4837 -55.3131 -54.8940 -54.8601
   -32.6580 -32.5190 -32.4536 -32.4129 -32.3145 -32.2826 -32.2418 -32.2096
   -32.1955 -32.0916 -32.0643 -31.9999 -31.9959 -31.9894 -31.9819 -31.9578
   -31.9513 -31.9418 -31.9220 -31.9159 -31.8631 -31.8569 -31.8536 -31.8528
   -31.8492 -31.8329 -31.8272 -31.8117 -31.8079 -31.8029 -31.7951 -31.7676
   -31.7633 -31.7620 -31.7401 -31.7271 -31.7207 -31.7117 -31.6854 -31.5729
   -31.5315 -31.5232 -31.2907 -31.2319 -31.2077 -31.1072 -31.0219 -30.9107
   -20.6273 -18.6958 -16.5066 -16.4590 -16.3024 -16.0969 -15.9392 -15.8649
   -15.6730 -15.5826 -15.5286 -15.4962 -15.4612 -15.3830 -15.3464 -15.2964
   -15.2497 -15.2349 -15.2155 -15.1952 -15.1867 -15.1811 -15.1756 -15.1482
   -15.1068 -15.0085 -14.9421 -14.9066 -14.8862 -14.8765 -14.8349 -14.5272
   -13.5151 -13.3963 -13.2867  -6.9294  -5.8998  -4.9496  -4.3802  -3.9516
    -3.7792  -3.6865  -3.6540  -3.5697  -3.5227  -3.3500  -3.3310  -3.1427
    -3.0207  -2.9387  -2.8674  -2.8534  -2.8231  -2.7883  -2.7313  -2.6936
    -2.6630  -2.6347  -2.5763  -2.5348  -2.5099  -2.4779  -2.4616  -2.4242
    -2.4070  -2.3987  -2.2620  -2.2151  -2.1710  -2.1676  -2.1431  -2.1215
    -2.1013  -2.0634  -2.0498  -2.0060  -1.9239  -1.8382  -1.8204  -1.7435
    -1.7060  -1.5313  -1.4655  -1.3915  -1.3615  -1.1993  -1.1713  -1.1616
    -1.1409  -1.1216  -0.9999  -0.9650  -0.9323  -0.9206  -0.8838  -0.8590
    -0.8371  -0.7278  -0.6651  -0.6269  -0.6096  -0.5440  -0.4480  -0.3799
    -0.3471  -0.3161  -0.2849  -0.1790  -0.1468  -0.1064  -0.0982  -0.0367
    -0.0051   0.0191   0.0771   0.1031   0.1562   0.1695   0.1924   0.2300
     0.2407   0.2875   0.3541   0.4194   0.5164   0.5355   0.5595   0.5988
     0.6778   0.7538   0.8356   1.0145   1.1236   1.1633   1.3260   1.3738
     1.6744   1.7220   2.5405   3.0476   3.1993   3.4611   3.5136   3.5481
     3.5855   3.6439   3.7741   3.8829   3.9392

[...]

          k = 0.0380-0.0419 0.0000 ( 17876 PWs)   bands (ev):

[...]

          k =-0.0760-0.0000 0.0000 ( 17886 PWs)   bands (ev):

[...]

          k =-0.0760-0.0839 0.0000 ( 17948 PWs)   bands (ev):

   -56.2373 -56.1916 -55.7561 -55.7079 -55.6911 -55.6815 -55.6586 -55.6479
   -55.6214 -55.5957 -55.5732 -55.5517 -55.4820 -55.3146 -54.8772 -54.8768
   -32.5154 -32.4935 -32.4561 -32.4546 -32.3811 -32.3432 -32.1455 -32.0605
   -32.0500 -32.0136 -32.0106 -31.9779 -31.9726 -31.9680 -31.9459 -31.9382
   -31.9324 -31.9290 -31.9233 -31.9146 -31.9062 -31.8991 -31.8758 -31.8687
   -31.8681 -31.8611 -31.8595 -31.8556 -31.8351 -31.8328 -31.8184 -31.8125
   -31.8088 -31.7987 -31.7944 -31.7670 -31.7550 -31.7180 -31.6891 -31.6470
   -31.5718 -31.5258 -31.2208 -31.2206 -31.1062 -31.1040 -31.0640 -31.0629
   -20.6259 -18.6840 -16.4867 -15.8249 -15.8170 -15.7814 -15.7413 -15.6935
   -15.6810 -15.6146 -15.6045 -15.5778 -15.4965 -15.4333 -15.3822 -15.3583
   -15.3542 -15.3310 -15.3034 -15.2617 -15.2412 -15.2307 -15.2221 -15.1655
   -15.1446 -15.1424 -15.1136 -15.0936 -15.0739 -15.0255 -14.8900 -14.6859
   -13.5223 -13.3911 -13.3894  -6.9012  -5.9160  -4.9481  -4.3677  -3.6253
    -3.3405  -3.0855  -3.0548  -2.9733  -2.9164  -2.8212  -2.8041  -2.7852
    -2.7653  -2.7540  -2.7260  -2.6983  -2.6499  -2.6190  -2.5854  -2.5732
    -2.5663  -2.5456  -2.5398  -2.5074  -2.4910  -2.4726  -2.4545  -2.4368
    -2.4252  -2.4093  -2.3387  -2.3065  -2.2750  -2.1064  -2.0912  -2.0880
    -2.0650  -2.0489  -2.0397  -1.9776  -1.9145  -1.9044  -1.8541  -1.8380
    -1.7676  -1.6939  -1.5372  -1.4955  -1.4654  -1.3922  -1.3303  -1.3002
    -1.2760  -1.2427  -1.2102  -1.2021  -1.1563  -1.1064  -1.0261  -1.0062
    -0.9519  -0.9459  -0.9361  -0.8585  -0.7836  -0.7674  -0.7205  -0.7021
    -0.6783  -0.6418  -0.5854  -0.5505  -0.5380  -0.5260  -0.4290  -0.3782
    -0.3239  -0.2260  -0.1854  -0.1261  -0.0179   0.0691   0.0788   0.1777
     0.2193   0.3198   0.3556   0.4096   0.4488   0.4766   0.5050   0.6229
     0.6419   0.6882   0.7658   0.7838   0.8107   0.8625   1.5125   1.5201
     1.5303   1.5320   2.4591   3.5695   3.5971   3.6157   3.6544   3.8495
     3.8801   3.8984   3.9269   3.9457   3.9978

     the Fermi energy is     2.8507 ev

!    total energy              =   -3002.64624988 Ry
     estimated scf accuracy    <       0.00000006 Ry
     smearing contrib. (-TS)   =      -0.00430392 Ry
     internal energy E=F+TS    =   -3002.64194596 Ry

     The total energy is F=E-TS. E is the sum of the following terms:
     one-electron contribution =  -23368.16762313 Ry
     hartree contribution      =   11777.98730454 Ry
     xc contribution           =    -498.79281032 Ry
     ewald contribution        =    9086.33083818 Ry
     electric field correction =       0.00034477 Ry

     convergence has been achieved in  69 iterations

     Forces acting on atoms (cartesian axes, Ry/au):

     atom    1 type  1   force =     0.00016704    0.00010340    0.09956981
     atom    2 type  1   force =     0.00014894    0.00020644    0.09907339
     atom    3 type  2   force =     0.00019129    0.00034215    0.12382505
     atom    4 type  2   force =     0.00043178    0.00003660    0.13844334
     atom    5 type  2   force =    -0.00010194    0.00964677   -0.16000777
     atom    6 type  2   force =     0.00008868   -0.00873744   -0.15979826
     atom    7 type  1   force =    -0.07906716    0.00145679   -0.03322042
     atom    8 type  1   force =    -0.07909863   -0.00181248   -0.03325951
     atom    9 type  1   force =     0.07902591    0.00178574   -0.03330131
     atom   10 type  1   force =     0.07905450   -0.00146756   -0.03327935
     atom   11 type  1   force =    -0.00114468    0.00063031    0.04297230
     atom   12 type  1   force =    -0.00115254    0.00003739    0.04562819
     atom   13 type  1   force =    -0.00039689   -0.00174416   -0.05054226
     atom   14 type  1   force =    -0.00086406    0.00123017   -0.04775323
     atom   15 type  2   force =    -0.00033869   -0.00005285   -0.00002223
     atom   16 type  2   force =    -0.00032188    0.00005329   -0.00031537
     atom   17 type  2   force =     0.00022318   -0.00040432   -0.00026701
     atom   18 type  1   force =    -0.01157073   -0.00689656   -0.00020780
     atom   19 type  1   force =    -0.01369741    0.00098006    0.00214730
     atom   20 type  1   force =     0.01286664   -0.00248333   -0.00222452
     atom   21 type  1   force =     0.01412256    0.00576283    0.00040145
     atom   22 type  2   force =     0.00031634    0.00007133    0.00014132
     atom   23 type  1   force =    -0.00009988   -0.00008796    0.00001362
     atom   24 type  1   force =    -0.00025308   -0.00000031    0.00049477
     atom   25 type  1   force =     0.00023553    0.00030164   -0.00006102
     atom   26 type  1   force =     0.00035193    0.00010893   -0.00023717
     atom   27 type  2   force =    -0.00031377   -0.00043151    0.00024506
     atom   28 type  2   force =     0.00051254   -0.00030112   -0.00017943
     atom   29 type  2   force =    -0.00015643    0.00025124    0.00008446
     atom   30 type  1   force =    -0.00033176   -0.00034453   -0.00022843
     atom   31 type  1   force =     0.00049615   -0.00003187    0.00014856
     atom   32 type  1   force =    -0.00029494    0.00038524    0.00002571
     atom   33 type  1   force =     0.00022975    0.00032842    0.00012373
     atom   34 type  2   force =     0.00040962    0.00017025   -0.00045057
     atom   35 type  1   force =     0.00005522   -0.00010817   -0.00032922
     atom   36 type  1   force =     0.00008098   -0.00003947    0.00033971
     atom   37 type  1   force =     0.00001806   -0.00019746    0.00071351
     atom   38 type  1   force =     0.00003939    0.00037617    0.00003962
     atom   39 type  2   force =     0.00003366    0.00037071    0.00027117
     atom   40 type  2   force =    -0.00005994   -0.00020067   -0.00085653
     atom   41 type  2   force =    -0.00032907    0.00048696   -0.00037055
     atom   42 type  1   force =     0.00022483    0.00024664   -0.00006173
     atom   43 type  1   force =    -0.00040051    0.00015091   -0.00004545
     atom   44 type  1   force =     0.00039029   -0.00008445    0.00054642
     atom   45 type  1   force =    -0.00061025   -0.00000776    0.00045616
     atom   46 type  2   force =    -0.00012415    0.00033382   -0.00036114
     atom   47 type  1   force =    -0.00003247    0.00029213    0.00030233
     atom   48 type  1   force =    -0.00054181   -0.00160803    0.00151679
     atom   49 type  3   force =    -0.00251043   -0.00376817    0.00570836
     atom   50 type  4   force =     0.00006468    0.00005572    0.00045549
     atom   51 type  5   force =     0.00893151    0.01989235   -0.01824493
     atom   52 type  5   force =    -0.00517769   -0.01508157    0.01088654
     atom   53 type  1   force =     0.00059296    0.00056505    0.00123163
     atom   54 type  4   force =    -0.00031320   -0.00076770   -0.00018061

     Total force =     0.381815     Total SCF correction =     0.000826
  @ DRIVER MODE: Message from server: STATUS
  @ DRIVER MODE: Message from server: GETFORCE
  @ DRIVER MODE: Returning v,forces,stress,ensemble

     Writing output data file ./calc.save/
  @ DRIVER MODE: Message from server: EXIT
  @ DRIVE MODE: Exiting

     General routines

     Parallel routines

   This run was terminated on:   0:29:25  23Sep2021

   JOB DONE.