     Program PWSCF v.6.7GPU starts on 16Sep2021 at  1:37:29

     R & G space division:  proc/nbgrp/npool/nimage =      10
     Reading input from /storage/home/hcoda1/3/ntian30/research/carbon/CxH_vib/H2O_calc/ads_slab/CHNHHH2O_a/out_0031/pw.inp
Warning: card &CELL ignored
Warning: card   CELL_DYNAMICS='IPI', ignored
Warning: card / ignored

     Current dimensions of program PWSCF are:
     Max number of different atomic species (ntypx) = 10
     Max number of k-points (npk) =  40000
     Max angular momentum in pseudopotentials (lmaxx) =  3
     Presently no symmetry can be used with electric field

     Message from routine cell_base_init:
     DEPRECATED: use true lattice parameter, not A to a.u. conversion factor

     IMPORTANT: XC functional enforced from input :
     Exchange-correlation= BEEF-VDW
                           (   1   4  43  14   2   0   0)
     Any further DFT definition will be discarded
     Please, verify this is what you really want

  @ DRIVER MODE: Connecting to
 qe_1139763_2852629.sched-torque.pace.gatech.eduku2_btr6_scratch
  using UNIX socket
  @ DRIVER MODE: Message from server: STATUS
  @ DRIVER MODE: Message from server: INIT
  @ DRIVER MODE: Receiving replica           0          -1
  @ DRIVER MODE: Receiving encoded integer          25
  @ DRIVER MODE:  SCF:  T  FORCE:  T  STRESS:  F  VC:  F  ENSEMBLE:  F
  @ DRIVER MODE:  SCF:  T  FORCE:  T  STRESS:  F  VC:  F  ENSEMBLE:  F

     Using Slab Decomposition

     bravais-lattice index     =            0
     lattice parameter (alat)  =       1.8897  a.u.
     unit-cell volume          =    6658.9804 (a.u.)^3
     number of atoms/cell      =           55
     number of atomic types    =            5
     number of electrons       =       398.00
     number of Kohn-Sham states=          209
     kinetic-energy cutoff     =      29.3995  Ry
     charge density cutoff     =     293.9946  Ry
     scf convergence threshold =      7.3E-08
     mixing beta               =       0.0500
     number of iterations used =            8  plain     mixing
     Exchange-correlation= BEEF-VDW
                           (   1   4  43  14   2   0   0)

     celldm(1)=   1.889726  celldm(2)=   0.000000  celldm(3)=   0.000000
     celldm(4)=   0.000000  celldm(5)=   0.000000  celldm(6)=   0.000000

     crystal axes: (cart. coord. in units of alat)
               a(1) = (   6.579727   0.000000   0.000000 )
               a(2) = (  -0.000775   5.961596   0.000000 )
               a(3) = (   0.000000   0.000000  25.155947 )

     reciprocal axes: (cart. coord. in units 2 pi/alat)
               b(1) = (  0.151982  0.000020  0.000000 )
               b(2) = (  0.000000  0.167740  0.000000 )
               b(3) = (  0.000000  0.000000  0.039752 )

     PseudoPot. # 1 for Ti read from file:
     /storage/coda1/p-amedford6/0/shared/rich_project_chbe-medford/medford-share/data/pseudos_module/espresso/nninc/pbe/van/Ti.UPF
     MD5 check sum: 8e4df49b7f0d34bbd5052bf3f5ea0213
     Pseudo is Ultrasoft, Zval = 12.0
     Generated by new atomic code, or converted to UPF format
     Using radial grid of  851 points,  6 beta functions with:
                l(1) =   0
                l(2) =   0
                l(3) =   1
                l(4) =   1
                l(5) =   2
                l(6) =   2
     Q(r) pseudized with  8 coefficients,  rinner =    1.000   1.000   1.000
                                                       1.000   1.000

     PseudoPot. # 2 for O  read from file:
     /storage/coda1/p-amedford6/0/shared/rich_project_chbe-medford/medford-share/data/pseudos_module/espresso/nninc/pbe/van/O.UPF
     MD5 check sum: 78c19812648e8988a0fe644b0f25305e
     Pseudo is Ultrasoft, Zval =  6.0
     Generated by new atomic code, or converted to UPF format
     Using radial grid of  737 points,  4 beta functions with:
                l(1) =   0
                l(2) =   0
                l(3) =   1
                l(4) =   1
     Q(r) pseudized with  8 coefficients,  rinner =    0.800   0.800   0.800

     PseudoPot. # 3 for N  read from file:
     /storage/coda1/p-amedford6/0/shared/rich_project_chbe-medford/medford-share/data/pseudos_module/espresso/nninc/pbe/van/N.UPF
     MD5 check sum: 90d10febe142ad51ac9d5be1deb811c4
     Pseudo is Ultrasoft, Zval =  5.0
     Generated by new atomic code, or converted to UPF format
     Using radial grid of  729 points,  4 beta functions with:
                l(1) =   0
                l(2) =   0
                l(3) =   1
                l(4) =   1
     Q(r) pseudized with  8 coefficients,  rinner =    0.800   0.800   0.800

     PseudoPot. # 4 for C  read from file:
     /storage/coda1/p-amedford6/0/shared/rich_project_chbe-medford/medford-share/data/pseudos_module/espresso/nninc/pbe/van/C.UPF
     MD5 check sum: 1a69bf6b8db32088f5b2163dbdb77a27
     Pseudo is Ultrasoft, Zval =  4.0
     Generated by new atomic code, or converted to UPF format
     Using radial grid of  721 points,  4 beta functions with:
                l(1) =   0
                l(2) =   0
                l(3) =   1
                l(4) =   1
     Q(r) pseudized with  8 coefficients,  rinner =    0.800   0.800   0.800

     PseudoPot. # 5 for H  read from file:
     /storage/coda1/p-amedford6/0/shared/rich_project_chbe-medford/medford-share/data/pseudos_module/espresso/nninc/pbe/van/H.UPF
     MD5 check sum: b5ee9d7bfd3a09ee7748110bda690ff7
     Pseudo is Ultrasoft, Zval =  1.0
     Generated by new atomic code, or converted to UPF format
     Using radial grid of  615 points,  1 beta functions with:
                l(1) =   0
     Q(r) pseudized with  8 coefficients,  rinner =    0.800

     atomic species   valence    mass     pseudopotential
        Ti1           12.00    47.86700     Ti( 1.00)
        O1             6.00    15.99900     O ( 1.00)
        N1             5.00    14.00700     N ( 1.00)
        C1             4.00    12.01100     C ( 1.00)
        H1             1.00     1.00800     H ( 1.00)

     No symmetry found

   Cartesian axes

     site n.     atom                  positions (alat units)
         1           Ti1 tau(   1) = (   0.0004258   2.9801865   6.0000000  )
         2           Ti1 tau(   2) = (   3.2906075   1.4906267   6.0002472  )
         3           O1  tau(   3) = (   0.0006271   0.0005054   7.9858123  )
         4           O1  tau(   4) = (   3.2906025   0.0005020   7.3038282  )
         5           O1  tau(   5) = (   4.5942328   1.4918067   9.2879030  )
         6           O1  tau(   6) = (   1.9868534   1.4903216   9.2879459  )
         7           Ti1 tau(   7) = (   3.2907910   2.8959150   9.1758416  )
         8           Ti1 tau(   8) = (   0.0015273   1.4827037   9.2680791  )
         9           O1  tau(   9) = (   3.2943807   5.9438157  11.3430345  )
        10           O1  tau(  10) = (   0.0116148   5.9584955  10.6183126  )
        11           O1  tau(  11) = (   1.2953376   1.4759649  12.6292060  )
        12           O1  tau(  12) = (   5.2846356   1.4785235  12.6176154  )
        13           Ti1 tau(  13) = (   0.0556596   2.9564334  12.6140783  )
        14           Ti1 tau(  14) = (   3.3658323   1.4657407  12.4949608  )
        15           O1  tau(  15) = (   6.5664030   0.0209144  14.6477191  )
        16           O1  tau(  16) = (   3.3113265   5.9542485  13.9698242  )
        17           O1  tau(  17) = (   4.5454210   1.5146250  16.1225105  )
        18           O1  tau(  18) = (   2.0305911   1.5113983  16.0894517  )
        19           Ti1 tau(  19) = (   3.2587399   2.9544808  15.6767922  )
        20           Ti1 tau(  20) = (   6.5654577   1.5458692  15.9193722  )
        21           O1  tau(  21) = (   3.2904802   0.0005063   4.7018136  )
        22           O1  tau(  22) = (   0.0418464   5.8849155  17.2380659  )
        23           O1  tau(  23) = (   1.3043587   1.4918075   6.0039043  )
        24           O1  tau(  24) = (   5.2767064   1.4903225   6.0039473  )
        25           Ti1 tau(  25) = (   0.0000382   5.9609847   6.0000000  )
        26           Ti1 tau(  26) = (   3.2902200   4.4714249   6.0002472  )
        27           O1  tau(  27) = (   0.0002396   2.9813036   7.9858123  )
        28           O1  tau(  28) = (   3.2902150   2.9813002   7.3038282  )
        29           O1  tau(  29) = (   4.5938453   4.4726049   9.2879030  )
        30           O1  tau(  30) = (   1.9864658   4.4711199   9.2879459  )
        31           Ti1 tau(  31) = (   3.2891106   5.8743827   9.1763621  )
        32           Ti1 tau(  32) = (   0.0006254   4.4649316   9.2693709  )
        33           O1  tau(  33) = (   3.2978316   2.9705197  11.3397625  )
        34           O1  tau(  34) = (   0.0092240   2.9805883  10.6323155  )
        35           O1  tau(  35) = (   1.2936985   4.4655287  12.6460247  )
        36           O1  tau(  36) = (   5.2856521   4.4646452  12.6308247  )
        37           Ti1 tau(  37) = (   0.0515089   5.9379728  12.5308627  )
        38           Ti1 tau(  38) = (   3.3654372   4.4547101  12.4935900  )
        39           O1  tau(  39) = (   6.5748852   2.9443291  14.6951209  )
        40           O1  tau(  40) = (   3.2957406   2.9584624  13.8938737  )
        41           O1  tau(  41) = (   4.5486474   4.4154460  16.0876977  )
        42           O1  tau(  42) = (   2.0388008   4.4257786  16.0448984  )
        43           Ti1 tau(  43) = (   3.3137362   5.9209902  15.7922403  )
        44           Ti1 tau(  44) = (   0.0032603   4.6697478  15.9558853  )
        45           O1  tau(  45) = (   3.2900926   2.9813045   4.7018136  )
        46           O1  tau(  46) = (   1.3039711   4.4726057   6.0039043  )
        47           O1  tau(  47) = (   5.2763189   4.4711207   6.0039473  )
        48           N1  tau(  48) = (   5.6270067   3.1633449  18.6203826  )
        49           C1  tau(  49) = (   0.0237924   2.7940403  17.7774691  )
        50           H1  tau(  50) = (   0.9584034   2.6460975  18.3247808  )
        51           H1  tau(  51) = (   4.7713523   3.5531088  18.2436842  )
        52           H1  tau(  52) = (   5.8168525   3.4166350  19.5804594  )
        53           O1  tau(  53) = (   3.2015967   5.9081562  18.2546127  )
        54           H1  tau(  54) = (   3.8106726   0.6855978  18.4519937  )
        55           H1  tau(  55) = (   2.3006756   0.2828797  18.3268221  )

     number of k points=    10  Fermi-Dirac smearing, width (Ry)=  0.0073
                       cart. coord. in units 2pi/alat
        k(    1) = (   0.0000000   0.0000000   0.0000000), wk =   0.1250000
        k(    2) = (   0.0000000   0.0419351   0.0000000), wk =   0.2500000
        k(    3) = (   0.0000000  -0.0838702   0.0000000), wk =   0.1250000
        k(    4) = (   0.0379955   0.0000049   0.0000000), wk =   0.2500000
        k(    5) = (   0.0379955   0.0419400   0.0000000), wk =   0.2500000
        k(    6) = (   0.0379955  -0.0838652   0.0000000), wk =   0.2500000
        k(    7) = (   0.0379955  -0.0419301   0.0000000), wk =   0.2500000
        k(    8) = (  -0.0759910  -0.0000099   0.0000000), wk =   0.1250000
        k(    9) = (  -0.0759910   0.0419252   0.0000000), wk =   0.2500000
        k(   10) = (  -0.0759910  -0.0838800   0.0000000), wk =   0.1250000

     Initial potential from superposition of free atoms

     starting charge  381.99915, renormalised to  398.00000

     negative rho (up, down):  1.708E-02 0.000E+00

     %%%%%%%%%%%%%%%%%%%%%%%%%%%%%%%%%%%%%%%%%%%%%%%%%%%%%%%%%%%%%%%%%%%%%%%%
     %                                                                      %
     % You are using vdW-DF, which was implemented by the Thonhauser group. %
     % Please cite the following two papers that made this development      %
     % possible and the two reviews that describe the various versions:     %
     %                                                                      %
     %   T. Thonhauser et al., PRL 115, 136402 (2015).                      %
     %   T. Thonhauser et al., PRB 76, 125112 (2007).                       %
     %   K. Berland et al., Rep. Prog. Phys. 78, 066501 (2015).             %
     %   D.C. Langreth et al., J. Phys.: Condens. Matter 21, 084203 (2009). %
     %                                                                      %
     %                                                                      %
     % If you are calculating the stress with vdW-DF, please also cite:     %
     %                                                                      %
     %   R. Sabatini et al., J. Phys.: Condens. Matter 24, 424209 (2012).   %
     %                                                                      %
     %%%%%%%%%%%%%%%%%%%%%%%%%%%%%%%%%%%%%%%%%%%%%%%%%%%%%%%%%%%%%%%%%%%%%%%%

     Adding external electric field

     Computed dipole along edir(3) :
        Dipole              -10.1352 Ry au,        -25.7611 Debye
        Dipole field         -0.0191 Ry au,

        Potential amp.        1.7730 Ry
        Total length         46.3494 bohr

     Starting wfcs are  301 atomic wfcs
  @ DRIVER MODE: Message from server: STATUS
  @ DRIVER MODE: Message from server: POSDATA
  @ DRIVER MODE: Reading and sharing cell
  @ DRIVER MODE: Reading and sharing positions
  @ DRIVER MODE: Received positions

     Self-consistent Calculation

     iteration #  1     ecut=    29.40 Ry     beta= 0.05
     Davidson diagonalization with overlap
     c_bands:  2 eigenvalues not converged
     c_bands:  1 eigenvalues not converged
     c_bands:  1 eigenvalues not converged
     c_bands:  3 eigenvalues not converged
     c_bands:  1 eigenvalues not converged
     c_bands:  3 eigenvalues not converged
     c_bands:  3 eigenvalues not converged
     c_bands:  3 eigenvalues not converged
     c_bands:  1 eigenvalues not converged
     ethr =  1.00E-05,  avg # of iterations = 19.8

[...]

     total energy              =   -2497.70455595 Ry
     estimated scf accuracy    <    5094.09205695 Ry

     iteration #  2     ecut=    29.40 Ry     beta= 0.05
     Davidson diagonalization with overlap
     ethr =  1.00E-02,  avg # of iterations = 25.7

[...]

     iteration # 62     ecut=    29.40 Ry     beta= 0.05
     Davidson diagonalization with overlap
     c_bands:  1 eigenvalues not converged
     ethr =  4.61E-08,  avg # of iterations =  4.4

[...]

     total energy              =   -2953.88235557 Ry
     estimated scf accuracy    <       0.00000009 Ry

     iteration # 78     ecut=    29.40 Ry     beta= 0.05
     Davidson diagonalization with overlap
     ethr =  2.19E-11,  avg # of iterations =  2.4

     negative rho (up, down):  1.666E-02 0.000E+00

     Adding external electric field

     Computed dipole along edir(3) :
        Dipole                1.2950 Ry au,          3.2916 Debye
        Dipole field          0.0024 Ry au,

        Potential amp.       -0.2265 Ry
        Total length         46.3494 bohr

     End of self-consistent calculation

          k = 0.0000 0.0000 0.0000 ( 18029 PWs)   bands (ev):

   -55.4424 -55.4362 -55.4170 -55.4083 -55.4001 -55.2988 -55.2569 -55.2506
   -55.2350 -55.2332 -55.2160 -55.1998 -54.8588 -54.7666 -54.4288 -54.3947
   -31.9924 -31.9262 -31.8179 -31.7938 -31.7534 -31.7494 -31.7337 -31.7238
   -31.6854 -31.6837 -31.6539 -31.6381 -31.6268 -31.6164 -31.5954 -31.5829
   -31.5738 -31.5480 -31.5443 -31.5089 -31.5003 -31.4975 -31.4634 -31.4519
   -31.4456 -31.4431 -31.4350 -31.4343 -31.4339 -31.4082 -31.4080 -31.4025
   -31.3858 -31.3818 -31.3575 -31.3497 -31.3429 -31.1908 -31.0762 -31.0243
   -30.9650 -30.9285 -30.8363 -30.7469 -30.7245 -30.6529 -30.5664 -30.4553
   -19.0753 -16.4586 -16.2001 -15.9387 -15.7549 -15.6258 -15.5985 -15.4246
   -15.2896 -15.1876 -15.1254 -15.0687 -15.0485 -15.0009 -14.9980 -14.9862
   -14.9830 -14.9521 -14.9041 -14.8831 -14.8632 -14.8220 -14.8128 -14.7961
   -14.7469 -14.7081 -14.6134 -14.5814 -14.5554 -14.5152 -14.0303 -12.9312
   -12.8146  -9.0190  -6.8964  -6.6923  -4.2584  -3.5709  -3.4087  -3.3542
    -3.3435  -3.3202  -3.2265  -3.0916  -2.9525  -2.7210  -2.6589  -2.6228
    -2.5905  -2.5530  -2.4368  -2.3858  -2.3743  -2.3088  -2.2613  -2.2533
    -2.2404  -2.2191  -2.2037  -2.1431  -2.1297  -2.0305  -1.9880  -1.9170
    -1.8569  -1.8252  -1.7745  -1.7594  -1.7160  -1.7128  -1.6979  -1.6790
    -1.6651  -1.6492  -1.5909  -1.5299  -1.4521  -1.2670  -1.2342  -1.1182
    -1.0896  -1.0580  -1.0140  -0.9304  -0.9035  -0.8813  -0.8416  -0.7510
    -0.7255  -0.6784  -0.5898  -0.5001  -0.4540  -0.4279  -0.3487  -0.3134
    -0.2854  -0.2186  -0.2113  -0.1996  -0.1233  -0.0686   0.0385   0.0745
     0.1091   0.1245   0.1389   0.2238   0.2623   0.3196   0.3636   0.4166
     0.4527   0.4675   0.5036   0.5248   0.5396   0.5666   0.5784   0.7612
     0.8024   0.8316   0.8623   0.9475   1.0488   1.1158   1.1992   1.2686
     1.5160   1.5936   1.6461   1.7840   2.1657   2.2119   3.6285   3.7570
     3.7754   3.7936   3.8248   3.8875   3.9505   4.1398   4.1621   4.1835
     4.2116

[...]

          k = 0.0380-0.0419 0.0000 ( 17876 PWs)   bands (ev):

[...]

          k =-0.0760-0.0000 0.0000 ( 17886 PWs)   bands (ev):

[...]

          k =-0.0760-0.0839 0.0000 ( 17948 PWs)   bands (ev):

   -55.4259 -55.4247 -55.4199 -55.4167 -55.4148 -55.2899 -55.2657 -55.2365
   -55.2354 -55.2304 -55.2183 -55.2153 -54.8556 -54.7696 -54.4118 -54.4116
   -31.8018 -31.7912 -31.7419 -31.7410 -31.7267 -31.7196 -31.7185 -31.7025
   -31.6873 -31.6463 -31.6388 -31.6335 -31.6237 -31.6052 -31.5695 -31.5591
   -31.5546 -31.5546 -31.5521 -31.5460 -31.5457 -31.5448 -31.5415 -31.5025
   -31.4816 -31.4758 -31.4648 -31.4510 -31.4457 -31.4418 -31.4397 -31.4396
   -31.4328 -31.4295 -31.4105 -31.4051 -31.2516 -31.1926 -31.0696 -31.0422
   -31.0255 -30.9650 -30.7373 -30.7371 -30.6491 -30.6488 -30.6097 -30.6096
   -19.0743 -16.4483 -15.6899 -15.5607 -15.4320 -15.3743 -15.3688 -15.3105
   -15.3060 -15.1924 -15.1834 -15.1546 -15.1296 -15.1128 -15.0849 -15.0653
   -15.0035 -14.9829 -14.9795 -14.9494 -14.9202 -14.9073 -14.9025 -14.8877
   -14.8839 -14.8299 -14.7737 -14.7706 -14.6597 -14.5568 -14.1868 -12.9165
   -12.9161  -9.0285  -6.8819  -6.7099  -4.2259  -3.2293  -2.9741  -2.7924
    -2.6874  -2.6313  -2.5680  -2.5492  -2.3830  -2.3679  -2.3581  -2.3214
    -2.3046  -2.2835  -2.2729  -2.2681  -2.2420  -2.2299  -2.2119  -2.1803
    -2.1474  -2.1293  -2.1212  -2.1148  -2.0980  -2.0795  -2.0565  -2.0358
    -2.0312  -2.0043  -1.9645  -1.9409  -1.8812  -1.7460  -1.7087  -1.6681
    -1.5982  -1.5917  -1.5380  -1.5218  -1.4948  -1.4671  -1.4038  -1.3806
    -1.2324  -1.1678  -1.1519  -1.1356  -1.1213  -1.0002  -0.9589  -0.8903
    -0.8637  -0.7948  -0.7633  -0.7519  -0.7054  -0.6041  -0.5911  -0.5393
    -0.5275  -0.4305  -0.4079  -0.3970  -0.3621  -0.3175  -0.2490  -0.2082
    -0.1937  -0.1838  -0.1506  -0.1437  -0.1033   0.0169   0.0770   0.1383
     0.2096   0.3126   0.4242   0.4367   0.5857   0.6121   0.6259   0.7318
     0.8179   0.8486   0.8685   0.8959   0.8991   1.0239   1.0710   1.0807
     1.0823   1.2329   1.9557   1.9571   2.0314   2.0319   3.7364   3.9365
     3.9579   3.9998   4.0463   4.1779   4.1868   4.2212   4.2224   4.3062
     4.3382

     the Fermi energy is     3.6879 ev

!    total energy              =   -2953.88236670 Ry
     estimated scf accuracy    <       0.00000007 Ry
     smearing contrib. (-TS)   =      -0.03290395 Ry
     internal energy E=F+TS    =   -2953.84946275 Ry

     The total energy is F=E-TS. E is the sum of the following terms:
     one-electron contribution =  -24258.47364064 Ry
     hartree contribution      =   12222.79165965 Ry
     xc contribution           =    -488.84573469 Ry
     ewald contribution        =    9570.67508804 Ry
     electric field correction =       0.00316489 Ry

     convergence has been achieved in  78 iterations

     Forces acting on atoms (cartesian axes, Ry/au):

     atom    1 type  1   force =     0.00020924   -0.00020025    0.09613583
     atom    2 type  1   force =    -0.00011116   -0.00026927   -0.17606428
     atom    3 type  2   force =     0.00002704    0.00002064   -0.02489991
     atom    4 type  2   force =     0.00003403   -0.00160034    0.05417560
     atom    5 type  2   force =    -0.01177567   -0.00149425    0.00427687
     atom    6 type  2   force =     0.01354244   -0.00071438    0.00348382
     atom    7 type  1   force =    -0.00083943    0.00087430   -0.01029434
     atom    8 type  1   force =     0.00025239    0.01223586    0.02351548
     atom    9 type  2   force =    -0.00035963   -0.00008232   -0.00025164
     atom   10 type  2   force =    -0.00088207   -0.00045022   -0.01483699
     atom   11 type  2   force =     0.00042549    0.00008162    0.00019124
     atom   12 type  2   force =    -0.00040231   -0.00007661    0.00004121
     atom   13 type  1   force =    -0.00066239   -0.00006670   -0.00156560
     atom   14 type  1   force =     0.00057916    0.00018407    0.00034052
     atom   15 type  2   force =     0.00056503    0.00044605    0.00007001
     atom   16 type  2   force =    -0.00028054    0.00005864    0.00038656
     atom   17 type  2   force =    -0.00017734   -0.00040835   -0.00023935
     atom   18 type  2   force =     0.00008946   -0.00000302   -0.00022808
     atom   19 type  1   force =     0.00060761    0.00006751    0.00058464
     atom   20 type  1   force =    -0.00027130   -0.00063209    0.00012420
     atom   21 type  2   force =     0.00006255    0.00004396    0.10335161
     atom   22 type  2   force =     0.00020837    0.00077970   -0.00033242
     atom   23 type  2   force =    -0.07129630   -0.00008080   -0.02764575
     atom   24 type  2   force =     0.07125365    0.00035891   -0.02768352
     atom   25 type  1   force =    -0.00006575   -0.00014242    0.09565948
     atom   26 type  1   force =    -0.00020033   -0.00031063   -0.17600082
     atom   27 type  2   force =     0.00012422   -0.00040191   -0.02390496
     atom   28 type  2   force =     0.00009712   -0.00126508    0.05363925
     atom   29 type  2   force =    -0.01200674    0.00044482    0.00380552
     atom   30 type  2   force =     0.01365441    0.00068838    0.00308827
     atom   31 type  1   force =    -0.00061135    0.00369110   -0.01332385
     atom   32 type  1   force =     0.00020777   -0.01325328    0.02337506
     atom   33 type  2   force =    -0.00007868   -0.00005480   -0.00030568
     atom   34 type  2   force =    -0.00008655    0.00021731   -0.01830746
     atom   35 type  2   force =     0.00034738   -0.00048717    0.00026273
     atom   36 type  2   force =    -0.00031124   -0.00016186    0.00012663
     atom   37 type  1   force =    -0.00083245   -0.00024107   -0.00007875
     atom   38 type  1   force =     0.00047419    0.00009417    0.00066014
     atom   39 type  2   force =    -0.00005156    0.00082099   -0.00002578
     atom   40 type  2   force =    -0.00021824   -0.00018236   -0.00063801
     atom   41 type  2   force =     0.00031478    0.00056363    0.00023029
     atom   42 type  2   force =    -0.00082427    0.00008567   -0.00012786
     atom   43 type  1   force =     0.00044054    0.00010550   -0.00010584
     atom   44 type  1   force =    -0.00025766   -0.00089533    0.00050734
     atom   45 type  2   force =     0.00006129    0.00003763    0.10331542
     atom   46 type  2   force =    -0.07128542   -0.00001641   -0.02761446
     atom   47 type  2   force =     0.07123229    0.00040669   -0.02763519
     atom   48 type  3   force =    -0.00035190    0.00103510   -0.00029339
     atom   49 type  4   force =    -0.00001678    0.00085838   -0.00059709
     atom   50 type  5   force =     0.00063990   -0.00002522    0.00096648
     atom   51 type  5   force =     0.00053630    0.00037271    0.00007808
     atom   52 type  5   force =    -0.00009426    0.00012215    0.00029990
     atom   53 type  2   force =     0.02371415    0.00090598    0.00018689
     atom   54 type  5   force =    -0.00868589   -0.00792938   -0.00177128
     atom   55 type  5   force =    -0.01666359    0.00584407    0.00189328

     Total force =     0.368962     Total SCF correction =     0.000625
  @ DRIVER MODE: Message from server: STATUS
  @ DRIVER MODE: Message from server: GETFORCE
  @ DRIVER MODE: Returning v,forces,stress,ensemble

     Writing output data file ./calc.save/
  @ DRIVER MODE: Message from server: EXIT
  @ DRIVE MODE: Exiting

     General routines

     Parallel routines

   This run was terminated on:   1:57: 4  16Sep2021

   JOB DONE.