     Program PWSCF v.6.7GPU starts on 12Oct2021 at  9:57:55

     R & G space division:  proc/nbgrp/npool/nimage =       8
     Reading input from /storage/home/hcoda1/3/ntian30/research/carbon/ACS_vib/ads_slab/N2H/out_0004/pw.inp
Warning: card &CELL ignored
Warning: card   CELL_DYNAMICS='IPI', ignored
Warning: card / ignored

     Current dimensions of program PWSCF are:
     Max number of different atomic species (ntypx) = 10
     Max number of k-points (npk) =  40000
     Max angular momentum in pseudopotentials (lmaxx) =  3
     Presently no symmetry can be used with electric field

     Message from routine cell_base_init:
     DEPRECATED: use true lattice parameter, not A to a.u. conversion factor

     IMPORTANT: XC functional enforced from input :
     Exchange-correlation= BEEF-VDW
                           (   1   4  43  14   2   0   0)
     Any further DFT definition will be discarded
     Please, verify this is what you really want

  @ DRIVER MODE: Connecting to
 qe_1139763_3181314.sched-torque.pace.gatech.edu0r2c0kjn_scratch
  using UNIX socket
  @ DRIVER MODE: Message from server: STATUS
  @ DRIVER MODE: Message from server: INIT
  @ DRIVER MODE: Receiving replica           0          -1
  @ DRIVER MODE: Receiving encoded integer          25
  @ DRIVER MODE:  SCF:  T  FORCE:  T  STRESS:  F  VC:  F  ENSEMBLE:  F
  @ DRIVER MODE:  SCF:  T  FORCE:  T  STRESS:  F  VC:  F  ENSEMBLE:  F

     Using Slab Decomposition

     bravais-lattice index     =            0
     lattice parameter (alat)  =       1.8897  a.u.
     unit-cell volume          =    6658.9804 (a.u.)^3
     number of atoms/cell      =           50
     number of atomic types    =            4
     number of electrons       =       389.00
     number of Kohn-Sham states=          204
     kinetic-energy cutoff     =      29.3995  Ry
     charge density cutoff     =     293.9946  Ry
     scf convergence threshold =      7.3E-08
     mixing beta               =       0.0500
     number of iterations used =            8  plain     mixing
     Exchange-correlation= BEEF-VDW
                           (   1   4  43  14   2   0   0)

     celldm(1)=   1.889726  celldm(2)=   0.000000  celldm(3)=   0.000000
     celldm(4)=   0.000000  celldm(5)=   0.000000  celldm(6)=   0.000000

     crystal axes: (cart. coord. in units of alat)
               a(1) = (   6.579727   0.000000   0.000000 )
               a(2) = (  -0.000775   5.961596   0.000000 )
               a(3) = (   0.000000   0.000000  25.155947 )

     reciprocal axes: (cart. coord. in units 2 pi/alat)
               b(1) = (  0.151982  0.000020  0.000000 )
               b(2) = (  0.000000  0.167740  0.000000 )
               b(3) = (  0.000000  0.000000  0.039752 )

     PseudoPot. # 1 for Ti read from file:
     /storage/coda1/p-amedford6/0/shared/rich_project_chbe-medford/medford-share/data/pseudos_module/espresso/nninc/pbe/van/Ti.UPF
     MD5 check sum: 8e4df49b7f0d34bbd5052bf3f5ea0213
     Pseudo is Ultrasoft, Zval = 12.0
     Generated by new atomic code, or converted to UPF format
     Using radial grid of  851 points,  6 beta functions with:
                l(1) =   0
                l(2) =   0
                l(3) =   1
                l(4) =   1
                l(5) =   2
                l(6) =   2
     Q(r) pseudized with  8 coefficients,  rinner =    1.000   1.000   1.000
                                                       1.000   1.000

     PseudoPot. # 2 for O  read from file:
     /storage/coda1/p-amedford6/0/shared/rich_project_chbe-medford/medford-share/data/pseudos_module/espresso/nninc/pbe/van/O.UPF
     MD5 check sum: 78c19812648e8988a0fe644b0f25305e
     Pseudo is Ultrasoft, Zval =  6.0
     Generated by new atomic code, or converted to UPF format
     Using radial grid of  737 points,  4 beta functions with:
                l(1) =   0
                l(2) =   0
                l(3) =   1
                l(4) =   1
     Q(r) pseudized with  8 coefficients,  rinner =    0.800   0.800   0.800

     PseudoPot. # 3 for N  read from file:
     /storage/coda1/p-amedford6/0/shared/rich_project_chbe-medford/medford-share/data/pseudos_module/espresso/nninc/pbe/van/N.UPF
     MD5 check sum: 90d10febe142ad51ac9d5be1deb811c4
     Pseudo is Ultrasoft, Zval =  5.0
     Generated by new atomic code, or converted to UPF format
     Using radial grid of  729 points,  4 beta functions with:
                l(1) =   0
                l(2) =   0
                l(3) =   1
                l(4) =   1
     Q(r) pseudized with  8 coefficients,  rinner =    0.800   0.800   0.800

     PseudoPot. # 4 for H  read from file:
     /storage/coda1/p-amedford6/0/shared/rich_project_chbe-medford/medford-share/data/pseudos_module/espresso/nninc/pbe/van/H.UPF
     MD5 check sum: b5ee9d7bfd3a09ee7748110bda690ff7
     Pseudo is Ultrasoft, Zval =  1.0
     Generated by new atomic code, or converted to UPF format
     Using radial grid of  615 points,  1 beta functions with:
                l(1) =   0
     Q(r) pseudized with  8 coefficients,  rinner =    0.800

     atomic species   valence    mass     pseudopotential
        Ti1           12.00    47.86700     Ti( 1.00)
        O1             6.00    15.99900     O ( 1.00)
        N1             5.00    14.00700     N ( 1.00)
        H1             1.00     1.00800     H ( 1.00)

     No symmetry found

   Cartesian axes

     site n.     atom                  positions (alat units)
         1           Ti1 tau(   1) = (   0.0004258   2.9801865   6.0000000  )
         2           Ti1 tau(   2) = (   3.2906075   1.4906267   6.0002472  )
         3           O1  tau(   3) = (   0.0006271   0.0005054   7.9858123  )
         4           O1  tau(   4) = (   3.2906025   0.0005020   7.3038282  )
         5           O1  tau(   5) = (   4.5942328   1.4918067   9.2879030  )
         6           O1  tau(   6) = (   1.9868534   1.4903216   9.2879459  )
         7           Ti1 tau(   7) = (   3.2913060   3.0378612   9.1552972  )
         8           Ti1 tau(   8) = (   0.0009381   1.5839581   9.3521326  )
         9           O1  tau(   9) = (   3.2925928   0.0151421  11.3436145  )
        10           O1  tau(  10) = (   0.0015930   0.0098544  10.5931849  )
        11           O1  tau(  11) = (   1.2954366   1.5088831  12.6205452  )
        12           O1  tau(  12) = (   5.2873992   1.5081763  12.6209847  )
        13           Ti1 tau(  13) = (   0.0062007   3.0223002  12.7522649  )
        14           Ti1 tau(  14) = (   3.2997597   1.5103467  12.4821987  )
        15           O1  tau(  15) = (   0.0040346   0.0184607  14.6317695  )
        16           O1  tau(  16) = (   3.2910281   0.0168284  13.9441510  )
        17           O1  tau(  17) = (   4.5375602   1.5179921  16.0890948  )
        18           O1  tau(  18) = (   2.0457139   1.5162684  16.0851288  )
        19           Ti1 tau(  19) = (   3.2874297   2.9968575  15.7108406  )
        20           Ti1 tau(  20) = (   6.5695515   1.3443907  16.0039228  )
        21           O1  tau(  21) = (   3.2904802   0.0005063   4.7018136  )
        22           O1  tau(  22) = (   0.0014600   0.0364584  17.1914435  )
        23           O1  tau(  23) = (   1.3043587   1.4918075   6.0039043  )
        24           O1  tau(  24) = (   5.2767064   1.4903225   6.0039473  )
        25           Ti1 tau(  25) = (   0.0000382   5.9609847   6.0000000  )
        26           Ti1 tau(  26) = (   3.2902200   4.4714249   6.0002472  )
        27           O1  tau(  27) = (   0.0002396   2.9813036   7.9858123  )
        28           O1  tau(  28) = (   3.2902150   2.9813002   7.3038282  )
        29           O1  tau(  29) = (   4.5938453   4.4726049   9.2879030  )
        30           O1  tau(  30) = (   1.9864658   4.4711199   9.2879459  )
        31           Ti1 tau(  31) = (   3.2910671   0.0593156   9.1538314  )
        32           Ti1 tau(  32) = (   0.0005551   4.5317022   9.3016378  )
        33           O1  tau(  33) = (   3.2922260   2.9941798  11.3385902  )
        34           O1  tau(  34) = (   0.0008704   2.9922752  10.5694424  )
        35           O1  tau(  35) = (   1.2972379   4.4863578  12.6167950  )
        36           O1  tau(  36) = (   5.2846861   4.4861696  12.6173214  )
        37           Ti1 tau(  37) = (   0.0087596   0.0398615  12.5729301  )
        38           Ti1 tau(  38) = (   3.2994502   4.4862820  12.4776038  )
        39           O1  tau(  39) = (   0.0007913   3.0275094  14.6627896  )
        40           O1  tau(  40) = (   3.2912693   2.9957722  13.9146565  )
        41           O1  tau(  41) = (   4.5447272   4.4665429  16.0834370  )
        42           O1  tau(  42) = (   2.0408322   4.4687941  16.0798044  )
        43           Ti1 tau(  43) = (   3.2813896   0.0196903  15.7368506  )
        44           Ti1 tau(  44) = (   6.5682818   4.5002177  15.9516634  )
        45           O1  tau(  45) = (   3.2900926   2.9813045   4.7018136  )
        46           O1  tau(  46) = (   1.3039711   4.4726057   6.0039043  )
        47           O1  tau(  47) = (   5.2763189   4.4711207   6.0039473  )
        48           N1  tau(  48) = (   0.0702777   3.0030733  18.6664031  )
        49           N1  tau(  49) = (   0.0230277   3.0528524  17.4426018  )
        50           H1  tau(  50) = (   0.0865168   1.9966355  18.9942200  )

     number of k points=    10  Fermi-Dirac smearing, width (Ry)=  0.0073
                       cart. coord. in units 2pi/alat
        k(    1) = (   0.0000000   0.0000000   0.0000000), wk =   0.1250000
        k(    2) = (   0.0000000   0.0419351   0.0000000), wk =   0.2500000
        k(    3) = (   0.0000000  -0.0838702   0.0000000), wk =   0.1250000
        k(    4) = (   0.0379955   0.0000049   0.0000000), wk =   0.2500000
        k(    5) = (   0.0379955   0.0419400   0.0000000), wk =   0.2500000
        k(    6) = (   0.0379955  -0.0838652   0.0000000), wk =   0.2500000
        k(    7) = (   0.0379955  -0.0419301   0.0000000), wk =   0.2500000
        k(    8) = (  -0.0759910  -0.0000099   0.0000000), wk =   0.1250000
        k(    9) = (  -0.0759910   0.0419252   0.0000000), wk =   0.2500000
        k(   10) = (  -0.0759910  -0.0838800   0.0000000), wk =   0.1250000

     Initial potential from superposition of free atoms

     starting charge  372.99922, renormalised to  389.00000

     negative rho (up, down):  2.003E-02 0.000E+00

     %%%%%%%%%%%%%%%%%%%%%%%%%%%%%%%%%%%%%%%%%%%%%%%%%%%%%%%%%%%%%%%%%%%%%%%%
     %                                                                      %
     % You are using vdW-DF, which was implemented by the Thonhauser group. %
     % Please cite the following two papers that made this development      %
     % possible and the two reviews that describe the various versions:     %
     %                                                                      %
     %   T. Thonhauser et al., PRL 115, 136402 (2015).                      %
     %   T. Thonhauser et al., PRB 76, 125112 (2007).                       %
     %   K. Berland et al., Rep. Prog. Phys. 78, 066501 (2015).             %
     %   D.C. Langreth et al., J. Phys.: Condens. Matter 21, 084203 (2009). %
     %                                                                      %
     %                                                                      %
     % If you are calculating the stress with vdW-DF, please also cite:     %
     %                                                                      %
     %   R. Sabatini et al., J. Phys.: Condens. Matter 24, 424209 (2012).   %
     %                                                                      %
     %%%%%%%%%%%%%%%%%%%%%%%%%%%%%%%%%%%%%%%%%%%%%%%%%%%%%%%%%%%%%%%%%%%%%%%%

     Adding external electric field

     Computed dipole along edir(3) :
        Dipole               -4.3819 Ry au,        -11.1376 Debye
        Dipole field         -0.0083 Ry au,

        Potential amp.        0.7665 Ry
        Total length         46.3494 bohr

     Starting wfcs are  293 atomic wfcs
  @ DRIVER MODE: Message from server: STATUS
  @ DRIVER MODE: Message from server: POSDATA
  @ DRIVER MODE: Reading and sharing cell
  @ DRIVER MODE: Reading and sharing positions
  @ DRIVER MODE: Received positions

     Self-consistent Calculation

     iteration #  1     ecut=    29.40 Ry     beta= 0.05
     Davidson diagonalization with overlap
     c_bands:  3 eigenvalues not converged
     c_bands:  3 eigenvalues not converged
     c_bands:  5 eigenvalues not converged
     c_bands:  2 eigenvalues not converged
     c_bands:  3 eigenvalues not converged
     c_bands:  4 eigenvalues not converged
     c_bands:  3 eigenvalues not converged
     c_bands:  1 eigenvalues not converged
     c_bands:  3 eigenvalues not converged
     c_bands:  2 eigenvalues not converged
     ethr =  1.00E-05,  avg # of iterations = 20.0

[...]

     total energy              =   -2891.67072686 Ry
     estimated scf accuracy    <     401.87881653 Ry

     iteration #  2     ecut=    29.40 Ry     beta= 0.05
     Davidson diagonalization with overlap
     ethr =  1.00E-02,  avg # of iterations = 13.6

[...]

     iteration # 57     ecut=    29.40 Ry     beta= 0.05
     Davidson diagonalization with overlap
     c_bands:  1 eigenvalues not converged
     ethr =  2.26E-11,  avg # of iterations =  7.3

[...]

     total energy              =   -2925.19948633 Ry
     estimated scf accuracy    <       0.00000008 Ry

     iteration # 61     ecut=    29.40 Ry     beta= 0.05
     Davidson diagonalization with overlap
     ethr =  1.98E-11,  avg # of iterations =  8.0

     negative rho (up, down):  1.931E-02 0.000E+00

     Adding external electric field

     Computed dipole along edir(3) :
        Dipole                0.3708 Ry au,          0.9424 Debye
        Dipole field          0.0007 Ry au,

        Potential amp.       -0.0649 Ry
        Total length         46.3494 bohr

     End of self-consistent calculation

          k = 0.0000 0.0000 0.0000 ( 18029 PWs)   bands (ev):

   -56.2571 -56.2216 -56.2215 -56.1850 -56.1358 -56.0923 -56.0488 -56.0270
   -55.9935 -55.9773 -55.9437 -55.9117 -55.7832 -55.6080 -55.2514 -55.2173
   -32.7871 -32.7191 -32.5690 -32.5614 -32.5420 -32.5407 -32.5177 -32.4685
   -32.4652 -32.4558 -32.4268 -32.4212 -32.4025 -32.3955 -32.3674 -32.3592
   -32.3522 -32.3420 -32.3266 -32.3048 -32.2971 -32.2802 -32.2610 -32.2357
   -32.2325 -32.2319 -32.2186 -32.2117 -32.2035 -32.1923 -32.1660 -32.1505
   -32.1211 -32.1181 -32.0915 -32.0887 -32.0745 -32.0431 -31.9449 -31.8521
   -31.8495 -31.8074 -31.6604 -31.5648 -31.5423 -31.4774 -31.3915 -31.2801
   -18.7031 -16.9619 -16.6648 -16.5098 -16.3701 -16.3408 -16.2308 -16.0141
   -15.9055 -15.8361 -15.8147 -15.7924 -15.7734 -15.7610 -15.7478 -15.7441
   -15.7189 -15.6814 -15.6446 -15.6403 -15.6331 -15.5920 -15.4968 -15.4474
   -15.4157 -15.3646 -15.3544 -15.2569 -15.2137 -15.0084 -13.7512 -13.6332
    -9.0212  -5.2819  -4.3240  -4.1540  -4.1253  -4.0521  -4.0237  -3.7762
    -3.7676  -3.4820  -3.4215  -3.3654  -3.3541  -3.3330  -3.2476  -3.2222
    -3.0926  -3.0643  -3.0415  -3.0078  -3.0004  -2.9824  -2.9714  -2.9553
    -2.9351  -2.8781  -2.7563  -2.6854  -2.6364  -2.6250  -2.5688  -2.5445
    -2.4986  -2.4731  -2.4693  -2.4518  -2.4414  -2.4165  -2.3692  -2.2511
    -2.1990  -2.1343  -2.0358  -2.0156  -1.9320  -1.7817  -1.7231  -1.6594
    -1.6404  -1.6231  -1.5589  -1.5485  -1.4442  -1.4108  -1.4057  -1.3326
    -1.2382  -1.2191  -1.1226  -1.0719  -0.9977  -0.9802  -0.9573  -0.9442
    -0.9194  -0.7272  -0.6927  -0.6692  -0.6311  -0.5973  -0.5256  -0.5067
    -0.4194  -0.4101  -0.3826  -0.3320  -0.3252  -0.2561  -0.2331  -0.2317
    -0.1702  -0.1445   0.0057   0.0260   0.0367   0.1360   0.1441   0.3214
     0.3384   0.4237   0.5350   0.6803   0.7736   0.8796   0.9456   1.3649
     1.4278   2.1906   2.9437   2.9643   2.9964   3.1024   3.1258   3.2188
     3.2636   3.3926   3.4070   3.4485

[...]

          k = 0.0380-0.0419 0.0000 ( 17876 PWs)   bands (ev):

[...]

          k =-0.0760-0.0000 0.0000 ( 17886 PWs)   bands (ev):

[...]

          k =-0.0760-0.0839 0.0000 ( 17948 PWs)   bands (ev):

   -56.2444 -56.2342 -56.2054 -56.2009 -56.1329 -56.0844 -56.0566 -56.0297
   -55.9891 -55.9625 -55.9588 -55.9155 -55.7814 -55.6096 -55.2346 -55.2340
   -32.5905 -32.5864 -32.5403 -32.5322 -32.5299 -32.5161 -32.5142 -32.4716
   -32.4272 -32.4249 -32.4192 -32.4054 -32.3763 -32.3752 -32.3680 -32.3423
   -32.3359 -32.3317 -32.3261 -32.3237 -32.2921 -32.2911 -32.2842 -32.2791
   -32.2655 -32.2633 -32.2375 -32.2325 -32.2174 -32.2157 -32.1967 -32.1937
   -32.1681 -32.1661 -32.1602 -32.1353 -32.1040 -32.0464 -31.9395 -31.9154
   -31.8525 -31.8425 -31.5553 -31.5546 -31.4738 -31.4733 -31.4348 -31.4343
   -18.6981 -16.4026 -16.3714 -16.1499 -16.1306 -16.1285 -16.0519 -15.9537
   -15.9506 -15.9472 -15.9435 -15.8834 -15.8549 -15.8412 -15.8010 -15.7454
   -15.7370 -15.7269 -15.7260 -15.6764 -15.6755 -15.6222 -15.5608 -15.5481
   -15.5459 -15.5454 -15.5303 -15.4502 -15.4176 -15.1630 -13.7353 -13.7337
    -9.0218  -5.2296  -3.7000  -3.6608  -3.3826  -3.3717  -3.3636  -3.3387
    -3.2505  -3.1587  -3.1349  -3.1013  -3.0733  -3.0653  -3.0632  -3.0261
    -3.0203  -2.9835  -2.9708  -2.9546  -2.9358  -2.8904  -2.8651  -2.8547
    -2.8436  -2.8340  -2.8258  -2.7946  -2.7812  -2.7682  -2.7481  -2.7445
    -2.5897  -2.5336  -2.4524  -2.4518  -2.3414  -2.3319  -2.3236  -2.3136
    -2.2865  -2.2790  -2.2461  -2.1099  -2.0452  -1.9432  -1.9306  -1.9236
    -1.8314  -1.7764  -1.6516  -1.6064  -1.5892  -1.5438  -1.4799  -1.4724
    -1.4420  -1.4358  -1.3270  -1.3036  -1.2770  -1.2005  -1.1922  -1.1869
    -1.0890  -1.0555  -1.0153  -0.9803  -0.9497  -0.9076  -0.8532  -0.8094
    -0.7840  -0.7484  -0.7405  -0.6587  -0.5858  -0.5315  -0.2660  -0.2102
    -0.1975  -0.1293  -0.0353   0.0293   0.0456   0.0949   0.1510   0.2107
     0.2611   0.3199   0.3226   0.3669   0.4132   1.1363   1.1373   1.2272
     1.2336   2.1356   3.0830   3.1901   3.2008   3.2499   3.3246   3.4160
     3.4264   3.4273   3.4300   3.6564

     the Fermi energy is     2.9009 ev

!    total energy              =   -2925.19951952 Ry
     estimated scf accuracy    <       0.00000004 Ry
     smearing contrib. (-TS)   =      -0.02326768 Ry
     internal energy E=F+TS    =   -2925.17625184 Ry

     The total energy is F=E-TS. E is the sum of the following terms:
     one-electron contribution =  -24764.04958619 Ry
     hartree contribution      =   12463.14185055 Ry
     xc contribution           =    -479.95734439 Ry
     ewald contribution        =    9855.68856874 Ry
     electric field correction =       0.00025944 Ry

     convergence has been achieved in  61 iterations

     Forces acting on atoms (cartesian axes, Ry/au):

     atom    1 type  1   force =     0.00007024   -0.00095410    0.11382455
     atom    2 type  1   force =    -0.00009727    0.00025318   -0.17943625
     atom    3 type  2   force =    -0.00000050   -0.00523656   -0.03558222
     atom    4 type  2   force =     0.00003763    0.00060932    0.04439915
     atom    5 type  2   force =    -0.02019452   -0.00081772    0.00351248
     atom    6 type  2   force =     0.02028599   -0.00038876    0.00352494
     atom    7 type  1   force =    -0.00022730    0.00017278    0.00019715
     atom    8 type  1   force =     0.00022868    0.00173924   -0.00009924
     atom    9 type  2   force =    -0.00005727    0.00027467   -0.00035117
     atom   10 type  2   force =    -0.00000900    0.00011834    0.00038366
     atom   11 type  2   force =    -0.00020582   -0.00001540    0.00031095
     atom   12 type  2   force =    -0.00007133   -0.00004081    0.00031590
     atom   13 type  1   force =     0.00033135    0.00055205    0.00059935
     atom   14 type  1   force =     0.00030698   -0.00004608    0.00117842
     atom   15 type  2   force =     0.00010638   -0.00011473   -0.00044860
     atom   16 type  2   force =     0.00001185   -0.00038723   -0.00099108
     atom   17 type  2   force =     0.00129698   -0.00022097   -0.00049616
     atom   18 type  2   force =    -0.00088094   -0.00027291   -0.00049414
     atom   19 type  1   force =    -0.00017277    0.00000594    0.00055156
     atom   20 type  1   force =    -0.00012875   -0.00015052    0.00042127
     atom   21 type  2   force =     0.00004105    0.00008130    0.10408624
     atom   22 type  2   force =    -0.00003283   -0.00034053    0.00051993
     atom   23 type  2   force =    -0.06902969    0.00033844   -0.03032312
     atom   24 type  2   force =     0.06890154    0.00077470   -0.03036259
     atom   25 type  1   force =     0.00015813    0.00087117    0.12102497
     atom   26 type  1   force =    -0.00010470    0.00040525   -0.17938839
     atom   27 type  2   force =     0.00002420    0.00096335   -0.03230940
     atom   28 type  2   force =     0.00003991    0.00070811    0.04485012
     atom   29 type  2   force =    -0.01922188    0.00046563    0.00326106
     atom   30 type  2   force =     0.01935255    0.00088001    0.00325829
     atom   31 type  1   force =    -0.00046898    0.00022605    0.00030778
     atom   32 type  1   force =     0.00023085    0.00063376   -0.00092229
     atom   33 type  2   force =    -0.00001491   -0.00009475   -0.00065845
     atom   34 type  2   force =    -0.00005912    0.00025686   -0.00012120
     atom   35 type  2   force =    -0.00037005    0.00015444   -0.00003120
     atom   36 type  2   force =     0.00006313    0.00013844   -0.00003232
     atom   37 type  1   force =     0.00043942    0.00018674   -0.00143539
     atom   38 type  1   force =     0.00033845    0.00039805    0.00126653
     atom   39 type  2   force =     0.00006656    0.00002311    0.00057706
     atom   40 type  2   force =     0.00000384    0.00003520   -0.00032754
     atom   41 type  2   force =     0.00095288   -0.00033789    0.00008416
     atom   42 type  2   force =    -0.00036190   -0.00031700   -0.00000483
     atom   43 type  1   force =    -0.00058560   -0.00013307    0.00063458
     atom   44 type  1   force =    -0.00042449    0.00019131    0.00043272
     atom   45 type  2   force =     0.00004474    0.00005956    0.10414668
     atom   46 type  2   force =    -0.06882932   -0.00102001   -0.03037058
     atom   47 type  2   force =     0.06870832   -0.00058099   -0.03041365
     atom   48 type  3   force =     0.00010496   -0.01507150    0.00315807
     atom   49 type  3   force =    -0.00007651    0.00250540   -0.00188827
     atom   50 type  4   force =    -0.00052118    0.01251914   -0.00033947

     Total force =     0.380372     Total SCF correction =     0.000841
  @ DRIVER MODE: Message from server: STATUS
  @ DRIVER MODE: Message from server: GETFORCE
  @ DRIVER MODE: Returning v,forces,stress,ensemble

     Writing output data file ./calc.save/
  @ DRIVER MODE: Message from server: EXIT
  @ DRIVE MODE: Exiting

     General routines

     Parallel routines

   This run was terminated on:  10:16:14  12Oct2021

   JOB DONE.