     Program PWSCF v.6.7GPU starts on 24Sep2021 at  4:57:44

     R & G space division:  proc/nbgrp/npool/nimage =       8
     Reading input from /storage/home/hcoda1/3/ntian30/research/carbon/CxH_vib/H2O_calc/ads_slab/CH2NNHHHHO_a/out_0041/pw.inp
Warning: card &CELL ignored
Warning: card   CELL_DYNAMICS='IPI', ignored
Warning: card / ignored

     Current dimensions of program PWSCF are:
     Max number of different atomic species (ntypx) = 10
     Max number of k-points (npk) =  40000
     Max angular momentum in pseudopotentials (lmaxx) =  3
     Presently no symmetry can be used with electric field

     Message from routine cell_base_init:
     DEPRECATED: use true lattice parameter, not A to a.u. conversion factor

     IMPORTANT: XC functional enforced from input :
     Exchange-correlation= BEEF-VDW
                           (   1   4  43  14   2   0   0)
     Any further DFT definition will be discarded
     Please, verify this is what you really want

  @ DRIVER MODE: Connecting to
 qe_1139763_2947316.sched-torque.pace.gatech.edub0ww4t1t_scratch
  using UNIX socket
  @ DRIVER MODE: Message from server: STATUS
  @ DRIVER MODE: Message from server: INIT
  @ DRIVER MODE: Receiving replica           0          -1
  @ DRIVER MODE: Receiving encoded integer          25
  @ DRIVER MODE:  SCF:  T  FORCE:  T  STRESS:  F  VC:  F  ENSEMBLE:  F
  @ DRIVER MODE:  SCF:  T  FORCE:  T  STRESS:  F  VC:  F  ENSEMBLE:  F

     Using Slab Decomposition

     bravais-lattice index     =            0
     lattice parameter (alat)  =       1.8897  a.u.
     unit-cell volume          =    6658.9804 (a.u.)^3
     number of atoms/cell      =           57
     number of atomic types    =            5
     number of electrons       =       404.00
     number of Kohn-Sham states=          212
     kinetic-energy cutoff     =      29.3995  Ry
     charge density cutoff     =     293.9946  Ry
     scf convergence threshold =      7.3E-08
     mixing beta               =       0.0500
     number of iterations used =            8  plain     mixing
     Exchange-correlation= BEEF-VDW
                           (   1   4  43  14   2   0   0)

     celldm(1)=   1.889726  celldm(2)=   0.000000  celldm(3)=   0.000000
     celldm(4)=   0.000000  celldm(5)=   0.000000  celldm(6)=   0.000000

     crystal axes: (cart. coord. in units of alat)
               a(1) = (   6.579727   0.000000   0.000000 )
               a(2) = (  -0.000775   5.961596   0.000000 )
               a(3) = (   0.000000   0.000000  25.155947 )

     reciprocal axes: (cart. coord. in units 2 pi/alat)
               b(1) = (  0.151982  0.000020  0.000000 )
               b(2) = (  0.000000  0.167740  0.000000 )
               b(3) = (  0.000000  0.000000  0.039752 )

     PseudoPot. # 1 for Ti read from file:
     /storage/coda1/p-amedford6/0/shared/rich_project_chbe-medford/medford-share/data/pseudos_module/espresso/nninc/pbe/van/Ti.UPF
     MD5 check sum: 8e4df49b7f0d34bbd5052bf3f5ea0213
     Pseudo is Ultrasoft, Zval = 12.0
     Generated by new atomic code, or converted to UPF format
     Using radial grid of  851 points,  6 beta functions with:
                l(1) =   0
                l(2) =   0
                l(3) =   1
                l(4) =   1
                l(5) =   2
                l(6) =   2
     Q(r) pseudized with  8 coefficients,  rinner =    1.000   1.000   1.000
                                                       1.000   1.000

     PseudoPot. # 2 for O  read from file:
     /storage/coda1/p-amedford6/0/shared/rich_project_chbe-medford/medford-share/data/pseudos_module/espresso/nninc/pbe/van/O.UPF
     MD5 check sum: 78c19812648e8988a0fe644b0f25305e
     Pseudo is Ultrasoft, Zval =  6.0
     Generated by new atomic code, or converted to UPF format
     Using radial grid of  737 points,  4 beta functions with:
                l(1) =   0
                l(2) =   0
                l(3) =   1
                l(4) =   1
     Q(r) pseudized with  8 coefficients,  rinner =    0.800   0.800   0.800

     PseudoPot. # 3 for N  read from file:
     /storage/coda1/p-amedford6/0/shared/rich_project_chbe-medford/medford-share/data/pseudos_module/espresso/nninc/pbe/van/N.UPF
     MD5 check sum: 90d10febe142ad51ac9d5be1deb811c4
     Pseudo is Ultrasoft, Zval =  5.0
     Generated by new atomic code, or converted to UPF format
     Using radial grid of  729 points,  4 beta functions with:
                l(1) =   0
                l(2) =   0
                l(3) =   1
                l(4) =   1
     Q(r) pseudized with  8 coefficients,  rinner =    0.800   0.800   0.800

     PseudoPot. # 4 for C  read from file:
     /storage/coda1/p-amedford6/0/shared/rich_project_chbe-medford/medford-share/data/pseudos_module/espresso/nninc/pbe/van/C.UPF
     MD5 check sum: 1a69bf6b8db32088f5b2163dbdb77a27
     Pseudo is Ultrasoft, Zval =  4.0
     Generated by new atomic code, or converted to UPF format
     Using radial grid of  721 points,  4 beta functions with:
                l(1) =   0
                l(2) =   0
                l(3) =   1
                l(4) =   1
     Q(r) pseudized with  8 coefficients,  rinner =    0.800   0.800   0.800

     PseudoPot. # 5 for H  read from file:
     /storage/coda1/p-amedford6/0/shared/rich_project_chbe-medford/medford-share/data/pseudos_module/espresso/nninc/pbe/van/H.UPF
     MD5 check sum: b5ee9d7bfd3a09ee7748110bda690ff7
     Pseudo is Ultrasoft, Zval =  1.0
     Generated by new atomic code, or converted to UPF format
     Using radial grid of  615 points,  1 beta functions with:
                l(1) =   0
     Q(r) pseudized with  8 coefficients,  rinner =    0.800

     atomic species   valence    mass     pseudopotential
        Ti1           12.00    47.86700     Ti( 1.00)
        O1             6.00    15.99900     O ( 1.00)
        N1             5.00    14.00700     N ( 1.00)
        C1             4.00    12.01100     C ( 1.00)
        H1             1.00     1.00800     H ( 1.00)

     No symmetry found

   Cartesian axes

     site n.     atom                  positions (alat units)
         1           Ti1 tau(   1) = (   0.0004258   2.9801865   6.0000000  )
         2           Ti1 tau(   2) = (   3.2906075   1.4906267   6.0002472  )
         3           O1  tau(   3) = (   0.0006271   0.0005054   7.9858123  )
         4           O1  tau(   4) = (   3.2906025   0.0005020   7.3038282  )
         5           O1  tau(   5) = (   4.5942328   1.4918067   9.2879030  )
         6           O1  tau(   6) = (   1.9868534   1.4903216   9.2879459  )
         7           Ti1 tau(   7) = (   3.2907910   2.8959150   9.1758416  )
         8           Ti1 tau(   8) = (   0.0015273   1.4827037   9.2680791  )
         9           O1  tau(   9) = (   3.3027076   5.9092304  11.3732431  )
        10           O1  tau(  10) = (   0.0116148   5.9584955  10.6183126  )
        11           O1  tau(  11) = (   1.2953868   1.4751764  12.6403503  )
        12           O1  tau(  12) = (   5.3168701   1.4807623  12.6366210  )
        13           Ti1 tau(  13) = (   0.0172323   2.9996225  12.5311828  )
        14           Ti1 tau(  14) = (   3.3257086   1.2755711  12.7138078  )
        15           O1  tau(  15) = (   6.5733368   0.1082846  14.6600873  )
        16           O1  tau(  16) = (   3.3238075   0.0838359  14.0473399  )
        17           O1  tau(  17) = (   4.5575128   1.5393005  16.2317518  )
        18           O1  tau(  18) = (   2.0302387   1.4963625  16.2670071  )
        19           Ti1 tau(  19) = (   3.2366114   2.9448900  15.6849520  )
        20           Ti1 tau(  20) = (   6.5300729   1.3987400  16.1165465  )
        21           O1  tau(  21) = (   3.2904802   0.0005063   4.7018136  )
        22           O1  tau(  22) = (   0.0022030   5.7760056  17.1861099  )
        23           O1  tau(  23) = (   1.3043587   1.4918075   6.0039043  )
        24           O1  tau(  24) = (   5.2767064   1.4903225   6.0039473  )
        25           Ti1 tau(  25) = (   0.0000382   5.9609847   6.0000000  )
        26           Ti1 tau(  26) = (   3.2902200   4.4714249   6.0002472  )
        27           O1  tau(  27) = (   0.0002396   2.9813036   7.9858123  )
        28           O1  tau(  28) = (   3.2902150   2.9813002   7.3038282  )
        29           O1  tau(  29) = (   4.5938453   4.4726049   9.2879030  )
        30           O1  tau(  30) = (   1.9864658   4.4711199   9.2879459  )
        31           Ti1 tau(  31) = (   3.2891106   5.8743827   9.1763621  )
        32           Ti1 tau(  32) = (   0.0006254   4.4649316   9.2693709  )
        33           O1  tau(  33) = (   3.3012885   2.9833904  11.3212188  )
        34           O1  tau(  34) = (   0.0092240   2.9805883  10.6323155  )
        35           O1  tau(  35) = (   1.2895456   4.4501540  12.7025460  )
        36           O1  tau(  36) = (   5.3143371   4.4382646  12.6927937  )
        37           Ti1 tau(  37) = (   0.0343555   0.0433052  12.5107970  )
        38           Ti1 tau(  38) = (   3.3217552   4.3482123  12.4486840  )
        39           O1  tau(  39) = (   0.0141661   2.9064423  14.8877341  )
        40           O1  tau(  40) = (   3.2920978   2.9424077  13.9176102  )
        41           O1  tau(  41) = (   4.5506947   4.3398720  16.1100615  )
        42           O1  tau(  42) = (   2.0210198   4.4131678  16.0160425  )
        43           Ti1 tau(  43) = (   3.3132698   5.9358869  16.2610495  )
        44           Ti1 tau(  44) = (   0.0826266   4.5979890  15.7080129  )
        45           O1  tau(  45) = (   3.2900926   2.9813045   4.7018136  )
        46           O1  tau(  46) = (   1.3039711   4.4726057   6.0039043  )
        47           O1  tau(  47) = (   5.2763189   4.4711207   6.0039473  )
        48           N1  tau(  48) = (   6.5643472   2.7424576  18.0625816  )
        49           C1  tau(  49) = (   0.8744728   2.5686873  19.0232366  )
        50           H1  tau(  50) = (   0.8543601   3.1364980  19.9465443  )
        51           H1  tau(  51) = (   1.6733950   1.8773151  18.8242213  )
        52           N1  tau(  52) = (   5.5366205   3.6779994  18.4753393  )
        53           H1  tau(  53) = (   5.9486539   4.6347284  18.5635686  )
        54           H1  tau(  54) = (   4.8775701   3.8234783  17.6545784  )
        55           H1  tau(  55) = (   5.0440791   3.3775604  19.3232938  )
        56           O1  tau(  56) = (   3.4091604   5.6710612  18.1544331  )
        57           H1  tau(  57) = (   3.1368125   0.4262250  18.7404830  )

     number of k points=    10  Fermi-Dirac smearing, width (Ry)=  0.0073
                       cart. coord. in units 2pi/alat
        k(    1) = (   0.0000000   0.0000000   0.0000000), wk =   0.1250000
        k(    2) = (   0.0000000   0.0419351   0.0000000), wk =   0.2500000
        k(    3) = (   0.0000000  -0.0838702   0.0000000), wk =   0.1250000
        k(    4) = (   0.0379955   0.0000049   0.0000000), wk =   0.2500000
        k(    5) = (   0.0379955   0.0419400   0.0000000), wk =   0.2500000
        k(    6) = (   0.0379955  -0.0838652   0.0000000), wk =   0.2500000
        k(    7) = (   0.0379955  -0.0419301   0.0000000), wk =   0.2500000
        k(    8) = (  -0.0759910  -0.0000099   0.0000000), wk =   0.1250000
        k(    9) = (  -0.0759910   0.0419252   0.0000000), wk =   0.2500000
        k(   10) = (  -0.0759910  -0.0838800   0.0000000), wk =   0.1250000

     Initial potential from superposition of free atoms

     starting charge  387.99913, renormalised to  404.00000

     negative rho (up, down):  1.546E-02 0.000E+00

     %%%%%%%%%%%%%%%%%%%%%%%%%%%%%%%%%%%%%%%%%%%%%%%%%%%%%%%%%%%%%%%%%%%%%%%%
     %                                                                      %
     % You are using vdW-DF, which was implemented by the Thonhauser group. %
     % Please cite the following two papers that made this development      %
     % possible and the two reviews that describe the various versions:     %
     %                                                                      %
     %   T. Thonhauser et al., PRL 115, 136402 (2015).                      %
     %   T. Thonhauser et al., PRB 76, 125112 (2007).                       %
     %   K. Berland et al., Rep. Prog. Phys. 78, 066501 (2015).             %
     %   D.C. Langreth et al., J. Phys.: Condens. Matter 21, 084203 (2009). %
     %                                                                      %
     %                                                                      %
     % If you are calculating the stress with vdW-DF, please also cite:     %
     %                                                                      %
     %   R. Sabatini et al., J. Phys.: Condens. Matter 24, 424209 (2012).   %
     %                                                                      %
     %%%%%%%%%%%%%%%%%%%%%%%%%%%%%%%%%%%%%%%%%%%%%%%%%%%%%%%%%%%%%%%%%%%%%%%%

     Adding external electric field

     Computed dipole along edir(3) :
        Dipole              -13.5854 Ry au,        -34.5306 Debye
        Dipole field         -0.0256 Ry au,

        Potential amp.        2.3766 Ry
        Total length         46.3494 bohr

     Starting wfcs are  306 atomic wfcs
  @ DRIVER MODE: Message from server: STATUS
  @ DRIVER MODE: Message from server: POSDATA
  @ DRIVER MODE: Reading and sharing cell
  @ DRIVER MODE: Reading and sharing positions
  @ DRIVER MODE: Received positions

     Self-consistent Calculation

     iteration #  1     ecut=    29.40 Ry     beta= 0.05
     Davidson diagonalization with overlap
     c_bands:  4 eigenvalues not converged
     c_bands:  1 eigenvalues not converged
     c_bands:  1 eigenvalues not converged
     c_bands:  1 eigenvalues not converged
     c_bands:  2 eigenvalues not converged
     c_bands:  4 eigenvalues not converged
     c_bands:  5 eigenvalues not converged
     c_bands:  2 eigenvalues not converged
     ethr =  1.00E-05,  avg # of iterations = 29.7

[...]

     total energy              =   -2247.87334767 Ry
     estimated scf accuracy    <    8242.45698006 Ry

     iteration #  2     ecut=    29.40 Ry     beta= 0.05
     Davidson diagonalization with overlap
     ethr =  1.00E-02,  avg # of iterations = 25.5

[...]

     iteration # 50     ecut=    29.40 Ry     beta= 0.05
     Davidson diagonalization with overlap
     c_bands:  1 eigenvalues not converged
     ethr =  7.09E-09,  avg # of iterations = 15.3

[...]

     total energy              =   -2975.12433950 Ry
     estimated scf accuracy    <       0.00000010 Ry

     iteration # 64     ecut=    29.40 Ry     beta= 0.05
     Davidson diagonalization with overlap
     ethr =  2.08E-11,  avg # of iterations = 10.0

     negative rho (up, down):  1.381E-02 0.000E+00

     Adding external electric field

     Computed dipole along edir(3) :
        Dipole                1.3757 Ry au,          3.4966 Debye
        Dipole field          0.0026 Ry au,

        Potential amp.       -0.2407 Ry
        Total length         46.3494 bohr

     End of self-consistent calculation

          k = 0.0000 0.0000 0.0000 ( 18029 PWs)   bands (ev):

   -55.3859 -55.2461 -55.2121 -55.1210 -55.0858 -55.0817 -55.0756 -55.0416
   -55.0353 -54.9871 -54.9595 -54.9235 -54.8714 -54.7429 -54.2265 -54.1924
   -31.7315 -31.7157 -31.6132 -31.6057 -31.5845 -31.5774 -31.5370 -31.5306
   -31.5190 -31.4921 -31.4496 -31.4457 -31.3987 -31.3712 -31.3697 -31.3594
   -31.3534 -31.3126 -31.3035 -31.3032 -31.2866 -31.2740 -31.2697 -31.2645
   -31.2627 -31.2237 -31.2199 -31.2191 -31.2157 -31.2028 -31.1939 -31.1883
   -31.1812 -31.1485 -31.1413 -31.1111 -31.1029 -31.0877 -31.0813 -31.0773
   -31.0044 -30.9101 -30.6328 -30.5455 -30.5231 -30.4502 -30.3638 -30.2521
   -19.1650 -16.3132 -15.9262 -15.7707 -15.5905 -15.4499 -15.4096 -15.1859
   -15.1308 -15.0436 -15.0286 -14.9057 -14.7886 -14.7875 -14.7671 -14.7603
   -14.7454 -14.6994 -14.6943 -14.6889 -14.6723 -14.6510 -14.6303 -14.6204
   -14.5828 -14.5416 -14.3902 -14.3594 -14.3461 -14.3074 -14.1713 -14.0022
   -12.7256 -12.6091  -9.1827  -7.6691  -6.8553  -6.1292  -4.3055  -3.5993
    -3.2739  -3.1764  -3.1532  -3.1446  -3.0101  -2.8402  -2.6448  -2.5830
    -2.5204  -2.4055  -2.3774  -2.2814  -2.2594  -2.2186  -2.1627  -2.1414
    -2.1116  -2.0588  -2.0440  -2.0360  -1.9460  -1.9260  -1.8245  -1.8027
    -1.7687  -1.7117  -1.6835  -1.6187  -1.5859  -1.5631  -1.5615  -1.5532
    -1.5302  -1.5166  -1.4945  -1.4421  -1.4107  -1.3482  -1.2830  -1.2071
    -1.1336  -0.9104  -0.8633  -0.8479  -0.7904  -0.7521  -0.6890  -0.6657
    -0.6443  -0.6324  -0.5637  -0.4533  -0.4051  -0.3645  -0.3093  -0.2850
    -0.2549  -0.1479  -0.0716  -0.0524  -0.0069   0.0330   0.0582   0.1229
     0.1585   0.2001   0.2689   0.2813   0.3592   0.3993   0.4223   0.4698
     0.5086   0.5733   0.6180   0.6678   0.6746   0.7033   0.7224   0.7534
     0.8392   0.8558   0.8981   0.9312   0.9925   1.0469   1.0716   1.2447
     1.3690   1.4057   1.4740   1.7419   1.7996   1.8151   1.9903   2.3678
     2.4134   3.8399   3.9801   3.9899   3.9989   4.0677   4.1217   4.1443
     4.3262   4.3650   4.4827   4.5218

[...]

          k = 0.0380-0.0419 0.0000 ( 17876 PWs)   bands (ev):

[...]

          k =-0.0760-0.0000 0.0000 ( 17886 PWs)   bands (ev):

[...]

          k =-0.0760-0.0839 0.0000 ( 17948 PWs)   bands (ev):

   -55.3852 -55.2291 -55.2289 -55.1065 -55.1002 -55.0823 -55.0587 -55.0580
   -55.0285 -54.9940 -54.9583 -54.9177 -54.8771 -54.7440 -54.2098 -54.2090
   -31.6550 -31.5961 -31.5875 -31.5469 -31.5467 -31.5226 -31.5223 -31.5039
   -31.4406 -31.4153 -31.3941 -31.3819 -31.3804 -31.3752 -31.3674 -31.3491
   -31.3485 -31.3446 -31.3423 -31.3313 -31.3278 -31.3093 -31.3019 -31.2828
   -31.2679 -31.2605 -31.2543 -31.2446 -31.2357 -31.2338 -31.2309 -31.2233
   -31.2154 -31.2104 -31.1837 -31.1470 -31.1210 -31.1072 -31.0946 -31.0838
   -31.0061 -30.9824 -30.5361 -30.5356 -30.4462 -30.4450 -30.4073 -30.4067
   -19.1612 -16.2998 -15.4592 -15.4105 -15.2260 -15.2203 -15.1988 -15.1314
   -15.0938 -15.0421 -15.0247 -14.9887 -14.9507 -14.9337 -14.9088 -14.8374
   -14.7938 -14.7675 -14.7561 -14.7200 -14.7038 -14.7032 -14.6716 -14.6492
   -14.6392 -14.5727 -14.5603 -14.4836 -14.4375 -14.4137 -14.2842 -14.2311
   -12.7111 -12.7106  -9.1705  -7.6805  -6.8404  -6.1381  -4.3358  -3.5878
    -2.6477  -2.6427  -2.4442  -2.4124  -2.3455  -2.2768  -2.2415  -2.2219
    -2.1744  -2.1677  -2.1281  -2.1058  -2.0689  -2.0418  -2.0334  -2.0158
    -1.9990  -1.9768  -1.9545  -1.9373  -1.9314  -1.9021  -1.8808  -1.8705
    -1.8278  -1.8208  -1.7957  -1.7781  -1.7440  -1.6813  -1.6191  -1.5009
    -1.4612  -1.4328  -1.4118  -1.3970  -1.3687  -1.3332  -1.3174  -1.3040
    -1.2741  -1.2609  -1.1558  -1.0054  -0.9934  -0.8982  -0.8640  -0.8590
    -0.7533  -0.7209  -0.6877  -0.6623  -0.6105  -0.5689  -0.4683  -0.4565
    -0.4145  -0.3468  -0.2502  -0.2405  -0.2244  -0.1953  -0.1725  -0.1657
    -0.1077  -0.0700  -0.0337   0.0189   0.0391   0.0615   0.0927   0.1853
     0.2169   0.3300   0.4540   0.4913   0.5161   0.5474   0.6792   0.7353
     0.7792   0.8542   0.9174   0.9372   1.0406   1.0591   1.0904   1.1439
     1.2157   1.2660   1.2822   1.3100   1.3231   2.1606   2.1686   2.2336
     2.2339   3.7978   4.0020   4.2533   4.3272   4.3489   4.3783   4.4006
     4.4330   4.4588   4.5022   4.5170

     the Fermi energy is     3.8758 ev

!    total energy              =   -2975.12438147 Ry
     estimated scf accuracy    <       0.00000007 Ry
     smearing contrib. (-TS)   =      -0.03107372 Ry
     internal energy E=F+TS    =   -2975.09330775 Ry

     The total energy is F=E-TS. E is the sum of the following terms:
     one-electron contribution =  -23510.72844702 Ry
     hartree contribution      =   11853.66909732 Ry
     xc contribution           =    -494.85505973 Ry
     ewald contribution        =    9176.81753042 Ry
     electric field correction =       0.00357126 Ry

     convergence has been achieved in  64 iterations

     Forces acting on atoms (cartesian axes, Ry/au):

     atom    1 type  1   force =     0.00014050   -0.00020942    0.09450708
     atom    2 type  1   force =    -0.00007454    0.00039689   -0.17564335
     atom    3 type  2   force =     0.00003522   -0.00003135   -0.02144425
     atom    4 type  2   force =     0.00000388   -0.00223625    0.05509270
     atom    5 type  2   force =    -0.00784975   -0.00314056    0.00369989
     atom    6 type  2   force =     0.00957306   -0.00256731    0.00359123
     atom    7 type  1   force =     0.00002864   -0.00297281    0.00574255
     atom    8 type  1   force =    -0.00022829    0.00256368    0.00563256
     atom    9 type  2   force =    -0.00035203   -0.00027017    0.00005216
     atom   10 type  2   force =    -0.00116114   -0.00257467   -0.00852683
     atom   11 type  2   force =    -0.00069512   -0.00069393   -0.00013006
     atom   12 type  2   force =     0.00029269   -0.00070155   -0.00004539
     atom   13 type  1   force =     0.00009229    0.00005916    0.00038791
     atom   14 type  1   force =    -0.00015034   -0.00035665    0.00009162
     atom   15 type  2   force =     0.00010284   -0.00051267    0.00008154
     atom   16 type  2   force =     0.00009199   -0.00078686   -0.00022022
     atom   17 type  2   force =     0.00014632    0.00040230   -0.00031176
     atom   18 type  2   force =    -0.00042484    0.00036527   -0.00046953
     atom   19 type  1   force =    -0.00016644   -0.00023455   -0.00029408
     atom   20 type  1   force =     0.00024669   -0.00051410   -0.00000670
     atom   21 type  2   force =     0.00005546    0.00002459    0.10327689
     atom   22 type  2   force =    -0.00000429    0.00084708   -0.00090841
     atom   23 type  2   force =    -0.07175321   -0.00020060   -0.02725781
     atom   24 type  2   force =     0.07158895    0.00023932   -0.02732182
     atom   25 type  1   force =     0.00006453   -0.00033979    0.09390422
     atom   26 type  1   force =    -0.00016512   -0.00123421   -0.17592051
     atom   27 type  2   force =     0.00013790   -0.00024269   -0.02016666
     atom   28 type  2   force =     0.00003622   -0.00056157    0.05061758
     atom   29 type  2   force =    -0.00680042    0.00147441    0.00206291
     atom   30 type  2   force =     0.00849868    0.00183150    0.00197734
     atom   31 type  1   force =     0.00014802    0.00701277   -0.00371733
     atom   32 type  1   force =    -0.00028176   -0.00257470    0.00509977
     atom   33 type  2   force =    -0.00000315    0.00031171   -0.00009284
     atom   34 type  2   force =    -0.00012060    0.00279369   -0.00825206
     atom   35 type  2   force =     0.00026378    0.00066739   -0.00028623
     atom   36 type  2   force =    -0.00102890    0.00054463   -0.00042030
     atom   37 type  1   force =     0.00013830   -0.00045922    0.00009558
     atom   38 type  1   force =    -0.00016445   -0.00006459   -0.00014128
     atom   39 type  2   force =    -0.00012650    0.00003531    0.00019350
     atom   40 type  2   force =    -0.00045612    0.00016200    0.00009847
     atom   41 type  2   force =     0.00048199   -0.00015472    0.00049169
     atom   42 type  2   force =     0.00044833    0.00023105    0.00023204
     atom   43 type  1   force =    -0.00009014    0.00116506    0.00024652
     atom   44 type  1   force =     0.00033496   -0.00017101   -0.00013313
     atom   45 type  2   force =     0.00001615   -0.00011132    0.10303952
     atom   46 type  2   force =    -0.07181704   -0.00004413   -0.02731331
     atom   47 type  2   force =     0.07165710    0.00035161   -0.02735261
     atom   48 type  3   force =     0.00102384    0.00019284    0.00018127
     atom   49 type  4   force =     0.00017226   -0.00001709   -0.00068653
     atom   50 type  5   force =     0.00023274   -0.00038248   -0.00069467
     atom   51 type  5   force =    -0.00115386    0.00023351   -0.00030920
     atom   52 type  3   force =    -0.00379674    0.00058956   -0.00726666
     atom   53 type  5   force =    -0.00095383    0.00021257   -0.00060430
     atom   54 type  5   force =     0.00413582    0.00019934    0.00697841
     atom   55 type  5   force =    -0.00005001    0.00023231   -0.00046961
     atom   56 type  2   force =     0.00032402    0.00149713    0.00008352
     atom   57 type  5   force =    -0.00064456   -0.00027567   -0.00105100

     Total force =     0.362860     Total SCF correction =     0.000726
  @ DRIVER MODE: Message from server: STATUS
  @ DRIVER MODE: Message from server: GETFORCE
  @ DRIVER MODE: Returning v,forces,stress,ensemble

     Writing output data file ./calc.save/
  @ DRIVER MODE: Message from server: EXIT
  @ DRIVE MODE: Exiting

     General routines

     Parallel routines

   This run was terminated on:   5:21:29  24Sep2021

   JOB DONE.