     Program PWSCF v.6.7GPU starts on  9Sep2021 at 21: 4:34

     R & G space division:  proc/nbgrp/npool/nimage =      10
     Reading input from /storage/home/hcoda1/3/ntian30/research/carbon/CxH_vib/CH3_calc/ads_slab/CH3N2OH_l/out_0002/pw.inp
Warning: card &CELL ignored
Warning: card   CELL_DYNAMICS='IPI', ignored
Warning: card / ignored

     Current dimensions of program PWSCF are:
     Max number of different atomic species (ntypx) = 10
     Max number of k-points (npk) =  40000
     Max angular momentum in pseudopotentials (lmaxx) =  3
     Presently no symmetry can be used with electric field

     Message from routine cell_base_init:
     DEPRECATED: use true lattice parameter, not A to a.u. conversion factor

     IMPORTANT: XC functional enforced from input :
     Exchange-correlation= BEEF-VDW
                           (   1   4  43  14   2   0   0)
     Any further DFT definition will be discarded
     Please, verify this is what you really want

  @ DRIVER MODE: Connecting to
 qe_1139763_2779712.sched-torque.pace.gatech.edukxjedve7_scratch
  using UNIX socket
  @ DRIVER MODE: Message from server: STATUS
  @ DRIVER MODE: Message from server: INIT
  @ DRIVER MODE: Receiving replica           0          -1
  @ DRIVER MODE: Receiving encoded integer          25
  @ DRIVER MODE:  SCF:  T  FORCE:  T  STRESS:  F  VC:  F  ENSEMBLE:  F
  @ DRIVER MODE:  SCF:  T  FORCE:  T  STRESS:  F  VC:  F  ENSEMBLE:  F

     Using Slab Decomposition

     bravais-lattice index     =            0
     lattice parameter (alat)  =       1.8897  a.u.
     unit-cell volume          =    6658.9804 (a.u.)^3
     number of atoms/cell      =           55
     number of atomic types    =            5
     number of electrons       =       402.00
     number of Kohn-Sham states=          211
     kinetic-energy cutoff     =      29.3995  Ry
     charge density cutoff     =     293.9946  Ry
     scf convergence threshold =      7.3E-08
     mixing beta               =       0.0500
     number of iterations used =            8  plain     mixing
     Exchange-correlation= BEEF-VDW
                           (   1   4  43  14   2   0   0)

     celldm(1)=   1.889726  celldm(2)=   0.000000  celldm(3)=   0.000000
     celldm(4)=   0.000000  celldm(5)=   0.000000  celldm(6)=   0.000000

     crystal axes: (cart. coord. in units of alat)
               a(1) = (   6.579727   0.000000   0.000000 )
               a(2) = (  -0.000775   5.961596   0.000000 )
               a(3) = (   0.000000   0.000000  25.155947 )

     reciprocal axes: (cart. coord. in units 2 pi/alat)
               b(1) = (  0.151982  0.000020  0.000000 )
               b(2) = (  0.000000  0.167740  0.000000 )
               b(3) = (  0.000000  0.000000  0.039752 )

     PseudoPot. # 1 for Ti read from file:
     /storage/coda1/p-amedford6/0/shared/rich_project_chbe-medford/medford-share/data/pseudos_module/espresso/nninc/pbe/van/Ti.UPF
     MD5 check sum: 8e4df49b7f0d34bbd5052bf3f5ea0213
     Pseudo is Ultrasoft, Zval = 12.0
     Generated by new atomic code, or converted to UPF format
     Using radial grid of  851 points,  6 beta functions with:
                l(1) =   0
                l(2) =   0
                l(3) =   1
                l(4) =   1
                l(5) =   2
                l(6) =   2
     Q(r) pseudized with  8 coefficients,  rinner =    1.000   1.000   1.000
                                                       1.000   1.000

     PseudoPot. # 2 for O  read from file:
     /storage/coda1/p-amedford6/0/shared/rich_project_chbe-medford/medford-share/data/pseudos_module/espresso/nninc/pbe/van/O.UPF
     MD5 check sum: 78c19812648e8988a0fe644b0f25305e
     Pseudo is Ultrasoft, Zval =  6.0
     Generated by new atomic code, or converted to UPF format
     Using radial grid of  737 points,  4 beta functions with:
                l(1) =   0
                l(2) =   0
                l(3) =   1
                l(4) =   1
     Q(r) pseudized with  8 coefficients,  rinner =    0.800   0.800   0.800

     PseudoPot. # 3 for N  read from file:
     /storage/coda1/p-amedford6/0/shared/rich_project_chbe-medford/medford-share/data/pseudos_module/espresso/nninc/pbe/van/N.UPF
     MD5 check sum: 90d10febe142ad51ac9d5be1deb811c4
     Pseudo is Ultrasoft, Zval =  5.0
     Generated by new atomic code, or converted to UPF format
     Using radial grid of  729 points,  4 beta functions with:
                l(1) =   0
                l(2) =   0
                l(3) =   1
                l(4) =   1
     Q(r) pseudized with  8 coefficients,  rinner =    0.800   0.800   0.800

     PseudoPot. # 4 for C  read from file:
     /storage/coda1/p-amedford6/0/shared/rich_project_chbe-medford/medford-share/data/pseudos_module/espresso/nninc/pbe/van/C.UPF
     MD5 check sum: 1a69bf6b8db32088f5b2163dbdb77a27
     Pseudo is Ultrasoft, Zval =  4.0
     Generated by new atomic code, or converted to UPF format
     Using radial grid of  721 points,  4 beta functions with:
                l(1) =   0
                l(2) =   0
                l(3) =   1
                l(4) =   1
     Q(r) pseudized with  8 coefficients,  rinner =    0.800   0.800   0.800

     PseudoPot. # 5 for H  read from file:
     /storage/coda1/p-amedford6/0/shared/rich_project_chbe-medford/medford-share/data/pseudos_module/espresso/nninc/pbe/van/H.UPF
     MD5 check sum: b5ee9d7bfd3a09ee7748110bda690ff7
     Pseudo is Ultrasoft, Zval =  1.0
     Generated by new atomic code, or converted to UPF format
     Using radial grid of  615 points,  1 beta functions with:
                l(1) =   0
     Q(r) pseudized with  8 coefficients,  rinner =    0.800

     atomic species   valence    mass     pseudopotential
        Ti1           12.00    47.86700     Ti( 1.00)
        O1             6.00    15.99900     O ( 1.00)
        N1             5.00    14.00700     N ( 1.00)
        C1             4.00    12.01100     C ( 1.00)
        H1             1.00     1.00800     H ( 1.00)

     No symmetry found

   Cartesian axes

     site n.     atom                  positions (alat units)
         1           Ti1 tau(   1) = (   0.0004258   2.9801865   6.0000000  )
         2           Ti1 tau(   2) = (   3.2906075   1.4906267   6.0002472  )
         3           O1  tau(   3) = (   0.0006271   0.0005054   7.9858123  )
         4           O1  tau(   4) = (   3.2906025   0.0005020   7.3038282  )
         5           O1  tau(   5) = (   4.5942328   1.4918067   9.2879030  )
         6           O1  tau(   6) = (   1.9868534   1.4903216   9.2879459  )
         7           Ti1 tau(   7) = (   3.2907910   2.8959150   9.1758416  )
         8           Ti1 tau(   8) = (   0.0015273   1.4827037   9.2680791  )
         9           O1  tau(   9) = (   3.3074573   5.9346435  11.2963613  )
        10           O1  tau(  10) = (   0.0116148   5.9584955  10.6183126  )
        11           O1  tau(  11) = (   1.3055178   1.4819292  12.6272398  )
        12           O1  tau(  12) = (   5.3158762   1.4804127  12.6185516  )
        13           Ti1 tau(  13) = (   0.0186029   2.8424156  12.6464711  )
        14           Ti1 tau(  14) = (   3.3167612   1.2924093  12.6669032  )
        15           O1  tau(  15) = (   0.0012442   5.9356390  14.6370070  )
        16           O1  tau(  16) = (   3.3127944   0.0275565  13.9018093  )
        17           O1  tau(  17) = (   4.5765900   1.5157235  16.0894388  )
        18           O1  tau(  18) = (   2.0422450   1.5317946  16.0210879  )
        19           Ti1 tau(  19) = (   3.3088329   2.9810726  15.6636066  )
        20           Ti1 tau(  20) = (   0.0236821   1.4688588  15.8133175  )
        21           O1  tau(  21) = (   3.2904802   0.0005063   4.7018136  )
        22           O1  tau(  22) = (   0.0676014   5.9495730  17.1734943  )
        23           O1  tau(  23) = (   1.3043587   1.4918075   6.0039043  )
        24           O1  tau(  24) = (   5.2767064   1.4903225   6.0039473  )
        25           Ti1 tau(  25) = (   0.0000382   5.9609847   6.0000000  )
        26           Ti1 tau(  26) = (   3.2902200   4.4714249   6.0002472  )
        27           O1  tau(  27) = (   0.0002396   2.9813036   7.9858123  )
        28           O1  tau(  28) = (   3.2902150   2.9813002   7.3038282  )
        29           O1  tau(  29) = (   4.5938453   4.4726049   9.2879030  )
        30           O1  tau(  30) = (   1.9864658   4.4711199   9.2879459  )
        31           Ti1 tau(  31) = (   3.2891106   5.8743827   9.1763621  )
        32           Ti1 tau(  32) = (   0.0006254   4.4649316   9.2693709  )
        33           O1  tau(  33) = (   3.3041982   3.0170362  11.2630756  )
        34           O1  tau(  34) = (   0.0092240   2.9805883  10.6323155  )
        35           O1  tau(  35) = (   1.3098214   4.4601496  12.6289764  )
        36           O1  tau(  36) = (   5.3139316   4.4642116  12.6209765  )
        37           Ti1 tau(  37) = (   0.0286784   5.8202107  12.5681754  )
        38           Ti1 tau(  38) = (   3.3194384   4.3879401  12.4232525  )
        39           O1  tau(  39) = (   6.5763552   2.9401740  14.6754030  )
        40           O1  tau(  40) = (   3.3328261   2.9762691  13.8808942  )
        41           O1  tau(  41) = (   4.5658580   4.4380642  16.1332302  )
        42           O1  tau(  42) = (   2.0359873   4.4031365  16.0422930  )
        43           Ti1 tau(  43) = (   3.3255947   5.9578944  16.3175027  )
        44           Ti1 tau(  44) = (   0.0374668   4.6230282  16.0307208  )
        45           O1  tau(  45) = (   3.2900926   2.9813045   4.7018136  )
        46           O1  tau(  46) = (   1.3039711   4.4726057   6.0039043  )
        47           O1  tau(  47) = (   5.2763189   4.4711207   6.0039473  )
        48           N1  tau(  48) = (   0.1345995   2.6662279  18.6673576  )
        49           N1  tau(  49) = (   0.0476076   2.8693738  17.4835824  )
        50           C1  tau(  50) = (   0.1295945   3.7926219  19.6405614  )
        51           H1  tau(  51) = (   6.3015398   4.7065717  19.2118634  )
        52           H1  tau(  52) = (   6.1525190   3.4626129  20.5140504  )
        53           H1  tau(  53) = (   1.1733748   3.9370966  19.9287387  )
        54           O1  tau(  54) = (   3.0981659   0.0197753  18.1302257  )
        55           H1  tau(  55) = (   2.1972620   0.2293568  18.4309947  )

     number of k points=    10  Fermi-Dirac smearing, width (Ry)=  0.0073
                       cart. coord. in units 2pi/alat
        k(    1) = (   0.0000000   0.0000000   0.0000000), wk =   0.1250000
        k(    2) = (   0.0000000   0.0419351   0.0000000), wk =   0.2500000
        k(    3) = (   0.0000000  -0.0838702   0.0000000), wk =   0.1250000
        k(    4) = (   0.0379955   0.0000049   0.0000000), wk =   0.2500000
        k(    5) = (   0.0379955   0.0419400   0.0000000), wk =   0.2500000
        k(    6) = (   0.0379955  -0.0838652   0.0000000), wk =   0.2500000
        k(    7) = (   0.0379955  -0.0419301   0.0000000), wk =   0.2500000
        k(    8) = (  -0.0759910  -0.0000099   0.0000000), wk =   0.1250000
        k(    9) = (  -0.0759910   0.0419252   0.0000000), wk =   0.2500000
        k(   10) = (  -0.0759910  -0.0838800   0.0000000), wk =   0.1250000

     Initial potential from superposition of free atoms

     starting charge  385.99915, renormalised to  402.00000

     negative rho (up, down):  1.432E-02 0.000E+00

     %%%%%%%%%%%%%%%%%%%%%%%%%%%%%%%%%%%%%%%%%%%%%%%%%%%%%%%%%%%%%%%%%%%%%%%%
     %                                                                      %
     % You are using vdW-DF, which was implemented by the Thonhauser group. %
     % Please cite the following two papers that made this development      %
     % possible and the two reviews that describe the various versions:     %
     %                                                                      %
     %   T. Thonhauser et al., PRL 115, 136402 (2015).                      %
     %   T. Thonhauser et al., PRB 76, 125112 (2007).                       %
     %   K. Berland et al., Rep. Prog. Phys. 78, 066501 (2015).             %
     %   D.C. Langreth et al., J. Phys.: Condens. Matter 21, 084203 (2009). %
     %                                                                      %
     %                                                                      %
     % If you are calculating the stress with vdW-DF, please also cite:     %
     %                                                                      %
     %   R. Sabatini et al., J. Phys.: Condens. Matter 24, 424209 (2012).   %
     %                                                                      %
     %%%%%%%%%%%%%%%%%%%%%%%%%%%%%%%%%%%%%%%%%%%%%%%%%%%%%%%%%%%%%%%%%%%%%%%%

     Adding external electric field

     Computed dipole along edir(3) :
        Dipole              -11.9923 Ry au,        -30.4815 Debye
        Dipole field         -0.0226 Ry au,

        Potential amp.        2.0979 Ry
        Total length         46.3494 bohr

     Starting wfcs are  304 atomic wfcs
  @ DRIVER MODE: Message from server: STATUS
  @ DRIVER MODE: Message from server: POSDATA
  @ DRIVER MODE: Reading and sharing cell
  @ DRIVER MODE: Reading and sharing positions
  @ DRIVER MODE: Received positions

     Self-consistent Calculation

     iteration #  1     ecut=    29.40 Ry     beta= 0.05
     Davidson diagonalization with overlap
     c_bands:  3 eigenvalues not converged
     c_bands:  5 eigenvalues not converged
     c_bands:  5 eigenvalues not converged
     c_bands:  4 eigenvalues not converged
     c_bands:  1 eigenvalues not converged
     c_bands:  4 eigenvalues not converged
     c_bands:  2 eigenvalues not converged
     c_bands:  5 eigenvalues not converged
     c_bands:  4 eigenvalues not converged
     ethr =  1.00E-05,  avg # of iterations = 23.8

[...]

     total energy              =   -2400.49718496 Ry
     estimated scf accuracy    <    6448.57432073 Ry

     iteration #  2     ecut=    29.40 Ry     beta= 0.05
     Davidson diagonalization with overlap
     ethr =  1.00E-02,  avg # of iterations = 22.0

[...]

     iteration # 45     ecut=    29.40 Ry     beta= 0.05
     Davidson diagonalization with overlap
     c_bands:  1 eigenvalues not converged
     c_bands:  1 eigenvalues not converged
     c_bands:  1 eigenvalues not converged
     ethr =  2.21E-06,  avg # of iterations = 11.5

[...]

     total energy              =   -2972.75613594 Ry
     estimated scf accuracy    <       0.00000051 Ry

     iteration # 69     ecut=    29.40 Ry     beta= 0.05
     Davidson diagonalization with overlap
     ethr =  1.21E-10,  avg # of iterations =  6.0

     negative rho (up, down):  1.508E-02 0.000E+00

     Adding external electric field

     Computed dipole along edir(3) :
        Dipole                0.5644 Ry au,          1.4347 Debye
        Dipole field          0.0011 Ry au,

        Potential amp.       -0.0987 Ry
        Total length         46.3494 bohr

     End of self-consistent calculation

          k = 0.0000 0.0000 0.0000 ( 18029 PWs)   bands (ev):

   -56.2744 -56.2406 -55.8675 -55.8326 -55.6113 -55.5941 -55.5535 -55.4031
   -55.3554 -55.3451 -55.2318 -55.1816 -55.0710 -55.0429 -55.0404 -55.0064
   -32.7245 -32.5668 -32.5400 -32.4326 -32.3487 -32.3470 -32.3400 -32.0931
   -32.0868 -32.0627 -32.0120 -32.0065 -31.9773 -31.9021 -31.8962 -31.8570
   -31.8341 -31.8321 -31.8184 -31.7758 -31.7569 -31.7487 -31.7161 -31.7157
   -31.6857 -31.6737 -31.6155 -31.5627 -31.5565 -31.5445 -31.5405 -31.5126
   -31.4911 -31.4365 -31.4307 -31.4158 -31.3911 -31.3739 -31.3503 -31.3291
   -31.3041 -31.2815 -31.2809 -31.2728 -31.2585 -31.2554 -31.1709 -31.0589
   -18.8895 -16.5662 -16.3761 -16.2265 -15.9917 -15.8446 -15.7603 -15.7038
   -15.7011 -15.5828 -15.5459 -15.4535 -15.3646 -15.2959 -15.2639 -15.2592
   -15.1669 -15.1045 -15.0552 -15.0325 -15.0007 -14.9813 -14.9668 -14.8891
   -14.8798 -14.8558 -14.8115 -14.6901 -14.6278 -14.3286 -14.3095 -13.5377
   -13.4256 -11.5238  -6.9589  -4.4222  -4.1076  -4.0752  -4.0244  -3.8825
    -3.7778  -3.5704  -3.4527  -3.2681  -3.2492  -3.1506  -2.9853  -2.9772
    -2.9241  -2.8534  -2.7745  -2.7051  -2.6617  -2.6505  -2.5558  -2.4999
    -2.4977  -2.4849  -2.4436  -2.4084  -2.3200  -2.2778  -2.2635  -2.2261
    -2.1830  -2.1333  -2.1292  -2.0835  -2.0586  -1.9979  -1.9335  -1.8961
    -1.8714  -1.8055  -1.7461  -1.7059  -1.6397  -1.5933  -1.5804  -1.5771
    -1.5227  -1.3286  -1.2886  -1.2615  -1.2423  -1.0997  -1.0557  -1.0208
    -0.9569  -0.9397  -0.8504  -0.8239  -0.8065  -0.7818  -0.7111  -0.6985
    -0.6624  -0.6335  -0.4470  -0.4124  -0.3410  -0.3320  -0.2640  -0.2313
    -0.1983  -0.1585  -0.1266  -0.0732  -0.0609  -0.0070   0.0396   0.0674
     0.2087   0.2399   0.3229   0.3310   0.3342   0.3566   0.4336   0.4679
     0.5404   0.5920   0.5983   0.6505   0.7380   0.7775   0.8928   0.9623
     0.9845   1.0070   1.0418   1.0957   1.2149   1.5070   1.5314   1.5702
     2.7038   2.9515   3.0820   3.2289   3.3831   3.4873   3.7973   3.8136
     3.8502   3.8964   3.9409

[...]

          k = 0.0380-0.0419 0.0000 ( 17876 PWs)   bands (ev):

[...]

          k =-0.0760-0.0000 0.0000 ( 17886 PWs)   bands (ev):

[...]

          k =-0.0760-0.0839 0.0000 ( 17948 PWs)   bands (ev):

   -56.2574 -56.2573 -55.8549 -55.8450 -55.6058 -55.5934 -55.5589 -55.3957
   -55.3626 -55.3456 -55.2301 -55.1796 -55.0726 -55.0448 -55.0239 -55.0227
   -32.5524 -32.5523 -32.5406 -32.5404 -32.3847 -32.3843 -32.1741 -32.1650
   -32.0485 -32.0402 -32.0384 -32.0340 -31.9144 -31.8773 -31.8599 -31.8292
   -31.8280 -31.8266 -31.8169 -31.7861 -31.7730 -31.7260 -31.7127 -31.6985
   -31.6359 -31.6332 -31.6276 -31.6016 -31.5974 -31.5944 -31.5541 -31.5490
   -31.4829 -31.4367 -31.4198 -31.4179 -31.3909 -31.3636 -31.3628 -31.3434
   -31.3327 -31.2903 -31.2849 -31.2768 -31.2520 -31.2507 -31.2137 -31.2128
   -18.8866 -16.3607 -15.9769 -15.9688 -15.8378 -15.8323 -15.6595 -15.6476
   -15.6011 -15.5539 -15.5223 -15.4887 -15.3611 -15.3356 -15.2654 -15.2399
   -15.2060 -15.1808 -15.1566 -15.1505 -15.1141 -15.0722 -15.0228 -15.0174
   -14.9690 -14.9674 -14.8427 -14.7660 -14.6886 -14.5099 -14.4638 -13.5289
   -13.5284 -11.5218  -6.9734  -4.3695  -4.0802  -4.0552  -3.8526  -3.1408
    -3.0991  -2.9734  -2.9480  -2.8724  -2.8346  -2.7651  -2.7064  -2.6846
    -2.6716  -2.6605  -2.5955  -2.5665  -2.5607  -2.5195  -2.5042  -2.4972
    -2.4600  -2.4092  -2.3849  -2.3627  -2.3574  -2.3512  -2.2726  -2.2029
    -2.2007  -2.1807  -2.1468  -2.1147  -2.0348  -2.0275  -1.9874  -1.9533
    -1.9219  -1.8300  -1.7892  -1.7414  -1.6961  -1.6561  -1.5851  -1.5818
    -1.5142  -1.4680  -1.3554  -1.3323  -1.3129  -1.2710  -1.2333  -1.1933
    -1.1272  -1.1049  -1.0513  -1.0470  -1.0331  -1.0101  -0.8980  -0.8577
    -0.7649  -0.7245  -0.7016  -0.6783  -0.6355  -0.6282  -0.5572  -0.5342
    -0.4957  -0.4710  -0.4047  -0.3994  -0.3648  -0.2996  -0.1937  -0.0354
     0.0604   0.1019   0.1246   0.1433   0.1887   0.2976   0.3036   0.3788
     0.4504   0.4635   0.4810   0.5099   0.6565   0.7332   0.8411   0.8633
     0.9114   0.9597   1.0196   1.0877   1.3756   1.3831   1.3865   1.3870
     2.7159   3.5024   3.5048   3.5332   3.5444   3.7313   3.7334   3.7506
     3.8963   3.9250   3.9955

     the Fermi energy is     2.8875 ev

!    total energy              =   -2972.75616154 Ry
     estimated scf accuracy    <       0.00000004 Ry
     smearing contrib. (-TS)   =      -0.01286404 Ry
     internal energy E=F+TS    =   -2972.74329750 Ry

     The total energy is F=E-TS. E is the sum of the following terms:
     one-electron contribution =  -23636.59151788 Ry
     hartree contribution      =   11911.32809583 Ry
     xc contribution           =    -493.08074166 Ry
     ewald contribution        =    9245.60026500 Ry
     electric field correction =       0.00060122 Ry

     convergence has been achieved in  69 iterations

     Forces acting on atoms (cartesian axes, Ry/au):

     atom    1 type  1   force =    -0.00000612   -0.00036445    0.10685346
     atom    2 type  1   force =    -0.00004850    0.00019686   -0.16489208
     atom    3 type  2   force =     0.00005421    0.00001859   -0.03815064
     atom    4 type  2   force =     0.00006427   -0.00063635    0.03449948
     atom    5 type  2   force =    -0.00367055   -0.00218692   -0.00717558
     atom    6 type  2   force =     0.00569484   -0.00177222   -0.00684902
     atom    7 type  1   force =     0.00025127   -0.00516227    0.03716337
     atom    8 type  1   force =    -0.00002126    0.01090152    0.05888771
     atom    9 type  2   force =    -0.00043769    0.00028125   -0.00085028
     atom   10 type  2   force =    -0.00076473   -0.00040004   -0.04433144
     atom   11 type  2   force =     0.00028517   -0.00022218    0.00031246
     atom   12 type  2   force =    -0.00063613   -0.00055055   -0.00004887
     atom   13 type  1   force =     0.00004320    0.00032560    0.00057762
     atom   14 type  1   force =    -0.00025024   -0.00006199    0.00056454
     atom   15 type  2   force =    -0.00019990   -0.00037656   -0.00113394
     atom   16 type  2   force =     0.00032508    0.00007397    0.00045167
     atom   17 type  2   force =     0.00013547    0.00041042    0.00020931
     atom   18 type  2   force =     0.00040028    0.00046845   -0.00057451
     atom   19 type  1   force =    -0.00047360   -0.00053395   -0.00034149
     atom   20 type  1   force =     0.00014321   -0.00016937    0.00075003
     atom   21 type  2   force =     0.00004231    0.00021306    0.10033966
     atom   22 type  2   force =     0.00003858   -0.00080201   -0.00003307
     atom   23 type  2   force =    -0.07691765   -0.00000942   -0.03001789
     atom   24 type  2   force =     0.07678663    0.00041569   -0.03007919
     atom   25 type  1   force =     0.00005466   -0.00042235    0.10689014
     atom   26 type  1   force =    -0.00017326   -0.00138188   -0.16524819
     atom   27 type  2   force =     0.00012544   -0.00063965   -0.03659417
     atom   28 type  2   force =     0.00003840    0.00111548    0.03007912
     atom   29 type  2   force =    -0.00205437    0.00417652   -0.01014653
     atom   30 type  2   force =     0.00412061    0.00462447   -0.00972273
     atom   31 type  1   force =     0.00024442    0.00322930    0.02270524
     atom   32 type  1   force =    -0.00015371   -0.01397536    0.05892655
     atom   33 type  2   force =    -0.00013972   -0.00117847   -0.00031008
     atom   34 type  2   force =    -0.00070585   -0.00007635   -0.05479702
     atom   35 type  2   force =    -0.00105315    0.00020885    0.00019224
     atom   36 type  2   force =     0.00051358   -0.00000451   -0.00022427
     atom   37 type  1   force =    -0.00013963   -0.00078012    0.00007015
     atom   38 type  1   force =    -0.00058155    0.00000088    0.00009516
     atom   39 type  2   force =    -0.00027705    0.00052266   -0.00006458
     atom   40 type  2   force =    -0.00024533   -0.00046025    0.00009117
     atom   41 type  2   force =    -0.00101965    0.00011080   -0.00018744
     atom   42 type  2   force =    -0.00028957    0.00008017    0.00065319
     atom   43 type  1   force =     0.00075493    0.00101957   -0.00002131
     atom   44 type  1   force =    -0.00036445    0.00157399    0.00081995
     atom   45 type  2   force =     0.00003421    0.00000087    0.10013720
     atom   46 type  2   force =    -0.07695852    0.00003309   -0.03005077
     atom   47 type  2   force =     0.07685021    0.00046006   -0.03011768
     atom   48 type  3   force =    -0.00206128   -0.00024750   -0.00041684
     atom   49 type  3   force =     0.00090809    0.00040635    0.00105376
     atom   50 type  4   force =     0.00211500    0.00154021   -0.00072235
     atom   51 type  5   force =    -0.00051187   -0.00066542    0.00012531
     atom   52 type  5   force =    -0.00042049   -0.00074076   -0.00055981
     atom   53 type  5   force =    -0.00013231    0.00089338    0.00125489
     atom   54 type  2   force =     0.00106659   -0.00044711   -0.00123768
     atom   55 type  5   force =    -0.00038254    0.00096598    0.00119604

     Total force =     0.379731     Total SCF correction =     0.000681
  @ DRIVER MODE: Message from server: STATUS
  @ DRIVER MODE: Message from server: GETFORCE
  @ DRIVER MODE: Returning v,forces,stress,ensemble

     Writing output data file ./calc.save/
  @ DRIVER MODE: Message from server: EXIT
  @ DRIVE MODE: Exiting

     General routines

     Parallel routines

   This run was terminated on:  21:22:24   9Sep2021

   JOB DONE.