     Program PWSCF v.6.7GPU starts on  2Aug2021 at 18: 2:16

     R & G space division:  proc/nbgrp/npool/nimage =      16
     Reading input from /storage/home/hcoda1/3/ntian30/research/carbon/02Aug_vib_paired/ads_slab/CH3N2H_a/out_0022/pw.inp
Warning: card &CELL ignored
Warning: card   CELL_DYNAMICS='IPI', ignored
Warning: card / ignored

     Current dimensions of program PWSCF are:
     Max number of different atomic species (ntypx) = 10
     Max number of k-points (npk) =  40000
     Max angular momentum in pseudopotentials (lmaxx) =  3
     Presently no symmetry can be used with electric field

     Message from routine cell_base_init:
     DEPRECATED: use true lattice parameter, not A to a.u. conversion factor

     IMPORTANT: XC functional enforced from input :
     Exchange-correlation= BEEF-VDW
                           (   1   4  43  14   2   0   0)
     Any further DFT definition will be discarded
     Please, verify this is what you really want

  @ DRIVER MODE: Connecting to
 qe_1139763_2482535.sched-torque.pace.gatech.eduz6o1zarg_scratch
  using UNIX socket
  @ DRIVER MODE: Message from server: STATUS
  @ DRIVER MODE: Message from server: INIT
  @ DRIVER MODE: Receiving replica           0          -1
  @ DRIVER MODE: Receiving encoded integer          25
  @ DRIVER MODE:  SCF:  T  FORCE:  T  STRESS:  F  VC:  F  ENSEMBLE:  F
  @ DRIVER MODE:  SCF:  T  FORCE:  T  STRESS:  F  VC:  F  ENSEMBLE:  F

     Using Slab Decomposition

     bravais-lattice index     =            0
     lattice parameter (alat)  =       1.8897  a.u.
     unit-cell volume          =    6658.9804 (a.u.)^3
     number of atoms/cell      =           54
     number of atomic types    =            5
     number of electrons       =       396.00
     number of Kohn-Sham states=          208
     kinetic-energy cutoff     =      29.3995  Ry
     charge density cutoff     =     293.9946  Ry
     scf convergence threshold =      7.3E-08
     mixing beta               =       0.0500
     number of iterations used =            8  plain     mixing
     Exchange-correlation= BEEF-VDW
                           (   1   4  43  14   2   0   0)

     celldm(1)=   1.889726  celldm(2)=   0.000000  celldm(3)=   0.000000
     celldm(4)=   0.000000  celldm(5)=   0.000000  celldm(6)=   0.000000

     crystal axes: (cart. coord. in units of alat)
               a(1) = (   6.579727   0.000000   0.000000 )
               a(2) = (  -0.000775   5.961596   0.000000 )
               a(3) = (   0.000000   0.000000  25.155947 )

     reciprocal axes: (cart. coord. in units 2 pi/alat)
               b(1) = (  0.151982  0.000020  0.000000 )
               b(2) = (  0.000000  0.167740  0.000000 )
               b(3) = (  0.000000  0.000000  0.039752 )

     PseudoPot. # 1 for Ti read from file:
     /storage/coda1/p-amedford6/0/shared/rich_project_chbe-medford/medford-share/data/pseudos_module/espresso/nninc/pbe/van/Ti.UPF
     MD5 check sum: 8e4df49b7f0d34bbd5052bf3f5ea0213
     Pseudo is Ultrasoft, Zval = 12.0
     Generated by new atomic code, or converted to UPF format
     Using radial grid of  851 points,  6 beta functions with:
                l(1) =   0
                l(2) =   0
                l(3) =   1
                l(4) =   1
                l(5) =   2
                l(6) =   2
     Q(r) pseudized with  8 coefficients,  rinner =    1.000   1.000   1.000
                                                       1.000   1.000

     PseudoPot. # 2 for O  read from file:
     /storage/coda1/p-amedford6/0/shared/rich_project_chbe-medford/medford-share/data/pseudos_module/espresso/nninc/pbe/van/O.UPF
     MD5 check sum: 78c19812648e8988a0fe644b0f25305e
     Pseudo is Ultrasoft, Zval =  6.0
     Generated by new atomic code, or converted to UPF format
     Using radial grid of  737 points,  4 beta functions with:
                l(1) =   0
                l(2) =   0
                l(3) =   1
                l(4) =   1
     Q(r) pseudized with  8 coefficients,  rinner =    0.800   0.800   0.800

     PseudoPot. # 3 for N  read from file:
     /storage/coda1/p-amedford6/0/shared/rich_project_chbe-medford/medford-share/data/pseudos_module/espresso/nninc/pbe/van/N.UPF
     MD5 check sum: 90d10febe142ad51ac9d5be1deb811c4
     Pseudo is Ultrasoft, Zval =  5.0
     Generated by new atomic code, or converted to UPF format
     Using radial grid of  729 points,  4 beta functions with:
                l(1) =   0
                l(2) =   0
                l(3) =   1
                l(4) =   1
     Q(r) pseudized with  8 coefficients,  rinner =    0.800   0.800   0.800

     PseudoPot. # 4 for C  read from file:
     /storage/coda1/p-amedford6/0/shared/rich_project_chbe-medford/medford-share/data/pseudos_module/espresso/nninc/pbe/van/C.UPF
     MD5 check sum: 1a69bf6b8db32088f5b2163dbdb77a27
     Pseudo is Ultrasoft, Zval =  4.0
     Generated by new atomic code, or converted to UPF format
     Using radial grid of  721 points,  4 beta functions with:
                l(1) =   0
                l(2) =   0
                l(3) =   1
                l(4) =   1
     Q(r) pseudized with  8 coefficients,  rinner =    0.800   0.800   0.800

     PseudoPot. # 5 for H  read from file:
     /storage/coda1/p-amedford6/0/shared/rich_project_chbe-medford/medford-share/data/pseudos_module/espresso/nninc/pbe/van/H.UPF
     MD5 check sum: b5ee9d7bfd3a09ee7748110bda690ff7
     Pseudo is Ultrasoft, Zval =  1.0
     Generated by new atomic code, or converted to UPF format
     Using radial grid of  615 points,  1 beta functions with:
                l(1) =   0
     Q(r) pseudized with  8 coefficients,  rinner =    0.800

     atomic species   valence    mass     pseudopotential
        Ti1           12.00    47.86700     Ti( 1.00)
        O1             6.00    15.99900     O ( 1.00)
        N1             5.00    14.00700     N ( 1.00)
        C1             4.00    12.01100     C ( 1.00)
        H1             1.00     1.00800     H ( 1.00)

     No symmetry found

   Cartesian axes

     site n.     atom                  positions (alat units)
         1           Ti1 tau(   1) = (   0.0004258   2.9801865   6.0000000  )
         2           Ti1 tau(   2) = (   3.2906075   1.4906267   6.0002472  )
         3           O1  tau(   3) = (   0.0006271   0.0005054   7.9858123  )
         4           O1  tau(   4) = (   3.2906025   0.0005020   7.3038282  )
         5           O1  tau(   5) = (   4.5942328   1.4918067   9.2879030  )
         6           O1  tau(   6) = (   1.9868534   1.4903216   9.2879459  )
         7           Ti1 tau(   7) = (   3.2907910   2.8959150   9.1758416  )
         8           Ti1 tau(   8) = (   0.0015273   1.4827037   9.2680791  )
         9           O1  tau(   9) = (   3.3106937   0.0084137  11.2927479  )
        10           O1  tau(  10) = (   0.0116148   5.9584955  10.6183126  )
        11           O1  tau(  11) = (   1.3255326   1.5151957  12.5859258  )
        12           O1  tau(  12) = (   5.3246634   1.4871208  12.6441624  )
        13           Ti1 tau(  13) = (   6.5358624   2.9940264  12.7507449  )
        14           Ti1 tau(  14) = (   3.1828407   1.5032771  12.4528579  )
        15           O1  tau(  15) = (   0.1336207   0.0073438  14.6266748  )
        16           O1  tau(  16) = (   3.2550344   0.0288700  13.8306396  )
        17           O1  tau(  17) = (   4.6334483   1.5013943  15.9792279  )
        18           O1  tau(  18) = (   2.1409664   1.5470880  15.9954950  )
        19           Ti1 tau(  19) = (   3.4798582   3.0305884  15.6593850  )
        20           Ti1 tau(  20) = (   0.1386493   1.3724552  15.8613965  )
        21           O1  tau(  21) = (   3.2904802   0.0005063   4.7018136  )
        22           O1  tau(  22) = (   0.1429122   0.0333940  17.1908172  )
        23           O1  tau(  23) = (   1.3043587   1.4918075   6.0039043  )
        24           O1  tau(  24) = (   5.2767064   1.4903225   6.0039473  )
        25           Ti1 tau(  25) = (   0.0000382   5.9609847   6.0000000  )
        26           Ti1 tau(  26) = (   3.2902200   4.4714249   6.0002472  )
        27           O1  tau(  27) = (   0.0002396   2.9813036   7.9858123  )
        28           O1  tau(  28) = (   3.2902150   2.9813002   7.3038282  )
        29           O1  tau(  29) = (   4.5938453   4.4726049   9.2879030  )
        30           O1  tau(  30) = (   1.9864658   4.4711199   9.2879459  )
        31           Ti1 tau(  31) = (   3.2891106   5.8743827   9.1763621  )
        32           Ti1 tau(  32) = (   0.0006254   4.4649316   9.2693709  )
        33           O1  tau(  33) = (   3.3137399   2.9960163  11.2943833  )
        34           O1  tau(  34) = (   0.0092240   2.9805883  10.6323155  )
        35           O1  tau(  35) = (   1.3234708   4.4688006  12.5930975  )
        36           O1  tau(  36) = (   5.3222282   4.4932535  12.6449723  )
        37           Ti1 tau(  37) = (   6.5041614   0.0053836  12.5833808  )
        38           Ti1 tau(  38) = (   3.1843229   4.4812189  12.4522442  )
        39           O1  tau(  39) = (   0.0584892   2.9792810  14.6723703  )
        40           O1  tau(  40) = (   3.3232524   2.9928384  13.8523860  )
        41           O1  tau(  41) = (   4.6237859   4.5837569  15.7472905  )
        42           O1  tau(  42) = (   2.1882403   4.4693611  16.1038286  )
        43           Ti1 tau(  43) = (   3.3015484   0.0242660  15.6383815  )
        44           Ti1 tau(  44) = (   0.0181797   4.4930750  16.1931172  )
        45           O1  tau(  45) = (   3.2900926   2.9813045   4.7018136  )
        46           O1  tau(  46) = (   1.3039711   4.4726057   6.0039043  )
        47           O1  tau(  47) = (   5.2763189   4.4711207   6.0039473  )
        48           N1  tau(  48) = (   0.2677213   2.8760844  17.5655548  )
        49           C1  tau(  49) = (   1.2271684   2.7639891  18.6598760  )
        50           H1  tau(  50) = (   1.2930054   3.7106696  19.2072709  )
        51           H1  tau(  51) = (   0.8976878   1.9830418  19.3402421  )
        52           H1  tau(  52) = (   2.2102292   2.4972526  18.2850250  )
        53           N1  tau(  53) = (   5.6732178   3.4927010  17.8452151  )
        54           H1  tau(  54) = (   5.7345573   4.0058295  18.7343860  )

     number of k points=    10  Fermi-Dirac smearing, width (Ry)=  0.0073
                       cart. coord. in units 2pi/alat
        k(    1) = (   0.0000000   0.0000000   0.0000000), wk =   0.1250000
        k(    2) = (   0.0000000   0.0419351   0.0000000), wk =   0.2500000
        k(    3) = (   0.0000000  -0.0838702   0.0000000), wk =   0.1250000
        k(    4) = (   0.0379955   0.0000049   0.0000000), wk =   0.2500000
        k(    5) = (   0.0379955   0.0419400   0.0000000), wk =   0.2500000
        k(    6) = (   0.0379955  -0.0838652   0.0000000), wk =   0.2500000
        k(    7) = (   0.0379955  -0.0419301   0.0000000), wk =   0.2500000
        k(    8) = (  -0.0759910  -0.0000099   0.0000000), wk =   0.1250000
        k(    9) = (  -0.0759910   0.0419252   0.0000000), wk =   0.2500000
        k(   10) = (  -0.0759910  -0.0838800   0.0000000), wk =   0.1250000

     Initial potential from superposition of free atoms

     starting charge  379.99915, renormalised to  396.00000

     negative rho (up, down):  1.687E-02 0.000E+00

     %%%%%%%%%%%%%%%%%%%%%%%%%%%%%%%%%%%%%%%%%%%%%%%%%%%%%%%%%%%%%%%%%%%%%%%%
     %                                                                      %
     % You are using vdW-DF, which was implemented by the Thonhauser group. %
     % Please cite the following two papers that made this development      %
     % possible and the two reviews that describe the various versions:     %
     %                                                                      %
     %   T. Thonhauser et al., PRL 115, 136402 (2015).                      %
     %   T. Thonhauser et al., PRB 76, 125112 (2007).                       %
     %   K. Berland et al., Rep. Prog. Phys. 78, 066501 (2015).             %
     %   D.C. Langreth et al., J. Phys.: Condens. Matter 21, 084203 (2009). %
     %                                                                      %
     %                                                                      %
     % If you are calculating the stress with vdW-DF, please also cite:     %
     %                                                                      %
     %   R. Sabatini et al., J. Phys.: Condens. Matter 24, 424209 (2012).   %
     %                                                                      %
     %%%%%%%%%%%%%%%%%%%%%%%%%%%%%%%%%%%%%%%%%%%%%%%%%%%%%%%%%%%%%%%%%%%%%%%%

     Adding external electric field

     Computed dipole along edir(3) :
        Dipole               -8.2222 Ry au,        -20.8988 Debye
        Dipole field         -0.0155 Ry au,

        Potential amp.        1.4384 Ry
        Total length         46.3494 bohr

     Starting wfcs are  300 atomic wfcs
  @ DRIVER MODE: Message from server: STATUS
  @ DRIVER MODE: Message from server: POSDATA
  @ DRIVER MODE: Reading and sharing cell
  @ DRIVER MODE: Reading and sharing positions
  @ DRIVER MODE: Received positions

     Self-consistent Calculation

     iteration #  1     ecut=    29.40 Ry     beta= 0.05
     Davidson diagonalization with overlap
     c_bands:  1 eigenvalues not converged
     c_bands:  1 eigenvalues not converged
     c_bands:  1 eigenvalues not converged
     c_bands:  1 eigenvalues not converged
     c_bands:  4 eigenvalues not converged
     c_bands:  1 eigenvalues not converged
     c_bands:  5 eigenvalues not converged
     c_bands:  2 eigenvalues not converged
     c_bands:  1 eigenvalues not converged
     c_bands:  1 eigenvalues not converged
     ethr =  1.00E-05,  avg # of iterations = 20.0

[...]

     total energy              =   -2607.33814239 Ry
     estimated scf accuracy    <    3677.74272170 Ry

     iteration #  2     ecut=    29.40 Ry     beta= 0.05
     Davidson diagonalization with overlap
     ethr =  1.00E-02,  avg # of iterations = 22.2

[...]

     iteration # 47     ecut=    29.40 Ry     beta= 0.05
     Davidson diagonalization with overlap
     c_bands:  1 eigenvalues not converged
     c_bands:  1 eigenvalues not converged
     c_bands:  1 eigenvalues not converged
     ethr =  5.65E-07,  avg # of iterations = 15.9

[...]

     total energy              =   -2940.35212893 Ry
     estimated scf accuracy    <       0.00000009 Ry

     iteration # 68     ecut=    29.40 Ry     beta= 0.05
     Davidson diagonalization with overlap
     ethr =  2.32E-11,  avg # of iterations =  6.4

     negative rho (up, down):  1.747E-02 0.000E+00

     Adding external electric field

     Computed dipole along edir(3) :
        Dipole                0.7402 Ry au,          1.8813 Debye
        Dipole field          0.0014 Ry au,

        Potential amp.       -0.1295 Ry
        Total length         46.3494 bohr

     End of self-consistent calculation

          k = 0.0000 0.0000 0.0000 ( 18029 PWs)   bands (ev):

   -56.0220 -55.9880 -55.8034 -55.7645 -55.7240 -55.6896 -55.6629 -55.6383
   -55.6286 -55.6036 -55.5748 -55.4952 -55.2405 -54.9184 -54.8844 -54.7881
   -32.4886 -32.3455 -32.3161 -32.2927 -32.1910 -32.1769 -32.1656 -32.1279
   -32.1114 -32.0983 -32.0829 -32.0444 -32.0208 -31.9811 -31.9747 -31.9723
   -31.9408 -31.9302 -31.9192 -31.8953 -31.8862 -31.8684 -31.8629 -31.8583
   -31.8386 -31.8367 -31.8283 -31.8242 -31.8185 -31.8009 -31.7935 -31.7924
   -31.7755 -31.7510 -31.6915 -31.6644 -31.6158 -31.4670 -31.4640 -31.3219
   -31.2426 -31.2196 -31.2055 -31.1393 -31.0533 -30.9926 -30.9419 -30.9126
   -17.3096 -16.5584 -16.3676 -16.0776 -15.9267 -15.9072 -15.7878 -15.6907
   -15.6131 -15.5133 -15.4603 -15.4057 -15.3936 -15.3682 -15.3095 -15.2874
   -15.2462 -15.2286 -15.1861 -15.1753 -15.1296 -15.1072 -15.0849 -15.0508
   -14.9858 -14.9154 -14.9027 -14.7465 -14.6070 -14.4543 -13.4196 -13.3048
   -11.5582  -8.3454  -5.0208  -4.0217  -3.9450  -3.8751  -3.8398  -3.7734
    -3.6921  -3.4419  -3.4192  -3.3576  -3.0699  -3.0225  -2.9985  -2.9940
    -2.8961  -2.7567  -2.7258  -2.6660  -2.6603  -2.6394  -2.6199  -2.6028
    -2.5456  -2.4909  -2.4738  -2.4318  -2.2970  -2.2709  -2.2668  -2.2448
    -2.1751  -2.1654  -2.1011  -2.0834  -2.0609  -2.0422  -2.0055  -1.8722
    -1.8388  -1.7745  -1.6924  -1.6036  -1.5236  -1.4878  -1.3998  -1.3856
    -1.3419  -1.2601  -1.2560  -1.1777  -1.1451  -1.0693  -1.0440  -1.0062
    -0.8976  -0.8702  -0.8126  -0.7548  -0.7097  -0.6966  -0.6553  -0.6310
    -0.6253  -0.6105  -0.5978  -0.4038  -0.3733  -0.2306  -0.1848  -0.1603
    -0.1196  -0.0967  -0.0383  -0.0149  -0.0097   0.0303   0.0484   0.0912
     0.1470   0.1616   0.1877   0.2813   0.3136   0.3684   0.4946   0.5084
     0.5962   0.6632   0.7694   0.7820   0.8335   0.9648   1.0605   1.0825
     1.1039   1.3091   1.4142   1.6680   1.7104   3.0257   3.1714   3.2667
     3.3753   3.4957   3.5709   3.6091   3.7840   3.8217   3.8632   3.9196

[...]

          k = 0.0380-0.0419 0.0000 ( 17876 PWs)   bands (ev):

[...]

          k =-0.0760-0.0000 0.0000 ( 17886 PWs)   bands (ev):

[...]

          k =-0.0760-0.0839 0.0000 ( 17948 PWs)   bands (ev):

   -56.0059 -56.0039 -55.7913 -55.7765 -55.7104 -55.7029 -55.6474 -55.6441
   -55.6249 -55.6170 -55.5709 -55.4990 -55.2399 -54.9014 -54.9013 -54.7885
   -32.3051 -32.3041 -32.3019 -32.3001 -32.1530 -32.1409 -32.1289 -32.1267
   -32.0494 -32.0367 -32.0265 -32.0227 -32.0157 -32.0130 -31.9697 -31.9642
   -31.9549 -31.9428 -31.9122 -31.9016 -31.8894 -31.8850 -31.8806 -31.8794
   -31.8747 -31.8709 -31.8547 -31.8491 -31.8432 -31.8396 -31.8346 -31.8162
   -31.7966 -31.7937 -31.7639 -31.7054 -31.6063 -31.4695 -31.4635 -31.2556
   -31.2325 -31.2324 -31.1353 -31.1351 -31.0964 -31.0963 -31.0046 -30.9165
   -17.2905 -15.9756 -15.9471 -15.8398 -15.8204 -15.7318 -15.7185 -15.6037
   -15.5960 -15.5831 -15.5168 -15.4711 -15.4606 -15.3783 -15.3515 -15.3400
   -15.3155 -15.3057 -15.2993 -15.2884 -15.2759 -15.1962 -15.1910 -15.1886
   -15.1134 -15.0907 -14.9047 -14.8614 -14.6633 -14.6178 -13.4072 -13.4068
   -11.5617  -8.3255  -5.0272  -3.9248  -3.8327  -3.2776  -3.2415  -3.0259
    -2.9999  -2.9795  -2.9502  -2.7654  -2.7515  -2.7452  -2.7279  -2.7150
    -2.6778  -2.6588  -2.6461  -2.5801  -2.5705  -2.5499  -2.5451  -2.5351
    -2.5163  -2.5010  -2.4932  -2.4736  -2.4590  -2.4147  -2.3601  -2.3373
    -2.2875  -2.1930  -2.0899  -2.0426  -2.0288  -2.0208  -1.9978  -1.9887
    -1.9481  -1.9354  -1.8495  -1.6653  -1.6176  -1.5566  -1.5506  -1.5427
    -1.4848  -1.4277  -1.3882  -1.3110  -1.2441  -1.1914  -1.1623  -1.1382
    -1.1029  -1.0366  -0.9706  -0.9509  -0.9383  -0.9093  -0.9058  -0.8880
    -0.8093  -0.7262  -0.6854  -0.6550  -0.6322  -0.6184  -0.6026  -0.5797
    -0.4733  -0.4045  -0.3568  -0.3116  -0.2696  -0.2269  -0.1084  -0.0935
     0.1012   0.1670   0.1921   0.2709   0.3678   0.3932   0.4036   0.4683
     0.5433   0.6061   0.6408   0.6953   0.7106   0.7318   0.7988   1.0139
     1.0694   1.4779   1.4795   1.5286   1.5296   2.9898   3.6718   3.6792
     3.6826   3.6928   3.7135   3.7368   3.7893   3.8239   3.9271   3.9460

     the Fermi energy is     3.1359 ev

!    total energy              =   -2940.35215436 Ry
     estimated scf accuracy    <       0.00000003 Ry
     smearing contrib. (-TS)   =      -0.01869097 Ry
     internal energy E=F+TS    =   -2940.33346339 Ry

     The total energy is F=E-TS. E is the sum of the following terms:
     one-electron contribution =  -24661.75164717 Ry
     hartree contribution      =   12420.01510556 Ry
     xc contribution           =    -486.05528362 Ry
     ewald contribution        =    9787.45732796 Ry
     electric field correction =       0.00103387 Ry

     convergence has been achieved in  68 iterations

     Forces acting on atoms (cartesian axes, Ry/au):

     atom    1 type  1   force =     0.00026320   -0.00036439    0.10151837
     atom    2 type  1   force =     0.00003728   -0.00086354   -0.17137458
     atom    3 type  2   force =     0.00029169    0.00021710   -0.03325101
     atom    4 type  2   force =     0.00003299   -0.00078510    0.04482256
     atom    5 type  2   force =    -0.01195014   -0.00021110   -0.00232372
     atom    6 type  2   force =     0.01438621    0.00038319   -0.00112641
     atom    7 type  1   force =     0.00139978   -0.00128573   -0.00428543
     atom    8 type  1   force =    -0.00078369    0.02219353    0.05620805
     atom    9 type  2   force =     0.00003026   -0.00032477    0.00046293
     atom   10 type  2   force =    -0.00266465    0.00207428   -0.02592330
     atom   11 type  2   force =     0.00002770    0.00024261   -0.00005065
     atom   12 type  2   force =     0.00008639    0.00073682    0.00002657
     atom   13 type  1   force =    -0.00004767    0.00013575    0.00026440
     atom   14 type  1   force =     0.00027817    0.00027790   -0.00000056
     atom   15 type  2   force =     0.00019801   -0.00023039    0.00000823
     atom   16 type  2   force =    -0.00002265   -0.00013598    0.00077031
     atom   17 type  2   force =    -0.00011735   -0.00077199    0.00002123
     atom   18 type  2   force =     0.00051236   -0.00070812    0.00027264
     atom   19 type  1   force =    -0.00010421   -0.00047189    0.00017784
     atom   20 type  1   force =     0.00002497    0.00011584   -0.00019234
     atom   21 type  2   force =     0.00006800   -0.00000916    0.10205698
     atom   22 type  2   force =    -0.00001847   -0.00029591    0.00031775
     atom   23 type  2   force =    -0.07328594   -0.00015782   -0.02888671
     atom   24 type  2   force =     0.07323966    0.00033260   -0.02893637
     atom   25 type  1   force =    -0.00029592   -0.00032690    0.10196639
     atom   26 type  1   force =     0.00002634   -0.00017487   -0.17137305
     atom   27 type  2   force =     0.00036534   -0.00022871   -0.03197566
     atom   28 type  2   force =     0.00009162   -0.00056925    0.04543320
     atom   29 type  2   force =    -0.01209884    0.00213094   -0.00287847
     atom   30 type  2   force =     0.01441201    0.00229008   -0.00162516
     atom   31 type  1   force =     0.00159570    0.00093439   -0.00561380
     atom   32 type  1   force =    -0.00058984   -0.02474875    0.05726212
     atom   33 type  2   force =     0.00014970    0.00035931    0.00062311
     atom   34 type  2   force =    -0.00420627    0.00212190   -0.04831914
     atom   35 type  2   force =     0.00061939   -0.00058622    0.00001443
     atom   36 type  2   force =    -0.00040849   -0.00074836    0.00014262
     atom   37 type  1   force =     0.00006215    0.00060554   -0.00003693
     atom   38 type  1   force =     0.00002570   -0.00013853   -0.00010461
     atom   39 type  2   force =     0.00019505   -0.00002798   -0.00066453
     atom   40 type  2   force =    -0.00008521   -0.00003695   -0.00032960
     atom   41 type  2   force =     0.00005575    0.00047917   -0.00006112
     atom   42 type  2   force =     0.00002824    0.00036327    0.00069494
     atom   43 type  1   force =    -0.00024919   -0.00014211    0.00013451
     atom   44 type  1   force =     0.00000546    0.00010648    0.00024649
     atom   45 type  2   force =     0.00004659   -0.00005066    0.10211905
     atom   46 type  2   force =    -0.07330012   -0.00009370   -0.02886179
     atom   47 type  2   force =     0.07325082    0.00028508   -0.02889853
     atom   48 type  3   force =    -0.00056188    0.00062857    0.00039450
     atom   49 type  4   force =     0.00200342    0.00617812   -0.00419952
     atom   50 type  5   force =     0.00031442    0.00052964   -0.00071602
     atom   51 type  5   force =    -0.00293719   -0.00763703    0.00525500
     atom   52 type  5   force =    -0.00029071   -0.00068188    0.00038650
     atom   53 type  3   force =    -0.00008379   -0.00056643    0.00079895
     atom   54 type  5   force =    -0.00002218   -0.00034790   -0.00039064

     Total force =     0.377944     Total SCF correction =     0.000427
  @ DRIVER MODE: Message from server: STATUS
  @ DRIVER MODE: Message from server: GETFORCE
  @ DRIVER MODE: Returning v,forces,stress,ensemble

     Writing output data file ./calc.save/
  @ DRIVER MODE: Message from server: EXIT
  @ DRIVE MODE: Exiting

     General routines

     Parallel routines

   This run was terminated on:  18:18:33   2Aug2021

   JOB DONE.