     Program PWSCF v.6.7GPU starts on 10Sep2021 at  0: 0:41

     R & G space division:  proc/nbgrp/npool/nimage =      10
     Reading input from /storage/home/hcoda1/3/ntian30/research/carbon/CxH_vib/CH3_calc/ads_slab/CH3N2OH_j/out_0011/pw.inp
Warning: card &CELL ignored
Warning: card   CELL_DYNAMICS='IPI', ignored
Warning: card / ignored

     Current dimensions of program PWSCF are:
     Max number of different atomic species (ntypx) = 10
     Max number of k-points (npk) =  40000
     Max angular momentum in pseudopotentials (lmaxx) =  3
     Presently no symmetry can be used with electric field

     Message from routine cell_base_init:
     DEPRECATED: use true lattice parameter, not A to a.u. conversion factor

     IMPORTANT: XC functional enforced from input :
     Exchange-correlation= BEEF-VDW
                           (   1   4  43  14   2   0   0)
     Any further DFT definition will be discarded
     Please, verify this is what you really want

  @ DRIVER MODE: Connecting to
 qe_1139763_2779713.sched-torque.pace.gatech.eduu1dj8pjf_scratch
  using UNIX socket
  @ DRIVER MODE: Message from server: STATUS
  @ DRIVER MODE: Message from server: INIT
  @ DRIVER MODE: Receiving replica           0          -1
  @ DRIVER MODE: Receiving encoded integer          25
  @ DRIVER MODE:  SCF:  T  FORCE:  T  STRESS:  F  VC:  F  ENSEMBLE:  F
  @ DRIVER MODE:  SCF:  T  FORCE:  T  STRESS:  F  VC:  F  ENSEMBLE:  F

     Using Slab Decomposition

     bravais-lattice index     =            0
     lattice parameter (alat)  =       1.8897  a.u.
     unit-cell volume          =    6658.9804 (a.u.)^3
     number of atoms/cell      =           55
     number of atomic types    =            5
     number of electrons       =       402.00
     number of Kohn-Sham states=          211
     kinetic-energy cutoff     =      29.3995  Ry
     charge density cutoff     =     293.9946  Ry
     scf convergence threshold =      7.3E-08
     mixing beta               =       0.0500
     number of iterations used =            8  plain     mixing
     Exchange-correlation= BEEF-VDW
                           (   1   4  43  14   2   0   0)

     celldm(1)=   1.889726  celldm(2)=   0.000000  celldm(3)=   0.000000
     celldm(4)=   0.000000  celldm(5)=   0.000000  celldm(6)=   0.000000

     crystal axes: (cart. coord. in units of alat)
               a(1) = (   6.579727   0.000000   0.000000 )
               a(2) = (  -0.000775   5.961596   0.000000 )
               a(3) = (   0.000000   0.000000  25.155947 )

     reciprocal axes: (cart. coord. in units 2 pi/alat)
               b(1) = (  0.151982  0.000020  0.000000 )
               b(2) = (  0.000000  0.167740  0.000000 )
               b(3) = (  0.000000  0.000000  0.039752 )

     PseudoPot. # 1 for Ti read from file:
     /storage/coda1/p-amedford6/0/shared/rich_project_chbe-medford/medford-share/data/pseudos_module/espresso/nninc/pbe/van/Ti.UPF
     MD5 check sum: 8e4df49b7f0d34bbd5052bf3f5ea0213
     Pseudo is Ultrasoft, Zval = 12.0
     Generated by new atomic code, or converted to UPF format
     Using radial grid of  851 points,  6 beta functions with:
                l(1) =   0
                l(2) =   0
                l(3) =   1
                l(4) =   1
                l(5) =   2
                l(6) =   2
     Q(r) pseudized with  8 coefficients,  rinner =    1.000   1.000   1.000
                                                       1.000   1.000

     PseudoPot. # 2 for O  read from file:
     /storage/coda1/p-amedford6/0/shared/rich_project_chbe-medford/medford-share/data/pseudos_module/espresso/nninc/pbe/van/O.UPF
     MD5 check sum: 78c19812648e8988a0fe644b0f25305e
     Pseudo is Ultrasoft, Zval =  6.0
     Generated by new atomic code, or converted to UPF format
     Using radial grid of  737 points,  4 beta functions with:
                l(1) =   0
                l(2) =   0
                l(3) =   1
                l(4) =   1
     Q(r) pseudized with  8 coefficients,  rinner =    0.800   0.800   0.800

     PseudoPot. # 3 for N  read from file:
     /storage/coda1/p-amedford6/0/shared/rich_project_chbe-medford/medford-share/data/pseudos_module/espresso/nninc/pbe/van/N.UPF
     MD5 check sum: 90d10febe142ad51ac9d5be1deb811c4
     Pseudo is Ultrasoft, Zval =  5.0
     Generated by new atomic code, or converted to UPF format
     Using radial grid of  729 points,  4 beta functions with:
                l(1) =   0
                l(2) =   0
                l(3) =   1
                l(4) =   1
     Q(r) pseudized with  8 coefficients,  rinner =    0.800   0.800   0.800

     PseudoPot. # 4 for C  read from file:
     /storage/coda1/p-amedford6/0/shared/rich_project_chbe-medford/medford-share/data/pseudos_module/espresso/nninc/pbe/van/C.UPF
     MD5 check sum: 1a69bf6b8db32088f5b2163dbdb77a27
     Pseudo is Ultrasoft, Zval =  4.0
     Generated by new atomic code, or converted to UPF format
     Using radial grid of  721 points,  4 beta functions with:
                l(1) =   0
                l(2) =   0
                l(3) =   1
                l(4) =   1
     Q(r) pseudized with  8 coefficients,  rinner =    0.800   0.800   0.800

     PseudoPot. # 5 for H  read from file:
     /storage/coda1/p-amedford6/0/shared/rich_project_chbe-medford/medford-share/data/pseudos_module/espresso/nninc/pbe/van/H.UPF
     MD5 check sum: b5ee9d7bfd3a09ee7748110bda690ff7
     Pseudo is Ultrasoft, Zval =  1.0
     Generated by new atomic code, or converted to UPF format
     Using radial grid of  615 points,  1 beta functions with:
                l(1) =   0
     Q(r) pseudized with  8 coefficients,  rinner =    0.800

     atomic species   valence    mass     pseudopotential
        Ti1           12.00    47.86700     Ti( 1.00)
        O1             6.00    15.99900     O ( 1.00)
        N1             5.00    14.00700     N ( 1.00)
        C1             4.00    12.01100     C ( 1.00)
        H1             1.00     1.00800     H ( 1.00)

     No symmetry found

   Cartesian axes

     site n.     atom                  positions (alat units)
         1           Ti1 tau(   1) = (   0.0004258   2.9801865   6.0000000  )
         2           Ti1 tau(   2) = (   3.2906075   1.4906267   6.0002472  )
         3           O1  tau(   3) = (   0.0006271   0.0005054   7.9858123  )
         4           O1  tau(   4) = (   3.2906025   0.0005020   7.3038282  )
         5           O1  tau(   5) = (   4.5942328   1.4918067   9.2879030  )
         6           O1  tau(   6) = (   1.9868534   1.4903216   9.2879459  )
         7           Ti1 tau(   7) = (   3.2907910   2.8959150   9.1758416  )
         8           Ti1 tau(   8) = (   0.0015273   1.4827037   9.2680791  )
         9           O1  tau(   9) = (   3.2817971   0.0424577  11.2706337  )
        10           O1  tau(  10) = (   0.0116148   5.9584955  10.6183126  )
        11           O1  tau(  11) = (   1.2813654   1.4951502  12.6332405  )
        12           O1  tau(  12) = (   5.2815101   1.4921423  12.6269808  )
        13           Ti1 tau(  13) = (   6.5662594   2.8603684  12.6843660  )
        14           Ti1 tau(  14) = (   3.2717346   1.4252475  12.4210995  )
        15           O1  tau(  15) = (   6.5710910   0.0045200  14.6317625  )
        16           O1  tau(  16) = (   3.2759495   0.0084639  13.8932321  )
        17           O1  tau(  17) = (   4.5517014   1.4983445  16.0008815  )
        18           O1  tau(  18) = (   2.0271237   1.5070609  16.0478782  )
        19           Ti1 tau(  19) = (   3.2345769   3.0092735  16.2435900  )
        20           Ti1 tau(  20) = (   6.4941389   1.4975806  15.8145731  )
        21           O1  tau(  21) = (   3.2904802   0.0005063   4.7018136  )
        22           O1  tau(  22) = (   6.5579512   0.0396517  17.1742205  )
        23           O1  tau(  23) = (   1.3043587   1.4918075   6.0039043  )
        24           O1  tau(  24) = (   5.2767064   1.4903225   6.0039473  )
        25           Ti1 tau(  25) = (   0.0000382   5.9609847   6.0000000  )
        26           Ti1 tau(  26) = (   3.2902200   4.4714249   6.0002472  )
        27           O1  tau(  27) = (   0.0002396   2.9813036   7.9858123  )
        28           O1  tau(  28) = (   3.2902150   2.9813002   7.3038282  )
        29           O1  tau(  29) = (   4.5938453   4.4726049   9.2879030  )
        30           O1  tau(  30) = (   1.9864658   4.4711199   9.2879459  )
        31           Ti1 tau(  31) = (   3.2891106   5.8743827   9.1763621  )
        32           Ti1 tau(  32) = (   0.0006254   4.4649316   9.2693709  )
        33           O1  tau(  33) = (   3.2800217   2.9666125  11.2981572  )
        34           O1  tau(  34) = (   0.0092240   2.9805883  10.6323155  )
        35           O1  tau(  35) = (   1.2755083   4.4823741  12.6262202  )
        36           O1  tau(  36) = (   5.2848398   4.4807727  12.6177486  )
        37           Ti1 tau(  37) = (   6.5672004   5.8338186  12.5551636  )
        38           Ti1 tau(  38) = (   3.2732152   4.2974050  12.6602233  )
        39           O1  tau(  39) = (   6.5693882   2.9786051  14.6782399  )
        40           O1  tau(  40) = (   3.2805734   3.0393479  13.9038923  )
        41           O1  tau(  41) = (   4.5335661   4.5240572  16.0872286  )
        42           O1  tau(  42) = (   2.0073973   4.5295938  16.0607137  )
        43           Ti1 tau(  43) = (   3.2598295   0.0330142  15.6732764  )
        44           Ti1 tau(  44) = (   6.5464637   4.6748829  16.0422594  )
        45           O1  tau(  45) = (   3.2900926   2.9813045   4.7018136  )
        46           O1  tau(  46) = (   1.3039711   4.4726057   6.0039043  )
        47           O1  tau(  47) = (   5.2763189   4.4711207   6.0039473  )
        48           N1  tau(  48) = (   0.1126456   2.6876119  18.6539570  )
        49           N1  tau(  49) = (   0.0165868   2.9082207  17.4646156  )
        50           C1  tau(  50) = (   0.2746321   3.7930379  19.6319179  )
        51           H1  tau(  51) = (   0.1055085   4.7742840  19.1878107  )
        52           H1  tau(  52) = (   6.1760284   3.5871646  20.4591619  )
        53           H1  tau(  53) = (   1.2982147   3.7051261  19.9977701  )
        54           O1  tau(  54) = (   3.2987527   2.9937385  18.0942264  )
        55           H1  tau(  55) = (   3.7476408   3.7324850  18.5320624  )

     number of k points=    10  Fermi-Dirac smearing, width (Ry)=  0.0073
                       cart. coord. in units 2pi/alat
        k(    1) = (   0.0000000   0.0000000   0.0000000), wk =   0.1250000
        k(    2) = (   0.0000000   0.0419351   0.0000000), wk =   0.2500000
        k(    3) = (   0.0000000  -0.0838702   0.0000000), wk =   0.1250000
        k(    4) = (   0.0379955   0.0000049   0.0000000), wk =   0.2500000
        k(    5) = (   0.0379955   0.0419400   0.0000000), wk =   0.2500000
        k(    6) = (   0.0379955  -0.0838652   0.0000000), wk =   0.2500000
        k(    7) = (   0.0379955  -0.0419301   0.0000000), wk =   0.2500000
        k(    8) = (  -0.0759910  -0.0000099   0.0000000), wk =   0.1250000
        k(    9) = (  -0.0759910   0.0419252   0.0000000), wk =   0.2500000
        k(   10) = (  -0.0759910  -0.0838800   0.0000000), wk =   0.1250000

     Initial potential from superposition of free atoms

     starting charge  385.99915, renormalised to  402.00000

     negative rho (up, down):  1.468E-02 0.000E+00

     %%%%%%%%%%%%%%%%%%%%%%%%%%%%%%%%%%%%%%%%%%%%%%%%%%%%%%%%%%%%%%%%%%%%%%%%
     %                                                                      %
     % You are using vdW-DF, which was implemented by the Thonhauser group. %
     % Please cite the following two papers that made this development      %
     % possible and the two reviews that describe the various versions:     %
     %                                                                      %
     %   T. Thonhauser et al., PRL 115, 136402 (2015).                      %
     %   T. Thonhauser et al., PRB 76, 125112 (2007).                       %
     %   K. Berland et al., Rep. Prog. Phys. 78, 066501 (2015).             %
     %   D.C. Langreth et al., J. Phys.: Condens. Matter 21, 084203 (2009). %
     %                                                                      %
     %                                                                      %
     % If you are calculating the stress with vdW-DF, please also cite:     %
     %                                                                      %
     %   R. Sabatini et al., J. Phys.: Condens. Matter 24, 424209 (2012).   %
     %                                                                      %
     %%%%%%%%%%%%%%%%%%%%%%%%%%%%%%%%%%%%%%%%%%%%%%%%%%%%%%%%%%%%%%%%%%%%%%%%

     Adding external electric field

     Computed dipole along edir(3) :
        Dipole              -11.9759 Ry au,        -30.4397 Debye
        Dipole field         -0.0226 Ry au,

        Potential amp.        2.0950 Ry
        Total length         46.3494 bohr

     Starting wfcs are  304 atomic wfcs
  @ DRIVER MODE: Message from server: STATUS
  @ DRIVER MODE: Message from server: POSDATA
  @ DRIVER MODE: Reading and sharing cell
  @ DRIVER MODE: Reading and sharing positions
  @ DRIVER MODE: Received positions

     Self-consistent Calculation

     iteration #  1     ecut=    29.40 Ry     beta= 0.05
     Davidson diagonalization with overlap
     c_bands:  5 eigenvalues not converged
     c_bands:  3 eigenvalues not converged
     c_bands:  5 eigenvalues not converged
     c_bands:  5 eigenvalues not converged
     c_bands:  3 eigenvalues not converged
     c_bands:  4 eigenvalues not converged
     c_bands:  2 eigenvalues not converged
     c_bands:  1 eigenvalues not converged
     ethr =  1.00E-05,  avg # of iterations = 25.3

[...]

     total energy              =   -2401.04569953 Ry
     estimated scf accuracy    <    6440.68245712 Ry

     iteration #  2     ecut=    29.40 Ry     beta= 0.05
     Davidson diagonalization with overlap
     ethr =  1.00E-02,  avg # of iterations = 22.1

[...]

     iteration # 50     ecut=    29.40 Ry     beta= 0.05
     Davidson diagonalization with overlap
     c_bands:  2 eigenvalues not converged
     ethr =  4.64E-07,  avg # of iterations =  9.0

[...]

     total energy              =   -2972.74432743 Ry
     estimated scf accuracy    <       0.00000011 Ry

     iteration # 69     ecut=    29.40 Ry     beta= 0.05
     Davidson diagonalization with overlap
     ethr =  2.79E-11,  avg # of iterations =  6.4

     negative rho (up, down):  1.549E-02 0.000E+00

     Adding external electric field

     Computed dipole along edir(3) :
        Dipole                0.5969 Ry au,          1.5171 Debye
        Dipole field          0.0011 Ry au,

        Potential amp.       -0.1044 Ry
        Total length         46.3494 bohr

     End of self-consistent calculation

          k = 0.0000 0.0000 0.0000 ( 18029 PWs)   bands (ev):

   -56.2595 -56.2257 -55.8381 -55.8044 -55.6040 -55.5443 -55.4684 -55.3958
   -55.3818 -55.3278 -55.2384 -55.1546 -55.0837 -55.0283 -54.9944 -54.9752
   -32.7093 -32.5518 -32.5248 -32.4182 -32.3335 -32.3256 -32.3174 -32.0840
   -32.0571 -32.0374 -31.9853 -31.9793 -31.9454 -31.8864 -31.8702 -31.8287
   -31.8209 -31.7876 -31.7646 -31.7477 -31.7160 -31.7083 -31.7051 -31.6819
   -31.6797 -31.6515 -31.5931 -31.5748 -31.5441 -31.5371 -31.5363 -31.4996
   -31.4890 -31.4299 -31.4249 -31.4081 -31.3615 -31.3589 -31.3397 -31.3379
   -31.3159 -31.2918 -31.2435 -31.2250 -31.2124 -31.1993 -31.1590 -31.0471
   -18.6853 -16.5496 -16.3379 -16.2092 -15.9861 -15.8300 -15.7381 -15.7163
   -15.6892 -15.5681 -15.5208 -15.4420 -15.3495 -15.2813 -15.2544 -15.2498
   -15.1532 -15.0881 -15.0494 -15.0165 -14.9974 -14.9799 -14.9764 -14.8830
   -14.8753 -14.8585 -14.7236 -14.6823 -14.6082 -14.3591 -14.2517 -13.5263
   -13.4142 -11.5037  -6.9433  -4.3802  -4.1244  -4.0607  -3.9628  -3.8063
    -3.7599  -3.5433  -3.4333  -3.3440  -3.2480  -3.1507  -2.9690  -2.9595
    -2.9101  -2.8368  -2.7560  -2.6942  -2.6472  -2.6358  -2.5460  -2.5144
    -2.4852  -2.4836  -2.4081  -2.3898  -2.3009  -2.2894  -2.2107  -2.1831
    -2.1642  -2.1142  -2.1091  -2.0513  -2.0401  -1.9928  -1.9614  -1.9226
    -1.8500  -1.7982  -1.7230  -1.6651  -1.6435  -1.5747  -1.5628  -1.5273
    -1.5065  -1.3276  -1.2549  -1.2277  -1.2173  -1.0806  -1.0262  -1.0056
    -0.9299  -0.8955  -0.8581  -0.7974  -0.7624  -0.7098  -0.6877  -0.6670
    -0.6436  -0.5865  -0.3986  -0.3731  -0.3199  -0.2995  -0.2602  -0.2036
    -0.1768  -0.1333  -0.0623  -0.0554  -0.0425  -0.0050   0.0462   0.1251
     0.1921   0.2102   0.2970   0.3119   0.3486   0.3868   0.4390   0.4709
     0.5507   0.5955   0.6067   0.6585   0.6874   0.8716   0.9079   0.9458
     0.9898   0.9959   1.0448   1.1763   1.2256   1.5405   1.5442   1.5833
     2.7299   2.9682   3.0977   3.2579   3.4004   3.5016   3.8357   3.8398
     3.8717   3.9411   3.9670

[...]

          k = 0.0380-0.0419 0.0000 ( 17876 PWs)   bands (ev):

[...]

          k =-0.0760-0.0000 0.0000 ( 17886 PWs)   bands (ev):

[...]

          k =-0.0760-0.0839 0.0000 ( 17948 PWs)   bands (ev):

   -56.2431 -56.2420 -55.8224 -55.8199 -55.5987 -55.5496 -55.4655 -55.3985
   -55.3757 -55.3337 -55.2366 -55.1530 -55.0854 -55.0116 -55.0110 -54.9767
   -32.5380 -32.5366 -32.5257 -32.5249 -32.3707 -32.3695 -32.1419 -32.1381
   -32.0167 -32.0141 -32.0112 -32.0091 -31.9044 -31.8655 -31.8220 -31.8169
   -31.8059 -31.7772 -31.7652 -31.7368 -31.7105 -31.7070 -31.6866 -31.6690
   -31.6509 -31.6225 -31.6162 -31.5957 -31.5931 -31.5663 -31.5590 -31.5439
   -31.4905 -31.4362 -31.4321 -31.4117 -31.3558 -31.3511 -31.3506 -31.3441
   -31.2959 -31.2836 -31.2401 -31.2391 -31.2321 -31.2140 -31.2017 -31.2011
   -18.6811 -16.3250 -15.9590 -15.9469 -15.8246 -15.8182 -15.6444 -15.6294
   -15.5889 -15.5452 -15.5103 -15.4765 -15.3329 -15.3239 -15.2607 -15.2206
   -15.1963 -15.1921 -15.1557 -15.1490 -15.1300 -15.0516 -15.0252 -15.0037
   -14.9573 -14.9513 -14.7832 -14.7225 -14.7098 -14.4901 -14.4462 -13.5173
   -13.5171 -11.5019  -6.9569  -4.3255  -3.9885  -3.9456  -3.9129  -3.1246
    -3.0719  -2.9603  -2.9359  -2.8550  -2.8289  -2.7299  -2.7013  -2.6674
    -2.6517  -2.6466  -2.5876  -2.5580  -2.5448  -2.4971  -2.4879  -2.4734
    -2.4490  -2.3890  -2.3762  -2.3604  -2.3471  -2.3279  -2.2325  -2.2249
    -2.2131  -2.1871  -2.1823  -2.1534  -2.0671  -2.0061  -1.9701  -1.9639
    -1.9320  -1.8691  -1.7650  -1.6738  -1.6432  -1.6097  -1.5763  -1.4974
    -1.4761  -1.4285  -1.3377  -1.3224  -1.3007  -1.2927  -1.2254  -1.2092
    -1.0700  -1.0464  -1.0325  -1.0318  -1.0116  -0.9204  -0.8547  -0.7946
    -0.7358  -0.6642  -0.6558  -0.6302  -0.6171  -0.5994  -0.5782  -0.5494
    -0.4949  -0.4550  -0.4071  -0.3908  -0.2837  -0.2008  -0.1673  -0.0996
    -0.0293   0.0680   0.1362   0.1565   0.1898   0.2451   0.3259   0.3761
     0.4214   0.4882   0.5286   0.6087   0.6664   0.7487   0.7758   0.8664
     0.9729   0.9938   1.0483   1.1258   1.3870   1.3937   1.3991   1.3999
     2.7352   3.5165   3.5203   3.5511   3.5592   3.7614   3.7736   3.9028
     3.9623   3.9863   4.0120

     the Fermi energy is     2.9037 ev

!    total energy              =   -2972.74436333 Ry
     estimated scf accuracy    <       0.00000007 Ry
     smearing contrib. (-TS)   =      -0.01266005 Ry
     internal energy E=F+TS    =   -2972.73170328 Ry

     The total energy is F=E-TS. E is the sum of the following terms:
     one-electron contribution =  -23702.92863067 Ry
     hartree contribution      =   11944.73447406 Ry
     xc contribution           =    -493.11056161 Ry
     ewald contribution        =    9278.57234264 Ry
     electric field correction =       0.00067228 Ry

     convergence has been achieved in  69 iterations

     Forces acting on atoms (cartesian axes, Ry/au):

     atom    1 type  1   force =     0.00008904   -0.00038827    0.10731484
     atom    2 type  1   force =    -0.00004817   -0.00169505   -0.16517674
     atom    3 type  2   force =     0.00003381   -0.00025879   -0.03906284
     atom    4 type  2   force =     0.00004373    0.00077514    0.03085878
     atom    5 type  2   force =    -0.00350606    0.00295785   -0.00853107
     atom    6 type  2   force =     0.00464374    0.00362716   -0.01030148
     atom    7 type  1   force =    -0.00072764    0.00046458    0.02184646
     atom    8 type  1   force =     0.00101765    0.01538611    0.06156308
     atom    9 type  2   force =     0.00011483   -0.00023518   -0.00040947
     atom   10 type  2   force =    -0.00289112    0.00229364   -0.04793228
     atom   11 type  2   force =    -0.00001915   -0.00020727   -0.00024007
     atom   12 type  2   force =    -0.00001724   -0.00003133   -0.00001832
     atom   13 type  1   force =     0.00027875   -0.00009547    0.00124031
     atom   14 type  1   force =     0.00039648   -0.00021032    0.00082328
     atom   15 type  2   force =     0.00020993   -0.00000250   -0.00137697
     atom   16 type  2   force =     0.00014989   -0.00014878   -0.00065206
     atom   17 type  2   force =     0.00001311    0.00001555    0.00003830
     atom   18 type  2   force =     0.00037830    0.00004481   -0.00018373
     atom   19 type  1   force =     0.00002934   -0.00010206    0.00054246
     atom   20 type  1   force =    -0.00043367    0.00006745    0.00024708
     atom   21 type  2   force =     0.00010252    0.00000098    0.10021549
     atom   22 type  2   force =     0.00001368   -0.00003755   -0.00056039
     atom   23 type  2   force =    -0.07676849   -0.00004455   -0.03009508
     atom   24 type  2   force =     0.07675560    0.00038735   -0.03012173
     atom   25 type  1   force =     0.00005571   -0.00044564    0.10727716
     atom   26 type  1   force =    -0.00009801    0.00062731   -0.16547400
     atom   27 type  2   force =     0.00012048   -0.00027499   -0.03787210
     atom   28 type  2   force =     0.00004366   -0.00042435    0.03504272
     atom   29 type  2   force =    -0.00564710   -0.00043706   -0.00611195
     atom   30 type  2   force =     0.00680993    0.00006065   -0.00780065
     atom   31 type  1   force =    -0.00057114   -0.00241114    0.03522435
     atom   32 type  1   force =     0.00111725   -0.01876893    0.06208583
     atom   33 type  2   force =     0.00022716   -0.00015610   -0.00041949
     atom   34 type  2   force =    -0.00253512    0.00014313   -0.05459823
     atom   35 type  2   force =     0.00016793   -0.00023107   -0.00032664
     atom   36 type  2   force =     0.00023082   -0.00000284    0.00007674
     atom   37 type  1   force =     0.00035390   -0.00027191    0.00102403
     atom   38 type  1   force =     0.00046409   -0.00010959    0.00088185
     atom   39 type  2   force =     0.00014845   -0.00050852   -0.00111006
     atom   40 type  2   force =    -0.00018913    0.00000785   -0.00055261
     atom   41 type  2   force =    -0.00011928   -0.00022724   -0.00007528
     atom   42 type  2   force =     0.00047447   -0.00020935   -0.00009027
     atom   43 type  1   force =    -0.00029078    0.00000342    0.00030464
     atom   44 type  1   force =    -0.00003798   -0.00052553    0.00092077
     atom   45 type  2   force =     0.00009397    0.00011022    0.10041145
     atom   46 type  2   force =    -0.07674902   -0.00005666   -0.03010859
     atom   47 type  2   force =     0.07673857    0.00036427   -0.03013613
     atom   48 type  3   force =    -0.00169809    0.00360679   -0.02394360
     atom   49 type  3   force =     0.00235575   -0.00260739    0.02782206
     atom   50 type  4   force =    -0.00121815    0.00090349   -0.00342939
     atom   51 type  5   force =     0.00040322   -0.00076955    0.00097386
     atom   52 type  5   force =     0.00011246   -0.00005374   -0.00060963
     atom   53 type  5   force =    -0.00025565   -0.00016781    0.00064785
     atom   54 type  2   force =     0.00039869    0.00123631    0.00043926
     atom   55 type  5   force =    -0.00076591   -0.00096755   -0.00050181

     Total force =     0.383708     Total SCF correction =     0.000972
  @ DRIVER MODE: Message from server: STATUS
  @ DRIVER MODE: Message from server: GETFORCE
  @ DRIVER MODE: Returning v,forces,stress,ensemble

     Writing output data file ./calc.save/
  @ DRIVER MODE: Message from server: EXIT
  @ DRIVE MODE: Exiting

     General routines

     Parallel routines

   This run was terminated on:   0:18:59  10Sep2021

   JOB DONE.