     Program PWSCF v.6.7GPU starts on  9Sep2021 at 15: 8: 4

     R & G space division:  proc/nbgrp/npool/nimage =      10
     Reading input from /storage/home/hcoda1/3/ntian30/research/carbon/CxH_vib/CH3_calc/ads_slab/CH3NNH3_a/out_0053/pw.inp
Warning: card &CELL ignored
Warning: card   CELL_DYNAMICS='IPI', ignored
Warning: card / ignored

     Current dimensions of program PWSCF are:
     Max number of different atomic species (ntypx) = 10
     Max number of k-points (npk) =  40000
     Max angular momentum in pseudopotentials (lmaxx) =  3
     Presently no symmetry can be used with electric field

     Message from routine cell_base_init:
     DEPRECATED: use true lattice parameter, not A to a.u. conversion factor

     IMPORTANT: XC functional enforced from input :
     Exchange-correlation= BEEF-VDW
                           (   1   4  43  14   2   0   0)
     Any further DFT definition will be discarded
     Please, verify this is what you really want

  @ DRIVER MODE: Connecting to
 qe_1139763_2767402.sched-torque.pace.gatech.edujw_iclsc_scratch
  using UNIX socket
  @ DRIVER MODE: Message from server: STATUS
  @ DRIVER MODE: Message from server: INIT
  @ DRIVER MODE: Receiving replica           0          -1
  @ DRIVER MODE: Receiving encoded integer          25
  @ DRIVER MODE:  SCF:  T  FORCE:  T  STRESS:  F  VC:  F  ENSEMBLE:  F
  @ DRIVER MODE:  SCF:  T  FORCE:  T  STRESS:  F  VC:  F  ENSEMBLE:  F

     Using Slab Decomposition

     bravais-lattice index     =            0
     lattice parameter (alat)  =       1.8897  a.u.
     unit-cell volume          =    6658.9804 (a.u.)^3
     number of atoms/cell      =           56
     number of atomic types    =            5
     number of electrons       =       398.00
     number of Kohn-Sham states=          209
     kinetic-energy cutoff     =      29.3995  Ry
     charge density cutoff     =     293.9946  Ry
     scf convergence threshold =      7.3E-08
     mixing beta               =       0.0500
     number of iterations used =            8  plain     mixing
     Exchange-correlation= BEEF-VDW
                           (   1   4  43  14   2   0   0)

     celldm(1)=   1.889726  celldm(2)=   0.000000  celldm(3)=   0.000000
     celldm(4)=   0.000000  celldm(5)=   0.000000  celldm(6)=   0.000000

     crystal axes: (cart. coord. in units of alat)
               a(1) = (   6.579727   0.000000   0.000000 )
               a(2) = (  -0.000775   5.961596   0.000000 )
               a(3) = (   0.000000   0.000000  25.155947 )

     reciprocal axes: (cart. coord. in units 2 pi/alat)
               b(1) = (  0.151982  0.000020  0.000000 )
               b(2) = (  0.000000  0.167740  0.000000 )
               b(3) = (  0.000000  0.000000  0.039752 )

     PseudoPot. # 1 for Ti read from file:
     /storage/coda1/p-amedford6/0/shared/rich_project_chbe-medford/medford-share/data/pseudos_module/espresso/nninc/pbe/van/Ti.UPF
     MD5 check sum: 8e4df49b7f0d34bbd5052bf3f5ea0213
     Pseudo is Ultrasoft, Zval = 12.0
     Generated by new atomic code, or converted to UPF format
     Using radial grid of  851 points,  6 beta functions with:
                l(1) =   0
                l(2) =   0
                l(3) =   1
                l(4) =   1
                l(5) =   2
                l(6) =   2
     Q(r) pseudized with  8 coefficients,  rinner =    1.000   1.000   1.000
                                                       1.000   1.000

     PseudoPot. # 2 for O  read from file:
     /storage/coda1/p-amedford6/0/shared/rich_project_chbe-medford/medford-share/data/pseudos_module/espresso/nninc/pbe/van/O.UPF
     MD5 check sum: 78c19812648e8988a0fe644b0f25305e
     Pseudo is Ultrasoft, Zval =  6.0
     Generated by new atomic code, or converted to UPF format
     Using radial grid of  737 points,  4 beta functions with:
                l(1) =   0
                l(2) =   0
                l(3) =   1
                l(4) =   1
     Q(r) pseudized with  8 coefficients,  rinner =    0.800   0.800   0.800

     PseudoPot. # 3 for N  read from file:
     /storage/coda1/p-amedford6/0/shared/rich_project_chbe-medford/medford-share/data/pseudos_module/espresso/nninc/pbe/van/N.UPF
     MD5 check sum: 90d10febe142ad51ac9d5be1deb811c4
     Pseudo is Ultrasoft, Zval =  5.0
     Generated by new atomic code, or converted to UPF format
     Using radial grid of  729 points,  4 beta functions with:
                l(1) =   0
                l(2) =   0
                l(3) =   1
                l(4) =   1
     Q(r) pseudized with  8 coefficients,  rinner =    0.800   0.800   0.800

     PseudoPot. # 4 for C  read from file:
     /storage/coda1/p-amedford6/0/shared/rich_project_chbe-medford/medford-share/data/pseudos_module/espresso/nninc/pbe/van/C.UPF
     MD5 check sum: 1a69bf6b8db32088f5b2163dbdb77a27
     Pseudo is Ultrasoft, Zval =  4.0
     Generated by new atomic code, or converted to UPF format
     Using radial grid of  721 points,  4 beta functions with:
                l(1) =   0
                l(2) =   0
                l(3) =   1
                l(4) =   1
     Q(r) pseudized with  8 coefficients,  rinner =    0.800   0.800   0.800

     PseudoPot. # 5 for H  read from file:
     /storage/coda1/p-amedford6/0/shared/rich_project_chbe-medford/medford-share/data/pseudos_module/espresso/nninc/pbe/van/H.UPF
     MD5 check sum: b5ee9d7bfd3a09ee7748110bda690ff7
     Pseudo is Ultrasoft, Zval =  1.0
     Generated by new atomic code, or converted to UPF format
     Using radial grid of  615 points,  1 beta functions with:
                l(1) =   0
     Q(r) pseudized with  8 coefficients,  rinner =    0.800

     atomic species   valence    mass     pseudopotential
        Ti1           12.00    47.86700     Ti( 1.00)
        O1             6.00    15.99900     O ( 1.00)
        N1             5.00    14.00700     N ( 1.00)
        C1             4.00    12.01100     C ( 1.00)
        H1             1.00     1.00800     H ( 1.00)

     No symmetry found

   Cartesian axes

     site n.     atom                  positions (alat units)
         1           Ti1 tau(   1) = (   0.0004258   2.9801865   6.0000000  )
         2           Ti1 tau(   2) = (   3.2906075   1.4906267   6.0002472  )
         3           O1  tau(   3) = (   0.0006271   0.0005054   7.9858123  )
         4           O1  tau(   4) = (   3.2906025   0.0005020   7.3038282  )
         5           O1  tau(   5) = (   4.5942328   1.4918067   9.2879030  )
         6           O1  tau(   6) = (   1.9868534   1.4903216   9.2879459  )
         7           Ti1 tau(   7) = (   3.2907910   2.8959150   9.1758416  )
         8           Ti1 tau(   8) = (   0.0015273   1.4827037   9.2680791  )
         9           O1  tau(   9) = (   3.2915376   0.0135470  11.3011085  )
        10           O1  tau(  10) = (   0.0116148   5.9584955  10.6183126  )
        11           O1  tau(  11) = (   1.3264285   1.5112823  12.6233503  )
        12           O1  tau(  12) = (   5.3038506   1.5117067  12.6402039  )
        13           Ti1 tau(  13) = (   6.4820107   2.9926285  12.7699842  )
        14           Ti1 tau(  14) = (   3.1705855   1.5046985  12.4703807  )
        15           O1  tau(  15) = (   0.0265921   0.0018185  14.6022993  )
        16           O1  tau(  16) = (   3.3077976   0.0231332  13.8844522  )
        17           O1  tau(  17) = (   4.5431088   1.5356983  16.0582573  )
        18           O1  tau(  18) = (   2.0919096   1.5355568  16.0602035  )
        19           Ti1 tau(  19) = (   3.3160089   3.0194793  15.6930983  )
        20           Ti1 tau(  20) = (   0.0166562   1.5958061  16.1043543  )
        21           O1  tau(  21) = (   3.2904802   0.0005063   4.7018136  )
        22           O1  tau(  22) = (   0.0292894   0.0555714  17.2141426  )
        23           O1  tau(  23) = (   1.3043587   1.4918075   6.0039043  )
        24           O1  tau(  24) = (   5.2767064   1.4903225   6.0039473  )
        25           Ti1 tau(  25) = (   0.0000382   5.9609847   6.0000000  )
        26           Ti1 tau(  26) = (   3.2902200   4.4714249   6.0002472  )
        27           O1  tau(  27) = (   0.0002396   2.9813036   7.9858123  )
        28           O1  tau(  28) = (   3.2902150   2.9813002   7.3038282  )
        29           O1  tau(  29) = (   4.5938453   4.4726049   9.2879030  )
        30           O1  tau(  30) = (   1.9864658   4.4711199   9.2879459  )
        31           Ti1 tau(  31) = (   3.2891106   5.8743827   9.1763621  )
        32           Ti1 tau(  32) = (   0.0006254   4.4649316   9.2693709  )
        33           O1  tau(  33) = (   3.2938734   2.9940915  11.3014364  )
        34           O1  tau(  34) = (   0.0092240   2.9805883  10.6323155  )
        35           O1  tau(  35) = (   1.3265148   4.4779228  12.6213786  )
        36           O1  tau(  36) = (   5.3043665   4.4729268  12.6387898  )
        37           Ti1 tau(  37) = (   6.5102921   0.0103953  12.7821347  )
        38           Ti1 tau(  38) = (   3.1702703   4.4844908  12.4724723  )
        39           O1  tau(  39) = (   0.0044238   2.9856840  14.6711682  )
        40           O1  tau(  40) = (   3.3052367   3.0047533  13.8869641  )
        41           O1  tau(  41) = (   4.5463945   4.5179403  16.0573015  )
        42           O1  tau(  42) = (   2.0913021   4.5186677  16.0620504  )
        43           Ti1 tau(  43) = (   3.3128124   0.0388915  15.6953448  )
        44           Ti1 tau(  44) = (   0.0191476   4.5695365  16.1495174  )
        45           O1  tau(  45) = (   3.2900926   2.9813045   4.7018136  )
        46           O1  tau(  46) = (   1.3039711   4.4726057   6.0039043  )
        47           O1  tau(  47) = (   5.2763189   4.4711207   6.0039473  )
        48           N1  tau(  48) = (   0.0657769   3.0188755  17.3428317  )
        49           N1  tau(  49) = (   6.3710133   2.5762042  22.6422586  )
        50           C1  tau(  50) = (   0.3130180   3.0007025  18.7658599  )
        51           H1  tau(  51) = (   0.2928038   4.0066326  19.1970245  )
        52           H1  tau(  52) = (   6.1505335   2.3845869  19.2855718  )
        53           H1  tau(  53) = (   1.2957935   2.5555442  18.9776258  )
        54           H1  tau(  54) = (   5.9555952   3.1943721  23.3306195  )
        55           H1  tau(  55) = (   0.0098814   1.7053999  23.1148127  )
        56           H1  tau(  56) = (   0.6724875   2.9916800  22.3498805  )

     number of k points=    10  Fermi-Dirac smearing, width (Ry)=  0.0073
                       cart. coord. in units 2pi/alat
        k(    1) = (   0.0000000   0.0000000   0.0000000), wk =   0.1250000
        k(    2) = (   0.0000000   0.0419351   0.0000000), wk =   0.2500000
        k(    3) = (   0.0000000  -0.0838702   0.0000000), wk =   0.1250000
        k(    4) = (   0.0379955   0.0000049   0.0000000), wk =   0.2500000
        k(    5) = (   0.0379955   0.0419400   0.0000000), wk =   0.2500000
        k(    6) = (   0.0379955  -0.0838652   0.0000000), wk =   0.2500000
        k(    7) = (   0.0379955  -0.0419301   0.0000000), wk =   0.2500000
        k(    8) = (  -0.0759910  -0.0000099   0.0000000), wk =   0.1250000
        k(    9) = (  -0.0759910   0.0419252   0.0000000), wk =   0.2500000
        k(   10) = (  -0.0759910  -0.0838800   0.0000000), wk =   0.1250000

     Initial potential from superposition of free atoms

     starting charge  381.99914, renormalised to  398.00000

     negative rho (up, down):  7.229E-03 0.000E+00

     %%%%%%%%%%%%%%%%%%%%%%%%%%%%%%%%%%%%%%%%%%%%%%%%%%%%%%%%%%%%%%%%%%%%%%%%
     %                                                                      %
     % You are using vdW-DF, which was implemented by the Thonhauser group. %
     % Please cite the following two papers that made this development      %
     % possible and the two reviews that describe the various versions:     %
     %                                                                      %
     %   T. Thonhauser et al., PRL 115, 136402 (2015).                      %
     %   T. Thonhauser et al., PRB 76, 125112 (2007).                       %
     %   K. Berland et al., Rep. Prog. Phys. 78, 066501 (2015).             %
     %   D.C. Langreth et al., J. Phys.: Condens. Matter 21, 084203 (2009). %
     %                                                                      %
     %                                                                      %
     % If you are calculating the stress with vdW-DF, please also cite:     %
     %                                                                      %
     %   R. Sabatini et al., J. Phys.: Condens. Matter 24, 424209 (2012).   %
     %                                                                      %
     %%%%%%%%%%%%%%%%%%%%%%%%%%%%%%%%%%%%%%%%%%%%%%%%%%%%%%%%%%%%%%%%%%%%%%%%

     Adding external electric field

     Computed dipole along edir(3) :
        Dipole              -12.0370 Ry au,        -30.5950 Debye
        Dipole field         -0.0227 Ry au,

        Potential amp.        2.1057 Ry
        Total length         46.3494 bohr

     Starting wfcs are  302 atomic wfcs
  @ DRIVER MODE: Message from server: STATUS
  @ DRIVER MODE: Message from server: POSDATA
  @ DRIVER MODE: Reading and sharing cell
  @ DRIVER MODE: Reading and sharing positions
  @ DRIVER MODE: Received positions

     Self-consistent Calculation

     iteration #  1     ecut=    29.40 Ry     beta= 0.05
     Davidson diagonalization with overlap
     c_bands:  1 eigenvalues not converged
     c_bands:  1 eigenvalues not converged
     c_bands:  1 eigenvalues not converged
     c_bands:  1 eigenvalues not converged
     c_bands:  1 eigenvalues not converged
     c_bands:  1 eigenvalues not converged
     c_bands:  1 eigenvalues not converged
     c_bands:  2 eigenvalues not converged
     c_bands:  1 eigenvalues not converged
     ethr =  1.00E-05,  avg # of iterations = 19.6

[...]

     total energy              =   -2520.04886114 Ry
     estimated scf accuracy    <    4725.44551911 Ry

     iteration #  2     ecut=    29.40 Ry     beta= 0.05
     Davidson diagonalization with overlap
     ethr =  1.00E-02,  avg # of iterations = 21.9

[...]

     iteration # 37     ecut=    29.40 Ry     beta= 0.05
     Davidson diagonalization with overlap
     c_bands:  1 eigenvalues not converged
     c_bands:  2 eigenvalues not converged
     ethr =  1.47E-06,  avg # of iterations = 11.7

[...]

     total energy              =   -2942.90435166 Ry
     estimated scf accuracy    <       0.00000017 Ry

     iteration # 64     ecut=    29.40 Ry     beta= 0.05
     Davidson diagonalization with overlap
     ethr =  3.33E-11,  avg # of iterations =  5.5

     negative rho (up, down):  9.734E-03 0.000E+00

     Adding external electric field

     Computed dipole along edir(3) :
        Dipole                0.6753 Ry au,          1.7164 Debye
        Dipole field          0.0013 Ry au,

        Potential amp.       -0.1181 Ry
        Total length         46.3494 bohr

     End of self-consistent calculation

          k = 0.0000 0.0000 0.0000 ( 18029 PWs)   bands (ev):

   -56.5077 -56.4741 -55.6159 -55.6071 -55.5806 -55.5746 -55.4776 -55.4421
   -55.2632 -55.2280 -55.1713 -55.1644 -55.1374 -55.0517 -54.6123 -54.5689
   -32.9351 -32.7815 -32.7534 -32.6845 -32.5935 -32.5612 -32.0951 -32.0736
   -32.0190 -31.9037 -31.8626 -31.8233 -31.8210 -31.7876 -31.7586 -31.7575
   -31.7561 -31.7384 -31.7277 -31.7235 -31.7025 -31.6861 -31.6599 -31.6461
   -31.6331 -31.6129 -31.6067 -31.5829 -31.5635 -31.5098 -31.4947 -31.4856
   -31.4062 -31.4021 -31.3821 -31.3377 -31.3303 -31.2987 -31.2816 -31.2577
   -31.2386 -31.1879 -31.1394 -30.8566 -30.8329 -30.8157 -30.7905 -30.6705
   -16.6691 -16.2272 -15.9990 -15.8690 -15.7957 -15.7471 -15.6944 -15.5779
   -15.5007 -15.4982 -15.4609 -15.4243 -15.3551 -15.2123 -15.1145 -15.0578
   -15.0156 -14.9009 -14.8350 -14.8083 -14.7983 -14.7669 -14.7494 -14.5506
   -14.5070 -14.4167 -14.4072 -14.2704 -14.0683 -13.9713 -13.6698 -13.5598
   -12.7009  -7.4324  -4.2361  -4.0855  -4.0651  -3.7233  -3.4813  -3.3952
    -3.2920  -3.2800  -3.2064  -3.0869  -3.0338  -2.9879  -2.8732  -2.8706
    -2.7279  -2.7092  -2.6826  -2.6720  -2.6352  -2.5883  -2.5582  -2.5110
    -2.5055  -2.4966  -2.3428  -2.2456  -2.1789  -2.1507  -2.1354  -2.1062
    -2.0306  -2.0058  -1.9948  -1.9867  -1.8982  -1.7491  -1.7433  -1.7149
    -1.6703  -1.6697  -1.6262  -1.6149  -1.4734  -1.3985  -1.2883  -1.2828
    -1.2464  -1.1795  -1.1775  -1.0746  -1.0048  -0.9527  -0.9140  -0.8081
    -0.7642  -0.7378  -0.6527  -0.5818  -0.5481  -0.5320  -0.5087  -0.4114
    -0.3943  -0.3715  -0.2883  -0.2789  -0.2307  -0.1429  -0.1223  -0.1186
    -0.0305  -0.0224   0.0795   0.1161   0.1581   0.1862   0.2761   0.3050
     0.4060   0.4497   0.4655   0.5876   0.6049   0.6643   0.7396   0.8014
     0.8217   0.8502   0.8827   0.8933   0.9753   1.0950   1.1009   1.1551
     1.2033   1.2493   1.4042   1.4431   1.7277   1.7395   2.4122   2.7677
     2.9292   3.2278   3.4287   3.5354   3.7448   3.7585   3.7642   3.9403
     3.9918

[...]

          k = 0.0380-0.0419 0.0000 ( 17876 PWs)   bands (ev):

[...]

          k =-0.0760-0.0000 0.0000 ( 17886 PWs)   bands (ev):

[...]

          k =-0.0760-0.0839 0.0000 ( 17948 PWs)   bands (ev):

   -56.4910 -56.4907 -55.5978 -55.5970 -55.5943 -55.5887 -55.4617 -55.4577
   -55.2481 -55.2430 -55.1616 -55.1544 -55.1542 -55.0544 -54.6032 -54.5779
   -32.7674 -32.7671 -32.7520 -32.7519 -32.6376 -32.6373 -31.9239 -31.9215
   -31.8982 -31.8919 -31.8532 -31.8523 -31.8102 -31.8078 -31.8075 -31.8067
   -31.7846 -31.7827 -31.7812 -31.7775 -31.7130 -31.7096 -31.6641 -31.6585
   -31.5986 -31.5901 -31.5304 -31.5257 -31.4987 -31.4985 -31.4907 -31.4468
   -31.4459 -31.4138 -31.3799 -31.3797 -31.3751 -31.3407 -31.3405 -31.3332
   -31.2974 -31.2593 -31.0016 -30.9290 -30.8291 -30.8018 -30.7979 -30.7559
   -16.0160 -16.0141 -15.9842 -15.9839 -15.7097 -15.7062 -15.6586 -15.6566
   -15.4872 -15.4809 -15.2711 -15.2627 -15.2585 -15.2544 -15.1263 -15.1198
   -15.0613 -15.0438 -14.9607 -14.9565 -14.8946 -14.8843 -14.8488 -14.8304
   -14.5090 -14.4880 -14.3696 -14.3513 -14.2164 -13.9706 -13.6633 -13.6632
   -12.7174  -7.4230  -4.0935  -4.0717  -3.1162  -3.1156  -3.0448  -3.0439
    -2.9214  -2.9163  -2.8481  -2.8474  -2.7369  -2.7345  -2.6818  -2.6022
    -2.6006  -2.5982  -2.5788  -2.5590  -2.4471  -2.4396  -2.4271  -2.4085
    -2.3632  -2.3602  -2.3504  -2.2697  -2.2557  -2.2196  -2.1796  -2.0737
    -2.0615  -2.0467  -2.0170  -1.9560  -1.9458  -1.9307  -1.8813  -1.8645
    -1.7810  -1.7255  -1.6627  -1.5555  -1.5513  -1.5418  -1.5295  -1.3747
    -1.3353  -1.3071  -1.3009  -1.2921  -1.2477  -1.1492  -1.1417  -0.9995
    -0.9991  -0.9270  -0.8467  -0.8310  -0.8008  -0.6703  -0.6273  -0.5869
    -0.5803  -0.5582  -0.5341  -0.5140  -0.4814  -0.3354  -0.3232  -0.2925
    -0.2520  -0.2442  -0.1977  -0.1303  -0.0425   0.0207   0.0222   0.0863
     0.1494   0.2092   0.2897   0.3052   0.3102   0.5914   0.6744   0.7623
     0.8386   0.9062   0.9708   0.9927   1.0615   1.0938   1.1550   1.2305
     1.2344   1.2516   1.2520   1.3232   1.3252   1.7048   2.3042   3.3416
     3.3420   3.4100   3.4105   3.7343   3.7398   3.8503   3.8605   3.9703
     3.9743

     the Fermi energy is     2.6003 ev

!    total energy              =   -2942.90439290 Ry
     estimated scf accuracy    <       0.00000004 Ry
     smearing contrib. (-TS)   =      -0.00455244 Ry
     internal energy E=F+TS    =   -2942.89984046 Ry

     The total energy is F=E-TS. E is the sum of the following terms:
     one-electron contribution =  -23043.07477427 Ry
     hartree contribution      =   11612.14945891 Ry
     xc contribution           =    -487.43954342 Ry
     ewald contribution        =    8975.46415777 Ry
     electric field correction =       0.00086055 Ry

     convergence has been achieved in  64 iterations

     Forces acting on atoms (cartesian axes, Ry/au):

     atom    1 type  1   force =     0.00001277   -0.00049795    0.12497812
     atom    2 type  1   force =    -0.00013420   -0.00062710   -0.16062332
     atom    3 type  2   force =     0.00017289   -0.00022482   -0.06934775
     atom    4 type  2   force =    -0.00004288   -0.00027899    0.02763862
     atom    5 type  2   force =    -0.01718939    0.00222479   -0.00887483
     atom    6 type  2   force =     0.01886979    0.00287479   -0.00919672
     atom    7 type  1   force =     0.00088036   -0.00374724    0.02233716
     atom    8 type  1   force =    -0.00036471   -0.00328510    0.11354304
     atom    9 type  2   force =     0.00050152   -0.00039903    0.00006459
     atom   10 type  2   force =    -0.00234376    0.00260050   -0.07318005
     atom   11 type  2   force =     0.00013112   -0.00095520   -0.00010087
     atom   12 type  2   force =     0.00001328   -0.00058460   -0.00002512
     atom   13 type  1   force =     0.00021289   -0.00019195   -0.00029262
     atom   14 type  1   force =    -0.00009139   -0.00053698   -0.00002550
     atom   15 type  2   force =    -0.00035375   -0.00099276    0.00083643
     atom   16 type  2   force =    -0.00013721   -0.00017309    0.00046659
     atom   17 type  2   force =     0.00088383   -0.00042194   -0.00035005
     atom   18 type  2   force =    -0.00057493   -0.00045877   -0.00031904
     atom   19 type  1   force =    -0.00026115    0.00007255   -0.00053042
     atom   20 type  1   force =     0.00055442   -0.00088317   -0.00099120
     atom   21 type  2   force =     0.00005374   -0.00006455    0.09967404
     atom   22 type  2   force =     0.00015285   -0.00037989   -0.00092702
     atom   23 type  2   force =    -0.07923261   -0.00005928   -0.03253451
     atom   24 type  2   force =     0.07908853    0.00037298   -0.03255948
     atom   25 type  1   force =     0.00003095   -0.00050538    0.12431742
     atom   26 type  1   force =    -0.00012301   -0.00048817   -0.16063967
     atom   27 type  2   force =     0.00028242   -0.00044662   -0.06835477
     atom   28 type  2   force =     0.00000339   -0.00013490    0.02749119
     atom   29 type  2   force =    -0.01764972    0.00173474   -0.00894516
     atom   30 type  2   force =     0.01922162    0.00199733   -0.00928438
     atom   31 type  1   force =     0.00080019   -0.00116283    0.02195656
     atom   32 type  1   force =    -0.00029238    0.00070636    0.11418554
     atom   33 type  2   force =    -0.00007828    0.00004005   -0.00055763
     atom   34 type  2   force =    -0.00201358    0.00206207   -0.07183986
     atom   35 type  2   force =     0.00002069   -0.00020995    0.00013346
     atom   36 type  2   force =    -0.00050789    0.00020469    0.00022053
     atom   37 type  1   force =     0.00086559    0.00095074   -0.00022427
     atom   38 type  1   force =    -0.00021811    0.00026616   -0.00016772
     atom   39 type  2   force =    -0.00002001   -0.00029853   -0.00001213
     atom   40 type  2   force =    -0.00001679   -0.00019396   -0.00023769
     atom   41 type  2   force =     0.00022432   -0.00043222   -0.00032971
     atom   42 type  2   force =     0.00000436   -0.00039315   -0.00038098
     atom   43 type  1   force =    -0.00037016    0.00007518   -0.00043045
     atom   44 type  1   force =     0.00006216    0.00092337    0.00029725
     atom   45 type  2   force =     0.00003835   -0.00007501    0.09971362
     atom   46 type  2   force =    -0.07923255   -0.00003046   -0.03253464
     atom   47 type  2   force =     0.07908774    0.00041307   -0.03253901
     atom   48 type  3   force =    -0.00032841    0.00103145   -0.00094191
     atom   49 type  3   force =     0.00211229    0.00027568   -0.00151160
     atom   50 type  4   force =    -0.00009251    0.00055764    0.00143534
     atom   51 type  5   force =    -0.00051196   -0.00046765   -0.00047296
     atom   52 type  5   force =    -0.00000403    0.00020457   -0.00017238
     atom   53 type  5   force =    -0.00013112    0.00042928   -0.00013490
     atom   54 type  5   force =     0.00141512    0.00036033   -0.00052778
     atom   55 type  5   force =     0.00091409    0.00127130   -0.00084441
     atom   56 type  5   force =    -0.00429482   -0.00204840    0.00167303

     Total force =     0.426706     Total SCF correction =     0.000699
  @ DRIVER MODE: Message from server: STATUS
  @ DRIVER MODE: Message from server: GETFORCE
  @ DRIVER MODE: Returning v,forces,stress,ensemble

     Writing output data file ./calc.save/
  @ DRIVER MODE: Message from server: EXIT
  @ DRIVE MODE: Exiting

     General routines

     Parallel routines

   This run was terminated on:  15:25:22   9Sep2021

   JOB DONE.