     Program PWSCF v.6.7GPU starts on 23Sep2021 at  3:54:56

     R & G space division:  proc/nbgrp/npool/nimage =      10
     Reading input from /storage/home/hcoda1/3/ntian30/research/carbon/CxH_vib/H2O_calc/ads_slab/CH3OHO_a/out_0037/pw.inp
Warning: card &CELL ignored
Warning: card   CELL_DYNAMICS='IPI', ignored
Warning: card / ignored

     Current dimensions of program PWSCF are:
     Max number of different atomic species (ntypx) = 10
     Max number of k-points (npk) =  40000
     Max angular momentum in pseudopotentials (lmaxx) =  3
     Presently no symmetry can be used with electric field

     Message from routine cell_base_init:
     DEPRECATED: use true lattice parameter, not A to a.u. conversion factor

     IMPORTANT: XC functional enforced from input :
     Exchange-correlation= BEEF-VDW
                           (   1   4  43  14   2   0   0)
     Any further DFT definition will be discarded
     Please, verify this is what you really want

  @ DRIVER MODE: Connecting to
 qe_1139763_2937320.sched-torque.pace.gatech.eduyzalw02l_scratch
  using UNIX socket
  @ DRIVER MODE: Message from server: STATUS
  @ DRIVER MODE: Message from server: INIT
  @ DRIVER MODE: Receiving replica           0          -1
  @ DRIVER MODE: Receiving encoded integer          25
  @ DRIVER MODE:  SCF:  T  FORCE:  T  STRESS:  F  VC:  F  ENSEMBLE:  F
  @ DRIVER MODE:  SCF:  T  FORCE:  T  STRESS:  F  VC:  F  ENSEMBLE:  F

     Using Slab Decomposition

     bravais-lattice index     =            0
     lattice parameter (alat)  =       1.8897  a.u.
     unit-cell volume          =    6658.9804 (a.u.)^3
     number of atoms/cell      =           54
     number of atomic types    =            4
     number of electrons       =       398.00
     number of Kohn-Sham states=          209
     kinetic-energy cutoff     =      29.3995  Ry
     charge density cutoff     =     293.9946  Ry
     scf convergence threshold =      7.3E-08
     mixing beta               =       0.0500
     number of iterations used =            8  plain     mixing
     Exchange-correlation= BEEF-VDW
                           (   1   4  43  14   2   0   0)

     celldm(1)=   1.889726  celldm(2)=   0.000000  celldm(3)=   0.000000
     celldm(4)=   0.000000  celldm(5)=   0.000000  celldm(6)=   0.000000

     crystal axes: (cart. coord. in units of alat)
               a(1) = (   6.579727   0.000000   0.000000 )
               a(2) = (  -0.000775   5.961596   0.000000 )
               a(3) = (   0.000000   0.000000  25.155947 )

     reciprocal axes: (cart. coord. in units 2 pi/alat)
               b(1) = (  0.151982  0.000020  0.000000 )
               b(2) = (  0.000000  0.167740  0.000000 )
               b(3) = (  0.000000  0.000000  0.039752 )

     PseudoPot. # 1 for Ti read from file:
     /storage/coda1/p-amedford6/0/shared/rich_project_chbe-medford/medford-share/data/pseudos_module/espresso/nninc/pbe/van/Ti.UPF
     MD5 check sum: 8e4df49b7f0d34bbd5052bf3f5ea0213
     Pseudo is Ultrasoft, Zval = 12.0
     Generated by new atomic code, or converted to UPF format
     Using radial grid of  851 points,  6 beta functions with:
                l(1) =   0
                l(2) =   0
                l(3) =   1
                l(4) =   1
                l(5) =   2
                l(6) =   2
     Q(r) pseudized with  8 coefficients,  rinner =    1.000   1.000   1.000
                                                       1.000   1.000

     PseudoPot. # 2 for O  read from file:
     /storage/coda1/p-amedford6/0/shared/rich_project_chbe-medford/medford-share/data/pseudos_module/espresso/nninc/pbe/van/O.UPF
     MD5 check sum: 78c19812648e8988a0fe644b0f25305e
     Pseudo is Ultrasoft, Zval =  6.0
     Generated by new atomic code, or converted to UPF format
     Using radial grid of  737 points,  4 beta functions with:
                l(1) =   0
                l(2) =   0
                l(3) =   1
                l(4) =   1
     Q(r) pseudized with  8 coefficients,  rinner =    0.800   0.800   0.800

     PseudoPot. # 3 for C  read from file:
     /storage/coda1/p-amedford6/0/shared/rich_project_chbe-medford/medford-share/data/pseudos_module/espresso/nninc/pbe/van/C.UPF
     MD5 check sum: 1a69bf6b8db32088f5b2163dbdb77a27
     Pseudo is Ultrasoft, Zval =  4.0
     Generated by new atomic code, or converted to UPF format
     Using radial grid of  721 points,  4 beta functions with:
                l(1) =   0
                l(2) =   0
                l(3) =   1
                l(4) =   1
     Q(r) pseudized with  8 coefficients,  rinner =    0.800   0.800   0.800

     PseudoPot. # 4 for H  read from file:
     /storage/coda1/p-amedford6/0/shared/rich_project_chbe-medford/medford-share/data/pseudos_module/espresso/nninc/pbe/van/H.UPF
     MD5 check sum: b5ee9d7bfd3a09ee7748110bda690ff7
     Pseudo is Ultrasoft, Zval =  1.0
     Generated by new atomic code, or converted to UPF format
     Using radial grid of  615 points,  1 beta functions with:
                l(1) =   0
     Q(r) pseudized with  8 coefficients,  rinner =    0.800

     atomic species   valence    mass     pseudopotential
        Ti1           12.00    47.86700     Ti( 1.00)
        O1             6.00    15.99900     O ( 1.00)
        C1             4.00    12.01100     C ( 1.00)
        H1             1.00     1.00800     H ( 1.00)

     No symmetry found

   Cartesian axes

     site n.     atom                  positions (alat units)
         1           Ti1 tau(   1) = (   0.0004258   2.9801865   6.0000000  )
         2           Ti1 tau(   2) = (   3.2906075   1.4906267   6.0002472  )
         3           O1  tau(   3) = (   0.0006271   0.0005054   7.9858123  )
         4           O1  tau(   4) = (   3.2906025   0.0005020   7.3038282  )
         5           O1  tau(   5) = (   4.5942328   1.4918067   9.2879030  )
         6           O1  tau(   6) = (   1.9868534   1.4903216   9.2879459  )
         7           Ti1 tau(   7) = (   3.2957662   3.1068914   9.2181075  )
         8           Ti1 tau(   8) = (   0.0157633   1.6119101   9.3474628  )
         9           O1  tau(   9) = (   3.3075722   0.0245345  11.3221904  )
        10           O1  tau(  10) = (   0.0080709   0.0223756  10.5933645  )
        11           O1  tau(  11) = (   1.2996580   1.5014007  12.6293879  )
        12           O1  tau(  12) = (   5.3220639   1.4985920  12.6296061  )
        13           Ti1 tau(  13) = (   0.0338638   3.0995910  12.8036746  )
        14           Ti1 tau(  14) = (   3.3037623   1.5692239  12.4279754  )
        15           O1  tau(  15) = (   0.0261714   0.0103614  14.6808343  )
        16           O1  tau(  16) = (   3.3158872   5.9294016  13.9235834  )
        17           O1  tau(  17) = (   4.5845781   1.5190771  16.0542726  )
        18           O1  tau(  18) = (   2.0543804   1.5366111  16.0227792  )
        19           Ti1 tau(  19) = (   3.3281905   2.9581697  15.6655982  )
        20           Ti1 tau(  20) = (   0.0947853   1.4300879  15.9722461  )
        21           O1  tau(  21) = (   3.2904802   0.0005063   4.7018136  )
        22           O1  tau(  22) = (   0.0746355   0.0166105  17.2029963  )
        23           O1  tau(  23) = (   1.3043587   1.4918075   6.0039043  )
        24           O1  tau(  24) = (   5.2767064   1.4903225   6.0039473  )
        25           Ti1 tau(  25) = (   0.0000382   5.9609847   6.0000000  )
        26           Ti1 tau(  26) = (   3.2902200   4.4714249   6.0002472  )
        27           O1  tau(  27) = (   0.0002396   2.9813036   7.9858123  )
        28           O1  tau(  28) = (   3.2902150   2.9813002   7.3038282  )
        29           O1  tau(  29) = (   4.5938453   4.4726049   9.2879030  )
        30           O1  tau(  30) = (   1.9864658   4.4711199   9.2879459  )
        31           Ti1 tau(  31) = (   3.3049890   0.1224192   9.1815931  )
        32           Ti1 tau(  32) = (   0.0115838   4.5621182   9.3618056  )
        33           O1  tau(  33) = (   3.3056077   2.9569042  11.2892548  )
        34           O1  tau(  34) = (   0.0073068   3.0072357  10.5542745  )
        35           O1  tau(  35) = (   1.3032543   4.4799722  12.6367586  )
        36           O1  tau(  36) = (   5.3275811   4.4862388  12.6364370  )
        37           Ti1 tau(  37) = (   0.0060541   0.1153383  12.6179110  )
        38           Ti1 tau(  38) = (   3.3135592   4.6638430  12.6816895  )
        39           O1  tau(  39) = (   0.0323206   2.9919573  14.6814448  )
        40           O1  tau(  40) = (   3.3290587   2.9835885  13.8850256  )
        41           O1  tau(  41) = (   4.5809508   4.4372854  16.0867525  )
        42           O1  tau(  42) = (   2.0525355   4.4234120  16.0327814  )
        43           Ti1 tau(  43) = (   3.4083040   5.9395600  16.2643712  )
        44           Ti1 tau(  44) = (   0.1061243   4.5568233  16.0547075  )
        45           O1  tau(  45) = (   3.2900926   2.9813045   4.7018136  )
        46           O1  tau(  46) = (   1.3039711   4.4726057   6.0039043  )
        47           O1  tau(  47) = (   5.2763189   4.4711207   6.0039473  )
        48           C1  tau(  48) = (   6.0247352   2.9430639  18.6208924  )
        49           O1  tau(  49) = (   0.0129984   2.9830681  17.3098104  )
        50           H1  tau(  50) = (   4.9427965   2.8012130  18.5644550  )
        51           H1  tau(  51) = (   6.4567215   2.1053551  19.1708771  )
        52           H1  tau(  52) = (   6.2362830   3.8810018  19.1352789  )
        53           O1  tau(  53) = (   3.2195589   0.0134334  18.0862892  )
        54           H1  tau(  54) = (   2.3213237   0.1261415  18.4590370  )

     number of k points=    10  Fermi-Dirac smearing, width (Ry)=  0.0073
                       cart. coord. in units 2pi/alat
        k(    1) = (   0.0000000   0.0000000   0.0000000), wk =   0.1250000
        k(    2) = (   0.0000000   0.0419351   0.0000000), wk =   0.2500000
        k(    3) = (   0.0000000  -0.0838702   0.0000000), wk =   0.1250000
        k(    4) = (   0.0379955   0.0000049   0.0000000), wk =   0.2500000
        k(    5) = (   0.0379955   0.0419400   0.0000000), wk =   0.2500000
        k(    6) = (   0.0379955  -0.0838652   0.0000000), wk =   0.2500000
        k(    7) = (   0.0379955  -0.0419301   0.0000000), wk =   0.2500000
        k(    8) = (  -0.0759910  -0.0000099   0.0000000), wk =   0.1250000
        k(    9) = (  -0.0759910   0.0419252   0.0000000), wk =   0.2500000
        k(   10) = (  -0.0759910  -0.0838800   0.0000000), wk =   0.1250000

     Initial potential from superposition of free atoms

     starting charge  381.99917, renormalised to  398.00000

     negative rho (up, down):  1.724E-02 0.000E+00

     %%%%%%%%%%%%%%%%%%%%%%%%%%%%%%%%%%%%%%%%%%%%%%%%%%%%%%%%%%%%%%%%%%%%%%%%
     %                                                                      %
     % You are using vdW-DF, which was implemented by the Thonhauser group. %
     % Please cite the following two papers that made this development      %
     % possible and the two reviews that describe the various versions:     %
     %                                                                      %
     %   T. Thonhauser et al., PRL 115, 136402 (2015).                      %
     %   T. Thonhauser et al., PRB 76, 125112 (2007).                       %
     %   K. Berland et al., Rep. Prog. Phys. 78, 066501 (2015).             %
     %   D.C. Langreth et al., J. Phys.: Condens. Matter 21, 084203 (2009). %
     %                                                                      %
     %                                                                      %
     % If you are calculating the stress with vdW-DF, please also cite:     %
     %                                                                      %
     %   R. Sabatini et al., J. Phys.: Condens. Matter 24, 424209 (2012).   %
     %                                                                      %
     %%%%%%%%%%%%%%%%%%%%%%%%%%%%%%%%%%%%%%%%%%%%%%%%%%%%%%%%%%%%%%%%%%%%%%%%

     Adding external electric field

     Computed dipole along edir(3) :
        Dipole               -8.3452 Ry au,        -21.2113 Debye
        Dipole field         -0.0157 Ry au,

        Potential amp.        1.4599 Ry
        Total length         46.3494 bohr

     Starting wfcs are  300 atomic wfcs
  @ DRIVER MODE: Message from server: STATUS
  @ DRIVER MODE: Message from server: POSDATA
  @ DRIVER MODE: Reading and sharing cell
  @ DRIVER MODE: Reading and sharing positions
  @ DRIVER MODE: Received positions

     Self-consistent Calculation

     iteration #  1     ecut=    29.40 Ry     beta= 0.05
     Davidson diagonalization with overlap
     c_bands:  1 eigenvalues not converged
     c_bands:  1 eigenvalues not converged
     c_bands:  1 eigenvalues not converged
     c_bands:  1 eigenvalues not converged
     c_bands:  1 eigenvalues not converged
     ethr =  1.00E-05,  avg # of iterations = 18.4

[...]

     total energy              =   -2613.41448558 Ry
     estimated scf accuracy    <    3886.99343367 Ry

     iteration #  2     ecut=    29.40 Ry     beta= 0.05
     Davidson diagonalization with overlap
     ethr =  1.00E-02,  avg # of iterations = 22.6

[...]

     iteration # 55     ecut=    29.40 Ry     beta= 0.05
     Davidson diagonalization with overlap
     c_bands:  1 eigenvalues not converged
     c_bands:  1 eigenvalues not converged
     ethr =  8.27E-08,  avg # of iterations = 12.6

[...]

     total energy              =   -2965.10853873 Ry
     estimated scf accuracy    <       0.00000016 Ry

     iteration # 76     ecut=    29.40 Ry     beta= 0.05
     Davidson diagonalization with overlap
     ethr =  2.18E-11,  avg # of iterations =  5.8

     negative rho (up, down):  1.731E-02 0.000E+00

     Adding external electric field

     Computed dipole along edir(3) :
        Dipole                0.5359 Ry au,          1.3622 Debye
        Dipole field          0.0010 Ry au,

        Potential amp.       -0.0938 Ry
        Total length         46.3494 bohr

     End of self-consistent calculation

          k = 0.0000 0.0000 0.0000 ( 18029 PWs)   bands (ev):

   -56.4417 -56.3949 -55.8701 -55.8385 -55.8254 -55.8167 -55.7738 -55.7359
   -55.7114 -55.6971 -55.6590 -55.6168 -55.6129 -55.4661 -55.0452 -55.0113
   -32.8541 -32.7067 -32.6572 -32.6211 -32.5267 -32.4806 -32.3623 -32.3153
   -32.3091 -32.1919 -32.1565 -32.1333 -32.1298 -32.1114 -32.1061 -32.0690
   -32.0652 -32.0492 -32.0343 -32.0290 -32.0160 -31.9793 -31.9687 -31.9513
   -31.9433 -31.9310 -31.9284 -31.9184 -31.9159 -31.9045 -31.9001 -31.8868
   -31.8627 -31.8608 -31.8546 -31.8222 -31.8107 -31.8099 -31.7808 -31.7219
   -31.6914 -31.6725 -31.4393 -31.3860 -31.3617 -31.2561 -31.1712 -31.0605
   -17.6026 -16.5995 -16.5660 -16.4372 -16.2014 -16.0547 -15.9756 -15.7560
   -15.7534 -15.6341 -15.6235 -15.5883 -15.4504 -15.4379 -15.4311 -15.3751
   -15.3598 -15.3489 -15.3428 -15.3352 -15.3225 -15.2744 -15.2616 -15.2096
   -15.1510 -15.0847 -15.0546 -15.0114 -14.9936 -14.9565 -14.7257 -13.5472
   -13.4389  -9.3514  -4.3273  -4.2206  -4.1214  -4.0359  -3.8810  -3.7794
    -3.7508  -3.6660  -3.5776  -3.4679  -3.2693  -3.1073  -3.0505  -3.0139
    -2.9808  -2.9272  -2.8726  -2.8138  -2.7685  -2.7393  -2.7107  -2.6435
    -2.6278  -2.6160  -2.5880  -2.5800  -2.5441  -2.5108  -2.5004  -2.3687
    -2.3389  -2.3011  -2.2961  -2.2369  -2.2179  -2.1936  -2.1868  -2.1358
    -2.0428  -1.9621  -1.9262  -1.8868  -1.6976  -1.6421  -1.5722  -1.5064
    -1.4280  -1.3809  -1.3612  -1.3379  -1.2676  -1.2399  -1.1280  -1.1061
    -1.0601  -0.9965  -0.9930  -0.9540  -0.8962  -0.8696  -0.8061  -0.7744
    -0.7475  -0.6042  -0.5779  -0.5503  -0.5083  -0.4999  -0.4001  -0.3370
    -0.2884  -0.2686  -0.2212  -0.1873  -0.1488  -0.1013  -0.0836  -0.0570
     0.0318   0.0576   0.0821   0.1263   0.1625   0.1845   0.2037   0.2968
     0.3444   0.3625   0.3787   0.5346   0.5755   0.5899   0.7190   0.7302
     0.9028   0.9716   1.0092   1.1885   1.2348   1.5215   1.5637   2.8601
     3.0183   3.2894   3.4373   3.5046   3.5437   3.5973   3.6145   3.7554
     3.8001

[...]

          k = 0.0380-0.0419 0.0000 ( 17876 PWs)   bands (ev):

[...]

          k =-0.0760-0.0000 0.0000 ( 17886 PWs)   bands (ev):

[...]

          k =-0.0760-0.0839 0.0000 ( 17948 PWs)   bands (ev):

   -56.4345 -56.4018 -55.8682 -55.8330 -55.8242 -55.8127 -55.7788 -55.7397
   -55.7131 -55.6986 -55.6505 -55.6252 -55.6110 -55.4679 -55.0284 -55.0279
   -32.7021 -32.6849 -32.6612 -32.6571 -32.5864 -32.5585 -32.2502 -32.1859
   -32.1591 -32.1259 -32.1046 -32.0983 -32.0904 -32.0758 -32.0660 -32.0534
   -32.0484 -32.0414 -32.0361 -32.0280 -32.0269 -32.0202 -31.9978 -31.9978
   -31.9945 -31.9792 -31.9680 -31.9528 -31.9447 -31.9388 -31.9181 -31.9046
   -31.9006 -31.8880 -31.8748 -31.8603 -31.8598 -31.8257 -31.8151 -31.7958
   -31.7242 -31.6760 -31.3749 -31.3745 -31.2548 -31.2531 -31.2135 -31.2125
   -17.5648 -16.5441 -15.9832 -15.9039 -15.8997 -15.8883 -15.8617 -15.8198
   -15.7422 -15.7355 -15.6647 -15.5977 -15.5641 -15.5181 -15.4963 -15.4851
   -15.4474 -15.4428 -15.3857 -15.3421 -15.3257 -15.3144 -15.2945 -15.2513
   -15.2455 -15.2427 -15.2192 -15.2053 -15.1532 -15.0530 -14.8661 -13.5432
   -13.5421  -9.3517  -4.2310  -4.1715  -3.9667  -3.7430  -3.2156  -3.1399
    -3.0653  -3.0572  -2.9825  -2.9228  -2.9083  -2.8635  -2.8563  -2.8249
    -2.7530  -2.7424  -2.7295  -2.7191  -2.7117  -2.7030  -2.6804  -2.6352
    -2.6220  -2.6146  -2.5988  -2.5902  -2.5784  -2.5748  -2.5480  -2.5090
    -2.4387  -2.3785  -2.2550  -2.2474  -2.2120  -2.1962  -2.1548  -2.1432
    -2.0892  -1.9972  -1.9849  -1.9822  -1.8939  -1.8368  -1.6242  -1.6086
    -1.5917  -1.5253  -1.4531  -1.3862  -1.3625  -1.3398  -1.3071  -1.2842
    -1.2352  -1.1852  -1.1509  -1.1147  -1.0985  -1.0599  -1.0062  -0.9586
    -0.9061  -0.9025  -0.8590  -0.8115  -0.7810  -0.7013  -0.6954  -0.6718
    -0.6485  -0.6092  -0.5241  -0.4722  -0.4294  -0.3349  -0.2942  -0.2601
    -0.1193  -0.0598  -0.0239   0.0519   0.0967   0.1959   0.2210   0.2975
     0.3100   0.3392   0.3632   0.4381   0.5057   0.5620   0.6041   0.6477
     0.6593   0.7086   0.7727   1.3656   1.3661   1.3734   1.3811   3.4054
     3.4301   3.4379   3.4677   3.6942   3.7118   3.7840   3.8139   3.8308
     3.8810

     the Fermi energy is     2.2697 ev

!    total energy              =   -2965.10854908 Ry
     estimated scf accuracy    <       0.00000004 Ry
     smearing contrib. (-TS)   =      -0.00015935 Ry
     internal energy E=F+TS    =   -2965.10838973 Ry

     The total energy is F=E-TS. E is the sum of the following terms:
     one-electron contribution =  -24222.90984418 Ry
     hartree contribution      =   12200.76575284 Ry
     xc contribution           =    -490.02044691 Ry
     ewald contribution        =    9547.05560652 Ry
     electric field correction =       0.00054200 Ry

     convergence has been achieved in  76 iterations

     Forces acting on atoms (cartesian axes, Ry/au):

     atom    1 type  1   force =    -0.00002171    0.00002832    0.13238306
     atom    2 type  1   force =    -0.00019142    0.00778335   -0.15740216
     atom    3 type  2   force =     0.00008641   -0.00480436   -0.05219486
     atom    4 type  2   force =     0.00035944    0.00109537    0.04043019
     atom    5 type  2   force =    -0.00610235   -0.00278227   -0.00019834
     atom    6 type  2   force =     0.00839249   -0.00338082    0.00078059
     atom    7 type  1   force =    -0.00002685   -0.00015393   -0.00001651
     atom    8 type  1   force =     0.00021015   -0.00056720    0.00039676
     atom    9 type  2   force =    -0.00004338    0.00020731   -0.00004846
     atom   10 type  2   force =    -0.00014363   -0.00037328   -0.00015691
     atom   11 type  2   force =     0.00042897    0.00026553   -0.00017571
     atom   12 type  2   force =    -0.00026045    0.00016169   -0.00003621
     atom   13 type  1   force =    -0.00068666    0.00049552   -0.00031035
     atom   14 type  1   force =     0.00007696   -0.00033784   -0.00020123
     atom   15 type  2   force =    -0.00021156    0.00002923   -0.00070558
     atom   16 type  2   force =    -0.00033562    0.00009864   -0.00001608
     atom   17 type  2   force =     0.00015305    0.00003495    0.00003861
     atom   18 type  2   force =    -0.00074125    0.00022517   -0.00018372
     atom   19 type  1   force =     0.00005653   -0.00043369   -0.00011977
     atom   20 type  1   force =    -0.00004091   -0.00008211    0.00007329
     atom   21 type  2   force =    -0.00002346    0.00002202    0.09912879
     atom   22 type  2   force =     0.00006061    0.00012965    0.00034711
     atom   23 type  2   force =    -0.08090719    0.00048943   -0.03408791
     atom   24 type  2   force =     0.08071027    0.00095533   -0.03415120
     atom   25 type  1   force =    -0.00001412   -0.00026973    0.14100356
     atom   26 type  1   force =    -0.00013500   -0.00647282   -0.15705321
     atom   27 type  2   force =     0.00016374    0.00109170   -0.05219451
     atom   28 type  2   force =     0.00018973    0.00033110    0.04176154
     atom   29 type  2   force =    -0.00751773    0.00512623    0.00201224
     atom   30 type  2   force =     0.00859059    0.00383411    0.00271581
     atom   31 type  1   force =    -0.00002514    0.00016479    0.00000677
     atom   32 type  1   force =     0.00030577   -0.00006774   -0.00052264
     atom   33 type  2   force =    -0.00005769    0.00039572    0.00021882
     atom   34 type  2   force =    -0.00011844    0.00019709    0.00039979
     atom   35 type  2   force =    -0.00050688   -0.00035210   -0.00005840
     atom   36 type  2   force =     0.00049254   -0.00044254    0.00017417
     atom   37 type  1   force =    -0.00056486   -0.00028772   -0.00012902
     atom   38 type  1   force =     0.00001408   -0.00000257   -0.00041273
     atom   39 type  2   force =    -0.00001435   -0.00014082   -0.00018240
     atom   40 type  2   force =    -0.00013721   -0.00015107   -0.00033978
     atom   41 type  2   force =     0.00000769    0.00009094   -0.00037944
     atom   42 type  2   force =    -0.00013157    0.00030420   -0.00018219
     atom   43 type  1   force =    -0.00034251    0.00038835    0.00000918
     atom   44 type  1   force =    -0.00000044   -0.00056738    0.00015533
     atom   45 type  2   force =    -0.00002940    0.00012421    0.09868182
     atom   46 type  2   force =    -0.08086785   -0.00164625   -0.03408742
     atom   47 type  2   force =     0.08067704   -0.00117576   -0.03415541
     atom   48 type  3   force =    -0.00014716    0.00032409   -0.00013890
     atom   49 type  2   force =     0.00010453    0.00027828   -0.00077867
     atom   50 type  4   force =    -0.00041538    0.00018807   -0.00005253
     atom   51 type  4   force =     0.00011595   -0.00005093    0.00016283
     atom   52 type  4   force =    -0.00006809    0.00039714    0.00026446
     atom   53 type  2   force =    -0.01520886    0.00167860    0.00537609
     atom   54 type  4   force =     0.01484257   -0.00239321   -0.00584855

     Total force =     0.383381     Total SCF correction =     0.000593
  @ DRIVER MODE: Message from server: STATUS
  @ DRIVER MODE: Message from server: GETFORCE
  @ DRIVER MODE: Returning v,forces,stress,ensemble

     Writing output data file ./calc.save/
  @ DRIVER MODE: Message from server: EXIT
  @ DRIVE MODE: Exiting

     General routines

     Parallel routines

   This run was terminated on:   4:14:43  23Sep2021

   JOB DONE.