     Program PWSCF v.6.7GPU starts on 23Sep2021 at 23: 3:42

     R & G space division:  proc/nbgrp/npool/nimage =       8
     Reading input from /storage/home/hcoda1/3/ntian30/research/carbon/CxH_vib/H2O_calc/ads_slab/CH2N2HO_b/out_0031/pw.inp
Warning: card &CELL ignored
Warning: card   CELL_DYNAMICS='IPI', ignored
Warning: card / ignored

     Current dimensions of program PWSCF are:
     Max number of different atomic species (ntypx) = 10
     Max number of k-points (npk) =  40000
     Max angular momentum in pseudopotentials (lmaxx) =  3
     Presently no symmetry can be used with electric field

     Message from routine cell_base_init:
     DEPRECATED: use true lattice parameter, not A to a.u. conversion factor

     IMPORTANT: XC functional enforced from input :
     Exchange-correlation= BEEF-VDW
                           (   1   4  43  14   2   0   0)
     Any further DFT definition will be discarded
     Please, verify this is what you really want

  @ DRIVER MODE: Connecting to
 qe_1139763_2947312.sched-torque.pace.gatech.edug7h2rptw_scratch
  using UNIX socket
  @ DRIVER MODE: Message from server: STATUS
  @ DRIVER MODE: Message from server: INIT
  @ DRIVER MODE: Receiving replica           0          -1
  @ DRIVER MODE: Receiving encoded integer          25
  @ DRIVER MODE:  SCF:  T  FORCE:  T  STRESS:  F  VC:  F  ENSEMBLE:  F
  @ DRIVER MODE:  SCF:  T  FORCE:  T  STRESS:  F  VC:  F  ENSEMBLE:  F

     Using Slab Decomposition

     bravais-lattice index     =            0
     lattice parameter (alat)  =       1.8897  a.u.
     unit-cell volume          =    6658.9804 (a.u.)^3
     number of atoms/cell      =           54
     number of atomic types    =            5
     number of electrons       =       401.00
     number of Kohn-Sham states=          210
     kinetic-energy cutoff     =      29.3995  Ry
     charge density cutoff     =     293.9946  Ry
     scf convergence threshold =      7.3E-08
     mixing beta               =       0.0500
     number of iterations used =            8  plain     mixing
     Exchange-correlation= BEEF-VDW
                           (   1   4  43  14   2   0   0)

     celldm(1)=   1.889726  celldm(2)=   0.000000  celldm(3)=   0.000000
     celldm(4)=   0.000000  celldm(5)=   0.000000  celldm(6)=   0.000000

     crystal axes: (cart. coord. in units of alat)
               a(1) = (   6.579727   0.000000   0.000000 )
               a(2) = (  -0.000775   5.961596   0.000000 )
               a(3) = (   0.000000   0.000000  25.155947 )

     reciprocal axes: (cart. coord. in units 2 pi/alat)
               b(1) = (  0.151982  0.000020  0.000000 )
               b(2) = (  0.000000  0.167740  0.000000 )
               b(3) = (  0.000000  0.000000  0.039752 )

     PseudoPot. # 1 for Ti read from file:
     /storage/coda1/p-amedford6/0/shared/rich_project_chbe-medford/medford-share/data/pseudos_module/espresso/nninc/pbe/van/Ti.UPF
     MD5 check sum: 8e4df49b7f0d34bbd5052bf3f5ea0213
     Pseudo is Ultrasoft, Zval = 12.0
     Generated by new atomic code, or converted to UPF format
     Using radial grid of  851 points,  6 beta functions with:
                l(1) =   0
                l(2) =   0
                l(3) =   1
                l(4) =   1
                l(5) =   2
                l(6) =   2
     Q(r) pseudized with  8 coefficients,  rinner =    1.000   1.000   1.000
                                                       1.000   1.000

     PseudoPot. # 2 for O  read from file:
     /storage/coda1/p-amedford6/0/shared/rich_project_chbe-medford/medford-share/data/pseudos_module/espresso/nninc/pbe/van/O.UPF
     MD5 check sum: 78c19812648e8988a0fe644b0f25305e
     Pseudo is Ultrasoft, Zval =  6.0
     Generated by new atomic code, or converted to UPF format
     Using radial grid of  737 points,  4 beta functions with:
                l(1) =   0
                l(2) =   0
                l(3) =   1
                l(4) =   1
     Q(r) pseudized with  8 coefficients,  rinner =    0.800   0.800   0.800

     PseudoPot. # 3 for N  read from file:
     /storage/coda1/p-amedford6/0/shared/rich_project_chbe-medford/medford-share/data/pseudos_module/espresso/nninc/pbe/van/N.UPF
     MD5 check sum: 90d10febe142ad51ac9d5be1deb811c4
     Pseudo is Ultrasoft, Zval =  5.0
     Generated by new atomic code, or converted to UPF format
     Using radial grid of  729 points,  4 beta functions with:
                l(1) =   0
                l(2) =   0
                l(3) =   1
                l(4) =   1
     Q(r) pseudized with  8 coefficients,  rinner =    0.800   0.800   0.800

     PseudoPot. # 4 for C  read from file:
     /storage/coda1/p-amedford6/0/shared/rich_project_chbe-medford/medford-share/data/pseudos_module/espresso/nninc/pbe/van/C.UPF
     MD5 check sum: 1a69bf6b8db32088f5b2163dbdb77a27
     Pseudo is Ultrasoft, Zval =  4.0
     Generated by new atomic code, or converted to UPF format
     Using radial grid of  721 points,  4 beta functions with:
                l(1) =   0
                l(2) =   0
                l(3) =   1
                l(4) =   1
     Q(r) pseudized with  8 coefficients,  rinner =    0.800   0.800   0.800

     PseudoPot. # 5 for H  read from file:
     /storage/coda1/p-amedford6/0/shared/rich_project_chbe-medford/medford-share/data/pseudos_module/espresso/nninc/pbe/van/H.UPF
     MD5 check sum: b5ee9d7bfd3a09ee7748110bda690ff7
     Pseudo is Ultrasoft, Zval =  1.0
     Generated by new atomic code, or converted to UPF format
     Using radial grid of  615 points,  1 beta functions with:
                l(1) =   0
     Q(r) pseudized with  8 coefficients,  rinner =    0.800

     atomic species   valence    mass     pseudopotential
        Ti1           12.00    47.86700     Ti( 1.00)
        O1             6.00    15.99900     O ( 1.00)
        N1             5.00    14.00700     N ( 1.00)
        C1             4.00    12.01100     C ( 1.00)
        H1             1.00     1.00800     H ( 1.00)

     No symmetry found

   Cartesian axes

     site n.     atom                  positions (alat units)
         1           Ti1 tau(   1) = (   0.0004258   2.9801865   6.0000000  )
         2           Ti1 tau(   2) = (   3.2906075   1.4906267   6.0002472  )
         3           O1  tau(   3) = (   0.0006271   0.0005054   7.9858123  )
         4           O1  tau(   4) = (   3.2906025   0.0005020   7.3038282  )
         5           O1  tau(   5) = (   4.5942328   1.4918067   9.2879030  )
         6           O1  tau(   6) = (   1.9868534   1.4903216   9.2879459  )
         7           Ti1 tau(   7) = (   3.2907910   2.8959150   9.1758416  )
         8           Ti1 tau(   8) = (   0.0015273   1.4827037   9.2680791  )
         9           O1  tau(   9) = (   3.2935892   5.9488104  11.3374186  )
        10           O1  tau(  10) = (   0.0116148   5.9584955  10.6183126  )
        11           O1  tau(  11) = (   1.2908913   1.5070562  12.6495475  )
        12           O1  tau(  12) = (   5.3136790   1.4931969  12.6373367  )
        13           Ti1 tau(  13) = (   0.0127878   2.8868139  12.6015941  )
        14           Ti1 tau(  14) = (   3.2987545   1.3040885  12.7026746  )
        15           O1  tau(  15) = (   0.0175227   0.0240941  14.6538407  )
        16           O1  tau(  16) = (   3.3064676   0.0741613  13.9771881  )
        17           O1  tau(  17) = (   4.5827780   1.5498142  16.1449436  )
        18           O1  tau(  18) = (   2.0366442   1.5898792  16.0867183  )
        19           Ti1 tau(  19) = (   3.3102262   3.0030951  15.6784192  )
        20           Ti1 tau(  20) = (   0.0574396   1.3488835  16.0050117  )
        21           O1  tau(  21) = (   3.2904802   0.0005063   4.7018136  )
        22           O1  tau(  22) = (   0.0721820   0.0083530  17.1768217  )
        23           O1  tau(  23) = (   1.3043587   1.4918075   6.0039043  )
        24           O1  tau(  24) = (   5.2767064   1.4903225   6.0039473  )
        25           Ti1 tau(  25) = (   0.0000382   5.9609847   6.0000000  )
        26           Ti1 tau(  26) = (   3.2902200   4.4714249   6.0002472  )
        27           O1  tau(  27) = (   0.0002396   2.9813036   7.9858123  )
        28           O1  tau(  28) = (   3.2902150   2.9813002   7.3038282  )
        29           O1  tau(  29) = (   4.5938453   4.4726049   9.2879030  )
        30           O1  tau(  30) = (   1.9864658   4.4711199   9.2879459  )
        31           Ti1 tau(  31) = (   3.2891106   5.8743827   9.1763621  )
        32           Ti1 tau(  32) = (   0.0006254   4.4649316   9.2693709  )
        33           O1  tau(  33) = (   3.2934580   3.0155445  11.2926531  )
        34           O1  tau(  34) = (   0.0092240   2.9805883  10.6323155  )
        35           O1  tau(  35) = (   1.2931599   4.4792858  12.6478595  )
        36           O1  tau(  36) = (   5.3056662   4.4876152  12.6363886  )
        37           Ti1 tau(  37) = (   6.5746511   5.8741161  12.5153022  )
        38           Ti1 tau(  38) = (   3.2863760   4.3878630  12.4273393  )
        39           O1  tau(  39) = (   6.5684735   3.0099032  14.7382625  )
        40           O1  tau(  40) = (   3.3273571   2.9915841  13.8999870  )
        41           O1  tau(  41) = (   4.5754576   4.4629145  16.1269992  )
        42           O1  tau(  42) = (   2.0375947   4.4358961  16.0236521  )
        43           Ti1 tau(  43) = (   3.3857405   0.0156461  16.2930207  )
        44           Ti1 tau(  44) = (   0.0840152   4.5257857  15.8004899  )
        45           O1  tau(  45) = (   3.2900926   2.9813045   4.7018136  )
        46           O1  tau(  46) = (   1.3039711   4.4726057   6.0039043  )
        47           O1  tau(  47) = (   5.2763189   4.4711207   6.0039473  )
        48           N1  tau(  48) = (   6.4876325   3.2951735  18.6921505  )
        49           N1  tau(  49) = (   0.0139976   3.0420413  17.5569154  )
        50           C1  tau(  50) = (   6.3059459   3.6199554  19.9036174  )
        51           H1  tau(  51) = (   5.2963100   3.8231348  20.2372398  )
        52           H1  tau(  52) = (   0.5840524   3.7151184  20.5547593  )
        53           O1  tau(  53) = (   3.0958724   5.9363815  18.1230642  )
        54           H1  tau(  54) = (   2.1709728   0.0855973  18.3648350  )

     number of k points=    10  Fermi-Dirac smearing, width (Ry)=  0.0073
                       cart. coord. in units 2pi/alat
        k(    1) = (   0.0000000   0.0000000   0.0000000), wk =   0.1250000
        k(    2) = (   0.0000000   0.0419351   0.0000000), wk =   0.2500000
        k(    3) = (   0.0000000  -0.0838702   0.0000000), wk =   0.1250000
        k(    4) = (   0.0379955   0.0000049   0.0000000), wk =   0.2500000
        k(    5) = (   0.0379955   0.0419400   0.0000000), wk =   0.2500000
        k(    6) = (   0.0379955  -0.0838652   0.0000000), wk =   0.2500000
        k(    7) = (   0.0379955  -0.0419301   0.0000000), wk =   0.2500000
        k(    8) = (  -0.0759910  -0.0000099   0.0000000), wk =   0.1250000
        k(    9) = (  -0.0759910   0.0419252   0.0000000), wk =   0.2500000
        k(   10) = (  -0.0759910  -0.0838800   0.0000000), wk =   0.1250000

     Initial potential from superposition of free atoms

     starting charge  384.99916, renormalised to  401.00000

     negative rho (up, down):  1.407E-02 0.000E+00

     %%%%%%%%%%%%%%%%%%%%%%%%%%%%%%%%%%%%%%%%%%%%%%%%%%%%%%%%%%%%%%%%%%%%%%%%
     %                                                                      %
     % You are using vdW-DF, which was implemented by the Thonhauser group. %
     % Please cite the following two papers that made this development      %
     % possible and the two reviews that describe the various versions:     %
     %                                                                      %
     %   T. Thonhauser et al., PRL 115, 136402 (2015).                      %
     %   T. Thonhauser et al., PRB 76, 125112 (2007).                       %
     %   K. Berland et al., Rep. Prog. Phys. 78, 066501 (2015).             %
     %   D.C. Langreth et al., J. Phys.: Condens. Matter 21, 084203 (2009). %
     %                                                                      %
     %                                                                      %
     % If you are calculating the stress with vdW-DF, please also cite:     %
     %                                                                      %
     %   R. Sabatini et al., J. Phys.: Condens. Matter 24, 424209 (2012).   %
     %                                                                      %
     %%%%%%%%%%%%%%%%%%%%%%%%%%%%%%%%%%%%%%%%%%%%%%%%%%%%%%%%%%%%%%%%%%%%%%%%

     Adding external electric field

     Computed dipole along edir(3) :
        Dipole              -11.8206 Ry au,        -30.0448 Debye
        Dipole field         -0.0223 Ry au,

        Potential amp.        2.0678 Ry
        Total length         46.3494 bohr

     Starting wfcs are  303 atomic wfcs
  @ DRIVER MODE: Message from server: STATUS
  @ DRIVER MODE: Message from server: POSDATA
  @ DRIVER MODE: Reading and sharing cell
  @ DRIVER MODE: Reading and sharing positions
  @ DRIVER MODE: Received positions

     Self-consistent Calculation

     iteration #  1     ecut=    29.40 Ry     beta= 0.05
     Davidson diagonalization with overlap
     c_bands:  3 eigenvalues not converged
     c_bands:  4 eigenvalues not converged
     c_bands:  1 eigenvalues not converged
     c_bands:  4 eigenvalues not converged
     c_bands:  4 eigenvalues not converged
     c_bands:  1 eigenvalues not converged
     c_bands:  2 eigenvalues not converged
     ethr =  1.00E-05,  avg # of iterations = 22.9

[...]

     total energy              =   -2411.65809495 Ry
     estimated scf accuracy    <    6295.50682424 Ry

     iteration #  2     ecut=    29.40 Ry     beta= 0.05
     Davidson diagonalization with overlap
     ethr =  1.00E-02,  avg # of iterations = 22.0

[...]

     iteration # 44     ecut=    29.40 Ry     beta= 0.05
     Davidson diagonalization with overlap
     c_bands:  1 eigenvalues not converged
     c_bands:  1 eigenvalues not converged
     c_bands:  1 eigenvalues not converged
     c_bands:  1 eigenvalues not converged
     ethr =  1.31E-06,  avg # of iterations = 15.3

[...]

     total energy              =   -2971.49141839 Ry
     estimated scf accuracy    <       0.00000008 Ry

     iteration # 70     ecut=    29.40 Ry     beta= 0.05
     Davidson diagonalization with overlap
     ethr =  2.11E-11,  avg # of iterations =  7.7

     negative rho (up, down):  1.460E-02 0.000E+00

     Adding external electric field

     Computed dipole along edir(3) :
        Dipole                1.0649 Ry au,          2.7067 Debye
        Dipole field          0.0020 Ry au,

        Potential amp.       -0.1863 Ry
        Total length         46.3494 bohr

     End of self-consistent calculation

          k = 0.0000 0.0000 0.0000 ( 18029 PWs)   bands (ev):

   -55.6927 -55.6587 -55.4776 -55.4774 -55.4435 -55.3347 -55.3172 -55.2829
   -55.2819 -55.2260 -55.1799 -55.0947 -55.0877 -54.9823 -54.6002 -54.5662
   -32.1666 -31.9880 -31.9860 -31.9299 -31.8453 -31.8180 -31.8125 -31.7949
   -31.7892 -31.7559 -31.7511 -31.7504 -31.7141 -31.6967 -31.6841 -31.6513
   -31.6484 -31.6121 -31.5850 -31.5796 -31.5764 -31.5525 -31.5431 -31.5395
   -31.4952 -31.4875 -31.4823 -31.4714 -31.4582 -31.4443 -31.4413 -31.4259
   -31.4252 -31.3681 -31.3642 -31.3620 -31.2939 -31.2828 -31.2581 -31.2315
   -31.2063 -31.1929 -31.0032 -30.9245 -30.9017 -30.8212 -30.7353 -30.6233
   -20.7434 -16.2994 -16.1740 -15.9695 -15.7908 -15.6395 -15.5865 -15.4461
   -15.3751 -15.2753 -15.1947 -15.0954 -15.0751 -15.0348 -14.9986 -14.9967
   -14.9691 -14.9369 -14.9361 -14.9124 -14.8960 -14.8488 -14.7886 -14.7716
   -14.7270 -14.6995 -14.6470 -14.6431 -14.6190 -14.5167 -14.2493 -14.2328
   -13.0983 -12.9833  -7.4035  -6.0927  -5.6768  -5.0457  -3.7865  -3.5806
    -3.5061  -3.3573  -3.2783  -3.2017  -3.0745  -2.9870  -2.9092  -2.7488
    -2.6634  -2.6360  -2.5852  -2.5291  -2.4637  -2.4373  -2.3964  -2.3734
    -2.2948  -2.2533  -2.2309  -2.2095  -2.1553  -2.1262  -2.0906  -2.0060
    -1.9767  -1.9421  -1.8680  -1.8591  -1.8342  -1.8256  -1.7835  -1.7652
    -1.7520  -1.7318  -1.5971  -1.5885  -1.5107  -1.4726  -1.3248  -1.2014
    -1.1363  -1.0670  -1.0522  -0.9702  -0.9344  -0.8531  -0.8353  -0.8049
    -0.7687  -0.7010  -0.6362  -0.6140  -0.5679  -0.5316  -0.3968  -0.3741
    -0.3275  -0.3202  -0.2999  -0.2331  -0.1653  -0.0849  -0.0705  -0.0069
     0.0133   0.0972   0.1782   0.1855   0.2354   0.2582   0.3128   0.3355
     0.3544   0.3871   0.4177   0.4863   0.5494   0.5972   0.6029   0.6358
     0.7029   0.7702   0.8103   0.8435   0.9940   1.0244   1.0384   1.1278
     1.1387   1.2467   1.4043   1.4258   1.6298   1.6313   1.9858   2.0282
     3.4538   3.5839   3.6177   3.6916   3.7770   3.9051   3.9136   4.0409
     4.1600   4.1656

[...]

          k = 0.0380-0.0419 0.0000 ( 17876 PWs)   bands (ev):

[...]

          k =-0.0760-0.0000 0.0000 ( 17886 PWs)   bands (ev):

[...]

          k =-0.0760-0.0839 0.0000 ( 17948 PWs)   bands (ev):

   -55.6761 -55.6751 -55.4768 -55.4616 -55.4590 -55.3284 -55.3036 -55.2953
   -55.2891 -55.2266 -55.1764 -55.0982 -55.0851 -54.9848 -54.5837 -54.5826
   -31.9824 -31.9819 -31.9722 -31.9714 -31.7967 -31.7955 -31.7830 -31.7774
   -31.7448 -31.7245 -31.6962 -31.6891 -31.6858 -31.6692 -31.6547 -31.6502
   -31.6324 -31.6186 -31.6175 -31.6123 -31.5945 -31.5529 -31.5479 -31.5257
   -31.5244 -31.5186 -31.5146 -31.5138 -31.5057 -31.4876 -31.4661 -31.4563
   -31.4296 -31.3885 -31.3750 -31.3543 -31.3401 -31.3276 -31.2972 -31.2869
   -31.2380 -31.1964 -30.9148 -30.9141 -30.8172 -30.8159 -30.7787 -30.7778
   -20.7423 -16.2782 -15.6180 -15.5507 -15.5296 -15.5210 -15.4064 -15.3737
   -15.2419 -15.2405 -15.2176 -15.1587 -15.1482 -15.1175 -15.1093 -15.0849
   -15.0511 -15.0268 -15.0032 -14.9729 -14.9625 -14.9194 -14.8925 -14.8890
   -14.8753 -14.8267 -14.7397 -14.6548 -14.6417 -14.5769 -14.4921 -14.3692
   -13.0858 -13.0852  -7.4042  -6.0962  -5.6795  -5.0233  -3.7610  -3.1089
    -2.8972  -2.7497  -2.7232  -2.5949  -2.5764  -2.4821  -2.4740  -2.4307
    -2.4171  -2.3774  -2.3504  -2.3332  -2.2908  -2.2733  -2.2581  -2.2538
    -2.2355  -2.2050  -2.1965  -2.1924  -2.1833  -2.1534  -2.1256  -2.1114
    -2.0949  -2.0490  -2.0219  -1.9228  -1.8176  -1.7925  -1.7194  -1.7144
    -1.7122  -1.6999  -1.6775  -1.6536  -1.5690  -1.4791  -1.4406  -1.3851
    -1.2102  -1.1956  -1.1735  -1.1517  -1.0949  -1.0462  -1.0185  -0.9667
    -0.9546  -0.9304  -0.8565  -0.7945  -0.7217  -0.7011  -0.6324  -0.5841
    -0.5669  -0.4763  -0.4627  -0.4301  -0.3891  -0.3752  -0.3460  -0.2923
    -0.2773  -0.2583  -0.2293  -0.1900  -0.1560   0.0130   0.1481   0.2119
     0.2283   0.2652   0.3193   0.3865   0.4094   0.5915   0.6053   0.6093
     0.6483   0.7073   0.7330   0.7500   0.8433   0.9571   0.9837   1.0209
     1.0470   1.0663   1.1470   1.2065   1.7967   1.8049   1.8478   1.8485
     3.4552   3.9907   4.0097   4.0112   4.0122   4.1070   4.1313   4.1396
     4.2043   4.2619

     the Fermi energy is     3.4481 ev

!    total energy              =   -2971.49144038 Ry
     estimated scf accuracy    <       0.00000005 Ry
     smearing contrib. (-TS)   =      -0.01886715 Ry
     internal energy E=F+TS    =   -2971.47257322 Ry

     The total energy is F=E-TS. E is the sum of the following terms:
     one-electron contribution =  -23618.29151462 Ry
     hartree contribution      =   11902.98435073 Ry
     xc contribution           =    -492.37549352 Ry
     ewald contribution        =    9236.20794410 Ry
     electric field correction =       0.00214009 Ry

     convergence has been achieved in  70 iterations

     Forces acting on atoms (cartesian axes, Ry/au):

     atom    1 type  1   force =     0.00000867   -0.00039663    0.09766500
     atom    2 type  1   force =    -0.00003905    0.00022359   -0.17212843
     atom    3 type  2   force =     0.00005173   -0.00005109   -0.02536055
     atom    4 type  2   force =     0.00001535   -0.00144652    0.04760880
     atom    5 type  2   force =    -0.00617484   -0.00239879   -0.00084015
     atom    6 type  2   force =     0.00779675   -0.00181621   -0.00150419
     atom    7 type  1   force =    -0.00008900   -0.00483979    0.01885433
     atom    8 type  1   force =     0.00022852    0.01221442    0.02698249
     atom    9 type  2   force =    -0.00010415   -0.00015025   -0.00007082
     atom   10 type  2   force =    -0.00111813    0.00132246   -0.02500469
     atom   11 type  2   force =     0.00017097   -0.00004104    0.00007590
     atom   12 type  2   force =     0.00002907   -0.00004289    0.00000437
     atom   13 type  1   force =     0.00035178   -0.00020271   -0.00014257
     atom   14 type  1   force =     0.00005266   -0.00003392   -0.00024486
     atom   15 type  2   force =    -0.00031243   -0.00019532   -0.00032423
     atom   16 type  2   force =    -0.00003233   -0.00015522   -0.00017359
     atom   17 type  2   force =    -0.00026756   -0.00023341    0.00017465
     atom   18 type  2   force =     0.00005873   -0.00003772   -0.00031488
     atom   19 type  1   force =    -0.00042354   -0.00001980   -0.00037093
     atom   20 type  1   force =     0.00000888   -0.00031944    0.00023712
     atom   21 type  2   force =     0.00005724    0.00008759    0.10224172
     atom   22 type  2   force =    -0.00013878    0.00009791   -0.00041954
     atom   23 type  2   force =    -0.07351944   -0.00016127   -0.02810467
     atom   24 type  2   force =     0.07343784    0.00028223   -0.02817814
     atom   25 type  1   force =     0.00013823   -0.00033681    0.09746512
     atom   26 type  1   force =    -0.00003817   -0.00131050   -0.17226484
     atom   27 type  2   force =     0.00009392   -0.00030474   -0.02399519
     atom   28 type  2   force =     0.00004199    0.00030976    0.04323628
     atom   29 type  2   force =    -0.00506635    0.00403280   -0.00276564
     atom   30 type  2   force =     0.00657597    0.00442207   -0.00332172
     atom   31 type  1   force =     0.00000932    0.00580473    0.00687534
     atom   32 type  1   force =     0.00028798   -0.01518960    0.02657121
     atom   33 type  2   force =     0.00038272   -0.00004579    0.00013819
     atom   34 type  2   force =    -0.00138549    0.00099923   -0.02674578
     atom   35 type  2   force =     0.00039564    0.00005748    0.00004215
     atom   36 type  2   force =    -0.00030833   -0.00005712   -0.00007174
     atom   37 type  1   force =     0.00010178   -0.00052880   -0.00007121
     atom   38 type  1   force =     0.00023812    0.00006652    0.00010454
     atom   39 type  2   force =    -0.00016664   -0.00017672   -0.00012444
     atom   40 type  2   force =     0.00007197    0.00002126   -0.00015610
     atom   41 type  2   force =    -0.00029245    0.00025324    0.00006463
     atom   42 type  2   force =    -0.00027301   -0.00026322   -0.00029468
     atom   43 type  1   force =    -0.00080383    0.00020313    0.00035882
     atom   44 type  1   force =    -0.00006756    0.00048608    0.00021316
     atom   45 type  2   force =     0.00004898   -0.00008409    0.10203163
     atom   46 type  2   force =    -0.07355728   -0.00007958   -0.02814091
     atom   47 type  2   force =     0.07346422    0.00036110   -0.02818843
     atom   48 type  3   force =    -0.00064757    0.00028682    0.00028801
     atom   49 type  3   force =    -0.00011717   -0.00028830   -0.00023135
     atom   50 type  4   force =    -0.00029925   -0.00027190   -0.00017954
     atom   51 type  5   force =    -0.00002059   -0.00008750    0.00013884
     atom   52 type  5   force =    -0.00017442   -0.00002960   -0.00001093
     atom   53 type  2   force =     0.01929687   -0.00140596   -0.00596888
     atom   54 type  5   force =    -0.01797854    0.00146981    0.00434129

     Total force =     0.365998     Total SCF correction =     0.000559
  @ DRIVER MODE: Message from server: STATUS
  @ DRIVER MODE: Message from server: GETFORCE
  @ DRIVER MODE: Returning v,forces,stress,ensemble

     Writing output data file ./calc.save/
  @ DRIVER MODE: Message from server: EXIT
  @ DRIVE MODE: Exiting

     General routines

     Parallel routines

   This run was terminated on:  23:25:47  23Sep2021

   JOB DONE.