     Program PWSCF v.6.7GPU starts on 16Sep2021 at 10:39:59

     R & G space division:  proc/nbgrp/npool/nimage =      10
     Reading input from /storage/home/hcoda1/3/ntian30/research/carbon/CxH_vib/H2O_calc/ads_slab/CH3NH2NHH2O_c/out_0053/pw.inp
Warning: card &CELL ignored
Warning: card   CELL_DYNAMICS='IPI', ignored
Warning: card / ignored

     Current dimensions of program PWSCF are:
     Max number of different atomic species (ntypx) = 10
     Max number of k-points (npk) =  40000
     Max angular momentum in pseudopotentials (lmaxx) =  3
     Presently no symmetry can be used with electric field

     Message from routine cell_base_init:
     DEPRECATED: use true lattice parameter, not A to a.u. conversion factor

     IMPORTANT: XC functional enforced from input :
     Exchange-correlation= BEEF-VDW
                           (   1   4  43  14   2   0   0)
     Any further DFT definition will be discarded
     Please, verify this is what you really want

  @ DRIVER MODE: Connecting to
 qe_1139763_2852614.sched-torque.pace.gatech.educzz5xgmv_scratch
  using UNIX socket
  @ DRIVER MODE: Message from server: STATUS
  @ DRIVER MODE: Message from server: INIT
  @ DRIVER MODE: Receiving replica           0          -1
  @ DRIVER MODE: Receiving encoded integer          25
  @ DRIVER MODE:  SCF:  T  FORCE:  T  STRESS:  F  VC:  F  ENSEMBLE:  F
  @ DRIVER MODE:  SCF:  T  FORCE:  T  STRESS:  F  VC:  F  ENSEMBLE:  F

     Using Slab Decomposition

     bravais-lattice index     =            0
     lattice parameter (alat)  =       1.8897  a.u.
     unit-cell volume          =    6658.9804 (a.u.)^3
     number of atoms/cell      =           59
     number of atomic types    =            5
     number of electrons       =       406.00
     number of Kohn-Sham states=          213
     kinetic-energy cutoff     =      29.3995  Ry
     charge density cutoff     =     293.9946  Ry
     scf convergence threshold =      7.3E-08
     mixing beta               =       0.0500
     number of iterations used =            8  plain     mixing
     Exchange-correlation= BEEF-VDW
                           (   1   4  43  14   2   0   0)

     celldm(1)=   1.889726  celldm(2)=   0.000000  celldm(3)=   0.000000
     celldm(4)=   0.000000  celldm(5)=   0.000000  celldm(6)=   0.000000

     crystal axes: (cart. coord. in units of alat)
               a(1) = (   6.579727   0.000000   0.000000 )
               a(2) = (  -0.000775   5.961596   0.000000 )
               a(3) = (   0.000000   0.000000  25.155947 )

     reciprocal axes: (cart. coord. in units 2 pi/alat)
               b(1) = (  0.151982  0.000020  0.000000 )
               b(2) = (  0.000000  0.167740  0.000000 )
               b(3) = (  0.000000  0.000000  0.039752 )

     PseudoPot. # 1 for Ti read from file:
     /storage/coda1/p-amedford6/0/shared/rich_project_chbe-medford/medford-share/data/pseudos_module/espresso/nninc/pbe/van/Ti.UPF
     MD5 check sum: 8e4df49b7f0d34bbd5052bf3f5ea0213
     Pseudo is Ultrasoft, Zval = 12.0
     Generated by new atomic code, or converted to UPF format
     Using radial grid of  851 points,  6 beta functions with:
                l(1) =   0
                l(2) =   0
                l(3) =   1
                l(4) =   1
                l(5) =   2
                l(6) =   2
     Q(r) pseudized with  8 coefficients,  rinner =    1.000   1.000   1.000
                                                       1.000   1.000

     PseudoPot. # 2 for O  read from file:
     /storage/coda1/p-amedford6/0/shared/rich_project_chbe-medford/medford-share/data/pseudos_module/espresso/nninc/pbe/van/O.UPF
     MD5 check sum: 78c19812648e8988a0fe644b0f25305e
     Pseudo is Ultrasoft, Zval =  6.0
     Generated by new atomic code, or converted to UPF format
     Using radial grid of  737 points,  4 beta functions with:
                l(1) =   0
                l(2) =   0
                l(3) =   1
                l(4) =   1
     Q(r) pseudized with  8 coefficients,  rinner =    0.800   0.800   0.800

     PseudoPot. # 3 for N  read from file:
     /storage/coda1/p-amedford6/0/shared/rich_project_chbe-medford/medford-share/data/pseudos_module/espresso/nninc/pbe/van/N.UPF
     MD5 check sum: 90d10febe142ad51ac9d5be1deb811c4
     Pseudo is Ultrasoft, Zval =  5.0
     Generated by new atomic code, or converted to UPF format
     Using radial grid of  729 points,  4 beta functions with:
                l(1) =   0
                l(2) =   0
                l(3) =   1
                l(4) =   1
     Q(r) pseudized with  8 coefficients,  rinner =    0.800   0.800   0.800

     PseudoPot. # 4 for C  read from file:
     /storage/coda1/p-amedford6/0/shared/rich_project_chbe-medford/medford-share/data/pseudos_module/espresso/nninc/pbe/van/C.UPF
     MD5 check sum: 1a69bf6b8db32088f5b2163dbdb77a27
     Pseudo is Ultrasoft, Zval =  4.0
     Generated by new atomic code, or converted to UPF format
     Using radial grid of  721 points,  4 beta functions with:
                l(1) =   0
                l(2) =   0
                l(3) =   1
                l(4) =   1
     Q(r) pseudized with  8 coefficients,  rinner =    0.800   0.800   0.800

     PseudoPot. # 5 for H  read from file:
     /storage/coda1/p-amedford6/0/shared/rich_project_chbe-medford/medford-share/data/pseudos_module/espresso/nninc/pbe/van/H.UPF
     MD5 check sum: b5ee9d7bfd3a09ee7748110bda690ff7
     Pseudo is Ultrasoft, Zval =  1.0
     Generated by new atomic code, or converted to UPF format
     Using radial grid of  615 points,  1 beta functions with:
                l(1) =   0
     Q(r) pseudized with  8 coefficients,  rinner =    0.800

     atomic species   valence    mass     pseudopotential
        Ti1           12.00    47.86700     Ti( 1.00)
        O1             6.00    15.99900     O ( 1.00)
        N1             5.00    14.00700     N ( 1.00)
        C1             4.00    12.01100     C ( 1.00)
        H1             1.00     1.00800     H ( 1.00)

     No symmetry found

   Cartesian axes

     site n.     atom                  positions (alat units)
         1           Ti1 tau(   1) = (   0.0004258   2.9801865   6.0000000  )
         2           Ti1 tau(   2) = (   3.2906075   1.4906267   6.0002472  )
         3           O1  tau(   3) = (   0.0006271   0.0005054   7.9858123  )
         4           O1  tau(   4) = (   3.2906025   0.0005020   7.3038282  )
         5           O1  tau(   5) = (   4.5942328   1.4918067   9.2879030  )
         6           O1  tau(   6) = (   1.9868534   1.4903216   9.2879459  )
         7           Ti1 tau(   7) = (   3.2907910   2.8959150   9.1758416  )
         8           Ti1 tau(   8) = (   0.0015273   1.4827037   9.2680791  )
         9           O1  tau(   9) = (   3.2795193   0.0050042  11.3600746  )
        10           O1  tau(  10) = (   0.0116148   5.9584955  10.6183126  )
        11           O1  tau(  11) = (   1.2764768   1.4833402  12.6625751  )
        12           O1  tau(  12) = (   5.2691860   1.4824858  12.6730715  )
        13           Ti1 tau(  13) = (   6.5785005   2.9712200  12.5432933  )
        14           Ti1 tau(  14) = (   3.2815129   1.4861921  12.5133659  )
        15           O1  tau(  15) = (   0.0084525   5.9333602  14.7514412  )
        16           O1  tau(  16) = (   3.2474592   5.9449689  14.0025778  )
        17           O1  tau(  17) = (   4.5272503   1.5270814  16.0535473  )
        18           O1  tau(  18) = (   2.0088677   1.5398698  16.1918835  )
        19           Ti1 tau(  19) = (   3.2695027   3.0127370  15.7044713  )
        20           Ti1 tau(  20) = (   6.4897317   1.5391078  15.7731133  )
        21           O1  tau(  21) = (   3.2904802   0.0005063   4.7018136  )
        22           O1  tau(  22) = (   6.4943121   0.0104379  17.3746616  )
        23           O1  tau(  23) = (   1.3043587   1.4918075   6.0039043  )
        24           O1  tau(  24) = (   5.2767064   1.4903225   6.0039473  )
        25           Ti1 tau(  25) = (   0.0000382   5.9609847   6.0000000  )
        26           Ti1 tau(  26) = (   3.2902200   4.4714249   6.0002472  )
        27           O1  tau(  27) = (   0.0002396   2.9813036   7.9858123  )
        28           O1  tau(  28) = (   3.2902150   2.9813002   7.3038282  )
        29           O1  tau(  29) = (   4.5938453   4.4726049   9.2879030  )
        30           O1  tau(  30) = (   1.9864658   4.4711199   9.2879459  )
        31           Ti1 tau(  31) = (   3.2891106   5.8743827   9.1763621  )
        32           Ti1 tau(  32) = (   0.0006254   4.4649316   9.2693709  )
        33           O1  tau(  33) = (   3.2806081   2.9711243  11.3509633  )
        34           O1  tau(  34) = (   0.0092240   2.9805883  10.6323155  )
        35           O1  tau(  35) = (   1.2760424   4.4718827  12.6381679  )
        36           O1  tau(  36) = (   5.2690016   4.4731519  12.6446470  )
        37           Ti1 tau(  37) = (   6.5708669   5.9382087  12.5160675  )
        38           Ti1 tau(  38) = (   3.2845625   4.4656782  12.4980923  )
        39           O1  tau(  39) = (   6.5779858   3.0049062  14.7590937  )
        40           O1  tau(  40) = (   3.2501146   3.0001303  13.9242794  )
        41           O1  tau(  41) = (   4.5300198   4.4412671  16.1793791  )
        42           O1  tau(  42) = (   2.0030354   4.4482434  16.2507355  )
        43           Ti1 tau(  43) = (   3.2558399   0.0045369  15.7947069  )
        44           Ti1 tau(  44) = (   0.0024851   4.6597080  16.1671864  )
        45           O1  tau(  45) = (   3.2900926   2.9813045   4.7018136  )
        46           O1  tau(  46) = (   1.3039711   4.4726057   6.0039043  )
        47           O1  tau(  47) = (   5.2763189   4.4711207   6.0039473  )
        48           N1  tau(  48) = (   0.8610865   2.3037131  18.4629187  )
        49           N1  tau(  49) = (   6.4642385   2.8627238  17.5618644  )
        50           C1  tau(  50) = (   1.1134797   3.0572184  19.7121060  )
        51           H1  tau(  51) = (   0.2160447   3.0254214  20.3281890  )
        52           H1  tau(  52) = (   1.9467850   2.5864873  20.2353232  )
        53           H1  tau(  53) = (   1.3463996   4.0866186  19.4485780  )
        54           H1  tau(  54) = (   0.5832711   1.3114681  18.6183785  )
        55           H1  tau(  55) = (   5.5643591   2.7461405  18.0238738  )
        56           H1  tau(  56) = (   1.7079168   2.1891883  17.8602682  )
        57           O1  tau(  57) = (   4.0734316   0.3075885  18.7765601  )
        58           H1  tau(  58) = (   4.9241673   0.1787741  18.2816895  )
        59           H1  tau(  59) = (   3.8734322   5.3936830  19.1372508  )

     number of k points=    10  Fermi-Dirac smearing, width (Ry)=  0.0073
                       cart. coord. in units 2pi/alat
        k(    1) = (   0.0000000   0.0000000   0.0000000), wk =   0.1250000
        k(    2) = (   0.0000000   0.0419351   0.0000000), wk =   0.2500000
        k(    3) = (   0.0000000  -0.0838702   0.0000000), wk =   0.1250000
        k(    4) = (   0.0379955   0.0000049   0.0000000), wk =   0.2500000
        k(    5) = (   0.0379955   0.0419400   0.0000000), wk =   0.2500000
        k(    6) = (   0.0379955  -0.0838652   0.0000000), wk =   0.2500000
        k(    7) = (   0.0379955  -0.0419301   0.0000000), wk =   0.2500000
        k(    8) = (  -0.0759910  -0.0000099   0.0000000), wk =   0.1250000
        k(    9) = (  -0.0759910   0.0419252   0.0000000), wk =   0.2500000
        k(   10) = (  -0.0759910  -0.0838800   0.0000000), wk =   0.1250000

     Initial potential from superposition of free atoms

     starting charge  389.99912, renormalised to  406.00000

     negative rho (up, down):  1.392E-02 0.000E+00

     %%%%%%%%%%%%%%%%%%%%%%%%%%%%%%%%%%%%%%%%%%%%%%%%%%%%%%%%%%%%%%%%%%%%%%%%
     %                                                                      %
     % You are using vdW-DF, which was implemented by the Thonhauser group. %
     % Please cite the following two papers that made this development      %
     % possible and the two reviews that describe the various versions:     %
     %                                                                      %
     %   T. Thonhauser et al., PRL 115, 136402 (2015).                      %
     %   T. Thonhauser et al., PRB 76, 125112 (2007).                       %
     %   K. Berland et al., Rep. Prog. Phys. 78, 066501 (2015).             %
     %   D.C. Langreth et al., J. Phys.: Condens. Matter 21, 084203 (2009). %
     %                                                                      %
     %                                                                      %
     % If you are calculating the stress with vdW-DF, please also cite:     %
     %                                                                      %
     %   R. Sabatini et al., J. Phys.: Condens. Matter 24, 424209 (2012).   %
     %                                                                      %
     %%%%%%%%%%%%%%%%%%%%%%%%%%%%%%%%%%%%%%%%%%%%%%%%%%%%%%%%%%%%%%%%%%%%%%%%

     Adding external electric field

     Computed dipole along edir(3) :
        Dipole              -15.6801 Ry au,        -39.8548 Debye
        Dipole field         -0.0296 Ry au,

        Potential amp.        2.7430 Ry
        Total length         46.3494 bohr

     Starting wfcs are  308 atomic wfcs
  @ DRIVER MODE: Message from server: STATUS
  @ DRIVER MODE: Message from server: POSDATA
  @ DRIVER MODE: Reading and sharing cell
  @ DRIVER MODE: Reading and sharing positions
  @ DRIVER MODE: Received positions

     Self-consistent Calculation

     iteration #  1     ecut=    29.40 Ry     beta= 0.05
     Davidson diagonalization with overlap
     c_bands:  2 eigenvalues not converged
     c_bands:  5 eigenvalues not converged
     c_bands:  2 eigenvalues not converged
     c_bands:  4 eigenvalues not converged
     c_bands:  4 eigenvalues not converged
     c_bands:  5 eigenvalues not converged
     c_bands:  5 eigenvalues not converged
     c_bands:  1 eigenvalues not converged
     ethr =  1.00E-05,  avg # of iterations = 22.5

[...]

     total energy              =   -2140.14990883 Ry
     estimated scf accuracy    <    9575.38746514 Ry

     iteration #  2     ecut=    29.40 Ry     beta= 0.05
     Davidson diagonalization with overlap
     ethr =  1.00E-02,  avg # of iterations = 32.0

[...]

     iteration # 62     ecut=    29.40 Ry     beta= 0.05
     Davidson diagonalization with overlap
     c_bands:  2 eigenvalues not converged
     ethr =  1.60E-10,  avg # of iterations = 11.8

[...]

     total energy              =   -2977.68485624 Ry
     estimated scf accuracy    <       0.00000017 Ry

     iteration # 65     ecut=    29.40 Ry     beta= 0.05
     Davidson diagonalization with overlap
     ethr =  4.21E-11,  avg # of iterations =  9.2

     negative rho (up, down):  1.249E-02 0.000E+00

     Adding external electric field

     Computed dipole along edir(3) :
        Dipole                1.6091 Ry au,          4.0899 Debye
        Dipole field          0.0030 Ry au,

        Potential amp.       -0.2815 Ry
        Total length         46.3494 bohr

     End of self-consistent calculation

          k = 0.0000 0.0000 0.0000 ( 18029 PWs)   bands (ev):

   -54.9546 -54.9182 -54.9153 -54.8841 -54.8445 -54.8344 -54.7942 -54.7628
   -54.7575 -54.7474 -54.7277 -54.7225 -54.7142 -54.6601 -53.9332 -53.8992
   -31.5266 -31.4083 -31.3210 -31.2824 -31.2650 -31.2523 -31.2497 -31.2445
   -31.2100 -31.2080 -31.1634 -31.1631 -31.1579 -31.1273 -31.1087 -31.0888
   -31.0782 -31.0725 -31.0712 -31.0640 -31.0298 -31.0250 -31.0184 -31.0129
   -30.9932 -30.9752 -30.9647 -30.9635 -30.9562 -30.9557 -30.9456 -30.9370
   -30.9211 -30.9207 -30.9121 -30.9100 -30.8847 -30.8783 -30.8763 -30.8754
   -30.8569 -30.8563 -30.3420 -30.2495 -30.2273 -30.1585 -30.0717 -29.9608
   -18.9404 -18.2073 -15.7902 -15.5230 -15.3977 -15.1968 -15.1437 -15.0389
   -14.8788 -14.8182 -14.7531 -14.7296 -14.7267 -14.6957 -14.6231 -14.5675
   -14.5383 -14.4861 -14.4856 -14.4494 -14.4424 -14.4389 -14.3827 -14.3790
   -14.3424 -14.3287 -14.3210 -14.1779 -14.0995 -14.0509 -14.0407 -13.1851
   -12.4362 -12.3191 -10.9644  -7.5688  -6.3841  -5.9711  -5.7457  -4.0044
    -3.8351  -3.1338  -2.9625  -2.9508  -2.8734  -2.8497  -2.6788  -2.6188
    -2.5085  -2.3919  -2.3185  -2.2213  -2.1775  -2.1592  -2.1455  -2.0315
    -1.9464  -1.9096  -1.8696  -1.8317  -1.8142  -1.7687  -1.7475  -1.7376
    -1.7048  -1.6802  -1.5262  -1.4513  -1.4147  -1.3811  -1.3410  -1.2839
    -1.2619  -1.2457  -1.2404  -1.2324  -1.2160  -1.1933  -1.1555  -1.1242
    -1.0556  -0.9713  -0.9625  -0.8511  -0.7685  -0.6340  -0.5812  -0.5234
    -0.4929  -0.4267  -0.3853  -0.3371  -0.3009  -0.2946  -0.2478  -0.1611
    -0.1474  -0.0910  -0.0725   0.0126   0.0597   0.0647   0.0756   0.2516
     0.2624   0.2803   0.3821   0.4623   0.5029   0.5193   0.5769   0.6395
     0.6419   0.6798   0.7019   0.7327   0.8158   0.9191   0.9442   0.9828
     0.9970   1.0226   1.0395   1.0664   1.1059   1.1871   1.1930   1.2703
     1.3642   1.3747   1.6366   1.6689   1.9997   2.0265   2.0890   2.2748
     2.6635   2.7109   4.1473   4.2092   4.2546   4.2800   4.2982   4.3808
     4.4020   4.6150   4.6415   4.6424   4.6517

[...]

          k = 0.0380-0.0419 0.0000 ( 17876 PWs)   bands (ev):

[...]

          k =-0.0760-0.0000 0.0000 ( 17886 PWs)   bands (ev):

[...]

          k =-0.0760-0.0839 0.0000 ( 17948 PWs)   bands (ev):

   -54.9428 -54.9269 -54.9011 -54.9009 -54.8419 -54.8248 -54.8038 -54.7550
   -54.7475 -54.7420 -54.7326 -54.7296 -54.7248 -54.6625 -53.9162 -53.9160
   -31.3354 -31.3239 -31.2582 -31.2235 -31.2233 -31.2171 -31.1935 -31.1934
   -31.1677 -31.1658 -31.1568 -31.1530 -31.1452 -31.0951 -31.0816 -31.0808
   -31.0767 -31.0752 -31.0720 -31.0693 -31.0418 -31.0321 -31.0299 -31.0233
   -31.0224 -31.0205 -31.0204 -31.0192 -30.9983 -30.9810 -30.9749 -30.9676
   -30.9618 -30.9561 -30.9546 -30.9504 -30.9497 -30.9227 -30.9161 -30.9129
   -30.9083 -30.8981 -30.2401 -30.2399 -30.1547 -30.1545 -30.1152 -30.1151
   -18.9353 -18.2079 -15.2810 -15.1541 -15.0549 -15.0008 -14.9525 -14.9374
   -14.9196 -14.8671 -14.8375 -14.7782 -14.7527 -14.7043 -14.6599 -14.6560
   -14.6283 -14.5486 -14.5335 -14.5210 -14.5134 -14.4626 -14.4487 -14.4258
   -14.4032 -14.3991 -14.3806 -14.3080 -14.2985 -14.2943 -14.2541 -13.1943
   -12.4207 -12.4205 -10.9651  -7.5802  -6.3744  -5.9703  -5.7305  -3.9821
    -3.8289  -2.5609  -2.5399  -2.4054  -2.3871  -2.2801  -2.1881  -2.1376
    -2.1319  -1.9929  -1.9601  -1.9449  -1.9291  -1.9167  -1.8680  -1.8456
    -1.8092  -1.7915  -1.7818  -1.7720  -1.7564  -1.7358  -1.6837  -1.6797
    -1.6691  -1.6548  -1.6107  -1.5951  -1.5641  -1.5533  -1.5250  -1.5024
    -1.4363  -1.3409  -1.2937  -1.2522  -1.1955  -1.1431  -1.1372  -1.0588
    -1.0406  -1.0089  -0.9780  -0.9529  -0.8578  -0.7844  -0.6893  -0.6869
    -0.6833  -0.5642  -0.5237  -0.5055  -0.4928  -0.4637  -0.3794  -0.3687
    -0.3087  -0.2346  -0.2079  -0.2033  -0.1778  -0.0579  -0.0325   0.0270
     0.0566   0.0900   0.0921   0.1716   0.1842   0.2440   0.2582   0.2715
     0.3165   0.3341   0.4321   0.5222   0.5583   0.6607   0.7543   0.7830
     0.8775   0.9362   1.0412   1.0614   1.0849   1.1814   1.1899   1.2247
     1.3537   1.3606   1.4765   1.5162   1.5262   1.5288   2.4471   2.4485
     2.5310   2.5311   4.2736   4.3962   4.4120   4.4581   4.5126   4.6538
     4.6773   4.7249   4.7264   4.8037   4.8087

     the Fermi energy is     4.1995 ev

!    total energy              =   -2977.68489503 Ry
     estimated scf accuracy    <       0.00000007 Ry
     smearing contrib. (-TS)   =      -0.03699412 Ry
     internal energy E=F+TS    =   -2977.64790092 Ry

     The total energy is F=E-TS. E is the sum of the following terms:
     one-electron contribution =  -23306.19681100 Ry
     hartree contribution      =   11754.09177843 Ry
     xc contribution           =    -496.60561731 Ry
     ewald contribution        =    9071.05786289 Ry
     electric field correction =       0.00488608 Ry

     convergence has been achieved in  65 iterations

     Forces acting on atoms (cartesian axes, Ry/au):

     atom    1 type  1   force =     0.00008516   -0.00025942    0.09413183
     atom    2 type  1   force =    -0.00008692   -0.00045712   -0.17746607
     atom    3 type  2   force =     0.00006077   -0.00033320   -0.02122097
     atom    4 type  2   force =     0.00003682   -0.00179031    0.05729138
     atom    5 type  2   force =    -0.01079848   -0.00102212    0.00669099
     atom    6 type  2   force =     0.01199656   -0.00033829    0.00504125
     atom    7 type  1   force =    -0.00060545    0.00106627   -0.01460572
     atom    8 type  1   force =     0.00086432    0.00330393    0.00459871
     atom    9 type  2   force =     0.00000819   -0.00005514    0.00013592
     atom   10 type  2   force =    -0.00368687    0.00211224   -0.00164707
     atom   11 type  2   force =    -0.00016732    0.00062305   -0.00008557
     atom   12 type  2   force =     0.00018890    0.00028916   -0.00020858
     atom   13 type  1   force =    -0.00020128   -0.00026707    0.00011685
     atom   14 type  1   force =     0.00025595   -0.00021582   -0.00039713
     atom   15 type  2   force =     0.00024233    0.00039163   -0.00013124
     atom   16 type  2   force =    -0.00014293    0.00027577   -0.00016892
     atom   17 type  2   force =    -0.00013296   -0.00027907    0.00030054
     atom   18 type  2   force =    -0.00009923    0.00036118    0.00044103
     atom   19 type  1   force =     0.00035316    0.00054849   -0.00059064
     atom   20 type  1   force =     0.00005689   -0.00001998   -0.00005539
     atom   21 type  2   force =     0.00011861   -0.00008376    0.10374165
     atom   22 type  2   force =     0.00055883   -0.00035672   -0.00085569
     atom   23 type  2   force =    -0.07065925   -0.00014970   -0.02713950
     atom   24 type  2   force =     0.07062660    0.00031798   -0.02714882
     atom   25 type  1   force =     0.00011079   -0.00017236    0.09374774
     atom   26 type  1   force =    -0.00006468   -0.00053100   -0.17770013
     atom   27 type  2   force =     0.00006916   -0.00004577   -0.02032115
     atom   28 type  2   force =     0.00006659   -0.00146095    0.05629439
     atom   29 type  2   force =    -0.01130251   -0.00040091    0.00737287
     atom   30 type  2   force =     0.01241849   -0.00000345    0.00576496
     atom   31 type  1   force =    -0.00074665    0.00574808   -0.01564551
     atom   32 type  1   force =     0.00081641   -0.00458264    0.00434619
     atom   33 type  2   force =     0.00002060    0.00015323    0.00028900
     atom   34 type  2   force =    -0.00321361   -0.00103241   -0.00519519
     atom   35 type  2   force =    -0.00011407   -0.00039873    0.00008716
     atom   36 type  2   force =     0.00021211   -0.00006962   -0.00008655
     atom   37 type  1   force =    -0.00012597    0.00043980   -0.00010850
     atom   38 type  1   force =     0.00008704    0.00015414   -0.00015335
     atom   39 type  2   force =    -0.00043201   -0.00033144   -0.00017910
     atom   40 type  2   force =     0.00011839   -0.00009854    0.00033593
     atom   41 type  2   force =    -0.00008943    0.00023213   -0.00023018
     atom   42 type  2   force =     0.00042770    0.00003847   -0.00030231
     atom   43 type  1   force =     0.00011457   -0.00034064   -0.00010148
     atom   44 type  1   force =     0.00029882    0.00035020    0.00046611
     atom   45 type  2   force =     0.00010604   -0.00006560    0.10372092
     atom   46 type  2   force =    -0.07065540   -0.00006623   -0.02710708
     atom   47 type  2   force =     0.07062709    0.00033411   -0.02712562
     atom   48 type  3   force =     0.00523455   -0.00108200   -0.00365363
     atom   49 type  3   force =    -0.00108131   -0.00039917    0.00088547
     atom   50 type  4   force =     0.00087581    0.00023926   -0.00088783
     atom   51 type  5   force =     0.00057073    0.00074442   -0.00032772
     atom   52 type  5   force =    -0.00010029    0.00035841    0.00021173
     atom   53 type  5   force =     0.00014194   -0.00052259   -0.00044862
     atom   54 type  5   force =     0.00075069    0.00006037    0.00010888
     atom   55 type  5   force =     0.00017837   -0.00046598   -0.00026939
     atom   56 type  5   force =    -0.00413064   -0.00019167    0.00539404
     atom   57 type  2   force =    -0.00077820    0.00072815    0.00145685
     atom   58 type  5   force =     0.00032516   -0.00063162   -0.00101918
     atom   59 type  5   force =     0.00039131   -0.00034943   -0.00038854

     Total force =     0.365924     Total SCF correction =     0.000592
  @ DRIVER MODE: Message from server: STATUS
  @ DRIVER MODE: Message from server: GETFORCE
  @ DRIVER MODE: Returning v,forces,stress,ensemble

     Writing output data file ./calc.save/
  @ DRIVER MODE: Message from server: EXIT
  @ DRIVE MODE: Exiting

     General routines

     Parallel routines

   This run was terminated on:  10:59: 8  16Sep2021

   JOB DONE.