     Program PWSCF v.6.7GPU starts on 15Sep2021 at 21: 5:33

     R & G space division:  proc/nbgrp/npool/nimage =      10
     Reading input from /storage/home/hcoda1/3/ntian30/research/carbon/CxH_vib/H2O_calc/ads_slab/CH3NHH2O_a/out_0017/pw.inp
Warning: card &CELL ignored
Warning: card   CELL_DYNAMICS='IPI', ignored
Warning: card / ignored

     Current dimensions of program PWSCF are:
     Max number of different atomic species (ntypx) = 10
     Max number of k-points (npk) =  40000
     Max angular momentum in pseudopotentials (lmaxx) =  3
     Presently no symmetry can be used with electric field

     Message from routine cell_base_init:
     DEPRECATED: use true lattice parameter, not A to a.u. conversion factor

     IMPORTANT: XC functional enforced from input :
     Exchange-correlation= BEEF-VDW
                           (   1   4  43  14   2   0   0)
     Any further DFT definition will be discarded
     Please, verify this is what you really want

  @ DRIVER MODE: Connecting to
 qe_1139763_2852633.sched-torque.pace.gatech.eduml6bp3ch_scratch
  using UNIX socket
  @ DRIVER MODE: Message from server: STATUS
  @ DRIVER MODE: Message from server: INIT
  @ DRIVER MODE: Receiving replica           0          -1
  @ DRIVER MODE: Receiving encoded integer          25
  @ DRIVER MODE:  SCF:  T  FORCE:  T  STRESS:  F  VC:  F  ENSEMBLE:  F
  @ DRIVER MODE:  SCF:  T  FORCE:  T  STRESS:  F  VC:  F  ENSEMBLE:  F

     Using Slab Decomposition

     bravais-lattice index     =            0
     lattice parameter (alat)  =       1.8897  a.u.
     unit-cell volume          =    6658.9804 (a.u.)^3
     number of atoms/cell      =           56
     number of atomic types    =            5
     number of electrons       =       399.00
     number of Kohn-Sham states=          209
     kinetic-energy cutoff     =      29.3995  Ry
     charge density cutoff     =     293.9946  Ry
     scf convergence threshold =      7.3E-08
     mixing beta               =       0.0500
     number of iterations used =            8  plain     mixing
     Exchange-correlation= BEEF-VDW
                           (   1   4  43  14   2   0   0)

     celldm(1)=   1.889726  celldm(2)=   0.000000  celldm(3)=   0.000000
     celldm(4)=   0.000000  celldm(5)=   0.000000  celldm(6)=   0.000000

     crystal axes: (cart. coord. in units of alat)
               a(1) = (   6.579727   0.000000   0.000000 )
               a(2) = (  -0.000775   5.961596   0.000000 )
               a(3) = (   0.000000   0.000000  25.155947 )

     reciprocal axes: (cart. coord. in units 2 pi/alat)
               b(1) = (  0.151982  0.000020  0.000000 )
               b(2) = (  0.000000  0.167740  0.000000 )
               b(3) = (  0.000000  0.000000  0.039752 )

     PseudoPot. # 1 for Ti read from file:
     /storage/coda1/p-amedford6/0/shared/rich_project_chbe-medford/medford-share/data/pseudos_module/espresso/nninc/pbe/van/Ti.UPF
     MD5 check sum: 8e4df49b7f0d34bbd5052bf3f5ea0213
     Pseudo is Ultrasoft, Zval = 12.0
     Generated by new atomic code, or converted to UPF format
     Using radial grid of  851 points,  6 beta functions with:
                l(1) =   0
                l(2) =   0
                l(3) =   1
                l(4) =   1
                l(5) =   2
                l(6) =   2
     Q(r) pseudized with  8 coefficients,  rinner =    1.000   1.000   1.000
                                                       1.000   1.000

     PseudoPot. # 2 for O  read from file:
     /storage/coda1/p-amedford6/0/shared/rich_project_chbe-medford/medford-share/data/pseudos_module/espresso/nninc/pbe/van/O.UPF
     MD5 check sum: 78c19812648e8988a0fe644b0f25305e
     Pseudo is Ultrasoft, Zval =  6.0
     Generated by new atomic code, or converted to UPF format
     Using radial grid of  737 points,  4 beta functions with:
                l(1) =   0
                l(2) =   0
                l(3) =   1
                l(4) =   1
     Q(r) pseudized with  8 coefficients,  rinner =    0.800   0.800   0.800

     PseudoPot. # 3 for H  read from file:
     /storage/coda1/p-amedford6/0/shared/rich_project_chbe-medford/medford-share/data/pseudos_module/espresso/nninc/pbe/van/H.UPF
     MD5 check sum: b5ee9d7bfd3a09ee7748110bda690ff7
     Pseudo is Ultrasoft, Zval =  1.0
     Generated by new atomic code, or converted to UPF format
     Using radial grid of  615 points,  1 beta functions with:
                l(1) =   0
     Q(r) pseudized with  8 coefficients,  rinner =    0.800

     PseudoPot. # 4 for N  read from file:
     /storage/coda1/p-amedford6/0/shared/rich_project_chbe-medford/medford-share/data/pseudos_module/espresso/nninc/pbe/van/N.UPF
     MD5 check sum: 90d10febe142ad51ac9d5be1deb811c4
     Pseudo is Ultrasoft, Zval =  5.0
     Generated by new atomic code, or converted to UPF format
     Using radial grid of  729 points,  4 beta functions with:
                l(1) =   0
                l(2) =   0
                l(3) =   1
                l(4) =   1
     Q(r) pseudized with  8 coefficients,  rinner =    0.800   0.800   0.800

     PseudoPot. # 5 for C  read from file:
     /storage/coda1/p-amedford6/0/shared/rich_project_chbe-medford/medford-share/data/pseudos_module/espresso/nninc/pbe/van/C.UPF
     MD5 check sum: 1a69bf6b8db32088f5b2163dbdb77a27
     Pseudo is Ultrasoft, Zval =  4.0
     Generated by new atomic code, or converted to UPF format
     Using radial grid of  721 points,  4 beta functions with:
                l(1) =   0
                l(2) =   0
                l(3) =   1
                l(4) =   1
     Q(r) pseudized with  8 coefficients,  rinner =    0.800   0.800   0.800

     atomic species   valence    mass     pseudopotential
        Ti1           12.00    47.86700     Ti( 1.00)
        O1             6.00    15.99900     O ( 1.00)
        H1             1.00     1.00800     H ( 1.00)
        N1             5.00    14.00700     N ( 1.00)
        C1             4.00    12.01100     C ( 1.00)

     No symmetry found

   Cartesian axes

     site n.     atom                  positions (alat units)
         1           Ti1 tau(   1) = (   0.0004258   2.9801865   6.0000000  )
         2           Ti1 tau(   2) = (   3.2906075   1.4906267   6.0002472  )
         3           O1  tau(   3) = (   0.0006271   0.0005054   7.9858123  )
         4           O1  tau(   4) = (   3.2906025   0.0005020   7.3038282  )
         5           O1  tau(   5) = (   4.5942328   1.4918067   9.2879030  )
         6           O1  tau(   6) = (   1.9868534   1.4903216   9.2879459  )
         7           Ti1 tau(   7) = (   3.2907910   2.8959150   9.1758416  )
         8           Ti1 tau(   8) = (   0.0015273   1.4827037   9.2680791  )
         9           O1  tau(   9) = (   3.2896571   0.0076959  11.3233140  )
        10           O1  tau(  10) = (   0.0116148   5.9584955  10.6183126  )
        11           O1  tau(  11) = (   1.3168077   1.5009220  12.6157425  )
        12           O1  tau(  12) = (   5.2956243   1.4929856  12.6075824  )
        13           Ti1 tau(  13) = (   6.5239244   2.9540340  12.6210794  )
        14           Ti1 tau(  14) = (   3.2085880   1.4976218  12.4699624  )
        15           O1  tau(  15) = (   6.5712616   0.0419518  14.6436513  )
        16           O1  tau(  16) = (   3.3111435   0.0202601  13.9161875  )
        17           O1  tau(  17) = (   4.5291760   1.5523016  16.0784362  )
        18           O1  tau(  18) = (   2.0445308   1.5488630  16.0432715  )
        19           Ti1 tau(  19) = (   3.3059752   3.0257308  15.6838679  )
        20           Ti1 tau(  20) = (   0.0592185   1.5662548  15.8694889  )
        21           O1  tau(  21) = (   3.2904802   0.0005063   4.7018136  )
        22           O1  tau(  22) = (   0.0264932   0.0561689  17.2024660  )
        23           O1  tau(  23) = (   1.3043587   1.4918075   6.0039043  )
        24           O1  tau(  24) = (   5.2767064   1.4903225   6.0039473  )
        25           Ti1 tau(  25) = (   0.0000382   5.9609847   6.0000000  )
        26           Ti1 tau(  26) = (   3.2902200   4.4714249   6.0002472  )
        27           O1  tau(  27) = (   0.0002396   2.9813036   7.9858123  )
        28           O1  tau(  28) = (   3.2902150   2.9813002   7.3038282  )
        29           O1  tau(  29) = (   4.5938453   4.4726049   9.2879030  )
        30           O1  tau(  30) = (   1.9864658   4.4711199   9.2879459  )
        31           Ti1 tau(  31) = (   3.2891106   5.8743827   9.1763621  )
        32           Ti1 tau(  32) = (   0.0006254   4.4649316   9.2693709  )
        33           O1  tau(  33) = (   3.2898653   2.9926188  11.3210358  )
        34           O1  tau(  34) = (   0.0092240   2.9805883  10.6323155  )
        35           O1  tau(  35) = (   1.3106253   4.4883450  12.6271249  )
        36           O1  tau(  36) = (   5.2968722   4.4793810  12.6200386  )
        37           Ti1 tau(  37) = (   6.5212985   5.9329073  12.5685303  )
        38           Ti1 tau(  38) = (   3.2059443   4.4781599  12.4721232  )
        39           O1  tau(  39) = (   6.5764971   2.9600267  14.6431433  )
        40           O1  tau(  40) = (   3.3056941   3.0038382  13.8936370  )
        41           O1  tau(  41) = (   4.5394310   4.5052612  16.0827012  )
        42           O1  tau(  42) = (   2.0570581   4.5113261  16.0718816  )
        43           Ti1 tau(  43) = (   3.3383738   0.0382055  15.7109988  )
        44           Ti1 tau(  44) = (   0.0469139   4.6840235  16.0886640  )
        45           O1  tau(  45) = (   3.2900926   2.9813045   4.7018136  )
        46           O1  tau(  46) = (   1.3039711   4.4726057   6.0039043  )
        47           O1  tau(  47) = (   5.2763189   4.4711207   6.0039473  )
        48           H1  tau(  48) = (   5.6101632   2.9904038  17.7880820  )
        49           N1  tau(  49) = (   6.5649722   3.0046358  17.4438072  )
        50           C1  tau(  50) = (   0.8874553   2.9889031  18.6020612  )
        51           H1  tau(  51) = (   1.3591778   3.9628686  18.7739097  )
        52           H1  tau(  52) = (   0.3310755   2.7322232  19.5165709  )
        53           H1  tau(  53) = (   1.6717793   2.2402645  18.4914768  )
        54           O1  tau(  54) = (   3.2567199   5.9268012  21.6217354  )
        55           H1  tau(  55) = (   4.0245811   5.9269051  22.2091127  )
        56           H1  tau(  56) = (   2.4887544   5.9269923  22.2092946  )

     number of k points=    10  Fermi-Dirac smearing, width (Ry)=  0.0073
                       cart. coord. in units 2pi/alat
        k(    1) = (   0.0000000   0.0000000   0.0000000), wk =   0.1250000
        k(    2) = (   0.0000000   0.0419351   0.0000000), wk =   0.2500000
        k(    3) = (   0.0000000  -0.0838702   0.0000000), wk =   0.1250000
        k(    4) = (   0.0379955   0.0000049   0.0000000), wk =   0.2500000
        k(    5) = (   0.0379955   0.0419400   0.0000000), wk =   0.2500000
        k(    6) = (   0.0379955  -0.0838652   0.0000000), wk =   0.2500000
        k(    7) = (   0.0379955  -0.0419301   0.0000000), wk =   0.2500000
        k(    8) = (  -0.0759910  -0.0000099   0.0000000), wk =   0.1250000
        k(    9) = (  -0.0759910   0.0419252   0.0000000), wk =   0.2500000
        k(   10) = (  -0.0759910  -0.0838800   0.0000000), wk =   0.1250000

     Initial potential from superposition of free atoms

     starting charge  382.99914, renormalised to  399.00000

     negative rho (up, down):  9.627E-03 0.000E+00

     %%%%%%%%%%%%%%%%%%%%%%%%%%%%%%%%%%%%%%%%%%%%%%%%%%%%%%%%%%%%%%%%%%%%%%%%
     %                                                                      %
     % You are using vdW-DF, which was implemented by the Thonhauser group. %
     % Please cite the following two papers that made this development      %
     % possible and the two reviews that describe the various versions:     %
     %                                                                      %
     %   T. Thonhauser et al., PRL 115, 136402 (2015).                      %
     %   T. Thonhauser et al., PRB 76, 125112 (2007).                       %
     %   K. Berland et al., Rep. Prog. Phys. 78, 066501 (2015).             %
     %   D.C. Langreth et al., J. Phys.: Condens. Matter 21, 084203 (2009). %
     %                                                                      %
     %                                                                      %
     % If you are calculating the stress with vdW-DF, please also cite:     %
     %                                                                      %
     %   R. Sabatini et al., J. Phys.: Condens. Matter 24, 424209 (2012).   %
     %                                                                      %
     %%%%%%%%%%%%%%%%%%%%%%%%%%%%%%%%%%%%%%%%%%%%%%%%%%%%%%%%%%%%%%%%%%%%%%%%

     Adding external electric field

     Computed dipole along edir(3) :
        Dipole              -12.5462 Ry au,        -31.8892 Debye
        Dipole field         -0.0237 Ry au,

        Potential amp.        2.1948 Ry
        Total length         46.3494 bohr

     Starting wfcs are  302 atomic wfcs
  @ DRIVER MODE: Message from server: STATUS
  @ DRIVER MODE: Message from server: POSDATA
  @ DRIVER MODE: Reading and sharing cell
  @ DRIVER MODE: Reading and sharing positions
  @ DRIVER MODE: Received positions

     Self-consistent Calculation

     iteration #  1     ecut=    29.40 Ry     beta= 0.05
     Davidson diagonalization with overlap
     c_bands:  2 eigenvalues not converged
     c_bands:  2 eigenvalues not converged
     c_bands:  4 eigenvalues not converged
     c_bands:  3 eigenvalues not converged
     c_bands:  3 eigenvalues not converged
     c_bands:  3 eigenvalues not converged
     c_bands:  5 eigenvalues not converged
     c_bands:  4 eigenvalues not converged
     c_bands:  5 eigenvalues not converged
     ethr =  1.00E-05,  avg # of iterations = 22.0

[...]

     total energy              =   -2445.27434812 Ry
     estimated scf accuracy    <    5721.56087332 Ry

     iteration #  2     ecut=    29.40 Ry     beta= 0.05
     Davidson diagonalization with overlap
     ethr =  1.00E-02,  avg # of iterations = 22.0

[...]

     iteration # 59     ecut=    29.40 Ry     beta= 0.05
     Davidson diagonalization with overlap
     c_bands:  1 eigenvalues not converged
     ethr =  4.49E-11,  avg # of iterations = 12.5

[...]

     total energy              =   -2955.21545659 Ry
     estimated scf accuracy    <       0.00000010 Ry

     iteration # 60     ecut=    29.40 Ry     beta= 0.05
     Davidson diagonalization with overlap
     ethr =  2.43E-11,  avg # of iterations =  9.4

     negative rho (up, down):  1.109E-02 0.000E+00

     Adding external electric field

     Computed dipole along edir(3) :
        Dipole                1.3225 Ry au,          3.3614 Debye
        Dipole field          0.0025 Ry au,

        Potential amp.       -0.2313 Ry
        Total length         46.3494 bohr

     End of self-consistent calculation

          k = 0.0000 0.0000 0.0000 ( 18029 PWs)   bands (ev):

   -55.5000 -55.4911 -55.4659 -55.4551 -55.4106 -55.3416 -55.3384 -55.3043
   -55.3038 -55.2704 -55.2623 -55.2286 -55.0756 -54.7930 -54.4719 -54.4378
   -32.0494 -31.9814 -31.8552 -31.8401 -31.8193 -31.8037 -31.7932 -31.7534
   -31.7413 -31.7412 -31.7145 -31.7068 -31.6735 -31.6521 -31.6435 -31.6407
   -31.6332 -31.6033 -31.5816 -31.5571 -31.5497 -31.5451 -31.5294 -31.5082
   -31.4989 -31.4940 -31.4904 -31.4822 -31.4655 -31.4630 -31.4578 -31.4537
   -31.4398 -31.4345 -31.4157 -31.4112 -31.3750 -31.3396 -31.2453 -31.0669
   -31.0609 -30.9919 -30.8787 -30.7911 -30.7686 -30.6955 -30.6090 -30.4979
   -18.5714 -16.2583 -15.9765 -15.7968 -15.6539 -15.6216 -15.5336 -15.3357
   -15.2101 -15.1948 -15.0905 -15.0584 -15.0340 -15.0272 -14.9988 -14.9951
   -14.9402 -14.9325 -14.9238 -14.9108 -14.8518 -14.8277 -14.7872 -14.6964
   -14.6723 -14.6568 -14.6294 -14.5468 -14.5412 -14.0992 -13.6789 -12.9745
   -12.8582  -8.4555  -6.3747  -3.9272  -3.6286  -3.4549  -3.4196  -3.4022
    -3.3514  -3.1013  -3.0836  -2.8531  -2.7313  -2.7014  -2.6841  -2.6721
    -2.6535  -2.6356  -2.4058  -2.3978  -2.3305  -2.3142  -2.2919  -2.2840
    -2.2776  -2.2680  -2.2647  -2.2201  -2.1642  -2.0445  -2.0323  -1.9268
    -1.8833  -1.8596  -1.8091  -1.7641  -1.7586  -1.7478  -1.7284  -1.7183
    -1.6945  -1.6770  -1.5419  -1.4785  -1.3468  -1.3005  -1.2927  -1.0994
    -1.0612  -0.9686  -0.9418  -0.9259  -0.9177  -0.8856  -0.8037  -0.7121
    -0.6582  -0.6445  -0.5924  -0.5129  -0.4994  -0.3898  -0.3889  -0.3844
    -0.3200  -0.2685  -0.2585  -0.2498  -0.2039  -0.1266  -0.0582   0.0147
     0.0672   0.0889   0.1155   0.1941   0.2231   0.3178   0.3396   0.3852
     0.3909   0.4372   0.4791   0.4879   0.4935   0.5095   0.5287   0.6765
     0.7844   0.8404   0.8739   0.8846   1.0413   1.0770   1.1648   1.2518
     1.4773   1.5499   1.6448   1.7431   1.8004   2.1207   2.1661   3.6433
     3.7223   3.7762   3.7853   3.8807   3.8882   4.0929   4.1021   4.1131
     4.1852

[...]

          k = 0.0380-0.0419 0.0000 ( 17876 PWs)   bands (ev):

[...]

          k =-0.0760-0.0000 0.0000 ( 17886 PWs)   bands (ev):

[...]

          k =-0.0760-0.0839 0.0000 ( 17948 PWs)   bands (ev):

   -55.4833 -55.4825 -55.4732 -55.4728 -55.4059 -55.3461 -55.3232 -55.3189
   -55.2880 -55.2862 -55.2459 -55.2452 -55.0746 -54.7938 -54.4549 -54.4547
   -31.8537 -31.8519 -31.7969 -31.7964 -31.7871 -31.7789 -31.7781 -31.7626
   -31.7034 -31.7010 -31.6945 -31.6907 -31.6697 -31.6372 -31.6203 -31.6170
   -31.6089 -31.6047 -31.6026 -31.6019 -31.5992 -31.5862 -31.5839 -31.5518
   -31.5417 -31.5403 -31.5155 -31.5012 -31.4843 -31.4839 -31.4785 -31.4781
   -31.4612 -31.4610 -31.4605 -31.4570 -31.4077 -31.3423 -31.2405 -31.1297
   -31.0632 -31.0169 -30.7814 -30.7813 -30.6915 -30.6914 -30.6523 -30.6523
   -18.5713 -15.7094 -15.6771 -15.4388 -15.4329 -15.4229 -15.4083 -15.2667
   -15.2122 -15.2034 -15.1965 -15.1708 -15.1492 -15.0970 -15.0704 -15.0322
   -15.0265 -15.0210 -15.0182 -14.9561 -14.9502 -14.9290 -14.9216 -14.8077
   -14.8049 -14.8036 -14.7321 -14.6626 -14.5270 -14.2673 -13.7013 -12.9602
   -12.9600  -8.4594  -6.3762  -3.9382  -3.0030  -2.9654  -2.8252  -2.7363
    -2.6797  -2.6657  -2.6490  -2.5714  -2.4107  -2.4023  -2.3938  -2.3769
    -2.3621  -2.3251  -2.3185  -2.3061  -2.2937  -2.2863  -2.2680  -2.2320
    -2.1935  -2.1653  -2.1575  -2.1479  -2.1237  -2.1114  -2.0855  -2.0802
    -2.0460  -2.0380  -2.0222  -1.9978  -1.7462  -1.7183  -1.6989  -1.6284
    -1.6212  -1.5886  -1.5809  -1.5609  -1.5478  -1.4946  -1.3950  -1.2296
    -1.1964  -1.1828  -1.1654  -1.1007  -1.0815  -0.9327  -0.9058  -0.8875
    -0.8482  -0.7989  -0.7688  -0.7294  -0.6928  -0.6580  -0.5956  -0.5874
    -0.5076  -0.4587  -0.4581  -0.4312  -0.4087  -0.3616  -0.2826  -0.2641
    -0.2534  -0.2114  -0.1978  -0.1172  -0.0944   0.0033   0.0178   0.0889
     0.1187   0.1879   0.3904   0.4854   0.5447   0.5699   0.6233   0.7185
     0.7733   0.7870   0.8206   0.8258   0.8869   0.9282   1.0426   1.0496
     1.1172   1.2194   1.7457   1.9144   1.9151   1.9858   1.9860   3.9043
     3.9108   3.9619   3.9906   4.1430   4.1477   4.1703   4.1713   4.2913
     4.3108

     the Fermi energy is     3.6362 ev

!    total energy              =   -2955.21550134 Ry
     estimated scf accuracy    <       0.00000003 Ry
     smearing contrib. (-TS)   =      -0.02205374 Ry
     internal energy E=F+TS    =   -2955.19344760 Ry

     The total energy is F=E-TS. E is the sum of the following terms:
     one-electron contribution =  -23381.83691044 Ry
     hartree contribution      =   11782.78161757 Ry
     xc contribution           =    -489.67975079 Ry
     ewald contribution        =    9133.53829558 Ry
     electric field correction =       0.00330046 Ry

     convergence has been achieved in  60 iterations

     Forces acting on atoms (cartesian axes, Ry/au):

     atom    1 type  1   force =     0.00012880   -0.00020031    0.09689009
     atom    2 type  1   force =     0.00003968   -0.00047264   -0.17493842
     atom    3 type  2   force =     0.00012976    0.00001473   -0.02539722
     atom    4 type  2   force =    -0.00003110   -0.00126494    0.05223022
     atom    5 type  2   force =    -0.01215280    0.00000768    0.00288847
     atom    6 type  2   force =     0.01360306    0.00055164    0.00225896
     atom    7 type  1   force =     0.00059194    0.00032008   -0.01253775
     atom    8 type  1   force =     0.00044183    0.00706595    0.03084495
     atom    9 type  2   force =     0.00032426    0.00016059    0.00046006
     atom   10 type  2   force =    -0.00271636    0.00207364   -0.01690378
     atom   11 type  2   force =     0.00018706   -0.00036476    0.00012726
     atom   12 type  2   force =     0.00005919   -0.00036031    0.00022686
     atom   13 type  1   force =    -0.00019600    0.00036403   -0.00000237
     atom   14 type  1   force =    -0.00011756    0.00033676   -0.00033397
     atom   15 type  2   force =    -0.00002518   -0.00031556   -0.00002849
     atom   16 type  2   force =     0.00014718    0.00037769    0.00127439
     atom   17 type  2   force =    -0.00024708   -0.00033224    0.00031597
     atom   18 type  2   force =     0.00030378   -0.00034829   -0.00004997
     atom   19 type  1   force =     0.00017949   -0.00038598    0.00044479
     atom   20 type  1   force =    -0.00055615    0.00010514    0.00004039
     atom   21 type  2   force =     0.00005918   -0.00002078    0.10300148
     atom   22 type  2   force =     0.00015494   -0.00076960    0.00023500
     atom   23 type  2   force =    -0.07167278   -0.00016082   -0.02783182
     atom   24 type  2   force =     0.07156863    0.00033853   -0.02788867
     atom   25 type  1   force =     0.00008355   -0.00016806    0.09667673
     atom   26 type  1   force =     0.00009587   -0.00023492   -0.17505137
     atom   27 type  2   force =     0.00011813   -0.00010959   -0.02446163
     atom   28 type  2   force =     0.00003918   -0.00101602    0.05206776
     atom   29 type  2   force =    -0.01234564    0.00067143    0.00265505
     atom   30 type  2   force =     0.01366697    0.00105996    0.00203576
     atom   31 type  1   force =     0.00049515    0.00307767   -0.01334165
     atom   32 type  1   force =     0.00030832   -0.00927846    0.03127839
     atom   33 type  2   force =    -0.00012525    0.00016043    0.00079588
     atom   34 type  2   force =    -0.00202719    0.00179095   -0.02553325
     atom   35 type  2   force =     0.00027515    0.00018919    0.00035931
     atom   36 type  2   force =     0.00021499    0.00010405    0.00034554
     atom   37 type  1   force =    -0.00026172   -0.00064038    0.00015445
     atom   38 type  1   force =    -0.00007946    0.00002505   -0.00020573
     atom   39 type  2   force =     0.00005364   -0.00081724    0.00024431
     atom   40 type  2   force =     0.00024665    0.00003292   -0.00010921
     atom   41 type  2   force =    -0.00037359    0.00007037   -0.00002469
     atom   42 type  2   force =     0.00034657   -0.00012437   -0.00040436
     atom   43 type  1   force =    -0.00036617    0.00049495   -0.00069305
     atom   44 type  1   force =    -0.00046715   -0.00045447    0.00093149
     atom   45 type  2   force =     0.00003937   -0.00004591    0.10304053
     atom   46 type  2   force =    -0.07166659   -0.00005673   -0.02782593
     atom   47 type  2   force =     0.07158630    0.00036155   -0.02789738
     atom   48 type  3   force =     0.00059309   -0.00041789    0.00011193
     atom   49 type  4   force =    -0.00289199   -0.00046392   -0.00570549
     atom   50 type  5   force =    -0.00221631    0.00000544    0.01831836
     atom   51 type  3   force =    -0.00084875   -0.00134257   -0.00138508
     atom   52 type  3   force =     0.00455173    0.00105800   -0.00828467
     atom   53 type  3   force =     0.00125806   -0.00059199   -0.00190061
     atom   54 type  2   force =    -0.00067099   -0.00006610   -0.00030129
     atom   55 type  3   force =    -0.00058119   -0.00001695   -0.00045356
     atom   56 type  3   force =     0.00074545    0.00002335   -0.00076298

     Total force =     0.368889     Total SCF correction =     0.000465
  @ DRIVER MODE: Message from server: STATUS
  @ DRIVER MODE: Message from server: GETFORCE
  @ DRIVER MODE: Returning v,forces,stress,ensemble

     Writing output data file ./calc.save/
  @ DRIVER MODE: Message from server: EXIT
  @ DRIVE MODE: Exiting

     General routines

     Parallel routines

   This run was terminated on:  21:21:54  15Sep2021

   JOB DONE.