     Program PWSCF v.6.7GPU starts on 18Oct2021 at 18:59: 2

     R & G space division:  proc/nbgrp/npool/nimage =       8
     Reading input from /storage/home/hcoda1/3/ntian30/research/carbon/CxH_vib/Thiel_calc/ads_slab/NH2NH2_perslab/out_0017/pw.inp
Warning: card &CELL ignored
Warning: card   CELL_DYNAMICS='IPI', ignored
Warning: card / ignored

     Current dimensions of program PWSCF are:
     Max number of different atomic species (ntypx) = 10
     Max number of k-points (npk) =  40000
     Max angular momentum in pseudopotentials (lmaxx) =  3
     Presently no symmetry can be used with electric field

     Message from routine cell_base_init:
     DEPRECATED: use true lattice parameter, not A to a.u. conversion factor

     IMPORTANT: XC functional enforced from input :
     Exchange-correlation= BEEF-VDW
                           (   1   4  43  14   2   0   0)
     Any further DFT definition will be discarded
     Please, verify this is what you really want

  @ DRIVER MODE: Connecting to
 qe_1139763_3255136.sched-torque.pace.gatech.edu2fdqmlat_scratch
  using UNIX socket
  @ DRIVER MODE: Message from server: STATUS
  @ DRIVER MODE: Message from server: INIT
  @ DRIVER MODE: Receiving replica           0          -1
  @ DRIVER MODE: Receiving encoded integer          25
  @ DRIVER MODE:  SCF:  T  FORCE:  T  STRESS:  F  VC:  F  ENSEMBLE:  F
  @ DRIVER MODE:  SCF:  T  FORCE:  T  STRESS:  F  VC:  F  ENSEMBLE:  F

     Using Slab Decomposition

     bravais-lattice index     =            0
     lattice parameter (alat)  =       1.8897  a.u.
     unit-cell volume          =    9988.4706 (a.u.)^3
     number of atoms/cell      =           59
     number of atomic types    =            4
     number of electrons       =       440.00
     number of Kohn-Sham states=          230
     kinetic-energy cutoff     =      29.3995  Ry
     charge density cutoff     =     293.9946  Ry
     scf convergence threshold =      7.3E-08
     mixing beta               =       0.0500
     number of iterations used =            8  plain     mixing
     Exchange-correlation= BEEF-VDW
                           (   1   4  43  14   2   0   0)

     celldm(1)=   1.889726  celldm(2)=   0.000000  celldm(3)=   0.000000
     celldm(4)=   0.000000  celldm(5)=   0.000000  celldm(6)=   0.000000

     crystal axes: (cart. coord. in units of alat)
               a(1) = (   6.579727   0.000000   0.000000 )
               a(2) = (  -0.001163   8.942395   0.000000 )
               a(3) = (   0.000000   0.000000  25.155947 )

     reciprocal axes: (cart. coord. in units 2 pi/alat)
               b(1) = (  0.151982  0.000020  0.000000 )
               b(2) = (  0.000000  0.111827  0.000000 )
               b(3) = (  0.000000  0.000000  0.039752 )

     PseudoPot. # 1 for O  read from file:
     /storage/coda1/p-amedford6/0/shared/rich_project_chbe-medford/medford-share/data/pseudos_module/espresso/nninc/pbe/van/O.UPF
     MD5 check sum: 78c19812648e8988a0fe644b0f25305e
     Pseudo is Ultrasoft, Zval =  6.0
     Generated by new atomic code, or converted to UPF format
     Using radial grid of  737 points,  4 beta functions with:
                l(1) =   0
                l(2) =   0
                l(3) =   1
                l(4) =   1
     Q(r) pseudized with  8 coefficients,  rinner =    0.800   0.800   0.800

     PseudoPot. # 2 for Ti read from file:
     /storage/coda1/p-amedford6/0/shared/rich_project_chbe-medford/medford-share/data/pseudos_module/espresso/nninc/pbe/van/Ti.UPF
     MD5 check sum: 8e4df49b7f0d34bbd5052bf3f5ea0213
     Pseudo is Ultrasoft, Zval = 12.0
     Generated by new atomic code, or converted to UPF format
     Using radial grid of  851 points,  6 beta functions with:
                l(1) =   0
                l(2) =   0
                l(3) =   1
                l(4) =   1
                l(5) =   2
                l(6) =   2
     Q(r) pseudized with  8 coefficients,  rinner =    1.000   1.000   1.000
                                                       1.000   1.000

     PseudoPot. # 3 for N  read from file:
     /storage/coda1/p-amedford6/0/shared/rich_project_chbe-medford/medford-share/data/pseudos_module/espresso/nninc/pbe/van/N.UPF
     MD5 check sum: 90d10febe142ad51ac9d5be1deb811c4
     Pseudo is Ultrasoft, Zval =  5.0
     Generated by new atomic code, or converted to UPF format
     Using radial grid of  729 points,  4 beta functions with:
                l(1) =   0
                l(2) =   0
                l(3) =   1
                l(4) =   1
     Q(r) pseudized with  8 coefficients,  rinner =    0.800   0.800   0.800

     PseudoPot. # 4 for H  read from file:
     /storage/coda1/p-amedford6/0/shared/rich_project_chbe-medford/medford-share/data/pseudos_module/espresso/nninc/pbe/van/H.UPF
     MD5 check sum: b5ee9d7bfd3a09ee7748110bda690ff7
     Pseudo is Ultrasoft, Zval =  1.0
     Generated by new atomic code, or converted to UPF format
     Using radial grid of  615 points,  1 beta functions with:
                l(1) =   0
     Q(r) pseudized with  8 coefficients,  rinner =    0.800

     atomic species   valence    mass     pseudopotential
        O1             6.00    15.99900     O ( 1.00)
        Ti1           12.00    47.86700     Ti( 1.00)
        N1             5.00    14.00700     N ( 1.00)
        H1             1.00     1.00800     H ( 1.00)

     No symmetry found

   Cartesian axes

     site n.     atom                  positions (alat units)
         1           O1  tau(   1) = (   0.0007354   0.0005023  10.5931620  )
         2           O1  tau(   2) = (   3.2892726   8.9022636  13.7900476  )
         3           O1  tau(   3) = (  -0.0000012   0.0159539  17.0845323  )
         4           O1  tau(   4) = (   0.0006271   0.0005054   7.9858123  )
         5           O1  tau(   5) = (   3.2903981   0.0001071  11.1466942  )
         6           O1  tau(   6) = (   6.5796972   0.0370899  14.4522764  )
         7           O1  tau(   7) = (   1.9868534   1.4903216   9.2879459  )
         8           O1  tau(   8) = (   5.2071659   1.5879261  12.5336177  )
         9           O1  tau(   9) = (   2.0150580   1.5800225  15.9505780  )
        10           Ti1 tau(  10) = (   0.0007404   1.4906270   9.2895810  )
        11           Ti1 tau(  11) = (   3.2907621   1.2831726  12.4565622  )
        12           Ti1 tau(  12) = (   6.5792216   1.1939559  15.8009323  )
        13           O1  tau(  13) = (   4.5942328   1.4918067   9.2879030  )
        14           O1  tau(  14) = (   1.3733293   1.5875306  12.5337771  )
        15           O1  tau(  15) = (   4.5635363   1.5794237  15.9511286  )
        16           Ti1 tau(  16) = (   3.2902859   2.9801868   9.2893338  )
        17           Ti1 tau(  17) = (   0.0006963   2.7899128  12.4910476  )
        18           Ti1 tau(  18) = (   3.2889055   2.8853182  15.6510148  )
        19           O1  tau(  19) = (   0.0003479   2.9813005  10.5931620  )
        20           O1  tau(  20) = (   3.2901137   2.9323735  13.8075185  )
        21           O1  tau(  21) = (   0.0002396   2.9813036   7.9858123  )
        22           O1  tau(  22) = (   3.2901566   2.9796509  11.1657827  )
        23           O1  tau(  23) = (  -0.0001005   3.0518452  14.6148139  )
        24           O1  tau(  24) = (   1.9864658   4.4711199   9.2879459  )
        25           O1  tau(  25) = (   5.2244327   4.5330399  12.5550231  )
        26           O1  tau(  26) = (   2.0317078   4.4891842  16.0144209  )
        27           Ti1 tau(  27) = (   0.0003529   4.4714252   9.2895810  )
        28           Ti1 tau(  28) = (   3.2908221   4.3047718  12.5439168  )
        29           Ti1 tau(  29) = (   0.0007318   4.2809743  15.9563396  )
        30           O1  tau(  30) = (   4.5938453   4.4726049   9.2879030  )
        31           O1  tau(  31) = (   1.3553747   4.5324408  12.5551093  )
        32           O1  tau(  32) = (   4.5484712   4.4888783  16.0159471  )
        33           Ti1 tau(  33) = (   3.2898983   5.9609850   9.2893338  )
        34           Ti1 tau(  34) = (   0.0004637   5.7541984  12.5654138  )
        35           Ti1 tau(  35) = (   3.2913524   5.8154114  16.2798070  )
        36           O1  tau(  36) = (  -0.0000397   5.9620987  10.5931620  )
        37           O1  tau(  37) = (   3.2897947   5.8994426  13.7907643  )
        38           O1  tau(  38) = (   0.0001798   5.9238570  17.1594641  )
        39           O1  tau(  39) = (  -0.0001480   5.9621018   7.9858123  )
        40           O1  tau(  40) = (   3.2896433   5.9245955  11.1661191  )
        41           O1  tau(  41) = (   0.0000838   5.9808129  14.5563373  )
        42           O1  tau(  42) = (   1.9860782   7.4519181   9.2879459  )
        43           O1  tau(  43) = (   5.2244350   7.5051086  12.5363475  )
        44           O1  tau(  44) = (   2.0177701   7.5673364  15.9764862  )
        45           Ti1 tau(  45) = (  -0.0000347   7.4522234   9.2895810  )
        46           Ti1 tau(  46) = (   3.2896674   7.1828241  12.5854878  )
        47           Ti1 tau(  47) = (   0.0003403   7.2137487  16.0183084  )
        48           O1  tau(  48) = (   4.5934577   7.4534031   9.2879030  )
        49           O1  tau(  49) = (   1.3543201   7.5047529  12.5365769  )
        50           O1  tau(  50) = (   4.5609347   7.5656990  15.9757490  )
        51           Ti1 tau(  51) = (   3.2895107   8.9417832   9.2893338  )
        52           Ti1 tau(  52) = (  -0.0005834   8.7067995  12.4790564  )
        53           Ti1 tau(  53) = (   3.2900135   8.8028796  15.6464995  )
        54           N1  tau(  54) = (   3.2900669   5.9334594  18.1702238  )
        55           H1  tau(  55) = (   3.2900466   5.1481598  18.8081281  )
        56           H1  tau(  56) = (   3.2872703   6.8047138  18.6763891  )
        57           N1  tau(  57) = (   0.0002662   3.1405291  17.5522950  )
        58           H1  tau(  58) = (   0.0007553   2.2326612  18.0099153  )
        59           H1  tau(  59) = (   6.5771877   3.8386968  18.2941669  )

     number of k points=    10  Fermi-Dirac smearing, width (Ry)=  0.0073
                       cart. coord. in units 2pi/alat
        k(    1) = (   0.0000000   0.0000000   0.0000000), wk =   0.1250000
        k(    2) = (   0.0000000   0.0279567   0.0000000), wk =   0.2500000
        k(    3) = (   0.0000000  -0.0559134   0.0000000), wk =   0.1250000
        k(    4) = (   0.0379955   0.0000049   0.0000000), wk =   0.2500000
        k(    5) = (   0.0379955   0.0279617   0.0000000), wk =   0.2500000
        k(    6) = (   0.0379955  -0.0559085   0.0000000), wk =   0.2500000
        k(    7) = (   0.0379955  -0.0279518   0.0000000), wk =   0.2500000
        k(    8) = (  -0.0759910  -0.0000099   0.0000000), wk =   0.1250000
        k(    9) = (  -0.0759910   0.0279468   0.0000000), wk =   0.2500000
        k(   10) = (  -0.0759910  -0.0559233   0.0000000), wk =   0.1250000

     Initial potential from superposition of free atoms

     starting charge  421.99910, renormalised to  440.00000

     negative rho (up, down):  3.742E-02 0.000E+00

     %%%%%%%%%%%%%%%%%%%%%%%%%%%%%%%%%%%%%%%%%%%%%%%%%%%%%%%%%%%%%%%%%%%%%%%%
     %                                                                      %
     % You are using vdW-DF, which was implemented by the Thonhauser group. %
     % Please cite the following two papers that made this development      %
     % possible and the two reviews that describe the various versions:     %
     %                                                                      %
     %   T. Thonhauser et al., PRL 115, 136402 (2015).                      %
     %   T. Thonhauser et al., PRB 76, 125112 (2007).                       %
     %   K. Berland et al., Rep. Prog. Phys. 78, 066501 (2015).             %
     %   D.C. Langreth et al., J. Phys.: Condens. Matter 21, 084203 (2009). %
     %                                                                      %
     %                                                                      %
     % If you are calculating the stress with vdW-DF, please also cite:     %
     %                                                                      %
     %   R. Sabatini et al., J. Phys.: Condens. Matter 24, 424209 (2012).   %
     %                                                                      %
     %%%%%%%%%%%%%%%%%%%%%%%%%%%%%%%%%%%%%%%%%%%%%%%%%%%%%%%%%%%%%%%%%%%%%%%%

     Adding external electric field

     Computed dipole along edir(3) :
        Dipole               -3.9759 Ry au,        -10.1058 Debye
        Dipole field         -0.0050 Ry au,

        Potential amp.        0.4637 Ry
        Total length         46.3494 bohr

     Starting wfcs are  332 atomic wfcs
  @ DRIVER MODE: Message from server: STATUS
  @ DRIVER MODE: Message from server: POSDATA
  @ DRIVER MODE: Reading and sharing cell
  @ DRIVER MODE: Reading and sharing positions
  @ DRIVER MODE: Received positions

     Self-consistent Calculation

     iteration #  1     ecut=    29.40 Ry     beta= 0.05
     Davidson diagonalization with overlap
     c_bands:  1 eigenvalues not converged
     c_bands:  2 eigenvalues not converged
     c_bands:  3 eigenvalues not converged
     c_bands:  4 eigenvalues not converged
     c_bands:  1 eigenvalues not converged
     c_bands:  3 eigenvalues not converged
     c_bands:  3 eigenvalues not converged
     c_bands:  3 eigenvalues not converged
     c_bands:  1 eigenvalues not converged
     ethr =  1.00E-05,  avg # of iterations = 19.2

[...]

     total energy              =   -3293.79877529 Ry
     estimated scf accuracy    <      28.12679935 Ry

     iteration #  2     ecut=    29.40 Ry     beta= 0.05
     Davidson diagonalization with overlap
     ethr =  6.39E-03,  avg # of iterations =  1.5

[...]

     iteration # 22     ecut=    29.40 Ry     beta= 0.05
     Davidson diagonalization with overlap
     c_bands:  1 eigenvalues not converged
     ethr =  3.29E-07,  avg # of iterations = 10.8

[...]

     total energy              =   -3293.29544664 Ry
     estimated scf accuracy    <       0.00000012 Ry

     iteration # 45     ecut=    29.40 Ry     beta= 0.05
     Davidson diagonalization with overlap
     ethr =  1.98E-11,  avg # of iterations =  5.0

     negative rho (up, down):  3.611E-02 0.000E+00

     Adding external electric field

     Computed dipole along edir(3) :
        Dipole                0.9478 Ry au,          2.4092 Debye
        Dipole field          0.0012 Ry au,

        Potential amp.       -0.1105 Ry
        Total length         46.3494 bohr

     End of self-consistent calculation

          k = 0.0000 0.0000 0.0000 ( 26871 PWs)   bands (ev):

   -58.4706 -58.4471 -58.4412 -58.4034 -58.3584 -58.0062 -57.9675 -57.9638
   -57.8801 -57.7604 -57.6873 -57.5716 -57.4763 -57.2245 -57.1436 -57.0736
   -57.0334 -57.0205 -34.8712 -34.8358 -34.8086 -34.7922 -34.7888 -34.7824
   -34.7336 -34.6732 -34.6461 -34.5953 -34.5828 -34.5802 -34.5745 -34.5526
   -34.5075 -34.4081 -34.3722 -34.3469 -34.3234 -34.3184 -34.2744 -34.2414
   -34.2297 -34.2252 -34.1902 -34.1876 -34.1548 -34.0577 -34.0464 -33.9879
   -33.9843 -33.9539 -33.8997 -33.8842 -33.8647 -33.8042 -33.7395 -33.7274
   -33.6858 -33.6730 -33.5830 -33.4623 -33.4489 -33.4179 -33.4164 -33.3813
   -33.3755 -33.3711 -33.3560 -33.3458 -33.2775 -33.2130 -33.1919 -33.0719
   -19.0229 -18.5598 -18.5010 -18.3514 -18.3025 -18.2822 -18.2759 -18.1252
   -17.9086 -17.8632 -17.8489 -17.8277 -17.7450 -17.7247 -17.7088 -17.6867
   -17.6718 -17.6510 -17.5622 -17.5572 -17.5358 -17.5110 -17.4913 -17.4368
   -17.3772 -17.3555 -17.2675 -17.1927 -17.1524 -16.9296 -16.6723 -16.5930
   -15.5393 -15.4981 -15.4897 -15.2750 -15.1635  -6.7545  -6.6307  -6.3577
    -6.1635  -5.9512  -5.8152  -5.6975  -5.6441  -5.5629  -5.4969  -5.4593
    -5.4572  -5.3965  -5.3497  -5.2557  -5.2495  -5.1575  -5.1080  -5.0916
    -5.0623  -5.0136  -4.9674  -4.9216  -4.9064  -4.8454  -4.8016  -4.7914
    -4.7418  -4.6801  -4.6761  -4.6560  -4.6539  -4.6196  -4.5855  -4.4646
    -4.4614  -4.4161  -4.3528  -4.3012  -4.2642  -4.2237  -4.1905  -4.1899
    -4.1734  -4.1263  -4.0930  -3.9187  -3.8677  -3.8308  -3.7986  -3.7193
    -3.6508  -3.5955  -3.5604  -3.5169  -3.4289  -3.3600  -3.3524  -3.3436
    -3.2772  -3.2339  -3.1965  -3.1649  -3.1465  -3.0835  -3.0309  -3.0306
    -2.9890  -2.9726  -2.9584  -2.9128  -2.8581  -2.8343  -2.8319  -2.7928
    -2.7860  -2.7437  -2.6457  -2.6169  -2.5565  -2.5180  -2.4633  -2.4155
    -2.4093  -2.3746  -2.3372  -2.2688  -2.1767  -2.1264  -1.9957  -1.9908
    -1.9131  -1.9028  -1.8363  -1.8079  -1.7916  -1.7447  -1.7173  -1.6033
    -1.5277  -1.4089  -1.1952  -0.9911  -0.8457  -0.7660  -0.7514  -0.7075
    -0.5684  -0.5494  -0.4640  -0.4527   0.8053   0.9409   1.1006   1.1185
     1.3184   1.4472   1.4652   1.5077   1.5646   1.7135

[...]

          k = 0.0380-0.0280 0.0000 ( 26873 PWs)   bands (ev):

[...]

          k =-0.0760-0.0000 0.0000 ( 26902 PWs)   bands (ev):

[...]

          k =-0.0760-0.0559 0.0000 ( 26868 PWs)   bands (ev):

   -58.4648 -58.4586 -58.4354 -58.4032 -58.3585 -58.0060 -57.9676 -57.9638
   -57.8799 -57.7606 -57.6871 -57.5716 -57.4762 -57.2246 -57.1435 -57.0723
   -57.0374 -57.0178 -34.8992 -34.8836 -34.8394 -34.8110 -34.7797 -34.6890
   -34.6725 -34.6242 -34.6177 -34.6056 -34.6032 -34.5919 -34.5775 -34.5559
   -34.5546 -34.4362 -34.3800 -34.3601 -34.3454 -34.3252 -34.2567 -34.2239
   -34.2202 -34.1899 -34.1809 -34.1651 -34.1186 -34.0657 -34.0577 -34.0315
   -33.9917 -33.9741 -33.9043 -33.8985 -33.8772 -33.7891 -33.7393 -33.7054
   -33.6839 -33.6590 -33.5710 -33.4822 -33.4528 -33.4516 -33.4195 -33.4173
   -33.3865 -33.3679 -33.3664 -33.2693 -33.2345 -33.1836 -33.1817 -33.1528
   -18.8097 -18.6612 -18.4157 -18.3170 -18.1539 -18.1066 -18.0536 -18.0432
   -18.0375 -17.9418 -17.9244 -17.8799 -17.8736 -17.8235 -17.7989 -17.7873
   -17.7802 -17.7484 -17.6813 -17.6248 -17.5395 -17.4474 -17.4350 -17.4192
   -17.4125 -17.3332 -17.2351 -17.1893 -17.1523 -16.9525 -16.6819 -16.5549
   -15.5510 -15.5380 -15.4284 -15.2701 -15.1644  -6.7473  -6.6447  -6.1216
    -5.9265  -5.8948  -5.8539  -5.5364  -5.4934  -5.3890  -5.3600  -5.3562
    -5.3290  -5.2848  -5.2464  -5.1912  -5.1560  -5.1382  -5.1296  -5.1119
    -5.0850  -5.0373  -5.0123  -4.9699  -4.9646  -4.9494  -4.9195  -4.8962
    -4.8471  -4.8377  -4.7666  -4.7570  -4.7230  -4.5285  -4.4745  -4.4125
    -4.3632  -4.2971  -4.2476  -4.1900  -4.1897  -4.1076  -4.0959  -4.0388
    -3.9788  -3.8909  -3.8091  -3.8041  -3.7814  -3.7534  -3.7204  -3.6878
    -3.6646  -3.6441  -3.6049  -3.5565  -3.5191  -3.4455  -3.4128  -3.4070
    -3.3657  -3.3468  -3.3356  -3.3315  -3.3149  -3.2112  -3.2034  -3.1440
    -3.1102  -3.1044  -3.0345  -3.0285  -2.9771  -2.9505  -2.8820  -2.8451
    -2.8349  -2.7459  -2.7390  -2.7353  -2.6538  -2.6441  -2.5441  -2.5107
    -2.4261  -2.3013  -2.1811  -2.1795  -2.1699  -2.0485  -2.0466  -2.0348
    -1.9907  -1.9279  -1.9034  -1.7206  -1.7171  -1.6719  -1.6017  -1.5804
    -1.5561  -1.5413  -1.4251  -1.4033  -0.9985  -0.7167  -0.6834  -0.6784
    -0.6457  -0.6161  -0.5827  -0.5739   0.8568   1.0175   1.0952   1.1608
     1.1865   1.2303   1.2620   1.4364   1.4990   1.5055

     the Fermi energy is     0.2176 ev

!    total energy              =   -3293.29562323 Ry
     estimated scf accuracy    <       0.00000004 Ry
     smearing contrib. (-TS)   =      -0.00052568 Ry
     internal energy E=F+TS    =   -3293.29509755 Ry

     The total energy is F=E-TS. E is the sum of the following terms:
     one-electron contribution =  -34586.77205219 Ry
     hartree contribution      =   17355.20898408 Ry
     xc contribution           =    -542.08122402 Ry
     ewald contribution        =   14480.34806433 Ry
     electric field correction =       0.00113026 Ry

     convergence has been achieved in  45 iterations

     Forces acting on atoms (cartesian axes, Ry/au):

     atom    1 type  1   force =    -0.00000704    0.00891114    0.04219848
     atom    2 type  1   force =     0.00002318   -0.00248895   -0.00295851
     atom    3 type  1   force =    -0.00003171   -0.00631125   -0.00115725
     atom    4 type  1   force =     0.00004728    0.00395130    0.10167735
     atom    5 type  1   force =     0.00002101   -0.00058648    0.00718580
     atom    6 type  1   force =    -0.00002344    0.00086044    0.00286739
     atom    7 type  1   force =     0.07637004    0.00119497   -0.03510900
     atom    8 type  1   force =     0.00752716   -0.02412267    0.00123708
     atom    9 type  1   force =     0.00789587   -0.02075331    0.00177744
     atom   10 type  2   force =    -0.00003221   -0.00384644   -0.16974837
     atom   11 type  2   force =    -0.00011658    0.02225595   -0.00323109
     atom   12 type  2   force =    -0.00000203    0.02022431   -0.00568791
     atom   13 type  1   force =    -0.07646335    0.00074230   -0.03505736
     atom   14 type  1   force =    -0.00760865   -0.02399746    0.00123207
     atom   15 type  1   force =    -0.00784299   -0.02083850    0.00178321
     atom   16 type  2   force =     0.00010367    0.00207691    0.07522685
     atom   17 type  2   force =     0.00020780    0.02911236    0.00188868
     atom   18 type  2   force =    -0.00009369    0.02419414    0.00015709
     atom   19 type  1   force =     0.00000440    0.00221985    0.05609002
     atom   20 type  1   force =     0.00000415   -0.00076032   -0.00271830
     atom   21 type  1   force =     0.00004849   -0.00273842    0.10231268
     atom   22 type  1   force =     0.00000929   -0.00166770    0.00634351
     atom   23 type  1   force =    -0.00001747   -0.00392403    0.00178544
     atom   24 type  1   force =     0.07836510   -0.00056298   -0.03678407
     atom   25 type  1   force =     0.00978700   -0.02948899   -0.00096814
     atom   26 type  1   force =     0.01103015   -0.02687350   -0.00658874
     atom   27 type  2   force =    -0.00005825    0.01457867   -0.15615141
     atom   28 type  2   force =    -0.00013465    0.02625559   -0.00046308
     atom   29 type  2   force =     0.00003859    0.02321846    0.00312638
     atom   30 type  1   force =    -0.07846129   -0.00099037   -0.03673210
     atom   31 type  1   force =    -0.00985003   -0.02934546   -0.00096933
     atom   32 type  1   force =    -0.01090236   -0.02693824   -0.00663877
     atom   33 type  2   force =     0.00009802   -0.00383323    0.07804395
     atom   34 type  2   force =     0.00019439    0.03434830    0.00329101
     atom   35 type  2   force =    -0.00012082    0.03122025    0.00668154
     atom   36 type  1   force =     0.00002058    0.00148343    0.05145097
     atom   37 type  1   force =     0.00002329   -0.00164705   -0.00248429
     atom   38 type  1   force =    -0.00002168   -0.00342608    0.00002269
     atom   39 type  1   force =     0.00004918    0.00037255    0.09992921
     atom   40 type  1   force =     0.00001620   -0.00069496    0.00652955
     atom   41 type  1   force =    -0.00002516   -0.00089794    0.00425102
     atom   42 type  1   force =     0.07944319    0.00172393   -0.03467537
     atom   43 type  1   force =     0.00606741   -0.02324234    0.00044733
     atom   44 type  1   force =     0.00714272   -0.02147509    0.00394958
     atom   45 type  2   force =    -0.00005414   -0.01584008   -0.15542732
     atom   46 type  2   force =    -0.00010782    0.01692841    0.00086203
     atom   47 type  2   force =     0.00002175    0.02049922   -0.00089994
     atom   48 type  1   force =    -0.07953550    0.00128467   -0.03462119
     atom   49 type  1   force =    -0.00618164   -0.02312823    0.00043770
     atom   50 type  1   force =    -0.00700663   -0.02150294    0.00394597
     atom   51 type  2   force =     0.00008236   -0.00447132    0.06171092
     atom   52 type  2   force =     0.00020167    0.02905867    0.00061045
     atom   53 type  2   force =    -0.00014185    0.02946141    0.00005866
     atom   54 type  3   force =     0.00003903   -0.00566211   -0.00684875
     atom   55 type  4   force =     0.00002645    0.00049195    0.00061933
     atom   56 type  4   force =    -0.00007820    0.00651908    0.00529730
     atom   57 type  3   force =    -0.00000317   -0.00119461    0.00117901
     atom   58 type  4   force =     0.00005949    0.00185296   -0.00059388
     atom   59 type  4   force =    -0.00004657   -0.00179015    0.00030648

     Total force =     0.439264     Total SCF correction =     0.000665
  @ DRIVER MODE: Message from server: STATUS
  @ DRIVER MODE: Message from server: GETFORCE
  @ DRIVER MODE: Returning v,forces,stress,ensemble

     Writing output data file ./calc.save/
  @ DRIVER MODE: Message from server: EXIT
  @ DRIVE MODE: Exiting

     General routines

     Parallel routines

   This run was terminated on:  19:22:31  18Oct2021

   JOB DONE.