     Program PWSCF v.6.7GPU starts on 22Sep2021 at 17: 2:43

     R & G space division:  proc/nbgrp/npool/nimage =      10
     Reading input from /storage/home/hcoda1/3/ntian30/research/carbon/CxH_vib/H2O_calc/ads_slab/CH2NHHHO_a/out_0002/pw.inp
Warning: card &CELL ignored
Warning: card   CELL_DYNAMICS='IPI', ignored
Warning: card / ignored

     Current dimensions of program PWSCF are:
     Max number of different atomic species (ntypx) = 10
     Max number of k-points (npk) =  40000
     Max angular momentum in pseudopotentials (lmaxx) =  3
     Presently no symmetry can be used with electric field

     Message from routine cell_base_init:
     DEPRECATED: use true lattice parameter, not A to a.u. conversion factor

     IMPORTANT: XC functional enforced from input :
     Exchange-correlation= BEEF-VDW
                           (   1   4  43  14   2   0   0)
     Any further DFT definition will be discarded
     Please, verify this is what you really want

  @ DRIVER MODE: Connecting to
 qe_1139763_2937325.sched-torque.pace.gatech.edudy_4cayn_scratch
  using UNIX socket
  @ DRIVER MODE: Message from server: STATUS
  @ DRIVER MODE: Message from server: INIT
  @ DRIVER MODE: Receiving replica           0          -1
  @ DRIVER MODE: Receiving encoded integer          25
  @ DRIVER MODE:  SCF:  T  FORCE:  T  STRESS:  F  VC:  F  ENSEMBLE:  F
  @ DRIVER MODE:  SCF:  T  FORCE:  T  STRESS:  F  VC:  F  ENSEMBLE:  F

     Using Slab Decomposition

     bravais-lattice index     =            0
     lattice parameter (alat)  =       1.8897  a.u.
     unit-cell volume          =    6658.9804 (a.u.)^3
     number of atoms/cell      =           55
     number of atomic types    =            5
     number of electrons       =       398.00
     number of Kohn-Sham states=          209
     kinetic-energy cutoff     =      29.3995  Ry
     charge density cutoff     =     293.9946  Ry
     scf convergence threshold =      7.3E-08
     mixing beta               =       0.0500
     number of iterations used =            8  plain     mixing
     Exchange-correlation= BEEF-VDW
                           (   1   4  43  14   2   0   0)

     celldm(1)=   1.889726  celldm(2)=   0.000000  celldm(3)=   0.000000
     celldm(4)=   0.000000  celldm(5)=   0.000000  celldm(6)=   0.000000

     crystal axes: (cart. coord. in units of alat)
               a(1) = (   6.579727   0.000000   0.000000 )
               a(2) = (  -0.000775   5.961596   0.000000 )
               a(3) = (   0.000000   0.000000  25.155947 )

     reciprocal axes: (cart. coord. in units 2 pi/alat)
               b(1) = (  0.151982  0.000020  0.000000 )
               b(2) = (  0.000000  0.167740  0.000000 )
               b(3) = (  0.000000  0.000000  0.039752 )

     PseudoPot. # 1 for Ti read from file:
     /storage/coda1/p-amedford6/0/shared/rich_project_chbe-medford/medford-share/data/pseudos_module/espresso/nninc/pbe/van/Ti.UPF
     MD5 check sum: 8e4df49b7f0d34bbd5052bf3f5ea0213
     Pseudo is Ultrasoft, Zval = 12.0
     Generated by new atomic code, or converted to UPF format
     Using radial grid of  851 points,  6 beta functions with:
                l(1) =   0
                l(2) =   0
                l(3) =   1
                l(4) =   1
                l(5) =   2
                l(6) =   2
     Q(r) pseudized with  8 coefficients,  rinner =    1.000   1.000   1.000
                                                       1.000   1.000

     PseudoPot. # 2 for O  read from file:
     /storage/coda1/p-amedford6/0/shared/rich_project_chbe-medford/medford-share/data/pseudos_module/espresso/nninc/pbe/van/O.UPF
     MD5 check sum: 78c19812648e8988a0fe644b0f25305e
     Pseudo is Ultrasoft, Zval =  6.0
     Generated by new atomic code, or converted to UPF format
     Using radial grid of  737 points,  4 beta functions with:
                l(1) =   0
                l(2) =   0
                l(3) =   1
                l(4) =   1
     Q(r) pseudized with  8 coefficients,  rinner =    0.800   0.800   0.800

     PseudoPot. # 3 for N  read from file:
     /storage/coda1/p-amedford6/0/shared/rich_project_chbe-medford/medford-share/data/pseudos_module/espresso/nninc/pbe/van/N.UPF
     MD5 check sum: 90d10febe142ad51ac9d5be1deb811c4
     Pseudo is Ultrasoft, Zval =  5.0
     Generated by new atomic code, or converted to UPF format
     Using radial grid of  729 points,  4 beta functions with:
                l(1) =   0
                l(2) =   0
                l(3) =   1
                l(4) =   1
     Q(r) pseudized with  8 coefficients,  rinner =    0.800   0.800   0.800

     PseudoPot. # 4 for C  read from file:
     /storage/coda1/p-amedford6/0/shared/rich_project_chbe-medford/medford-share/data/pseudos_module/espresso/nninc/pbe/van/C.UPF
     MD5 check sum: 1a69bf6b8db32088f5b2163dbdb77a27
     Pseudo is Ultrasoft, Zval =  4.0
     Generated by new atomic code, or converted to UPF format
     Using radial grid of  721 points,  4 beta functions with:
                l(1) =   0
                l(2) =   0
                l(3) =   1
                l(4) =   1
     Q(r) pseudized with  8 coefficients,  rinner =    0.800   0.800   0.800

     PseudoPot. # 5 for H  read from file:
     /storage/coda1/p-amedford6/0/shared/rich_project_chbe-medford/medford-share/data/pseudos_module/espresso/nninc/pbe/van/H.UPF
     MD5 check sum: b5ee9d7bfd3a09ee7748110bda690ff7
     Pseudo is Ultrasoft, Zval =  1.0
     Generated by new atomic code, or converted to UPF format
     Using radial grid of  615 points,  1 beta functions with:
                l(1) =   0
     Q(r) pseudized with  8 coefficients,  rinner =    0.800

     atomic species   valence    mass     pseudopotential
        Ti1           12.00    47.86700     Ti( 1.00)
        O1             6.00    15.99900     O ( 1.00)
        N1             5.00    14.00700     N ( 1.00)
        C1             4.00    12.01100     C ( 1.00)
        H1             1.00     1.00800     H ( 1.00)

     No symmetry found

   Cartesian axes

     site n.     atom                  positions (alat units)
         1           Ti1 tau(   1) = (   0.0004258   2.9801865   6.0000000  )
         2           Ti1 tau(   2) = (   3.2906075   1.4906267   6.0002472  )
         3           O1  tau(   3) = (   0.0006271   0.0005054   7.9858123  )
         4           O1  tau(   4) = (   3.2906025   0.0005020   7.3038282  )
         5           O1  tau(   5) = (   4.5942328   1.4918067   9.2879030  )
         6           O1  tau(   6) = (   1.9868534   1.4903216   9.2879459  )
         7           Ti1 tau(   7) = (   3.2907910   2.8959150   9.1758416  )
         8           Ti1 tau(   8) = (   0.0015273   1.4827037   9.2680791  )
         9           O1  tau(   9) = (   3.3134935   5.9450930  11.3716456  )
        10           O1  tau(  10) = (   0.0116148   5.9584955  10.6183126  )
        11           O1  tau(  11) = (   1.3009377   1.4930576  12.6823270  )
        12           O1  tau(  12) = (   5.3410967   1.4903504  12.6863499  )
        13           Ti1 tau(  13) = (   0.0342001   2.9430440  12.5112676  )
        14           Ti1 tau(  14) = (   3.3297267   1.2953541  12.7310232  )
        15           O1  tau(  15) = (   0.0493764   5.9086628  14.6689690  )
        16           O1  tau(  16) = (   3.3288597   0.0714287  14.0177558  )
        17           O1  tau(  17) = (   4.6153468   1.5975901  16.1787110  )
        18           O1  tau(  18) = (   2.0592605   1.5839887  16.0909148  )
        19           Ti1 tau(  19) = (   3.3163104   3.0362344  15.7082748  )
        20           Ti1 tau(  20) = (   0.1120434   1.3330501  15.8434463  )
        21           O1  tau(  21) = (   3.2904802   0.0005063   4.7018136  )
        22           O1  tau(  22) = (   0.0690725   0.1374024  17.2087871  )
        23           O1  tau(  23) = (   1.3043587   1.4918075   6.0039043  )
        24           O1  tau(  24) = (   5.2767064   1.4903225   6.0039473  )
        25           Ti1 tau(  25) = (   0.0000382   5.9609847   6.0000000  )
        26           Ti1 tau(  26) = (   3.2902200   4.4714249   6.0002472  )
        27           O1  tau(  27) = (   0.0002396   2.9813036   7.9858123  )
        28           O1  tau(  28) = (   3.2902150   2.9813002   7.3038282  )
        29           O1  tau(  29) = (   4.5938453   4.4726049   9.2879030  )
        30           O1  tau(  30) = (   1.9864658   4.4711199   9.2879459  )
        31           Ti1 tau(  31) = (   3.2891106   5.8743827   9.1763621  )
        32           Ti1 tau(  32) = (   0.0006254   4.4649316   9.2693709  )
        33           O1  tau(  33) = (   3.3165203   3.0043058  11.3207354  )
        34           O1  tau(  34) = (   0.0092240   2.9805883  10.6323155  )
        35           O1  tau(  35) = (   1.3050136   4.4578615  12.6552238  )
        36           O1  tau(  36) = (   5.3353050   4.4620295  12.6594116  )
        37           Ti1 tau(  37) = (   0.0330755   5.9154870  12.5003292  )
        38           Ti1 tau(  38) = (   3.3291962   4.3779952  12.4454333  )
        39           O1  tau(  39) = (   0.0233967   3.0352723  14.9286183  )
        40           O1  tau(  40) = (   3.3272303   3.0068708  13.9347379  )
        41           O1  tau(  41) = (   4.5962338   4.4808180  16.1645836  )
        42           O1  tau(  42) = (   2.0526765   4.4464907  16.1857218  )
        43           Ti1 tau(  43) = (   3.4309460   0.0633718  16.3216252  )
        44           Ti1 tau(  44) = (   0.1034465   4.5521166  15.9739525  )
        45           O1  tau(  45) = (   3.2900926   2.9813045   4.7018136  )
        46           O1  tau(  46) = (   1.3039711   4.4726057   6.0039043  )
        47           O1  tau(  47) = (   5.2763189   4.4711207   6.0039473  )
        48           N1  tau(  48) = (   6.1697698   3.4535781  18.2989460  )
        49           C1  tau(  49) = (   0.6557129   3.1470513  19.0816575  )
        50           H1  tau(  50) = (   1.2037892   3.9510289  19.5415217  )
        51           H1  tau(  51) = (   1.0557295   2.1499681  19.0337936  )
        52           H1  tau(  52) = (   5.6880836   4.3337965  18.4846543  )
        53           H1  tau(  53) = (   5.5056413   2.7003945  18.1017309  )
        54           O1  tau(  54) = (   3.2744276   0.0793712  18.1757868  )
        55           H1  tau(  55) = (   2.3604784   5.9194474  18.4805682  )

     number of k points=    10  Fermi-Dirac smearing, width (Ry)=  0.0073
                       cart. coord. in units 2pi/alat
        k(    1) = (   0.0000000   0.0000000   0.0000000), wk =   0.1250000
        k(    2) = (   0.0000000   0.0419351   0.0000000), wk =   0.2500000
        k(    3) = (   0.0000000  -0.0838702   0.0000000), wk =   0.1250000
        k(    4) = (   0.0379955   0.0000049   0.0000000), wk =   0.2500000
        k(    5) = (   0.0379955   0.0419400   0.0000000), wk =   0.2500000
        k(    6) = (   0.0379955  -0.0838652   0.0000000), wk =   0.2500000
        k(    7) = (   0.0379955  -0.0419301   0.0000000), wk =   0.2500000
        k(    8) = (  -0.0759910  -0.0000099   0.0000000), wk =   0.1250000
        k(    9) = (  -0.0759910   0.0419252   0.0000000), wk =   0.2500000
        k(   10) = (  -0.0759910  -0.0838800   0.0000000), wk =   0.1250000

     Initial potential from superposition of free atoms

     starting charge  381.99915, renormalised to  398.00000

     negative rho (up, down):  1.645E-02 0.000E+00

     %%%%%%%%%%%%%%%%%%%%%%%%%%%%%%%%%%%%%%%%%%%%%%%%%%%%%%%%%%%%%%%%%%%%%%%%
     %                                                                      %
     % You are using vdW-DF, which was implemented by the Thonhauser group. %
     % Please cite the following two papers that made this development      %
     % possible and the two reviews that describe the various versions:     %
     %                                                                      %
     %   T. Thonhauser et al., PRL 115, 136402 (2015).                      %
     %   T. Thonhauser et al., PRB 76, 125112 (2007).                       %
     %   K. Berland et al., Rep. Prog. Phys. 78, 066501 (2015).             %
     %   D.C. Langreth et al., J. Phys.: Condens. Matter 21, 084203 (2009). %
     %                                                                      %
     %                                                                      %
     % If you are calculating the stress with vdW-DF, please also cite:     %
     %                                                                      %
     %   R. Sabatini et al., J. Phys.: Condens. Matter 24, 424209 (2012).   %
     %                                                                      %
     %%%%%%%%%%%%%%%%%%%%%%%%%%%%%%%%%%%%%%%%%%%%%%%%%%%%%%%%%%%%%%%%%%%%%%%%

     Adding external electric field

     Computed dipole along edir(3) :
        Dipole              -10.2322 Ry au,        -26.0075 Debye
        Dipole field         -0.0193 Ry au,

        Potential amp.        1.7900 Ry
        Total length         46.3494 bohr

     Starting wfcs are  301 atomic wfcs
  @ DRIVER MODE: Message from server: STATUS
  @ DRIVER MODE: Message from server: POSDATA
  @ DRIVER MODE: Reading and sharing cell
  @ DRIVER MODE: Reading and sharing positions
  @ DRIVER MODE: Received positions

     Self-consistent Calculation

     iteration #  1     ecut=    29.40 Ry     beta= 0.05
     Davidson diagonalization with overlap
     c_bands:  1 eigenvalues not converged
     c_bands:  3 eigenvalues not converged
     c_bands:  1 eigenvalues not converged
     c_bands:  1 eigenvalues not converged
     c_bands:  4 eigenvalues not converged
     c_bands:  4 eigenvalues not converged
     c_bands:  4 eigenvalues not converged
     c_bands:  2 eigenvalues not converged
     c_bands:  3 eigenvalues not converged
     c_bands:  4 eigenvalues not converged
     ethr =  1.00E-05,  avg # of iterations = 20.0

[...]

     total energy              =   -2477.34449500 Ry
     estimated scf accuracy    <    5313.83040372 Ry

     iteration #  2     ecut=    29.40 Ry     beta= 0.05
     Davidson diagonalization with overlap
     ethr =  1.00E-02,  avg # of iterations = 23.5

[...]

     iteration # 61     ecut=    29.40 Ry     beta= 0.05
     Davidson diagonalization with overlap
     c_bands:  1 eigenvalues not converged
     ethr =  9.21E-10,  avg # of iterations = 14.3

[...]

     total energy              =   -2953.88648291 Ry
     estimated scf accuracy    <       0.00000010 Ry

     iteration # 71     ecut=    29.40 Ry     beta= 0.05
     Davidson diagonalization with overlap
     ethr =  2.45E-11,  avg # of iterations =  5.1

     negative rho (up, down):  1.574E-02 0.000E+00

     Adding external electric field

     Computed dipole along edir(3) :
        Dipole                0.8613 Ry au,          2.1893 Debye
        Dipole field          0.0016 Ry au,

        Potential amp.       -0.1507 Ry
        Total length         46.3494 bohr

     End of self-consistent calculation

          k = 0.0000 0.0000 0.0000 ( 18029 PWs)   bands (ev):

   -55.7638 -55.7079 -55.6738 -55.5769 -55.5380 -55.5369 -55.5248 -55.5030
   -55.4945 -55.4438 -55.4435 -55.3327 -55.3031 -55.2600 -54.6864 -54.6523
   -32.1938 -32.0823 -32.0620 -32.0557 -32.0404 -32.0298 -31.9984 -31.9796
   -31.9774 -31.9537 -31.9411 -31.8607 -31.8464 -31.8457 -31.8233 -31.8167
   -31.8156 -31.7861 -31.7655 -31.7401 -31.7383 -31.7318 -31.7222 -31.7190
   -31.7166 -31.7097 -31.6810 -31.6723 -31.6640 -31.6628 -31.6557 -31.6503
   -31.6396 -31.6321 -31.6103 -31.5995 -31.5270 -31.5241 -31.5055 -31.4724
   -31.4646 -31.4556 -31.0925 -31.0058 -30.9833 -30.9101 -30.8236 -30.7118
   -16.9201 -16.6139 -16.3738 -16.2088 -15.9860 -15.9340 -15.8728 -15.6997
   -15.5849 -15.5292 -15.3462 -15.2797 -15.2480 -15.2359 -15.2335 -15.2137
   -15.2010 -15.1574 -15.1400 -15.1377 -15.1320 -15.0981 -15.0703 -15.0293
   -14.9855 -14.9469 -14.8498 -14.7950 -14.7553 -14.5119 -14.4791 -13.1848
   -13.0683  -9.8107  -7.0362  -5.3797  -4.1426  -3.7365  -3.6231  -3.6118
    -3.5548  -3.4959  -3.3183  -3.2184  -3.1391  -3.1203  -2.9685  -2.8549
    -2.8111  -2.7471  -2.7236  -2.6704  -2.6326  -2.6230  -2.5896  -2.4967
    -2.4772  -2.4626  -2.4023  -2.3745  -2.3184  -2.2867  -2.2519  -2.2399
    -2.1326  -2.0825  -2.0465  -2.0376  -2.0214  -1.9946  -1.9667  -1.9598
    -1.9329  -1.8489  -1.7953  -1.7404  -1.7131  -1.6983  -1.3949  -1.3212
    -1.2864  -1.2512  -1.1598  -1.1428  -1.1065  -1.0897  -1.0741  -1.0664
    -0.9522  -0.8846  -0.8251  -0.7940  -0.7512  -0.7212  -0.6054  -0.5545
    -0.5032  -0.4628  -0.4493  -0.4244  -0.3384  -0.3112  -0.2949  -0.1951
    -0.1514  -0.0865  -0.0168  -0.0026   0.0462   0.0752   0.1131   0.1516
     0.2103   0.2426   0.2606   0.3039   0.3431   0.3538   0.4120   0.4283
     0.5240   0.6083   0.6270   0.6945   0.7856   0.8317   0.9526   1.0144
     1.2864   1.3404   1.3531   1.5319   1.9078   1.9534   3.3695   3.4061
     3.5227   3.5359   3.6098   3.6222   3.7068   3.8628   3.9091   4.0211
     4.0591

[...]

          k = 0.0380-0.0419 0.0000 ( 17876 PWs)   bands (ev):

[...]

          k =-0.0760-0.0000 0.0000 ( 17886 PWs)   bands (ev):

[...]

          k =-0.0760-0.0839 0.0000 ( 17948 PWs)   bands (ev):

   -55.7629 -55.6910 -55.6906 -55.5661 -55.5485 -55.5255 -55.5204 -55.5192
   -55.4883 -55.4499 -55.4413 -55.3288 -55.3055 -55.2637 -54.6698 -54.6688
   -32.0273 -32.0115 -32.0092 -32.0088 -31.9841 -31.9835 -31.9832 -31.9687
   -31.9119 -31.8840 -31.8664 -31.8532 -31.8485 -31.8283 -31.8161 -31.8111
   -31.8104 -31.8074 -31.8037 -31.7987 -31.7736 -31.7475 -31.7390 -31.7315
   -31.7259 -31.7218 -31.7069 -31.7054 -31.7042 -31.6954 -31.6948 -31.6751
   -31.6729 -31.6686 -31.6386 -31.6084 -31.5896 -31.5522 -31.5309 -31.5262
   -31.5133 -31.4682 -30.9964 -30.9957 -30.9060 -30.9048 -30.8673 -30.8665
   -16.9041 -16.6020 -16.0466 -15.7981 -15.7042 -15.6938 -15.5620 -15.4955
   -15.4836 -15.4420 -15.4246 -15.4037 -15.3960 -15.3708 -15.3317 -15.2753
   -15.2460 -15.2190 -15.2129 -15.1731 -15.1659 -15.1475 -15.1446 -15.1229
   -15.0735 -15.0321 -15.0185 -15.0047 -14.8191 -14.7675 -14.6356 -13.1704
   -13.1699  -9.8114  -7.0281  -5.3643  -4.1266  -3.3463  -3.1708  -3.0081
    -2.9370  -2.8983  -2.7878  -2.7488  -2.7361  -2.6853  -2.6640  -2.6390
    -2.5586  -2.5456  -2.5160  -2.5034  -2.4746  -2.4601  -2.4530  -2.4434
    -2.3989  -2.3903  -2.3822  -2.3487  -2.3406  -2.3310  -2.2910  -2.2712
    -2.2609  -2.2506  -2.2019  -2.1808  -2.1035  -2.0611  -1.9623  -1.8789
    -1.8680  -1.8446  -1.7972  -1.7854  -1.7431  -1.7279  -1.6852  -1.6115
    -1.5269  -1.4601  -1.3460  -1.3038  -1.2925  -1.2332  -1.2150  -1.1587
    -1.1263  -1.0978  -1.0679  -0.9655  -0.9325  -0.8765  -0.7593  -0.6949
    -0.6824  -0.6593  -0.6490  -0.6135  -0.5939  -0.5776  -0.5473  -0.4656
    -0.4271  -0.4128  -0.4025  -0.3669  -0.2413  -0.1204  -0.0759  -0.0163
     0.0512   0.0668   0.1206   0.1597   0.3141   0.3490   0.4469   0.4622
     0.4827   0.5967   0.6037   0.6825   0.7245   0.7707   0.7996   0.8317
     0.8365   0.8766   1.7016   1.7101   1.7737   1.7738   3.3806   3.7472
     3.8519   3.8691   3.8870   3.9278   3.9416   3.9710   3.9764   4.0407
     4.0558

     the Fermi energy is     3.4116 ev

!    total energy              =   -2953.88650078 Ry
     estimated scf accuracy    <       0.00000005 Ry
     smearing contrib. (-TS)   =      -0.02914732 Ry
     internal energy E=F+TS    =   -2953.85735345 Ry

     The total energy is F=E-TS. E is the sum of the following terms:
     one-electron contribution =  -23669.96080311 Ry
     hartree contribution      =   11925.98246345 Ry
     xc contribution           =    -488.85273948 Ry
     ewald contribution        =    9278.97232565 Ry
     electric field correction =       0.00140004 Ry

     convergence has been achieved in  71 iterations

     Forces acting on atoms (cartesian axes, Ry/au):

     atom    1 type  1   force =    -0.00001879   -0.00028523    0.09377430
     atom    2 type  1   force =    -0.00010679    0.00049032   -0.17552953
     atom    3 type  2   force =     0.00011006   -0.00024612   -0.02089077
     atom    4 type  2   force =     0.00001155   -0.00197913    0.05497477
     atom    5 type  2   force =    -0.00645188   -0.00244001    0.00277991
     atom    6 type  2   force =     0.00860665   -0.00176978    0.00361894
     atom    7 type  1   force =     0.00058568   -0.00336071    0.00967365
     atom    8 type  1   force =    -0.00068026    0.00047269    0.00109095
     atom    9 type  2   force =    -0.00001475    0.00060320   -0.00093579
     atom   10 type  2   force =    -0.00025129    0.00115421   -0.00780543
     atom   11 type  2   force =    -0.00008404   -0.00001771    0.00017455
     atom   12 type  2   force =    -0.00045448   -0.00017861    0.00003747
     atom   13 type  1   force =    -0.00028769    0.00002251   -0.00044966
     atom   14 type  1   force =    -0.00061926    0.00044430    0.00033485
     atom   15 type  2   force =    -0.00007156    0.00119194   -0.00005568
     atom   16 type  2   force =    -0.00006425    0.00005891   -0.00011543
     atom   17 type  2   force =    -0.00037562    0.00060762   -0.00020544
     atom   18 type  2   force =     0.00020567    0.00069491   -0.00014582
     atom   19 type  1   force =    -0.00003540   -0.00022278    0.00045292
     atom   20 type  1   force =    -0.00012655   -0.00055491   -0.00010878
     atom   21 type  2   force =     0.00001593    0.00008373    0.10331484
     atom   22 type  2   force =    -0.00009077    0.00031211    0.00013696
     atom   23 type  2   force =    -0.07188412   -0.00017859   -0.02714202
     atom   24 type  2   force =     0.07174786    0.00029203   -0.02722033
     atom   25 type  1   force =     0.00009198   -0.00019767    0.09356387
     atom   26 type  1   force =    -0.00025523   -0.00137689   -0.17566498
     atom   27 type  2   force =     0.00015166   -0.00016147   -0.01963794
     atom   28 type  2   force =     0.00011208   -0.00028605    0.05021640
     atom   29 type  2   force =    -0.00551364    0.00259512    0.00167265
     atom   30 type  2   force =     0.00765955    0.00268882    0.00256579
     atom   31 type  1   force =     0.00070368    0.00798567   -0.00207728
     atom   32 type  1   force =    -0.00070338   -0.00207311    0.00019190
     atom   33 type  2   force =    -0.00017028   -0.00073053   -0.00008590
     atom   34 type  2   force =     0.00011488   -0.00173367   -0.00872446
     atom   35 type  2   force =    -0.00001816   -0.00012622   -0.00057518
     atom   36 type  2   force =    -0.00021778   -0.00019991   -0.00038366
     atom   37 type  1   force =     0.00044070    0.00068106   -0.00071938
     atom   38 type  1   force =    -0.00062170   -0.00052066    0.00016939
     atom   39 type  2   force =    -0.00004520    0.00010193    0.00029038
     atom   40 type  2   force =     0.00011925    0.00002400    0.00072090
     atom   41 type  2   force =    -0.00029458   -0.00038096    0.00038426
     atom   42 type  2   force =     0.00063168    0.00006726   -0.00062049
     atom   43 type  1   force =    -0.00036254    0.00054123   -0.00051047
     atom   44 type  1   force =     0.00020918   -0.00110084   -0.00046625
     atom   45 type  2   force =     0.00001554   -0.00005499    0.10309688
     atom   46 type  2   force =    -0.07189653   -0.00001838   -0.02715677
     atom   47 type  2   force =     0.07180007    0.00040163   -0.02724155
     atom   48 type  3   force =    -0.02243977    0.00134673   -0.00746443
     atom   49 type  4   force =     0.01010472   -0.00177603    0.00680688
     atom   50 type  5   force =     0.00009396   -0.00011294    0.00062812
     atom   51 type  5   force =     0.00035714   -0.00066646    0.00104932
     atom   52 type  5   force =     0.00498065   -0.00421784   -0.00159273
     atom   53 type  5   force =     0.00675885    0.00450176    0.00123656
     atom   54 type  2   force =    -0.00130099   -0.00062784   -0.00029053
     atom   55 type  5   force =    -0.00017169    0.00023236    0.00085928

     Total force =     0.363197     Total SCF correction =     0.000493
  @ DRIVER MODE: Message from server: STATUS
  @ DRIVER MODE: Message from server: GETFORCE
  @ DRIVER MODE: Returning v,forces,stress,ensemble

     Writing output data file ./calc.save/
  @ DRIVER MODE: Message from server: EXIT
  @ DRIVE MODE: Exiting

     General routines

     Parallel routines

   This run was terminated on:  17:22:47  22Sep2021

   JOB DONE.