     Program PWSCF v.6.7GPU starts on 21Sep2021 at 21:59: 0

     R & G space division:  proc/nbgrp/npool/nimage =      10
     Reading input from /storage/home/hcoda1/3/ntian30/research/carbon/CxH_vib/CH_calc/ads_slab/CHNHNHH2O_b/out_0000/pw.inp
Warning: card &CELL ignored
Warning: card   CELL_DYNAMICS='IPI', ignored
Warning: card / ignored

     Current dimensions of program PWSCF are:
     Max number of different atomic species (ntypx) = 10
     Max number of k-points (npk) =  40000
     Max angular momentum in pseudopotentials (lmaxx) =  3
     Presently no symmetry can be used with electric field

     Message from routine cell_base_init:
     DEPRECATED: use true lattice parameter, not A to a.u. conversion factor

     IMPORTANT: XC functional enforced from input :
     Exchange-correlation= BEEF-VDW
                           (   1   4  43  14   2   0   0)
     Any further DFT definition will be discarded
     Please, verify this is what you really want

  @ DRIVER MODE: Connecting to
 qe_1139763_2927424.sched-torque.pace.gatech.eduu7rqh8nd_scratch
  using UNIX socket
  @ DRIVER MODE: Message from server: STATUS
  @ DRIVER MODE: Message from server: INIT
  @ DRIVER MODE: Receiving replica           0          -1
  @ DRIVER MODE: Receiving encoded integer          25
  @ DRIVER MODE:  SCF:  T  FORCE:  T  STRESS:  F  VC:  F  ENSEMBLE:  F
  @ DRIVER MODE:  SCF:  T  FORCE:  T  STRESS:  F  VC:  F  ENSEMBLE:  F

     Using Slab Decomposition

     bravais-lattice index     =            0
     lattice parameter (alat)  =       1.8897  a.u.
     unit-cell volume          =    6658.9804 (a.u.)^3
     number of atoms/cell      =           56
     number of atomic types    =            5
     number of electrons       =       403.00
     number of Kohn-Sham states=          211
     kinetic-energy cutoff     =      29.3995  Ry
     charge density cutoff     =     293.9946  Ry
     scf convergence threshold =      7.3E-08
     mixing beta               =       0.0500
     number of iterations used =            8  plain     mixing
     Exchange-correlation= BEEF-VDW
                           (   1   4  43  14   2   0   0)

     celldm(1)=   1.889726  celldm(2)=   0.000000  celldm(3)=   0.000000
     celldm(4)=   0.000000  celldm(5)=   0.000000  celldm(6)=   0.000000

     crystal axes: (cart. coord. in units of alat)
               a(1) = (   6.579727   0.000000   0.000000 )
               a(2) = (  -0.000775   5.961596   0.000000 )
               a(3) = (   0.000000   0.000000  25.155947 )

     reciprocal axes: (cart. coord. in units 2 pi/alat)
               b(1) = (  0.151982  0.000020  0.000000 )
               b(2) = (  0.000000  0.167740  0.000000 )
               b(3) = (  0.000000  0.000000  0.039752 )

     PseudoPot. # 1 for Ti read from file:
     /storage/coda1/p-amedford6/0/shared/rich_project_chbe-medford/medford-share/data/pseudos_module/espresso/nninc/pbe/van/Ti.UPF
     MD5 check sum: 8e4df49b7f0d34bbd5052bf3f5ea0213
     Pseudo is Ultrasoft, Zval = 12.0
     Generated by new atomic code, or converted to UPF format
     Using radial grid of  851 points,  6 beta functions with:
                l(1) =   0
                l(2) =   0
                l(3) =   1
                l(4) =   1
                l(5) =   2
                l(6) =   2
     Q(r) pseudized with  8 coefficients,  rinner =    1.000   1.000   1.000
                                                       1.000   1.000

     PseudoPot. # 2 for O  read from file:
     /storage/coda1/p-amedford6/0/shared/rich_project_chbe-medford/medford-share/data/pseudos_module/espresso/nninc/pbe/van/O.UPF
     MD5 check sum: 78c19812648e8988a0fe644b0f25305e
     Pseudo is Ultrasoft, Zval =  6.0
     Generated by new atomic code, or converted to UPF format
     Using radial grid of  737 points,  4 beta functions with:
                l(1) =   0
                l(2) =   0
                l(3) =   1
                l(4) =   1
     Q(r) pseudized with  8 coefficients,  rinner =    0.800   0.800   0.800

     PseudoPot. # 3 for N  read from file:
     /storage/coda1/p-amedford6/0/shared/rich_project_chbe-medford/medford-share/data/pseudos_module/espresso/nninc/pbe/van/N.UPF
     MD5 check sum: 90d10febe142ad51ac9d5be1deb811c4
     Pseudo is Ultrasoft, Zval =  5.0
     Generated by new atomic code, or converted to UPF format
     Using radial grid of  729 points,  4 beta functions with:
                l(1) =   0
                l(2) =   0
                l(3) =   1
                l(4) =   1
     Q(r) pseudized with  8 coefficients,  rinner =    0.800   0.800   0.800

     PseudoPot. # 4 for C  read from file:
     /storage/coda1/p-amedford6/0/shared/rich_project_chbe-medford/medford-share/data/pseudos_module/espresso/nninc/pbe/van/C.UPF
     MD5 check sum: 1a69bf6b8db32088f5b2163dbdb77a27
     Pseudo is Ultrasoft, Zval =  4.0
     Generated by new atomic code, or converted to UPF format
     Using radial grid of  721 points,  4 beta functions with:
                l(1) =   0
                l(2) =   0
                l(3) =   1
                l(4) =   1
     Q(r) pseudized with  8 coefficients,  rinner =    0.800   0.800   0.800

     PseudoPot. # 5 for H  read from file:
     /storage/coda1/p-amedford6/0/shared/rich_project_chbe-medford/medford-share/data/pseudos_module/espresso/nninc/pbe/van/H.UPF
     MD5 check sum: b5ee9d7bfd3a09ee7748110bda690ff7
     Pseudo is Ultrasoft, Zval =  1.0
     Generated by new atomic code, or converted to UPF format
     Using radial grid of  615 points,  1 beta functions with:
                l(1) =   0
     Q(r) pseudized with  8 coefficients,  rinner =    0.800

     atomic species   valence    mass     pseudopotential
        Ti1           12.00    47.86700     Ti( 1.00)
        O1             6.00    15.99900     O ( 1.00)
        N1             5.00    14.00700     N ( 1.00)
        C1             4.00    12.01100     C ( 1.00)
        H1             1.00     1.00800     H ( 1.00)

     No symmetry found

   Cartesian axes

     site n.     atom                  positions (alat units)
         1           Ti1 tau(   1) = (   0.0004258   2.9801865   6.0000000  )
         2           Ti1 tau(   2) = (   3.2906075   1.4906267   6.0002472  )
         3           O1  tau(   3) = (   0.0006271   0.0005054   7.9858123  )
         4           O1  tau(   4) = (   3.2906025   0.0005020   7.3038282  )
         5           O1  tau(   5) = (   4.5942328   1.4918067   9.2879030  )
         6           O1  tau(   6) = (   1.9868534   1.4903216   9.2879459  )
         7           Ti1 tau(   7) = (   3.2907910   2.8959150   9.1758416  )
         8           Ti1 tau(   8) = (   0.0015273   1.4827037   9.2680791  )
         9           O1  tau(   9) = (   3.2780774   5.9605562  11.3537357  )
        10           O1  tau(  10) = (   0.0116148   5.9584955  10.6183126  )
        11           O1  tau(  11) = (   1.2922713   1.4781662  12.6511241  )
        12           O1  tau(  12) = (   5.2965393   1.5043564  12.6031353  )
        13           Ti1 tau(  13) = (   6.5273184   3.0207086  12.5807821  )
        14           Ti1 tau(  14) = (   3.2344070   1.4559942  12.5004267  )
        15           O1  tau(  15) = (   6.4759410   0.0295824  14.6525783  )
        16           O1  tau(  16) = (   3.3604338   0.0238249  13.9383540  )
        17           O1  tau(  17) = (   4.5324113   1.5808541  16.1066768  )
        18           O1  tau(  18) = (   1.9684897   1.4712893  15.8817925  )
        19           Ti1 tau(  19) = (   3.2566353   3.0739815  15.8599551  )
        20           Ti1 tau(  20) = (   6.5466614   1.5318677  15.7800735  )
        21           O1  tau(  21) = (   3.2904802   0.0005063   4.7018136  )
        22           O1  tau(  22) = (   6.5744325   0.0155309  17.2227980  )
        23           O1  tau(  23) = (   1.3043587   1.4918075   6.0039043  )
        24           O1  tau(  24) = (   5.2767064   1.4903225   6.0039473  )
        25           Ti1 tau(  25) = (   0.0000382   5.9609847   6.0000000  )
        26           Ti1 tau(  26) = (   3.2902200   4.4714249   6.0002472  )
        27           O1  tau(  27) = (   0.0002396   2.9813036   7.9858123  )
        28           O1  tau(  28) = (   3.2902150   2.9813002   7.3038282  )
        29           O1  tau(  29) = (   4.5938453   4.4726049   9.2879030  )
        30           O1  tau(  30) = (   1.9864658   4.4711199   9.2879459  )
        31           Ti1 tau(  31) = (   3.2891106   5.8743827   9.1763621  )
        32           Ti1 tau(  32) = (   0.0006254   4.4649316   9.2693709  )
        33           O1  tau(  33) = (   3.2727763   2.9788165  11.3438337  )
        34           O1  tau(  34) = (   0.0092240   2.9805883  10.6323155  )
        35           O1  tau(  35) = (   1.2865780   4.4896361  12.6556599  )
        36           O1  tau(  36) = (   5.2967437   4.4749066  12.6066920  )
        37           Ti1 tau(  37) = (   6.5467059   0.0356701  12.5108493  )
        38           Ti1 tau(  38) = (   3.2305653   4.4019604  12.5605372  )
        39           O1  tau(  39) = (   6.5199767   2.9846217  14.6905747  )
        40           O1  tau(  40) = (   3.2851694   3.0254550  13.9321539  )
        41           O1  tau(  41) = (   4.5310495   4.4602642  16.1636806  )
        42           O1  tau(  42) = (   1.9842988   4.5744318  15.9411167  )
        43           Ti1 tau(  43) = (   3.2691225   0.1036042  15.7405456  )
        44           Ti1 tau(  44) = (   6.5697781   4.6877429  16.0360384  )
        45           O1  tau(  45) = (   3.2900926   2.9813045   4.7018136  )
        46           O1  tau(  46) = (   1.3039711   4.4726057   6.0039043  )
        47           O1  tau(  47) = (   5.2763189   4.4711207   6.0039473  )
        48           N1  tau(  48) = (   1.2792381   2.8578196  18.3696018  )
        49           N1  tau(  49) = (   0.1888888   2.9646215  17.5057353  )
        50           C1  tau(  50) = (   2.5352320   2.9081513  18.0382144  )
        51           H1  tau(  51) = (   3.1442446   2.7411670  18.9317345  )
        52           H1  tau(  52) = (   1.0014291   2.6635404  19.3302151  )
        53           H1  tau(  53) = (   5.9397212   2.8571719  18.0851170  )
        54           O1  tau(  54) = (   3.2630597   0.0341043  18.2348460  )
        55           H1  tau(  55) = (   4.0455299   5.4198958  18.2485053  )
        56           H1  tau(  56) = (   2.4923979   5.4091459  18.3156537  )

     number of k points=    10  Fermi-Dirac smearing, width (Ry)=  0.0073
                       cart. coord. in units 2pi/alat
        k(    1) = (   0.0000000   0.0000000   0.0000000), wk =   0.1250000
        k(    2) = (   0.0000000   0.0419351   0.0000000), wk =   0.2500000
        k(    3) = (   0.0000000  -0.0838702   0.0000000), wk =   0.1250000
        k(    4) = (   0.0379955   0.0000049   0.0000000), wk =   0.2500000
        k(    5) = (   0.0379955   0.0419400   0.0000000), wk =   0.2500000
        k(    6) = (   0.0379955  -0.0838652   0.0000000), wk =   0.2500000
        k(    7) = (   0.0379955  -0.0419301   0.0000000), wk =   0.2500000
        k(    8) = (  -0.0759910  -0.0000099   0.0000000), wk =   0.1250000
        k(    9) = (  -0.0759910   0.0419252   0.0000000), wk =   0.2500000
        k(   10) = (  -0.0759910  -0.0838800   0.0000000), wk =   0.1250000

     Initial potential from superposition of free atoms

     starting charge  386.99914, renormalised to  403.00000

     negative rho (up, down):  1.738E-02 0.000E+00

     %%%%%%%%%%%%%%%%%%%%%%%%%%%%%%%%%%%%%%%%%%%%%%%%%%%%%%%%%%%%%%%%%%%%%%%%
     %                                                                      %
     % You are using vdW-DF, which was implemented by the Thonhauser group. %
     % Please cite the following two papers that made this development      %
     % possible and the two reviews that describe the various versions:     %
     %                                                                      %
     %   T. Thonhauser et al., PRL 115, 136402 (2015).                      %
     %   T. Thonhauser et al., PRB 76, 125112 (2007).                       %
     %   K. Berland et al., Rep. Prog. Phys. 78, 066501 (2015).             %
     %   D.C. Langreth et al., J. Phys.: Condens. Matter 21, 084203 (2009). %
     %                                                                      %
     %                                                                      %
     % If you are calculating the stress with vdW-DF, please also cite:     %
     %                                                                      %
     %   R. Sabatini et al., J. Phys.: Condens. Matter 24, 424209 (2012).   %
     %                                                                      %
     %%%%%%%%%%%%%%%%%%%%%%%%%%%%%%%%%%%%%%%%%%%%%%%%%%%%%%%%%%%%%%%%%%%%%%%%

     Adding external electric field

     Computed dipole along edir(3) :
        Dipole              -12.3463 Ry au,        -31.3811 Debye
        Dipole field         -0.0233 Ry au,

        Potential amp.        2.1598 Ry
        Total length         46.3494 bohr

     Starting wfcs are  305 atomic wfcs
  @ DRIVER MODE: Message from server: STATUS
  @ DRIVER MODE: Message from server: POSDATA
  @ DRIVER MODE: Reading and sharing cell
  @ DRIVER MODE: Reading and sharing positions
  @ DRIVER MODE: Received positions

     Self-consistent Calculation

     iteration #  1     ecut=    29.40 Ry     beta= 0.05
     Davidson diagonalization with overlap
     ethr =  1.00E-02,  avg # of iterations =  3.5

[...]

     total energy              =   -2405.75248258 Ry
     estimated scf accuracy    <    6476.74843157 Ry

[...]

     iteration #  8     ecut=    29.40 Ry     beta= 0.05
     Davidson diagonalization with overlap
     c_bands:  2 eigenvalues not converged
     c_bands:  1 eigenvalues not converged
     ethr =  7.75E-03,  avg # of iterations = 21.5

[...]

     iteration # 73     ecut=    29.40 Ry     beta= 0.05
     Davidson diagonalization with overlap
     c_bands:  2 eigenvalues not converged
     c_bands:  1 eigenvalues not converged
     ethr =  7.87E-11,  avg # of iterations = 14.7

[...]

     total energy              =   -2973.94011566 Ry
     estimated scf accuracy    <       0.00000019 Ry

     iteration # 76     ecut=    29.40 Ry     beta= 0.05
     Davidson diagonalization with overlap
     ethr =  4.60E-11,  avg # of iterations =  9.0

     negative rho (up, down):  1.725E-02 0.000E+00

     Adding external electric field

     Computed dipole along edir(3) :
        Dipole                1.3989 Ry au,          3.5558 Debye
        Dipole field          0.0026 Ry au,

        Potential amp.       -0.2447 Ry
        Total length         46.3494 bohr

     End of self-consistent calculation

          k = 0.0000 0.0000 0.0000 ( 18029 PWs)   bands (ev):

   -55.3196 -55.2855 -55.2100 -55.1857 -55.1670 -55.1556 -55.1404 -55.1184
   -55.1065 -55.1041 -55.0976 -55.0630 -54.9919 -54.8338 -54.2998 -54.2657
   -31.8038 -31.7309 -31.6567 -31.6500 -31.6402 -31.6114 -31.5872 -31.5647
   -31.5197 -31.5010 -31.4720 -31.4638 -31.4554 -31.4407 -31.4256 -31.4215
   -31.3981 -31.3800 -31.3768 -31.3648 -31.3351 -31.3331 -31.3288 -31.3257
   -31.3228 -31.3191 -31.3150 -31.2969 -31.2891 -31.2792 -31.2723 -31.2718
   -31.2617 -31.2603 -31.2520 -31.2482 -31.2399 -31.2146 -31.2101 -31.0901
   -31.0750 -31.0492 -30.7065 -30.6187 -30.5962 -30.5237 -30.4372 -30.3257
   -18.8782 -18.6523 -15.9777 -15.7939 -15.6128 -15.4738 -15.3918 -15.1603
   -15.1018 -15.0634 -14.9822 -14.9594 -14.8589 -14.8400 -14.8385 -14.8202
   -14.8173 -14.7623 -14.7471 -14.7427 -14.6941 -14.6873 -14.6620 -14.6465
   -14.5939 -14.5153 -14.5066 -14.4603 -14.4150 -14.3686 -14.0224 -13.4137
   -12.8005 -12.6840  -8.8035  -7.2711  -6.6175  -4.3220  -3.7900  -3.3608
    -3.2844  -3.2492  -3.2242  -3.0885  -2.9716  -2.8663  -2.7557  -2.6712
    -2.5846  -2.4801  -2.4236  -2.3780  -2.3174  -2.2575  -2.2313  -2.1456
    -2.1259  -2.1062  -2.0844  -2.0578  -2.0285  -1.9914  -1.8688  -1.8581
    -1.7760  -1.7199  -1.6811  -1.6632  -1.6391  -1.6336  -1.6012  -1.5809
    -1.5722  -1.5607  -1.5592  -1.5239  -1.3849  -1.3610  -1.3323  -1.3101
    -1.1633  -1.0257  -0.9368  -0.9344  -0.8250  -0.7602  -0.7571  -0.7187
    -0.7030  -0.6007  -0.5152  -0.4787  -0.4541  -0.3747  -0.3174  -0.2625
    -0.2108  -0.1752  -0.1089  -0.0850  -0.0684  -0.0515   0.0178   0.0801
     0.1414   0.2266   0.2701   0.2944   0.3854   0.3995   0.4226   0.4874
     0.5195   0.5643   0.5997   0.6289   0.6524   0.6828   0.7081   0.7512
     0.7894   0.9150   0.9333   0.9618   0.9829   1.1573   1.2070   1.3097
     1.3399   1.4416   1.4840   1.6630   1.7243   1.8035   1.9160   2.2943
     2.3400   3.7896   3.9010   3.9351   3.9601   3.9994   4.0507   4.2572
     4.3303   4.3717   4.4292

[...]

          k = 0.0380-0.0419 0.0000 ( 17876 PWs)   bands (ev):

[...]

          k =-0.0760-0.0000 0.0000 ( 17886 PWs)   bands (ev):

[...]

          k =-0.0760-0.0839 0.0000 ( 17948 PWs)   bands (ev):

   -55.3027 -55.3022 -55.2005 -55.1824 -55.1757 -55.1441 -55.1302 -55.1235
   -55.1228 -55.1077 -55.0843 -55.0764 -54.9902 -54.8354 -54.2827 -54.2826
   -31.6192 -31.6189 -31.5971 -31.5966 -31.5652 -31.5333 -31.5022 -31.4897
   -31.4827 -31.4675 -31.4489 -31.4436 -31.4397 -31.4302 -31.4254 -31.4234
   -31.4221 -31.4218 -31.4166 -31.4007 -31.3899 -31.3758 -31.3650 -31.3628
   -31.3578 -31.3533 -31.3442 -31.3316 -31.3259 -31.3244 -31.3091 -31.2999
   -31.2967 -31.2960 -31.2942 -31.2914 -31.2610 -31.2332 -31.2193 -31.1461
   -31.0924 -31.0780 -30.6090 -30.6089 -30.5194 -30.5192 -30.4805 -30.4804
   -18.8675 -18.6586 -15.3551 -15.3200 -15.2819 -15.2548 -15.2387 -15.1177
   -15.1040 -15.0685 -15.0269 -15.0137 -14.9834 -14.9547 -14.9059 -14.8973
   -14.8632 -14.8436 -14.8044 -14.7780 -14.7587 -14.7544 -14.7375 -14.7160
   -14.6724 -14.6506 -14.6380 -14.6337 -14.5819 -14.4876 -14.2077 -13.4363
   -12.7859 -12.7858  -8.7993  -7.1964  -6.6186  -4.5304  -3.5725  -2.8660
    -2.6694  -2.6307  -2.5784  -2.4881  -2.4410  -2.3190  -2.3125  -2.2898
    -2.2445  -2.2315  -2.1907  -2.1505  -2.1445  -2.1166  -2.1043  -2.0597
    -2.0483  -2.0452  -2.0310  -1.9973  -1.9918  -1.9713  -1.9471  -1.9440
    -1.9337  -1.9174  -1.8843  -1.8772  -1.8500  -1.8310  -1.6800  -1.6063
    -1.5629  -1.4855  -1.4624  -1.4456  -1.4265  -1.3918  -1.3716  -1.3459
    -1.3176  -1.1717  -1.0310  -0.9964  -0.9716  -0.8730  -0.8579  -0.8386
    -0.7914  -0.7500  -0.7147  -0.6562  -0.6473  -0.6011  -0.5801  -0.4601
    -0.4227  -0.3235  -0.2879  -0.2862  -0.2685  -0.2538  -0.2367  -0.2108
    -0.1613  -0.0900  -0.0745  -0.0258  -0.0020   0.0006   0.0137   0.1596
     0.2304   0.2509   0.3533   0.3833   0.5581   0.7221   0.7340   0.8019
     0.8648   0.9199   0.9537   0.9935   1.0038   1.0695   1.0944   1.1989
     1.2091   1.2581   1.2631   1.3418   1.3543   2.0879   2.0896   2.1600
     2.1601   4.1535   4.1692   4.1975   4.2605   4.3040   4.3156   4.3530
     4.3567   4.4596   4.4759

     the Fermi energy is     3.8078 ev

!    total energy              =   -2973.94013635 Ry
     estimated scf accuracy    <       0.00000005 Ry
     smearing contrib. (-TS)   =      -0.02072268 Ry
     internal energy E=F+TS    =   -2973.91941367 Ry

     The total energy is F=E-TS. E is the sum of the following terms:
     one-electron contribution =  -24338.97898033 Ry
     hartree contribution      =   12267.19570819 Ry
     xc contribution           =    -494.11773269 Ry
     ewald contribution        =    9591.97789795 Ry
     electric field correction =       0.00369322 Ry

     convergence has been achieved in  76 iterations

     Forces acting on atoms (cartesian axes, Ry/au):

     atom    1 type  1   force =     0.00002655   -0.00010024    0.09508198
     atom    2 type  1   force =     0.00018138   -0.00068755   -0.17564089
     atom    3 type  2   force =     0.00008913   -0.00004770   -0.02293155
     atom    4 type  2   force =     0.00002123   -0.00143320    0.05291375
     atom    5 type  2   force =    -0.01000932   -0.00031438    0.00380778
     atom    6 type  2   force =     0.01113189    0.00020308    0.00206262
     atom    7 type  1   force =    -0.00021225    0.00177936   -0.00589355
     atom    8 type  1   force =     0.00080906    0.01008715    0.01604391
     atom    9 type  2   force =    -0.00015896    0.00086501    0.00031861
     atom   10 type  2   force =    -0.00227071    0.00217711   -0.01802012
     atom   11 type  2   force =     0.00023865   -0.00003408    0.00008644
     atom   12 type  2   force =    -0.00035514   -0.00018686    0.00056712
     atom   13 type  1   force =    -0.00002350    0.00125400    0.00018381
     atom   14 type  1   force =    -0.00012072    0.00009179   -0.00000712
     atom   15 type  2   force =     0.00011843    0.00022383   -0.00000729
     atom   16 type  2   force =    -0.00037281    0.00044228   -0.00022772
     atom   17 type  2   force =    -0.00016199   -0.00023105   -0.00001768
     atom   18 type  2   force =    -0.00004599    0.00002469    0.00040904
     atom   19 type  1   force =    -0.00052688    0.00032557   -0.00026604
     atom   20 type  1   force =    -0.00027376   -0.00013378    0.00015442
     atom   21 type  2   force =     0.00009117   -0.00008564    0.10316726
     atom   22 type  2   force =     0.00038473    0.00002392    0.00054656
     atom   23 type  2   force =    -0.07160218   -0.00016754   -0.02758028
     atom   24 type  2   force =     0.07156009    0.00024860   -0.02762644
     atom   25 type  1   force =     0.00023930   -0.00039392    0.09518461
     atom   26 type  1   force =    -0.00003729   -0.00020388   -0.17580514
     atom   27 type  2   force =     0.00012326   -0.00012367   -0.02195785
     atom   28 type  2   force =     0.00001477   -0.00139887    0.05324434
     atom   29 type  2   force =    -0.01035286   -0.00022975    0.00364964
     atom   30 type  2   force =     0.01139050    0.00042284    0.00191781
     atom   31 type  1   force =    -0.00029993    0.00266193   -0.00009296
     atom   32 type  1   force =     0.00067439   -0.01114374    0.01692505
     atom   33 type  2   force =     0.00037410   -0.00027480   -0.00000447
     atom   34 type  2   force =    -0.00033792    0.00143903   -0.01895278
     atom   35 type  2   force =    -0.00000703   -0.00035157   -0.00016060
     atom   36 type  2   force =    -0.00000443   -0.00024301    0.00044121
     atom   37 type  1   force =    -0.00005321   -0.00121977    0.00034148
     atom   38 type  1   force =    -0.00039326    0.00089732    0.00005171
     atom   39 type  2   force =     0.00009828    0.00007088    0.00009782
     atom   40 type  2   force =    -0.00048827   -0.00060151    0.00000134
     atom   41 type  2   force =     0.00019102   -0.00014224    0.00030231
     atom   42 type  2   force =    -0.00019821   -0.00033965   -0.00020756
     atom   43 type  1   force =    -0.00024862   -0.00019846    0.00042569
     atom   44 type  1   force =     0.00004775   -0.00030215    0.00021173
     atom   45 type  2   force =     0.00010118   -0.00010255    0.10318782
     atom   46 type  2   force =    -0.07158668   -0.00017023   -0.02757175
     atom   47 type  2   force =     0.07158768    0.00024391   -0.02758362
     atom   48 type  3   force =     0.00016381   -0.00050423    0.00026819
     atom   49 type  3   force =     0.00008575    0.00008988   -0.00012689
     atom   50 type  4   force =     0.00034331   -0.00025308    0.00047357
     atom   51 type  5   force =    -0.00015975   -0.00050400   -0.00023515
     atom   52 type  5   force =    -0.00002806   -0.00103065   -0.00081024
     atom   53 type  5   force =     0.00017430   -0.00041157   -0.00060668
     atom   54 type  2   force =    -0.00006036    0.00104266   -0.00009508
     atom   55 type  5   force =     0.00015176   -0.00023843   -0.00002276
     atom   56 type  5   force =    -0.00002340   -0.00081106    0.00038463

     Total force =     0.365189     Total SCF correction =     0.000445
  @ DRIVER MODE: Message from server: STATUS
  @ DRIVER MODE: Message from server: GETFORCE
  @ DRIVER MODE: Returning v,forces,stress,ensemble

     Writing output data file ./calc.save/
  @ DRIVER MODE: Message from server: EXIT
  @ DRIVE MODE: Exiting

     General routines

     Parallel routines

   This run was terminated on:  22:21: 5  21Sep2021

   JOB DONE.