     Program PWSCF v.6.7GPU starts on 23Sep2021 at  2:41:21

     R & G space division:  proc/nbgrp/npool/nimage =       8
     Reading input from /storage/home/hcoda1/3/ntian30/research/carbon/CxH_vib/H2O_calc/ads_slab/CH2OHHO_a/out_0013/pw.inp
Warning: card &CELL ignored
Warning: card   CELL_DYNAMICS='IPI', ignored
Warning: card / ignored

     Current dimensions of program PWSCF are:
     Max number of different atomic species (ntypx) = 10
     Max number of k-points (npk) =  40000
     Max angular momentum in pseudopotentials (lmaxx) =  3
     Presently no symmetry can be used with electric field

     Message from routine cell_base_init:
     DEPRECATED: use true lattice parameter, not A to a.u. conversion factor

     IMPORTANT: XC functional enforced from input :
     Exchange-correlation= BEEF-VDW
                           (   1   4  43  14   2   0   0)
     Any further DFT definition will be discarded
     Please, verify this is what you really want

  @ DRIVER MODE: Connecting to
 qe_1139763_2941013.sched-torque.pace.gatech.eduuy8ker5h_scratch
  using UNIX socket
  @ DRIVER MODE: Message from server: STATUS
  @ DRIVER MODE: Message from server: INIT
  @ DRIVER MODE: Receiving replica           0          -1
  @ DRIVER MODE: Receiving encoded integer          25
  @ DRIVER MODE:  SCF:  T  FORCE:  T  STRESS:  F  VC:  F  ENSEMBLE:  F
  @ DRIVER MODE:  SCF:  T  FORCE:  T  STRESS:  F  VC:  F  ENSEMBLE:  F

     Using Slab Decomposition

     bravais-lattice index     =            0
     lattice parameter (alat)  =       1.8897  a.u.
     unit-cell volume          =    6658.9804 (a.u.)^3
     number of atoms/cell      =           54
     number of atomic types    =            4
     number of electrons       =       398.00
     number of Kohn-Sham states=          209
     kinetic-energy cutoff     =      29.3995  Ry
     charge density cutoff     =     293.9946  Ry
     scf convergence threshold =      7.3E-08
     mixing beta               =       0.0500
     number of iterations used =            8  plain     mixing
     Exchange-correlation= BEEF-VDW
                           (   1   4  43  14   2   0   0)

     celldm(1)=   1.889726  celldm(2)=   0.000000  celldm(3)=   0.000000
     celldm(4)=   0.000000  celldm(5)=   0.000000  celldm(6)=   0.000000

     crystal axes: (cart. coord. in units of alat)
               a(1) = (   6.579727   0.000000   0.000000 )
               a(2) = (  -0.000775   5.961596   0.000000 )
               a(3) = (   0.000000   0.000000  25.155947 )

     reciprocal axes: (cart. coord. in units 2 pi/alat)
               b(1) = (  0.151982  0.000020  0.000000 )
               b(2) = (  0.000000  0.167740  0.000000 )
               b(3) = (  0.000000  0.000000  0.039752 )

     PseudoPot. # 1 for Ti read from file:
     /storage/coda1/p-amedford6/0/shared/rich_project_chbe-medford/medford-share/data/pseudos_module/espresso/nninc/pbe/van/Ti.UPF
     MD5 check sum: 8e4df49b7f0d34bbd5052bf3f5ea0213
     Pseudo is Ultrasoft, Zval = 12.0
     Generated by new atomic code, or converted to UPF format
     Using radial grid of  851 points,  6 beta functions with:
                l(1) =   0
                l(2) =   0
                l(3) =   1
                l(4) =   1
                l(5) =   2
                l(6) =   2
     Q(r) pseudized with  8 coefficients,  rinner =    1.000   1.000   1.000
                                                       1.000   1.000

     PseudoPot. # 2 for O  read from file:
     /storage/coda1/p-amedford6/0/shared/rich_project_chbe-medford/medford-share/data/pseudos_module/espresso/nninc/pbe/van/O.UPF
     MD5 check sum: 78c19812648e8988a0fe644b0f25305e
     Pseudo is Ultrasoft, Zval =  6.0
     Generated by new atomic code, or converted to UPF format
     Using radial grid of  737 points,  4 beta functions with:
                l(1) =   0
                l(2) =   0
                l(3) =   1
                l(4) =   1
     Q(r) pseudized with  8 coefficients,  rinner =    0.800   0.800   0.800

     PseudoPot. # 3 for C  read from file:
     /storage/coda1/p-amedford6/0/shared/rich_project_chbe-medford/medford-share/data/pseudos_module/espresso/nninc/pbe/van/C.UPF
     MD5 check sum: 1a69bf6b8db32088f5b2163dbdb77a27
     Pseudo is Ultrasoft, Zval =  4.0
     Generated by new atomic code, or converted to UPF format
     Using radial grid of  721 points,  4 beta functions with:
                l(1) =   0
                l(2) =   0
                l(3) =   1
                l(4) =   1
     Q(r) pseudized with  8 coefficients,  rinner =    0.800   0.800   0.800

     PseudoPot. # 4 for H  read from file:
     /storage/coda1/p-amedford6/0/shared/rich_project_chbe-medford/medford-share/data/pseudos_module/espresso/nninc/pbe/van/H.UPF
     MD5 check sum: b5ee9d7bfd3a09ee7748110bda690ff7
     Pseudo is Ultrasoft, Zval =  1.0
     Generated by new atomic code, or converted to UPF format
     Using radial grid of  615 points,  1 beta functions with:
                l(1) =   0
     Q(r) pseudized with  8 coefficients,  rinner =    0.800

     atomic species   valence    mass     pseudopotential
        Ti1           12.00    47.86700     Ti( 1.00)
        O1             6.00    15.99900     O ( 1.00)
        C1             4.00    12.01100     C ( 1.00)
        H1             1.00     1.00800     H ( 1.00)

     No symmetry found

   Cartesian axes

     site n.     atom                  positions (alat units)
         1           Ti1 tau(   1) = (   0.0004258   2.9801865   6.0000000  )
         2           Ti1 tau(   2) = (   3.2906075   1.4906267   6.0002472  )
         3           O1  tau(   3) = (   0.0006271   0.0005054   7.9858123  )
         4           O1  tau(   4) = (   3.2906025   0.0005020   7.3038282  )
         5           O1  tau(   5) = (   4.5942328   1.4918067   9.2879030  )
         6           O1  tau(   6) = (   1.9868534   1.4903216   9.2879459  )
         7           Ti1 tau(   7) = (   3.2053781   3.0281819   9.2289109  )
         8           Ti1 tau(   8) = (   6.4789090   1.5422439   9.3246958  )
         9           O1  tau(   9) = (   3.3131828   0.0076525  11.3143355  )
        10           O1  tau(  10) = (   0.0036331   0.0073455  10.5537702  )
        11           O1  tau(  11) = (   1.2849538   1.5262321  12.5678262  )
        12           O1  tau(  12) = (   5.3289628   1.4687457  12.6164477  )
        13           Ti1 tau(  13) = (   0.0494698   3.0469090  12.7547230  )
        14           Ti1 tau(  14) = (   3.2845375   1.6334081  12.5308488  )
        15           O1  tau(  15) = (   0.1943872   0.0117586  14.6058021  )
        16           O1  tau(  16) = (   3.1943342   5.9422946  13.9142442  )
        17           O1  tau(  17) = (   4.6623408   1.4089460  15.7678261  )
        18           O1  tau(  18) = (   2.0428328   1.6351894  16.0888801  )
        19           Ti1 tau(  19) = (   3.4388860   2.9458104  15.8736401  )
        20           Ti1 tau(  20) = (   0.1295272   1.3814375  15.8666627  )
        21           O1  tau(  21) = (   3.2904802   0.0005063   4.7018136  )
        22           O1  tau(  22) = (   0.0846747   0.0144810  17.1090220  )
        23           O1  tau(  23) = (   1.3043587   1.4918075   6.0039043  )
        24           O1  tau(  24) = (   5.2767064   1.4903225   6.0039473  )
        25           Ti1 tau(  25) = (   0.0000382   5.9609847   6.0000000  )
        26           Ti1 tau(  26) = (   3.2902200   4.4714249   6.0002472  )
        27           O1  tau(  27) = (   0.0002396   2.9813036   7.9858123  )
        28           O1  tau(  28) = (   3.2902150   2.9813002   7.3038282  )
        29           O1  tau(  29) = (   4.5938453   4.4726049   9.2879030  )
        30           O1  tau(  30) = (   1.9864658   4.4711199   9.2879459  )
        31           Ti1 tau(  31) = (   3.2224821   0.0470802   9.2230333  )
        32           Ti1 tau(  32) = (   6.4759698   4.4664252   9.3127940  )
        33           O1  tau(  33) = (   3.3094535   2.9663607  11.2852029  )
        34           O1  tau(  34) = (   6.5591786   2.9896559  10.5312464  )
        35           O1  tau(  35) = (   1.2916819   4.4480478  12.5709280  )
        36           O1  tau(  36) = (   5.3369627   4.5124161  12.6303246  )
        37           Ti1 tau(  37) = (   6.5569224   0.0640291  12.4639877  )
        38           Ti1 tau(  38) = (   3.2972653   4.6387695  12.6472152  )
        39           O1  tau(  39) = (   0.0654804   2.9943531  14.6628162  )
        40           O1  tau(  40) = (   3.3673531   2.9793459  13.8791815  )
        41           O1  tau(  41) = (   4.6654837   4.5585741  15.7845026  )
        42           O1  tau(  42) = (   2.0434307   4.3527116  16.0649513  )
        43           Ti1 tau(  43) = (   3.4443475   5.9291804  16.0141943  )
        44           Ti1 tau(  44) = (   0.1552736   4.5966999  15.8683145  )
        45           O1  tau(  45) = (   3.2900926   2.9813045   4.7018136  )
        46           O1  tau(  46) = (   1.3039711   4.4726057   6.0039043  )
        47           O1  tau(  47) = (   5.2763189   4.4711207   6.0039473  )
        48           C1  tau(  48) = (   4.6056898   2.9812133  17.8228851  )
        49           O1  tau(  49) = (   6.0966523   2.9907575  17.4046881  )
        50           H1  tau(  50) = (   0.0499730   2.9907033  18.2108262  )
        51           H1  tau(  51) = (   4.4920754   2.0732530  18.4117920  )
        52           H1  tau(  52) = (   4.4771298   3.8877196  18.4106030  )
        53           O1  tau(  53) = (   3.3127961   5.9530928  17.8757943  )
        54           H1  tau(  54) = (   2.4287022   0.1083392  18.2542858  )

     number of k points=    10  Fermi-Dirac smearing, width (Ry)=  0.0073
                       cart. coord. in units 2pi/alat
        k(    1) = (   0.0000000   0.0000000   0.0000000), wk =   0.1250000
        k(    2) = (   0.0000000   0.0419351   0.0000000), wk =   0.2500000
        k(    3) = (   0.0000000  -0.0838702   0.0000000), wk =   0.1250000
        k(    4) = (   0.0379955   0.0000049   0.0000000), wk =   0.2500000
        k(    5) = (   0.0379955   0.0419400   0.0000000), wk =   0.2500000
        k(    6) = (   0.0379955  -0.0838652   0.0000000), wk =   0.2500000
        k(    7) = (   0.0379955  -0.0419301   0.0000000), wk =   0.2500000
        k(    8) = (  -0.0759910  -0.0000099   0.0000000), wk =   0.1250000
        k(    9) = (  -0.0759910   0.0419252   0.0000000), wk =   0.2500000
        k(   10) = (  -0.0759910  -0.0838800   0.0000000), wk =   0.1250000

     Initial potential from superposition of free atoms

     starting charge  381.99917, renormalised to  398.00000

     negative rho (up, down):  1.911E-02 0.000E+00

     %%%%%%%%%%%%%%%%%%%%%%%%%%%%%%%%%%%%%%%%%%%%%%%%%%%%%%%%%%%%%%%%%%%%%%%%
     %                                                                      %
     % You are using vdW-DF, which was implemented by the Thonhauser group. %
     % Please cite the following two papers that made this development      %
     % possible and the two reviews that describe the various versions:     %
     %                                                                      %
     %   T. Thonhauser et al., PRL 115, 136402 (2015).                      %
     %   T. Thonhauser et al., PRB 76, 125112 (2007).                       %
     %   K. Berland et al., Rep. Prog. Phys. 78, 066501 (2015).             %
     %   D.C. Langreth et al., J. Phys.: Condens. Matter 21, 084203 (2009). %
     %                                                                      %
     %                                                                      %
     % If you are calculating the stress with vdW-DF, please also cite:     %
     %                                                                      %
     %   R. Sabatini et al., J. Phys.: Condens. Matter 24, 424209 (2012).   %
     %                                                                      %
     %%%%%%%%%%%%%%%%%%%%%%%%%%%%%%%%%%%%%%%%%%%%%%%%%%%%%%%%%%%%%%%%%%%%%%%%

     Adding external electric field

     Computed dipole along edir(3) :
        Dipole               -7.9392 Ry au,        -20.1794 Debye
        Dipole field         -0.0150 Ry au,

        Potential amp.        1.3888 Ry
        Total length         46.3494 bohr

     Starting wfcs are  300 atomic wfcs
  @ DRIVER MODE: Message from server: STATUS
  @ DRIVER MODE: Message from server: POSDATA
  @ DRIVER MODE: Reading and sharing cell
  @ DRIVER MODE: Reading and sharing positions
  @ DRIVER MODE: Received positions

     Self-consistent Calculation

     iteration #  1     ecut=    29.40 Ry     beta= 0.05
     Davidson diagonalization with overlap
     c_bands:  1 eigenvalues not converged
     c_bands:  2 eigenvalues not converged
     c_bands:  2 eigenvalues not converged
     c_bands:  1 eigenvalues not converged
     c_bands:  1 eigenvalues not converged
     c_bands:  1 eigenvalues not converged
     ethr =  1.00E-05,  avg # of iterations = 18.8

[...]

     total energy              =   -2649.60002267 Ry
     estimated scf accuracy    <    3499.37462297 Ry

[...]

     iteration #  3     ecut=    29.40 Ry     beta= 0.05
     Davidson diagonalization with overlap
     ethr =  1.00E-02,  avg # of iterations = 13.3

[...]

     iteration # 43     ecut=    29.40 Ry     beta= 0.05
     Davidson diagonalization with overlap
     c_bands:  2 eigenvalues not converged
     c_bands:  1 eigenvalues not converged
     c_bands:  1 eigenvalues not converged
     ethr =  2.02E-07,  avg # of iterations = 13.1

[...]

     total energy              =   -2964.91875652 Ry
     estimated scf accuracy    <       0.00000018 Ry

     iteration # 73     ecut=    29.40 Ry     beta= 0.05
     Davidson diagonalization with overlap
     ethr =  4.15E-11,  avg # of iterations =  5.0

     negative rho (up, down):  1.875E-02 0.000E+00

     Adding external electric field

     Computed dipole along edir(3) :
        Dipole                0.6453 Ry au,          1.6401 Debye
        Dipole field          0.0012 Ry au,

        Potential amp.       -0.1129 Ry
        Total length         46.3494 bohr

     End of self-consistent calculation

          k = 0.0000 0.0000 0.0000 ( 18029 PWs)   bands (ev):

   -56.4316 -56.3667 -55.7977 -55.7961 -55.7497 -55.7457 -55.7424 -55.7018
   -55.6947 -55.6471 -55.4588 -55.4439 -55.3801 -55.3618 -54.9569 -54.9230
   -32.8339 -32.7072 -32.6304 -32.6025 -32.5007 -32.4587 -32.4117 -32.3224
   -32.2155 -32.1836 -32.1052 -32.0619 -32.0413 -32.0052 -32.0037 -31.9956
   -31.9763 -31.9615 -31.9565 -31.9450 -31.9401 -31.9362 -31.9244 -31.9066
   -31.8939 -31.8920 -31.8737 -31.8642 -31.8521 -31.8342 -31.8242 -31.7994
   -31.7599 -31.7041 -31.6614 -31.6475 -31.6230 -31.5934 -31.5905 -31.5602
   -31.5494 -31.4198 -31.3496 -31.3040 -31.2794 -31.1655 -31.0793 -30.9704
   -19.3605 -16.5892 -16.4379 -16.3076 -16.1711 -15.9569 -15.9279 -15.8249
   -15.7240 -15.6824 -15.6017 -15.5727 -15.4347 -15.3848 -15.3566 -15.3353
   -15.3159 -15.2964 -15.2820 -15.2441 -15.2286 -15.1941 -15.1413 -15.0757
   -15.0544 -15.0018 -14.9707 -14.9542 -14.8699 -14.8052 -14.7245 -13.4642
   -13.3584  -9.1630  -6.2161  -4.0873  -3.9829  -3.9317  -3.8824  -3.7854
    -3.7195  -3.6863  -3.6231  -3.3070  -3.1750  -3.0812  -3.0279  -3.0040
    -2.9282  -2.9269  -2.9130  -2.7951  -2.7357  -2.7097  -2.6481  -2.6313
    -2.5884  -2.5549  -2.5490  -2.5348  -2.4923  -2.4522  -2.4126  -2.3927
    -2.3471  -2.2641  -2.2462  -2.1686  -2.1342  -2.1124  -2.0252  -1.9602
    -1.9505  -1.9131  -1.8897  -1.7825  -1.6065  -1.5198  -1.4621  -1.4079
    -1.3864  -1.3186  -1.3096  -1.2513  -1.1940  -1.1693  -1.1656  -1.0492
    -0.9968  -0.9641  -0.9180  -0.8836  -0.8191  -0.7720  -0.7560  -0.7259
    -0.7121  -0.6044  -0.5167  -0.4979  -0.4689  -0.4359  -0.3149  -0.2689
    -0.2360  -0.2086  -0.1918  -0.1507  -0.1064  -0.0385   0.0065   0.0623
     0.1010   0.1720   0.1823   0.2207   0.2560   0.2918   0.3553   0.3706
     0.4742   0.5034   0.5596   0.5964   0.7411   0.7698   0.9294   0.9913
     1.0536   1.1482   1.2744   1.3364   1.5840   1.6234   1.7825   2.8836
     3.0465   3.3141   3.3589   3.4942   3.5646   3.6221   3.7640   3.7907
     3.8444

[...]

          k = 0.0380-0.0419 0.0000 ( 17876 PWs)   bands (ev):

[...]

          k =-0.0760-0.0000 0.0000 ( 17886 PWs)   bands (ev):

[...]

          k =-0.0760-0.0839 0.0000 ( 17948 PWs)   bands (ev):

   -56.4268 -56.3713 -55.7899 -55.7897 -55.7572 -55.7487 -55.7383 -55.7090
   -55.6875 -55.6543 -55.4557 -55.4391 -55.3849 -55.3647 -54.9401 -54.9397
   -32.7042 -32.6729 -32.6325 -32.6271 -32.5741 -32.5263 -32.3340 -32.1614
   -32.1073 -32.0740 -32.0537 -32.0357 -32.0352 -32.0225 -32.0150 -32.0131
   -31.9978 -31.9821 -31.9766 -31.9569 -31.9558 -31.9532 -31.9500 -31.9372
   -31.9245 -31.9040 -31.8933 -31.8842 -31.8678 -31.8386 -31.7870 -31.7676
   -31.7574 -31.7227 -31.7154 -31.6818 -31.6622 -31.6491 -31.6347 -31.6028
   -31.5966 -31.4208 -31.2926 -31.2923 -31.1634 -31.1629 -31.1227 -31.1223
   -19.3532 -16.2405 -16.1290 -15.9406 -15.9050 -15.8288 -15.8271 -15.7777
   -15.7381 -15.6411 -15.5857 -15.5674 -15.4951 -15.4708 -15.4538 -15.4280
   -15.3776 -15.3523 -15.3289 -15.3179 -15.2736 -15.2499 -15.2461 -15.1990
   -15.1455 -15.1199 -15.1018 -15.0501 -14.9943 -14.9354 -14.8824 -13.4657
   -13.4599  -9.1710  -6.1983  -4.0912  -3.6762  -3.6317  -3.3387  -3.1559
    -2.9766  -2.9648  -2.9511  -2.9433  -2.8746  -2.8678  -2.8189  -2.7786
    -2.7230  -2.7029  -2.6757  -2.6703  -2.6643  -2.6228  -2.6122  -2.5861
    -2.5592  -2.5540  -2.5109  -2.5040  -2.4838  -2.4369  -2.4228  -2.3899
    -2.3601  -2.3336  -2.2815  -2.2247  -2.2055  -2.1922  -2.0648  -1.9961
    -1.9915  -1.9157  -1.9015  -1.8729  -1.8334  -1.7573  -1.6954  -1.6567
    -1.5247  -1.5049  -1.4493  -1.4115  -1.3368  -1.3254  -1.2417  -1.2124
    -1.1689  -1.1395  -1.1072  -1.0855  -1.0654  -1.0617  -0.9383  -0.9064
    -0.8522  -0.8394  -0.8066  -0.7738  -0.7499  -0.6937  -0.6251  -0.6167
    -0.5681  -0.5210  -0.4535  -0.4152  -0.3344  -0.2773  -0.2374  -0.1701
    -0.0640   0.0570   0.0959   0.2004   0.2976   0.3052   0.3712   0.4204
     0.4474   0.4924   0.5778   0.5887   0.6556   0.6669   0.7005   0.7578
     0.8069   0.8777   1.4241   1.4400   1.4616   1.4644   1.7201   3.4272
     3.4539   3.4740   3.5167   3.6629   3.7563   3.7830   3.8492   3.8942
     3.9193

     the Fermi energy is     2.4063 ev

!    total energy              =   -2964.91876903 Ry
     estimated scf accuracy    <       0.00000007 Ry
     smearing contrib. (-TS)   =      -0.00043815 Ry
     internal energy E=F+TS    =   -2964.91833088 Ry

     The total energy is F=E-TS. E is the sum of the following terms:
     one-electron contribution =  -24900.76255761 Ry
     hartree contribution      =   12540.75202836 Ry
     xc contribution           =    -490.07347899 Ry
     ewald contribution        =    9885.16489162 Ry
     electric field correction =       0.00078574 Ry

     convergence has been achieved in  73 iterations

     Forces acting on atoms (cartesian axes, Ry/au):

     atom    1 type  1   force =     0.00010095   -0.00023268    0.12242446
     atom    2 type  1   force =     0.00010624    0.00183313   -0.15180004
     atom    3 type  2   force =    -0.00068227   -0.00092102   -0.05774197
     atom    4 type  2   force =    -0.00119314    0.00052101    0.04765448
     atom    5 type  2   force =    -0.01070435   -0.00519139   -0.00143615
     atom    6 type  2   force =     0.01358253    0.00025500   -0.00014200
     atom    7 type  1   force =    -0.00026654    0.00014462    0.00008620
     atom    8 type  1   force =     0.00039587   -0.00012917   -0.00038199
     atom    9 type  2   force =     0.00001335   -0.00023146    0.00041380
     atom   10 type  2   force =    -0.00012482   -0.00005626    0.00012967
     atom   11 type  2   force =    -0.00046008   -0.00027061    0.00026658
     atom   12 type  2   force =     0.00017262    0.00007675   -0.00000542
     atom   13 type  1   force =     0.00040352   -0.00010494   -0.00004487
     atom   14 type  1   force =    -0.00010323   -0.00028315    0.00001704
     atom   15 type  2   force =    -0.00028533   -0.00016581   -0.00019702
     atom   16 type  2   force =     0.00018860    0.00008597   -0.00010408
     atom   17 type  2   force =    -0.00014272   -0.00007160    0.00002468
     atom   18 type  2   force =    -0.00002808   -0.00024680    0.00003751
     atom   19 type  1   force =    -0.00051093    0.00000021   -0.00002823
     atom   20 type  1   force =    -0.00004452    0.00000373   -0.00047922
     atom   21 type  2   force =     0.00026766    0.00012867    0.09730034
     atom   22 type  2   force =    -0.00034026   -0.00032582   -0.00029150
     atom   23 type  2   force =    -0.08311503    0.00238510   -0.03357710
     atom   24 type  2   force =     0.08316377    0.00267462   -0.03364100
     atom   25 type  1   force =     0.00042480    0.00038067    0.13899961
     atom   26 type  1   force =     0.00005424   -0.00119025   -0.15162803
     atom   27 type  2   force =    -0.00069837    0.00143520   -0.05288094
     atom   28 type  2   force =    -0.00117734    0.00017421    0.04596717
     atom   29 type  2   force =    -0.01131248    0.00058607   -0.00073443
     atom   30 type  2   force =     0.01404806    0.00412643    0.00077269
     atom   31 type  1   force =    -0.00049683   -0.00017143    0.00016460
     atom   32 type  1   force =     0.00035045   -0.00005134   -0.00015574
     atom   33 type  2   force =    -0.00024637    0.00011324    0.00009024
     atom   34 type  2   force =     0.00013232    0.00008502    0.00012567
     atom   35 type  2   force =    -0.00020244    0.00054664    0.00034825
     atom   36 type  2   force =     0.00022739   -0.00000427   -0.00016719
     atom   37 type  1   force =    -0.00062937    0.00029417    0.00024201
     atom   38 type  1   force =    -0.00032573   -0.00039915   -0.00017484
     atom   39 type  2   force =     0.00003641   -0.00010841    0.00038064
     atom   40 type  2   force =    -0.00027859   -0.00010166    0.00026851
     atom   41 type  2   force =    -0.00004562   -0.00046157    0.00000651
     atom   42 type  2   force =    -0.00036436   -0.00017086    0.00023734
     atom   43 type  1   force =    -0.00015696   -0.00003017   -0.00025007
     atom   44 type  1   force =    -0.00004293    0.00003849    0.00004326
     atom   45 type  2   force =     0.00023452    0.00013475    0.09737260
     atom   46 type  2   force =    -0.08303161   -0.00265080   -0.03359133
     atom   47 type  2   force =     0.08306657   -0.00230576   -0.03369525
     atom   48 type  3   force =    -0.00089379   -0.00004046   -0.00068756
     atom   49 type  2   force =    -0.00634205    0.00001178   -0.00764537
     atom   50 type  4   force =     0.00728778    0.00007132    0.00791787
     atom   51 type  4   force =     0.00017460   -0.00018842    0.00021618
     atom   52 type  4   force =    -0.00014335    0.00004513   -0.00015750
     atom   53 type  2   force =    -0.00069121    0.00057044    0.00073412
     atom   54 type  4   force =     0.00064844   -0.00061711   -0.00060317

     Total force =     0.377996     Total SCF correction =     0.000574
  @ DRIVER MODE: Message from server: STATUS
  @ DRIVER MODE: Message from server: GETFORCE
  @ DRIVER MODE: Returning v,forces,stress,ensemble

     Writing output data file ./calc.save/
  @ DRIVER MODE: Message from server: EXIT
  @ DRIVE MODE: Exiting

     General routines

     Parallel routines

   This run was terminated on:   3: 6:17  23Sep2021

   JOB DONE.