     Program PWSCF v.6.7GPU starts on  8Sep2021 at 23:37:55

     R & G space division:  proc/nbgrp/npool/nimage =      10
     Reading input from /storage/home/hcoda1/3/ntian30/research/carbon/CxH_vib/CH3_calc/ads_slab/CH3NH2NH_c/out_0005/pw.inp
Warning: card &CELL ignored
Warning: card   CELL_DYNAMICS='IPI', ignored
Warning: card / ignored

     Current dimensions of program PWSCF are:
     Max number of different atomic species (ntypx) = 10
     Max number of k-points (npk) =  40000
     Max angular momentum in pseudopotentials (lmaxx) =  3
     Presently no symmetry can be used with electric field

     Message from routine cell_base_init:
     DEPRECATED: use true lattice parameter, not A to a.u. conversion factor

     IMPORTANT: XC functional enforced from input :
     Exchange-correlation= BEEF-VDW
                           (   1   4  43  14   2   0   0)
     Any further DFT definition will be discarded
     Please, verify this is what you really want

  @ DRIVER MODE: Connecting to
 qe_1139763_2767400.sched-torque.pace.gatech.eduoaw158bj_scratch
  using UNIX socket
  @ DRIVER MODE: Message from server: STATUS
  @ DRIVER MODE: Message from server: INIT
  @ DRIVER MODE: Receiving replica           0          -1
  @ DRIVER MODE: Receiving encoded integer          25
  @ DRIVER MODE:  SCF:  T  FORCE:  T  STRESS:  F  VC:  F  ENSEMBLE:  F
  @ DRIVER MODE:  SCF:  T  FORCE:  T  STRESS:  F  VC:  F  ENSEMBLE:  F

     Using Slab Decomposition

     bravais-lattice index     =            0
     lattice parameter (alat)  =       1.8897  a.u.
     unit-cell volume          =    6658.9804 (a.u.)^3
     number of atoms/cell      =           56
     number of atomic types    =            5
     number of electrons       =       398.00
     number of Kohn-Sham states=          209
     kinetic-energy cutoff     =      29.3995  Ry
     charge density cutoff     =     293.9946  Ry
     scf convergence threshold =      7.3E-08
     mixing beta               =       0.0500
     number of iterations used =            8  plain     mixing
     Exchange-correlation= BEEF-VDW
                           (   1   4  43  14   2   0   0)

     celldm(1)=   1.889726  celldm(2)=   0.000000  celldm(3)=   0.000000
     celldm(4)=   0.000000  celldm(5)=   0.000000  celldm(6)=   0.000000

     crystal axes: (cart. coord. in units of alat)
               a(1) = (   6.579727   0.000000   0.000000 )
               a(2) = (  -0.000775   5.961596   0.000000 )
               a(3) = (   0.000000   0.000000  25.155947 )

     reciprocal axes: (cart. coord. in units 2 pi/alat)
               b(1) = (  0.151982  0.000020  0.000000 )
               b(2) = (  0.000000  0.167740  0.000000 )
               b(3) = (  0.000000  0.000000  0.039752 )

     PseudoPot. # 1 for Ti read from file:
     /storage/coda1/p-amedford6/0/shared/rich_project_chbe-medford/medford-share/data/pseudos_module/espresso/nninc/pbe/van/Ti.UPF
     MD5 check sum: 8e4df49b7f0d34bbd5052bf3f5ea0213
     Pseudo is Ultrasoft, Zval = 12.0
     Generated by new atomic code, or converted to UPF format
     Using radial grid of  851 points,  6 beta functions with:
                l(1) =   0
                l(2) =   0
                l(3) =   1
                l(4) =   1
                l(5) =   2
                l(6) =   2
     Q(r) pseudized with  8 coefficients,  rinner =    1.000   1.000   1.000
                                                       1.000   1.000

     PseudoPot. # 2 for O  read from file:
     /storage/coda1/p-amedford6/0/shared/rich_project_chbe-medford/medford-share/data/pseudos_module/espresso/nninc/pbe/van/O.UPF
     MD5 check sum: 78c19812648e8988a0fe644b0f25305e
     Pseudo is Ultrasoft, Zval =  6.0
     Generated by new atomic code, or converted to UPF format
     Using radial grid of  737 points,  4 beta functions with:
                l(1) =   0
                l(2) =   0
                l(3) =   1
                l(4) =   1
     Q(r) pseudized with  8 coefficients,  rinner =    0.800   0.800   0.800

     PseudoPot. # 3 for N  read from file:
     /storage/coda1/p-amedford6/0/shared/rich_project_chbe-medford/medford-share/data/pseudos_module/espresso/nninc/pbe/van/N.UPF
     MD5 check sum: 90d10febe142ad51ac9d5be1deb811c4
     Pseudo is Ultrasoft, Zval =  5.0
     Generated by new atomic code, or converted to UPF format
     Using radial grid of  729 points,  4 beta functions with:
                l(1) =   0
                l(2) =   0
                l(3) =   1
                l(4) =   1
     Q(r) pseudized with  8 coefficients,  rinner =    0.800   0.800   0.800

     PseudoPot. # 4 for C  read from file:
     /storage/coda1/p-amedford6/0/shared/rich_project_chbe-medford/medford-share/data/pseudos_module/espresso/nninc/pbe/van/C.UPF
     MD5 check sum: 1a69bf6b8db32088f5b2163dbdb77a27
     Pseudo is Ultrasoft, Zval =  4.0
     Generated by new atomic code, or converted to UPF format
     Using radial grid of  721 points,  4 beta functions with:
                l(1) =   0
                l(2) =   0
                l(3) =   1
                l(4) =   1
     Q(r) pseudized with  8 coefficients,  rinner =    0.800   0.800   0.800

     PseudoPot. # 5 for H  read from file:
     /storage/coda1/p-amedford6/0/shared/rich_project_chbe-medford/medford-share/data/pseudos_module/espresso/nninc/pbe/van/H.UPF
     MD5 check sum: b5ee9d7bfd3a09ee7748110bda690ff7
     Pseudo is Ultrasoft, Zval =  1.0
     Generated by new atomic code, or converted to UPF format
     Using radial grid of  615 points,  1 beta functions with:
                l(1) =   0
     Q(r) pseudized with  8 coefficients,  rinner =    0.800

     atomic species   valence    mass     pseudopotential
        Ti1           12.00    47.86700     Ti( 1.00)
        O1             6.00    15.99900     O ( 1.00)
        N1             5.00    14.00700     N ( 1.00)
        C1             4.00    12.01100     C ( 1.00)
        H1             1.00     1.00800     H ( 1.00)

     No symmetry found

   Cartesian axes

     site n.     atom                  positions (alat units)
         1           Ti1 tau(   1) = (   0.0004258   2.9801865   6.0000000  )
         2           Ti1 tau(   2) = (   3.2906075   1.4906267   6.0002472  )
         3           O1  tau(   3) = (   0.0006271   0.0005054   7.9858123  )
         4           O1  tau(   4) = (   3.2906025   0.0005020   7.3038282  )
         5           O1  tau(   5) = (   4.5942328   1.4918067   9.2879030  )
         6           O1  tau(   6) = (   1.9868534   1.4903216   9.2879459  )
         7           Ti1 tau(   7) = (   3.2907910   2.8959150   9.1758416  )
         8           Ti1 tau(   8) = (   0.0015273   1.4827037   9.2680791  )
         9           O1  tau(   9) = (   3.3032705   0.0110091  11.3485381  )
        10           O1  tau(  10) = (   0.0116148   5.9584955  10.6183126  )
        11           O1  tau(  11) = (   1.3020657   1.4959176  12.6398190  )
        12           O1  tau(  12) = (   5.2896457   1.4919019  12.6612249  )
        13           Ti1 tau(  13) = (   0.0353884   3.0012823  12.5523301  )
        14           Ti1 tau(  14) = (   3.3275346   1.5008247  12.4978572  )
        15           O1  tau(  15) = (   0.0424128   0.0047235  14.7277795  )
        16           O1  tau(  16) = (   3.2762846   0.0047332  13.9819514  )
        17           O1  tau(  17) = (   4.5591522   1.5298593  16.0930730  )
        18           O1  tau(  18) = (   2.0612242   1.5646392  16.2256692  )
        19           Ti1 tau(  19) = (   3.3170857   3.0293758  15.7013767  )
        20           Ti1 tau(  20) = (   6.5267591   1.5471840  15.7818195  )
        21           O1  tau(  21) = (   3.2904802   0.0005063   4.7018136  )
        22           O1  tau(  22) = (   0.0258072   0.0396315  17.3287798  )
        23           O1  tau(  23) = (   1.3043587   1.4918075   6.0039043  )
        24           O1  tau(  24) = (   5.2767064   1.4903225   6.0039473  )
        25           Ti1 tau(  25) = (   0.0000382   5.9609847   6.0000000  )
        26           Ti1 tau(  26) = (   3.2902200   4.4714249   6.0002472  )
        27           O1  tau(  27) = (   0.0002396   2.9813036   7.9858123  )
        28           O1  tau(  28) = (   3.2902150   2.9813002   7.3038282  )
        29           O1  tau(  29) = (   4.5938453   4.4726049   9.2879030  )
        30           O1  tau(  30) = (   1.9864658   4.4711199   9.2879459  )
        31           Ti1 tau(  31) = (   3.2891106   5.8743827   9.1763621  )
        32           Ti1 tau(  32) = (   0.0006254   4.4649316   9.2693709  )
        33           O1  tau(  33) = (   3.3047253   2.9863606  11.3412877  )
        34           O1  tau(  34) = (   0.0092240   2.9805883  10.6323155  )
        35           O1  tau(  35) = (   1.3023160   4.4818153  12.6295520  )
        36           O1  tau(  36) = (   5.2910779   4.4839738  12.6480862  )
        37           Ti1 tau(  37) = (   0.0306270   0.0097343  12.5156175  )
        38           Ti1 tau(  38) = (   3.3295341   4.4791655  12.4867326  )
        39           O1  tau(  39) = (   0.0319336   2.9935560  14.7343221  )
        40           O1  tau(  40) = (   3.2835893   3.0037955  13.9224844  )
        41           O1  tau(  41) = (   4.5669158   4.4809188  16.1713821  )
        42           O1  tau(  42) = (   2.0542530   4.4668402  16.2247519  )
        43           Ti1 tau(  43) = (   3.3000170   0.0150779  15.7669526  )
        44           Ti1 tau(  44) = (   0.0416703   4.6955124  16.1636639  )
        45           O1  tau(  45) = (   3.2900926   2.9813045   4.7018136  )
        46           O1  tau(  46) = (   1.3039711   4.4726057   6.0039043  )
        47           O1  tau(  47) = (   5.2763189   4.4711207   6.0039473  )
        48           N1  tau(  48) = (   0.9019483   2.4226080  18.4467899  )
        49           N1  tau(  49) = (   6.4923839   2.9153054  17.5348467  )
        50           C1  tau(  50) = (   1.2734633   3.3482217  19.5544901  )
        51           H1  tau(  51) = (   0.3921683   3.5464126  20.1615046  )
        52           H1  tau(  52) = (   2.0553077   2.8833093  20.1573268  )
        53           H1  tau(  53) = (   1.6239766   4.2728770  19.1044814  )
        54           H1  tau(  54) = (   0.5870980   1.4942747  18.7832689  )
        55           H1  tau(  55) = (   5.5983569   2.8486818  18.0159164  )
        56           H1  tau(  56) = (   1.7025450   2.1792920  17.8234971  )

     number of k points=    10  Fermi-Dirac smearing, width (Ry)=  0.0073
                       cart. coord. in units 2pi/alat
        k(    1) = (   0.0000000   0.0000000   0.0000000), wk =   0.1250000
        k(    2) = (   0.0000000   0.0419351   0.0000000), wk =   0.2500000
        k(    3) = (   0.0000000  -0.0838702   0.0000000), wk =   0.1250000
        k(    4) = (   0.0379955   0.0000049   0.0000000), wk =   0.2500000
        k(    5) = (   0.0379955   0.0419400   0.0000000), wk =   0.2500000
        k(    6) = (   0.0379955  -0.0838652   0.0000000), wk =   0.2500000
        k(    7) = (   0.0379955  -0.0419301   0.0000000), wk =   0.2500000
        k(    8) = (  -0.0759910  -0.0000099   0.0000000), wk =   0.1250000
        k(    9) = (  -0.0759910   0.0419252   0.0000000), wk =   0.2500000
        k(   10) = (  -0.0759910  -0.0838800   0.0000000), wk =   0.1250000

     Initial potential from superposition of free atoms

     starting charge  381.99914, renormalised to  398.00000

     negative rho (up, down):  1.484E-02 0.000E+00

     %%%%%%%%%%%%%%%%%%%%%%%%%%%%%%%%%%%%%%%%%%%%%%%%%%%%%%%%%%%%%%%%%%%%%%%%
     %                                                                      %
     % You are using vdW-DF, which was implemented by the Thonhauser group. %
     % Please cite the following two papers that made this development      %
     % possible and the two reviews that describe the various versions:     %
     %                                                                      %
     %   T. Thonhauser et al., PRL 115, 136402 (2015).                      %
     %   T. Thonhauser et al., PRB 76, 125112 (2007).                       %
     %   K. Berland et al., Rep. Prog. Phys. 78, 066501 (2015).             %
     %   D.C. Langreth et al., J. Phys.: Condens. Matter 21, 084203 (2009). %
     %                                                                      %
     %                                                                      %
     % If you are calculating the stress with vdW-DF, please also cite:     %
     %                                                                      %
     %   R. Sabatini et al., J. Phys.: Condens. Matter 24, 424209 (2012).   %
     %                                                                      %
     %%%%%%%%%%%%%%%%%%%%%%%%%%%%%%%%%%%%%%%%%%%%%%%%%%%%%%%%%%%%%%%%%%%%%%%%

     Adding external electric field

     Computed dipole along edir(3) :
        Dipole              -10.9066 Ry au,        -27.7219 Debye
        Dipole field         -0.0206 Ry au,

        Potential amp.        1.9080 Ry
        Total length         46.3494 bohr

     Starting wfcs are  302 atomic wfcs
  @ DRIVER MODE: Message from server: STATUS
  @ DRIVER MODE: Message from server: POSDATA
  @ DRIVER MODE: Reading and sharing cell
  @ DRIVER MODE: Reading and sharing positions
  @ DRIVER MODE: Received positions

     Self-consistent Calculation

     iteration #  1     ecut=    29.40 Ry     beta= 0.05
     Davidson diagonalization with overlap
     c_bands:  5 eigenvalues not converged
     c_bands:  3 eigenvalues not converged
     c_bands:  1 eigenvalues not converged
     c_bands:  2 eigenvalues not converged
     c_bands:  3 eigenvalues not converged
     c_bands:  4 eigenvalues not converged
     c_bands:  4 eigenvalues not converged
     ethr =  1.00E-05,  avg # of iterations = 24.4

[...]

     total energy              =   -2445.36578069 Ry
     estimated scf accuracy    <    5568.35664804 Ry

     iteration #  2     ecut=    29.40 Ry     beta= 0.05
     Davidson diagonalization with overlap
     ethr =  1.00E-02,  avg # of iterations = 22.5

[...]

     iteration # 80     ecut=    29.40 Ry     beta= 0.05
     Davidson diagonalization with overlap
     c_bands:  1 eigenvalues not converged
     ethr =  2.83E-11,  avg # of iterations =  8.9

[...]

     total energy              =   -2942.84135290 Ry
     estimated scf accuracy    <       0.00000008 Ry

     iteration # 81     ecut=    29.40 Ry     beta= 0.05
     Davidson diagonalization with overlap
     ethr =  1.99E-11,  avg # of iterations =  7.0

     negative rho (up, down):  1.046E-02 0.000E+00

     Adding external electric field

     Computed dipole along edir(3) :
        Dipole                1.5764 Ry au,          4.0069 Debye
        Dipole field          0.0030 Ry au,

        Potential amp.       -0.2758 Ry
        Total length         46.3494 bohr

     End of self-consistent calculation

          k = 0.0000 0.0000 0.0000 ( 18029 PWs)   bands (ev):

   -55.0917 -55.0561 -55.0526 -55.0220 -54.9689 -54.9664 -54.9289 -54.8921
   -54.8838 -54.8694 -54.8564 -54.8516 -54.8047 -54.7603 -54.0662 -54.0322
   -31.6657 -31.5455 -31.4559 -31.4260 -31.3870 -31.3824 -31.3807 -31.3511
   -31.3481 -31.3464 -31.3034 -31.3013 -31.3007 -31.2662 -31.2481 -31.2286
   -31.2086 -31.2050 -31.1957 -31.1938 -31.1670 -31.1500 -31.1485 -31.1223
   -31.1129 -31.0991 -31.0967 -31.0940 -31.0906 -31.0776 -31.0726 -31.0653
   -31.0528 -31.0420 -31.0234 -31.0155 -31.0078 -31.0026 -30.9975 -30.9918
   -30.9879 -30.9527 -30.4747 -30.3829 -30.3607 -30.2913 -30.2046 -30.0935
   -19.1899 -15.9343 -15.6595 -15.5369 -15.3265 -15.2771 -15.2040 -15.0088
   -14.9441 -14.8880 -14.8773 -14.8664 -14.8494 -14.7782 -14.6991 -14.6187
   -14.6160 -14.6094 -14.5986 -14.5806 -14.5735 -14.5109 -14.5036 -14.4716
   -14.4597 -14.4196 -14.3124 -14.2307 -14.1738 -14.0235 -13.3220 -12.5687
   -12.4516 -11.1135  -7.8913  -6.5475  -5.8698  -4.1216  -3.9623  -3.2796
    -3.0946  -3.0720  -3.0098  -2.9847  -2.8099  -2.7602  -2.5551  -2.4487
    -2.3614  -2.3223  -2.3100  -2.2934  -2.1433  -2.0752  -2.0411  -1.9939
    -1.9703  -1.9474  -1.9060  -1.8984  -1.8678  -1.8497  -1.8414  -1.6638
    -1.5880  -1.5383  -1.5086  -1.4714  -1.4218  -1.3926  -1.3752  -1.3706
    -1.3654  -1.3463  -1.3145  -1.2538  -1.2260  -1.1681  -1.1013  -1.0743
    -0.9846  -0.9021  -0.7150  -0.6692  -0.6517  -0.6156  -0.5556  -0.5072
    -0.4725  -0.4375  -0.4233  -0.3560  -0.2875  -0.2548  -0.1925  -0.1283
    -0.1171  -0.0548  -0.0468   0.1140   0.1254   0.1468   0.2383   0.3246
     0.3722   0.3803   0.4386   0.5126   0.5350   0.5446   0.5811   0.6017
     0.6779   0.7872   0.8119   0.8535   0.8651   0.8987   0.9217   0.9763
     1.0004   1.0629   1.0692   1.1735   1.2205   1.2554   1.5055   1.5385
     1.8690   1.9023   1.9564   2.1430   2.5303   2.5774   4.0165   4.0793
     4.0920   4.1424   4.1655   4.1845   4.2566   4.4774   4.5027   4.5088
     4.5162

[...]

          k = 0.0380-0.0419 0.0000 ( 17876 PWs)   bands (ev):

[...]

          k =-0.0760-0.0000 0.0000 ( 17886 PWs)   bands (ev):

[...]

          k =-0.0760-0.0839 0.0000 ( 17948 PWs)   bands (ev):

   -55.0796 -55.0645 -55.0391 -55.0388 -54.9659 -54.9553 -54.9399 -54.8750
   -54.8722 -54.8715 -54.8697 -54.8674 -54.7986 -54.7663 -54.0492 -54.0490
   -31.4734 -31.4637 -31.4010 -31.3607 -31.3605 -31.3594 -31.3320 -31.3316
   -31.3008 -31.2967 -31.2918 -31.2857 -31.2603 -31.2259 -31.2189 -31.2128
   -31.2107 -31.2069 -31.2061 -31.1973 -31.1651 -31.1641 -31.1605 -31.1583
   -31.1580 -31.1555 -31.1508 -31.1346 -31.1090 -31.1053 -31.0997 -31.0901
   -31.0882 -31.0862 -31.0852 -31.0691 -31.0508 -31.0495 -31.0384 -31.0330
   -31.0086 -30.9923 -30.3734 -30.3733 -30.2873 -30.2871 -30.2480 -30.2479
   -19.1860 -15.4175 -15.3272 -15.1790 -15.1591 -15.1104 -15.0621 -15.0458
   -15.0280 -14.9720 -14.9321 -14.8868 -14.8381 -14.7951 -14.7928 -14.7543
   -14.6822 -14.6608 -14.6587 -14.6442 -14.5933 -14.5826 -14.5550 -14.5362
   -14.5312 -14.4880 -14.4284 -14.4248 -14.3853 -14.2077 -13.3323 -12.5533
   -12.5532 -11.1159  -7.9016  -6.5312  -5.8584  -4.0962  -3.9548  -2.6865
    -2.5872  -2.5262  -2.4208  -2.3340  -2.2937  -2.2589  -2.1244  -2.1048
    -2.0862  -2.0603  -2.0472  -2.0131  -2.0054  -1.9574  -1.9281  -1.9178
    -1.9114  -1.8986  -1.8764  -1.8290  -1.8060  -1.7964  -1.7871  -1.7484
    -1.7344  -1.7025  -1.6964  -1.6575  -1.6361  -1.5509  -1.4618  -1.4220
    -1.3713  -1.3066  -1.2725  -1.2657  -1.1724  -1.1641  -1.1411  -1.1077
    -1.0620  -0.9415  -0.8845  -0.8214  -0.8177  -0.8042  -0.6973  -0.6602
    -0.6287  -0.5943  -0.5562  -0.5270  -0.4881  -0.4417  -0.3650  -0.3334
    -0.2944  -0.2583  -0.1862  -0.0969  -0.0789  -0.0477  -0.0435   0.0440
     0.0678   0.1063   0.1151   0.1343   0.1909   0.2042   0.2913   0.3813
     0.4462   0.5341   0.6473   0.6523   0.7296   0.8213   0.9080   0.9468
     0.9985   1.0640   1.0652   1.0998   1.2212   1.2284   1.3499   1.3888
     1.3975   1.4199   2.3154   2.3164   2.3975   2.3976   4.1458   4.2435
     4.2823   4.3235   4.3755   4.5208   4.5440   4.5897   4.5902   4.6609
     4.6737

     the Fermi energy is     4.0631 ev

!    total energy              =   -2942.84135961 Ry
     estimated scf accuracy    <       0.00000003 Ry
     smearing contrib. (-TS)   =      -0.03725047 Ry
     internal energy E=F+TS    =   -2942.80410915 Ry

     The total energy is F=E-TS. E is the sum of the following terms:
     one-electron contribution =  -23858.96628454 Ry
     hartree contribution      =   12024.80542014 Ry
     xc contribution           =    -487.75756092 Ry
     ewald contribution        =    9379.10962630 Ry
     electric field correction =       0.00468986 Ry

     convergence has been achieved in  81 iterations

     Forces acting on atoms (cartesian axes, Ry/au):

     atom    1 type  1   force =     0.00001935   -0.00023303    0.09430601
     atom    2 type  1   force =    -0.00016237   -0.00055606   -0.17710216
     atom    3 type  2   force =     0.00001645   -0.00024537   -0.02147043
     atom    4 type  2   force =    -0.00001600   -0.00167796    0.05643511
     atom    5 type  2   force =    -0.01049557   -0.00075709    0.00562214
     atom    6 type  2   force =     0.01225954   -0.00010219    0.00551597
     atom    7 type  1   force =    -0.00024007    0.00107480   -0.01569928
     atom    8 type  1   force =    -0.00007026    0.00524440    0.00656847
     atom    9 type  2   force =    -0.00030467    0.00055716    0.00021763
     atom   10 type  2   force =    -0.00199716    0.00265866   -0.00433873
     atom   11 type  2   force =     0.00039876   -0.00022832    0.00028014
     atom   12 type  2   force =    -0.00007927   -0.00029432   -0.00019128
     atom   13 type  1   force =    -0.00072501    0.00044853   -0.00001321
     atom   14 type  1   force =     0.00036597   -0.00017554    0.00004396
     atom   15 type  2   force =    -0.00019112   -0.00062294   -0.00037355
     atom   16 type  2   force =     0.00006332    0.00036097   -0.00032851
     atom   17 type  2   force =     0.00079873    0.00015886    0.00041561
     atom   18 type  2   force =     0.00025354   -0.00028992   -0.00105775
     atom   19 type  1   force =     0.00026165    0.00063450    0.00030065
     atom   20 type  1   force =    -0.00060874    0.00018767    0.00003557
     atom   21 type  2   force =    -0.00002091   -0.00011647    0.10366914
     atom   22 type  2   force =     0.00005504    0.00028650    0.00028247
     atom   23 type  2   force =    -0.07090771   -0.00021382   -0.02718523
     atom   24 type  2   force =     0.07070646    0.00023999   -0.02723526
     atom   25 type  1   force =     0.00001979   -0.00027401    0.09397556
     atom   26 type  1   force =    -0.00025506   -0.00055794   -0.17736808
     atom   27 type  2   force =     0.00005940   -0.00008061   -0.02060412
     atom   28 type  2   force =     0.00002478   -0.00136600    0.05572735
     atom   29 type  2   force =    -0.01079973   -0.00000675    0.00592062
     atom   30 type  2   force =     0.01248670    0.00027990    0.00576948
     atom   31 type  1   force =    -0.00016542    0.00517722   -0.01629357
     atom   32 type  1   force =    -0.00009296   -0.00624565    0.00668386
     atom   33 type  2   force =    -0.00009594   -0.00047749    0.00024765
     atom   34 type  2   force =    -0.00163517    0.00066569   -0.00774197
     atom   35 type  2   force =    -0.00032814    0.00005900    0.00042069
     atom   36 type  2   force =     0.00057880    0.00005633   -0.00006990
     atom   37 type  1   force =    -0.00082361   -0.00077272   -0.00008542
     atom   38 type  1   force =     0.00048389    0.00001633    0.00045170
     atom   39 type  2   force =    -0.00028115   -0.00020204    0.00051431
     atom   40 type  2   force =    -0.00005099   -0.00017884   -0.00024050
     atom   41 type  2   force =     0.00013121   -0.00047514    0.00031229
     atom   42 type  2   force =    -0.00025013   -0.00034618    0.00053789
     atom   43 type  1   force =    -0.00007767   -0.00053688   -0.00023036
     atom   44 type  1   force =     0.00013146    0.00034381    0.00013585
     atom   45 type  2   force =    -0.00002150   -0.00011774    0.10367143
     atom   46 type  2   force =    -0.07091410   -0.00014292   -0.02715588
     atom   47 type  2   force =     0.07071563    0.00027870   -0.02722784
     atom   48 type  3   force =    -0.00410567    0.00095815    0.02006092
     atom   49 type  3   force =    -0.00140390    0.00021342   -0.00359294
     atom   50 type  4   force =     0.00082575   -0.00142709   -0.00475506
     atom   51 type  5   force =    -0.00015371   -0.00127567   -0.00015265
     atom   52 type  5   force =    -0.00057359   -0.00017094   -0.00052870
     atom   53 type  5   force =     0.00047513   -0.00023375    0.00057452
     atom   54 type  5   force =     0.00167646    0.00289388   -0.00317696
     atom   55 type  5   force =     0.00029424   -0.00069478    0.00037374
     atom   56 type  5   force =     0.00474524   -0.00169829   -0.00485139

     Total force =     0.366386     Total SCF correction =     0.000437
  @ DRIVER MODE: Message from server: STATUS
  @ DRIVER MODE: Message from server: GETFORCE
  @ DRIVER MODE: Returning v,forces,stress,ensemble

     Writing output data file ./calc.save/
  @ DRIVER MODE: Message from server: EXIT
  @ DRIVE MODE: Exiting

     General routines

     Parallel routines

   This run was terminated on:  23:58:58   8Sep2021

   JOB DONE.