     Program PWSCF v.6.7GPU starts on 18Oct2021 at 13:25:24

     R & G space division:  proc/nbgrp/npool/nimage =       8
     Reading input from /storage/home/hcoda1/3/ntian30/research/carbon/CxH_vib/Thiel_calc/ads_slab/NH2HNH_perslab/out_0004/pw.inp
Warning: card &CELL ignored
Warning: card   CELL_DYNAMICS='IPI', ignored
Warning: card / ignored

     Current dimensions of program PWSCF are:
     Max number of different atomic species (ntypx) = 10
     Max number of k-points (npk) =  40000
     Max angular momentum in pseudopotentials (lmaxx) =  3
     Presently no symmetry can be used with electric field

     Message from routine cell_base_init:
     DEPRECATED: use true lattice parameter, not A to a.u. conversion factor

     IMPORTANT: XC functional enforced from input :
     Exchange-correlation= BEEF-VDW
                           (   1   4  43  14   2   0   0)
     Any further DFT definition will be discarded
     Please, verify this is what you really want

  @ DRIVER MODE: Connecting to
 qe_1139763_3255135.sched-torque.pace.gatech.edule0dfvy__scratch
  using UNIX socket
  @ DRIVER MODE: Message from server: STATUS
  @ DRIVER MODE: Message from server: INIT
  @ DRIVER MODE: Receiving replica           0          -1
  @ DRIVER MODE: Receiving encoded integer          25
  @ DRIVER MODE:  SCF:  T  FORCE:  T  STRESS:  F  VC:  F  ENSEMBLE:  F
  @ DRIVER MODE:  SCF:  T  FORCE:  T  STRESS:  F  VC:  F  ENSEMBLE:  F

     Using Slab Decomposition

     bravais-lattice index     =            0
     lattice parameter (alat)  =       1.8897  a.u.
     unit-cell volume          =    9988.4706 (a.u.)^3
     number of atoms/cell      =           59
     number of atomic types    =            4
     number of electrons       =       440.00
     number of Kohn-Sham states=          230
     kinetic-energy cutoff     =      29.3995  Ry
     charge density cutoff     =     293.9946  Ry
     scf convergence threshold =      7.3E-08
     mixing beta               =       0.0500
     number of iterations used =            8  plain     mixing
     Exchange-correlation= BEEF-VDW
                           (   1   4  43  14   2   0   0)

     celldm(1)=   1.889726  celldm(2)=   0.000000  celldm(3)=   0.000000
     celldm(4)=   0.000000  celldm(5)=   0.000000  celldm(6)=   0.000000

     crystal axes: (cart. coord. in units of alat)
               a(1) = (   6.579727   0.000000   0.000000 )
               a(2) = (  -0.001163   8.942395   0.000000 )
               a(3) = (   0.000000   0.000000  25.155947 )

     reciprocal axes: (cart. coord. in units 2 pi/alat)
               b(1) = (  0.151982  0.000020  0.000000 )
               b(2) = (  0.000000  0.111827  0.000000 )
               b(3) = (  0.000000  0.000000  0.039752 )

     PseudoPot. # 1 for O  read from file:
     /storage/coda1/p-amedford6/0/shared/rich_project_chbe-medford/medford-share/data/pseudos_module/espresso/nninc/pbe/van/O.UPF
     MD5 check sum: 78c19812648e8988a0fe644b0f25305e
     Pseudo is Ultrasoft, Zval =  6.0
     Generated by new atomic code, or converted to UPF format
     Using radial grid of  737 points,  4 beta functions with:
                l(1) =   0
                l(2) =   0
                l(3) =   1
                l(4) =   1
     Q(r) pseudized with  8 coefficients,  rinner =    0.800   0.800   0.800

     PseudoPot. # 2 for Ti read from file:
     /storage/coda1/p-amedford6/0/shared/rich_project_chbe-medford/medford-share/data/pseudos_module/espresso/nninc/pbe/van/Ti.UPF
     MD5 check sum: 8e4df49b7f0d34bbd5052bf3f5ea0213
     Pseudo is Ultrasoft, Zval = 12.0
     Generated by new atomic code, or converted to UPF format
     Using radial grid of  851 points,  6 beta functions with:
                l(1) =   0
                l(2) =   0
                l(3) =   1
                l(4) =   1
                l(5) =   2
                l(6) =   2
     Q(r) pseudized with  8 coefficients,  rinner =    1.000   1.000   1.000
                                                       1.000   1.000

     PseudoPot. # 3 for H  read from file:
     /storage/coda1/p-amedford6/0/shared/rich_project_chbe-medford/medford-share/data/pseudos_module/espresso/nninc/pbe/van/H.UPF
     MD5 check sum: b5ee9d7bfd3a09ee7748110bda690ff7
     Pseudo is Ultrasoft, Zval =  1.0
     Generated by new atomic code, or converted to UPF format
     Using radial grid of  615 points,  1 beta functions with:
                l(1) =   0
     Q(r) pseudized with  8 coefficients,  rinner =    0.800

     PseudoPot. # 4 for N  read from file:
     /storage/coda1/p-amedford6/0/shared/rich_project_chbe-medford/medford-share/data/pseudos_module/espresso/nninc/pbe/van/N.UPF
     MD5 check sum: 90d10febe142ad51ac9d5be1deb811c4
     Pseudo is Ultrasoft, Zval =  5.0
     Generated by new atomic code, or converted to UPF format
     Using radial grid of  729 points,  4 beta functions with:
                l(1) =   0
                l(2) =   0
                l(3) =   1
                l(4) =   1
     Q(r) pseudized with  8 coefficients,  rinner =    0.800   0.800   0.800

     atomic species   valence    mass     pseudopotential
        O1             6.00    15.99900     O ( 1.00)
        Ti1           12.00    47.86700     Ti( 1.00)
        H1             1.00     1.00800     H ( 1.00)
        N1             5.00    14.00700     N ( 1.00)

     No symmetry found

   Cartesian axes

     site n.     atom                  positions (alat units)
         1           O1  tau(   1) = (   0.0007354   0.0005023  10.5931620  )
         2           O1  tau(   2) = (   3.2891522   8.9193323  13.7813865  )
         3           O1  tau(   3) = (  -0.0003195   8.9357148  17.1597790  )
         4           O1  tau(   4) = (   0.0006271   0.0005054   7.9858123  )
         5           O1  tau(   5) = (   3.2896276   8.9330874  11.1456747  )
         6           O1  tau(   6) = (   0.0000757   8.8957392  14.5326415  )
         7           O1  tau(   7) = (   1.9868534   1.4903216   9.2879459  )
         8           O1  tau(   8) = (   5.2085136   1.5567490  12.5272226  )
         9           O1  tau(   9) = (   2.0368910   1.4086519  15.9478609  )
        10           Ti1 tau(  10) = (   0.0007404   1.4906270   9.2895810  )
        11           Ti1 tau(  11) = (   3.2920048   1.2896434  12.4335303  )
        12           Ti1 tau(  12) = (   0.0003947   1.7483972  15.9485354  )
        13           O1  tau(  13) = (   4.5942328   1.4918067   9.2879030  )
        14           O1  tau(  14) = (   1.3734151   1.5562871  12.5269411  )
        15           O1  tau(  15) = (   4.5446063   1.4075665  15.9467422  )
        16           Ti1 tau(  16) = (   3.2902859   2.9801868   9.2893338  )
        17           Ti1 tau(  17) = (   0.0022843   2.7629733  12.5422407  )
        18           Ti1 tau(  18) = (   3.2887740   3.1097933  15.6402895  )
        19           O1  tau(  19) = (   0.0003479   2.9813005  10.5931620  )
        20           O1  tau(  20) = (   3.2903674   2.9527630  13.7969158  )
        21           O1  tau(  21) = (   0.0002396   2.9813036   7.9858123  )
        22           O1  tau(  22) = (   3.2906228   2.9775883  11.1663003  )
        23           O1  tau(  23) = (   0.0006598   2.9368866  14.5305733  )
        24           O1  tau(  24) = (   1.9864658   4.4711199   9.2879459  )
        25           O1  tau(  25) = (   5.2231876   4.5386380  12.5467233  )
        26           O1  tau(  26) = (   2.0248981   4.3679406  15.9930346  )
        27           Ti1 tau(  27) = (   0.0003529   4.4714252   9.2895810  )
        28           Ti1 tau(  28) = (   3.2918124   4.3135021  12.5344809  )
        29           Ti1 tau(  29) = (   6.5788423   4.6929592  16.0739603  )
        30           O1  tau(  30) = (   4.5938453   4.4726049   9.2879030  )
        31           O1  tau(  31) = (   1.3570704   4.5373869  12.5465102  )
        32           O1  tau(  32) = (   4.5538814   4.3671241  15.9936543  )
        33           Ti1 tau(  33) = (   3.2898983   5.9609850   9.2893338  )
        34           Ti1 tau(  34) = (   0.0013264   5.7428985  12.5110789  )
        35           Ti1 tau(  35) = (   3.2898306   6.0937744  16.2866611  )
        36           O1  tau(  36) = (  -0.0000397   5.9620987  10.5931620  )
        37           O1  tau(  37) = (   3.2897329   5.8964334  13.7986068  )
        38           O1  tau(  38) = (  -0.0007474   6.0119579  17.1634496  )
        39           O1  tau(  39) = (  -0.0001480   5.9621018   7.9858123  )
        40           O1  tau(  40) = (   3.2898370   5.9388437  11.1687384  )
        41           O1  tau(  41) = (  -0.0001539   5.9931028  14.5676369  )
        42           O1  tau(  42) = (   1.9860782   7.4519181   9.2879459  )
        43           O1  tau(  43) = (   5.2258842   7.5046952  12.5406166  )
        44           O1  tau(  44) = (   2.0242945   7.4351242  16.0034066  )
        45           Ti1 tau(  45) = (  -0.0000347   7.4522234   9.2895810  )
        46           Ti1 tau(  46) = (   3.2896699   7.1866417  12.6007890  )
        47           Ti1 tau(  47) = (   0.0000787   7.5542351  15.7482610  )
        48           O1  tau(  48) = (   4.5934577   7.4534031   9.2879030  )
        49           O1  tau(  49) = (   1.3527639   7.5038087  12.5404143  )
        50           O1  tau(  50) = (   4.5545665   7.4356877  16.0029592  )
        51           Ti1 tau(  51) = (   3.2895107   8.9417832   9.2893338  )
        52           Ti1 tau(  52) = (  -0.0005703   8.7121504  12.4856418  )
        53           Ti1 tau(  53) = (   3.2909615   0.1005107  15.6284087  )
        54           H1  tau(  54) = (   6.5785809   3.1451568  18.2688824  )
        55           H1  tau(  55) = (   6.5783155   8.7923607  18.1116139  )
        56           N1  tau(  56) = (  -0.0001347   2.9716693  17.2674093  )
        57           N1  tau(  57) = (   3.2897564   5.9921341  18.1800631  )
        58           H1  tau(  58) = (   3.2887465   5.1266479  18.7045293  )
        59           H1  tau(  59) = (   3.2892443   6.7858760  18.8071070  )

     number of k points=    10  Fermi-Dirac smearing, width (Ry)=  0.0073
                       cart. coord. in units 2pi/alat
        k(    1) = (   0.0000000   0.0000000   0.0000000), wk =   0.1250000
        k(    2) = (   0.0000000   0.0279567   0.0000000), wk =   0.2500000
        k(    3) = (   0.0000000  -0.0559134   0.0000000), wk =   0.1250000
        k(    4) = (   0.0379955   0.0000049   0.0000000), wk =   0.2500000
        k(    5) = (   0.0379955   0.0279617   0.0000000), wk =   0.2500000
        k(    6) = (   0.0379955  -0.0559085   0.0000000), wk =   0.2500000
        k(    7) = (   0.0379955  -0.0279518   0.0000000), wk =   0.2500000
        k(    8) = (  -0.0759910  -0.0000099   0.0000000), wk =   0.1250000
        k(    9) = (  -0.0759910   0.0279468   0.0000000), wk =   0.2500000
        k(   10) = (  -0.0759910  -0.0559233   0.0000000), wk =   0.1250000

     Initial potential from superposition of free atoms

     starting charge  421.99910, renormalised to  440.00000

     negative rho (up, down):  3.702E-02 0.000E+00

     %%%%%%%%%%%%%%%%%%%%%%%%%%%%%%%%%%%%%%%%%%%%%%%%%%%%%%%%%%%%%%%%%%%%%%%%
     %                                                                      %
     % You are using vdW-DF, which was implemented by the Thonhauser group. %
     % Please cite the following two papers that made this development      %
     % possible and the two reviews that describe the various versions:     %
     %                                                                      %
     %   T. Thonhauser et al., PRL 115, 136402 (2015).                      %
     %   T. Thonhauser et al., PRB 76, 125112 (2007).                       %
     %   K. Berland et al., Rep. Prog. Phys. 78, 066501 (2015).             %
     %   D.C. Langreth et al., J. Phys.: Condens. Matter 21, 084203 (2009). %
     %                                                                      %
     %                                                                      %
     % If you are calculating the stress with vdW-DF, please also cite:     %
     %                                                                      %
     %   R. Sabatini et al., J. Phys.: Condens. Matter 24, 424209 (2012).   %
     %                                                                      %
     %%%%%%%%%%%%%%%%%%%%%%%%%%%%%%%%%%%%%%%%%%%%%%%%%%%%%%%%%%%%%%%%%%%%%%%%

     Adding external electric field

     Computed dipole along edir(3) :
        Dipole               -3.9424 Ry au,        -10.0206 Debye
        Dipole field         -0.0050 Ry au,

        Potential amp.        0.4598 Ry
        Total length         46.3494 bohr

     Starting wfcs are  332 atomic wfcs
  @ DRIVER MODE: Message from server: STATUS
  @ DRIVER MODE: Message from server: POSDATA
  @ DRIVER MODE: Reading and sharing cell
  @ DRIVER MODE: Reading and sharing positions
  @ DRIVER MODE: Received positions

     Self-consistent Calculation

     iteration #  1     ecut=    29.40 Ry     beta= 0.05
     Davidson diagonalization with overlap
     c_bands:  1 eigenvalues not converged
     c_bands:  2 eigenvalues not converged
     c_bands:  4 eigenvalues not converged
     c_bands:  2 eigenvalues not converged
     c_bands:  2 eigenvalues not converged
     c_bands:  2 eigenvalues not converged
     c_bands:  4 eigenvalues not converged
     c_bands:  3 eigenvalues not converged
     c_bands:  2 eigenvalues not converged
     ethr =  1.00E-05,  avg # of iterations = 19.2

[...]

     total energy              =   -3294.67525631 Ry
     estimated scf accuracy    <      19.62380122 Ry

     iteration #  2     ecut=    29.40 Ry     beta= 0.05
     Davidson diagonalization with overlap
     ethr =  4.46E-03,  avg # of iterations =  1.0

[...]

     iteration # 20     ecut=    29.40 Ry     beta= 0.05
     Davidson diagonalization with overlap
     c_bands:  1 eigenvalues not converged
     c_bands:  1 eigenvalues not converged
     ethr =  3.53E-06,  avg # of iterations = 11.8

[...]

     total energy              =   -3293.29223275 Ry
     estimated scf accuracy    <       0.00000012 Ry

     iteration # 46     ecut=    29.40 Ry     beta= 0.05
     Davidson diagonalization with overlap
     ethr =  2.52E-11,  avg # of iterations =  5.4

     negative rho (up, down):  3.602E-02 0.000E+00

     Adding external electric field

     Computed dipole along edir(3) :
        Dipole                1.2928 Ry au,          3.2859 Debye
        Dipole field          0.0016 Ry au,

        Potential amp.       -0.1508 Ry
        Total length         46.3494 bohr

     End of self-consistent calculation

          k = 0.0000 0.0000 0.0000 ( 26871 PWs)   bands (ev):

   -58.2971 -58.2732 -58.2694 -58.2100 -58.1616 -57.7939 -57.7736 -57.7574
   -57.6220 -57.5921 -57.5717 -57.5134 -57.4888 -56.8985 -56.8776 -56.8517
   -56.8441 -56.8367 -34.6882 -34.6611 -34.6310 -34.6192 -34.6137 -34.6086
   -34.5458 -34.4824 -34.4722 -34.4097 -34.4055 -34.4027 -34.3889 -34.3587
   -34.3337 -34.1962 -34.1501 -34.1452 -34.1249 -34.0963 -34.0831 -34.0784
   -34.0580 -34.0209 -34.0091 -33.9633 -33.9190 -33.8744 -33.8598 -33.8507
   -33.8352 -33.8272 -33.7803 -33.7572 -33.7490 -33.7433 -33.6967 -33.6911
   -33.6779 -33.3606 -33.2222 -33.2124 -33.2023 -33.1879 -33.1811 -33.1739
   -33.1628 -33.1174 -33.0852 -33.0814 -33.0281 -33.0257 -33.0084 -32.8852
   -18.9118 -18.8268 -18.3718 -18.2963 -18.1746 -18.1195 -18.1132 -18.0478
   -17.9450 -17.7238 -17.6835 -17.6748 -17.6465 -17.5388 -17.5308 -17.5274
   -17.4933 -17.4863 -17.4740 -17.3861 -17.3273 -17.3147 -17.3088 -17.3086
   -17.1998 -17.1753 -17.1235 -17.0573 -17.0449 -16.9494 -16.7643 -16.4316
   -15.3533 -15.3126 -15.3029 -15.1578 -13.5947  -6.9777  -6.6277  -6.1791
    -5.9855  -5.7753  -5.6365  -5.5223  -5.4691  -5.3768  -5.3107  -5.2858
    -5.2685  -5.2273  -5.1934  -5.1678  -5.0649  -5.0551  -4.9740  -4.9196
    -4.8740  -4.8280  -4.7855  -4.7391  -4.7369  -4.6975  -4.6284  -4.6179
    -4.5832  -4.5357  -4.5068  -4.4985  -4.4433  -4.4148  -4.3938  -4.2741
    -4.2596  -4.1920  -4.1807  -4.1733  -4.0677  -4.0612  -4.0178  -3.9874
    -3.9810  -3.9620  -3.9111  -3.8316  -3.8031  -3.6440  -3.6211  -3.6118
    -3.5197  -3.3811  -3.3674  -3.3236  -3.2038  -3.1365  -3.1125  -3.0771
    -3.0570  -3.0397  -3.0161  -3.0046  -2.9715  -2.8771  -2.8761  -2.8149
    -2.8120  -2.7978  -2.7762  -2.7705  -2.7311  -2.6586  -2.5993  -2.5866
    -2.5654  -2.5479  -2.4613  -2.4470  -2.3562  -2.3408  -2.2848  -2.2424
    -2.2364  -2.1708  -2.0959  -2.0882  -2.0242  -1.9997  -1.8258  -1.8005
    -1.7231  -1.7176  -1.6514  -1.6244  -1.6015  -1.5492  -1.4246  -1.3934
    -1.2980  -1.1872  -1.0221  -0.7819  -0.5923  -0.5701  -0.5609  -0.5289
    -0.4359  -0.3823  -0.3663  -0.2713   0.9810   1.1270   1.2800   1.3017
     1.4954   1.6049   1.6175   1.6727   1.7519   1.8502

[...]

          k = 0.0380-0.0280 0.0000 ( 26873 PWs)   bands (ev):

[...]

          k =-0.0760-0.0000 0.0000 ( 26902 PWs)   bands (ev):

[...]

          k =-0.0760-0.0559 0.0000 ( 26868 PWs)   bands (ev):

   -58.2904 -58.2864 -58.2628 -58.2098 -58.1617 -57.7939 -57.7731 -57.7579
   -57.6204 -57.5955 -57.5698 -57.5132 -57.4889 -56.8985 -56.8747 -56.8575
   -56.8440 -56.8337 -34.7136 -34.7097 -34.6634 -34.6388 -34.6059 -34.4978
   -34.4830 -34.4488 -34.4457 -34.4331 -34.4266 -34.4069 -34.3847 -34.3813
   -34.3607 -34.2315 -34.1728 -34.1674 -34.1394 -34.1220 -34.0789 -34.0028
   -33.9989 -33.9988 -33.9647 -33.9275 -33.9207 -33.9066 -33.8987 -33.8752
   -33.8657 -33.8501 -33.7753 -33.7666 -33.7393 -33.7136 -33.7128 -33.6947
   -33.6892 -33.3362 -33.2638 -33.2232 -33.2188 -33.2079 -33.1848 -33.1760
   -33.1242 -33.0823 -33.0722 -33.0533 -33.0325 -32.9962 -32.9897 -32.9727
   -18.8900 -18.6219 -18.4745 -18.2384 -18.1383 -17.9745 -17.8916 -17.8787
   -17.8609 -17.8600 -17.7610 -17.7499 -17.6990 -17.6741 -17.6311 -17.6215
   -17.6092 -17.5723 -17.5660 -17.4527 -17.3621 -17.3530 -17.2576 -17.2427
   -17.2154 -17.1538 -17.1357 -17.0460 -17.0269 -16.9542 -16.7723 -16.4163
   -15.3644 -15.3526 -15.2422 -15.1585 -13.5916  -6.9498  -6.6287  -5.9498
    -5.7550  -5.7206  -5.6700  -5.3496  -5.3121  -5.2244  -5.2021  -5.1630
    -5.1378  -5.1237  -5.0935  -5.0823  -5.0071  -4.9702  -4.9612  -4.9574
    -4.9143  -4.8952  -4.8471  -4.8258  -4.7760  -4.7553  -4.7471  -4.7129
    -4.6689  -4.6504  -4.5759  -4.5704  -4.4970  -4.4577  -4.3187  -4.2351
    -4.2097  -4.1802  -4.0834  -4.0701  -4.0370  -3.9413  -3.9254  -3.9046
    -3.7769  -3.7423  -3.6328  -3.6170  -3.5678  -3.5448  -3.5171  -3.4894
    -3.4251  -3.3830  -3.3667  -3.3618  -3.3277  -3.2593  -3.2287  -3.2126
    -3.1808  -3.1629  -3.1525  -3.1418  -3.0757  -3.0589  -3.0291  -2.9895
    -2.9283  -2.9046  -2.8492  -2.8483  -2.7868  -2.7477  -2.6922  -2.6868
    -2.6147  -2.5931  -2.5864  -2.5785  -2.4781  -2.4521  -2.4441  -2.3017
    -2.1641  -2.1130  -2.0701  -1.9667  -1.9084  -1.9049  -1.8809  -1.8129
    -1.7881  -1.7045  -1.6506  -1.6265  -1.6193  -1.5939  -1.3749  -1.3450
    -1.3334  -1.2901  -1.2260  -1.1312  -0.8122  -0.5932  -0.5802  -0.4995
    -0.4765  -0.4233  -0.4021  -0.3877   1.0302   1.2051   1.2767   1.3699
     1.3707   1.4032   1.4528   1.6191   1.6536   1.7059

     the Fermi energy is     0.3880 ev

!    total energy              =   -3293.29239105 Ry
     estimated scf accuracy    <       0.00000004 Ry
     smearing contrib. (-TS)   =      -0.00047777 Ry
     internal energy E=F+TS    =   -3293.29191328 Ry

     The total energy is F=E-TS. E is the sum of the following terms:
     one-electron contribution =  -34638.96268242 Ry
     hartree contribution      =   17383.77473550 Ry
     xc contribution           =    -542.08534220 Ry
     ewald contribution        =   14503.97927326 Ry
     electric field correction =       0.00210258 Ry

     convergence has been achieved in  46 iterations

     Forces acting on atoms (cartesian axes, Ry/au):

     atom    1 type  1   force =     0.00000973    0.00244509    0.04674717
     atom    2 type  1   force =     0.00000756   -0.00342024   -0.00287857
     atom    3 type  1   force =    -0.00000882    0.00313175   -0.00104634
     atom    4 type  1   force =     0.00004949   -0.00098665    0.10173085
     atom    5 type  1   force =    -0.00000929   -0.00070826    0.00562460
     atom    6 type  1   force =    -0.00001233    0.00376889    0.00084621
     atom    7 type  1   force =     0.07821676    0.00085957   -0.03542556
     atom    8 type  1   force =     0.00833274   -0.02587857    0.00017277
     atom    9 type  1   force =     0.00848711    0.02068169    0.00126797
     atom   10 type  2   force =    -0.00006009    0.00868249   -0.15837749
     atom   11 type  2   force =    -0.00003608    0.02308591   -0.00231445
     atom   12 type  2   force =     0.00005672   -0.02540362   -0.00372775
     atom   13 type  1   force =    -0.07831040    0.00040343   -0.03541481
     atom   14 type  1   force =    -0.00837767   -0.02579055    0.00017952
     atom   15 type  1   force =    -0.00843993    0.02079055    0.00130185
     atom   16 type  2   force =     0.00012808    0.00085140    0.07316787
     atom   17 type  2   force =     0.00006319    0.03072141    0.00244356
     atom   18 type  2   force =    -0.00006111   -0.02689309    0.00065673
     atom   19 type  1   force =     0.00003883    0.00299262    0.05009946
     atom   20 type  1   force =    -0.00002037   -0.00126419   -0.00144465
     atom   21 type  1   force =     0.00005224   -0.00064938    0.10020254
     atom   22 type  1   force =    -0.00001401   -0.00179987    0.00546387
     atom   23 type  1   force =    -0.00002200    0.00239561    0.00366234
     atom   24 type  1   force =     0.07916652    0.00064577   -0.03607752
     atom   25 type  1   force =     0.00924234   -0.02947134    0.00062036
     atom   26 type  1   force =     0.00850261    0.02157039    0.00325845
     atom   27 type  2   force =    -0.00007138   -0.00813898   -0.15491918
     atom   28 type  2   force =    -0.00001214    0.02629574   -0.00224351
     atom   29 type  2   force =     0.00003803   -0.02445412   -0.00378557
     atom   30 type  1   force =    -0.07925603    0.00023539   -0.03607463
     atom   31 type  1   force =    -0.00924940   -0.02940283    0.00062526
     atom   32 type  1   force =    -0.00845641    0.02164542    0.00328832
     atom   33 type  2   force =     0.00013549   -0.00255677    0.07888077
     atom   34 type  2   force =     0.00005011    0.03584811    0.00271993
     atom   35 type  2   force =    -0.00007094   -0.02917936    0.00298539
     atom   36 type  1   force =     0.00004131    0.00306062    0.05240354
     atom   37 type  1   force =    -0.00000395   -0.00186706   -0.00286557
     atom   38 type  1   force =    -0.00001934    0.00202443    0.00090361
     atom   39 type  1   force =     0.00004741    0.00287019    0.10113828
     atom   40 type  1   force =    -0.00000991   -0.00169976    0.00620255
     atom   41 type  1   force =    -0.00002765    0.00300739    0.00390558
     atom   42 type  1   force =     0.07827621    0.00076249   -0.03490151
     atom   43 type  1   force =     0.00662023   -0.02303082   -0.00020423
     atom   44 type  1   force =     0.01116033    0.02211256   -0.00714656
     atom   45 type  2   force =    -0.00005974   -0.00551455   -0.16466826
     atom   46 type  2   force =    -0.00007587    0.01958706    0.00100401
     atom   47 type  2   force =     0.00002324   -0.01853169    0.00747250
     atom   48 type  1   force =    -0.07837158    0.00031243   -0.03488429
     atom   49 type  1   force =    -0.00666098   -0.02299835   -0.00019957
     atom   50 type  1   force =    -0.01113095    0.02209819   -0.00710040
     atom   51 type  2   force =     0.00013344   -0.00439515    0.06098373
     atom   52 type  2   force =     0.00012335    0.02965911    0.00355102
     atom   53 type  2   force =    -0.00007835   -0.02497806    0.00094973
     atom   54 type  3   force =    -0.00000379   -0.00014594   -0.00272715
     atom   55 type  3   force =    -0.00001786   -0.00004615    0.00012702
     atom   56 type  4   force =    -0.00002760    0.00767086    0.00312727
     atom   57 type  4   force =    -0.00000741   -0.00049397    0.00055802
     atom   58 type  3   force =    -0.00000517   -0.00011299   -0.00006210
     atom   59 type  3   force =    -0.00001451   -0.00040422    0.00021704

     Total force =     0.437368     Total SCF correction =     0.000600
  @ DRIVER MODE: Message from server: STATUS
  @ DRIVER MODE: Message from server: GETFORCE
  @ DRIVER MODE: Returning v,forces,stress,ensemble

     Writing output data file ./calc.save/
  @ DRIVER MODE: Message from server: EXIT
  @ DRIVE MODE: Exiting

     General routines

     Parallel routines

   This run was terminated on:  13:48:10  18Oct2021

   JOB DONE.