     Program PWSCF v.6.7GPU starts on 22Sep2021 at 21:27:44

     R & G space division:  proc/nbgrp/npool/nimage =      10
     Reading input from /storage/home/hcoda1/3/ntian30/research/carbon/CxH_vib/H2O_calc/ads_slab/CH2NHNHH2O_b/out_0016/pw.inp
Warning: card &CELL ignored
Warning: card   CELL_DYNAMICS='IPI', ignored
Warning: card / ignored

     Current dimensions of program PWSCF are:
     Max number of different atomic species (ntypx) = 10
     Max number of k-points (npk) =  40000
     Max angular momentum in pseudopotentials (lmaxx) =  3
     Presently no symmetry can be used with electric field

     Message from routine cell_base_init:
     DEPRECATED: use true lattice parameter, not A to a.u. conversion factor

     IMPORTANT: XC functional enforced from input :
     Exchange-correlation= BEEF-VDW
                           (   1   4  43  14   2   0   0)
     Any further DFT definition will be discarded
     Please, verify this is what you really want

  @ DRIVER MODE: Connecting to
 qe_1139763_2937310.sched-torque.pace.gatech.eduhuzgbl81_scratch
  using UNIX socket
  @ DRIVER MODE: Message from server: STATUS
  @ DRIVER MODE: Message from server: INIT
  @ DRIVER MODE: Receiving replica           0          -1
  @ DRIVER MODE: Receiving encoded integer          25
  @ DRIVER MODE:  SCF:  T  FORCE:  T  STRESS:  F  VC:  F  ENSEMBLE:  F
  @ DRIVER MODE:  SCF:  T  FORCE:  T  STRESS:  F  VC:  F  ENSEMBLE:  F

     Using Slab Decomposition

     bravais-lattice index     =            0
     lattice parameter (alat)  =       1.8897  a.u.
     unit-cell volume          =    6658.9804 (a.u.)^3
     number of atoms/cell      =           57
     number of atomic types    =            5
     number of electrons       =       404.00
     number of Kohn-Sham states=          212
     kinetic-energy cutoff     =      29.3995  Ry
     charge density cutoff     =     293.9946  Ry
     scf convergence threshold =      7.3E-08
     mixing beta               =       0.0500
     number of iterations used =            8  plain     mixing
     Exchange-correlation= BEEF-VDW
                           (   1   4  43  14   2   0   0)

     celldm(1)=   1.889726  celldm(2)=   0.000000  celldm(3)=   0.000000
     celldm(4)=   0.000000  celldm(5)=   0.000000  celldm(6)=   0.000000

     crystal axes: (cart. coord. in units of alat)
               a(1) = (   6.579727   0.000000   0.000000 )
               a(2) = (  -0.000775   5.961596   0.000000 )
               a(3) = (   0.000000   0.000000  25.155947 )

     reciprocal axes: (cart. coord. in units 2 pi/alat)
               b(1) = (  0.151982  0.000020  0.000000 )
               b(2) = (  0.000000  0.167740  0.000000 )
               b(3) = (  0.000000  0.000000  0.039752 )

     PseudoPot. # 1 for Ti read from file:
     /storage/coda1/p-amedford6/0/shared/rich_project_chbe-medford/medford-share/data/pseudos_module/espresso/nninc/pbe/van/Ti.UPF
     MD5 check sum: 8e4df49b7f0d34bbd5052bf3f5ea0213
     Pseudo is Ultrasoft, Zval = 12.0
     Generated by new atomic code, or converted to UPF format
     Using radial grid of  851 points,  6 beta functions with:
                l(1) =   0
                l(2) =   0
                l(3) =   1
                l(4) =   1
                l(5) =   2
                l(6) =   2
     Q(r) pseudized with  8 coefficients,  rinner =    1.000   1.000   1.000
                                                       1.000   1.000

     PseudoPot. # 2 for O  read from file:
     /storage/coda1/p-amedford6/0/shared/rich_project_chbe-medford/medford-share/data/pseudos_module/espresso/nninc/pbe/van/O.UPF
     MD5 check sum: 78c19812648e8988a0fe644b0f25305e
     Pseudo is Ultrasoft, Zval =  6.0
     Generated by new atomic code, or converted to UPF format
     Using radial grid of  737 points,  4 beta functions with:
                l(1) =   0
                l(2) =   0
                l(3) =   1
                l(4) =   1
     Q(r) pseudized with  8 coefficients,  rinner =    0.800   0.800   0.800

     PseudoPot. # 3 for N  read from file:
     /storage/coda1/p-amedford6/0/shared/rich_project_chbe-medford/medford-share/data/pseudos_module/espresso/nninc/pbe/van/N.UPF
     MD5 check sum: 90d10febe142ad51ac9d5be1deb811c4
     Pseudo is Ultrasoft, Zval =  5.0
     Generated by new atomic code, or converted to UPF format
     Using radial grid of  729 points,  4 beta functions with:
                l(1) =   0
                l(2) =   0
                l(3) =   1
                l(4) =   1
     Q(r) pseudized with  8 coefficients,  rinner =    0.800   0.800   0.800

     PseudoPot. # 4 for C  read from file:
     /storage/coda1/p-amedford6/0/shared/rich_project_chbe-medford/medford-share/data/pseudos_module/espresso/nninc/pbe/van/C.UPF
     MD5 check sum: 1a69bf6b8db32088f5b2163dbdb77a27
     Pseudo is Ultrasoft, Zval =  4.0
     Generated by new atomic code, or converted to UPF format
     Using radial grid of  721 points,  4 beta functions with:
                l(1) =   0
                l(2) =   0
                l(3) =   1
                l(4) =   1
     Q(r) pseudized with  8 coefficients,  rinner =    0.800   0.800   0.800

     PseudoPot. # 5 for H  read from file:
     /storage/coda1/p-amedford6/0/shared/rich_project_chbe-medford/medford-share/data/pseudos_module/espresso/nninc/pbe/van/H.UPF
     MD5 check sum: b5ee9d7bfd3a09ee7748110bda690ff7
     Pseudo is Ultrasoft, Zval =  1.0
     Generated by new atomic code, or converted to UPF format
     Using radial grid of  615 points,  1 beta functions with:
                l(1) =   0
     Q(r) pseudized with  8 coefficients,  rinner =    0.800

     atomic species   valence    mass     pseudopotential
        Ti1           12.00    47.86700     Ti( 1.00)
        O1             6.00    15.99900     O ( 1.00)
        N1             5.00    14.00700     N ( 1.00)
        C1             4.00    12.01100     C ( 1.00)
        H1             1.00     1.00800     H ( 1.00)

     No symmetry found

   Cartesian axes

     site n.     atom                  positions (alat units)
         1           Ti1 tau(   1) = (   0.0004258   2.9801865   6.0000000  )
         2           Ti1 tau(   2) = (   3.2906075   1.4906267   6.0002472  )
         3           O1  tau(   3) = (   0.0006271   0.0005054   7.9858123  )
         4           O1  tau(   4) = (   3.2906025   0.0005020   7.3038282  )
         5           O1  tau(   5) = (   4.5942328   1.4918067   9.2879030  )
         6           O1  tau(   6) = (   1.9868534   1.4903216   9.2879459  )
         7           Ti1 tau(   7) = (   3.2907910   2.8959150   9.1758416  )
         8           Ti1 tau(   8) = (   0.0015273   1.4827037   9.2680791  )
         9           O1  tau(   9) = (   3.2740695   5.9399032  11.3612631  )
        10           O1  tau(  10) = (   0.0116148   5.9584955  10.6183126  )
        11           O1  tau(  11) = (   1.2665466   1.4659349  12.6457467  )
        12           O1  tau(  12) = (   5.2636777   1.4644475  12.6520517  )
        13           Ti1 tau(  13) = (   0.0254019   2.9535957  12.5508080  )
        14           Ti1 tau(  14) = (   3.3235577   1.4585364  12.5144190  )
        15           O1  tau(  15) = (   0.0066209   5.9388471  14.7046414  )
        16           O1  tau(  16) = (   3.2471877   5.9405099  14.0100224  )
        17           O1  tau(  17) = (   4.5302733   1.5208160  16.0462967  )
        18           O1  tau(  18) = (   1.9955500   1.4995475  16.2009832  )
        19           Ti1 tau(  19) = (   3.2567830   2.9699832  15.6929747  )
        20           Ti1 tau(  20) = (   6.4949666   1.4732860  15.8443191  )
        21           O1  tau(  21) = (   3.2904802   0.0005063   4.7018136  )
        22           O1  tau(  22) = (   6.4419287   5.8812218  17.2824568  )
        23           O1  tau(  23) = (   1.3043587   1.4918075   6.0039043  )
        24           O1  tau(  24) = (   5.2767064   1.4903225   6.0039473  )
        25           Ti1 tau(  25) = (   0.0000382   5.9609847   6.0000000  )
        26           Ti1 tau(  26) = (   3.2902200   4.4714249   6.0002472  )
        27           O1  tau(  27) = (   0.0002396   2.9813036   7.9858123  )
        28           O1  tau(  28) = (   3.2902150   2.9813002   7.3038282  )
        29           O1  tau(  29) = (   4.5938453   4.4726049   9.2879030  )
        30           O1  tau(  30) = (   1.9864658   4.4711199   9.2879459  )
        31           Ti1 tau(  31) = (   3.2891106   5.8743827   9.1763621  )
        32           Ti1 tau(  32) = (   0.0006254   4.4649316   9.2693709  )
        33           O1  tau(  33) = (   3.2800166   2.9600013  11.3546200  )
        34           O1  tau(  34) = (   0.0092240   2.9805883  10.6323155  )
        35           O1  tau(  35) = (   1.2663080   4.4508225  12.6496728  )
        36           O1  tau(  36) = (   5.2650692   4.4524444  12.6537221  )
        37           Ti1 tau(  37) = (   0.0180281   5.9297397  12.5120547  )
        38           Ti1 tau(  38) = (   3.3242103   4.4456960  12.5094407  )
        39           O1  tau(  39) = (   0.0028395   2.9305241  14.7702868  )
        40           O1  tau(  40) = (   3.2369197   2.9632653  13.9133312  )
        41           O1  tau(  41) = (   4.5259019   4.3784886  16.1008109  )
        42           O1  tau(  42) = (   2.0017919   4.4285960  16.1845674  )
        43           Ti1 tau(  43) = (   3.2453488   5.9423767  15.8283900  )
        44           Ti1 tau(  44) = (   6.5728488   4.6138345  16.0446011  )
        45           O1  tau(  45) = (   3.2900926   2.9813045   4.7018136  )
        46           O1  tau(  46) = (   1.3039711   4.4726057   6.0039043  )
        47           O1  tau(  47) = (   5.2763189   4.4711207   6.0039473  )
        48           N1  tau(  48) = (   0.9567011   2.5879941  18.4848429  )
        49           N1  tau(  49) = (   6.5185693   2.8362889  17.6364570  )
        50           C1  tau(  50) = (   1.0658718   2.8840630  19.7563100  )
        51           H1  tau(  51) = (   1.9437682   2.5238050  20.2723566  )
        52           H1  tau(  52) = (   0.2809834   3.4210577  20.2544045  )
        53           H1  tau(  53) = (   1.7014144   2.0656717  17.9989220  )
        54           H1  tau(  54) = (   5.6742842   3.0275795  18.1730567  )
        55           O1  tau(  55) = (   3.7618585   0.1297276  18.3074903  )
        56           H1  tau(  56) = (   4.7330396   0.0541995  18.1289380  )
        57           H1  tau(  57) = (   3.4892521   5.2388606  18.6788193  )

     number of k points=    10  Fermi-Dirac smearing, width (Ry)=  0.0073
                       cart. coord. in units 2pi/alat
        k(    1) = (   0.0000000   0.0000000   0.0000000), wk =   0.1250000
        k(    2) = (   0.0000000   0.0419351   0.0000000), wk =   0.2500000
        k(    3) = (   0.0000000  -0.0838702   0.0000000), wk =   0.1250000
        k(    4) = (   0.0379955   0.0000049   0.0000000), wk =   0.2500000
        k(    5) = (   0.0379955   0.0419400   0.0000000), wk =   0.2500000
        k(    6) = (   0.0379955  -0.0838652   0.0000000), wk =   0.2500000
        k(    7) = (   0.0379955  -0.0419301   0.0000000), wk =   0.2500000
        k(    8) = (  -0.0759910  -0.0000099   0.0000000), wk =   0.1250000
        k(    9) = (  -0.0759910   0.0419252   0.0000000), wk =   0.2500000
        k(   10) = (  -0.0759910  -0.0838800   0.0000000), wk =   0.1250000

     Initial potential from superposition of free atoms

     starting charge  387.99913, renormalised to  404.00000

     negative rho (up, down):  1.394E-02 0.000E+00

     %%%%%%%%%%%%%%%%%%%%%%%%%%%%%%%%%%%%%%%%%%%%%%%%%%%%%%%%%%%%%%%%%%%%%%%%
     %                                                                      %
     % You are using vdW-DF, which was implemented by the Thonhauser group. %
     % Please cite the following two papers that made this development      %
     % possible and the two reviews that describe the various versions:     %
     %                                                                      %
     %   T. Thonhauser et al., PRL 115, 136402 (2015).                      %
     %   T. Thonhauser et al., PRB 76, 125112 (2007).                       %
     %   K. Berland et al., Rep. Prog. Phys. 78, 066501 (2015).             %
     %   D.C. Langreth et al., J. Phys.: Condens. Matter 21, 084203 (2009). %
     %                                                                      %
     %                                                                      %
     % If you are calculating the stress with vdW-DF, please also cite:     %
     %                                                                      %
     %   R. Sabatini et al., J. Phys.: Condens. Matter 24, 424209 (2012).   %
     %                                                                      %
     %%%%%%%%%%%%%%%%%%%%%%%%%%%%%%%%%%%%%%%%%%%%%%%%%%%%%%%%%%%%%%%%%%%%%%%%

     Adding external electric field

     Computed dipole along edir(3) :
        Dipole              -14.1772 Ry au,        -36.0349 Debye
        Dipole field         -0.0268 Ry au,

        Potential amp.        2.4801 Ry
        Total length         46.3494 bohr

     Starting wfcs are  306 atomic wfcs
  @ DRIVER MODE: Message from server: STATUS
  @ DRIVER MODE: Message from server: POSDATA
  @ DRIVER MODE: Reading and sharing cell
  @ DRIVER MODE: Reading and sharing positions
  @ DRIVER MODE: Received positions

     Self-consistent Calculation

     iteration #  1     ecut=    29.40 Ry     beta= 0.05
     Davidson diagonalization with overlap
     c_bands:  4 eigenvalues not converged
     c_bands:  5 eigenvalues not converged
     c_bands:  2 eigenvalues not converged
     c_bands:  2 eigenvalues not converged
     c_bands:  1 eigenvalues not converged
     c_bands:  1 eigenvalues not converged
     c_bands:  4 eigenvalues not converged
     c_bands:  1 eigenvalues not converged
     c_bands:  1 eigenvalues not converged
     ethr =  1.00E-05,  avg # of iterations = 28.9

[...]

     total energy              =   -2249.26003083 Ry
     estimated scf accuracy    <    8255.74616974 Ry

     iteration #  2     ecut=    29.40 Ry     beta= 0.05
     Davidson diagonalization with overlap
     ethr =  1.00E-02,  avg # of iterations = 26.6

[...]

     iteration # 79     ecut=    29.40 Ry     beta= 0.05
     Davidson diagonalization with overlap
     c_bands:  1 eigenvalues not converged
     c_bands:  1 eigenvalues not converged
     ethr =  4.15E-11,  avg # of iterations = 13.5

[...]

     total energy              =   -2975.20156262 Ry
     estimated scf accuracy    <       0.00000013 Ry

     iteration # 81     ecut=    29.40 Ry     beta= 0.05
     Davidson diagonalization with overlap
     ethr =  3.25E-11,  avg # of iterations =  8.9

     negative rho (up, down):  1.356E-02 0.000E+00

     Adding external electric field

     Computed dipole along edir(3) :
        Dipole                1.4171 Ry au,          3.6020 Debye
        Dipole field          0.0027 Ry au,

        Potential amp.       -0.2479 Ry
        Total length         46.3494 bohr

     End of self-consistent calculation

          k = 0.0000 0.0000 0.0000 ( 18029 PWs)   bands (ev):

   -55.1477 -55.1193 -55.1111 -55.0852 -55.0827 -55.0334 -54.9916 -54.9592
   -54.9440 -54.9281 -54.9239 -54.9196 -54.9109 -54.8372 -54.1318 -54.0977
   -31.7107 -31.6091 -31.5267 -31.4837 -31.4621 -31.4583 -31.4483 -31.4460
   -31.4090 -31.3889 -31.3670 -31.3636 -31.3473 -31.3252 -31.3084 -31.2946
   -31.2888 -31.2720 -31.2691 -31.2602 -31.2306 -31.2175 -31.2134 -31.1889
   -31.1809 -31.1763 -31.1666 -31.1607 -31.1595 -31.1522 -31.1405 -31.1385
   -31.1167 -31.1084 -31.1044 -31.0949 -31.0878 -31.0753 -31.0728 -31.0539
   -31.0520 -31.0174 -30.5403 -30.4482 -30.4260 -30.3569 -30.2702 -30.1592
   -19.2479 -18.5886 -15.9644 -15.6995 -15.5683 -15.4029 -15.3393 -15.1682
   -15.0871 -15.0222 -14.9366 -14.8775 -14.8635 -14.8571 -14.7658 -14.7474
   -14.6945 -14.6823 -14.6757 -14.6448 -14.6366 -14.5789 -14.5744 -14.5688
   -14.5352 -14.5224 -14.4925 -14.3748 -14.2941 -14.2373 -14.0251 -13.6476
   -12.6343 -12.5172 -10.0231  -6.8004  -6.4838  -6.3626  -4.0701  -3.9054
    -3.3157  -3.1722  -3.1546  -3.0713  -3.0482  -2.9236  -2.8692  -2.7078
    -2.5967  -2.5022  -2.4132  -2.3432  -2.3356  -2.3072  -2.1897  -2.1279
    -2.0820  -2.0381  -2.0197  -2.0074  -1.9591  -1.9231  -1.9207  -1.8536
    -1.8517  -1.7147  -1.6185  -1.6137  -1.5817  -1.5659  -1.4772  -1.4538
    -1.4444  -1.4388  -1.4321  -1.4249  -1.3905  -1.3454  -1.3205  -1.2367
    -1.1837  -1.1387  -1.0089  -0.9070  -0.8335  -0.7772  -0.6887  -0.6855
    -0.6179  -0.5518  -0.5375  -0.5362  -0.4759  -0.3541  -0.3073  -0.2563
    -0.2364  -0.2108  -0.1224  -0.1050  -0.0352   0.0387   0.0658   0.0758
     0.0976   0.2713   0.2787   0.3079   0.3265   0.4163   0.4684   0.5106
     0.5168   0.5394   0.6061   0.6438   0.7352   0.7828   0.7935   0.8142
     0.8359   0.8757   0.9527   0.9622   1.0028   1.0261   1.1675   1.2039
     1.2606   1.4726   1.4745   1.8036   1.8437   1.8908   2.0770   2.4652
     2.5126   3.9519   4.0416   4.0807   4.0825   4.1013   4.1868   4.3182
     4.4329   4.4434   4.4557   4.4775

[...]

          k = 0.0380-0.0419 0.0000 ( 17876 PWs)   bands (ev):

[...]

          k =-0.0760-0.0000 0.0000 ( 17886 PWs)   bands (ev):

[...]

          k =-0.0760-0.0839 0.0000 ( 17948 PWs)   bands (ev):

   -55.1329 -55.1256 -55.1023 -55.1020 -55.0808 -55.0244 -55.0006 -54.9443
   -54.9379 -54.9295 -54.9281 -54.9273 -54.9164 -54.8407 -54.1148 -54.1146
   -31.5191 -31.5108 -31.4256 -31.4243 -31.4241 -31.4087 -31.3946 -31.3943
   -31.3700 -31.3669 -31.3629 -31.3561 -31.3451 -31.3148 -31.2849 -31.2782
   -31.2775 -31.2771 -31.2727 -31.2668 -31.2599 -31.2420 -31.2276 -31.2250
   -31.2220 -31.2217 -31.2214 -31.1999 -31.1775 -31.1689 -31.1661 -31.1581
   -31.1521 -31.1494 -31.1475 -31.1458 -31.1439 -31.1150 -31.1088 -31.1071
   -31.0914 -31.0612 -30.4387 -30.4386 -30.3530 -30.3528 -30.3136 -30.3135
   -19.2453 -18.5882 -15.4586 -15.3014 -15.2885 -15.1368 -15.1227 -15.1143
   -15.0894 -15.0140 -14.9949 -14.9311 -14.9187 -14.8749 -14.8488 -14.8357
   -14.8248 -14.7316 -14.7242 -14.7180 -14.7021 -14.6516 -14.6395 -14.6223
   -14.5990 -14.5949 -14.5582 -14.4937 -14.4905 -14.4577 -14.2262 -13.6583
   -12.6189 -12.6187 -10.0260  -6.7941  -6.4868  -6.3548  -4.0476  -3.8902
    -2.9345  -2.7238  -2.5269  -2.5102  -2.4615  -2.3700  -2.3283  -2.2882
    -2.1917  -2.1422  -2.1271  -2.1044  -2.0911  -2.0320  -2.0274  -2.0248
    -1.9889  -1.9805  -1.9662  -1.9415  -1.9184  -1.8848  -1.8709  -1.8606
    -1.8478  -1.8086  -1.7887  -1.7604  -1.7470  -1.7181  -1.7017  -1.6319
    -1.5281  -1.4982  -1.4449  -1.3523  -1.3343  -1.3286  -1.2434  -1.2100
    -1.1974  -1.1822  -1.1681  -1.1059  -0.9711  -0.8828  -0.8727  -0.8202
    -0.7544  -0.7211  -0.6787  -0.6511  -0.6233  -0.5686  -0.5198  -0.4952
    -0.4220  -0.3688  -0.3629  -0.3304  -0.1841  -0.1603  -0.1131  -0.1111
    -0.0962  -0.0874   0.0019   0.0187   0.0631   0.0828   0.1229   0.1411
     0.2158   0.2314   0.3501   0.4210   0.4821   0.5880   0.7292   0.7423
     0.8140   0.8772   0.9144   0.9797   1.0375   1.0717   1.1535   1.1631
     1.1815   1.2807   1.3300   1.3365   1.3535   2.2494   2.2510   2.3325
     2.3326   4.1147   4.1366   4.2258   4.2396   4.2919   4.3752   4.4640
     4.4906   4.5258   4.5297   4.6161

     the Fermi energy is     4.0000 ev

!    total energy              =   -2975.20157024 Ry
     estimated scf accuracy    <       0.00000006 Ry
     smearing contrib. (-TS)   =      -0.03820626 Ry
     internal energy E=F+TS    =   -2975.16336398 Ry

     The total energy is F=E-TS. E is the sum of the following terms:
     one-electron contribution =  -23646.25414148 Ry
     hartree contribution      =   11921.27408744 Ry
     xc contribution           =    -494.97342839 Ry
     ewald contribution        =    9244.78632863 Ry
     electric field correction =       0.00378982 Ry

     convergence has been achieved in  81 iterations

     Forces acting on atoms (cartesian axes, Ry/au):

     atom    1 type  1   force =     0.00013833   -0.00013069    0.09419683
     atom    2 type  1   force =    -0.00023458   -0.00026784   -0.17730413
     atom    3 type  2   force =     0.00001716   -0.00026233   -0.02170477
     atom    4 type  2   force =    -0.00004302   -0.00184860    0.05694986
     atom    5 type  2   force =    -0.01105083   -0.00171991    0.00686398
     atom    6 type  2   force =     0.01213825   -0.00091361    0.00492906
     atom    7 type  1   force =    -0.00121451    0.00155889   -0.01219824
     atom    8 type  1   force =     0.00072713    0.00495696    0.00605130
     atom    9 type  2   force =     0.00026657    0.00050480    0.00031778
     atom   10 type  2   force =    -0.00307169   -0.00067627   -0.00506986
     atom   11 type  2   force =     0.00080943    0.00021160   -0.00024696
     atom   12 type  2   force =    -0.00006752    0.00050959    0.00000063
     atom   13 type  1   force =    -0.00021004    0.00011394   -0.00005192
     atom   14 type  1   force =    -0.00000756    0.00012321   -0.00008093
     atom   15 type  2   force =    -0.00005394    0.00002795    0.00018236
     atom   16 type  2   force =     0.00040861    0.00035486   -0.00014708
     atom   17 type  2   force =     0.00013992   -0.00010573    0.00026907
     atom   18 type  2   force =     0.00011061   -0.00019886    0.00012661
     atom   19 type  1   force =     0.00029983    0.00035732   -0.00002340
     atom   20 type  1   force =    -0.00002053    0.00059121    0.00036698
     atom   21 type  2   force =     0.00005028    0.00002519    0.10369927
     atom   22 type  2   force =     0.00057985   -0.00007789   -0.00021728
     atom   23 type  2   force =    -0.07083858   -0.00008804   -0.02719309
     atom   24 type  2   force =     0.07067278    0.00039481   -0.02722958
     atom   25 type  1   force =    -0.00006574   -0.00028068    0.09392359
     atom   26 type  1   force =    -0.00031257   -0.00036404   -0.17747796
     atom   27 type  2   force =     0.00000856   -0.00023281   -0.02074746
     atom   28 type  2   force =     0.00003611   -0.00148847    0.05597549
     atom   29 type  2   force =    -0.01132619   -0.00053179    0.00689822
     atom   30 type  2   force =     0.01228679   -0.00025431    0.00491530
     atom   31 type  1   force =    -0.00121319    0.00505274   -0.01497375
     atom   32 type  1   force =     0.00092630   -0.00601760    0.00588482
     atom   33 type  2   force =     0.00035559   -0.00013453    0.00011098
     atom   34 type  2   force =    -0.00261014   -0.00151480   -0.00577779
     atom   35 type  2   force =     0.00036016    0.00030112   -0.00031308
     atom   36 type  2   force =     0.00044714    0.00040457   -0.00007474
     atom   37 type  1   force =    -0.00016097   -0.00015802   -0.00014709
     atom   38 type  1   force =     0.00004810    0.00032107    0.00045831
     atom   39 type  2   force =     0.00008527    0.00086957   -0.00086264
     atom   40 type  2   force =     0.00003770   -0.00008425    0.00002798
     atom   41 type  2   force =     0.00086879    0.00042291    0.00048246
     atom   42 type  2   force =    -0.00078520    0.00022673   -0.00015566
     atom   43 type  1   force =     0.00044474   -0.00075337    0.00021114
     atom   44 type  1   force =     0.00013457   -0.00005694   -0.00039741
     atom   45 type  2   force =     0.00001880   -0.00002365    0.10369544
     atom   46 type  2   force =    -0.07083469   -0.00000779   -0.02720630
     atom   47 type  2   force =     0.07066438    0.00039709   -0.02720432
     atom   48 type  3   force =    -0.00197298    0.00297794    0.00376829
     atom   49 type  3   force =     0.00021123   -0.00033099   -0.00141377
     atom   50 type  4   force =     0.00985433   -0.00874575   -0.00478317
     atom   51 type  5   force =    -0.00371112    0.00213408   -0.00105001
     atom   52 type  5   force =    -0.00438819    0.00325144    0.00239329
     atom   53 type  5   force =    -0.00038935    0.00064858    0.00104611
     atom   54 type  5   force =     0.00092297    0.00048772    0.00013373
     atom   55 type  2   force =     0.00011098    0.00022253   -0.00005044
     atom   56 type  5   force =     0.00066330   -0.00018385   -0.00050290
     atom   57 type  5   force =    -0.00026140    0.00000504    0.00072688

     Total force =     0.366075     Total SCF correction =     0.000687
  @ DRIVER MODE: Message from server: STATUS
  @ DRIVER MODE: Message from server: GETFORCE
  @ DRIVER MODE: Returning v,forces,stress,ensemble

     Writing output data file ./calc.save/
  @ DRIVER MODE: Message from server: EXIT
  @ DRIVE MODE: Exiting

     General routines

     Parallel routines

   This run was terminated on:  21:50:15  22Sep2021

   JOB DONE.