     Program PWSCF v.6.7GPU starts on 16Sep2021 at  6: 7:22

     R & G space division:  proc/nbgrp/npool/nimage =      10
     Reading input from /storage/home/hcoda1/3/ntian30/research/carbon/CxH_vib/H2O_calc/ads_slab/CH3N2HH2O_a/out_0045/pw.inp
Warning: card &CELL ignored
Warning: card   CELL_DYNAMICS='IPI', ignored
Warning: card / ignored

     Current dimensions of program PWSCF are:
     Max number of different atomic species (ntypx) = 10
     Max number of k-points (npk) =  40000
     Max angular momentum in pseudopotentials (lmaxx) =  3
     Presently no symmetry can be used with electric field

     Message from routine cell_base_init:
     DEPRECATED: use true lattice parameter, not A to a.u. conversion factor

     IMPORTANT: XC functional enforced from input :
     Exchange-correlation= BEEF-VDW
                           (   1   4  43  14   2   0   0)
     Any further DFT definition will be discarded
     Please, verify this is what you really want

  @ DRIVER MODE: Connecting to
 qe_1139763_2852617.sched-torque.pace.gatech.eduphbo4mx6_scratch
  using UNIX socket
  @ DRIVER MODE: Message from server: STATUS
  @ DRIVER MODE: Message from server: INIT
  @ DRIVER MODE: Receiving replica           0          -1
  @ DRIVER MODE: Receiving encoded integer          25
  @ DRIVER MODE:  SCF:  T  FORCE:  T  STRESS:  F  VC:  F  ENSEMBLE:  F
  @ DRIVER MODE:  SCF:  T  FORCE:  T  STRESS:  F  VC:  F  ENSEMBLE:  F

     Using Slab Decomposition

     bravais-lattice index     =            0
     lattice parameter (alat)  =       1.8897  a.u.
     unit-cell volume          =    6658.9804 (a.u.)^3
     number of atoms/cell      =           57
     number of atomic types    =            5
     number of electrons       =       404.00
     number of Kohn-Sham states=          212
     kinetic-energy cutoff     =      29.3995  Ry
     charge density cutoff     =     293.9946  Ry
     scf convergence threshold =      7.3E-08
     mixing beta               =       0.0500
     number of iterations used =            8  plain     mixing
     Exchange-correlation= BEEF-VDW
                           (   1   4  43  14   2   0   0)

     celldm(1)=   1.889726  celldm(2)=   0.000000  celldm(3)=   0.000000
     celldm(4)=   0.000000  celldm(5)=   0.000000  celldm(6)=   0.000000

     crystal axes: (cart. coord. in units of alat)
               a(1) = (   6.579727   0.000000   0.000000 )
               a(2) = (  -0.000775   5.961596   0.000000 )
               a(3) = (   0.000000   0.000000  25.155947 )

     reciprocal axes: (cart. coord. in units 2 pi/alat)
               b(1) = (  0.151982  0.000020  0.000000 )
               b(2) = (  0.000000  0.167740  0.000000 )
               b(3) = (  0.000000  0.000000  0.039752 )

     PseudoPot. # 1 for Ti read from file:
     /storage/coda1/p-amedford6/0/shared/rich_project_chbe-medford/medford-share/data/pseudos_module/espresso/nninc/pbe/van/Ti.UPF
     MD5 check sum: 8e4df49b7f0d34bbd5052bf3f5ea0213
     Pseudo is Ultrasoft, Zval = 12.0
     Generated by new atomic code, or converted to UPF format
     Using radial grid of  851 points,  6 beta functions with:
                l(1) =   0
                l(2) =   0
                l(3) =   1
                l(4) =   1
                l(5) =   2
                l(6) =   2
     Q(r) pseudized with  8 coefficients,  rinner =    1.000   1.000   1.000
                                                       1.000   1.000

     PseudoPot. # 2 for O  read from file:
     /storage/coda1/p-amedford6/0/shared/rich_project_chbe-medford/medford-share/data/pseudos_module/espresso/nninc/pbe/van/O.UPF
     MD5 check sum: 78c19812648e8988a0fe644b0f25305e
     Pseudo is Ultrasoft, Zval =  6.0
     Generated by new atomic code, or converted to UPF format
     Using radial grid of  737 points,  4 beta functions with:
                l(1) =   0
                l(2) =   0
                l(3) =   1
                l(4) =   1
     Q(r) pseudized with  8 coefficients,  rinner =    0.800   0.800   0.800

     PseudoPot. # 3 for N  read from file:
     /storage/coda1/p-amedford6/0/shared/rich_project_chbe-medford/medford-share/data/pseudos_module/espresso/nninc/pbe/van/N.UPF
     MD5 check sum: 90d10febe142ad51ac9d5be1deb811c4
     Pseudo is Ultrasoft, Zval =  5.0
     Generated by new atomic code, or converted to UPF format
     Using radial grid of  729 points,  4 beta functions with:
                l(1) =   0
                l(2) =   0
                l(3) =   1
                l(4) =   1
     Q(r) pseudized with  8 coefficients,  rinner =    0.800   0.800   0.800

     PseudoPot. # 4 for C  read from file:
     /storage/coda1/p-amedford6/0/shared/rich_project_chbe-medford/medford-share/data/pseudos_module/espresso/nninc/pbe/van/C.UPF
     MD5 check sum: 1a69bf6b8db32088f5b2163dbdb77a27
     Pseudo is Ultrasoft, Zval =  4.0
     Generated by new atomic code, or converted to UPF format
     Using radial grid of  721 points,  4 beta functions with:
                l(1) =   0
                l(2) =   0
                l(3) =   1
                l(4) =   1
     Q(r) pseudized with  8 coefficients,  rinner =    0.800   0.800   0.800

     PseudoPot. # 5 for H  read from file:
     /storage/coda1/p-amedford6/0/shared/rich_project_chbe-medford/medford-share/data/pseudos_module/espresso/nninc/pbe/van/H.UPF
     MD5 check sum: b5ee9d7bfd3a09ee7748110bda690ff7
     Pseudo is Ultrasoft, Zval =  1.0
     Generated by new atomic code, or converted to UPF format
     Using radial grid of  615 points,  1 beta functions with:
                l(1) =   0
     Q(r) pseudized with  8 coefficients,  rinner =    0.800

     atomic species   valence    mass     pseudopotential
        Ti1           12.00    47.86700     Ti( 1.00)
        O1             6.00    15.99900     O ( 1.00)
        N1             5.00    14.00700     N ( 1.00)
        C1             4.00    12.01100     C ( 1.00)
        H1             1.00     1.00800     H ( 1.00)

     No symmetry found

   Cartesian axes

     site n.     atom                  positions (alat units)
         1           Ti1 tau(   1) = (   0.0004258   2.9801865   6.0000000  )
         2           Ti1 tau(   2) = (   3.2906075   1.4906267   6.0002472  )
         3           O1  tau(   3) = (   0.0006271   0.0005054   7.9858123  )
         4           O1  tau(   4) = (   3.2906025   0.0005020   7.3038282  )
         5           O1  tau(   5) = (   4.5942328   1.4918067   9.2879030  )
         6           O1  tau(   6) = (   1.9868534   1.4903216   9.2879459  )
         7           Ti1 tau(   7) = (   3.2907910   2.8959150   9.1758416  )
         8           Ti1 tau(   8) = (   0.0015273   1.4827037   9.2680791  )
         9           O1  tau(   9) = (   3.2846840   0.0164488  11.3171736  )
        10           O1  tau(  10) = (   0.0116148   5.9584955  10.6183126  )
        11           O1  tau(  11) = (   1.2780696   1.4966870  12.6228330  )
        12           O1  tau(  12) = (   5.2671132   1.5021727  12.6038655  )
        13           Ti1 tau(  13) = (   0.0814623   2.9703834  12.6092300  )
        14           Ti1 tau(  14) = (   3.3984034   1.5042134  12.4754612  )
        15           O1  tau(  15) = (   6.5611900   5.9602394  14.6246442  )
        16           O1  tau(  16) = (   3.2847170   0.0117735  13.9091713  )
        17           O1  tau(  17) = (   4.5127615   1.5439160  15.9886145  )
        18           O1  tau(  18) = (   2.0245574   1.5486524  15.9865356  )
        19           Ti1 tau(  19) = (   3.2678410   3.0292036  15.6627315  )
        20           Ti1 tau(  20) = (   6.5437773   1.5790868  15.8036792  )
        21           O1  tau(  21) = (   3.2904802   0.0005063   4.7018136  )
        22           O1  tau(  22) = (   6.5616667   0.0409992  17.2467836  )
        23           O1  tau(  23) = (   1.3043587   1.4918075   6.0039043  )
        24           O1  tau(  24) = (   5.2767064   1.4903225   6.0039473  )
        25           Ti1 tau(  25) = (   0.0000382   5.9609847   6.0000000  )
        26           Ti1 tau(  26) = (   3.2902200   4.4714249   6.0002472  )
        27           O1  tau(  27) = (   0.0002396   2.9813036   7.9858123  )
        28           O1  tau(  28) = (   3.2902150   2.9813002   7.3038282  )
        29           O1  tau(  29) = (   4.5938453   4.4726049   9.2879030  )
        30           O1  tau(  30) = (   1.9864658   4.4711199   9.2879459  )
        31           Ti1 tau(  31) = (   3.2891106   5.8743827   9.1763621  )
        32           Ti1 tau(  32) = (   0.0006254   4.4649316   9.2693709  )
        33           O1  tau(  33) = (   3.2886753   2.9955121  11.3174028  )
        34           O1  tau(  34) = (   0.0092240   2.9805883  10.6323155  )
        35           O1  tau(  35) = (   1.2771457   4.4765085  12.6200386  )
        36           O1  tau(  36) = (   5.2716127   4.4859779  12.5990880  )
        37           Ti1 tau(  37) = (   0.0719143   5.9417653  12.6408960  )
        38           Ti1 tau(  38) = (   3.4009286   4.4967646  12.4819834  )
        39           O1  tau(  39) = (   6.5633752   2.9851081  14.6229342  )
        40           O1  tau(  40) = (   3.2806164   3.0132077  13.8636590  )
        41           O1  tau(  41) = (   4.5054435   4.4842064  16.0752605  )
        42           O1  tau(  42) = (   2.0287922   4.4846499  16.0567397  )
        43           Ti1 tau(  43) = (   3.2585180   0.0608266  15.7494983  )
        44           Ti1 tau(  44) = (   6.5556145   4.6328118  16.1363011  )
        45           O1  tau(  45) = (   3.2900926   2.9813045   4.7018136  )
        46           O1  tau(  46) = (   1.3039711   4.4726057   6.0039043  )
        47           O1  tau(  47) = (   5.2763189   4.4711207   6.0039473  )
        48           N1  tau(  48) = (   6.4582227   2.6263240  18.5734135  )
        49           N1  tau(  49) = (   6.5493832   2.9496485  17.3103279  )
        50           C1  tau(  50) = (   0.1600853   3.5596473  19.6455425  )
        51           H1  tau(  51) = (   6.1911903   4.4878083  19.4849519  )
        52           H1  tau(  52) = (   6.4401482   3.1080517  20.5902855  )
        53           H1  tau(  53) = (   1.2308410   3.8049764  19.6956042  )
        54           H1  tau(  54) = (   6.5044843   1.6253530  18.7706356  )
        55           O1  tau(  55) = (   3.2415852   0.0655412  18.2049893  )
        56           H1  tau(  56) = (   4.0109045   5.4607113  18.3409029  )
        57           H1  tau(  57) = (   2.4534619   5.4803556  18.3240773  )

     number of k points=    10  Fermi-Dirac smearing, width (Ry)=  0.0073
                       cart. coord. in units 2pi/alat
        k(    1) = (   0.0000000   0.0000000   0.0000000), wk =   0.1250000
        k(    2) = (   0.0000000   0.0419351   0.0000000), wk =   0.2500000
        k(    3) = (   0.0000000  -0.0838702   0.0000000), wk =   0.1250000
        k(    4) = (   0.0379955   0.0000049   0.0000000), wk =   0.2500000
        k(    5) = (   0.0379955   0.0419400   0.0000000), wk =   0.2500000
        k(    6) = (   0.0379955  -0.0838652   0.0000000), wk =   0.2500000
        k(    7) = (   0.0379955  -0.0419301   0.0000000), wk =   0.2500000
        k(    8) = (  -0.0759910  -0.0000099   0.0000000), wk =   0.1250000
        k(    9) = (  -0.0759910   0.0419252   0.0000000), wk =   0.2500000
        k(   10) = (  -0.0759910  -0.0838800   0.0000000), wk =   0.1250000

     Initial potential from superposition of free atoms

     starting charge  387.99913, renormalised to  404.00000

     negative rho (up, down):  1.445E-02 0.000E+00

     %%%%%%%%%%%%%%%%%%%%%%%%%%%%%%%%%%%%%%%%%%%%%%%%%%%%%%%%%%%%%%%%%%%%%%%%
     %                                                                      %
     % You are using vdW-DF, which was implemented by the Thonhauser group. %
     % Please cite the following two papers that made this development      %
     % possible and the two reviews that describe the various versions:     %
     %                                                                      %
     %   T. Thonhauser et al., PRL 115, 136402 (2015).                      %
     %   T. Thonhauser et al., PRB 76, 125112 (2007).                       %
     %   K. Berland et al., Rep. Prog. Phys. 78, 066501 (2015).             %
     %   D.C. Langreth et al., J. Phys.: Condens. Matter 21, 084203 (2009). %
     %                                                                      %
     %                                                                      %
     % If you are calculating the stress with vdW-DF, please also cite:     %
     %                                                                      %
     %   R. Sabatini et al., J. Phys.: Condens. Matter 24, 424209 (2012).   %
     %                                                                      %
     %%%%%%%%%%%%%%%%%%%%%%%%%%%%%%%%%%%%%%%%%%%%%%%%%%%%%%%%%%%%%%%%%%%%%%%%

     Adding external electric field

     Computed dipole along edir(3) :
        Dipole              -13.5668 Ry au,        -34.4835 Debye
        Dipole field         -0.0256 Ry au,

        Potential amp.        2.3733 Ry
        Total length         46.3494 bohr

     Starting wfcs are  306 atomic wfcs
  @ DRIVER MODE: Message from server: STATUS
  @ DRIVER MODE: Message from server: POSDATA
  @ DRIVER MODE: Reading and sharing cell
  @ DRIVER MODE: Reading and sharing positions
  @ DRIVER MODE: Received positions

     Self-consistent Calculation

     iteration #  1     ecut=    29.40 Ry     beta= 0.05
     Davidson diagonalization with overlap
     c_bands:  4 eigenvalues not converged
     c_bands:  4 eigenvalues not converged
     c_bands:  3 eigenvalues not converged
     c_bands:  4 eigenvalues not converged
     c_bands:  3 eigenvalues not converged
     c_bands:  3 eigenvalues not converged
     ethr =  1.00E-05,  avg # of iterations = 25.3

[...]

     total energy              =   -2339.28140766 Ry
     estimated scf accuracy    <    7248.97898404 Ry

     iteration #  2     ecut=    29.40 Ry     beta= 0.05
     Davidson diagonalization with overlap
     ethr =  1.00E-02,  avg # of iterations = 24.3

[...]

     iteration # 59     ecut=    29.40 Ry     beta= 0.05
     Davidson diagonalization with overlap
     c_bands:  1 eigenvalues not converged
     ethr =  2.68E-07,  avg # of iterations = 11.5

[...]

     total energy              =   -2975.23036512 Ry
     estimated scf accuracy    <       0.00000018 Ry

     iteration # 79     ecut=    29.40 Ry     beta= 0.05
     Davidson diagonalization with overlap
     ethr =  4.57E-11,  avg # of iterations =  7.4

     negative rho (up, down):  1.507E-02 0.000E+00

     Adding external electric field

     Computed dipole along edir(3) :
        Dipole                1.1603 Ry au,          2.9491 Debye
        Dipole field          0.0022 Ry au,

        Potential amp.       -0.2030 Ry
        Total length         46.3494 bohr

     End of self-consistent calculation

          k = 0.0000 0.0000 0.0000 ( 18029 PWs)   bands (ev):

   -55.5053 -55.4713 -55.3324 -55.2959 -55.2624 -55.2287 -55.2018 -55.1980
   -55.1875 -55.1642 -55.1531 -55.0133 -54.5527 -54.4354 -54.4014 -54.3887
   -31.9783 -31.8677 -31.7995 -31.7845 -31.7213 -31.7120 -31.6765 -31.6586
   -31.6214 -31.6036 -31.6007 -31.5737 -31.5642 -31.5198 -31.5117 -31.5007
   -31.4818 -31.4796 -31.4554 -31.4382 -31.4246 -31.4165 -31.4137 -31.3952
   -31.3925 -31.3847 -31.3750 -31.3679 -31.3653 -31.3631 -31.3413 -31.3295
   -31.3171 -31.2999 -31.2056 -31.1784 -31.0466 -30.8406 -30.7770 -30.7627
   -30.7573 -30.7346 -30.7239 -30.6575 -30.5990 -30.5713 -30.5683 -30.4602
   -18.8398 -17.7493 -16.0737 -15.8816 -15.6093 -15.4857 -15.4588 -15.2749
   -15.1986 -15.1471 -15.0149 -14.9678 -14.9384 -14.9083 -14.8959 -14.8387
   -14.8112 -14.7842 -14.7544 -14.7502 -14.7307 -14.7085 -14.6668 -14.6099
   -14.5847 -14.5234 -14.4732 -14.4517 -14.3577 -14.3536 -13.9291 -12.9371
   -12.8216 -11.9024  -8.8058  -6.6603  -5.6089  -4.3229  -4.0900  -3.4584
    -3.3828  -3.3239  -3.2077  -3.1269  -2.9896  -2.9394  -2.8821  -2.7686
    -2.6047  -2.5468  -2.5205  -2.4919  -2.4064  -2.2741  -2.2624  -2.2146
    -2.1867  -2.1660  -2.1515  -2.1355  -2.0390  -2.0014  -1.9647  -1.8543
    -1.8194  -1.7953  -1.7783  -1.7689  -1.7529  -1.6888  -1.6563  -1.6384
    -1.6282  -1.5911  -1.5562  -1.5450  -1.4163  -1.3982  -1.2810  -1.1517
    -1.1290  -1.0711  -1.0467  -0.8878  -0.8830  -0.8604  -0.8191  -0.8117
    -0.7396  -0.6669  -0.6240  -0.5501  -0.4316  -0.4222  -0.3874  -0.2413
    -0.2377  -0.2148  -0.1765  -0.1653  -0.1130  -0.1070  -0.0596   0.0021
     0.0968   0.1678   0.2730   0.2760   0.3287   0.3682   0.3812   0.4385
     0.4552   0.5051   0.5167   0.5244   0.5762   0.6110   0.6238   0.6822
     0.7330   0.8497   0.9195   0.9441   0.9910   1.1129   1.1881   1.2357
     1.2409   1.4093   1.5318   1.5612   1.5867   1.7870   1.8185   2.1536
     2.1974   3.6688   3.6856   3.7752   3.8344   3.9485   4.0202   4.1087
     4.1887   4.2578   4.3503   4.3779

[...]

          k = 0.0380-0.0419 0.0000 ( 17876 PWs)   bands (ev):

[...]

          k =-0.0760-0.0000 0.0000 ( 17886 PWs)   bands (ev):

[...]

          k =-0.0760-0.0839 0.0000 ( 17948 PWs)   bands (ev):

   -55.4883 -55.4881 -55.3179 -55.3102 -55.2455 -55.2453 -55.1963 -55.1903
   -55.1757 -55.1736 -55.1671 -55.0149 -54.5511 -54.4184 -54.4183 -54.3902
   -31.7938 -31.7938 -31.7847 -31.7847 -31.6808 -31.6636 -31.6094 -31.6089
   -31.5701 -31.5654 -31.5620 -31.5575 -31.5548 -31.5489 -31.5166 -31.5115
   -31.4896 -31.4801 -31.4780 -31.4703 -31.4386 -31.4365 -31.4283 -31.4257
   -31.4146 -31.4119 -31.4018 -31.3989 -31.3948 -31.3890 -31.3878 -31.3831
   -31.3554 -31.3312 -31.3153 -31.2132 -30.9561 -30.8003 -30.7658 -30.7473
   -30.7473 -30.7455 -30.6537 -30.6535 -30.6179 -30.6144 -30.6144 -30.5990
   -18.8389 -17.7433 -15.4968 -15.4309 -15.3601 -15.3562 -15.2514 -15.1985
   -15.1037 -15.0929 -15.0858 -15.0827 -14.9822 -14.9789 -14.9128 -14.9040
   -14.8644 -14.8579 -14.8542 -14.8373 -14.8229 -14.8175 -14.8022 -14.7549
   -14.7388 -14.7329 -14.5694 -14.5441 -14.4289 -14.4102 -14.0533 -12.9237
   -12.9236 -11.9037  -8.8163  -6.6446  -5.6009  -4.2728  -4.1096  -2.9319
    -2.8970  -2.7881  -2.6561  -2.5284  -2.5161  -2.4950  -2.4585  -2.2924
    -2.2797  -2.2643  -2.2547  -2.2132  -2.2019  -2.1830  -2.1687  -2.1148
    -2.0973  -2.0788  -2.0741  -2.0631  -2.0571  -2.0470  -2.0384  -2.0298
    -2.0061  -1.9596  -1.9375  -1.8555  -1.7706  -1.7611  -1.6831  -1.5546
    -1.5475  -1.5359  -1.5344  -1.5225  -1.5119  -1.4707  -1.4345  -1.3806
    -1.2687  -1.1532  -1.1016  -1.0834  -1.0285  -1.0098  -0.9211  -0.8408
    -0.8057  -0.7873  -0.7020  -0.6533  -0.5745  -0.5590  -0.5220  -0.4716
    -0.4477  -0.4334  -0.4173  -0.4094  -0.3459  -0.3017  -0.2339  -0.2204
    -0.1646  -0.1333  -0.1051  -0.0825  -0.0410   0.0521   0.0603   0.0883
     0.1150   0.1302   0.2046   0.3554   0.3959   0.6351   0.6443   0.7160
     0.8444   0.8670   0.8741   0.9505   0.9639   1.0020   1.0229   1.1429
     1.1658   1.1904   1.3185   1.3538   1.4456   1.9566   1.9574   2.0164
     2.0168   3.5317   4.1332   4.1432   4.1602   4.1736   4.1991   4.2056
     4.2481   4.2614   4.3942   4.4153

     the Fermi energy is     3.6447 ev

!    total energy              =   -2975.23037572 Ry
     estimated scf accuracy    <       0.00000007 Ry
     smearing contrib. (-TS)   =      -0.02107525 Ry
     internal energy E=F+TS    =   -2975.20930047 Ry

     The total energy is F=E-TS. E is the sum of the following terms:
     one-electron contribution =  -23878.77301805 Ry
     hartree contribution      =   12036.79629197 Ry
     xc contribution           =    -494.93770254 Ry
     ewald contribution        =    9361.70258768 Ry
     electric field correction =       0.00254047 Ry

     convergence has been achieved in  79 iterations

     Forces acting on atoms (cartesian axes, Ry/au):

     atom    1 type  1   force =     0.00016800   -0.00022938    0.09946201
     atom    2 type  1   force =    -0.00014425   -0.00039184   -0.17306925
     atom    3 type  2   force =    -0.00006839   -0.00000415   -0.02913929
     atom    4 type  2   force =     0.00004087   -0.00102628    0.04891552
     atom    5 type  2   force =    -0.01224772    0.00099328    0.00048595
     atom    6 type  2   force =     0.01355825    0.00186600   -0.00111035
     atom    7 type  1   force =    -0.00136275   -0.00053629   -0.00301407
     atom    8 type  1   force =     0.00094352   -0.00608265    0.04541237
     atom    9 type  2   force =    -0.00000216   -0.00022982   -0.00001423
     atom   10 type  2   force =    -0.00155691    0.00261669   -0.03092681
     atom   11 type  2   force =    -0.00017847   -0.00044930    0.00003757
     atom   12 type  2   force =     0.00008495   -0.00023466    0.00014240
     atom   13 type  1   force =    -0.00020036   -0.00054560   -0.00035070
     atom   14 type  1   force =     0.00031185   -0.00015394    0.00025299
     atom   15 type  2   force =     0.00000044   -0.00012593   -0.00028115
     atom   16 type  2   force =    -0.00021900    0.00004969    0.00014276
     atom   17 type  2   force =     0.00012727   -0.00036665    0.00027870
     atom   18 type  2   force =    -0.00000132   -0.00044490    0.00014933
     atom   19 type  1   force =     0.00007826    0.00005398    0.00035418
     atom   20 type  1   force =    -0.00002412   -0.00047790    0.00021662
     atom   21 type  2   force =     0.00008907   -0.00000601    0.10260489
     atom   22 type  2   force =     0.00009292   -0.00019289    0.00003942
     atom   23 type  2   force =    -0.07248252   -0.00009119   -0.02846135
     atom   24 type  2   force =     0.07244732    0.00034144   -0.02844234
     atom   25 type  1   force =     0.00009180   -0.00027474    0.09897340
     atom   26 type  1   force =    -0.00006139   -0.00041722   -0.17324707
     atom   27 type  2   force =    -0.00003346    0.00000427   -0.02844278
     atom   28 type  2   force =     0.00009595   -0.00076108    0.04808017
     atom   29 type  2   force =    -0.01261415    0.00062947    0.00052126
     atom   30 type  2   force =     0.01384950    0.00095838   -0.00104689
     atom   31 type  1   force =    -0.00145752    0.00225756   -0.00573564
     atom   32 type  1   force =     0.00111816    0.00383458    0.04592927
     atom   33 type  2   force =    -0.00006332   -0.00026847   -0.00009376
     atom   34 type  2   force =    -0.00096472    0.00133810   -0.03377945
     atom   35 type  2   force =    -0.00029575    0.00004232   -0.00024624
     atom   36 type  2   force =     0.00049640    0.00009781   -0.00003880
     atom   37 type  1   force =    -0.00031951    0.00006978    0.00024185
     atom   38 type  1   force =     0.00019767   -0.00030241    0.00006563
     atom   39 type  2   force =     0.00002743   -0.00053535    0.00038926
     atom   40 type  2   force =    -0.00004867    0.00016600   -0.00029460
     atom   41 type  2   force =    -0.00003623   -0.00033493   -0.00016459
     atom   42 type  2   force =     0.00011537   -0.00027097   -0.00027624
     atom   43 type  1   force =     0.00009524   -0.00021525   -0.00010524
     atom   44 type  1   force =    -0.00001464   -0.00030974   -0.00006863
     atom   45 type  2   force =     0.00009680   -0.00001312    0.10260665
     atom   46 type  2   force =    -0.07250336   -0.00000821   -0.02845211
     atom   47 type  2   force =     0.07246426    0.00037835   -0.02844361
     atom   48 type  3   force =    -0.00041504   -0.00041762   -0.00028624
     atom   49 type  3   force =     0.00015284   -0.00057298   -0.00028136
     atom   50 type  4   force =     0.00023221   -0.00037481    0.00009476
     atom   51 type  5   force =     0.00016057   -0.00013766    0.00021768
     atom   52 type  5   force =    -0.00011581    0.00024298    0.00023027
     atom   53 type  5   force =     0.00004343   -0.00008619    0.00015412
     atom   54 type  5   force =     0.00032681    0.00009858    0.00019888
     atom   55 type  2   force =     0.00048549    0.01610122   -0.00367910
     atom   56 type  5   force =     0.00705415   -0.00813436    0.00157673
     atom   57 type  5   force =    -0.00761526   -0.00711599    0.00171724

     Total force =     0.372710     Total SCF correction =     0.000737
  @ DRIVER MODE: Message from server: STATUS
  @ DRIVER MODE: Message from server: GETFORCE
  @ DRIVER MODE: Returning v,forces,stress,ensemble

     Writing output data file ./calc.save/
  @ DRIVER MODE: Message from server: EXIT
  @ DRIVE MODE: Exiting

     General routines

     Parallel routines

   This run was terminated on:   6:28:37  16Sep2021

   JOB DONE.