     Program PWSCF v.6.7GPU starts on 23Sep2021 at 11: 6:38

     R & G space division:  proc/nbgrp/npool/nimage =       8
     Reading input from /storage/home/hcoda1/3/ntian30/research/carbon/CxH_vib/H2O_calc/ads_slab/CH2ON2HO_b/out_0001/pw.inp
Warning: card &CELL ignored
Warning: card   CELL_DYNAMICS='IPI', ignored
Warning: card / ignored

     Current dimensions of program PWSCF are:
     Max number of different atomic species (ntypx) = 10
     Max number of k-points (npk) =  40000
     Max angular momentum in pseudopotentials (lmaxx) =  3
     Presently no symmetry can be used with electric field

     Message from routine cell_base_init:
     DEPRECATED: use true lattice parameter, not A to a.u. conversion factor

     IMPORTANT: XC functional enforced from input :
     Exchange-correlation= BEEF-VDW
                           (   1   4  43  14   2   0   0)
     Any further DFT definition will be discarded
     Please, verify this is what you really want

  @ DRIVER MODE: Connecting to
 qe_1139763_2947315.sched-torque.pace.gatech.edudbolsnsi_scratch
  using UNIX socket
  @ DRIVER MODE: Message from server: STATUS
  @ DRIVER MODE: Message from server: INIT
  @ DRIVER MODE: Receiving replica           0          -1
  @ DRIVER MODE: Receiving encoded integer          25
  @ DRIVER MODE:  SCF:  T  FORCE:  T  STRESS:  F  VC:  F  ENSEMBLE:  F
  @ DRIVER MODE:  SCF:  T  FORCE:  T  STRESS:  F  VC:  F  ENSEMBLE:  F

     Using Slab Decomposition

     bravais-lattice index     =            0
     lattice parameter (alat)  =       1.8897  a.u.
     unit-cell volume          =    6658.9804 (a.u.)^3
     number of atoms/cell      =           55
     number of atomic types    =            5
     number of electrons       =       407.00
     number of Kohn-Sham states=          213
     kinetic-energy cutoff     =      29.3995  Ry
     charge density cutoff     =     293.9946  Ry
     scf convergence threshold =      7.3E-08
     mixing beta               =       0.0500
     number of iterations used =            8  plain     mixing
     Exchange-correlation= BEEF-VDW
                           (   1   4  43  14   2   0   0)

     celldm(1)=   1.889726  celldm(2)=   0.000000  celldm(3)=   0.000000
     celldm(4)=   0.000000  celldm(5)=   0.000000  celldm(6)=   0.000000

     crystal axes: (cart. coord. in units of alat)
               a(1) = (   6.579727   0.000000   0.000000 )
               a(2) = (  -0.000775   5.961596   0.000000 )
               a(3) = (   0.000000   0.000000  25.155947 )

     reciprocal axes: (cart. coord. in units 2 pi/alat)
               b(1) = (  0.151982  0.000020  0.000000 )
               b(2) = (  0.000000  0.167740  0.000000 )
               b(3) = (  0.000000  0.000000  0.039752 )

     PseudoPot. # 1 for C  read from file:
     /storage/coda1/p-amedford6/0/shared/rich_project_chbe-medford/medford-share/data/pseudos_module/espresso/nninc/pbe/van/C.UPF
     MD5 check sum: 1a69bf6b8db32088f5b2163dbdb77a27
     Pseudo is Ultrasoft, Zval =  4.0
     Generated by new atomic code, or converted to UPF format
     Using radial grid of  721 points,  4 beta functions with:
                l(1) =   0
                l(2) =   0
                l(3) =   1
                l(4) =   1
     Q(r) pseudized with  8 coefficients,  rinner =    0.800   0.800   0.800

     PseudoPot. # 2 for H  read from file:
     /storage/coda1/p-amedford6/0/shared/rich_project_chbe-medford/medford-share/data/pseudos_module/espresso/nninc/pbe/van/H.UPF
     MD5 check sum: b5ee9d7bfd3a09ee7748110bda690ff7
     Pseudo is Ultrasoft, Zval =  1.0
     Generated by new atomic code, or converted to UPF format
     Using radial grid of  615 points,  1 beta functions with:
                l(1) =   0
     Q(r) pseudized with  8 coefficients,  rinner =    0.800

     PseudoPot. # 3 for O  read from file:
     /storage/coda1/p-amedford6/0/shared/rich_project_chbe-medford/medford-share/data/pseudos_module/espresso/nninc/pbe/van/O.UPF
     MD5 check sum: 78c19812648e8988a0fe644b0f25305e
     Pseudo is Ultrasoft, Zval =  6.0
     Generated by new atomic code, or converted to UPF format
     Using radial grid of  737 points,  4 beta functions with:
                l(1) =   0
                l(2) =   0
                l(3) =   1
                l(4) =   1
     Q(r) pseudized with  8 coefficients,  rinner =    0.800   0.800   0.800

     PseudoPot. # 4 for Ti read from file:
     /storage/coda1/p-amedford6/0/shared/rich_project_chbe-medford/medford-share/data/pseudos_module/espresso/nninc/pbe/van/Ti.UPF
     MD5 check sum: 8e4df49b7f0d34bbd5052bf3f5ea0213
     Pseudo is Ultrasoft, Zval = 12.0
     Generated by new atomic code, or converted to UPF format
     Using radial grid of  851 points,  6 beta functions with:
                l(1) =   0
                l(2) =   0
                l(3) =   1
                l(4) =   1
                l(5) =   2
                l(6) =   2
     Q(r) pseudized with  8 coefficients,  rinner =    1.000   1.000   1.000
                                                       1.000   1.000

     PseudoPot. # 5 for N  read from file:
     /storage/coda1/p-amedford6/0/shared/rich_project_chbe-medford/medford-share/data/pseudos_module/espresso/nninc/pbe/van/N.UPF
     MD5 check sum: 90d10febe142ad51ac9d5be1deb811c4
     Pseudo is Ultrasoft, Zval =  5.0
     Generated by new atomic code, or converted to UPF format
     Using radial grid of  729 points,  4 beta functions with:
                l(1) =   0
                l(2) =   0
                l(3) =   1
                l(4) =   1
     Q(r) pseudized with  8 coefficients,  rinner =    0.800   0.800   0.800

     atomic species   valence    mass     pseudopotential
        C1             4.00    12.01100     C ( 1.00)
        H1             1.00     1.00800     H ( 1.00)
        O1             6.00    15.99900     O ( 1.00)
        Ti1           12.00    47.86700     Ti( 1.00)
        N1             5.00    14.00700     N ( 1.00)

     No symmetry found

   Cartesian axes

     site n.     atom                  positions (alat units)
         1           C1  tau(   1) = (   6.3959394   2.9948767  18.7016815  )
         2           H1  tau(   2) = (   6.3118651   3.9496324  19.2181435  )
         3           H1  tau(   3) = (   6.2946090   2.0524817  19.2375006  )
         4           O1  tau(   4) = (   3.2904802   0.0005063   4.7018136  )
         5           O1  tau(   5) = (   3.2900926   2.9813045   4.7018136  )
         6           O1  tau(   6) = (   1.3043587   1.4918075   6.0039043  )
         7           O1  tau(   7) = (   1.3039711   4.4726057   6.0039043  )
         8           O1  tau(   8) = (   5.2767064   1.4903225   6.0039473  )
         9           O1  tau(   9) = (   5.2763189   4.4711207   6.0039473  )
        10           O1  tau(  10) = (   3.2906025   0.0005020   7.3038282  )
        11           O1  tau(  11) = (   3.2902150   2.9813002   7.3038282  )
        12           O1  tau(  12) = (   0.0006271   0.0005054   7.9858123  )
        13           O1  tau(  13) = (   0.0002396   2.9813036   7.9858123  )
        14           O1  tau(  14) = (   4.5942328   1.4918067   9.2879030  )
        15           O1  tau(  15) = (   4.5938453   4.4726049   9.2879030  )
        16           O1  tau(  16) = (   1.9868534   1.4903216   9.2879459  )
        17           O1  tau(  17) = (   1.9864658   4.4711199   9.2879459  )
        18           O1  tau(  18) = (   0.0129981   2.9922367  10.5657274  )
        19           O1  tau(  19) = (   0.0144279   0.0091559  10.5889743  )
        20           O1  tau(  20) = (   3.3117767   2.9674386  11.3102582  )
        21           O1  tau(  21) = (   3.3129298   0.0243810  11.3450129  )
        22           O1  tau(  22) = (   5.3345884   1.4970258  12.6342112  )
        23           O1  tau(  23) = (   5.3394917   4.4808886  12.6396439  )
        24           O1  tau(  24) = (   1.3039726   1.5040805  12.6380785  )
        25           O1  tau(  25) = (   1.3005587   4.4728597  12.6427203  )
        26           O1  tau(  26) = (   3.3397831   2.9746101  13.9049785  )
        27           O1  tau(  27) = (   3.3223070   5.9049495  13.9699414  )
        28           O1  tau(  28) = (   0.0408547   5.9558716  14.6791314  )
        29           O1  tau(  29) = (   0.0240783   2.9814708  14.7219997  )
        30           O1  tau(  30) = (   4.6055448   4.4181431  16.1204950  )
        31           O1  tau(  31) = (   4.6084482   1.5084077  16.0967128  )
        32           O1  tau(  32) = (   2.0524258   4.3896087  16.0537013  )
        33           O1  tau(  33) = (   2.0565100   1.5382275  16.0573534  )
        34           O1  tau(  34) = (   0.0881354   5.9599038  17.1931241  )
        35           O1  tau(  35) = (   0.0264254   2.9794292  17.4619454  )
        36           Ti1 tau(  36) = (   0.0004258   2.9801865   6.0000000  )
        37           Ti1 tau(  37) = (   0.0000382   5.9609847   6.0000000  )
        38           Ti1 tau(  38) = (   3.2906075   1.4906267   6.0002472  )
        39           Ti1 tau(  39) = (   3.2902200   4.4714249   6.0002472  )
        40           Ti1 tau(  40) = (   3.3176177   0.0844252   9.1703869  )
        41           Ti1 tau(  41) = (   3.3271239   3.0668301   9.1994626  )
        42           Ti1 tau(  42) = (   0.0459265   4.5214211   9.2633915  )
        43           Ti1 tau(  43) = (   0.0410032   1.6055327   9.3499854  )
        44           Ti1 tau(  44) = (   3.3214603   4.6642404  12.6916750  )
        45           Ti1 tau(  45) = (   3.3199143   1.5801738  12.4350604  )
        46           Ti1 tau(  46) = (   0.0219714   0.0386744  12.4748393  )
        47           Ti1 tau(  47) = (   0.0368166   3.0234317  12.7766128  )
        48           Ti1 tau(  48) = (   3.3181430   2.9430002  15.6816790  )
        49           Ti1 tau(  49) = (   3.4175200   5.9218210  16.2589141  )
        50           Ti1 tau(  50) = (   0.0864224   1.3736379  15.9343534  )
        51           Ti1 tau(  51) = (   0.1056494   4.5744356  15.9464672  )
        52           N1  tau(  52) = (   3.6299987   3.2157240  20.3374172  )
        53           N1  tau(  53) = (   2.7220030   2.6454082  20.0695964  )
        54           O1  tau(  54) = (   3.1925635   5.9265077  18.0938652  )
        55           H1  tau(  55) = (   2.2801939   0.0950383  18.3989923  )

     number of k points=    10  Fermi-Dirac smearing, width (Ry)=  0.0073
                       cart. coord. in units 2pi/alat
        k(    1) = (   0.0000000   0.0000000   0.0000000), wk =   0.1250000
        k(    2) = (   0.0000000   0.0419351   0.0000000), wk =   0.2500000
        k(    3) = (   0.0000000  -0.0838702   0.0000000), wk =   0.1250000
        k(    4) = (   0.0379955   0.0000049   0.0000000), wk =   0.2500000
        k(    5) = (   0.0379955   0.0419400   0.0000000), wk =   0.2500000
        k(    6) = (   0.0379955  -0.0838652   0.0000000), wk =   0.2500000
        k(    7) = (   0.0379955  -0.0419301   0.0000000), wk =   0.2500000
        k(    8) = (  -0.0759910  -0.0000099   0.0000000), wk =   0.1250000
        k(    9) = (  -0.0759910   0.0419252   0.0000000), wk =   0.2500000
        k(   10) = (  -0.0759910  -0.0838800   0.0000000), wk =   0.1250000

     Initial potential from superposition of free atoms

     starting charge  390.99916, renormalised to  407.00000

     negative rho (up, down):  1.488E-02 0.000E+00

     %%%%%%%%%%%%%%%%%%%%%%%%%%%%%%%%%%%%%%%%%%%%%%%%%%%%%%%%%%%%%%%%%%%%%%%%
     %                                                                      %
     % You are using vdW-DF, which was implemented by the Thonhauser group. %
     % Please cite the following two papers that made this development      %
     % possible and the two reviews that describe the various versions:     %
     %                                                                      %
     %   T. Thonhauser et al., PRL 115, 136402 (2015).                      %
     %   T. Thonhauser et al., PRB 76, 125112 (2007).                       %
     %   K. Berland et al., Rep. Prog. Phys. 78, 066501 (2015).             %
     %   D.C. Langreth et al., J. Phys.: Condens. Matter 21, 084203 (2009). %
     %                                                                      %
     %                                                                      %
     % If you are calculating the stress with vdW-DF, please also cite:     %
     %                                                                      %
     %   R. Sabatini et al., J. Phys.: Condens. Matter 24, 424209 (2012).   %
     %                                                                      %
     %%%%%%%%%%%%%%%%%%%%%%%%%%%%%%%%%%%%%%%%%%%%%%%%%%%%%%%%%%%%%%%%%%%%%%%%

     Adding external electric field

     Computed dipole along edir(3) :
        Dipole              -15.3787 Ry au,        -39.0886 Debye
        Dipole field         -0.0290 Ry au,

        Potential amp.        2.6903 Ry
        Total length         46.3494 bohr

     Starting wfcs are  307 atomic wfcs
  @ DRIVER MODE: Message from server: STATUS
  @ DRIVER MODE: Message from server: POSDATA
  @ DRIVER MODE: Reading and sharing cell
  @ DRIVER MODE: Reading and sharing positions
  @ DRIVER MODE: Received positions

     Self-consistent Calculation

     iteration #  1     ecut=    29.40 Ry     beta= 0.05
     Davidson diagonalization with overlap
     c_bands:  1 eigenvalues not converged
     c_bands:  1 eigenvalues not converged
     c_bands:  1 eigenvalues not converged
     c_bands:  1 eigenvalues not converged
     c_bands:  3 eigenvalues not converged
     ethr =  1.00E-05,  avg # of iterations = 34.7

[...]

     total energy              =   -2231.68855106 Ry
     estimated scf accuracy    <    8832.14402977 Ry

     iteration #  2     ecut=    29.40 Ry     beta= 0.05
     Davidson diagonalization with overlap
     ethr =  1.00E-02,  avg # of iterations = 28.9

[...]

     iteration # 49     ecut=    29.40 Ry     beta= 0.05
     Davidson diagonalization with overlap
     c_bands:  1 eigenvalues not converged
     c_bands:  2 eigenvalues not converged
     c_bands:  2 eigenvalues not converged
     c_bands:  1 eigenvalues not converged
     ethr =  1.11E-06,  avg # of iterations = 16.2

[...]

     total energy              =   -3003.97505638 Ry
     estimated scf accuracy    <       0.00000012 Ry

     iteration # 86     ecut=    29.40 Ry     beta= 0.05
     Davidson diagonalization with overlap
     ethr =  2.96E-11,  avg # of iterations =  1.7

     negative rho (up, down):  1.524E-02 0.000E+00

     Adding external electric field

     Computed dipole along edir(3) :
        Dipole                0.9013 Ry au,          2.2908 Debye
        Dipole field          0.0017 Ry au,

        Potential amp.       -0.1577 Ry
        Total length         46.3494 bohr

     End of self-consistent calculation

          k = 0.0000 0.0000 0.0000 ( 18029 PWs)   bands (ev):

   -55.6606 -55.6180 -55.5392 -55.4578 -55.4232 -55.4141 -55.3998 -55.3634
   -55.3035 -55.2732 -55.2680 -55.2349 -55.1916 -55.0994 -54.5088 -54.4747
   -32.1123 -32.0127 -31.9550 -31.9274 -31.9145 -31.8684 -31.8662 -31.8190
   -31.8187 -31.7612 -31.7519 -31.7420 -31.7353 -31.7296 -31.7237 -31.7010
   -31.6805 -31.6733 -31.6344 -31.6235 -31.6110 -31.5996 -31.5985 -31.5976
   -31.5615 -31.5538 -31.5150 -31.5098 -31.5077 -31.4977 -31.4959 -31.4868
   -31.4635 -31.4619 -31.4345 -31.4317 -31.4294 -31.3845 -31.3841 -31.3465
   -31.3078 -31.3046 -30.9115 -30.8349 -30.8116 -30.7284 -30.6424 -30.5311
   -21.1346 -20.0506 -16.3316 -16.1565 -15.9896 -15.8014 -15.7021 -15.6404
   -15.4335 -15.3751 -15.2983 -15.1423 -15.1149 -15.0804 -15.0494 -15.0261
   -15.0196 -14.9952 -14.9855 -14.9445 -14.9208 -14.9171 -14.8723 -14.8085
   -14.7624 -14.7548 -14.7096 -14.6520 -14.6052 -14.5932 -14.5348 -14.3453
   -13.0098 -12.8959  -9.2720  -6.4057  -5.5868  -5.5536  -4.2956  -4.2779
    -3.9008  -3.5528  -3.5138  -3.4694  -3.3863  -3.3658  -3.2355  -3.0690
    -3.0566  -2.8888  -2.7588  -2.6870  -2.6525  -2.6175  -2.5030  -2.4543
    -2.4284  -2.3931  -2.3603  -2.3341  -2.2956  -2.2791  -2.2399  -2.1981
    -2.1692  -2.0792  -2.0750  -2.0297  -1.9474  -1.9115  -1.9061  -1.9016
    -1.8812  -1.8352  -1.7951  -1.7495  -1.7224  -1.6719  -1.5639  -1.5472
    -1.5417  -1.4727  -1.2278  -1.0921  -1.0642  -0.9910  -0.9551  -0.9357
    -0.8986  -0.8937  -0.8798  -0.8457  -0.8160  -0.6967  -0.6335  -0.5721
    -0.5660  -0.5461  -0.5019  -0.4014  -0.3381  -0.3053  -0.2627  -0.2463
    -0.1788  -0.1565  -0.0798  -0.0473   0.0196   0.1247   0.1693   0.1996
     0.2191   0.2339   0.2827   0.3383   0.3897   0.4232   0.4352   0.4639
     0.5336   0.5574   0.5711   0.5970   0.6853   0.7498   0.7682   0.8292
     0.9114   0.9393   1.0353   1.1652   1.2381   1.4870   1.5130   1.5949
     1.7272   2.0752   2.1208   3.5541   3.6328   3.6621   3.7464   3.8071
     3.8359   3.9196   4.0037   4.0907   4.1242

[...]

          k = 0.0380-0.0419 0.0000 ( 17876 PWs)   bands (ev):

[...]

          k =-0.0760-0.0000 0.0000 ( 17886 PWs)   bands (ev):

[...]

          k =-0.0760-0.0839 0.0000 ( 17948 PWs)   bands (ev):

   -55.6521 -55.6263 -55.5383 -55.4459 -55.4349 -55.4072 -55.3975 -55.3702
   -55.3043 -55.2710 -55.2615 -55.2457 -55.1885 -55.1023 -54.4923 -54.4911
   -31.9496 -31.9383 -31.9239 -31.9163 -31.9092 -31.8092 -31.7921 -31.7785
   -31.7628 -31.7600 -31.7546 -31.7478 -31.7403 -31.6979 -31.6943 -31.6764
   -31.6598 -31.6521 -31.6398 -31.6327 -31.6254 -31.6224 -31.6104 -31.5951
   -31.5883 -31.5863 -31.5747 -31.5611 -31.5551 -31.5442 -31.5020 -31.4994
   -31.4930 -31.4758 -31.4707 -31.4661 -31.4525 -31.4489 -31.4188 -31.3870
   -31.3499 -31.3080 -30.8251 -30.8238 -30.7259 -30.7240 -30.6857 -30.6843
   -21.1343 -20.0449 -16.3017 -15.6739 -15.6106 -15.4668 -15.4457 -15.3874
   -15.3581 -15.2811 -15.2371 -15.2277 -15.2028 -15.1694 -15.1549 -15.1478
   -15.0982 -15.0770 -15.0270 -15.0208 -14.9700 -14.9659 -14.9563 -14.9329
   -14.8847 -14.8323 -14.8239 -14.8214 -14.7585 -14.7504 -14.6522 -14.4797
   -12.9996 -12.9972  -9.2804  -6.4030  -5.5756  -5.5085  -4.3034  -4.2782
    -3.8591  -3.6231  -3.0476  -2.9019  -2.8265  -2.6870  -2.5983  -2.5390
    -2.5269  -2.5061  -2.4709  -2.3975  -2.3860  -2.3326  -2.3272  -2.3167
    -2.3092  -2.2964  -2.2451  -2.2254  -2.2092  -2.2025  -2.1819  -2.1503
    -2.1371  -2.1238  -2.1164  -2.1035  -2.0876  -2.0471  -1.9730  -1.9163
    -1.8803  -1.8641  -1.7226  -1.7095  -1.6420  -1.6273  -1.6173  -1.5911
    -1.5833  -1.5055  -1.4536  -1.3114  -1.2888  -1.2615  -1.1890  -1.1514
    -1.0662  -1.0643  -1.0365  -0.9773  -0.9570  -0.9263  -0.9119  -0.8148
    -0.7369  -0.6936  -0.6547  -0.5414  -0.5244  -0.5093  -0.4487  -0.4217
    -0.4145  -0.3984  -0.3552  -0.2832  -0.2365  -0.2154  -0.1777  -0.1662
    -0.1038  -0.0543   0.0149   0.0843   0.1668   0.1866   0.2921   0.3675
     0.4141   0.5294   0.5837   0.6140   0.6437   0.7176   0.7652   0.7791
     0.8781   0.9369   0.9558   1.0255   1.0541   1.0949   1.1294   1.8840
     1.8970   1.9300   1.9422   3.5049   4.0415   4.0516   4.0656   4.0877
     4.1132   4.1354   4.2103   4.2507   4.2663

     the Fermi energy is     3.4953 ev

!    total energy              =   -3003.97506362 Ry
     estimated scf accuracy    <       0.00000007 Ry
     smearing contrib. (-TS)   =      -0.01899744 Ry
     internal energy E=F+TS    =   -3003.95606618 Ry

     The total energy is F=E-TS. E is the sum of the following terms:
     one-electron contribution =  -23046.90948278 Ry
     hartree contribution      =   11620.54859090 Ry
     xc contribution           =    -499.46570253 Ry
     ewald contribution        =    8921.86899538 Ry
     electric field correction =       0.00153285 Ry

     convergence has been achieved in  86 iterations

     Forces acting on atoms (cartesian axes, Ry/au):

     atom    1 type  1   force =    -0.00036512   -0.00003220    0.00058697
     atom    2 type  2   force =    -0.00048634   -0.00006948   -0.00022332
     atom    3 type  2   force =    -0.00055665    0.00006743   -0.00027368
     atom    4 type  3   force =    -0.00007007    0.00012060    0.10179422
     atom    5 type  3   force =    -0.00007080    0.00014527    0.10146412
     atom    6 type  3   force =    -0.07458650    0.00082479   -0.03018410
     atom    7 type  3   force =    -0.07405650   -0.00148695   -0.03017145
     atom    8 type  3   force =     0.07425247    0.00138529   -0.03023523
     atom    9 type  3   force =     0.07389558   -0.00109011   -0.03027698
     atom   10 type  3   force =     0.00081131    0.00107380    0.04836866
     atom   11 type  3   force =     0.00087022    0.00075569    0.05012424
     atom   12 type  3   force =     0.00040131   -0.00629370   -0.03719970
     atom   13 type  3   force =     0.00063306    0.00422268   -0.03093813
     atom   14 type  3   force =    -0.01077207   -0.00220289    0.00090720
     atom   15 type  3   force =    -0.01065020    0.00459721    0.00171462
     atom   16 type  3   force =     0.01296915   -0.00502617    0.00200514
     atom   17 type  3   force =     0.01233000    0.00211609    0.00232107
     atom   18 type  3   force =    -0.00037475    0.00005170    0.00007857
     atom   19 type  3   force =    -0.00021080    0.00027693    0.00001729
     atom   20 type  3   force =     0.00002441   -0.00076059    0.00005901
     atom   21 type  3   force =    -0.00024267   -0.00040552   -0.00001181
     atom   22 type  3   force =     0.00026508   -0.00047910   -0.00006079
     atom   23 type  3   force =     0.00007452    0.00035845    0.00058314
     atom   24 type  3   force =    -0.00047162   -0.00034620   -0.00032409
     atom   25 type  3   force =    -0.00014145    0.00044409    0.00018379
     atom   26 type  3   force =    -0.00102273   -0.00026136   -0.00037096
     atom   27 type  3   force =    -0.00031824    0.00013824    0.00012057
     atom   28 type  3   force =     0.00077010    0.00007260    0.00013086
     atom   29 type  3   force =     0.00037825   -0.00022895    0.00019308
     atom   30 type  3   force =    -0.00136517    0.00019971   -0.00053758
     atom   31 type  3   force =    -0.00144573    0.00006314   -0.00034354
     atom   32 type  3   force =    -0.00099167    0.00052302    0.00011445
     atom   33 type  3   force =    -0.00146435   -0.00068113    0.00026291
     atom   34 type  3   force =    -0.00027058   -0.00025032   -0.00045245
     atom   35 type  3   force =    -0.00003528   -0.00010225    0.00041517
     atom   36 type  4   force =    -0.00033057   -0.00158537    0.10369775
     atom   37 type  4   force =    -0.00012832    0.00149011    0.11782156
     atom   38 type  4   force =    -0.00039323    0.00605857   -0.16916013
     atom   39 type  4   force =    -0.00011483   -0.00504483   -0.16940346
     atom   40 type  4   force =     0.00028899    0.00007892   -0.00054385
     atom   41 type  4   force =     0.00003903   -0.00019735   -0.00018560
     atom   42 type  4   force =    -0.00016334    0.00083878   -0.00000539
     atom   43 type  4   force =    -0.00020306   -0.00053718   -0.00000151
     atom   44 type  4   force =     0.00003793   -0.00029212    0.00032787
     atom   45 type  4   force =     0.00010633   -0.00013365   -0.00104523
     atom   46 type  4   force =    -0.00042542    0.00032384    0.00054183
     atom   47 type  4   force =    -0.00095622    0.00066195   -0.00005930
     atom   48 type  4   force =     0.00601795   -0.00015951   -0.00014376
     atom   49 type  4   force =     0.00390227    0.00004855   -0.00058896
     atom   50 type  4   force =    -0.00224777    0.00003982   -0.00032783
     atom   51 type  4   force =    -0.00226714   -0.00011213   -0.00049944
     atom   52 type  5   force =    -0.00120521   -0.00092187   -0.00062279
     atom   53 type  5   force =     0.00071603    0.00088847    0.00023371
     atom   54 type  3   force =    -0.00134519    0.00087662    0.00017090
     atom   55 type  2   force =     0.00096562   -0.00004146   -0.00004766

     Total force =     0.369207     Total SCF correction =     0.000768
  @ DRIVER MODE: Message from server: STATUS
  @ DRIVER MODE: Message from server: GETFORCE
  @ DRIVER MODE: Returning v,forces,stress,ensemble

     Writing output data file ./calc.save/
  @ DRIVER MODE: Message from server: EXIT
  @ DRIVE MODE: Exiting

     General routines

     Parallel routines

   This run was terminated on:  11:36:19  23Sep2021

   JOB DONE.