     Program PWSCF v.6.7GPU starts on 16Sep2021 at  6: 4:23

     R & G space division:  proc/nbgrp/npool/nimage =      10
     Reading input from /storage/home/hcoda1/3/ntian30/research/carbon/CxH_vib/H2O_calc/ads_slab/CH2NHNH2O_a/out_0046/pw.inp
Warning: card &CELL ignored
Warning: card   CELL_DYNAMICS='IPI', ignored
Warning: card / ignored

     Current dimensions of program PWSCF are:
     Max number of different atomic species (ntypx) = 10
     Max number of k-points (npk) =  40000
     Max angular momentum in pseudopotentials (lmaxx) =  3
     Presently no symmetry can be used with electric field

     Message from routine cell_base_init:
     DEPRECATED: use true lattice parameter, not A to a.u. conversion factor

     IMPORTANT: XC functional enforced from input :
     Exchange-correlation= BEEF-VDW
                           (   1   4  43  14   2   0   0)
     Any further DFT definition will be discarded
     Please, verify this is what you really want

  @ DRIVER MODE: Connecting to
 qe_1139763_2852610.sched-torque.pace.gatech.eduwog74lct_scratch
  using UNIX socket
  @ DRIVER MODE: Message from server: STATUS
  @ DRIVER MODE: Message from server: INIT
  @ DRIVER MODE: Receiving replica           0          -1
  @ DRIVER MODE: Receiving encoded integer          25
  @ DRIVER MODE:  SCF:  T  FORCE:  T  STRESS:  F  VC:  F  ENSEMBLE:  F
  @ DRIVER MODE:  SCF:  T  FORCE:  T  STRESS:  F  VC:  F  ENSEMBLE:  F

     Using Slab Decomposition

     bravais-lattice index     =            0
     lattice parameter (alat)  =       1.8897  a.u.
     unit-cell volume          =    6658.9804 (a.u.)^3
     number of atoms/cell      =           56
     number of atomic types    =            5
     number of electrons       =       403.00
     number of Kohn-Sham states=          211
     kinetic-energy cutoff     =      29.3995  Ry
     charge density cutoff     =     293.9946  Ry
     scf convergence threshold =      7.3E-08
     mixing beta               =       0.0500
     number of iterations used =            8  plain     mixing
     Exchange-correlation= BEEF-VDW
                           (   1   4  43  14   2   0   0)

     celldm(1)=   1.889726  celldm(2)=   0.000000  celldm(3)=   0.000000
     celldm(4)=   0.000000  celldm(5)=   0.000000  celldm(6)=   0.000000

     crystal axes: (cart. coord. in units of alat)
               a(1) = (   6.579727   0.000000   0.000000 )
               a(2) = (  -0.000775   5.961596   0.000000 )
               a(3) = (   0.000000   0.000000  25.155947 )

     reciprocal axes: (cart. coord. in units 2 pi/alat)
               b(1) = (  0.151982  0.000020  0.000000 )
               b(2) = (  0.000000  0.167740  0.000000 )
               b(3) = (  0.000000  0.000000  0.039752 )

     PseudoPot. # 1 for Ti read from file:
     /storage/coda1/p-amedford6/0/shared/rich_project_chbe-medford/medford-share/data/pseudos_module/espresso/nninc/pbe/van/Ti.UPF
     MD5 check sum: 8e4df49b7f0d34bbd5052bf3f5ea0213
     Pseudo is Ultrasoft, Zval = 12.0
     Generated by new atomic code, or converted to UPF format
     Using radial grid of  851 points,  6 beta functions with:
                l(1) =   0
                l(2) =   0
                l(3) =   1
                l(4) =   1
                l(5) =   2
                l(6) =   2
     Q(r) pseudized with  8 coefficients,  rinner =    1.000   1.000   1.000
                                                       1.000   1.000

     PseudoPot. # 2 for O  read from file:
     /storage/coda1/p-amedford6/0/shared/rich_project_chbe-medford/medford-share/data/pseudos_module/espresso/nninc/pbe/van/O.UPF
     MD5 check sum: 78c19812648e8988a0fe644b0f25305e
     Pseudo is Ultrasoft, Zval =  6.0
     Generated by new atomic code, or converted to UPF format
     Using radial grid of  737 points,  4 beta functions with:
                l(1) =   0
                l(2) =   0
                l(3) =   1
                l(4) =   1
     Q(r) pseudized with  8 coefficients,  rinner =    0.800   0.800   0.800

     PseudoPot. # 3 for H  read from file:
     /storage/coda1/p-amedford6/0/shared/rich_project_chbe-medford/medford-share/data/pseudos_module/espresso/nninc/pbe/van/H.UPF
     MD5 check sum: b5ee9d7bfd3a09ee7748110bda690ff7
     Pseudo is Ultrasoft, Zval =  1.0
     Generated by new atomic code, or converted to UPF format
     Using radial grid of  615 points,  1 beta functions with:
                l(1) =   0
     Q(r) pseudized with  8 coefficients,  rinner =    0.800

     PseudoPot. # 4 for N  read from file:
     /storage/coda1/p-amedford6/0/shared/rich_project_chbe-medford/medford-share/data/pseudos_module/espresso/nninc/pbe/van/N.UPF
     MD5 check sum: 90d10febe142ad51ac9d5be1deb811c4
     Pseudo is Ultrasoft, Zval =  5.0
     Generated by new atomic code, or converted to UPF format
     Using radial grid of  729 points,  4 beta functions with:
                l(1) =   0
                l(2) =   0
                l(3) =   1
                l(4) =   1
     Q(r) pseudized with  8 coefficients,  rinner =    0.800   0.800   0.800

     PseudoPot. # 5 for C  read from file:
     /storage/coda1/p-amedford6/0/shared/rich_project_chbe-medford/medford-share/data/pseudos_module/espresso/nninc/pbe/van/C.UPF
     MD5 check sum: 1a69bf6b8db32088f5b2163dbdb77a27
     Pseudo is Ultrasoft, Zval =  4.0
     Generated by new atomic code, or converted to UPF format
     Using radial grid of  721 points,  4 beta functions with:
                l(1) =   0
                l(2) =   0
                l(3) =   1
                l(4) =   1
     Q(r) pseudized with  8 coefficients,  rinner =    0.800   0.800   0.800

     atomic species   valence    mass     pseudopotential
        Ti1           12.00    47.86700     Ti( 1.00)
        O1             6.00    15.99900     O ( 1.00)
        H1             1.00     1.00800     H ( 1.00)
        N1             5.00    14.00700     N ( 1.00)
        C1             4.00    12.01100     C ( 1.00)

     No symmetry found

   Cartesian axes

     site n.     atom                  positions (alat units)
         1           Ti1 tau(   1) = (   0.0004258   2.9801865   6.0000000  )
         2           Ti1 tau(   2) = (   3.2906075   1.4906267   6.0002472  )
         3           O1  tau(   3) = (   0.0006271   0.0005054   7.9858123  )
         4           O1  tau(   4) = (   3.2906025   0.0005020   7.3038282  )
         5           O1  tau(   5) = (   4.5942328   1.4918067   9.2879030  )
         6           O1  tau(   6) = (   1.9868534   1.4903216   9.2879459  )
         7           Ti1 tau(   7) = (   3.2907910   2.8959150   9.1758416  )
         8           Ti1 tau(   8) = (   0.0015273   1.4827037   9.2680791  )
         9           O1  tau(   9) = (   3.2960012   0.0062018  11.3595187  )
        10           O1  tau(  10) = (   0.0116148   5.9584955  10.6183126  )
        11           O1  tau(  11) = (   1.2731109   1.5057875  12.6314550  )
        12           O1  tau(  12) = (   5.2959999   1.4755877  12.6679080  )
        13           Ti1 tau(  13) = (   0.0553992   2.9538365  12.5526742  )
        14           Ti1 tau(  14) = (   3.3268292   1.5427496  12.5634199  )
        15           O1  tau(  15) = (   0.1371361   5.9015051  14.6217027  )
        16           O1  tau(  16) = (   3.1880369   0.0098958  13.9252199  )
        17           O1  tau(  17) = (   4.6462182   1.4014471  15.8552565  )
        18           O1  tau(  18) = (   2.0822703   1.5558083  16.1249119  )
        19           Ti1 tau(  19) = (   3.3548958   3.0525267  15.8597497  )
        20           Ti1 tau(  20) = (   0.0948755   1.3182250  15.7908873  )
        21           O1  tau(  21) = (   3.2904802   0.0005063   4.7018136  )
        22           O1  tau(  22) = (   0.0722171   0.0319689  17.1393915  )
        23           O1  tau(  23) = (   1.3043587   1.4918075   6.0039043  )
        24           O1  tau(  24) = (   5.2767064   1.4903225   6.0039473  )
        25           Ti1 tau(  25) = (   0.0000382   5.9609847   6.0000000  )
        26           Ti1 tau(  26) = (   3.2902200   4.4714249   6.0002472  )
        27           O1  tau(  27) = (   0.0002396   2.9813036   7.9858123  )
        28           O1  tau(  28) = (   3.2902150   2.9813002   7.3038282  )
        29           O1  tau(  29) = (   4.5938453   4.4726049   9.2879030  )
        30           O1  tau(  30) = (   1.9864658   4.4711199   9.2879459  )
        31           Ti1 tau(  31) = (   3.2891106   5.8743827   9.1763621  )
        32           Ti1 tau(  32) = (   0.0006254   4.4649316   9.2693709  )
        33           O1  tau(  33) = (   3.2982667   2.9897935  11.3544942  )
        34           O1  tau(  34) = (   0.0092240   2.9805883  10.6323155  )
        35           O1  tau(  35) = (   1.2737041   4.4504026  12.6113924  )
        36           O1  tau(  36) = (   5.2903739   4.4874249  12.6576873  )
        37           Ti1 tau(  37) = (   6.5697415   5.9260651  12.4959683  )
        38           Ti1 tau(  38) = (   3.3125242   4.5024033  12.5372123  )
        39           O1  tau(  39) = (   0.0674008   2.9793056  14.8363759  )
        40           O1  tau(  40) = (   3.2999477   2.9756493  13.9369993  )
        41           O1  tau(  41) = (   4.6108370   4.5787535  15.7719701  )
        42           O1  tau(  42) = (   2.0428421   4.3627697  16.1441833  )
        43           Ti1 tau(  43) = (   3.3552955   0.0804576  15.7648105  )
        44           Ti1 tau(  44) = (   6.5672415   4.5273692  15.9765751  )
        45           O1  tau(  45) = (   3.2900926   2.9813045   4.7018136  )
        46           O1  tau(  46) = (   1.3039711   4.4726057   6.0039043  )
        47           O1  tau(  47) = (   5.2763189   4.4711207   6.0039473  )
        48           H1  tau(  48) = (   4.1035413   2.4672077  18.5646977  )
        49           N1  tau(  49) = (   5.6961598   3.2907635  17.7856741  )
        50           C1  tau(  50) = (   6.4968133   2.7471819  18.6454045  )
        51           H1  tau(  51) = (   6.1325458   2.1374441  19.4677963  )
        52           H1  tau(  52) = (   0.9799315   2.9096255  18.5325614  )
        53           N1  tau(  53) = (   4.3409097   3.1788467  17.8642182  )
        54           O1  tau(  54) = (   3.3174094   5.8609012  18.0981057  )
        55           H1  tau(  55) = (   3.6736973   4.9488346  18.2201127  )
        56           H1  tau(  56) = (   2.3597147   5.7972335  18.2603650  )

     number of k points=    10  Fermi-Dirac smearing, width (Ry)=  0.0073
                       cart. coord. in units 2pi/alat
        k(    1) = (   0.0000000   0.0000000   0.0000000), wk =   0.1250000
        k(    2) = (   0.0000000   0.0419351   0.0000000), wk =   0.2500000
        k(    3) = (   0.0000000  -0.0838702   0.0000000), wk =   0.1250000
        k(    4) = (   0.0379955   0.0000049   0.0000000), wk =   0.2500000
        k(    5) = (   0.0379955   0.0419400   0.0000000), wk =   0.2500000
        k(    6) = (   0.0379955  -0.0838652   0.0000000), wk =   0.2500000
        k(    7) = (   0.0379955  -0.0419301   0.0000000), wk =   0.2500000
        k(    8) = (  -0.0759910  -0.0000099   0.0000000), wk =   0.1250000
        k(    9) = (  -0.0759910   0.0419252   0.0000000), wk =   0.2500000
        k(   10) = (  -0.0759910  -0.0838800   0.0000000), wk =   0.1250000

     Initial potential from superposition of free atoms

     starting charge  386.99914, renormalised to  403.00000

     negative rho (up, down):  1.703E-02 0.000E+00

     %%%%%%%%%%%%%%%%%%%%%%%%%%%%%%%%%%%%%%%%%%%%%%%%%%%%%%%%%%%%%%%%%%%%%%%%
     %                                                                      %
     % You are using vdW-DF, which was implemented by the Thonhauser group. %
     % Please cite the following two papers that made this development      %
     % possible and the two reviews that describe the various versions:     %
     %                                                                      %
     %   T. Thonhauser et al., PRL 115, 136402 (2015).                      %
     %   T. Thonhauser et al., PRB 76, 125112 (2007).                       %
     %   K. Berland et al., Rep. Prog. Phys. 78, 066501 (2015).             %
     %   D.C. Langreth et al., J. Phys.: Condens. Matter 21, 084203 (2009). %
     %                                                                      %
     %                                                                      %
     % If you are calculating the stress with vdW-DF, please also cite:     %
     %                                                                      %
     %   R. Sabatini et al., J. Phys.: Condens. Matter 24, 424209 (2012).   %
     %                                                                      %
     %%%%%%%%%%%%%%%%%%%%%%%%%%%%%%%%%%%%%%%%%%%%%%%%%%%%%%%%%%%%%%%%%%%%%%%%

     Adding external electric field

     Computed dipole along edir(3) :
        Dipole              -12.3736 Ry au,        -31.4507 Debye
        Dipole field         -0.0234 Ry au,

        Potential amp.        2.1646 Ry
        Total length         46.3494 bohr

     Starting wfcs are  305 atomic wfcs
  @ DRIVER MODE: Message from server: STATUS
  @ DRIVER MODE: Message from server: POSDATA
  @ DRIVER MODE: Reading and sharing cell
  @ DRIVER MODE: Reading and sharing positions
  @ DRIVER MODE: Received positions

     Self-consistent Calculation

     iteration #  1     ecut=    29.40 Ry     beta= 0.05
     Davidson diagonalization with overlap
     c_bands:  4 eigenvalues not converged
     c_bands:  3 eigenvalues not converged
     c_bands:  3 eigenvalues not converged
     c_bands:  1 eigenvalues not converged
     c_bands:  1 eigenvalues not converged
     c_bands:  4 eigenvalues not converged
     c_bands:  3 eigenvalues not converged
     ethr =  1.00E-05,  avg # of iterations = 27.4

[...]

     total energy              =   -2355.28120974 Ry
     estimated scf accuracy    <    7010.98843427 Ry

     iteration #  2     ecut=    29.40 Ry     beta= 0.05
     Davidson diagonalization with overlap
     ethr =  1.00E-02,  avg # of iterations = 25.5

[...]

     iteration # 65     ecut=    29.40 Ry     beta= 0.05
     Davidson diagonalization with overlap
     c_bands:  1 eigenvalues not converged
     ethr =  8.62E-11,  avg # of iterations = 15.0

[...]

     total energy              =   -2973.97641985 Ry
     estimated scf accuracy    <       0.00000016 Ry

     iteration # 74     ecut=    29.40 Ry     beta= 0.05
     Davidson diagonalization with overlap
     ethr =  2.00E-11,  avg # of iterations =  6.7

     negative rho (up, down):  1.700E-02 0.000E+00

     Adding external electric field

     Computed dipole along edir(3) :
        Dipole                0.9090 Ry au,          2.3104 Debye
        Dipole field          0.0017 Ry au,

        Potential amp.       -0.1590 Ry
        Total length         46.3494 bohr

     End of self-consistent calculation

          k = 0.0000 0.0000 0.0000 ( 18029 PWs)   bands (ev):

   -55.6366 -55.6025 -55.5181 -55.4823 -55.4759 -55.4629 -55.4412 -55.4290
   -55.4241 -55.4064 -55.3900 -55.3891 -55.3555 -55.2384 -54.6225 -54.5885
   -32.1224 -32.0240 -31.9705 -31.9649 -31.9570 -31.9278 -31.9138 -31.8954
   -31.8823 -31.7892 -31.7830 -31.7770 -31.7494 -31.7442 -31.7388 -31.7042
   -31.6940 -31.6807 -31.6757 -31.6678 -31.6611 -31.6594 -31.6439 -31.6408
   -31.6347 -31.6254 -31.6227 -31.6183 -31.6127 -31.6069 -31.6017 -31.5926
   -31.5825 -31.5802 -31.5799 -31.5780 -31.5720 -31.5369 -31.5276 -31.5130
   -31.4392 -31.3668 -31.0295 -30.9410 -30.9186 -30.8465 -30.7600 -30.6487
   -18.5001 -17.7331 -16.2997 -16.1092 -15.8840 -15.7820 -15.7421 -15.5687
   -15.4382 -15.3955 -15.2689 -15.2035 -15.1798 -15.1608 -15.1470 -15.1145
   -15.0911 -15.0673 -15.0656 -15.0462 -15.0217 -14.9991 -14.9710 -14.9531
   -14.9108 -14.7853 -14.7772 -14.7656 -14.7279 -14.6905 -14.2917 -13.1230
   -13.0064 -12.3662  -7.9194  -6.2741  -5.4206  -4.8337  -3.6711  -3.5792
    -3.5467  -3.5233  -3.4456  -3.3265  -3.2288  -3.0352  -2.9271  -2.8972
    -2.8794  -2.7883  -2.7082  -2.6663  -2.5628  -2.5304  -2.5202  -2.4760
    -2.4208  -2.4060  -2.3762  -2.3628  -2.3271  -2.1940  -2.1751  -2.1372
    -2.0248  -2.0083  -2.0005  -1.9584  -1.9544  -1.9237  -1.9136  -1.8958
    -1.8795  -1.8676  -1.8003  -1.7184  -1.6860  -1.6362  -1.5815  -1.5778
    -1.2736  -1.2572  -1.1902  -1.1586  -1.0878  -1.0550  -1.0400  -1.0252
    -0.9968  -0.8949  -0.8040  -0.7850  -0.7224  -0.6611  -0.5621  -0.5470
    -0.4469  -0.3976  -0.3920  -0.3788  -0.3465  -0.2893  -0.2310  -0.1748
    -0.1243  -0.0430   0.0123   0.0211   0.0632   0.1069   0.1365   0.1948
     0.2571   0.2847   0.3178   0.3329   0.3743   0.4345   0.4561   0.4688
     0.5478   0.5874   0.6124   0.7103   0.7198   0.7587   0.8301   1.0150
     1.0603   1.1999   1.3386   1.4019   1.4677   1.5941   1.8784   1.9720
     2.0182   3.4536   3.5875   3.6085   3.6440   3.7158   3.7624   3.9353
     4.0311   4.0528   4.1151

[...]

          k = 0.0380-0.0419 0.0000 ( 17876 PWs)   bands (ev):

[...]

          k =-0.0760-0.0000 0.0000 ( 17886 PWs)   bands (ev):

[...]

          k =-0.0760-0.0839 0.0000 ( 17948 PWs)   bands (ev):

   -55.6195 -55.6195 -55.5033 -55.4967 -55.4606 -55.4567 -55.4459 -55.4455
   -55.4100 -55.4042 -55.4041 -55.3731 -55.3717 -55.2402 -54.6055 -54.6053
   -31.9376 -31.9376 -31.9134 -31.9132 -31.8828 -31.8472 -31.8184 -31.7997
   -31.7892 -31.7740 -31.7648 -31.7525 -31.7481 -31.7393 -31.7391 -31.7318
   -31.7312 -31.7184 -31.7164 -31.7094 -31.6833 -31.6810 -31.6759 -31.6699
   -31.6552 -31.6529 -31.6519 -31.6382 -31.6324 -31.6305 -31.6274 -31.6268
   -31.6228 -31.6200 -31.6193 -31.6149 -31.6130 -31.6026 -31.5866 -31.5348
   -31.4491 -31.4461 -30.9314 -30.9312 -30.8424 -30.8422 -30.8033 -30.8032
   -18.4934 -17.7329 -15.8504 -15.6067 -15.5931 -15.5566 -15.5376 -15.4185
   -15.3734 -15.3694 -15.3485 -15.2934 -15.2579 -15.2208 -15.1894 -15.1717
   -15.1482 -15.1370 -15.0954 -15.0922 -15.0852 -15.0632 -15.0218 -15.0112
   -14.9868 -14.9664 -14.9619 -14.9495 -14.9167 -14.7488 -14.6399 -13.1082
   -13.1081 -12.3821  -7.8794  -6.2590  -5.4788  -4.7561  -3.1416  -3.0675
    -3.0268  -2.7997  -2.7552  -2.7392  -2.7010  -2.6413  -2.5881  -2.5710
    -2.5523  -2.5246  -2.5150  -2.4618  -2.4361  -2.4103  -2.3861  -2.3696
    -2.3607  -2.3470  -2.3209  -2.3016  -2.2812  -2.2691  -2.2464  -2.2358
    -2.2134  -2.2050  -2.1911  -2.1686  -2.0801  -1.9986  -1.8976  -1.8376
    -1.7936  -1.7933  -1.7628  -1.7338  -1.7060  -1.7014  -1.6620  -1.6328
    -1.5618  -1.5022  -1.3191  -1.3050  -1.2605  -1.1777  -1.1746  -1.1278
    -1.1202  -1.0686  -1.0401  -0.9933  -0.9437  -0.9121  -0.8226  -0.6693
    -0.6206  -0.6009  -0.5950  -0.5796  -0.5391  -0.5244  -0.4726  -0.4550
    -0.4391  -0.3750  -0.3417  -0.3382  -0.2879  -0.2693  -0.1558  -0.0593
    -0.0311   0.0230   0.0625   0.1821   0.2954   0.3642   0.4644   0.4791
     0.4974   0.5509   0.6590   0.6688   0.7139   0.7760   0.8417   0.8472
     0.8777   0.9420   0.9537   0.9906   1.7650   1.7665   1.8272   1.8382
     1.8384   3.8624   3.9029   3.9536   3.9596   3.9835   4.0336   4.0410
     4.0716   4.1219   4.1378

     the Fermi energy is     3.4860 ev

!    total energy              =   -2973.97643428 Ry
     estimated scf accuracy    <       0.00000005 Ry
     smearing contrib. (-TS)   =      -0.01977957 Ry
     internal energy E=F+TS    =   -2973.95665471 Ry

     The total energy is F=E-TS. E is the sum of the following terms:
     one-electron contribution =  -24367.74194681 Ry
     hartree contribution      =   12278.42833294 Ry
     xc contribution           =    -494.13921389 Ry
     ewald contribution        =    9609.49461383 Ry
     electric field correction =       0.00155921 Ry

     convergence has been achieved in  74 iterations

     Forces acting on atoms (cartesian axes, Ry/au):

     atom    1 type  1   force =     0.00016258   -0.00031197    0.09439968
     atom    2 type  1   force =    -0.00007283   -0.00076785   -0.17589030
     atom    3 type  2   force =     0.00005788   -0.00019308   -0.02182106
     atom    4 type  2   force =     0.00003668   -0.00134166    0.05334067
     atom    5 type  2   force =    -0.00870697   -0.00018309    0.00366423
     atom    6 type  2   force =     0.01037513    0.00046946    0.00301859
     atom    7 type  1   force =    -0.00045116    0.00080928   -0.00104136
     atom    8 type  1   force =     0.00044779    0.00751037    0.00863721
     atom    9 type  2   force =     0.00046820    0.00015550    0.00005599
     atom   10 type  2   force =    -0.00262680    0.00131877   -0.01723508
     atom   11 type  2   force =    -0.00007943    0.00009039   -0.00040065
     atom   12 type  2   force =     0.00030333    0.00007738   -0.00007406
     atom   13 type  1   force =    -0.00041110   -0.00038364   -0.00021967
     atom   14 type  1   force =     0.00035660    0.00011896    0.00021518
     atom   15 type  2   force =     0.00012601   -0.00004489   -0.00028812
     atom   16 type  2   force =     0.00021404    0.00020560    0.00016392
     atom   17 type  2   force =    -0.00009577   -0.00017450    0.00008005
     atom   18 type  2   force =     0.00004583   -0.00015688   -0.00003075
     atom   19 type  1   force =    -0.00036798    0.00030328   -0.00036437
     atom   20 type  1   force =     0.00013759   -0.00005284    0.00007124
     atom   21 type  2   force =     0.00006581   -0.00000268    0.10325665
     atom   22 type  2   force =    -0.00023757   -0.00044419    0.00002187
     atom   23 type  2   force =    -0.07153922   -0.00011567   -0.02735400
     atom   24 type  2   force =     0.07147729    0.00037371   -0.02736759
     atom   25 type  1   force =     0.00004725   -0.00021335    0.09437847
     atom   26 type  1   force =    -0.00013867   -0.00029511   -0.17601885
     atom   27 type  2   force =     0.00003704   -0.00018688   -0.02072222
     atom   28 type  2   force =     0.00009529   -0.00112592    0.05373259
     atom   29 type  2   force =    -0.00878883   -0.00002168    0.00342967
     atom   30 type  2   force =     0.01030288    0.00036642    0.00286301
     atom   31 type  1   force =    -0.00032688    0.00465196    0.00190002
     atom   32 type  1   force =     0.00043010   -0.00852316    0.00858903
     atom   33 type  2   force =    -0.00003422    0.00003336   -0.00001922
     atom   34 type  2   force =    -0.00403258   -0.00112253   -0.01183044
     atom   35 type  2   force =     0.00014815    0.00007960    0.00033664
     atom   36 type  2   force =     0.00052956    0.00005916   -0.00021743
     atom   37 type  1   force =     0.00061656   -0.00019656   -0.00000024
     atom   38 type  1   force =     0.00022181   -0.00019582   -0.00010942
     atom   39 type  2   force =    -0.00013811   -0.00004044   -0.00021745
     atom   40 type  2   force =     0.00047397    0.00000246    0.00034834
     atom   41 type  2   force =    -0.00016381    0.00056646    0.00009854
     atom   42 type  2   force =     0.00013222    0.00032009   -0.00006372
     atom   43 type  1   force =    -0.00027068   -0.00010027   -0.00066877
     atom   44 type  1   force =     0.00028840    0.00040280    0.00092073
     atom   45 type  2   force =     0.00005072    0.00000100    0.10332339
     atom   46 type  2   force =    -0.07153351   -0.00003875   -0.02734174
     atom   47 type  2   force =     0.07147551    0.00035592   -0.02737014
     atom   48 type  3   force =     0.00050568   -0.00053560   -0.00066877
     atom   49 type  4   force =    -0.00038111    0.00005689   -0.00049833
     atom   50 type  5   force =     0.00028313   -0.00164337   -0.00090748
     atom   51 type  3   force =    -0.00042840    0.00043165    0.00098550
     atom   52 type  3   force =    -0.00006944   -0.00023080    0.00006610
     atom   53 type  4   force =     0.00047760   -0.00023102    0.00056597
     atom   54 type  2   force =    -0.00461057    0.01224351   -0.00088080
     atom   55 type  3   force =     0.00405094   -0.01200517    0.00151632
     atom   56 type  3   force =     0.00106405   -0.00012461   -0.00035757

     Total force =     0.364269     Total SCF correction =     0.000484
  @ DRIVER MODE: Message from server: STATUS
  @ DRIVER MODE: Message from server: GETFORCE
  @ DRIVER MODE: Returning v,forces,stress,ensemble

     Writing output data file ./calc.save/
  @ DRIVER MODE: Message from server: EXIT
  @ DRIVE MODE: Exiting

     General routines

     Parallel routines

   This run was terminated on:   6:24:49  16Sep2021

   JOB DONE.