     Program PWSCF v.6.7GPU starts on 23Sep2021 at  4:36:51

     R & G space division:  proc/nbgrp/npool/nimage =      10
     Reading input from /storage/home/hcoda1/3/ntian30/research/carbon/CxH_vib/H2O_calc/ads_slab/CH3OHO_a/out_0039/pw.inp
Warning: card &CELL ignored
Warning: card   CELL_DYNAMICS='IPI', ignored
Warning: card / ignored

     Current dimensions of program PWSCF are:
     Max number of different atomic species (ntypx) = 10
     Max number of k-points (npk) =  40000
     Max angular momentum in pseudopotentials (lmaxx) =  3
     Presently no symmetry can be used with electric field

     Message from routine cell_base_init:
     DEPRECATED: use true lattice parameter, not A to a.u. conversion factor

     IMPORTANT: XC functional enforced from input :
     Exchange-correlation= BEEF-VDW
                           (   1   4  43  14   2   0   0)
     Any further DFT definition will be discarded
     Please, verify this is what you really want

  @ DRIVER MODE: Connecting to
 qe_1139763_2937320.sched-torque.pace.gatech.eduptk9d54q_scratch
  using UNIX socket
  @ DRIVER MODE: Message from server: STATUS
  @ DRIVER MODE: Message from server: INIT
  @ DRIVER MODE: Receiving replica           0          -1
  @ DRIVER MODE: Receiving encoded integer          25
  @ DRIVER MODE:  SCF:  T  FORCE:  T  STRESS:  F  VC:  F  ENSEMBLE:  F
  @ DRIVER MODE:  SCF:  T  FORCE:  T  STRESS:  F  VC:  F  ENSEMBLE:  F

     Using Slab Decomposition

     bravais-lattice index     =            0
     lattice parameter (alat)  =       1.8897  a.u.
     unit-cell volume          =    6658.9804 (a.u.)^3
     number of atoms/cell      =           54
     number of atomic types    =            4
     number of electrons       =       398.00
     number of Kohn-Sham states=          209
     kinetic-energy cutoff     =      29.3995  Ry
     charge density cutoff     =     293.9946  Ry
     scf convergence threshold =      7.3E-08
     mixing beta               =       0.0500
     number of iterations used =            8  plain     mixing
     Exchange-correlation= BEEF-VDW
                           (   1   4  43  14   2   0   0)

     celldm(1)=   1.889726  celldm(2)=   0.000000  celldm(3)=   0.000000
     celldm(4)=   0.000000  celldm(5)=   0.000000  celldm(6)=   0.000000

     crystal axes: (cart. coord. in units of alat)
               a(1) = (   6.579727   0.000000   0.000000 )
               a(2) = (  -0.000775   5.961596   0.000000 )
               a(3) = (   0.000000   0.000000  25.155947 )

     reciprocal axes: (cart. coord. in units 2 pi/alat)
               b(1) = (  0.151982  0.000020  0.000000 )
               b(2) = (  0.000000  0.167740  0.000000 )
               b(3) = (  0.000000  0.000000  0.039752 )

     PseudoPot. # 1 for Ti read from file:
     /storage/coda1/p-amedford6/0/shared/rich_project_chbe-medford/medford-share/data/pseudos_module/espresso/nninc/pbe/van/Ti.UPF
     MD5 check sum: 8e4df49b7f0d34bbd5052bf3f5ea0213
     Pseudo is Ultrasoft, Zval = 12.0
     Generated by new atomic code, or converted to UPF format
     Using radial grid of  851 points,  6 beta functions with:
                l(1) =   0
                l(2) =   0
                l(3) =   1
                l(4) =   1
                l(5) =   2
                l(6) =   2
     Q(r) pseudized with  8 coefficients,  rinner =    1.000   1.000   1.000
                                                       1.000   1.000

     PseudoPot. # 2 for O  read from file:
     /storage/coda1/p-amedford6/0/shared/rich_project_chbe-medford/medford-share/data/pseudos_module/espresso/nninc/pbe/van/O.UPF
     MD5 check sum: 78c19812648e8988a0fe644b0f25305e
     Pseudo is Ultrasoft, Zval =  6.0
     Generated by new atomic code, or converted to UPF format
     Using radial grid of  737 points,  4 beta functions with:
                l(1) =   0
                l(2) =   0
                l(3) =   1
                l(4) =   1
     Q(r) pseudized with  8 coefficients,  rinner =    0.800   0.800   0.800

     PseudoPot. # 3 for C  read from file:
     /storage/coda1/p-amedford6/0/shared/rich_project_chbe-medford/medford-share/data/pseudos_module/espresso/nninc/pbe/van/C.UPF
     MD5 check sum: 1a69bf6b8db32088f5b2163dbdb77a27
     Pseudo is Ultrasoft, Zval =  4.0
     Generated by new atomic code, or converted to UPF format
     Using radial grid of  721 points,  4 beta functions with:
                l(1) =   0
                l(2) =   0
                l(3) =   1
                l(4) =   1
     Q(r) pseudized with  8 coefficients,  rinner =    0.800   0.800   0.800

     PseudoPot. # 4 for H  read from file:
     /storage/coda1/p-amedford6/0/shared/rich_project_chbe-medford/medford-share/data/pseudos_module/espresso/nninc/pbe/van/H.UPF
     MD5 check sum: b5ee9d7bfd3a09ee7748110bda690ff7
     Pseudo is Ultrasoft, Zval =  1.0
     Generated by new atomic code, or converted to UPF format
     Using radial grid of  615 points,  1 beta functions with:
                l(1) =   0
     Q(r) pseudized with  8 coefficients,  rinner =    0.800

     atomic species   valence    mass     pseudopotential
        Ti1           12.00    47.86700     Ti( 1.00)
        O1             6.00    15.99900     O ( 1.00)
        C1             4.00    12.01100     C ( 1.00)
        H1             1.00     1.00800     H ( 1.00)

     No symmetry found

   Cartesian axes

     site n.     atom                  positions (alat units)
         1           Ti1 tau(   1) = (   0.0004258   2.9801865   6.0000000  )
         2           Ti1 tau(   2) = (   3.2906075   1.4906267   6.0002472  )
         3           O1  tau(   3) = (   0.0006271   0.0005054   7.9858123  )
         4           O1  tau(   4) = (   3.2906025   0.0005020   7.3038282  )
         5           O1  tau(   5) = (   4.5942328   1.4918067   9.2879030  )
         6           O1  tau(   6) = (   1.9868534   1.4903216   9.2879459  )
         7           Ti1 tau(   7) = (   3.2957662   3.1068914   9.2181075  )
         8           Ti1 tau(   8) = (   0.0157633   1.6119101   9.3474628  )
         9           O1  tau(   9) = (   3.3075722   0.0245345  11.3221904  )
        10           O1  tau(  10) = (   0.0080709   0.0223756  10.5933645  )
        11           O1  tau(  11) = (   1.2996580   1.5014007  12.6293879  )
        12           O1  tau(  12) = (   5.3220639   1.4985920  12.6296061  )
        13           Ti1 tau(  13) = (   0.0338638   3.0995910  12.8036746  )
        14           Ti1 tau(  14) = (   3.3037623   1.5692239  12.4279754  )
        15           O1  tau(  15) = (   0.0261714   0.0103614  14.6808343  )
        16           O1  tau(  16) = (   3.3158872   5.9294016  13.9235834  )
        17           O1  tau(  17) = (   4.5845781   1.5190771  16.0542726  )
        18           O1  tau(  18) = (   2.0543804   1.5366111  16.0227792  )
        19           Ti1 tau(  19) = (   3.3281905   2.9581697  15.6655982  )
        20           Ti1 tau(  20) = (   0.0947853   1.4300879  15.9722461  )
        21           O1  tau(  21) = (   3.2904802   0.0005063   4.7018136  )
        22           O1  tau(  22) = (   0.0746355   0.0166105  17.2029963  )
        23           O1  tau(  23) = (   1.3043587   1.4918075   6.0039043  )
        24           O1  tau(  24) = (   5.2767064   1.4903225   6.0039473  )
        25           Ti1 tau(  25) = (   0.0000382   5.9609847   6.0000000  )
        26           Ti1 tau(  26) = (   3.2902200   4.4714249   6.0002472  )
        27           O1  tau(  27) = (   0.0002396   2.9813036   7.9858123  )
        28           O1  tau(  28) = (   3.2902150   2.9813002   7.3038282  )
        29           O1  tau(  29) = (   4.5938453   4.4726049   9.2879030  )
        30           O1  tau(  30) = (   1.9864658   4.4711199   9.2879459  )
        31           Ti1 tau(  31) = (   3.3049890   0.1224192   9.1815931  )
        32           Ti1 tau(  32) = (   0.0115838   4.5621182   9.3618056  )
        33           O1  tau(  33) = (   3.3056077   2.9569042  11.2892548  )
        34           O1  tau(  34) = (   0.0073068   3.0072357  10.5542745  )
        35           O1  tau(  35) = (   1.3032543   4.4799722  12.6367586  )
        36           O1  tau(  36) = (   5.3275811   4.4862388  12.6364370  )
        37           Ti1 tau(  37) = (   0.0060541   0.1153383  12.6179110  )
        38           Ti1 tau(  38) = (   3.3135592   4.6638430  12.6816895  )
        39           O1  tau(  39) = (   0.0323206   2.9919573  14.6814448  )
        40           O1  tau(  40) = (   3.3290587   2.9835885  13.8850256  )
        41           O1  tau(  41) = (   4.5809508   4.4372854  16.0867525  )
        42           O1  tau(  42) = (   2.0525355   4.4234120  16.0327814  )
        43           Ti1 tau(  43) = (   3.4083040   5.9395600  16.2643712  )
        44           Ti1 tau(  44) = (   0.1061243   4.5568233  16.0547075  )
        45           O1  tau(  45) = (   3.2900926   2.9813045   4.7018136  )
        46           O1  tau(  46) = (   1.3039711   4.4726057   6.0039043  )
        47           O1  tau(  47) = (   5.2763189   4.4711207   6.0039473  )
        48           C1  tau(  48) = (   6.0247352   2.9430639  18.6208924  )
        49           O1  tau(  49) = (   0.0129984   2.9830681  17.3098104  )
        50           H1  tau(  50) = (   4.9427965   2.8012130  18.5644550  )
        51           H1  tau(  51) = (   6.4567215   2.1053551  19.1708771  )
        52           H1  tau(  52) = (   6.2362830   3.8810018  19.1352789  )
        53           O1  tau(  53) = (   3.2195589   0.0134334  18.0862892  )
        54           H1  tau(  54) = (   2.3313237   0.1161415  18.4590370  )

     number of k points=    10  Fermi-Dirac smearing, width (Ry)=  0.0073
                       cart. coord. in units 2pi/alat
        k(    1) = (   0.0000000   0.0000000   0.0000000), wk =   0.1250000
        k(    2) = (   0.0000000   0.0419351   0.0000000), wk =   0.2500000
        k(    3) = (   0.0000000  -0.0838702   0.0000000), wk =   0.1250000
        k(    4) = (   0.0379955   0.0000049   0.0000000), wk =   0.2500000
        k(    5) = (   0.0379955   0.0419400   0.0000000), wk =   0.2500000
        k(    6) = (   0.0379955  -0.0838652   0.0000000), wk =   0.2500000
        k(    7) = (   0.0379955  -0.0419301   0.0000000), wk =   0.2500000
        k(    8) = (  -0.0759910  -0.0000099   0.0000000), wk =   0.1250000
        k(    9) = (  -0.0759910   0.0419252   0.0000000), wk =   0.2500000
        k(   10) = (  -0.0759910  -0.0838800   0.0000000), wk =   0.1250000

     Initial potential from superposition of free atoms

     starting charge  381.99917, renormalised to  398.00000

     negative rho (up, down):  1.724E-02 0.000E+00

     %%%%%%%%%%%%%%%%%%%%%%%%%%%%%%%%%%%%%%%%%%%%%%%%%%%%%%%%%%%%%%%%%%%%%%%%
     %                                                                      %
     % You are using vdW-DF, which was implemented by the Thonhauser group. %
     % Please cite the following two papers that made this development      %
     % possible and the two reviews that describe the various versions:     %
     %                                                                      %
     %   T. Thonhauser et al., PRL 115, 136402 (2015).                      %
     %   T. Thonhauser et al., PRB 76, 125112 (2007).                       %
     %   K. Berland et al., Rep. Prog. Phys. 78, 066501 (2015).             %
     %   D.C. Langreth et al., J. Phys.: Condens. Matter 21, 084203 (2009). %
     %                                                                      %
     %                                                                      %
     % If you are calculating the stress with vdW-DF, please also cite:     %
     %                                                                      %
     %   R. Sabatini et al., J. Phys.: Condens. Matter 24, 424209 (2012).   %
     %                                                                      %
     %%%%%%%%%%%%%%%%%%%%%%%%%%%%%%%%%%%%%%%%%%%%%%%%%%%%%%%%%%%%%%%%%%%%%%%%

     Adding external electric field

     Computed dipole along edir(3) :
        Dipole               -8.3452 Ry au,        -21.2113 Debye
        Dipole field         -0.0157 Ry au,

        Potential amp.        1.4599 Ry
        Total length         46.3494 bohr

     Starting wfcs are  300 atomic wfcs
  @ DRIVER MODE: Message from server: STATUS
  @ DRIVER MODE: Message from server: POSDATA
  @ DRIVER MODE: Reading and sharing cell
  @ DRIVER MODE: Reading and sharing positions
  @ DRIVER MODE: Received positions

     Self-consistent Calculation

     iteration #  1     ecut=    29.40 Ry     beta= 0.05
     Davidson diagonalization with overlap
     c_bands:  1 eigenvalues not converged
     c_bands:  1 eigenvalues not converged
     c_bands:  1 eigenvalues not converged
     c_bands:  1 eigenvalues not converged
     c_bands:  1 eigenvalues not converged
     ethr =  1.00E-05,  avg # of iterations = 18.4

[...]

     total energy              =   -2613.39923541 Ry
     estimated scf accuracy    <    3886.92356734 Ry

     iteration #  2     ecut=    29.40 Ry     beta= 0.05
     Davidson diagonalization with overlap
     ethr =  1.00E-02,  avg # of iterations = 22.9

[...]

     iteration # 58     ecut=    29.40 Ry     beta= 0.05
     Davidson diagonalization with overlap
     c_bands:  1 eigenvalues not converged
     ethr =  7.06E-09,  avg # of iterations =  6.5

[...]

     total energy              =   -2965.10867510 Ry
     estimated scf accuracy    <       0.00000010 Ry

     iteration # 75     ecut=    29.40 Ry     beta= 0.05
     Davidson diagonalization with overlap
     ethr =  2.59E-11,  avg # of iterations =  5.0

     negative rho (up, down):  1.732E-02 0.000E+00

     Adding external electric field

     Computed dipole along edir(3) :
        Dipole                0.5362 Ry au,          1.3628 Debye
        Dipole field          0.0010 Ry au,

        Potential amp.       -0.0938 Ry
        Total length         46.3494 bohr

     End of self-consistent calculation

          k = 0.0000 0.0000 0.0000 ( 18029 PWs)   bands (ev):

   -56.4420 -56.3952 -55.8705 -55.8383 -55.8287 -55.8171 -55.7735 -55.7362
   -55.7117 -55.6980 -55.6594 -55.6172 -55.6137 -55.4667 -55.0455 -55.0116
   -32.8544 -32.7070 -32.6575 -32.6214 -32.5270 -32.4809 -32.3619 -32.3157
   -32.3095 -32.1941 -32.1570 -32.1341 -32.1320 -32.1118 -32.1060 -32.0695
   -32.0662 -32.0518 -32.0346 -32.0293 -32.0167 -31.9794 -31.9684 -31.9517
   -31.9437 -31.9313 -31.9287 -31.9181 -31.9162 -31.9052 -31.9004 -31.8876
   -31.8631 -31.8617 -31.8560 -31.8226 -31.8114 -31.8104 -31.7813 -31.7225
   -31.6921 -31.6730 -31.4397 -31.3864 -31.3620 -31.2565 -31.1716 -31.0609
   -17.6017 -16.6339 -16.5874 -16.4421 -16.2040 -16.0574 -15.9761 -15.7564
   -15.7539 -15.6345 -15.6235 -15.5888 -15.4509 -15.4384 -15.4313 -15.3759
   -15.3603 -15.3493 -15.3434 -15.3360 -15.3231 -15.2750 -15.2621 -15.2101
   -15.1517 -15.0850 -15.0553 -15.0119 -14.9928 -14.9570 -14.7266 -13.5478
   -13.4394  -9.3500  -4.3306  -4.2496  -4.1218  -4.0346  -3.8817  -3.7799
    -3.7510  -3.6663  -3.5781  -3.4686  -3.2698  -3.1078  -3.0511  -3.0144
    -2.9813  -2.9278  -2.8730  -2.8144  -2.7690  -2.7402  -2.7111  -2.6439
    -2.6281  -2.6167  -2.5886  -2.5803  -2.5446  -2.5115  -2.5004  -2.3689
    -2.3395  -2.3020  -2.2966  -2.2375  -2.2183  -2.1936  -2.1872  -2.1364
    -2.0435  -1.9626  -1.9269  -1.8879  -1.6979  -1.6424  -1.5729  -1.5070
    -1.4284  -1.3815  -1.3618  -1.3392  -1.2681  -1.2405  -1.1288  -1.1067
    -1.0608  -0.9977  -0.9941  -0.9545  -0.8963  -0.8697  -0.8062  -0.7736
    -0.7479  -0.6047  -0.5790  -0.5511  -0.5090  -0.5003  -0.4015  -0.3375
    -0.2893  -0.2693  -0.2217  -0.1877  -0.1492  -0.1018  -0.0841  -0.0577
     0.0312   0.0571   0.0816   0.1259   0.1612   0.1842   0.2033   0.2965
     0.3445   0.3621   0.3784   0.5342   0.5736   0.5888   0.7181   0.7301
     0.9023   0.9710   1.0086   1.1879   1.2342   1.5210   1.5632   2.8596
     3.0179   3.2890   3.4362   3.5042   3.5432   3.5970   3.6142   3.7552
     3.7881

[...]

          k = 0.0380-0.0419 0.0000 ( 17876 PWs)   bands (ev):

[...]

          k =-0.0760-0.0000 0.0000 ( 17886 PWs)   bands (ev):

[...]

          k =-0.0760-0.0839 0.0000 ( 17948 PWs)   bands (ev):

   -56.4349 -56.4022 -55.8686 -55.8326 -55.8277 -55.8130 -55.7785 -55.7400
   -55.7134 -55.6994 -55.6510 -55.6256 -55.6118 -55.4685 -55.0287 -55.0283
   -32.7023 -32.6852 -32.6615 -32.6574 -32.5867 -32.5588 -32.2498 -32.1863
   -32.1594 -32.1274 -32.1050 -32.1013 -32.0908 -32.0758 -32.0683 -32.0538
   -32.0493 -32.0417 -32.0361 -32.0283 -32.0283 -32.0205 -31.9985 -31.9975
   -31.9949 -31.9798 -31.9683 -31.9535 -31.9451 -31.9391 -31.9183 -31.9050
   -31.9014 -31.8886 -31.8752 -31.8609 -31.8603 -31.8263 -31.8158 -31.7964
   -31.7248 -31.6766 -31.3752 -31.3750 -31.2552 -31.2536 -31.2138 -31.2130
   -17.5639 -16.6071 -15.9839 -15.9044 -15.9002 -15.8887 -15.8621 -15.8201
   -15.7428 -15.7360 -15.6649 -15.5982 -15.5647 -15.5197 -15.4970 -15.4856
   -15.4478 -15.4439 -15.3862 -15.3426 -15.3261 -15.3149 -15.2951 -15.2517
   -15.2460 -15.2432 -15.2197 -15.2041 -15.1538 -15.0536 -14.8671 -13.5438
   -13.5426  -9.3503  -4.2611  -4.1708  -3.9702  -3.7420  -3.2162  -3.1402
    -3.0657  -3.0577  -2.9829  -2.9233  -2.9088  -2.8639  -2.8569  -2.8251
    -2.7534  -2.7429  -2.7299  -2.7196  -2.7121  -2.7035  -2.6807  -2.6356
    -2.6225  -2.6152  -2.5996  -2.5908  -2.5790  -2.5754  -2.5485  -2.5096
    -2.4395  -2.3792  -2.2554  -2.2478  -2.2126  -2.1965  -2.1556  -2.1436
    -2.0897  -1.9977  -1.9855  -1.9828  -1.8939  -1.8376  -1.6244  -1.6094
    -1.5923  -1.5256  -1.4535  -1.3866  -1.3631  -1.3399  -1.3074  -1.2846
    -1.2356  -1.1860  -1.1515  -1.1152  -1.0989  -1.0603  -1.0079  -0.9584
    -0.9071  -0.9031  -0.8595  -0.8127  -0.7815  -0.7018  -0.6958  -0.6725
    -0.6491  -0.6096  -0.5246  -0.4728  -0.4299  -0.3356  -0.2937  -0.2605
    -0.1202  -0.0612  -0.0244   0.0514   0.0947   0.1956   0.2207   0.2967
     0.3096   0.3385   0.3630   0.4378   0.5054   0.5615   0.6033   0.6471
     0.6588   0.7081   0.7711   1.3650   1.3656   1.3729   1.3805   3.4049
     3.4298   3.4375   3.4674   3.6938   3.7113   3.7835   3.8129   3.8302
     3.8825

     the Fermi energy is     2.2693 ev

!    total energy              =   -2965.10868880 Ry
     estimated scf accuracy    <       0.00000004 Ry
     smearing contrib. (-TS)   =      -0.00015926 Ry
     internal energy E=F+TS    =   -2965.10852953 Ry

     The total energy is F=E-TS. E is the sum of the following terms:
     one-electron contribution =  -24223.01573287 Ry
     hartree contribution      =   12200.81675880 Ry
     xc contribution           =    -490.02955260 Ry
     ewald contribution        =    9547.11945464 Ry
     electric field correction =       0.00054250 Ry

     convergence has been achieved in  75 iterations

     Forces acting on atoms (cartesian axes, Ry/au):

     atom    1 type  1   force =    -0.00002077    0.00003434    0.13237246
     atom    2 type  1   force =    -0.00019115    0.00778032   -0.15738912
     atom    3 type  2   force =     0.00008517   -0.00480436   -0.05218722
     atom    4 type  2   force =     0.00035932    0.00109066    0.04042720
     atom    5 type  2   force =    -0.00610568   -0.00278253   -0.00019619
     atom    6 type  2   force =     0.00839667   -0.00338165    0.00078266
     atom    7 type  1   force =    -0.00002576   -0.00014925   -0.00001667
     atom    8 type  1   force =     0.00021042   -0.00057038    0.00038630
     atom    9 type  2   force =    -0.00004372    0.00019968   -0.00005466
     atom   10 type  2   force =    -0.00014381   -0.00037616   -0.00016875
     atom   11 type  2   force =     0.00043621    0.00026883   -0.00017819
     atom   12 type  2   force =    -0.00026946    0.00016713   -0.00003844
     atom   13 type  1   force =    -0.00068685    0.00049401   -0.00029742
     atom   14 type  1   force =     0.00007153   -0.00032521   -0.00022965
     atom   15 type  2   force =    -0.00021230    0.00002390   -0.00076535
     atom   16 type  2   force =    -0.00033102    0.00009123    0.00006573
     atom   17 type  2   force =     0.00004738   -0.00011523    0.00009614
     atom   18 type  2   force =    -0.00070036    0.00022222   -0.00023068
     atom   19 type  1   force =     0.00005053   -0.00043799   -0.00011898
     atom   20 type  1   force =     0.00006284   -0.00016945    0.00024448
     atom   21 type  2   force =    -0.00002446    0.00002078    0.09910529
     atom   22 type  2   force =     0.00001878    0.00005878    0.00018458
     atom   23 type  2   force =    -0.08090093    0.00048959   -0.03408091
     atom   24 type  2   force =     0.08070317    0.00095514   -0.03414396
     atom   25 type  1   force =    -0.00001180   -0.00027461    0.14098415
     atom   26 type  1   force =    -0.00013421   -0.00647356   -0.15704054
     atom   27 type  2   force =     0.00016288    0.00109639   -0.05218839
     atom   28 type  2   force =     0.00018891    0.00033453    0.04176003
     atom   29 type  2   force =    -0.00752235    0.00512570    0.00201676
     atom   30 type  2   force =     0.00859580    0.00383334    0.00271833
     atom   31 type  1   force =    -0.00002337    0.00016450    0.00000614
     atom   32 type  1   force =     0.00030454   -0.00005976   -0.00053156
     atom   33 type  2   force =    -0.00005777    0.00040671    0.00021470
     atom   34 type  2   force =    -0.00011931    0.00019917    0.00040073
     atom   35 type  2   force =    -0.00049270   -0.00034576   -0.00005850
     atom   36 type  2   force =     0.00047921   -0.00043823    0.00017075
     atom   37 type  1   force =    -0.00056167   -0.00029844   -0.00011000
     atom   38 type  1   force =     0.00001577   -0.00003097   -0.00045725
     atom   39 type  2   force =    -0.00001358   -0.00013742   -0.00021583
     atom   40 type  2   force =    -0.00013812   -0.00014185   -0.00034879
     atom   41 type  2   force =    -0.00000735    0.00003807   -0.00046937
     atom   42 type  2   force =     0.00002342    0.00042391   -0.00008887
     atom   43 type  1   force =    -0.00019916    0.00047595   -0.00007919
     atom   44 type  1   force =    -0.00013878   -0.00046066    0.00027962
     atom   45 type  2   force =    -0.00002981    0.00012493    0.09865684
     atom   46 type  2   force =    -0.08086077   -0.00164618   -0.03407988
     atom   47 type  2   force =     0.08067025   -0.00117574   -0.03414748
     atom   48 type  3   force =    -0.00013748    0.00029272   -0.00009699
     atom   49 type  2   force =     0.00008528    0.00029754   -0.00079449
     atom   50 type  4   force =    -0.00041116    0.00019496   -0.00005696
     atom   51 type  4   force =     0.00012313   -0.00004593    0.00013641
     atom   52 type  4   force =    -0.00007749    0.00039804    0.00025505
     atom   53 type  2   force =     0.00227371   -0.00056740   -0.00214135
     atom   54 type  4   force =    -0.00277179   -0.00009436    0.00173732

     Total force =     0.382681     Total SCF correction =     0.000646
  @ DRIVER MODE: Message from server: STATUS
  @ DRIVER MODE: Message from server: GETFORCE
  @ DRIVER MODE: Returning v,forces,stress,ensemble

     Writing output data file ./calc.save/
  @ DRIVER MODE: Message from server: EXIT
  @ DRIVE MODE: Exiting

     General routines

     Parallel routines

   This run was terminated on:   4:56:32  23Sep2021

   JOB DONE.