     Program PWSCF v.6.7GPU starts on 18Oct2021 at 21:53:31

     R & G space division:  proc/nbgrp/npool/nimage =       8
     Reading input from /storage/home/hcoda1/3/ntian30/research/carbon/CxH_vib/Thiel_calc/ads_slab/NNH2HH_perslab/out_0021/pw.inp
Warning: card &CELL ignored
Warning: card   CELL_DYNAMICS='IPI', ignored
Warning: card / ignored

     Current dimensions of program PWSCF are:
     Max number of different atomic species (ntypx) = 10
     Max number of k-points (npk) =  40000
     Max angular momentum in pseudopotentials (lmaxx) =  3
     Presently no symmetry can be used with electric field

     Message from routine cell_base_init:
     DEPRECATED: use true lattice parameter, not A to a.u. conversion factor

     IMPORTANT: XC functional enforced from input :
     Exchange-correlation= BEEF-VDW
                           (   1   4  43  14   2   0   0)
     Any further DFT definition will be discarded
     Please, verify this is what you really want

  @ DRIVER MODE: Connecting to
 qe_1139763_3255133.sched-torque.pace.gatech.edu3id49xcu_scratch
  using UNIX socket
  @ DRIVER MODE: Message from server: STATUS
  @ DRIVER MODE: Message from server: INIT
  @ DRIVER MODE: Receiving replica           0          -1
  @ DRIVER MODE: Receiving encoded integer          25
  @ DRIVER MODE:  SCF:  T  FORCE:  T  STRESS:  F  VC:  F  ENSEMBLE:  F
  @ DRIVER MODE:  SCF:  T  FORCE:  T  STRESS:  F  VC:  F  ENSEMBLE:  F

     Using Slab Decomposition

     bravais-lattice index     =            0
     lattice parameter (alat)  =       1.8897  a.u.
     unit-cell volume          =    9988.4706 (a.u.)^3
     number of atoms/cell      =           59
     number of atomic types    =            4
     number of electrons       =       440.00
     number of Kohn-Sham states=          230
     kinetic-energy cutoff     =      29.3995  Ry
     charge density cutoff     =     293.9946  Ry
     scf convergence threshold =      7.3E-08
     mixing beta               =       0.0500
     number of iterations used =            8  plain     mixing
     Exchange-correlation= BEEF-VDW
                           (   1   4  43  14   2   0   0)

     celldm(1)=   1.889726  celldm(2)=   0.000000  celldm(3)=   0.000000
     celldm(4)=   0.000000  celldm(5)=   0.000000  celldm(6)=   0.000000

     crystal axes: (cart. coord. in units of alat)
               a(1) = (   6.579727   0.000000   0.000000 )
               a(2) = (  -0.001163   8.942395   0.000000 )
               a(3) = (   0.000000   0.000000  25.155947 )

     reciprocal axes: (cart. coord. in units 2 pi/alat)
               b(1) = (  0.151982  0.000020  0.000000 )
               b(2) = (  0.000000  0.111827  0.000000 )
               b(3) = (  0.000000  0.000000  0.039752 )

     PseudoPot. # 1 for O  read from file:
     /storage/coda1/p-amedford6/0/shared/rich_project_chbe-medford/medford-share/data/pseudos_module/espresso/nninc/pbe/van/O.UPF
     MD5 check sum: 78c19812648e8988a0fe644b0f25305e
     Pseudo is Ultrasoft, Zval =  6.0
     Generated by new atomic code, or converted to UPF format
     Using radial grid of  737 points,  4 beta functions with:
                l(1) =   0
                l(2) =   0
                l(3) =   1
                l(4) =   1
     Q(r) pseudized with  8 coefficients,  rinner =    0.800   0.800   0.800

     PseudoPot. # 2 for Ti read from file:
     /storage/coda1/p-amedford6/0/shared/rich_project_chbe-medford/medford-share/data/pseudos_module/espresso/nninc/pbe/van/Ti.UPF
     MD5 check sum: 8e4df49b7f0d34bbd5052bf3f5ea0213
     Pseudo is Ultrasoft, Zval = 12.0
     Generated by new atomic code, or converted to UPF format
     Using radial grid of  851 points,  6 beta functions with:
                l(1) =   0
                l(2) =   0
                l(3) =   1
                l(4) =   1
                l(5) =   2
                l(6) =   2
     Q(r) pseudized with  8 coefficients,  rinner =    1.000   1.000   1.000
                                                       1.000   1.000

     PseudoPot. # 3 for H  read from file:
     /storage/coda1/p-amedford6/0/shared/rich_project_chbe-medford/medford-share/data/pseudos_module/espresso/nninc/pbe/van/H.UPF
     MD5 check sum: b5ee9d7bfd3a09ee7748110bda690ff7
     Pseudo is Ultrasoft, Zval =  1.0
     Generated by new atomic code, or converted to UPF format
     Using radial grid of  615 points,  1 beta functions with:
                l(1) =   0
     Q(r) pseudized with  8 coefficients,  rinner =    0.800

     PseudoPot. # 4 for N  read from file:
     /storage/coda1/p-amedford6/0/shared/rich_project_chbe-medford/medford-share/data/pseudos_module/espresso/nninc/pbe/van/N.UPF
     MD5 check sum: 90d10febe142ad51ac9d5be1deb811c4
     Pseudo is Ultrasoft, Zval =  5.0
     Generated by new atomic code, or converted to UPF format
     Using radial grid of  729 points,  4 beta functions with:
                l(1) =   0
                l(2) =   0
                l(3) =   1
                l(4) =   1
     Q(r) pseudized with  8 coefficients,  rinner =    0.800   0.800   0.800

     atomic species   valence    mass     pseudopotential
        O1             6.00    15.99900     O ( 1.00)
        Ti1           12.00    47.86700     Ti( 1.00)
        H1             1.00     1.00800     H ( 1.00)
        N1             5.00    14.00700     N ( 1.00)

     No symmetry found

   Cartesian axes

     site n.     atom                  positions (alat units)
         1           O1  tau(   1) = (   0.0007354   0.0005023  10.5931620  )
         2           O1  tau(   2) = (   3.3122003   8.9411730  13.9078397  )
         3           O1  tau(   3) = (   0.0119464   0.1585559  17.3480684  )
         4           O1  tau(   4) = (   0.0006271   0.0005054   7.9858123  )
         5           O1  tau(   5) = (   3.2844644   8.9346379  11.1901754  )
         6           O1  tau(   6) = (   6.5618141   0.0157575  14.6617184  )
         7           O1  tau(   7) = (   1.9868534   1.4903216   9.2879459  )
         8           O1  tau(   8) = (   5.2413352   1.5994427  12.5710249  )
         9           O1  tau(   9) = (   2.0249271   1.5994163  16.0383581  )
        10           Ti1 tau(  10) = (   0.0007404   1.4906270   9.2895810  )
        11           Ti1 tau(  11) = (   3.2875257   1.3541315  12.5031546  )
        12           Ti1 tau(  12) = (   0.1037617   1.4803996  15.8781706  )
        13           O1  tau(  13) = (   4.5942328   1.4918067   9.2879030  )
        14           O1  tau(  14) = (   1.3445879   1.6225681  12.6047105  )
        15           O1  tau(  15) = (   4.5270247   1.5277052  16.0690704  )
        16           Ti1 tau(  16) = (   3.2902859   2.9801868   9.2893338  )
        17           Ti1 tau(  17) = (   6.5717848   2.8351652  12.4611715  )
        18           Ti1 tau(  18) = (   3.3615503   2.9380122  15.7113248  )
        19           O1  tau(  19) = (   0.0003479   2.9813005  10.5931620  )
        20           O1  tau(  20) = (   3.3257229   2.9884659  13.9122956  )
        21           O1  tau(  21) = (   0.0002396   2.9813036   7.9858123  )
        22           O1  tau(  22) = (   3.2846765   2.9682620  11.1924388  )
        23           O1  tau(  23) = (   6.5193973   3.0012958  14.6893217  )
        24           O1  tau(  24) = (   1.9864658   4.4711199   9.2879459  )
        25           O1  tau(  25) = (   5.2358842   4.5821056  12.5715879  )
        26           O1  tau(  26) = (   1.9668816   4.5963109  15.9958849  )
        27           Ti1 tau(  27) = (   0.0003529   4.4714252   9.2895810  )
        28           Ti1 tau(  28) = (   3.2817300   4.3379106  12.5030846  )
        29           Ti1 tau(  29) = (   6.5286400   4.3105241  16.0387364  )
        30           O1  tau(  30) = (   4.5938453   4.4726049   9.2879030  )
        31           O1  tau(  31) = (   1.3350840   4.5883300  12.6034823  )
        32           O1  tau(  32) = (   4.4768606   4.5746599  16.1328061  )
        33           Ti1 tau(  33) = (   3.2898983   5.9609850   9.2893338  )
        34           Ti1 tau(  34) = (   6.5687693   5.8095266  12.4696282  )
        35           Ti1 tau(  35) = (   3.1936624   5.9077503  15.7132784  )
        36           O1  tau(  36) = (  -0.0000397   5.9620987  10.5931620  )
        37           O1  tau(  37) = (   3.2950800   5.9615338  13.9080848  )
        38           O1  tau(  38) = (   6.5705097   6.0321180  17.3127682  )
        39           O1  tau(  39) = (  -0.0001480   5.9621018   7.9858123  )
        40           O1  tau(  40) = (   3.2829949   5.9473389  11.1919414  )
        41           O1  tau(  41) = (   6.5313079   6.0695169  14.6234680  )
        42           O1  tau(  42) = (   1.9860782   7.4519181   9.2879459  )
        43           O1  tau(  43) = (   5.2305909   7.5696458  12.5615615  )
        44           O1  tau(  44) = (   1.9930026   7.5537276  16.0441964  )
        45           Ti1 tau(  45) = (  -0.0000347   7.4522234   9.2895810  )
        46           Ti1 tau(  46) = (   3.2809715   7.3153274  12.5063831  )
        47           Ti1 tau(  47) = (  -0.0000777   7.3827053  15.8005402  )
        48           O1  tau(  48) = (   4.5934577   7.4534031   9.2879030  )
        49           O1  tau(  49) = (   1.3440923   7.5800077  12.5804573  )
        50           O1  tau(  50) = (   4.5564015   7.5743432  16.1458831  )
        51           Ti1 tau(  51) = (   3.2895107   8.9417832   9.2893338  )
        52           Ti1 tau(  52) = (   6.5681474   8.7932977  12.4619754  )
        53           Ti1 tau(  53) = (   3.3227810   8.9003220  15.7121742  )
        54           H1  tau(  54) = (   5.8375475   6.1301351  17.9339333  )
        55           H1  tau(  55) = (   5.7673184   0.1799947  17.8523786  )
        56           H1  tau(  56) = (   0.0490247   3.6154164  19.2291769  )
        57           N1  tau(  57) = (   6.4107751   2.7816545  18.6713363  )
        58           N1  tau(  58) = (   6.5444414   3.0434393  17.3342366  )
        59           H1  tau(  59) = (   0.3957958   1.9971216  18.9670883  )

     number of k points=    10  Fermi-Dirac smearing, width (Ry)=  0.0073
                       cart. coord. in units 2pi/alat
        k(    1) = (   0.0000000   0.0000000   0.0000000), wk =   0.1250000
        k(    2) = (   0.0000000   0.0279567   0.0000000), wk =   0.2500000
        k(    3) = (   0.0000000  -0.0559134   0.0000000), wk =   0.1250000
        k(    4) = (   0.0379955   0.0000049   0.0000000), wk =   0.2500000
        k(    5) = (   0.0379955   0.0279617   0.0000000), wk =   0.2500000
        k(    6) = (   0.0379955  -0.0559085   0.0000000), wk =   0.2500000
        k(    7) = (   0.0379955  -0.0279518   0.0000000), wk =   0.2500000
        k(    8) = (  -0.0759910  -0.0000099   0.0000000), wk =   0.1250000
        k(    9) = (  -0.0759910   0.0279468   0.0000000), wk =   0.2500000
        k(   10) = (  -0.0759910  -0.0559233   0.0000000), wk =   0.1250000

     Initial potential from superposition of free atoms

     starting charge  421.99910, renormalised to  440.00000

     negative rho (up, down):  3.726E-02 0.000E+00

     %%%%%%%%%%%%%%%%%%%%%%%%%%%%%%%%%%%%%%%%%%%%%%%%%%%%%%%%%%%%%%%%%%%%%%%%
     %                                                                      %
     % You are using vdW-DF, which was implemented by the Thonhauser group. %
     % Please cite the following two papers that made this development      %
     % possible and the two reviews that describe the various versions:     %
     %                                                                      %
     %   T. Thonhauser et al., PRL 115, 136402 (2015).                      %
     %   T. Thonhauser et al., PRB 76, 125112 (2007).                       %
     %   K. Berland et al., Rep. Prog. Phys. 78, 066501 (2015).             %
     %   D.C. Langreth et al., J. Phys.: Condens. Matter 21, 084203 (2009). %
     %                                                                      %
     %                                                                      %
     % If you are calculating the stress with vdW-DF, please also cite:     %
     %                                                                      %
     %   R. Sabatini et al., J. Phys.: Condens. Matter 24, 424209 (2012).   %
     %                                                                      %
     %%%%%%%%%%%%%%%%%%%%%%%%%%%%%%%%%%%%%%%%%%%%%%%%%%%%%%%%%%%%%%%%%%%%%%%%

     Adding external electric field

     Computed dipole along edir(3) :
        Dipole               -5.7841 Ry au,        -14.7017 Debye
        Dipole field         -0.0073 Ry au,

        Potential amp.        0.6746 Ry
        Total length         46.3494 bohr

     Starting wfcs are  332 atomic wfcs
  @ DRIVER MODE: Message from server: STATUS
  @ DRIVER MODE: Message from server: POSDATA
  @ DRIVER MODE: Reading and sharing cell
  @ DRIVER MODE: Reading and sharing positions
  @ DRIVER MODE: Received positions

     Self-consistent Calculation

     iteration #  1     ecut=    29.40 Ry     beta= 0.05
     Davidson diagonalization with overlap
     c_bands:  1 eigenvalues not converged
     c_bands:  2 eigenvalues not converged
     c_bands:  4 eigenvalues not converged
     c_bands:  1 eigenvalues not converged
     c_bands:  1 eigenvalues not converged
     c_bands:  5 eigenvalues not converged
     c_bands:  1 eigenvalues not converged
     c_bands:  4 eigenvalues not converged
     c_bands:  4 eigenvalues not converged
     c_bands:  4 eigenvalues not converged
     ethr =  1.00E-05,  avg # of iterations = 20.0

[...]

     total energy              =   -3276.45295130 Ry
     estimated scf accuracy    <     229.05116446 Ry

[...]

     iteration #  3     ecut=    29.40 Ry     beta= 0.05
     Davidson diagonalization with overlap
     ethr =  1.00E-02,  avg # of iterations = 12.5

[...]

     iteration # 28     ecut=    29.40 Ry     beta= 0.05
     Davidson diagonalization with overlap
     c_bands:  1 eigenvalues not converged
     ethr =  3.67E-08,  avg # of iterations = 11.4

[...]

     total energy              =   -3293.24397416 Ry
     estimated scf accuracy    <       0.00000024 Ry

     iteration # 43     ecut=    29.40 Ry     beta= 0.05
     Davidson diagonalization with overlap
     ethr =  5.38E-11,  avg # of iterations =  9.6

     negative rho (up, down):  3.570E-02 0.000E+00

     Adding external electric field

     Computed dipole along edir(3) :
        Dipole                1.5599 Ry au,          3.9648 Debye
        Dipole field          0.0020 Ry au,

        Potential amp.       -0.1819 Ry
        Total length         46.3494 bohr

     End of self-consistent calculation

          k = 0.0000 0.0000 0.0000 ( 26871 PWs)   bands (ev):

   -57.7062 -57.6991 -57.6813 -57.6795 -57.6559 -57.6144 -57.5673 -57.5289
   -57.5049 -57.5012 -57.5008 -57.4961 -57.4679 -57.4578 -56.7891 -56.7270
   -56.7029 -56.6993 -34.1033 -34.0887 -34.0869 -34.0851 -34.0611 -34.0428
   -34.0372 -34.0229 -34.0182 -33.9995 -33.9663 -33.9629 -33.9533 -33.9474
   -33.9026 -33.8999 -33.8933 -33.8864 -33.8732 -33.8500 -33.8443 -33.8322
   -33.8286 -33.8231 -33.8027 -33.8015 -33.7993 -33.7826 -33.7672 -33.7451
   -33.7406 -33.7361 -33.7245 -33.7170 -33.7085 -33.6938 -33.6893 -33.6881
   -33.6851 -33.6794 -33.6732 -33.6450 -33.2438 -33.0417 -33.0416 -33.0374
   -33.0259 -33.0226 -32.9983 -32.9841 -32.9532 -32.8905 -32.8864 -32.7527
   -19.1733 -19.0079 -18.8508 -18.5643 -18.1610 -17.9938 -17.9712 -17.9533
   -17.9133 -17.8139 -17.8127 -17.6333 -17.5750 -17.5426 -17.5131 -17.5071
   -17.4357 -17.3981 -17.3826 -17.3642 -17.3583 -17.3521 -17.3349 -17.2904
   -17.2543 -17.1999 -17.1847 -17.1490 -17.1379 -17.1362 -17.1346 -17.0660
   -16.8311 -15.1936 -15.1360 -15.1343 -12.1084  -7.8892  -6.7943  -6.5426
    -6.3242  -5.8929  -5.6760  -5.6238  -5.5424  -5.1862  -5.1723  -5.1041
    -5.0923  -5.0656  -4.9989  -4.9847  -4.9810  -4.9662  -4.8847  -4.8485
    -4.8363  -4.7879  -4.7702  -4.7106  -4.6475  -4.6378  -4.5775  -4.5412
    -4.5059  -4.5002  -4.4949  -4.4862  -4.4702  -4.4364  -4.3626  -4.3116
    -4.1772  -4.1718  -4.1182  -4.0531  -4.0255  -4.0171  -3.9562  -3.8813
    -3.8389  -3.8312  -3.7898  -3.7604  -3.7249  -3.7031  -3.6785  -3.5859
    -3.4913  -3.4595  -3.4549  -3.4120  -3.4007  -3.3475  -3.2325  -3.1800
    -3.1120  -3.0496  -2.9879  -2.9648  -2.9241  -2.8704  -2.8469  -2.7970
    -2.7755  -2.7236  -2.6784  -2.6280  -2.5361  -2.4779  -2.4726  -2.4606
    -2.4045  -2.3887  -2.3744  -2.3517  -2.3267  -2.2708  -2.2390  -2.2072
    -2.1743  -2.1434  -2.0981  -2.0632  -2.0525  -1.9440  -1.9098  -1.8817
    -1.7558  -1.7312  -1.6865  -1.6552  -1.5620  -1.5474  -1.5464  -1.4316
    -1.4160  -1.0960  -1.0019  -0.7473  -0.4767  -0.4314  -0.4306  -0.1670
    -0.1642  -0.0349   0.5175   1.2652   1.5203   1.6663   1.7246   1.7420
     1.7891   1.8737   1.8905   1.9218   1.9391   1.9759

[...]

          k = 0.0380-0.0280 0.0000 ( 26873 PWs)   bands (ev):

[...]

          k =-0.0760-0.0000 0.0000 ( 26902 PWs)   bands (ev):

[...]

          k =-0.0760-0.0559 0.0000 ( 26868 PWs)   bands (ev):

   -57.6984 -57.6983 -57.6967 -57.6719 -57.6572 -57.6137 -57.5673 -57.5223
   -57.5176 -57.5008 -57.4945 -57.4941 -57.4742 -57.4541 -56.7891 -56.7200
   -56.7166 -56.6925 -34.1813 -34.1738 -34.0883 -34.0621 -34.0525 -34.0379
   -34.0325 -34.0303 -33.9990 -33.9884 -33.9552 -33.9322 -33.9055 -33.8974
   -33.8954 -33.8819 -33.8755 -33.8473 -33.8464 -33.8420 -33.8381 -33.8360
   -33.8252 -33.8141 -33.7901 -33.7884 -33.7804 -33.7786 -33.7756 -33.7664
   -33.7572 -33.7511 -33.7362 -33.7346 -33.7219 -33.7201 -33.7170 -33.7113
   -33.6944 -33.6769 -33.6704 -33.6690 -33.2503 -33.1312 -33.0418 -33.0387
   -33.0156 -32.9994 -32.9853 -32.9338 -32.9296 -32.8668 -32.8516 -32.8477
   -19.0975 -19.0786 -18.8375 -18.2581 -18.2412 -17.9280 -17.8857 -17.8372
   -17.8327 -17.8088 -17.7385 -17.7218 -17.6881 -17.6242 -17.5411 -17.5115
   -17.4851 -17.4524 -17.4386 -17.4316 -17.4219 -17.3992 -17.3579 -17.3542
   -17.3030 -17.2568 -17.2216 -17.1717 -17.1413 -17.0914 -17.0659 -17.0388
   -16.8648 -15.1918 -15.1896 -15.0729 -12.1069  -7.8922  -6.7868  -6.5663
    -6.2819  -5.5061  -5.4968  -5.4887  -5.4402  -5.1486  -5.0404  -4.9933
    -4.9893  -4.9626  -4.9050  -4.8902  -4.8776  -4.8619  -4.8506  -4.8146
    -4.8099  -4.7657  -4.7538  -4.7401  -4.6902  -4.6324  -4.6268  -4.6023
    -4.5933  -4.5193  -4.5118  -4.4613  -4.3667  -4.3222  -4.3038  -4.2988
    -4.2602  -4.2274  -4.2199  -4.1486  -3.9001  -3.8914  -3.8686  -3.8503
    -3.8104  -3.7649  -3.7332  -3.7151  -3.6559  -3.5523  -3.4282  -3.3947
    -3.3815  -3.3647  -3.3397  -3.2999  -3.2885  -3.2769  -3.2335  -3.2023
    -3.1999  -3.1572  -3.1146  -3.0255  -2.9907  -2.9339  -2.8878  -2.8457
    -2.8341  -2.8226  -2.8161  -2.7991  -2.7699  -2.7551  -2.7412  -2.7029
    -2.6861  -2.6217  -2.5694  -2.5074  -2.4856  -2.4301  -2.3584  -2.2783
    -2.2549  -2.1917  -2.0991  -2.0415  -2.0012  -1.9692  -1.9500  -1.9292
    -1.8494  -1.8247  -1.7972  -1.7838  -1.5209  -1.5179  -1.3729  -1.3394
    -1.2885  -1.2804  -1.2098  -1.0539  -0.6430  -0.3573  -0.3505  -0.3222
    -0.1667  -0.1664   0.4680   1.4363   1.5011   1.5137   1.6052   1.6121
     1.6266   1.7234   1.7643   1.7679   1.9034   1.9705

     the Fermi energy is     1.3750 ev

!    total energy              =   -3293.24419133 Ry
     estimated scf accuracy    <       0.00000007 Ry
     smearing contrib. (-TS)   =      -0.03194478 Ry
     internal energy E=F+TS    =   -3293.21224655 Ry

     The total energy is F=E-TS. E is the sum of the following terms:
     one-electron contribution =  -34434.93081442 Ry
     hartree contribution      =   17282.61230164 Ry
     xc contribution           =    -542.29210933 Ry
     ewald contribution        =   14401.39531433 Ry
     electric field correction =       0.00306123 Ry

     convergence has been achieved in  43 iterations

     Forces acting on atoms (cartesian axes, Ry/au):

     atom    1 type  1   force =     0.00084847    0.00631634    0.05752834
     atom    2 type  1   force =    -0.00004409   -0.00070866   -0.00477360
     atom    3 type  1   force =    -0.00003346   -0.00182727   -0.00147467
     atom    4 type  1   force =     0.00006664    0.00076728    0.10710666
     atom    5 type  1   force =    -0.00015427   -0.00059270    0.00932172
     atom    6 type  1   force =     0.00132193   -0.00282948    0.00335775
     atom    7 type  1   force =     0.06706093    0.00000181   -0.02954233
     atom    8 type  1   force =     0.00332709   -0.02854833    0.00244965
     atom    9 type  1   force =     0.01222726   -0.01757806    0.00139918
     atom   10 type  2   force =     0.00006901   -0.00241738   -0.18530324
     atom   11 type  2   force =     0.00016091    0.02113194   -0.00708742
     atom   12 type  2   force =    -0.00533141    0.01493357   -0.00327242
     atom   13 type  1   force =    -0.06727746   -0.00039136   -0.02893916
     atom   14 type  1   force =    -0.00359513   -0.02913886    0.00250494
     atom   15 type  1   force =    -0.00689503   -0.01133549    0.00258114
     atom   16 type  2   force =    -0.00020534   -0.00128113    0.06488850
     atom   17 type  2   force =     0.00029497    0.03526047    0.00397782
     atom   18 type  2   force =    -0.00260783    0.02263918    0.00156349
     atom   19 type  1   force =     0.00074364    0.00409525    0.06078592
     atom   20 type  1   force =     0.00002278   -0.00008194   -0.00396952
     atom   21 type  1   force =     0.00005761   -0.00004083    0.10727690
     atom   22 type  1   force =     0.00002771   -0.00085310    0.00936682
     atom   23 type  1   force =    -0.00005199   -0.00359246    0.00435482
     atom   24 type  1   force =     0.06733817   -0.00051933   -0.02945370
     atom   25 type  1   force =     0.00346746   -0.02947397    0.00311294
     atom   26 type  1   force =     0.00656944   -0.02209138    0.00384539
     atom   27 type  2   force =    -0.00001291    0.00172772   -0.18400126
     atom   28 type  2   force =    -0.00037970    0.02140488   -0.00707354
     atom   29 type  2   force =    -0.00120727    0.02273568   -0.00228401
     atom   30 type  1   force =    -0.06754198   -0.00098239   -0.02876628
     atom   31 type  1   force =    -0.00415497   -0.02931840    0.00227948
     atom   32 type  1   force =    -0.00654169   -0.01856371   -0.00046283
     atom   33 type  2   force =    -0.00032773   -0.00091190    0.06451278
     atom   34 type  2   force =     0.00043747    0.03629110    0.00380407
     atom   35 type  2   force =     0.00231509    0.02409011    0.00260077
     atom   36 type  1   force =     0.00068240    0.00483555    0.05916261
     atom   37 type  1   force =    -0.00015504    0.00148494   -0.00766807
     atom   38 type  1   force =    -0.00034425   -0.00296851    0.00066307
     atom   39 type  1   force =     0.00010626   -0.00016314    0.10687210
     atom   40 type  1   force =     0.00007788   -0.00088556    0.00975481
     atom   41 type  1   force =     0.00077600   -0.00227290    0.00138355
     atom   42 type  1   force =     0.06757858   -0.00029082   -0.02940979
     atom   43 type  1   force =     0.00369079   -0.02889227    0.00186587
     atom   44 type  1   force =     0.00877803   -0.01707200    0.00060625
     atom   45 type  2   force =     0.00024273   -0.00246769   -0.18291322
     atom   46 type  2   force =     0.00024574    0.01987327   -0.00665830
     atom   47 type  2   force =    -0.00010764    0.02240039    0.00187704
     atom   48 type  1   force =    -0.06773243   -0.00078351   -0.02866958
     atom   49 type  1   force =    -0.00360882   -0.02861419    0.00243664
     atom   50 type  1   force =    -0.00826451   -0.01838467   -0.00144208
     atom   51 type  2   force =    -0.00035473   -0.00109870    0.06453292
     atom   52 type  2   force =    -0.00016998    0.03594917    0.00439953
     atom   53 type  2   force =    -0.00163707    0.01468643   -0.00201879
     atom   54 type  3   force =    -0.00066117   -0.00025452    0.00052920
     atom   55 type  3   force =    -0.00084208   -0.00078888    0.00177153
     atom   56 type  3   force =    -0.00161174   -0.01234410   -0.00536125
     atom   57 type  4   force =    -0.00429621    0.02557338    0.00329516
     atom   58 type  4   force =     0.00055822   -0.00555270    0.00007549
     atom   59 type  3   force =     0.00705472   -0.01028619    0.00270021

     Total force =     0.456694     Total SCF correction =     0.000526
  @ DRIVER MODE: Message from server: STATUS
  @ DRIVER MODE: Message from server: GETFORCE
  @ DRIVER MODE: Returning v,forces,stress,ensemble

     Writing output data file ./calc.save/
  @ DRIVER MODE: Message from server: EXIT
  @ DRIVE MODE: Exiting

     General routines

     Parallel routines

   This run was terminated on:  22:16:50  18Oct2021

   JOB DONE.