     Program PWSCF v.6.7GPU starts on 24Sep2021 at  8:10:40

     R & G space division:  proc/nbgrp/npool/nimage =       8
     Reading input from /storage/home/hcoda1/3/ntian30/research/carbon/CxH_vib/H2O_calc/ads_slab/CH3NH2NHHO_c/out_0049/pw.inp
Warning: card &CELL ignored
Warning: card   CELL_DYNAMICS='IPI', ignored
Warning: card / ignored

     Current dimensions of program PWSCF are:
     Max number of different atomic species (ntypx) = 10
     Max number of k-points (npk) =  40000
     Max angular momentum in pseudopotentials (lmaxx) =  3
     Presently no symmetry can be used with electric field

     Message from routine cell_base_init:
     DEPRECATED: use true lattice parameter, not A to a.u. conversion factor

     IMPORTANT: XC functional enforced from input :
     Exchange-correlation= BEEF-VDW
                           (   1   4  43  14   2   0   0)
     Any further DFT definition will be discarded
     Please, verify this is what you really want

  @ DRIVER MODE: Connecting to
 qe_1139763_2947310.sched-torque.pace.gatech.eduqk7gcka5_scratch
  using UNIX socket
  @ DRIVER MODE: Message from server: STATUS
  @ DRIVER MODE: Message from server: INIT
  @ DRIVER MODE: Receiving replica           0          -1
  @ DRIVER MODE: Receiving encoded integer          25
  @ DRIVER MODE:  SCF:  T  FORCE:  T  STRESS:  F  VC:  F  ENSEMBLE:  F
  @ DRIVER MODE:  SCF:  T  FORCE:  T  STRESS:  F  VC:  F  ENSEMBLE:  F

     Using Slab Decomposition

     bravais-lattice index     =            0
     lattice parameter (alat)  =       1.8897  a.u.
     unit-cell volume          =    6658.9804 (a.u.)^3
     number of atoms/cell      =           58
     number of atomic types    =            5
     number of electrons       =       405.00
     number of Kohn-Sham states=          212
     kinetic-energy cutoff     =      29.3995  Ry
     charge density cutoff     =     293.9946  Ry
     scf convergence threshold =      7.3E-08
     mixing beta               =       0.0500
     number of iterations used =            8  plain     mixing
     Exchange-correlation= BEEF-VDW
                           (   1   4  43  14   2   0   0)

     celldm(1)=   1.889726  celldm(2)=   0.000000  celldm(3)=   0.000000
     celldm(4)=   0.000000  celldm(5)=   0.000000  celldm(6)=   0.000000

     crystal axes: (cart. coord. in units of alat)
               a(1) = (   6.579727   0.000000   0.000000 )
               a(2) = (  -0.000775   5.961596   0.000000 )
               a(3) = (   0.000000   0.000000  25.155947 )

     reciprocal axes: (cart. coord. in units 2 pi/alat)
               b(1) = (  0.151982  0.000020  0.000000 )
               b(2) = (  0.000000  0.167740  0.000000 )
               b(3) = (  0.000000  0.000000  0.039752 )

     PseudoPot. # 1 for Ti read from file:
     /storage/coda1/p-amedford6/0/shared/rich_project_chbe-medford/medford-share/data/pseudos_module/espresso/nninc/pbe/van/Ti.UPF
     MD5 check sum: 8e4df49b7f0d34bbd5052bf3f5ea0213
     Pseudo is Ultrasoft, Zval = 12.0
     Generated by new atomic code, or converted to UPF format
     Using radial grid of  851 points,  6 beta functions with:
                l(1) =   0
                l(2) =   0
                l(3) =   1
                l(4) =   1
                l(5) =   2
                l(6) =   2
     Q(r) pseudized with  8 coefficients,  rinner =    1.000   1.000   1.000
                                                       1.000   1.000

     PseudoPot. # 2 for O  read from file:
     /storage/coda1/p-amedford6/0/shared/rich_project_chbe-medford/medford-share/data/pseudos_module/espresso/nninc/pbe/van/O.UPF
     MD5 check sum: 78c19812648e8988a0fe644b0f25305e
     Pseudo is Ultrasoft, Zval =  6.0
     Generated by new atomic code, or converted to UPF format
     Using radial grid of  737 points,  4 beta functions with:
                l(1) =   0
                l(2) =   0
                l(3) =   1
                l(4) =   1
     Q(r) pseudized with  8 coefficients,  rinner =    0.800   0.800   0.800

     PseudoPot. # 3 for N  read from file:
     /storage/coda1/p-amedford6/0/shared/rich_project_chbe-medford/medford-share/data/pseudos_module/espresso/nninc/pbe/van/N.UPF
     MD5 check sum: 90d10febe142ad51ac9d5be1deb811c4
     Pseudo is Ultrasoft, Zval =  5.0
     Generated by new atomic code, or converted to UPF format
     Using radial grid of  729 points,  4 beta functions with:
                l(1) =   0
                l(2) =   0
                l(3) =   1
                l(4) =   1
     Q(r) pseudized with  8 coefficients,  rinner =    0.800   0.800   0.800

     PseudoPot. # 4 for C  read from file:
     /storage/coda1/p-amedford6/0/shared/rich_project_chbe-medford/medford-share/data/pseudos_module/espresso/nninc/pbe/van/C.UPF
     MD5 check sum: 1a69bf6b8db32088f5b2163dbdb77a27
     Pseudo is Ultrasoft, Zval =  4.0
     Generated by new atomic code, or converted to UPF format
     Using radial grid of  721 points,  4 beta functions with:
                l(1) =   0
                l(2) =   0
                l(3) =   1
                l(4) =   1
     Q(r) pseudized with  8 coefficients,  rinner =    0.800   0.800   0.800

     PseudoPot. # 5 for H  read from file:
     /storage/coda1/p-amedford6/0/shared/rich_project_chbe-medford/medford-share/data/pseudos_module/espresso/nninc/pbe/van/H.UPF
     MD5 check sum: b5ee9d7bfd3a09ee7748110bda690ff7
     Pseudo is Ultrasoft, Zval =  1.0
     Generated by new atomic code, or converted to UPF format
     Using radial grid of  615 points,  1 beta functions with:
                l(1) =   0
     Q(r) pseudized with  8 coefficients,  rinner =    0.800

     atomic species   valence    mass     pseudopotential
        Ti1           12.00    47.86700     Ti( 1.00)
        O1             6.00    15.99900     O ( 1.00)
        N1             5.00    14.00700     N ( 1.00)
        C1             4.00    12.01100     C ( 1.00)
        H1             1.00     1.00800     H ( 1.00)

     No symmetry found

   Cartesian axes

     site n.     atom                  positions (alat units)
         1           Ti1 tau(   1) = (   0.0004258   2.9801865   6.0000000  )
         2           Ti1 tau(   2) = (   3.2906075   1.4906267   6.0002472  )
         3           O1  tau(   3) = (   0.0006271   0.0005054   7.9858123  )
         4           O1  tau(   4) = (   3.2906025   0.0005020   7.3038282  )
         5           O1  tau(   5) = (   4.5942328   1.4918067   9.2879030  )
         6           O1  tau(   6) = (   1.9868534   1.4903216   9.2879459  )
         7           Ti1 tau(   7) = (   3.2907910   2.8959150   9.1758416  )
         8           Ti1 tau(   8) = (   0.0015273   1.4827037   9.2680791  )
         9           O1  tau(   9) = (   3.2766908   5.9368450  11.3531397  )
        10           O1  tau(  10) = (   0.0116148   5.9584955  10.6183126  )
        11           O1  tau(  11) = (   1.2656210   1.4746568  12.6519442  )
        12           O1  tau(  12) = (   5.2821112   1.4671822  12.6528637  )
        13           Ti1 tau(  13) = (   0.0097886   3.0246942  12.5604876  )
        14           Ti1 tau(  14) = (   3.2716845   1.2919425  12.6923688  )
        15           O1  tau(  15) = (   6.5701288   5.9533353  14.7096902  )
        16           O1  tau(  16) = (   3.2612835   0.0684280  14.0222998  )
        17           O1  tau(  17) = (   4.5366247   1.5847279  16.0182572  )
        18           O1  tau(  18) = (   1.9973522   1.5932486  16.1410213  )
        19           Ti1 tau(  19) = (   3.3011230   3.0369928  15.6528835  )
        20           Ti1 tau(  20) = (   6.4616919   1.5442775  15.7581475  )
        21           O1  tau(  21) = (   3.2904802   0.0005063   4.7018136  )
        22           O1  tau(  22) = (   6.5264998   0.0144113  17.2942622  )
        23           O1  tau(  23) = (   1.3043587   1.4918075   6.0039043  )
        24           O1  tau(  24) = (   5.2767064   1.4903225   6.0039473  )
        25           Ti1 tau(  25) = (   0.0000382   5.9609847   6.0000000  )
        26           Ti1 tau(  26) = (   3.2902200   4.4714249   6.0002472  )
        27           O1  tau(  27) = (   0.0002396   2.9813036   7.9858123  )
        28           O1  tau(  28) = (   3.2902150   2.9813002   7.3038282  )
        29           O1  tau(  29) = (   4.5938453   4.4726049   9.2879030  )
        30           O1  tau(  30) = (   1.9864658   4.4711199   9.2879459  )
        31           Ti1 tau(  31) = (   3.2891106   5.8743827   9.1763621  )
        32           Ti1 tau(  32) = (   0.0006254   4.4649316   9.2693709  )
        33           O1  tau(  33) = (   3.2807216   2.9716845  11.3098041  )
        34           O1  tau(  34) = (   0.0092240   2.9805883  10.6323155  )
        35           O1  tau(  35) = (   1.2724369   4.4570745  12.6376724  )
        36           O1  tau(  36) = (   5.2808598   4.4590940  12.6336130  )
        37           Ti1 tau(  37) = (   6.5522345   0.0346224  12.5198063  )
        38           Ti1 tau(  38) = (   3.2841791   4.3624788  12.4156291  )
        39           O1  tau(  39) = (   6.5678423   2.9906399  14.7075790  )
        40           O1  tau(  40) = (   3.2630306   2.9991211  13.8878987  )
        41           O1  tau(  41) = (   4.5399391   4.4365880  16.1202346  )
        42           O1  tau(  42) = (   1.9952260   4.4486394  16.1468368  )
        43           Ti1 tau(  43) = (   3.1909378   0.0332154  16.1742435  )
        44           Ti1 tau(  44) = (   6.5525253   4.6749982  16.1158565  )
        45           O1  tau(  45) = (   3.2900926   2.9813045   4.7018136  )
        46           O1  tau(  46) = (   1.3039711   4.4726057   6.0039043  )
        47           O1  tau(  47) = (   5.2763189   4.4711207   6.0039473  )
        48           N1  tau(  48) = (   0.9351815   2.3805788  18.4294677  )
        49           N1  tau(  49) = (   6.5001775   2.8750743  17.5309975  )
        50           C1  tau(  50) = (   1.3386797   3.2909482  19.5301671  )
        51           H1  tau(  51) = (   0.4734699   3.4817333  20.1622224  )
        52           H1  tau(  52) = (   2.1262835   2.8019037  20.1042238  )
        53           H1  tau(  53) = (   1.7016266   4.2178517  19.0939426  )
        54           H1  tau(  54) = (   0.6429753   1.4474929  18.7566963  )
        55           H1  tau(  55) = (   5.6191021   2.8022447  18.0351622  )
        56           H1  tau(  56) = (   1.7203324   2.1440475  17.7969061  )
        57           O1  tau(  57) = (   3.3671931   0.1367260  18.0860582  )
        58           H1  tau(  58) = (   4.3009782   5.9598238  18.3144400  )

     number of k points=    10  Fermi-Dirac smearing, width (Ry)=  0.0073
                       cart. coord. in units 2pi/alat
        k(    1) = (   0.0000000   0.0000000   0.0000000), wk =   0.1250000
        k(    2) = (   0.0000000   0.0419351   0.0000000), wk =   0.2500000
        k(    3) = (   0.0000000  -0.0838702   0.0000000), wk =   0.1250000
        k(    4) = (   0.0379955   0.0000049   0.0000000), wk =   0.2500000
        k(    5) = (   0.0379955   0.0419400   0.0000000), wk =   0.2500000
        k(    6) = (   0.0379955  -0.0838652   0.0000000), wk =   0.2500000
        k(    7) = (   0.0379955  -0.0419301   0.0000000), wk =   0.2500000
        k(    8) = (  -0.0759910  -0.0000099   0.0000000), wk =   0.1250000
        k(    9) = (  -0.0759910   0.0419252   0.0000000), wk =   0.2500000
        k(   10) = (  -0.0759910  -0.0838800   0.0000000), wk =   0.1250000

     Initial potential from superposition of free atoms

     starting charge  388.99913, renormalised to  405.00000

     negative rho (up, down):  1.469E-02 0.000E+00

     %%%%%%%%%%%%%%%%%%%%%%%%%%%%%%%%%%%%%%%%%%%%%%%%%%%%%%%%%%%%%%%%%%%%%%%%
     %                                                                      %
     % You are using vdW-DF, which was implemented by the Thonhauser group. %
     % Please cite the following two papers that made this development      %
     % possible and the two reviews that describe the various versions:     %
     %                                                                      %
     %   T. Thonhauser et al., PRL 115, 136402 (2015).                      %
     %   T. Thonhauser et al., PRB 76, 125112 (2007).                       %
     %   K. Berland et al., Rep. Prog. Phys. 78, 066501 (2015).             %
     %   D.C. Langreth et al., J. Phys.: Condens. Matter 21, 084203 (2009). %
     %                                                                      %
     %                                                                      %
     % If you are calculating the stress with vdW-DF, please also cite:     %
     %                                                                      %
     %   R. Sabatini et al., J. Phys.: Condens. Matter 24, 424209 (2012).   %
     %                                                                      %
     %%%%%%%%%%%%%%%%%%%%%%%%%%%%%%%%%%%%%%%%%%%%%%%%%%%%%%%%%%%%%%%%%%%%%%%%

     Adding external electric field

     Computed dipole along edir(3) :
        Dipole              -13.9957 Ry au,        -35.5736 Debye
        Dipole field         -0.0264 Ry au,

        Potential amp.        2.4483 Ry
        Total length         46.3494 bohr

     Starting wfcs are  307 atomic wfcs
  @ DRIVER MODE: Message from server: STATUS
  @ DRIVER MODE: Message from server: POSDATA
  @ DRIVER MODE: Reading and sharing cell
  @ DRIVER MODE: Reading and sharing positions
  @ DRIVER MODE: Received positions

     Self-consistent Calculation

     iteration #  1     ecut=    29.40 Ry     beta= 0.05
     Davidson diagonalization with overlap
     c_bands:  5 eigenvalues not converged
     c_bands:  5 eigenvalues not converged
     c_bands:  1 eigenvalues not converged
     c_bands:  3 eigenvalues not converged
     c_bands:  3 eigenvalues not converged
     ethr =  1.00E-05,  avg # of iterations = 28.2

[...]

     total energy              =   -2225.11557208 Ry
     estimated scf accuracy    <    8520.65117046 Ry

     iteration #  2     ecut=    29.40 Ry     beta= 0.05
     Davidson diagonalization with overlap
     ethr =  1.00E-02,  avg # of iterations = 26.0

[...]

     iteration # 52     ecut=    29.40 Ry     beta= 0.05
     Davidson diagonalization with overlap
     c_bands:  1 eigenvalues not converged
     ethr =  1.10E-07,  avg # of iterations = 14.4

[...]

     total energy              =   -2976.49314491 Ry
     estimated scf accuracy    <       0.00000008 Ry

     iteration # 72     ecut=    29.40 Ry     beta= 0.05
     Davidson diagonalization with overlap
     ethr =  2.07E-11,  avg # of iterations =  7.3

     negative rho (up, down):  1.567E-02 0.000E+00

     Adding external electric field

     Computed dipole along edir(3) :
        Dipole                1.5039 Ry au,          3.8225 Debye
        Dipole field          0.0028 Ry au,

        Potential amp.       -0.2631 Ry
        Total length         46.3494 bohr

     End of self-consistent calculation

          k = 0.0000 0.0000 0.0000 ( 18029 PWs)   bands (ev):

   -55.2966 -55.1722 -55.1382 -55.0026 -54.9931 -54.9888 -54.9678 -54.9595
   -54.9295 -54.8809 -54.8485 -54.8123 -54.7918 -54.7507 -54.1360 -54.1020
   -31.6549 -31.6240 -31.5430 -31.4944 -31.4922 -31.4875 -31.4644 -31.4453
   -31.4179 -31.4136 -31.3687 -31.3345 -31.3245 -31.2769 -31.2644 -31.2570
   -31.2502 -31.2296 -31.2142 -31.1971 -31.1835 -31.1811 -31.1708 -31.1672
   -31.1483 -31.1254 -31.1229 -31.1195 -31.1096 -31.1018 -31.0959 -31.0755
   -31.0683 -31.0535 -31.0363 -31.0239 -31.0219 -31.0101 -31.0070 -31.0065
   -30.9803 -30.9409 -30.5418 -30.4564 -30.4339 -30.3593 -30.2729 -30.1612
   -18.8956 -16.0431 -15.8048 -15.6537 -15.4853 -15.3400 -15.2537 -15.0541
   -14.9383 -14.8975 -14.8810 -14.8067 -14.7042 -14.7034 -14.6597 -14.6325
   -14.6285 -14.5998 -14.5879 -14.5860 -14.5675 -14.5194 -14.5043 -14.4594
   -14.4532 -14.4141 -14.3015 -14.2322 -14.1876 -14.1151 -13.9994 -13.0920
   -12.6350 -12.5189 -10.8124  -7.5988  -6.2553  -5.5864  -3.7461  -3.6377
    -3.4435  -3.1652  -3.0989  -3.0701  -3.0432  -2.8900  -2.7646  -2.5843
    -2.4761  -2.4299  -2.3117  -2.2943  -2.2130  -2.1641  -2.1198  -2.0718
    -2.0416  -1.9765  -1.9590  -1.9545  -1.9266  -1.8597  -1.8321  -1.7167
    -1.6876  -1.6238  -1.5667  -1.4976  -1.4803  -1.4738  -1.4667  -1.4556
    -1.4268  -1.4116  -1.3803  -1.3405  -1.2602  -1.2063  -1.1987  -1.1599
    -1.0757  -0.8903  -0.7668  -0.7430  -0.6848  -0.6412  -0.5898  -0.5779
    -0.5542  -0.5157  -0.4100  -0.3970  -0.3332  -0.3044  -0.2410  -0.1908
    -0.1632  -0.1002  -0.0380   0.0489   0.0695   0.0880   0.1295   0.1760
     0.2479   0.2838   0.3231   0.3530   0.4415   0.4951   0.5553   0.5620
     0.5941   0.6665   0.7231   0.7704   0.7910   0.8103   0.8613   0.8776
     0.9205   0.9758   1.0161   1.0314   1.1024   1.1611   1.2087   1.2414
     1.3393   1.3533   1.5144   1.5696   1.8374   1.8898   1.9575   2.0834
     2.4563   2.5011   3.9362   4.0568   4.0679   4.0904   4.1692   4.2321
     4.3998   4.4064   4.5184   4.6184

[...]

          k = 0.0380-0.0419 0.0000 ( 17876 PWs)   bands (ev):

[...]

          k =-0.0760-0.0000 0.0000 ( 17886 PWs)   bands (ev):

[...]

          k =-0.0760-0.0839 0.0000 ( 17948 PWs)   bands (ev):

   -55.2959 -55.1557 -55.1546 -54.9893 -54.9865 -54.9837 -54.9770 -54.9752
   -54.9228 -54.8877 -54.8383 -54.8225 -54.7847 -54.7576 -54.1194 -54.1185
   -31.5572 -31.5344 -31.4888 -31.4706 -31.4698 -31.4504 -31.4493 -31.4119
   -31.3129 -31.3061 -31.3002 -31.2990 -31.2938 -31.2753 -31.2742 -31.2654
   -31.2653 -31.2443 -31.2433 -31.2137 -31.2005 -31.1966 -31.1953 -31.1894
   -31.1749 -31.1648 -31.1564 -31.1514 -31.1487 -31.1438 -31.1396 -31.1203
   -31.1089 -31.0871 -31.0733 -31.0659 -31.0319 -31.0290 -31.0177 -31.0145
   -31.0101 -30.9930 -30.4470 -30.4463 -30.3552 -30.3541 -30.3165 -30.3158
   -18.8915 -16.0087 -15.3722 -15.1685 -15.1058 -15.0818 -15.0674 -15.0301
   -15.0050 -14.9504 -14.9316 -14.8736 -14.8430 -14.8300 -14.7585 -14.7427
   -14.6872 -14.6579 -14.6454 -14.6057 -14.6010 -14.5788 -14.5465 -14.5379
   -14.4726 -14.4587 -14.4552 -14.3636 -14.3535 -14.2327 -14.1862 -13.1029
   -12.6211 -12.6204 -10.8145  -7.6096  -6.2413  -5.5762  -3.6906  -3.6521
    -3.4007  -2.5843  -2.4485  -2.4397  -2.3008  -2.2881  -2.1923  -2.1452
    -2.0923  -2.0738  -2.0516  -2.0327  -2.0019  -1.9688  -1.9525  -1.9453
    -1.9172  -1.8950  -1.8700  -1.8641  -1.8283  -1.8235  -1.8021  -1.7789
    -1.7687  -1.7339  -1.7203  -1.7162  -1.7019  -1.6492  -1.6298  -1.4668
    -1.4366  -1.3455  -1.3118  -1.2888  -1.2794  -1.2537  -1.2363  -1.2156
    -1.1605  -1.1075  -1.0465  -0.9201  -0.8749  -0.8104  -0.7746  -0.6974
    -0.6559  -0.6223  -0.5943  -0.5707  -0.5383  -0.4809  -0.4033  -0.3488
    -0.3027  -0.2612  -0.1635  -0.1445  -0.1220  -0.1106  -0.0769  -0.0180
    -0.0113   0.0448   0.0637   0.1264   0.1418   0.1574   0.1753   0.2583
     0.3532   0.4334   0.4575   0.5485   0.5665   0.6565   0.7032   0.8035
     0.9148   0.9609   1.0008   1.0107   1.0936   1.0997   1.1560   1.1788
     1.2618   1.3499   1.4145   1.4226   1.4425   1.4965   2.2527   2.2613
     2.3213   2.3216   4.1864   4.3496   4.4301   4.4409   4.4729   4.4843
     4.5173   4.5197   4.6054   4.6166

     the Fermi energy is     3.9554 ev

!    total energy              =   -2976.49316196 Ry
     estimated scf accuracy    <       0.00000004 Ry
     smearing contrib. (-TS)   =      -0.02056495 Ry
     internal energy E=F+TS    =   -2976.47259702 Ry

     The total energy is F=E-TS. E is the sum of the following terms:
     one-electron contribution =  -23617.17189325 Ry
     hartree contribution      =   11908.32662083 Ry
     xc contribution           =    -495.77256004 Ry
     ewald contribution        =    9228.14096729 Ry
     electric field correction =       0.00426817 Ry

     convergence has been achieved in  72 iterations

     Forces acting on atoms (cartesian axes, Ry/au):

     atom    1 type  1   force =     0.00014341   -0.00012994    0.09533462
     atom    2 type  1   force =    -0.00002702    0.00040122   -0.17476954
     atom    3 type  2   force =     0.00004072   -0.00017998   -0.02256389
     atom    4 type  2   force =     0.00001481   -0.00200556    0.05320747
     atom    5 type  2   force =    -0.00814107   -0.00302578    0.00228184
     atom    6 type  2   force =     0.00923755   -0.00232115    0.00057652
     atom    7 type  1   force =    -0.00079060   -0.00509066    0.00570629
     atom    8 type  1   force =     0.00083650    0.00657523    0.01468256
     atom    9 type  2   force =     0.00011525    0.00043098    0.00075104
     atom   10 type  2   force =    -0.00346529    0.00091945   -0.01234155
     atom   11 type  2   force =    -0.00001253   -0.00055891    0.00028738
     atom   12 type  2   force =     0.00007267   -0.00043120    0.00023974
     atom   13 type  1   force =     0.00093498    0.00087630    0.00009099
     atom   14 type  1   force =    -0.00019632    0.00011939   -0.00041111
     atom   15 type  2   force =     0.00013078   -0.00080423   -0.00067907
     atom   16 type  2   force =     0.00013044   -0.00013254    0.00090028
     atom   17 type  2   force =     0.00001377    0.00011098   -0.00007809
     atom   18 type  2   force =    -0.00022391    0.00015082   -0.00021811
     atom   19 type  1   force =     0.00007523   -0.00021054    0.00008248
     atom   20 type  1   force =     0.00013133   -0.00000691   -0.00043164
     atom   21 type  2   force =     0.00009330   -0.00000008    0.10301050
     atom   22 type  2   force =     0.00014504    0.00032905    0.00082695
     atom   23 type  2   force =    -0.07211486   -0.00021988   -0.02757607
     atom   24 type  2   force =     0.07207048    0.00026643   -0.02759686
     atom   25 type  1   force =     0.00016050   -0.00029018    0.09518492
     atom   26 type  1   force =     0.00001122   -0.00123813   -0.17525090
     atom   27 type  2   force =    -0.00000394    0.00008306   -0.02153527
     atom   28 type  2   force =     0.00005418   -0.00043696    0.04878476
     atom   29 type  2   force =    -0.00786321    0.00198245    0.00252413
     atom   30 type  2   force =     0.00888905    0.00234142    0.00070275
     atom   31 type  1   force =    -0.00069421    0.00834148   -0.00446189
     atom   32 type  1   force =     0.00106141   -0.00752324    0.01446311
     atom   33 type  2   force =     0.00012522    0.00023048    0.00000360
     atom   34 type  2   force =    -0.00269922   -0.00027645   -0.01821410
     atom   35 type  2   force =    -0.00056223    0.00026798    0.00008923
     atom   36 type  2   force =     0.00072686    0.00039632    0.00024277
     atom   37 type  1   force =     0.00018076   -0.00037506    0.00022271
     atom   38 type  1   force =    -0.00006314   -0.00006998   -0.00073226
     atom   39 type  2   force =     0.00027830    0.00033227   -0.00007063
     atom   40 type  2   force =     0.00023567    0.00001493    0.00065730
     atom   41 type  2   force =    -0.00012652   -0.00033445    0.00000737
     atom   42 type  2   force =     0.00038012   -0.00015463    0.00050082
     atom   43 type  1   force =    -0.00012783    0.00043116   -0.00038727
     atom   44 type  1   force =     0.00030663   -0.00016897   -0.00026193
     atom   45 type  2   force =     0.00008930   -0.00009814    0.10282689
     atom   46 type  2   force =    -0.07216070   -0.00004040   -0.02760470
     atom   47 type  2   force =     0.07210583    0.00035769   -0.02761073
     atom   48 type  3   force =    -0.00773122    0.00148758    0.00473271
     atom   49 type  3   force =    -0.00189092    0.00078183   -0.00008796
     atom   50 type  4   force =     0.00072126    0.00064199    0.00008463
     atom   51 type  5   force =     0.00021258    0.00030958   -0.00039658
     atom   52 type  5   force =    -0.00025207   -0.00020466   -0.00051830
     atom   53 type  5   force =     0.00044445    0.00015744   -0.00026382
     atom   54 type  5   force =    -0.00050919   -0.00043743    0.00030964
     atom   55 type  5   force =    -0.00033132   -0.00022091   -0.00018525
     atom   56 type  5   force =     0.00929415   -0.00132723   -0.00507304
     atom   57 type  2   force =     0.00018921   -0.00056090   -0.00009933
     atom   58 type  5   force =     0.00033437    0.00053757    0.00010389

     Total force =     0.363804     Total SCF correction =     0.000518
  @ DRIVER MODE: Message from server: STATUS
  @ DRIVER MODE: Message from server: GETFORCE
  @ DRIVER MODE: Returning v,forces,stress,ensemble

     Writing output data file ./calc.save/
  @ DRIVER MODE: Message from server: EXIT
  @ DRIVE MODE: Exiting

     General routines

     Parallel routines

   This run was terminated on:   8:36: 6  24Sep2021

   JOB DONE.