     Program PWSCF v.6.7GPU starts on 15Sep2021 at 23:53:34

     R & G space division:  proc/nbgrp/npool/nimage =      10
     Reading input from /storage/home/hcoda1/3/ntian30/research/carbon/CxH_vib/H2O_calc/ads_slab/CH3NHH2O_a/out_0026/pw.inp
Warning: card &CELL ignored
Warning: card   CELL_DYNAMICS='IPI', ignored
Warning: card / ignored

     Current dimensions of program PWSCF are:
     Max number of different atomic species (ntypx) = 10
     Max number of k-points (npk) =  40000
     Max angular momentum in pseudopotentials (lmaxx) =  3
     Presently no symmetry can be used with electric field

     Message from routine cell_base_init:
     DEPRECATED: use true lattice parameter, not A to a.u. conversion factor

     IMPORTANT: XC functional enforced from input :
     Exchange-correlation= BEEF-VDW
                           (   1   4  43  14   2   0   0)
     Any further DFT definition will be discarded
     Please, verify this is what you really want

  @ DRIVER MODE: Connecting to
 qe_1139763_2852633.sched-torque.pace.gatech.eduj0x_yomt_scratch
  using UNIX socket
  @ DRIVER MODE: Message from server: STATUS
  @ DRIVER MODE: Message from server: INIT
  @ DRIVER MODE: Receiving replica           0          -1
  @ DRIVER MODE: Receiving encoded integer          25
  @ DRIVER MODE:  SCF:  T  FORCE:  T  STRESS:  F  VC:  F  ENSEMBLE:  F
  @ DRIVER MODE:  SCF:  T  FORCE:  T  STRESS:  F  VC:  F  ENSEMBLE:  F

     Using Slab Decomposition

     bravais-lattice index     =            0
     lattice parameter (alat)  =       1.8897  a.u.
     unit-cell volume          =    6658.9804 (a.u.)^3
     number of atoms/cell      =           56
     number of atomic types    =            5
     number of electrons       =       399.00
     number of Kohn-Sham states=          209
     kinetic-energy cutoff     =      29.3995  Ry
     charge density cutoff     =     293.9946  Ry
     scf convergence threshold =      7.3E-08
     mixing beta               =       0.0500
     number of iterations used =            8  plain     mixing
     Exchange-correlation= BEEF-VDW
                           (   1   4  43  14   2   0   0)

     celldm(1)=   1.889726  celldm(2)=   0.000000  celldm(3)=   0.000000
     celldm(4)=   0.000000  celldm(5)=   0.000000  celldm(6)=   0.000000

     crystal axes: (cart. coord. in units of alat)
               a(1) = (   6.579727   0.000000   0.000000 )
               a(2) = (  -0.000775   5.961596   0.000000 )
               a(3) = (   0.000000   0.000000  25.155947 )

     reciprocal axes: (cart. coord. in units 2 pi/alat)
               b(1) = (  0.151982  0.000020  0.000000 )
               b(2) = (  0.000000  0.167740  0.000000 )
               b(3) = (  0.000000  0.000000  0.039752 )

     PseudoPot. # 1 for Ti read from file:
     /storage/coda1/p-amedford6/0/shared/rich_project_chbe-medford/medford-share/data/pseudos_module/espresso/nninc/pbe/van/Ti.UPF
     MD5 check sum: 8e4df49b7f0d34bbd5052bf3f5ea0213
     Pseudo is Ultrasoft, Zval = 12.0
     Generated by new atomic code, or converted to UPF format
     Using radial grid of  851 points,  6 beta functions with:
                l(1) =   0
                l(2) =   0
                l(3) =   1
                l(4) =   1
                l(5) =   2
                l(6) =   2
     Q(r) pseudized with  8 coefficients,  rinner =    1.000   1.000   1.000
                                                       1.000   1.000

     PseudoPot. # 2 for O  read from file:
     /storage/coda1/p-amedford6/0/shared/rich_project_chbe-medford/medford-share/data/pseudos_module/espresso/nninc/pbe/van/O.UPF
     MD5 check sum: 78c19812648e8988a0fe644b0f25305e
     Pseudo is Ultrasoft, Zval =  6.0
     Generated by new atomic code, or converted to UPF format
     Using radial grid of  737 points,  4 beta functions with:
                l(1) =   0
                l(2) =   0
                l(3) =   1
                l(4) =   1
     Q(r) pseudized with  8 coefficients,  rinner =    0.800   0.800   0.800

     PseudoPot. # 3 for H  read from file:
     /storage/coda1/p-amedford6/0/shared/rich_project_chbe-medford/medford-share/data/pseudos_module/espresso/nninc/pbe/van/H.UPF
     MD5 check sum: b5ee9d7bfd3a09ee7748110bda690ff7
     Pseudo is Ultrasoft, Zval =  1.0
     Generated by new atomic code, or converted to UPF format
     Using radial grid of  615 points,  1 beta functions with:
                l(1) =   0
     Q(r) pseudized with  8 coefficients,  rinner =    0.800

     PseudoPot. # 4 for N  read from file:
     /storage/coda1/p-amedford6/0/shared/rich_project_chbe-medford/medford-share/data/pseudos_module/espresso/nninc/pbe/van/N.UPF
     MD5 check sum: 90d10febe142ad51ac9d5be1deb811c4
     Pseudo is Ultrasoft, Zval =  5.0
     Generated by new atomic code, or converted to UPF format
     Using radial grid of  729 points,  4 beta functions with:
                l(1) =   0
                l(2) =   0
                l(3) =   1
                l(4) =   1
     Q(r) pseudized with  8 coefficients,  rinner =    0.800   0.800   0.800

     PseudoPot. # 5 for C  read from file:
     /storage/coda1/p-amedford6/0/shared/rich_project_chbe-medford/medford-share/data/pseudos_module/espresso/nninc/pbe/van/C.UPF
     MD5 check sum: 1a69bf6b8db32088f5b2163dbdb77a27
     Pseudo is Ultrasoft, Zval =  4.0
     Generated by new atomic code, or converted to UPF format
     Using radial grid of  721 points,  4 beta functions with:
                l(1) =   0
                l(2) =   0
                l(3) =   1
                l(4) =   1
     Q(r) pseudized with  8 coefficients,  rinner =    0.800   0.800   0.800

     atomic species   valence    mass     pseudopotential
        Ti1           12.00    47.86700     Ti( 1.00)
        O1             6.00    15.99900     O ( 1.00)
        H1             1.00     1.00800     H ( 1.00)
        N1             5.00    14.00700     N ( 1.00)
        C1             4.00    12.01100     C ( 1.00)

     No symmetry found

   Cartesian axes

     site n.     atom                  positions (alat units)
         1           Ti1 tau(   1) = (   0.0004258   2.9801865   6.0000000  )
         2           Ti1 tau(   2) = (   3.2906075   1.4906267   6.0002472  )
         3           O1  tau(   3) = (   0.0006271   0.0005054   7.9858123  )
         4           O1  tau(   4) = (   3.2906025   0.0005020   7.3038282  )
         5           O1  tau(   5) = (   4.5942328   1.4918067   9.2879030  )
         6           O1  tau(   6) = (   1.9868534   1.4903216   9.2879459  )
         7           Ti1 tau(   7) = (   3.2907910   2.8959150   9.1758416  )
         8           Ti1 tau(   8) = (   0.0015273   1.4827037   9.2680791  )
         9           O1  tau(   9) = (   3.2896571   0.0076959  11.3233140  )
        10           O1  tau(  10) = (   0.0116148   5.9584955  10.6183126  )
        11           O1  tau(  11) = (   1.3168077   1.5009220  12.6157425  )
        12           O1  tau(  12) = (   5.2956243   1.4929856  12.6075824  )
        13           Ti1 tau(  13) = (   6.5239244   2.9540340  12.6210794  )
        14           Ti1 tau(  14) = (   3.2085880   1.4976218  12.4699624  )
        15           O1  tau(  15) = (   6.5712616   0.0419518  14.6436513  )
        16           O1  tau(  16) = (   3.3111435   0.0202601  13.9161875  )
        17           O1  tau(  17) = (   4.5291760   1.5523016  16.0784362  )
        18           O1  tau(  18) = (   2.0445308   1.5488630  16.0432715  )
        19           Ti1 tau(  19) = (   3.3059752   3.0257308  15.6838679  )
        20           Ti1 tau(  20) = (   0.0592185   1.5662548  15.8694889  )
        21           O1  tau(  21) = (   3.2904802   0.0005063   4.7018136  )
        22           O1  tau(  22) = (   0.0264932   0.0561689  17.2024660  )
        23           O1  tau(  23) = (   1.3043587   1.4918075   6.0039043  )
        24           O1  tau(  24) = (   5.2767064   1.4903225   6.0039473  )
        25           Ti1 tau(  25) = (   0.0000382   5.9609847   6.0000000  )
        26           Ti1 tau(  26) = (   3.2902200   4.4714249   6.0002472  )
        27           O1  tau(  27) = (   0.0002396   2.9813036   7.9858123  )
        28           O1  tau(  28) = (   3.2902150   2.9813002   7.3038282  )
        29           O1  tau(  29) = (   4.5938453   4.4726049   9.2879030  )
        30           O1  tau(  30) = (   1.9864658   4.4711199   9.2879459  )
        31           Ti1 tau(  31) = (   3.2891106   5.8743827   9.1763621  )
        32           Ti1 tau(  32) = (   0.0006254   4.4649316   9.2693709  )
        33           O1  tau(  33) = (   3.2898653   2.9926188  11.3210358  )
        34           O1  tau(  34) = (   0.0092240   2.9805883  10.6323155  )
        35           O1  tau(  35) = (   1.3106253   4.4883450  12.6271249  )
        36           O1  tau(  36) = (   5.2968722   4.4793810  12.6200386  )
        37           Ti1 tau(  37) = (   6.5212985   5.9329073  12.5685303  )
        38           Ti1 tau(  38) = (   3.2059443   4.4781599  12.4721232  )
        39           O1  tau(  39) = (   6.5764971   2.9600267  14.6431433  )
        40           O1  tau(  40) = (   3.3056941   3.0038382  13.8936370  )
        41           O1  tau(  41) = (   4.5394310   4.5052612  16.0827012  )
        42           O1  tau(  42) = (   2.0570581   4.5113261  16.0718816  )
        43           Ti1 tau(  43) = (   3.3383738   0.0382055  15.7109988  )
        44           Ti1 tau(  44) = (   0.0469139   4.6840235  16.0886640  )
        45           O1  tau(  45) = (   3.2900926   2.9813045   4.7018136  )
        46           O1  tau(  46) = (   1.3039711   4.4726057   6.0039043  )
        47           O1  tau(  47) = (   5.2763189   4.4711207   6.0039473  )
        48           H1  tau(  48) = (   5.6101632   2.9904038  17.7880820  )
        49           N1  tau(  49) = (   6.5649722   3.0046358  17.4438072  )
        50           C1  tau(  50) = (   0.8874553   2.9889031  18.6120612  )
        51           H1  tau(  51) = (   1.3591778   3.9628686  18.7739097  )
        52           H1  tau(  52) = (   0.3410755   2.7322232  19.5165709  )
        53           H1  tau(  53) = (   1.6717793   2.2402645  18.4914768  )
        54           O1  tau(  54) = (   3.2567199   5.9268012  21.6217354  )
        55           H1  tau(  55) = (   4.0245811   5.9269051  22.2091127  )
        56           H1  tau(  56) = (   2.4887544   5.9269923  22.2092946  )

     number of k points=    10  Fermi-Dirac smearing, width (Ry)=  0.0073
                       cart. coord. in units 2pi/alat
        k(    1) = (   0.0000000   0.0000000   0.0000000), wk =   0.1250000
        k(    2) = (   0.0000000   0.0419351   0.0000000), wk =   0.2500000
        k(    3) = (   0.0000000  -0.0838702   0.0000000), wk =   0.1250000
        k(    4) = (   0.0379955   0.0000049   0.0000000), wk =   0.2500000
        k(    5) = (   0.0379955   0.0419400   0.0000000), wk =   0.2500000
        k(    6) = (   0.0379955  -0.0838652   0.0000000), wk =   0.2500000
        k(    7) = (   0.0379955  -0.0419301   0.0000000), wk =   0.2500000
        k(    8) = (  -0.0759910  -0.0000099   0.0000000), wk =   0.1250000
        k(    9) = (  -0.0759910   0.0419252   0.0000000), wk =   0.2500000
        k(   10) = (  -0.0759910  -0.0838800   0.0000000), wk =   0.1250000

     Initial potential from superposition of free atoms

     starting charge  382.99914, renormalised to  399.00000

     negative rho (up, down):  9.626E-03 0.000E+00

     %%%%%%%%%%%%%%%%%%%%%%%%%%%%%%%%%%%%%%%%%%%%%%%%%%%%%%%%%%%%%%%%%%%%%%%%
     %                                                                      %
     % You are using vdW-DF, which was implemented by the Thonhauser group. %
     % Please cite the following two papers that made this development      %
     % possible and the two reviews that describe the various versions:     %
     %                                                                      %
     %   T. Thonhauser et al., PRL 115, 136402 (2015).                      %
     %   T. Thonhauser et al., PRB 76, 125112 (2007).                       %
     %   K. Berland et al., Rep. Prog. Phys. 78, 066501 (2015).             %
     %   D.C. Langreth et al., J. Phys.: Condens. Matter 21, 084203 (2009). %
     %                                                                      %
     %                                                                      %
     % If you are calculating the stress with vdW-DF, please also cite:     %
     %                                                                      %
     %   R. Sabatini et al., J. Phys.: Condens. Matter 24, 424209 (2012).   %
     %                                                                      %
     %%%%%%%%%%%%%%%%%%%%%%%%%%%%%%%%%%%%%%%%%%%%%%%%%%%%%%%%%%%%%%%%%%%%%%%%

     Adding external electric field

     Computed dipole along edir(3) :
        Dipole              -12.5493 Ry au,        -31.8972 Debye
        Dipole field         -0.0237 Ry au,

        Potential amp.        2.1953 Ry
        Total length         46.3494 bohr

     Starting wfcs are  302 atomic wfcs
  @ DRIVER MODE: Message from server: STATUS
  @ DRIVER MODE: Message from server: POSDATA
  @ DRIVER MODE: Reading and sharing cell
  @ DRIVER MODE: Reading and sharing positions
  @ DRIVER MODE: Received positions

     Self-consistent Calculation

     iteration #  1     ecut=    29.40 Ry     beta= 0.05
     Davidson diagonalization with overlap
     c_bands:  2 eigenvalues not converged
     c_bands:  2 eigenvalues not converged
     c_bands:  4 eigenvalues not converged
     c_bands:  3 eigenvalues not converged
     c_bands:  3 eigenvalues not converged
     c_bands:  3 eigenvalues not converged
     c_bands:  5 eigenvalues not converged
     c_bands:  4 eigenvalues not converged
     c_bands:  5 eigenvalues not converged
     ethr =  1.00E-05,  avg # of iterations = 22.0

[...]

     total energy              =   -2445.24708203 Ry
     estimated scf accuracy    <    5721.85928676 Ry

     iteration #  2     ecut=    29.40 Ry     beta= 0.05
     Davidson diagonalization with overlap
     ethr =  1.00E-02,  avg # of iterations = 22.1

[...]

     iteration # 72     ecut=    29.40 Ry     beta= 0.05
     Davidson diagonalization with overlap
     c_bands:  1 eigenvalues not converged
     ethr =  4.44E-11,  avg # of iterations = 13.8

[...]

     total energy              =   -2955.21563718 Ry
     estimated scf accuracy    <       0.00000011 Ry

     iteration # 77     ecut=    29.40 Ry     beta= 0.05
     Davidson diagonalization with overlap
     ethr =  2.68E-11,  avg # of iterations =  5.0

     negative rho (up, down):  1.111E-02 0.000E+00

     Adding external electric field

     Computed dipole along edir(3) :
        Dipole                1.3282 Ry au,          3.3759 Debye
        Dipole field          0.0025 Ry au,

        Potential amp.       -0.2323 Ry
        Total length         46.3494 bohr

     End of self-consistent calculation

          k = 0.0000 0.0000 0.0000 ( 18029 PWs)   bands (ev):

   -55.4954 -55.4866 -55.4614 -55.4505 -55.4058 -55.3368 -55.3337 -55.2997
   -55.2991 -55.2657 -55.2576 -55.2239 -55.0709 -54.7884 -54.4671 -54.4331
   -32.0449 -31.9767 -31.8505 -31.8355 -31.8147 -31.7991 -31.7886 -31.7487
   -31.7368 -31.7365 -31.7099 -31.7022 -31.6690 -31.6475 -31.6390 -31.6359
   -31.6287 -31.5987 -31.5770 -31.5526 -31.5451 -31.5405 -31.5247 -31.5038
   -31.4942 -31.4893 -31.4858 -31.4776 -31.4608 -31.4583 -31.4533 -31.4491
   -31.4352 -31.4299 -31.4110 -31.4066 -31.3704 -31.3349 -31.2403 -31.0624
   -31.0563 -30.9872 -30.8739 -30.7863 -30.7638 -30.6907 -30.6042 -30.4932
   -18.5823 -16.2536 -15.9717 -15.7918 -15.6492 -15.6170 -15.5289 -15.3310
   -15.2054 -15.1901 -15.0858 -15.0537 -15.0291 -15.0224 -14.9939 -14.9904
   -14.9353 -14.9279 -14.9190 -14.9060 -14.8470 -14.8231 -14.7828 -14.6916
   -14.6676 -14.6521 -14.6246 -14.5422 -14.5366 -14.0941 -13.6302 -12.9695
   -12.8533  -8.4875  -6.3856  -3.9237  -3.6240  -3.4502  -3.4117  -3.3973
    -3.3468  -3.0965  -3.0788  -2.8442  -2.7109  -2.6938  -2.6793  -2.6657
    -2.6490  -2.6301  -2.4163  -2.3934  -2.3258  -2.3097  -2.2878  -2.2796
    -2.2733  -2.2638  -2.2600  -2.2155  -2.1598  -2.0460  -2.0285  -1.9223
    -1.8787  -1.8519  -1.8044  -1.7600  -1.7539  -1.7431  -1.7238  -1.7115
    -1.6900  -1.6723  -1.5372  -1.4745  -1.3423  -1.2961  -1.2885  -1.0946
    -1.0571  -0.9643  -0.9378  -0.9212  -0.9131  -0.8809  -0.7991  -0.7068
    -0.6537  -0.6420  -0.5877  -0.5088  -0.4949  -0.4002  -0.3863  -0.3804
    -0.3303  -0.2639  -0.2541  -0.2451  -0.1998  -0.1340  -0.0563   0.0194
     0.0719   0.0932   0.1196   0.1987   0.2277   0.3226   0.3432   0.3882
     0.3955   0.4418   0.4838   0.4925   0.4981   0.5139   0.5332   0.6812
     0.7891   0.8444   0.8769   0.8883   1.0458   1.0817   1.1696   1.2565
     1.4821   1.5549   1.6494   1.7481   1.8040   2.1256   2.1709   3.6479
     3.7271   3.7809   3.7900   3.8856   3.8929   4.0976   4.1068   4.1178
     4.1898

[...]

          k = 0.0380-0.0419 0.0000 ( 17876 PWs)   bands (ev):

[...]

          k =-0.0760-0.0000 0.0000 ( 17886 PWs)   bands (ev):

[...]

          k =-0.0760-0.0839 0.0000 ( 17948 PWs)   bands (ev):

   -55.4787 -55.4780 -55.4687 -55.4682 -55.4011 -55.3414 -55.3185 -55.3143
   -55.2834 -55.2816 -55.2412 -55.2405 -55.0699 -54.7893 -54.4501 -54.4499
   -31.8492 -31.8473 -31.7923 -31.7918 -31.7824 -31.7743 -31.7735 -31.7580
   -31.6987 -31.6965 -31.6899 -31.6862 -31.6650 -31.6325 -31.6157 -31.6124
   -31.6041 -31.6001 -31.5981 -31.5974 -31.5946 -31.5816 -31.5793 -31.5470
   -31.5370 -31.5357 -31.5108 -31.4966 -31.4797 -31.4793 -31.4739 -31.4734
   -31.4565 -31.4564 -31.4559 -31.4524 -31.4033 -31.3376 -31.2355 -31.1254
   -31.0586 -31.0121 -30.7766 -30.7765 -30.6868 -30.6866 -30.6475 -30.6475
   -18.5822 -15.7047 -15.6725 -15.4341 -15.4282 -15.4183 -15.4036 -15.2620
   -15.2074 -15.1986 -15.1918 -15.1660 -15.1444 -15.0922 -15.0652 -15.0275
   -15.0217 -15.0163 -15.0135 -14.9514 -14.9455 -14.9243 -14.9170 -14.8030
   -14.8002 -14.7990 -14.7274 -14.6581 -14.5227 -14.2627 -13.6517 -12.9553
   -12.9549  -8.4912  -6.3871  -3.9355  -2.9983  -2.9608  -2.8137  -2.7139
    -2.6749  -2.6610  -2.6437  -2.5652  -2.4134  -2.4052  -2.3892  -2.3722
    -2.3576  -2.3205  -2.3139  -2.3014  -2.2888  -2.2814  -2.2633  -2.2274
    -2.1886  -2.1605  -2.1530  -2.1436  -2.1190  -2.1068  -2.0815  -2.0759
    -2.0415  -2.0330  -2.0169  -1.9931  -1.7349  -1.7125  -1.6942  -1.6238
    -1.6166  -1.5843  -1.5757  -1.5562  -1.5431  -1.4909  -1.3919  -1.2252
    -1.1919  -1.1865  -1.1654  -1.1003  -1.0788  -0.9294  -0.9021  -0.8828
    -0.8452  -0.7963  -0.7637  -0.7248  -0.6890  -0.6532  -0.5911  -0.5830
    -0.5031  -0.4544  -0.4533  -0.4283  -0.4191  -0.3571  -0.2781  -0.2594
    -0.2485  -0.2069  -0.1940  -0.1125  -0.0900   0.0080   0.0222   0.0861
     0.1211   0.1914   0.3842   0.4900   0.5492   0.5746   0.6281   0.7233
     0.7771   0.7909   0.8253   0.8305   0.8914   0.9328   1.0472   1.0542
     1.1218   1.2240   1.7499   1.9193   1.9201   1.9906   1.9909   3.9091
     3.9156   3.9666   3.9953   4.1478   4.1525   4.1751   4.1760   4.2958
     4.3145

     the Fermi energy is     3.6409 ev

!    total energy              =   -2955.21564648 Ry
     estimated scf accuracy    <       0.00000003 Ry
     smearing contrib. (-TS)   =      -0.02205129 Ry
     internal energy E=F+TS    =   -2955.19359519 Ry

     The total energy is F=E-TS. E is the sum of the following terms:
     one-electron contribution =  -23379.99210185 Ry
     hartree contribution      =   11781.90266356 Ry
     xc contribution           =    -489.68257042 Ry
     ewald contribution        =    9132.57508440 Ry
     electric field correction =       0.00332912 Ry

     convergence has been achieved in  77 iterations

     Forces acting on atoms (cartesian axes, Ry/au):

     atom    1 type  1   force =     0.00011873   -0.00019624    0.09688407
     atom    2 type  1   force =     0.00003707   -0.00046191   -0.17495322
     atom    3 type  2   force =     0.00013026    0.00001561   -0.02540030
     atom    4 type  2   force =    -0.00002930   -0.00126849    0.05224221
     atom    5 type  2   force =    -0.01216063    0.00000676    0.00288244
     atom    6 type  2   force =     0.01360522    0.00054734    0.00225648
     atom    7 type  1   force =     0.00060086    0.00031486   -0.01254500
     atom    8 type  1   force =     0.00044779    0.00706473    0.03084521
     atom    9 type  2   force =     0.00032606    0.00016101    0.00044358
     atom   10 type  2   force =    -0.00271361    0.00207707   -0.01689024
     atom   11 type  2   force =     0.00017995   -0.00035921    0.00013596
     atom   12 type  2   force =     0.00005780   -0.00035574    0.00023369
     atom   13 type  1   force =    -0.00018531    0.00036067   -0.00003312
     atom   14 type  1   force =    -0.00012433    0.00033391   -0.00035194
     atom   15 type  2   force =    -0.00003204   -0.00030693   -0.00000694
     atom   16 type  2   force =     0.00014778    0.00038054    0.00128423
     atom   17 type  2   force =    -0.00026895   -0.00036517    0.00028876
     atom   18 type  2   force =     0.00033986   -0.00035897    0.00001571
     atom   19 type  1   force =     0.00018870   -0.00039486    0.00043156
     atom   20 type  1   force =    -0.00044269    0.00020086    0.00028974
     atom   21 type  2   force =     0.00005971   -0.00002158    0.10304312
     atom   22 type  2   force =     0.00016917   -0.00081659    0.00028227
     atom   23 type  2   force =    -0.07166238   -0.00015678   -0.02782637
     atom   24 type  2   force =     0.07156002    0.00034137   -0.02788210
     atom   25 type  1   force =     0.00008772   -0.00016930    0.09666110
     atom   26 type  1   force =     0.00009295   -0.00025258   -0.17506209
     atom   27 type  2   force =     0.00011904   -0.00010752   -0.02446450
     atom   28 type  2   force =     0.00003929   -0.00101461    0.05207811
     atom   29 type  2   force =    -0.01235403    0.00066903    0.00265028
     atom   30 type  2   force =     0.01367192    0.00105627    0.00203168
     atom   31 type  1   force =     0.00049742    0.00306781   -0.01334616
     atom   32 type  1   force =     0.00030898   -0.00927340    0.03127681
     atom   33 type  2   force =    -0.00012627    0.00016448    0.00077862
     atom   34 type  2   force =    -0.00202516    0.00179149   -0.02551295
     atom   35 type  2   force =     0.00026951    0.00018837    0.00036431
     atom   36 type  2   force =     0.00021341    0.00010024    0.00035178
     atom   37 type  1   force =    -0.00025953   -0.00064198    0.00014344
     atom   38 type  1   force =    -0.00008399    0.00002830   -0.00021874
     atom   39 type  2   force =     0.00005322   -0.00079516    0.00035482
     atom   40 type  2   force =     0.00025078    0.00003489   -0.00010252
     atom   41 type  2   force =    -0.00038616    0.00009766   -0.00005146
     atom   42 type  2   force =     0.00036090   -0.00009910   -0.00034417
     atom   43 type  1   force =    -0.00034269    0.00050442   -0.00072072
     atom   44 type  1   force =    -0.00040640   -0.00055440    0.00121675
     atom   45 type  2   force =     0.00004096   -0.00004640    0.10308959
     atom   46 type  2   force =    -0.07165745   -0.00005866   -0.02782228
     atom   47 type  2   force =     0.07157532    0.00035987   -0.02788911
     atom   48 type  3   force =     0.00015847   -0.00046239    0.00017497
     atom   49 type  4   force =    -0.00027137   -0.00061719    0.00074218
     atom   50 type  5   force =     0.00424049    0.00110811   -0.00343366
     atom   51 type  3   force =    -0.00023976   -0.00030070    0.00003309
     atom   52 type  3   force =    -0.00440737   -0.00200700    0.00362623
     atom   53 type  3   force =     0.00073914    0.00054677   -0.00068553
     atom   54 type  2   force =    -0.00067560   -0.00006053   -0.00036394
     atom   55 type  3   force =    -0.00058115   -0.00001885   -0.00046179
     atom   56 type  3   force =     0.00074766    0.00001977   -0.00076393

     Total force =     0.368355     Total SCF correction =     0.000488
  @ DRIVER MODE: Message from server: STATUS
  @ DRIVER MODE: Message from server: GETFORCE
  @ DRIVER MODE: Returning v,forces,stress,ensemble

     Writing output data file ./calc.save/
  @ DRIVER MODE: Message from server: EXIT
  @ DRIVE MODE: Exiting

     General routines

     Parallel routines

   This run was terminated on:   0:13:19  16Sep2021

   JOB DONE.