     Program PWSCF v.6.7GPU starts on 24Sep2021 at  2:45:56

     R & G space division:  proc/nbgrp/npool/nimage =       8
     Reading input from /storage/home/hcoda1/3/ntian30/research/carbon/CxH_vib/H2O_calc/ads_slab/CH2ON2HO_b/out_0036/pw.inp
Warning: card &CELL ignored
Warning: card   CELL_DYNAMICS='IPI', ignored
Warning: card / ignored

     Current dimensions of program PWSCF are:
     Max number of different atomic species (ntypx) = 10
     Max number of k-points (npk) =  40000
     Max angular momentum in pseudopotentials (lmaxx) =  3
     Presently no symmetry can be used with electric field

     Message from routine cell_base_init:
     DEPRECATED: use true lattice parameter, not A to a.u. conversion factor

     IMPORTANT: XC functional enforced from input :
     Exchange-correlation= BEEF-VDW
                           (   1   4  43  14   2   0   0)
     Any further DFT definition will be discarded
     Please, verify this is what you really want

  @ DRIVER MODE: Connecting to
 qe_1139763_2947315.sched-torque.pace.gatech.eduzc6yak4h_scratch
  using UNIX socket
  @ DRIVER MODE: Message from server: STATUS
  @ DRIVER MODE: Message from server: INIT
  @ DRIVER MODE: Receiving replica           0          -1
  @ DRIVER MODE: Receiving encoded integer          25
  @ DRIVER MODE:  SCF:  T  FORCE:  T  STRESS:  F  VC:  F  ENSEMBLE:  F
  @ DRIVER MODE:  SCF:  T  FORCE:  T  STRESS:  F  VC:  F  ENSEMBLE:  F

     Using Slab Decomposition

     bravais-lattice index     =            0
     lattice parameter (alat)  =       1.8897  a.u.
     unit-cell volume          =    6658.9804 (a.u.)^3
     number of atoms/cell      =           55
     number of atomic types    =            5
     number of electrons       =       407.00
     number of Kohn-Sham states=          213
     kinetic-energy cutoff     =      29.3995  Ry
     charge density cutoff     =     293.9946  Ry
     scf convergence threshold =      7.3E-08
     mixing beta               =       0.0500
     number of iterations used =            8  plain     mixing
     Exchange-correlation= BEEF-VDW
                           (   1   4  43  14   2   0   0)

     celldm(1)=   1.889726  celldm(2)=   0.000000  celldm(3)=   0.000000
     celldm(4)=   0.000000  celldm(5)=   0.000000  celldm(6)=   0.000000

     crystal axes: (cart. coord. in units of alat)
               a(1) = (   6.579727   0.000000   0.000000 )
               a(2) = (  -0.000775   5.961596   0.000000 )
               a(3) = (   0.000000   0.000000  25.155947 )

     reciprocal axes: (cart. coord. in units 2 pi/alat)
               b(1) = (  0.151982  0.000020  0.000000 )
               b(2) = (  0.000000  0.167740  0.000000 )
               b(3) = (  0.000000  0.000000  0.039752 )

     PseudoPot. # 1 for C  read from file:
     /storage/coda1/p-amedford6/0/shared/rich_project_chbe-medford/medford-share/data/pseudos_module/espresso/nninc/pbe/van/C.UPF
     MD5 check sum: 1a69bf6b8db32088f5b2163dbdb77a27
     Pseudo is Ultrasoft, Zval =  4.0
     Generated by new atomic code, or converted to UPF format
     Using radial grid of  721 points,  4 beta functions with:
                l(1) =   0
                l(2) =   0
                l(3) =   1
                l(4) =   1
     Q(r) pseudized with  8 coefficients,  rinner =    0.800   0.800   0.800

     PseudoPot. # 2 for H  read from file:
     /storage/coda1/p-amedford6/0/shared/rich_project_chbe-medford/medford-share/data/pseudos_module/espresso/nninc/pbe/van/H.UPF
     MD5 check sum: b5ee9d7bfd3a09ee7748110bda690ff7
     Pseudo is Ultrasoft, Zval =  1.0
     Generated by new atomic code, or converted to UPF format
     Using radial grid of  615 points,  1 beta functions with:
                l(1) =   0
     Q(r) pseudized with  8 coefficients,  rinner =    0.800

     PseudoPot. # 3 for O  read from file:
     /storage/coda1/p-amedford6/0/shared/rich_project_chbe-medford/medford-share/data/pseudos_module/espresso/nninc/pbe/van/O.UPF
     MD5 check sum: 78c19812648e8988a0fe644b0f25305e
     Pseudo is Ultrasoft, Zval =  6.0
     Generated by new atomic code, or converted to UPF format
     Using radial grid of  737 points,  4 beta functions with:
                l(1) =   0
                l(2) =   0
                l(3) =   1
                l(4) =   1
     Q(r) pseudized with  8 coefficients,  rinner =    0.800   0.800   0.800

     PseudoPot. # 4 for Ti read from file:
     /storage/coda1/p-amedford6/0/shared/rich_project_chbe-medford/medford-share/data/pseudos_module/espresso/nninc/pbe/van/Ti.UPF
     MD5 check sum: 8e4df49b7f0d34bbd5052bf3f5ea0213
     Pseudo is Ultrasoft, Zval = 12.0
     Generated by new atomic code, or converted to UPF format
     Using radial grid of  851 points,  6 beta functions with:
                l(1) =   0
                l(2) =   0
                l(3) =   1
                l(4) =   1
                l(5) =   2
                l(6) =   2
     Q(r) pseudized with  8 coefficients,  rinner =    1.000   1.000   1.000
                                                       1.000   1.000

     PseudoPot. # 5 for N  read from file:
     /storage/coda1/p-amedford6/0/shared/rich_project_chbe-medford/medford-share/data/pseudos_module/espresso/nninc/pbe/van/N.UPF
     MD5 check sum: 90d10febe142ad51ac9d5be1deb811c4
     Pseudo is Ultrasoft, Zval =  5.0
     Generated by new atomic code, or converted to UPF format
     Using radial grid of  729 points,  4 beta functions with:
                l(1) =   0
                l(2) =   0
                l(3) =   1
                l(4) =   1
     Q(r) pseudized with  8 coefficients,  rinner =    0.800   0.800   0.800

     atomic species   valence    mass     pseudopotential
        C1             4.00    12.01100     C ( 1.00)
        H1             1.00     1.00800     H ( 1.00)
        O1             6.00    15.99900     O ( 1.00)
        Ti1           12.00    47.86700     Ti( 1.00)
        N1             5.00    14.00700     N ( 1.00)

     No symmetry found

   Cartesian axes

     site n.     atom                  positions (alat units)
         1           C1  tau(   1) = (   6.3959394   2.9948767  18.7016815  )
         2           H1  tau(   2) = (   6.3118651   3.9496324  19.2181435  )
         3           H1  tau(   3) = (   6.2946090   2.0524817  19.2375006  )
         4           O1  tau(   4) = (   3.2904802   0.0005063   4.7018136  )
         5           O1  tau(   5) = (   3.2900926   2.9813045   4.7018136  )
         6           O1  tau(   6) = (   1.3043587   1.4918075   6.0039043  )
         7           O1  tau(   7) = (   1.3039711   4.4726057   6.0039043  )
         8           O1  tau(   8) = (   5.2767064   1.4903225   6.0039473  )
         9           O1  tau(   9) = (   5.2763189   4.4711207   6.0039473  )
        10           O1  tau(  10) = (   3.2906025   0.0005020   7.3038282  )
        11           O1  tau(  11) = (   3.2902150   2.9813002   7.3038282  )
        12           O1  tau(  12) = (   0.0006271   0.0005054   7.9858123  )
        13           O1  tau(  13) = (   0.0002396   2.9813036   7.9858123  )
        14           O1  tau(  14) = (   4.5942328   1.4918067   9.2879030  )
        15           O1  tau(  15) = (   4.5938453   4.4726049   9.2879030  )
        16           O1  tau(  16) = (   1.9868534   1.4903216   9.2879459  )
        17           O1  tau(  17) = (   1.9864658   4.4711199   9.2879459  )
        18           O1  tau(  18) = (   0.0129981   2.9922367  10.5657274  )
        19           O1  tau(  19) = (   0.0144279   0.0091559  10.5889743  )
        20           O1  tau(  20) = (   3.3117767   2.9674386  11.3102582  )
        21           O1  tau(  21) = (   3.3129298   0.0243810  11.3450129  )
        22           O1  tau(  22) = (   5.3345884   1.4970258  12.6342112  )
        23           O1  tau(  23) = (   5.3394917   4.4808886  12.6396439  )
        24           O1  tau(  24) = (   1.3039726   1.5040805  12.6380785  )
        25           O1  tau(  25) = (   1.3005587   4.4728597  12.6427203  )
        26           O1  tau(  26) = (   3.3397831   2.9746101  13.9049785  )
        27           O1  tau(  27) = (   3.3223070   5.9049495  13.9699414  )
        28           O1  tau(  28) = (   0.0408547   5.9558716  14.6791314  )
        29           O1  tau(  29) = (   0.0240783   2.9814708  14.7219997  )
        30           O1  tau(  30) = (   4.6055448   4.4181431  16.1204950  )
        31           O1  tau(  31) = (   4.6084482   1.5084077  16.0967128  )
        32           O1  tau(  32) = (   2.0524258   4.3896087  16.0537013  )
        33           O1  tau(  33) = (   2.0565100   1.5382275  16.0573534  )
        34           O1  tau(  34) = (   0.0881354   5.9599038  17.1931241  )
        35           O1  tau(  35) = (   0.0264254   2.9794292  17.4619454  )
        36           Ti1 tau(  36) = (   0.0004258   2.9801865   6.0000000  )
        37           Ti1 tau(  37) = (   0.0000382   5.9609847   6.0000000  )
        38           Ti1 tau(  38) = (   3.2906075   1.4906267   6.0002472  )
        39           Ti1 tau(  39) = (   3.2902200   4.4714249   6.0002472  )
        40           Ti1 tau(  40) = (   3.3176177   0.0844252   9.1703869  )
        41           Ti1 tau(  41) = (   3.3271239   3.0668301   9.1994626  )
        42           Ti1 tau(  42) = (   0.0459265   4.5214211   9.2633915  )
        43           Ti1 tau(  43) = (   0.0410032   1.6055327   9.3499854  )
        44           Ti1 tau(  44) = (   3.3214603   4.6642404  12.6916750  )
        45           Ti1 tau(  45) = (   3.3199143   1.5801738  12.4350604  )
        46           Ti1 tau(  46) = (   0.0219714   0.0386744  12.4748393  )
        47           Ti1 tau(  47) = (   0.0368166   3.0234317  12.7766128  )
        48           Ti1 tau(  48) = (   3.3281430   2.9430002  15.6816790  )
        49           Ti1 tau(  49) = (   3.4175200   5.9218210  16.2589141  )
        50           Ti1 tau(  50) = (   0.0864224   1.3736379  15.9343534  )
        51           Ti1 tau(  51) = (   0.1056494   4.5744356  15.9464672  )
        52           N1  tau(  52) = (   3.6299987   3.2157240  20.3374172  )
        53           N1  tau(  53) = (   2.7220030   2.6454082  20.0795964  )
        54           O1  tau(  54) = (   3.1925635   5.9265077  18.0938652  )
        55           H1  tau(  55) = (   2.2801939   0.0950383  18.3989923  )

     number of k points=    10  Fermi-Dirac smearing, width (Ry)=  0.0073
                       cart. coord. in units 2pi/alat
        k(    1) = (   0.0000000   0.0000000   0.0000000), wk =   0.1250000
        k(    2) = (   0.0000000   0.0419351   0.0000000), wk =   0.2500000
        k(    3) = (   0.0000000  -0.0838702   0.0000000), wk =   0.1250000
        k(    4) = (   0.0379955   0.0000049   0.0000000), wk =   0.2500000
        k(    5) = (   0.0379955   0.0419400   0.0000000), wk =   0.2500000
        k(    6) = (   0.0379955  -0.0838652   0.0000000), wk =   0.2500000
        k(    7) = (   0.0379955  -0.0419301   0.0000000), wk =   0.2500000
        k(    8) = (  -0.0759910  -0.0000099   0.0000000), wk =   0.1250000
        k(    9) = (  -0.0759910   0.0419252   0.0000000), wk =   0.2500000
        k(   10) = (  -0.0759910  -0.0838800   0.0000000), wk =   0.1250000

     Initial potential from superposition of free atoms

     starting charge  390.99916, renormalised to  407.00000

     negative rho (up, down):  1.487E-02 0.000E+00

     %%%%%%%%%%%%%%%%%%%%%%%%%%%%%%%%%%%%%%%%%%%%%%%%%%%%%%%%%%%%%%%%%%%%%%%%
     %                                                                      %
     % You are using vdW-DF, which was implemented by the Thonhauser group. %
     % Please cite the following two papers that made this development      %
     % possible and the two reviews that describe the various versions:     %
     %                                                                      %
     %   T. Thonhauser et al., PRL 115, 136402 (2015).                      %
     %   T. Thonhauser et al., PRB 76, 125112 (2007).                       %
     %   K. Berland et al., Rep. Prog. Phys. 78, 066501 (2015).             %
     %   D.C. Langreth et al., J. Phys.: Condens. Matter 21, 084203 (2009). %
     %                                                                      %
     %                                                                      %
     % If you are calculating the stress with vdW-DF, please also cite:     %
     %                                                                      %
     %   R. Sabatini et al., J. Phys.: Condens. Matter 24, 424209 (2012).   %
     %                                                                      %
     %%%%%%%%%%%%%%%%%%%%%%%%%%%%%%%%%%%%%%%%%%%%%%%%%%%%%%%%%%%%%%%%%%%%%%%%

     Adding external electric field

     Computed dipole along edir(3) :
        Dipole              -15.3825 Ry au,        -39.0985 Debye
        Dipole field         -0.0290 Ry au,

        Potential amp.        2.6909 Ry
        Total length         46.3494 bohr

     Starting wfcs are  307 atomic wfcs
  @ DRIVER MODE: Message from server: STATUS
  @ DRIVER MODE: Message from server: POSDATA
  @ DRIVER MODE: Reading and sharing cell
  @ DRIVER MODE: Reading and sharing positions
  @ DRIVER MODE: Received positions

     Self-consistent Calculation

     iteration #  1     ecut=    29.40 Ry     beta= 0.05
     Davidson diagonalization with overlap
     c_bands:  1 eigenvalues not converged
     c_bands:  1 eigenvalues not converged
     c_bands:  1 eigenvalues not converged
     c_bands:  1 eigenvalues not converged
     c_bands:  3 eigenvalues not converged
     ethr =  1.00E-05,  avg # of iterations = 34.7

[...]

     total energy              =   -2231.68320465 Ry
     estimated scf accuracy    <    8832.11891770 Ry

     iteration #  2     ecut=    29.40 Ry     beta= 0.05
     Davidson diagonalization with overlap
     ethr =  1.00E-02,  avg # of iterations = 31.2

[...]

     iteration # 51     ecut=    29.40 Ry     beta= 0.05
     Davidson diagonalization with overlap
     c_bands:  2 eigenvalues not converged
     ethr =  2.12E-06,  avg # of iterations =  9.2

[...]

     total energy              =   -3003.97508362 Ry
     estimated scf accuracy    <       0.00000022 Ry

     iteration # 76     ecut=    29.40 Ry     beta= 0.05
     Davidson diagonalization with overlap
     ethr =  5.44E-11,  avg # of iterations =  6.2

     negative rho (up, down):  1.525E-02 0.000E+00

     Adding external electric field

     Computed dipole along edir(3) :
        Dipole                0.9046 Ry au,          2.2994 Debye
        Dipole field          0.0017 Ry au,

        Potential amp.       -0.1583 Ry
        Total length         46.3494 bohr

     End of self-consistent calculation

          k = 0.0000 0.0000 0.0000 ( 18029 PWs)   bands (ev):

   -55.6597 -55.6170 -55.5431 -55.4570 -55.4225 -55.4112 -55.3987 -55.3606
   -55.3055 -55.2723 -55.2670 -55.2341 -55.1910 -55.0989 -54.5083 -54.4743
   -32.1113 -32.0100 -31.9541 -31.9266 -31.9135 -31.8720 -31.8652 -31.8220
   -31.8178 -31.7604 -31.7556 -31.7428 -31.7343 -31.7275 -31.7228 -31.7002
   -31.6792 -31.6741 -31.6334 -31.6225 -31.6099 -31.5987 -31.5964 -31.5949
   -31.5582 -31.5530 -31.5140 -31.5094 -31.5068 -31.4967 -31.4956 -31.4876
   -31.4628 -31.4608 -31.4336 -31.4310 -31.4285 -31.3836 -31.3835 -31.3460
   -31.3072 -31.3040 -30.9110 -30.8345 -30.8112 -30.7279 -30.6419 -30.5307
   -21.1755 -20.0501 -16.3322 -16.1560 -15.9890 -15.8009 -15.7017 -15.6396
   -15.4328 -15.3739 -15.2972 -15.1416 -15.1142 -15.0779 -15.0488 -15.0274
   -15.0186 -14.9944 -14.9848 -14.9441 -14.9202 -14.9166 -14.8715 -14.8078
   -14.7625 -14.7532 -14.7088 -14.6506 -14.6044 -14.5921 -14.5341 -14.3447
   -13.0089 -12.8951  -9.2709  -6.3919  -5.5859  -5.5525  -4.3177  -4.3007
    -3.9024  -3.5541  -3.5133  -3.4686  -3.3855  -3.3637  -3.2347  -3.0703
    -3.0603  -2.8881  -2.7582  -2.6857  -2.6519  -2.6168  -2.5015  -2.4538
    -2.4272  -2.3895  -2.3578  -2.3333  -2.2942  -2.2767  -2.2427  -2.1977
    -2.1687  -2.0782  -2.0744  -2.0279  -1.9473  -1.9117  -1.9054  -1.9020
    -1.8803  -1.8345  -1.7947  -1.7492  -1.7218  -1.6714  -1.5650  -1.5454
    -1.5401  -1.4716  -1.2275  -1.0915  -1.0635  -0.9902  -0.9541  -0.9367
    -0.8982  -0.8929  -0.8784  -0.8428  -0.8146  -0.6956  -0.6332  -0.5721
    -0.5666  -0.5453  -0.5014  -0.4005  -0.3393  -0.3048  -0.2609  -0.2470
    -0.1771  -0.1598  -0.0795  -0.0461   0.0218   0.1268   0.1709   0.2004
     0.2199   0.2342   0.2837   0.3385   0.3920   0.4239   0.4356   0.4647
     0.5347   0.5583   0.5715   0.5982   0.6856   0.7512   0.7688   0.8299
     0.9132   0.9398   1.0362   1.1659   1.2393   1.4877   1.5139   1.5957
     1.7280   2.0760   2.1216   3.5550   3.6328   3.6629   3.7470   3.8088
     3.8368   3.9204   4.0047   4.0916   4.1255

[...]

          k = 0.0380-0.0419 0.0000 ( 17876 PWs)   bands (ev):

[...]

          k =-0.0760-0.0000 0.0000 ( 17886 PWs)   bands (ev):

[...]

          k =-0.0760-0.0839 0.0000 ( 17948 PWs)   bands (ev):

   -55.6513 -55.6253 -55.5422 -55.4451 -55.4342 -55.4043 -55.3963 -55.3674
   -55.3062 -55.2700 -55.2606 -55.2449 -55.1879 -55.1018 -54.4918 -54.4906
   -31.9487 -31.9374 -31.9213 -31.9153 -31.9082 -31.8125 -31.7956 -31.7776
   -31.7619 -31.7590 -31.7586 -31.7469 -31.7393 -31.6966 -31.6963 -31.6743
   -31.6586 -31.6513 -31.6391 -31.6300 -31.6245 -31.6214 -31.6093 -31.5940
   -31.5875 -31.5856 -31.5721 -31.5589 -31.5537 -31.5433 -31.5033 -31.4984
   -31.4922 -31.4749 -31.4699 -31.4654 -31.4516 -31.4483 -31.4181 -31.3864
   -31.3494 -31.3075 -30.8246 -30.8234 -30.7254 -30.7235 -30.6852 -30.6838
   -21.1753 -20.0445 -16.3027 -15.6723 -15.6110 -15.4660 -15.4448 -15.3868
   -15.3565 -15.2804 -15.2370 -15.2274 -15.1990 -15.1805 -15.1549 -15.1370
   -15.0979 -15.0763 -15.0259 -15.0200 -14.9695 -14.9648 -14.9559 -14.9323
   -14.8840 -14.8303 -14.8232 -14.8206 -14.7578 -14.7498 -14.6517 -14.4790
   -12.9987 -12.9963  -9.2792  -6.3896  -5.5747  -5.5069  -4.3256  -4.3007
    -3.8610  -3.6237  -3.0527  -2.9007  -2.8267  -2.6861  -2.5982  -2.5380
    -2.5264  -2.5055  -2.4691  -2.3966  -2.3856  -2.3312  -2.3270  -2.3197
    -2.3086  -2.2898  -2.2458  -2.2233  -2.2079  -2.1985  -2.1728  -2.1496
    -2.1357  -2.1232  -2.1153  -2.1033  -2.0902  -2.0466  -1.9814  -1.9146
    -1.8790  -1.8640  -1.7218  -1.7086  -1.6415  -1.6266  -1.6165  -1.5904
    -1.5827  -1.5041  -1.4532  -1.3101  -1.2870  -1.2535  -1.1948  -1.1509
    -1.0677  -1.0612  -1.0349  -0.9764  -0.9565  -0.9264  -0.9109  -0.8147
    -0.7368  -0.6920  -0.6546  -0.5410  -0.5237  -0.5088  -0.4478  -0.4215
    -0.4136  -0.3994  -0.3546  -0.2827  -0.2360  -0.2145  -0.1774  -0.1658
    -0.1028  -0.0550   0.0152   0.0852   0.1677   0.1872   0.2935   0.3677
     0.4152   0.5284   0.5856   0.6141   0.6453   0.7182   0.7668   0.7806
     0.8789   0.9378   0.9577   1.0263   1.0549   1.0956   1.1301   1.8849
     1.8979   1.9309   1.9430   3.5067   4.0424   4.0525   4.0662   4.0885
     4.1122   4.1359   4.2116   4.2511   4.2668

     the Fermi energy is     3.4962 ev

!    total energy              =   -3003.97510154 Ry
     estimated scf accuracy    <       0.00000006 Ry
     smearing contrib. (-TS)   =      -0.01900881 Ry
     internal energy E=F+TS    =   -3003.95609273 Ry

     The total energy is F=E-TS. E is the sum of the following terms:
     one-electron contribution =  -23045.08487958 Ry
     hartree contribution      =   11619.64906364 Ry
     xc contribution           =    -499.47026293 Ry
     ewald contribution        =    8920.94844172 Ry
     electric field correction =       0.00154441 Ry

     convergence has been achieved in  76 iterations

     Forces acting on atoms (cartesian axes, Ry/au):

     atom    1 type  1   force =    -0.00032789   -0.00002954    0.00060875
     atom    2 type  2   force =    -0.00046357   -0.00007863   -0.00023299
     atom    3 type  2   force =    -0.00053206    0.00006326   -0.00027713
     atom    4 type  3   force =    -0.00006377    0.00012032    0.10174698
     atom    5 type  3   force =    -0.00006330    0.00014566    0.10141388
     atom    6 type  3   force =    -0.07459094    0.00082530   -0.03021837
     atom    7 type  3   force =    -0.07405937   -0.00148799   -0.03020638
     atom    8 type  3   force =     0.07427045    0.00138504   -0.03027089
     atom    9 type  3   force =     0.07391226   -0.00108814   -0.03031395
     atom   10 type  3   force =     0.00081914    0.00107177    0.04837646
     atom   11 type  3   force =     0.00087670    0.00075633    0.05013542
     atom   12 type  3   force =     0.00040548   -0.00629209   -0.03719070
     atom   13 type  3   force =     0.00063893    0.00422353   -0.03092952
     atom   14 type  3   force =    -0.01075371   -0.00220009    0.00091908
     atom   15 type  3   force =    -0.01063175    0.00460304    0.00172634
     atom   16 type  3   force =     0.01296636   -0.00502456    0.00201772
     atom   17 type  3   force =     0.01232821    0.00211908    0.00233671
     atom   18 type  3   force =    -0.00037408    0.00005472    0.00008066
     atom   19 type  3   force =    -0.00020684    0.00027466    0.00002053
     atom   20 type  3   force =     0.00003276   -0.00076609    0.00008317
     atom   21 type  3   force =    -0.00022253   -0.00040213    0.00001439
     atom   22 type  3   force =     0.00025269   -0.00047096   -0.00004371
     atom   23 type  3   force =     0.00005832    0.00035341    0.00060465
     atom   24 type  3   force =    -0.00047464   -0.00034492   -0.00035305
     atom   25 type  3   force =    -0.00015275    0.00043835    0.00015161
     atom   26 type  3   force =    -0.00040228   -0.00025027   -0.00029738
     atom   27 type  3   force =    -0.00010936    0.00014350    0.00011952
     atom   28 type  3   force =     0.00047206    0.00009118    0.00007792
     atom   29 type  3   force =    -0.00011825   -0.00023634    0.00016092
     atom   30 type  3   force =    -0.00049792   -0.00008234   -0.00045717
     atom   31 type  3   force =    -0.00047698    0.00003850   -0.00021341
     atom   32 type  3   force =    -0.00021243    0.00032326   -0.00002081
     atom   33 type  3   force =    -0.00041488   -0.00015799    0.00007735
     atom   34 type  3   force =    -0.00066745   -0.00023715   -0.00039675
     atom   35 type  3   force =    -0.00022494   -0.00010583    0.00041731
     atom   36 type  4   force =    -0.00033186   -0.00159787    0.10366463
     atom   37 type  4   force =    -0.00011375    0.00148424    0.11778924
     atom   38 type  4   force =    -0.00038157    0.00606503   -0.16919396
     atom   39 type  4   force =    -0.00011159   -0.00504602   -0.16943207
     atom   40 type  4   force =     0.00030752    0.00008395   -0.00054594
     atom   41 type  4   force =     0.00004164   -0.00019392   -0.00019920
     atom   42 type  4   force =    -0.00016969    0.00082805   -0.00000720
     atom   43 type  4   force =    -0.00018828   -0.00054003   -0.00001266
     atom   44 type  4   force =    -0.00007191   -0.00024604    0.00028657
     atom   45 type  4   force =     0.00000672   -0.00018913   -0.00109919
     atom   46 type  4   force =    -0.00034125    0.00031377    0.00057500
     atom   47 type  4   force =    -0.00078518    0.00066231   -0.00002115
     atom   48 type  4   force =     0.00049885   -0.00022050    0.00004127
     atom   49 type  4   force =     0.00077520    0.00010609   -0.00039094
     atom   50 type  4   force =     0.00038035    0.00008726   -0.00030566
     atom   51 type  4   force =     0.00017311   -0.00018609   -0.00047329
     atom   52 type  5   force =     0.01011692    0.00617877    0.00265819
     atom   53 type  5   force =    -0.01064107   -0.00623269   -0.00302485
     atom   54 type  3   force =    -0.00111965    0.00091597    0.00013931
     atom   55 type  2   force =     0.00096382   -0.00004900   -0.00011524

     Total force =     0.369528     Total SCF correction =     0.000904
  @ DRIVER MODE: Message from server: STATUS
  @ DRIVER MODE: Message from server: GETFORCE
  @ DRIVER MODE: Returning v,forces,stress,ensemble

     Writing output data file ./calc.save/
  @ DRIVER MODE: Message from server: EXIT
  @ DRIVE MODE: Exiting

     General routines

     Parallel routines

   This run was terminated on:   3:14: 8  24Sep2021

   JOB DONE.