     Program PWSCF v.6.7GPU starts on 23Sep2021 at  5:36:36

     R & G space division:  proc/nbgrp/npool/nimage =      10
     Reading input from /storage/home/hcoda1/3/ntian30/research/carbon/CxH_vib/H2O_calc/ads_slab/CH2NHNHH2O_b/out_0038/pw.inp
Warning: card &CELL ignored
Warning: card   CELL_DYNAMICS='IPI', ignored
Warning: card / ignored

     Current dimensions of program PWSCF are:
     Max number of different atomic species (ntypx) = 10
     Max number of k-points (npk) =  40000
     Max angular momentum in pseudopotentials (lmaxx) =  3
     Presently no symmetry can be used with electric field

     Message from routine cell_base_init:
     DEPRECATED: use true lattice parameter, not A to a.u. conversion factor

     IMPORTANT: XC functional enforced from input :
     Exchange-correlation= BEEF-VDW
                           (   1   4  43  14   2   0   0)
     Any further DFT definition will be discarded
     Please, verify this is what you really want

  @ DRIVER MODE: Connecting to
 qe_1139763_2937310.sched-torque.pace.gatech.eduhy4cf0xv_scratch
  using UNIX socket
  @ DRIVER MODE: Message from server: STATUS
  @ DRIVER MODE: Message from server: INIT
  @ DRIVER MODE: Receiving replica           0          -1
  @ DRIVER MODE: Receiving encoded integer          25
  @ DRIVER MODE:  SCF:  T  FORCE:  T  STRESS:  F  VC:  F  ENSEMBLE:  F
  @ DRIVER MODE:  SCF:  T  FORCE:  T  STRESS:  F  VC:  F  ENSEMBLE:  F

     Using Slab Decomposition

     bravais-lattice index     =            0
     lattice parameter (alat)  =       1.8897  a.u.
     unit-cell volume          =    6658.9804 (a.u.)^3
     number of atoms/cell      =           57
     number of atomic types    =            5
     number of electrons       =       404.00
     number of Kohn-Sham states=          212
     kinetic-energy cutoff     =      29.3995  Ry
     charge density cutoff     =     293.9946  Ry
     scf convergence threshold =      7.3E-08
     mixing beta               =       0.0500
     number of iterations used =            8  plain     mixing
     Exchange-correlation= BEEF-VDW
                           (   1   4  43  14   2   0   0)

     celldm(1)=   1.889726  celldm(2)=   0.000000  celldm(3)=   0.000000
     celldm(4)=   0.000000  celldm(5)=   0.000000  celldm(6)=   0.000000

     crystal axes: (cart. coord. in units of alat)
               a(1) = (   6.579727   0.000000   0.000000 )
               a(2) = (  -0.000775   5.961596   0.000000 )
               a(3) = (   0.000000   0.000000  25.155947 )

     reciprocal axes: (cart. coord. in units 2 pi/alat)
               b(1) = (  0.151982  0.000020  0.000000 )
               b(2) = (  0.000000  0.167740  0.000000 )
               b(3) = (  0.000000  0.000000  0.039752 )

     PseudoPot. # 1 for Ti read from file:
     /storage/coda1/p-amedford6/0/shared/rich_project_chbe-medford/medford-share/data/pseudos_module/espresso/nninc/pbe/van/Ti.UPF
     MD5 check sum: 8e4df49b7f0d34bbd5052bf3f5ea0213
     Pseudo is Ultrasoft, Zval = 12.0
     Generated by new atomic code, or converted to UPF format
     Using radial grid of  851 points,  6 beta functions with:
                l(1) =   0
                l(2) =   0
                l(3) =   1
                l(4) =   1
                l(5) =   2
                l(6) =   2
     Q(r) pseudized with  8 coefficients,  rinner =    1.000   1.000   1.000
                                                       1.000   1.000

     PseudoPot. # 2 for O  read from file:
     /storage/coda1/p-amedford6/0/shared/rich_project_chbe-medford/medford-share/data/pseudos_module/espresso/nninc/pbe/van/O.UPF
     MD5 check sum: 78c19812648e8988a0fe644b0f25305e
     Pseudo is Ultrasoft, Zval =  6.0
     Generated by new atomic code, or converted to UPF format
     Using radial grid of  737 points,  4 beta functions with:
                l(1) =   0
                l(2) =   0
                l(3) =   1
                l(4) =   1
     Q(r) pseudized with  8 coefficients,  rinner =    0.800   0.800   0.800

     PseudoPot. # 3 for N  read from file:
     /storage/coda1/p-amedford6/0/shared/rich_project_chbe-medford/medford-share/data/pseudos_module/espresso/nninc/pbe/van/N.UPF
     MD5 check sum: 90d10febe142ad51ac9d5be1deb811c4
     Pseudo is Ultrasoft, Zval =  5.0
     Generated by new atomic code, or converted to UPF format
     Using radial grid of  729 points,  4 beta functions with:
                l(1) =   0
                l(2) =   0
                l(3) =   1
                l(4) =   1
     Q(r) pseudized with  8 coefficients,  rinner =    0.800   0.800   0.800

     PseudoPot. # 4 for C  read from file:
     /storage/coda1/p-amedford6/0/shared/rich_project_chbe-medford/medford-share/data/pseudos_module/espresso/nninc/pbe/van/C.UPF
     MD5 check sum: 1a69bf6b8db32088f5b2163dbdb77a27
     Pseudo is Ultrasoft, Zval =  4.0
     Generated by new atomic code, or converted to UPF format
     Using radial grid of  721 points,  4 beta functions with:
                l(1) =   0
                l(2) =   0
                l(3) =   1
                l(4) =   1
     Q(r) pseudized with  8 coefficients,  rinner =    0.800   0.800   0.800

     PseudoPot. # 5 for H  read from file:
     /storage/coda1/p-amedford6/0/shared/rich_project_chbe-medford/medford-share/data/pseudos_module/espresso/nninc/pbe/van/H.UPF
     MD5 check sum: b5ee9d7bfd3a09ee7748110bda690ff7
     Pseudo is Ultrasoft, Zval =  1.0
     Generated by new atomic code, or converted to UPF format
     Using radial grid of  615 points,  1 beta functions with:
                l(1) =   0
     Q(r) pseudized with  8 coefficients,  rinner =    0.800

     atomic species   valence    mass     pseudopotential
        Ti1           12.00    47.86700     Ti( 1.00)
        O1             6.00    15.99900     O ( 1.00)
        N1             5.00    14.00700     N ( 1.00)
        C1             4.00    12.01100     C ( 1.00)
        H1             1.00     1.00800     H ( 1.00)

     No symmetry found

   Cartesian axes

     site n.     atom                  positions (alat units)
         1           Ti1 tau(   1) = (   0.0004258   2.9801865   6.0000000  )
         2           Ti1 tau(   2) = (   3.2906075   1.4906267   6.0002472  )
         3           O1  tau(   3) = (   0.0006271   0.0005054   7.9858123  )
         4           O1  tau(   4) = (   3.2906025   0.0005020   7.3038282  )
         5           O1  tau(   5) = (   4.5942328   1.4918067   9.2879030  )
         6           O1  tau(   6) = (   1.9868534   1.4903216   9.2879459  )
         7           Ti1 tau(   7) = (   3.2907910   2.8959150   9.1758416  )
         8           Ti1 tau(   8) = (   0.0015273   1.4827037   9.2680791  )
         9           O1  tau(   9) = (   3.2740695   5.9399032  11.3612631  )
        10           O1  tau(  10) = (   0.0116148   5.9584955  10.6183126  )
        11           O1  tau(  11) = (   1.2665466   1.4659349  12.6457467  )
        12           O1  tau(  12) = (   5.2636777   1.4644475  12.6520517  )
        13           Ti1 tau(  13) = (   0.0254019   2.9535957  12.5508080  )
        14           Ti1 tau(  14) = (   3.3235577   1.4585364  12.5144190  )
        15           O1  tau(  15) = (   0.0066209   5.9388471  14.7046414  )
        16           O1  tau(  16) = (   3.2471877   5.9405099  14.0100224  )
        17           O1  tau(  17) = (   4.5302733   1.5208160  16.0462967  )
        18           O1  tau(  18) = (   1.9955500   1.4995475  16.2009832  )
        19           Ti1 tau(  19) = (   3.2567830   2.9699832  15.6929747  )
        20           Ti1 tau(  20) = (   6.4949666   1.4732860  15.8443191  )
        21           O1  tau(  21) = (   3.2904802   0.0005063   4.7018136  )
        22           O1  tau(  22) = (   6.4419287   5.8812218  17.2824568  )
        23           O1  tau(  23) = (   1.3043587   1.4918075   6.0039043  )
        24           O1  tau(  24) = (   5.2767064   1.4903225   6.0039473  )
        25           Ti1 tau(  25) = (   0.0000382   5.9609847   6.0000000  )
        26           Ti1 tau(  26) = (   3.2902200   4.4714249   6.0002472  )
        27           O1  tau(  27) = (   0.0002396   2.9813036   7.9858123  )
        28           O1  tau(  28) = (   3.2902150   2.9813002   7.3038282  )
        29           O1  tau(  29) = (   4.5938453   4.4726049   9.2879030  )
        30           O1  tau(  30) = (   1.9864658   4.4711199   9.2879459  )
        31           Ti1 tau(  31) = (   3.2891106   5.8743827   9.1763621  )
        32           Ti1 tau(  32) = (   0.0006254   4.4649316   9.2693709  )
        33           O1  tau(  33) = (   3.2800166   2.9600013  11.3546200  )
        34           O1  tau(  34) = (   0.0092240   2.9805883  10.6323155  )
        35           O1  tau(  35) = (   1.2663080   4.4508225  12.6496728  )
        36           O1  tau(  36) = (   5.2650692   4.4524444  12.6537221  )
        37           Ti1 tau(  37) = (   0.0180281   5.9297397  12.5120547  )
        38           Ti1 tau(  38) = (   3.3242103   4.4456960  12.5094407  )
        39           O1  tau(  39) = (   0.0028395   2.9305241  14.7702868  )
        40           O1  tau(  40) = (   3.2369197   2.9632653  13.9133312  )
        41           O1  tau(  41) = (   4.5259019   4.3784886  16.1008109  )
        42           O1  tau(  42) = (   2.0017919   4.4285960  16.1845674  )
        43           Ti1 tau(  43) = (   3.2453488   5.9423767  15.8283900  )
        44           Ti1 tau(  44) = (   6.5728488   4.6138345  16.0446011  )
        45           O1  tau(  45) = (   3.2900926   2.9813045   4.7018136  )
        46           O1  tau(  46) = (   1.3039711   4.4726057   6.0039043  )
        47           O1  tau(  47) = (   5.2763189   4.4711207   6.0039473  )
        48           N1  tau(  48) = (   0.9567011   2.5879941  18.4848429  )
        49           N1  tau(  49) = (   6.5185693   2.8362889  17.6364570  )
        50           C1  tau(  50) = (   1.0658718   2.8740630  19.7563100  )
        51           H1  tau(  51) = (   1.9437682   2.5238050  20.2723566  )
        52           H1  tau(  52) = (   0.2809834   3.4210577  20.2544045  )
        53           H1  tau(  53) = (   1.7014144   2.0656717  17.9989220  )
        54           H1  tau(  54) = (   5.6842842   3.0275795  18.1730567  )
        55           O1  tau(  55) = (   3.7618585   0.1297276  18.3074903  )
        56           H1  tau(  56) = (   4.7330396   0.0541995  18.1289380  )
        57           H1  tau(  57) = (   3.4892521   5.2388606  18.6788193  )

     number of k points=    10  Fermi-Dirac smearing, width (Ry)=  0.0073
                       cart. coord. in units 2pi/alat
        k(    1) = (   0.0000000   0.0000000   0.0000000), wk =   0.1250000
        k(    2) = (   0.0000000   0.0419351   0.0000000), wk =   0.2500000
        k(    3) = (   0.0000000  -0.0838702   0.0000000), wk =   0.1250000
        k(    4) = (   0.0379955   0.0000049   0.0000000), wk =   0.2500000
        k(    5) = (   0.0379955   0.0419400   0.0000000), wk =   0.2500000
        k(    6) = (   0.0379955  -0.0838652   0.0000000), wk =   0.2500000
        k(    7) = (   0.0379955  -0.0419301   0.0000000), wk =   0.2500000
        k(    8) = (  -0.0759910  -0.0000099   0.0000000), wk =   0.1250000
        k(    9) = (  -0.0759910   0.0419252   0.0000000), wk =   0.2500000
        k(   10) = (  -0.0759910  -0.0838800   0.0000000), wk =   0.1250000

     Initial potential from superposition of free atoms

     starting charge  387.99913, renormalised to  404.00000

     negative rho (up, down):  1.394E-02 0.000E+00

     %%%%%%%%%%%%%%%%%%%%%%%%%%%%%%%%%%%%%%%%%%%%%%%%%%%%%%%%%%%%%%%%%%%%%%%%
     %                                                                      %
     % You are using vdW-DF, which was implemented by the Thonhauser group. %
     % Please cite the following two papers that made this development      %
     % possible and the two reviews that describe the various versions:     %
     %                                                                      %
     %   T. Thonhauser et al., PRL 115, 136402 (2015).                      %
     %   T. Thonhauser et al., PRB 76, 125112 (2007).                       %
     %   K. Berland et al., Rep. Prog. Phys. 78, 066501 (2015).             %
     %   D.C. Langreth et al., J. Phys.: Condens. Matter 21, 084203 (2009). %
     %                                                                      %
     %                                                                      %
     % If you are calculating the stress with vdW-DF, please also cite:     %
     %                                                                      %
     %   R. Sabatini et al., J. Phys.: Condens. Matter 24, 424209 (2012).   %
     %                                                                      %
     %%%%%%%%%%%%%%%%%%%%%%%%%%%%%%%%%%%%%%%%%%%%%%%%%%%%%%%%%%%%%%%%%%%%%%%%

     Adding external electric field

     Computed dipole along edir(3) :
        Dipole              -14.1772 Ry au,        -36.0349 Debye
        Dipole field         -0.0268 Ry au,

        Potential amp.        2.4801 Ry
        Total length         46.3494 bohr

     Starting wfcs are  306 atomic wfcs
  @ DRIVER MODE: Message from server: STATUS
  @ DRIVER MODE: Message from server: POSDATA
  @ DRIVER MODE: Reading and sharing cell
  @ DRIVER MODE: Reading and sharing positions
  @ DRIVER MODE: Received positions

     Self-consistent Calculation

     iteration #  1     ecut=    29.40 Ry     beta= 0.05
     Davidson diagonalization with overlap
     c_bands:  4 eigenvalues not converged
     c_bands:  5 eigenvalues not converged
     c_bands:  2 eigenvalues not converged
     c_bands:  2 eigenvalues not converged
     c_bands:  1 eigenvalues not converged
     c_bands:  1 eigenvalues not converged
     c_bands:  4 eigenvalues not converged
     c_bands:  1 eigenvalues not converged
     c_bands:  1 eigenvalues not converged
     ethr =  1.00E-05,  avg # of iterations = 28.9

[...]

     total energy              =   -2249.22705312 Ry
     estimated scf accuracy    <    8255.78337189 Ry

     iteration #  2     ecut=    29.40 Ry     beta= 0.05
     Davidson diagonalization with overlap
     ethr =  1.00E-02,  avg # of iterations = 27.8

[...]

     iteration # 59     ecut=    29.40 Ry     beta= 0.05
     Davidson diagonalization with overlap
     c_bands:  1 eigenvalues not converged
     ethr =  4.06E-11,  avg # of iterations =  9.7

[...]

     total energy              =   -2975.20151230 Ry
     estimated scf accuracy    <       0.00000018 Ry

     iteration # 61     ecut=    29.40 Ry     beta= 0.05
     Davidson diagonalization with overlap
     ethr =  3.09E-11,  avg # of iterations =  8.5

     negative rho (up, down):  1.355E-02 0.000E+00

     Adding external electric field

     Computed dipole along edir(3) :
        Dipole                1.4211 Ry au,          3.6120 Debye
        Dipole field          0.0027 Ry au,

        Potential amp.       -0.2486 Ry
        Total length         46.3494 bohr

     End of self-consistent calculation

          k = 0.0000 0.0000 0.0000 ( 18029 PWs)   bands (ev):

   -55.1445 -55.1161 -55.1078 -55.0820 -55.0794 -55.0303 -54.9885 -54.9559
   -54.9408 -54.9248 -54.9206 -54.9181 -54.9077 -54.8360 -54.1288 -54.0948
   -31.7074 -31.6058 -31.5234 -31.4803 -31.4608 -31.4552 -31.4450 -31.4429
   -31.4058 -31.3857 -31.3637 -31.3604 -31.3441 -31.3219 -31.3052 -31.2913
   -31.2855 -31.2688 -31.2662 -31.2570 -31.2274 -31.2143 -31.2104 -31.1856
   -31.1796 -31.1730 -31.1634 -31.1583 -31.1562 -31.1490 -31.1374 -31.1354
   -31.1135 -31.1050 -31.1015 -31.0934 -31.0848 -31.0721 -31.0695 -31.0521
   -31.0489 -31.0162 -30.5374 -30.4452 -30.4230 -30.3539 -30.2672 -30.1562
   -19.2727 -18.5912 -15.9616 -15.6968 -15.5658 -15.4001 -15.3363 -15.1651
   -15.0849 -15.0193 -14.9337 -14.8752 -14.8608 -14.8548 -14.7627 -14.7449
   -14.6924 -14.6792 -14.6727 -14.6417 -14.6334 -14.5761 -14.5714 -14.5666
   -14.5322 -14.5193 -14.4896 -14.3717 -14.2910 -14.2342 -14.0247 -13.6902
   -12.6314 -12.5143 -10.0379  -6.8282  -6.4977  -6.3657  -4.0785  -3.9028
    -3.3132  -3.1729  -3.1515  -3.0691  -3.0452  -2.9238  -2.8669  -2.7064
    -2.6026  -2.5004  -2.4102  -2.3406  -2.3326  -2.3044  -2.1894  -2.1254
    -2.0796  -2.0362  -2.0175  -2.0046  -1.9560  -1.9202  -1.9177  -1.8512
    -1.8493  -1.7118  -1.6230  -1.6140  -1.5790  -1.5628  -1.4742  -1.4517
    -1.4419  -1.4357  -1.4294  -1.4218  -1.3876  -1.3444  -1.3183  -1.2353
    -1.1809  -1.1382  -1.0064  -0.9047  -0.8312  -0.7742  -0.6857  -0.6824
    -0.6147  -0.5496  -0.5354  -0.5331  -0.4727  -0.3517  -0.3066  -0.2551
    -0.2341  -0.2092  -0.1194  -0.1024  -0.0326   0.0397   0.0687   0.0787
     0.1002   0.2735   0.2814   0.3106   0.3294   0.4190   0.4713   0.5128
     0.5194   0.5419   0.6079   0.6468   0.7383   0.7856   0.7965   0.8172
     0.8389   0.8780   0.9547   0.9646   1.0059   1.0291   1.1695   1.2050
     1.2572   1.4753   1.4775   1.8067   1.8468   1.8938   2.0799   2.4682
     2.5156   3.9549   4.0445   4.0836   4.0854   4.1044   4.1900   4.3233
     4.4359   4.4465   4.4585   4.4805

[...]

          k = 0.0380-0.0419 0.0000 ( 17876 PWs)   bands (ev):

[...]

          k =-0.0760-0.0000 0.0000 ( 17886 PWs)   bands (ev):

[...]

          k =-0.0760-0.0839 0.0000 ( 17948 PWs)   bands (ev):

   -55.1297 -55.1224 -55.0991 -55.0988 -55.0774 -55.0213 -54.9974 -54.9410
   -54.9345 -54.9261 -54.9251 -54.9241 -54.9150 -54.8395 -54.1118 -54.1116
   -31.5159 -31.5076 -31.4224 -31.4211 -31.4208 -31.4055 -31.3914 -31.3910
   -31.3670 -31.3653 -31.3597 -31.3529 -31.3419 -31.3116 -31.2817 -31.2749
   -31.2743 -31.2738 -31.2694 -31.2638 -31.2568 -31.2388 -31.2245 -31.2220
   -31.2189 -31.2185 -31.2181 -31.1967 -31.1742 -31.1655 -31.1649 -31.1548
   -31.1487 -31.1464 -31.1442 -31.1438 -31.1422 -31.1121 -31.1059 -31.1039
   -31.0903 -31.0596 -30.4358 -30.4356 -30.3500 -30.3498 -30.3106 -30.3105
   -19.2702 -18.5907 -15.4557 -15.2991 -15.2855 -15.1341 -15.1197 -15.1115
   -15.0868 -15.0116 -14.9926 -14.9288 -14.9160 -14.8722 -14.8457 -14.8330
   -14.8221 -14.7285 -14.7212 -14.7150 -14.6991 -14.6485 -14.6363 -14.6193
   -14.5960 -14.5919 -14.5551 -14.4906 -14.4874 -14.4557 -14.2260 -13.7013
   -12.6159 -12.6157 -10.0407  -6.8221  -6.5004  -6.3582  -4.0539  -3.8899
    -2.9362  -2.7207  -2.5347  -2.5075  -2.4703  -2.3670  -2.3264  -2.2852
    -2.1891  -2.1400  -2.1241  -2.1028  -2.0887  -2.0292  -2.0248  -2.0222
    -1.9858  -1.9777  -1.9634  -1.9384  -1.9162  -1.8825  -1.8685  -1.8574
    -1.8447  -1.8056  -1.7859  -1.7575  -1.7448  -1.7151  -1.6987  -1.6302
    -1.5259  -1.4962  -1.4428  -1.3502  -1.3312  -1.3254  -1.2405  -1.2080
    -1.1947  -1.1795  -1.1657  -1.1040  -0.9688  -0.8797  -0.8696  -0.8180
    -0.7534  -0.7186  -0.6759  -0.6493  -0.6217  -0.5671  -0.5177  -0.4934
    -0.4200  -0.3661  -0.3599  -0.3279  -0.1818  -0.1579  -0.1103  -0.1082
    -0.0939  -0.0849   0.0049   0.0216   0.0660   0.0858   0.1256   0.1442
     0.2164   0.2333   0.3530   0.4221   0.4844   0.5908   0.7315   0.7446
     0.8166   0.8772   0.9168   0.9826   1.0400   1.0725   1.1556   1.1659
     1.1810   1.2837   1.3331   1.3397   1.3565   2.2524   2.2540   2.3355
     2.3357   4.1168   4.1400   4.2291   4.2428   4.2949   4.3782   4.4672
     4.4938   4.5286   4.5327   4.6122

     the Fermi energy is     4.0031 ev

!    total energy              =   -2975.20156089 Ry
     estimated scf accuracy    <       0.00000004 Ry
     smearing contrib. (-TS)   =      -0.03819964 Ry
     internal energy E=F+TS    =   -2975.16336125 Ry

     The total energy is F=E-TS. E is the sum of the following terms:
     one-electron contribution =  -23646.43966730 Ry
     hartree contribution      =   11921.38772726 Ry
     xc contribution           =    -494.98233236 Ry
     ewald contribution        =    9244.86710019 Ry
     electric field correction =       0.00381097 Ry

     convergence has been achieved in  61 iterations

     Forces acting on atoms (cartesian axes, Ry/au):

     atom    1 type  1   force =     0.00013780   -0.00013996    0.09423879
     atom    2 type  1   force =    -0.00023408   -0.00026767   -0.17727975
     atom    3 type  2   force =     0.00001835   -0.00026574   -0.02170402
     atom    4 type  2   force =    -0.00004201   -0.00184780    0.05694600
     atom    5 type  2   force =    -0.01107569   -0.00171585    0.00686588
     atom    6 type  2   force =     0.01216828   -0.00091112    0.00493145
     atom    7 type  1   force =    -0.00122207    0.00156003   -0.01217449
     atom    8 type  1   force =     0.00072900    0.00499183    0.00604490
     atom    9 type  2   force =     0.00027244    0.00050319    0.00032648
     atom   10 type  2   force =    -0.00307249   -0.00068179   -0.00507212
     atom   11 type  2   force =     0.00079757    0.00021403   -0.00024729
     atom   12 type  2   force =    -0.00005615    0.00050917    0.00000067
     atom   13 type  1   force =    -0.00022564    0.00011042   -0.00009969
     atom   14 type  1   force =    -0.00000552    0.00013088   -0.00010088
     atom   15 type  2   force =    -0.00005923    0.00004513    0.00027726
     atom   16 type  2   force =     0.00040776    0.00035162   -0.00014017
     atom   17 type  2   force =     0.00020177   -0.00010440    0.00030765
     atom   18 type  2   force =     0.00007438   -0.00020621    0.00014184
     atom   19 type  1   force =     0.00032327    0.00033344   -0.00006206
     atom   20 type  1   force =    -0.00002072    0.00048108    0.00017189
     atom   21 type  2   force =     0.00005112    0.00002323    0.10367583
     atom   22 type  2   force =     0.00056443   -0.00004914   -0.00010519
     atom   23 type  2   force =    -0.07085034   -0.00008993   -0.02719526
     atom   24 type  2   force =     0.07068581    0.00039281   -0.02723263
     atom   25 type  1   force =    -0.00006853   -0.00028239    0.09394938
     atom   26 type  1   force =    -0.00031653   -0.00036364   -0.17745865
     atom   27 type  2   force =     0.00000916   -0.00022906   -0.02075487
     atom   28 type  2   force =     0.00003756   -0.00148747    0.05597370
     atom   29 type  2   force =    -0.01134727   -0.00052878    0.00689715
     atom   30 type  2   force =     0.01231114   -0.00025023    0.00491897
     atom   31 type  1   force =    -0.00121823    0.00507256   -0.01496397
     atom   32 type  1   force =     0.00093313   -0.00604844    0.00587252
     atom   33 type  2   force =     0.00035710   -0.00013446    0.00011386
     atom   34 type  2   force =    -0.00261049   -0.00150861   -0.00576427
     atom   35 type  2   force =     0.00035432    0.00030262   -0.00031385
     atom   36 type  2   force =     0.00045417    0.00040784   -0.00007642
     atom   37 type  1   force =    -0.00017430   -0.00014671   -0.00017972
     atom   38 type  1   force =     0.00005985    0.00032630    0.00044683
     atom   39 type  2   force =     0.00007757    0.00086762   -0.00075444
     atom   40 type  2   force =     0.00004036   -0.00008264    0.00003641
     atom   41 type  2   force =     0.00095064    0.00042230    0.00053250
     atom   42 type  2   force =    -0.00084135    0.00021495   -0.00009540
     atom   43 type  1   force =     0.00046346   -0.00073294    0.00008932
     atom   44 type  1   force =     0.00013367   -0.00000684   -0.00068119
     atom   45 type  2   force =     0.00001701   -0.00002493    0.10367418
     atom   46 type  2   force =    -0.07084630   -0.00000710   -0.02721119
     atom   47 type  2   force =     0.07067818    0.00039970   -0.02720697
     atom   48 type  3   force =     0.00066096   -0.00030387   -0.00025213
     atom   49 type  3   force =     0.01096934   -0.00223220   -0.00632766
     atom   50 type  4   force =     0.00016040   -0.00017766    0.00004710
     atom   51 type  5   force =    -0.00013736   -0.00010341    0.00018926
     atom   52 type  5   force =     0.00031257   -0.00059776   -0.00014787
     atom   53 type  5   force =    -0.00043429    0.00067753    0.00053132
     atom   54 type  5   force =    -0.01112271    0.00316800    0.00618808
     atom   55 type  2   force =     0.00008823    0.00021372    0.00007796
     atom   56 type  5   force =     0.00069180   -0.00019395   -0.00053723
     atom   57 type  5   force =    -0.00021132    0.00000266    0.00067219

     Total force =     0.366148     Total SCF correction =     0.000554
  @ DRIVER MODE: Message from server: STATUS
  @ DRIVER MODE: Message from server: GETFORCE
  @ DRIVER MODE: Returning v,forces,stress,ensemble

     Writing output data file ./calc.save/
  @ DRIVER MODE: Message from server: EXIT
  @ DRIVE MODE: Exiting

     General routines

     Parallel routines

   This run was terminated on:   5:54: 6  23Sep2021

   JOB DONE.