     Program PWSCF v.6.7GPU starts on 21Sep2021 at 11:22:14

     R & G space division:  proc/nbgrp/npool/nimage =      10
     Reading input from /storage/home/hcoda1/3/ntian30/research/carbon/CxH_vib/CH3_calc/ads_slab/CH3OHN2_a/out_0006/pw.inp
Warning: card &CELL ignored
Warning: card   CELL_DYNAMICS='IPI', ignored
Warning: card / ignored

     Current dimensions of program PWSCF are:
     Max number of different atomic species (ntypx) = 10
     Max number of k-points (npk) =  40000
     Max angular momentum in pseudopotentials (lmaxx) =  3
     Presently no symmetry can be used with electric field

     Message from routine cell_base_init:
     DEPRECATED: use true lattice parameter, not A to a.u. conversion factor

     IMPORTANT: XC functional enforced from input :
     Exchange-correlation= BEEF-VDW
                           (   1   4  43  14   2   0   0)
     Any further DFT definition will be discarded
     Please, verify this is what you really want

  @ DRIVER MODE: Connecting to
 qe_1139763_2920907.sched-torque.pace.gatech.eduk8ckg4tk_scratch
  using UNIX socket
  @ DRIVER MODE: Message from server: STATUS
  @ DRIVER MODE: Message from server: INIT
  @ DRIVER MODE: Receiving replica           0          -1
  @ DRIVER MODE: Receiving encoded integer          25
  @ DRIVER MODE:  SCF:  T  FORCE:  T  STRESS:  F  VC:  F  ENSEMBLE:  F
  @ DRIVER MODE:  SCF:  T  FORCE:  T  STRESS:  F  VC:  F  ENSEMBLE:  F

     Using Slab Decomposition

     bravais-lattice index     =            0
     lattice parameter (alat)  =       1.8897  a.u.
     unit-cell volume          =    6658.9804 (a.u.)^3
     number of atoms/cell      =           55
     number of atomic types    =            5
     number of electrons       =       402.00
     number of Kohn-Sham states=          211
     kinetic-energy cutoff     =      29.3995  Ry
     charge density cutoff     =     293.9946  Ry
     scf convergence threshold =      7.3E-08
     mixing beta               =       0.0500
     number of iterations used =            8  plain     mixing
     Exchange-correlation= BEEF-VDW
                           (   1   4  43  14   2   0   0)

     celldm(1)=   1.889726  celldm(2)=   0.000000  celldm(3)=   0.000000
     celldm(4)=   0.000000  celldm(5)=   0.000000  celldm(6)=   0.000000

     crystal axes: (cart. coord. in units of alat)
               a(1) = (   6.579727   0.000000   0.000000 )
               a(2) = (  -0.000775   5.961596   0.000000 )
               a(3) = (   0.000000   0.000000  25.155947 )

     reciprocal axes: (cart. coord. in units 2 pi/alat)
               b(1) = (  0.151982  0.000020  0.000000 )
               b(2) = (  0.000000  0.167740  0.000000 )
               b(3) = (  0.000000  0.000000  0.039752 )

     PseudoPot. # 1 for Ti read from file:
     /storage/coda1/p-amedford6/0/shared/rich_project_chbe-medford/medford-share/data/pseudos_module/espresso/nninc/pbe/van/Ti.UPF
     MD5 check sum: 8e4df49b7f0d34bbd5052bf3f5ea0213
     Pseudo is Ultrasoft, Zval = 12.0
     Generated by new atomic code, or converted to UPF format
     Using radial grid of  851 points,  6 beta functions with:
                l(1) =   0
                l(2) =   0
                l(3) =   1
                l(4) =   1
                l(5) =   2
                l(6) =   2
     Q(r) pseudized with  8 coefficients,  rinner =    1.000   1.000   1.000
                                                       1.000   1.000

     PseudoPot. # 2 for O  read from file:
     /storage/coda1/p-amedford6/0/shared/rich_project_chbe-medford/medford-share/data/pseudos_module/espresso/nninc/pbe/van/O.UPF
     MD5 check sum: 78c19812648e8988a0fe644b0f25305e
     Pseudo is Ultrasoft, Zval =  6.0
     Generated by new atomic code, or converted to UPF format
     Using radial grid of  737 points,  4 beta functions with:
                l(1) =   0
                l(2) =   0
                l(3) =   1
                l(4) =   1
     Q(r) pseudized with  8 coefficients,  rinner =    0.800   0.800   0.800

     PseudoPot. # 3 for C  read from file:
     /storage/coda1/p-amedford6/0/shared/rich_project_chbe-medford/medford-share/data/pseudos_module/espresso/nninc/pbe/van/C.UPF
     MD5 check sum: 1a69bf6b8db32088f5b2163dbdb77a27
     Pseudo is Ultrasoft, Zval =  4.0
     Generated by new atomic code, or converted to UPF format
     Using radial grid of  721 points,  4 beta functions with:
                l(1) =   0
                l(2) =   0
                l(3) =   1
                l(4) =   1
     Q(r) pseudized with  8 coefficients,  rinner =    0.800   0.800   0.800

     PseudoPot. # 4 for H  read from file:
     /storage/coda1/p-amedford6/0/shared/rich_project_chbe-medford/medford-share/data/pseudos_module/espresso/nninc/pbe/van/H.UPF
     MD5 check sum: b5ee9d7bfd3a09ee7748110bda690ff7
     Pseudo is Ultrasoft, Zval =  1.0
     Generated by new atomic code, or converted to UPF format
     Using radial grid of  615 points,  1 beta functions with:
                l(1) =   0
     Q(r) pseudized with  8 coefficients,  rinner =    0.800

     PseudoPot. # 5 for N  read from file:
     /storage/coda1/p-amedford6/0/shared/rich_project_chbe-medford/medford-share/data/pseudos_module/espresso/nninc/pbe/van/N.UPF
     MD5 check sum: 90d10febe142ad51ac9d5be1deb811c4
     Pseudo is Ultrasoft, Zval =  5.0
     Generated by new atomic code, or converted to UPF format
     Using radial grid of  729 points,  4 beta functions with:
                l(1) =   0
                l(2) =   0
                l(3) =   1
                l(4) =   1
     Q(r) pseudized with  8 coefficients,  rinner =    0.800   0.800   0.800

     atomic species   valence    mass     pseudopotential
        Ti1           12.00    47.86700     Ti( 1.00)
        O1             6.00    15.99900     O ( 1.00)
        C1             4.00    12.01100     C ( 1.00)
        H1             1.00     1.00800     H ( 1.00)
        N1             5.00    14.00700     N ( 1.00)

     No symmetry found

   Cartesian axes

     site n.     atom                  positions (alat units)
         1           Ti1 tau(   1) = (   0.0004258   2.9801865   6.0000000  )
         2           Ti1 tau(   2) = (   3.2906075   1.4906267   6.0002472  )
         3           O1  tau(   3) = (   0.0006271   0.0005054   7.9858123  )
         4           O1  tau(   4) = (   3.2906025   0.0005020   7.3038282  )
         5           O1  tau(   5) = (   4.5942328   1.4918067   9.2879030  )
         6           O1  tau(   6) = (   1.9868534   1.4903216   9.2879459  )
         7           Ti1 tau(   7) = (   3.3211404   3.0081938   9.1556858  )
         8           Ti1 tau(   8) = (   0.0375071   1.5080972   9.2716578  )
         9           O1  tau(   9) = (   3.3277925   5.9557797  11.3694302  )
        10           O1  tau(  10) = (   0.0078976   5.9611837  10.6081260  )
        11           O1  tau(  11) = (   1.3277664   1.4864252  12.6397593  )
        12           O1  tau(  12) = (   5.3262284   1.4857564  12.6680137  )
        13           Ti1 tau(  13) = (   0.0382198   2.9867085  12.5465535  )
        14           Ti1 tau(  14) = (   3.3284736   1.4838689  12.5095855  )
        15           O1  tau(  15) = (   0.0698013   5.9529072  14.6863034  )
        16           O1  tau(  16) = (   3.3155098   5.9507563  14.0021001  )
        17           O1  tau(  17) = (   4.6216333   1.4999481  16.1676996  )
        18           O1  tau(  18) = (   2.1028183   1.5030586  16.1896030  )
        19           Ti1 tau(  19) = (   3.3604961   2.9604831  15.7299238  )
        20           Ti1 tau(  20) = (   0.0595664   1.3265798  16.0016092  )
        21           O1  tau(  21) = (   3.2904802   0.0005063   4.7018136  )
        22           O1  tau(  22) = (   0.0623262   5.9524117  17.2155155  )
        23           O1  tau(  23) = (   1.3043587   1.4918075   6.0039043  )
        24           O1  tau(  24) = (   5.2767064   1.4903225   6.0039473  )
        25           Ti1 tau(  25) = (   0.0000382   5.9609847   6.0000000  )
        26           Ti1 tau(  26) = (   3.2902200   4.4714249   6.0002472  )
        27           O1  tau(  27) = (   0.0002396   2.9813036   7.9858123  )
        28           O1  tau(  28) = (   3.2902150   2.9813002   7.3038282  )
        29           O1  tau(  29) = (   4.5938453   4.4726049   9.2879030  )
        30           O1  tau(  30) = (   1.9864658   4.4711199   9.2879459  )
        31           Ti1 tau(  31) = (   3.3196244   0.0273134   9.1542523  )
        32           Ti1 tau(  32) = (   0.0371349   4.4750001   9.2683202  )
        33           O1  tau(  33) = (   3.3269250   2.9737845  11.3614682  )
        34           O1  tau(  34) = (   0.0102569   2.9799478  10.6284786  )
        35           O1  tau(  35) = (   1.3273985   4.4664108  12.6387590  )
        36           O1  tau(  36) = (   5.3255394   4.4666731  12.6678084  )
        37           Ti1 tau(  37) = (   0.0353421   0.0100523  12.4855181  )
        38           Ti1 tau(  38) = (   3.3275229   4.4611679  12.5089648  )
        39           O1  tau(  39) = (   0.0781084   2.9831843  14.8552695  )
        40           O1  tau(  40) = (   3.3245390   2.9730906  13.9466850  )
        41           O1  tau(  41) = (   4.6258727   4.4416536  16.1518815  )
        42           O1  tau(  42) = (   2.1073368   4.4232626  16.2242367  )
        43           Ti1 tau(  43) = (   3.3327466   5.9477500  15.7934189  )
        44           Ti1 tau(  44) = (   0.0181599   4.5343900  15.8803951  )
        45           O1  tau(  45) = (   3.2900926   2.9813045   4.7018136  )
        46           O1  tau(  46) = (   1.3039711   4.4726057   6.0039043  )
        47           O1  tau(  47) = (   5.2763189   4.4711207   6.0039473  )
        48           C1  tau(  48) = (   6.0691997   3.0849333  18.9477027  )
        49           O1  tau(  49) = (   0.2130057   3.0153153  17.6823395  )
        50           H1  tau(  50) = (   5.0329807   2.8589369  18.7109091  )
        51           H1  tau(  51) = (   1.1577086   3.2067366  17.8266184  )
        52           H1  tau(  52) = (   6.4674937   2.3371334  19.6221514  )
        53           H1  tau(  53) = (   6.1550233   4.0909394  19.3455689  )
        54           N1  tau(  54) = (   5.8673014   3.1443680  22.9807165  )
        55           N1  tau(  55) = (   5.1182427   3.2281067  22.1722476  )

     number of k points=    10  Fermi-Dirac smearing, width (Ry)=  0.0073
                       cart. coord. in units 2pi/alat
        k(    1) = (   0.0000000   0.0000000   0.0000000), wk =   0.1250000
        k(    2) = (   0.0000000   0.0419351   0.0000000), wk =   0.2500000
        k(    3) = (   0.0000000  -0.0838702   0.0000000), wk =   0.1250000
        k(    4) = (   0.0379955   0.0000049   0.0000000), wk =   0.2500000
        k(    5) = (   0.0379955   0.0419400   0.0000000), wk =   0.2500000
        k(    6) = (   0.0379955  -0.0838652   0.0000000), wk =   0.2500000
        k(    7) = (   0.0379955  -0.0419301   0.0000000), wk =   0.2500000
        k(    8) = (  -0.0759910  -0.0000099   0.0000000), wk =   0.1250000
        k(    9) = (  -0.0759910   0.0419252   0.0000000), wk =   0.2500000
        k(   10) = (  -0.0759910  -0.0838800   0.0000000), wk =   0.1250000

     Initial potential from superposition of free atoms

     starting charge  385.99915, renormalised to  402.00000

     negative rho (up, down):  9.330E-03 0.000E+00

     %%%%%%%%%%%%%%%%%%%%%%%%%%%%%%%%%%%%%%%%%%%%%%%%%%%%%%%%%%%%%%%%%%%%%%%%
     %                                                                      %
     % You are using vdW-DF, which was implemented by the Thonhauser group. %
     % Please cite the following two papers that made this development      %
     % possible and the two reviews that describe the various versions:     %
     %                                                                      %
     %   T. Thonhauser et al., PRL 115, 136402 (2015).                      %
     %   T. Thonhauser et al., PRB 76, 125112 (2007).                       %
     %   K. Berland et al., Rep. Prog. Phys. 78, 066501 (2015).             %
     %   D.C. Langreth et al., J. Phys.: Condens. Matter 21, 084203 (2009). %
     %                                                                      %
     %                                                                      %
     % If you are calculating the stress with vdW-DF, please also cite:     %
     %                                                                      %
     %   R. Sabatini et al., J. Phys.: Condens. Matter 24, 424209 (2012).   %
     %                                                                      %
     %%%%%%%%%%%%%%%%%%%%%%%%%%%%%%%%%%%%%%%%%%%%%%%%%%%%%%%%%%%%%%%%%%%%%%%%

     Adding external electric field

     Computed dipole along edir(3) :
        Dipole              -16.1760 Ry au,        -41.1153 Debye
        Dipole field         -0.0305 Ry au,

        Potential amp.        2.8297 Ry
        Total length         46.3494 bohr

     Starting wfcs are  304 atomic wfcs
  @ DRIVER MODE: Message from server: STATUS
  @ DRIVER MODE: Message from server: POSDATA
  @ DRIVER MODE: Reading and sharing cell
  @ DRIVER MODE: Reading and sharing positions
  @ DRIVER MODE: Received positions

     Self-consistent Calculation

     iteration #  1     ecut=    29.40 Ry     beta= 0.05
     Davidson diagonalization with overlap
     c_bands:  5 eigenvalues not converged
     c_bands:  2 eigenvalues not converged
     c_bands:  1 eigenvalues not converged
     c_bands:  4 eigenvalues not converged
     c_bands:  1 eigenvalues not converged
     c_bands:  4 eigenvalues not converged
     ethr =  1.00E-05,  avg # of iterations = 22.9

[...]

     total energy              =   -2354.21539387 Ry
     estimated scf accuracy    <    7140.46106683 Ry

     iteration #  2     ecut=    29.40 Ry     beta= 0.05
     Davidson diagonalization with overlap
     ethr =  1.00E-02,  avg # of iterations = 22.1

[...]

     iteration # 89     ecut=    29.40 Ry     beta= 0.05
     Davidson diagonalization with overlap
     ethr =  4.92E-11,  avg # of iterations =  8.9

[...]

     total energy              =   -2972.82585184 Ry
     estimated scf accuracy    <       0.00000009 Ry

     iteration # 90     ecut=    29.40 Ry     beta= 0.05
     Davidson diagonalization with overlap
     c_bands:  2 eigenvalues not converged
     ethr =  2.29E-11,  avg # of iterations = 10.8

     negative rho (up, down):  1.103E-02 0.000E+00

     Adding external electric field

     Computed dipole along edir(3) :
        Dipole                1.2294 Ry au,          3.1247 Debye
        Dipole field          0.0023 Ry au,

        Potential amp.       -0.2151 Ry
        Total length         46.3494 bohr

     End of self-consistent calculation

          k = 0.0000 0.0000 0.0000 ( 18029 PWs)   bands (ev):

   -55.0598 -55.0300 -55.0236 -54.9956 -54.9530 -54.9502 -54.9473 -54.9034
   -54.8937 -54.8909 -54.8594 -54.8439 -54.8436 -54.8098 -54.1217 -54.0876
   -31.6336 -31.5655 -31.5255 -31.4338 -31.3862 -31.3706 -31.3595 -31.3531
   -31.3183 -31.3151 -31.2727 -31.2706 -31.2669 -31.2560 -31.2367 -31.2157
   -31.2126 -31.1944 -31.1888 -31.1833 -31.1813 -31.1733 -31.1503 -31.1464
   -31.1449 -31.1252 -31.1222 -31.1166 -31.0865 -31.0857 -31.0704 -31.0498
   -31.0494 -31.0475 -31.0347 -31.0264 -31.0171 -30.9990 -30.9943 -30.9788
   -30.9730 -30.9542 -30.5338 -30.4309 -30.4094 -30.3501 -30.2637 -30.1527
   -21.7518 -19.7787 -15.8982 -15.6361 -15.4970 -15.3923 -15.2792 -15.1436
   -15.1296 -15.0035 -14.8704 -14.8036 -14.7801 -14.7475 -14.7297 -14.7060
   -14.6927 -14.6823 -14.6163 -14.5888 -14.5670 -14.5488 -14.5378 -14.5035
   -14.4812 -14.4480 -14.4403 -14.2943 -14.2205 -14.1609 -13.9038 -12.6222
   -12.5028 -10.8205  -6.9777  -6.5321  -4.9116  -4.8969  -4.7472  -4.6429
    -3.6544  -3.2340  -3.0696  -3.0028  -2.9906  -2.9809  -2.8383  -2.7181
    -2.6838  -2.4775  -2.3515  -2.3217  -2.3030  -2.2737  -2.2326  -2.1218
    -2.0289  -2.0094  -1.9961  -1.9523  -1.9466  -1.9300  -1.8695  -1.8515
    -1.8251  -1.8216  -1.6678  -1.5940  -1.5459  -1.5378  -1.4923  -1.4560
    -1.4004  -1.3834  -1.3791  -1.3386  -1.3367  -1.3130  -1.2900  -1.2686
    -1.0931  -1.0451  -1.0139  -0.9188  -0.8383  -0.7338  -0.6401  -0.6275
    -0.6174  -0.5655  -0.5083  -0.4877  -0.4666  -0.4237  -0.3040  -0.2300
    -0.1828  -0.1290  -0.0619  -0.0477   0.0067   0.1391   0.1493   0.1678
     0.1779   0.2844   0.3654   0.3760   0.4329   0.4811   0.4969   0.5762
     0.6051   0.6679   0.6927   0.7517   0.7654   0.8549   0.8706   0.8865
     0.9092   0.9287   1.0173   1.0541   1.0944   1.0967   1.2579   1.3982
     1.4992   1.5201   1.7918   1.8884   1.9042   2.0641   2.4913   2.5467
     4.0348   4.1005   4.1475   4.1592   4.1706   4.2441   4.5263   4.5346
     4.5416   4.5555   4.5596

[...]

          k = 0.0380-0.0419 0.0000 ( 17876 PWs)   bands (ev):

[...]

          k =-0.0760-0.0000 0.0000 ( 17886 PWs)   bands (ev):

[...]

          k =-0.0760-0.0839 0.0000 ( 17948 PWs)   bands (ev):

   -55.0423 -55.0408 -55.0147 -55.0107 -54.9469 -54.9447 -54.9428 -54.9108
   -54.8967 -54.8779 -54.8748 -54.8466 -54.8277 -54.8258 -54.1047 -54.1044
   -31.4839 -31.4378 -31.4348 -31.3621 -31.3423 -31.3386 -31.3228 -31.3074
   -31.2998 -31.2796 -31.2645 -31.2606 -31.2560 -31.2333 -31.2113 -31.2008
   -31.1962 -31.1945 -31.1878 -31.1841 -31.1823 -31.1801 -31.1717 -31.1440
   -31.1404 -31.1379 -31.1376 -31.1341 -31.1315 -31.1305 -31.1288 -31.1102
   -31.1014 -31.0925 -31.0892 -31.0773 -31.0769 -31.0521 -31.0505 -31.0338
   -31.0140 -31.0111 -30.4220 -30.4218 -30.3466 -30.3464 -30.3070 -30.3068
   -21.7516 -19.7751 -15.4224 -15.3367 -15.2588 -15.0736 -15.0632 -15.0554
   -15.0442 -14.9298 -14.9063 -14.8764 -14.8352 -14.8214 -14.8183 -14.7981
   -14.7878 -14.6570 -14.6520 -14.6507 -14.6421 -14.5783 -14.5756 -14.5588
   -14.5418 -14.5037 -14.5023 -14.4859 -14.4828 -14.3582 -14.2311 -12.6043
   -12.6033 -10.8218  -6.9780  -6.5335  -4.9134  -4.9031  -4.7365  -4.6336
    -3.6450  -2.7082  -2.6123  -2.5275  -2.5210  -2.2826  -2.2791  -2.2363
    -2.1768  -2.1268  -2.0740  -2.0505  -2.0475  -1.9723  -1.9679  -1.9663
    -1.9572  -1.9211  -1.9160  -1.8775  -1.8536  -1.8284  -1.7769  -1.7648
    -1.7535  -1.7286  -1.7256  -1.7162  -1.6891  -1.6836  -1.6667  -1.5898
    -1.5136  -1.4417  -1.4269  -1.3880  -1.2871  -1.2746  -1.2140  -1.1951
    -1.1516  -1.1326  -1.0996  -1.0420  -1.0003  -0.8976  -0.8563  -0.8509
    -0.7928  -0.7337  -0.6884  -0.6531  -0.6075  -0.5528  -0.5251  -0.4784
    -0.4115  -0.3646  -0.2767  -0.2671  -0.2261  -0.0890  -0.0835  -0.0599
    -0.0511  -0.0479   0.0402   0.0565   0.0992   0.1439   0.1960   0.2209
     0.2315   0.4331   0.4396   0.5216   0.6180   0.6346   0.7899   0.8052
     0.8690   0.9360   0.9843   1.0145   1.0835   1.1889   1.2114   1.2381
     1.3263   1.3665   1.3752   1.4083   2.2563   2.2570   2.3602   2.3636
     4.1824   4.2528   4.2854   4.3581   4.4205   4.5439   4.5570   4.5605
     4.5879   4.5945   4.6382

     the Fermi energy is     4.0923 ev

!    total energy              =   -2972.82585828 Ry
     estimated scf accuracy    <       0.00000005 Ry
     smearing contrib. (-TS)   =      -0.03699847 Ry
     internal energy E=F+TS    =   -2972.78885980 Ry

     The total energy is F=E-TS. E is the sum of the following terms:
     one-electron contribution =  -22553.25272109 Ry
     hartree contribution      =   11372.58503232 Ry
     xc contribution           =    -493.19390849 Ry
     ewald contribution        =    8701.06988538 Ry
     electric field correction =       0.00285207 Ry

     convergence has been achieved in  90 iterations

     Forces acting on atoms (cartesian axes, Ry/au):

     atom    1 type  1   force =    -0.00032922    0.00004118    0.09316356
     atom    2 type  1   force =    -0.00036845    0.00058481   -0.18335086
     atom    3 type  2   force =     0.00047112    0.00011821   -0.02311219
     atom    4 type  2   force =     0.00093304    0.00040968    0.05020989
     atom    5 type  2   force =    -0.01318438   -0.00007360    0.00385807
     atom    6 type  2   force =     0.01620278   -0.00067461    0.00559661
     atom    7 type  1   force =    -0.00089042   -0.00024433   -0.00006412
     atom    8 type  1   force =     0.00039887    0.00007639   -0.00018220
     atom    9 type  2   force =    -0.00024833    0.00010144    0.00017519
     atom   10 type  2   force =    -0.00015825    0.00005250    0.00027460
     atom   11 type  2   force =    -0.00041084    0.00000240    0.00033574
     atom   12 type  2   force =    -0.00024415    0.00009151   -0.00004325
     atom   13 type  1   force =     0.00037650    0.00052655   -0.00039453
     atom   14 type  1   force =    -0.00044392   -0.00014754   -0.00032517
     atom   15 type  2   force =    -0.00034140    0.00025371   -0.00006819
     atom   16 type  2   force =     0.00024524    0.00003222    0.00004696
     atom   17 type  2   force =    -0.00039714    0.00002996    0.00014553
     atom   18 type  2   force =    -0.00030632   -0.00000362   -0.00014295
     atom   19 type  1   force =     0.00017120    0.00044601   -0.00010529
     atom   20 type  1   force =    -0.00045806    0.00045623    0.00052916
     atom   21 type  2   force =    -0.00004368    0.00010737    0.10491699
     atom   22 type  2   force =    -0.00007828    0.00002434    0.00078999
     atom   23 type  2   force =    -0.06789728    0.00008164   -0.02682780
     atom   24 type  2   force =     0.06768309    0.00050636   -0.02688259
     atom   25 type  1   force =    -0.00039407    0.00015738    0.09700560
     atom   26 type  1   force =    -0.00027916   -0.00023486   -0.18343754
     atom   27 type  2   force =     0.00042249    0.00018412   -0.02188863
     atom   28 type  2   force =     0.00096680    0.00039407    0.04997149
     atom   29 type  2   force =    -0.01319254    0.00022452    0.00390495
     atom   30 type  2   force =     0.01627177   -0.00019226    0.00560195
     atom   31 type  1   force =    -0.00094787   -0.00012098    0.00004273
     atom   32 type  1   force =     0.00040588   -0.00006209   -0.00004699
     atom   33 type  2   force =    -0.00009543    0.00000408   -0.00004159
     atom   34 type  2   force =    -0.00015817   -0.00003419    0.00015836
     atom   35 type  2   force =    -0.00042094    0.00003492    0.00033786
     atom   36 type  2   force =    -0.00017219    0.00004776   -0.00004096
     atom   37 type  1   force =     0.00030278   -0.00073967    0.00020323
     atom   38 type  1   force =    -0.00048178    0.00036622    0.00000703
     atom   39 type  2   force =    -0.00040162   -0.00015900    0.00013962
     atom   40 type  2   force =    -0.00012869   -0.00009103    0.00008264
     atom   41 type  2   force =    -0.00056962   -0.00015616    0.00004600
     atom   42 type  2   force =    -0.00004503   -0.00005024   -0.00042377
     atom   43 type  1   force =     0.00016942   -0.00042753    0.00017527
     atom   44 type  1   force =    -0.00027061   -0.00049639    0.00005150
     atom   45 type  2   force =    -0.00004698    0.00012887    0.10494064
     atom   46 type  2   force =    -0.06787650   -0.00052069   -0.02683663
     atom   47 type  2   force =     0.06765492   -0.00005689   -0.02691131
     atom   48 type  3   force =    -0.00333477    0.00035462   -0.01703928
     atom   49 type  2   force =    -0.00226972    0.00006063    0.00543466
     atom   50 type  4   force =     0.00202510    0.00033746    0.00208701
     atom   51 type  4   force =     0.00005695   -0.00044517    0.00014884
     atom   52 type  4   force =     0.00252835   -0.00437629    0.00483028
     atom   53 type  4   force =     0.00018035    0.00321951    0.00252617
     atom   54 type  5   force =     0.00005272   -0.00008694    0.00043493
     atom   55 type  5   force =    -0.00063358   -0.00006262   -0.00000724

     Total force =     0.368867     Total SCF correction =     0.000628
  @ DRIVER MODE: Message from server: STATUS
  @ DRIVER MODE: Message from server: GETFORCE
  @ DRIVER MODE: Returning v,forces,stress,ensemble

     Writing output data file ./calc.save/
  @ DRIVER MODE: Message from server: EXIT
  @ DRIVE MODE: Exiting

     General routines

     Parallel routines

   This run was terminated on:  11:46:44  21Sep2021

   JOB DONE.