     Program PWSCF v.6.7GPU starts on 16Sep2021 at  3:15:58

     R & G space division:  proc/nbgrp/npool/nimage =      10
     Reading input from /storage/home/hcoda1/3/ntian30/research/carbon/CxH_vib/H2O_calc/ads_slab/CH3NHH2O_a/out_0037/pw.inp
Warning: card &CELL ignored
Warning: card   CELL_DYNAMICS='IPI', ignored
Warning: card / ignored

     Current dimensions of program PWSCF are:
     Max number of different atomic species (ntypx) = 10
     Max number of k-points (npk) =  40000
     Max angular momentum in pseudopotentials (lmaxx) =  3
     Presently no symmetry can be used with electric field

     Message from routine cell_base_init:
     DEPRECATED: use true lattice parameter, not A to a.u. conversion factor

     IMPORTANT: XC functional enforced from input :
     Exchange-correlation= BEEF-VDW
                           (   1   4  43  14   2   0   0)
     Any further DFT definition will be discarded
     Please, verify this is what you really want

  @ DRIVER MODE: Connecting to
 qe_1139763_2852633.sched-torque.pace.gatech.edusohv1lv3_scratch
  using UNIX socket
  @ DRIVER MODE: Message from server: STATUS
  @ DRIVER MODE: Message from server: INIT
  @ DRIVER MODE: Receiving replica           0          -1
  @ DRIVER MODE: Receiving encoded integer          25
  @ DRIVER MODE:  SCF:  T  FORCE:  T  STRESS:  F  VC:  F  ENSEMBLE:  F
  @ DRIVER MODE:  SCF:  T  FORCE:  T  STRESS:  F  VC:  F  ENSEMBLE:  F

     Using Slab Decomposition

     bravais-lattice index     =            0
     lattice parameter (alat)  =       1.8897  a.u.
     unit-cell volume          =    6658.9804 (a.u.)^3
     number of atoms/cell      =           56
     number of atomic types    =            5
     number of electrons       =       399.00
     number of Kohn-Sham states=          209
     kinetic-energy cutoff     =      29.3995  Ry
     charge density cutoff     =     293.9946  Ry
     scf convergence threshold =      7.3E-08
     mixing beta               =       0.0500
     number of iterations used =            8  plain     mixing
     Exchange-correlation= BEEF-VDW
                           (   1   4  43  14   2   0   0)

     celldm(1)=   1.889726  celldm(2)=   0.000000  celldm(3)=   0.000000
     celldm(4)=   0.000000  celldm(5)=   0.000000  celldm(6)=   0.000000

     crystal axes: (cart. coord. in units of alat)
               a(1) = (   6.579727   0.000000   0.000000 )
               a(2) = (  -0.000775   5.961596   0.000000 )
               a(3) = (   0.000000   0.000000  25.155947 )

     reciprocal axes: (cart. coord. in units 2 pi/alat)
               b(1) = (  0.151982  0.000020  0.000000 )
               b(2) = (  0.000000  0.167740  0.000000 )
               b(3) = (  0.000000  0.000000  0.039752 )

     PseudoPot. # 1 for Ti read from file:
     /storage/coda1/p-amedford6/0/shared/rich_project_chbe-medford/medford-share/data/pseudos_module/espresso/nninc/pbe/van/Ti.UPF
     MD5 check sum: 8e4df49b7f0d34bbd5052bf3f5ea0213
     Pseudo is Ultrasoft, Zval = 12.0
     Generated by new atomic code, or converted to UPF format
     Using radial grid of  851 points,  6 beta functions with:
                l(1) =   0
                l(2) =   0
                l(3) =   1
                l(4) =   1
                l(5) =   2
                l(6) =   2
     Q(r) pseudized with  8 coefficients,  rinner =    1.000   1.000   1.000
                                                       1.000   1.000

     PseudoPot. # 2 for O  read from file:
     /storage/coda1/p-amedford6/0/shared/rich_project_chbe-medford/medford-share/data/pseudos_module/espresso/nninc/pbe/van/O.UPF
     MD5 check sum: 78c19812648e8988a0fe644b0f25305e
     Pseudo is Ultrasoft, Zval =  6.0
     Generated by new atomic code, or converted to UPF format
     Using radial grid of  737 points,  4 beta functions with:
                l(1) =   0
                l(2) =   0
                l(3) =   1
                l(4) =   1
     Q(r) pseudized with  8 coefficients,  rinner =    0.800   0.800   0.800

     PseudoPot. # 3 for H  read from file:
     /storage/coda1/p-amedford6/0/shared/rich_project_chbe-medford/medford-share/data/pseudos_module/espresso/nninc/pbe/van/H.UPF
     MD5 check sum: b5ee9d7bfd3a09ee7748110bda690ff7
     Pseudo is Ultrasoft, Zval =  1.0
     Generated by new atomic code, or converted to UPF format
     Using radial grid of  615 points,  1 beta functions with:
                l(1) =   0
     Q(r) pseudized with  8 coefficients,  rinner =    0.800

     PseudoPot. # 4 for N  read from file:
     /storage/coda1/p-amedford6/0/shared/rich_project_chbe-medford/medford-share/data/pseudos_module/espresso/nninc/pbe/van/N.UPF
     MD5 check sum: 90d10febe142ad51ac9d5be1deb811c4
     Pseudo is Ultrasoft, Zval =  5.0
     Generated by new atomic code, or converted to UPF format
     Using radial grid of  729 points,  4 beta functions with:
                l(1) =   0
                l(2) =   0
                l(3) =   1
                l(4) =   1
     Q(r) pseudized with  8 coefficients,  rinner =    0.800   0.800   0.800

     PseudoPot. # 5 for C  read from file:
     /storage/coda1/p-amedford6/0/shared/rich_project_chbe-medford/medford-share/data/pseudos_module/espresso/nninc/pbe/van/C.UPF
     MD5 check sum: 1a69bf6b8db32088f5b2163dbdb77a27
     Pseudo is Ultrasoft, Zval =  4.0
     Generated by new atomic code, or converted to UPF format
     Using radial grid of  721 points,  4 beta functions with:
                l(1) =   0
                l(2) =   0
                l(3) =   1
                l(4) =   1
     Q(r) pseudized with  8 coefficients,  rinner =    0.800   0.800   0.800

     atomic species   valence    mass     pseudopotential
        Ti1           12.00    47.86700     Ti( 1.00)
        O1             6.00    15.99900     O ( 1.00)
        H1             1.00     1.00800     H ( 1.00)
        N1             5.00    14.00700     N ( 1.00)
        C1             4.00    12.01100     C ( 1.00)

     No symmetry found

   Cartesian axes

     site n.     atom                  positions (alat units)
         1           Ti1 tau(   1) = (   0.0004258   2.9801865   6.0000000  )
         2           Ti1 tau(   2) = (   3.2906075   1.4906267   6.0002472  )
         3           O1  tau(   3) = (   0.0006271   0.0005054   7.9858123  )
         4           O1  tau(   4) = (   3.2906025   0.0005020   7.3038282  )
         5           O1  tau(   5) = (   4.5942328   1.4918067   9.2879030  )
         6           O1  tau(   6) = (   1.9868534   1.4903216   9.2879459  )
         7           Ti1 tau(   7) = (   3.2907910   2.8959150   9.1758416  )
         8           Ti1 tau(   8) = (   0.0015273   1.4827037   9.2680791  )
         9           O1  tau(   9) = (   3.2896571   0.0076959  11.3233140  )
        10           O1  tau(  10) = (   0.0116148   5.9584955  10.6183126  )
        11           O1  tau(  11) = (   1.3168077   1.5009220  12.6157425  )
        12           O1  tau(  12) = (   5.2956243   1.4929856  12.6075824  )
        13           Ti1 tau(  13) = (   6.5239244   2.9540340  12.6210794  )
        14           Ti1 tau(  14) = (   3.2085880   1.4976218  12.4699624  )
        15           O1  tau(  15) = (   6.5712616   0.0419518  14.6436513  )
        16           O1  tau(  16) = (   3.3111435   0.0202601  13.9161875  )
        17           O1  tau(  17) = (   4.5291760   1.5523016  16.0784362  )
        18           O1  tau(  18) = (   2.0445308   1.5488630  16.0432715  )
        19           Ti1 tau(  19) = (   3.3059752   3.0257308  15.6838679  )
        20           Ti1 tau(  20) = (   0.0592185   1.5662548  15.8694889  )
        21           O1  tau(  21) = (   3.2904802   0.0005063   4.7018136  )
        22           O1  tau(  22) = (   0.0264932   0.0561689  17.2024660  )
        23           O1  tau(  23) = (   1.3043587   1.4918075   6.0039043  )
        24           O1  tau(  24) = (   5.2767064   1.4903225   6.0039473  )
        25           Ti1 tau(  25) = (   0.0000382   5.9609847   6.0000000  )
        26           Ti1 tau(  26) = (   3.2902200   4.4714249   6.0002472  )
        27           O1  tau(  27) = (   0.0002396   2.9813036   7.9858123  )
        28           O1  tau(  28) = (   3.2902150   2.9813002   7.3038282  )
        29           O1  tau(  29) = (   4.5938453   4.4726049   9.2879030  )
        30           O1  tau(  30) = (   1.9864658   4.4711199   9.2879459  )
        31           Ti1 tau(  31) = (   3.2891106   5.8743827   9.1763621  )
        32           Ti1 tau(  32) = (   0.0006254   4.4649316   9.2693709  )
        33           O1  tau(  33) = (   3.2898653   2.9926188  11.3210358  )
        34           O1  tau(  34) = (   0.0092240   2.9805883  10.6323155  )
        35           O1  tau(  35) = (   1.3106253   4.4883450  12.6271249  )
        36           O1  tau(  36) = (   5.2968722   4.4793810  12.6200386  )
        37           Ti1 tau(  37) = (   6.5212985   5.9329073  12.5685303  )
        38           Ti1 tau(  38) = (   3.2059443   4.4781599  12.4721232  )
        39           O1  tau(  39) = (   6.5764971   2.9600267  14.6431433  )
        40           O1  tau(  40) = (   3.3056941   3.0038382  13.8936370  )
        41           O1  tau(  41) = (   4.5394310   4.5052612  16.0827012  )
        42           O1  tau(  42) = (   2.0570581   4.5113261  16.0718816  )
        43           Ti1 tau(  43) = (   3.3383738   0.0382055  15.7109988  )
        44           Ti1 tau(  44) = (   0.0469139   4.6840235  16.0886640  )
        45           O1  tau(  45) = (   3.2900926   2.9813045   4.7018136  )
        46           O1  tau(  46) = (   1.3039711   4.4726057   6.0039043  )
        47           O1  tau(  47) = (   5.2763189   4.4711207   6.0039473  )
        48           H1  tau(  48) = (   5.6101632   2.9904038  17.7880820  )
        49           N1  tau(  49) = (   6.5649722   3.0046358  17.4438072  )
        50           C1  tau(  50) = (   0.8874553   2.9889031  18.6120612  )
        51           H1  tau(  51) = (   1.3591778   3.9628686  18.7739097  )
        52           H1  tau(  52) = (   0.3310755   2.7322232  19.5165709  )
        53           H1  tau(  53) = (   1.6717793   2.2402645  18.4914768  )
        54           O1  tau(  54) = (   3.2467199   5.9268012  21.6217354  )
        55           H1  tau(  55) = (   4.0245811   5.9269051  22.2091127  )
        56           H1  tau(  56) = (   2.4887544   5.9269923  22.2092946  )

     number of k points=    10  Fermi-Dirac smearing, width (Ry)=  0.0073
                       cart. coord. in units 2pi/alat
        k(    1) = (   0.0000000   0.0000000   0.0000000), wk =   0.1250000
        k(    2) = (   0.0000000   0.0419351   0.0000000), wk =   0.2500000
        k(    3) = (   0.0000000  -0.0838702   0.0000000), wk =   0.1250000
        k(    4) = (   0.0379955   0.0000049   0.0000000), wk =   0.2500000
        k(    5) = (   0.0379955   0.0419400   0.0000000), wk =   0.2500000
        k(    6) = (   0.0379955  -0.0838652   0.0000000), wk =   0.2500000
        k(    7) = (   0.0379955  -0.0419301   0.0000000), wk =   0.2500000
        k(    8) = (  -0.0759910  -0.0000099   0.0000000), wk =   0.1250000
        k(    9) = (  -0.0759910   0.0419252   0.0000000), wk =   0.2500000
        k(   10) = (  -0.0759910  -0.0838800   0.0000000), wk =   0.1250000

     Initial potential from superposition of free atoms

     starting charge  382.99914, renormalised to  399.00000

     negative rho (up, down):  9.627E-03 0.000E+00

     %%%%%%%%%%%%%%%%%%%%%%%%%%%%%%%%%%%%%%%%%%%%%%%%%%%%%%%%%%%%%%%%%%%%%%%%
     %                                                                      %
     % You are using vdW-DF, which was implemented by the Thonhauser group. %
     % Please cite the following two papers that made this development      %
     % possible and the two reviews that describe the various versions:     %
     %                                                                      %
     %   T. Thonhauser et al., PRL 115, 136402 (2015).                      %
     %   T. Thonhauser et al., PRB 76, 125112 (2007).                       %
     %   K. Berland et al., Rep. Prog. Phys. 78, 066501 (2015).             %
     %   D.C. Langreth et al., J. Phys.: Condens. Matter 21, 084203 (2009). %
     %                                                                      %
     %                                                                      %
     % If you are calculating the stress with vdW-DF, please also cite:     %
     %                                                                      %
     %   R. Sabatini et al., J. Phys.: Condens. Matter 24, 424209 (2012).   %
     %                                                                      %
     %%%%%%%%%%%%%%%%%%%%%%%%%%%%%%%%%%%%%%%%%%%%%%%%%%%%%%%%%%%%%%%%%%%%%%%%

     Adding external electric field

     Computed dipole along edir(3) :
        Dipole              -12.5493 Ry au,        -31.8972 Debye
        Dipole field         -0.0237 Ry au,

        Potential amp.        2.1953 Ry
        Total length         46.3494 bohr

     Starting wfcs are  302 atomic wfcs
  @ DRIVER MODE: Message from server: STATUS
  @ DRIVER MODE: Message from server: POSDATA
  @ DRIVER MODE: Reading and sharing cell
  @ DRIVER MODE: Reading and sharing positions
  @ DRIVER MODE: Received positions

     Self-consistent Calculation

     iteration #  1     ecut=    29.40 Ry     beta= 0.05
     Davidson diagonalization with overlap
     c_bands:  2 eigenvalues not converged
     c_bands:  2 eigenvalues not converged
     c_bands:  4 eigenvalues not converged
     c_bands:  3 eigenvalues not converged
     c_bands:  3 eigenvalues not converged
     c_bands:  3 eigenvalues not converged
     c_bands:  5 eigenvalues not converged
     c_bands:  4 eigenvalues not converged
     c_bands:  5 eigenvalues not converged
     ethr =  1.00E-05,  avg # of iterations = 22.0

[...]

     total energy              =   -2445.25740302 Ry
     estimated scf accuracy    <    5721.85745670 Ry

     iteration #  2     ecut=    29.40 Ry     beta= 0.05
     Davidson diagonalization with overlap
     ethr =  1.00E-02,  avg # of iterations = 22.1

[...]

     iteration # 79     ecut=    29.40 Ry     beta= 0.05
     Davidson diagonalization with overlap
     ethr =  4.06E-11,  avg # of iterations =  8.6

[...]

     total energy              =   -2955.21544251 Ry
     estimated scf accuracy    <       0.00000008 Ry

     iteration # 80     ecut=    29.40 Ry     beta= 0.05
     Davidson diagonalization with overlap
     c_bands:  1 eigenvalues not converged
     ethr =  1.96E-11,  avg # of iterations =  7.6

     negative rho (up, down):  1.110E-02 0.000E+00

     Adding external electric field

     Computed dipole along edir(3) :
        Dipole                1.3273 Ry au,          3.3736 Debye
        Dipole field          0.0025 Ry au,

        Potential amp.       -0.2322 Ry
        Total length         46.3494 bohr

     End of self-consistent calculation

          k = 0.0000 0.0000 0.0000 ( 18029 PWs)   bands (ev):

   -55.4963 -55.4875 -55.4623 -55.4515 -55.4065 -55.3376 -55.3345 -55.3006
   -55.2999 -55.2667 -55.2586 -55.2249 -55.0712 -54.7886 -54.4680 -54.4340
   -32.0458 -31.9778 -31.8512 -31.8363 -31.8155 -31.8001 -31.7894 -31.7497
   -31.7376 -31.7373 -31.7108 -31.7030 -31.6699 -31.6485 -31.6400 -31.6366
   -31.6296 -31.5997 -31.5780 -31.5535 -31.5459 -31.5413 -31.5254 -31.5042
   -31.4950 -31.4902 -31.4868 -31.4784 -31.4618 -31.4590 -31.4539 -31.4498
   -31.4361 -31.4309 -31.4120 -31.4076 -31.3713 -31.3353 -31.2406 -31.0627
   -31.0566 -30.9873 -30.8749 -30.7872 -30.7647 -30.6916 -30.6051 -30.4941
   -18.5816 -16.2544 -15.9726 -15.7927 -15.6501 -15.6178 -15.5298 -15.3319
   -15.2064 -15.1910 -15.0867 -15.0546 -15.0301 -15.0234 -14.9949 -14.9913
   -14.9359 -14.9287 -14.9198 -14.9069 -14.8480 -14.8239 -14.7834 -14.6926
   -14.6683 -14.6530 -14.6256 -14.5430 -14.5374 -14.0945 -13.6312 -12.9706
   -12.8543  -8.4741  -6.3832  -3.9143  -3.6249  -3.4510  -3.4124  -3.3982
    -3.3477  -3.0973  -3.0796  -2.8446  -2.7124  -2.6956  -2.6803  -2.6670
    -2.6499  -2.6311  -2.4149  -2.3942  -2.3266  -2.3107  -2.2886  -2.2804
    -2.2742  -2.2646  -2.2609  -2.2164  -2.1610  -2.0474  -2.0296  -1.9232
    -1.8795  -1.8537  -1.8054  -1.7609  -1.7548  -1.7444  -1.7249  -1.7130
    -1.6909  -1.6733  -1.5380  -1.4753  -1.3427  -1.2969  -1.2893  -1.0955
    -1.0577  -0.9651  -0.9387  -0.9221  -0.9140  -0.8819  -0.8001  -0.7081
    -0.6544  -0.6425  -0.5885  -0.5095  -0.4957  -0.3983  -0.3867  -0.3811
    -0.3277  -0.2647  -0.2549  -0.2460  -0.2006  -0.1327  -0.0568   0.0185
     0.0709   0.0923   0.1188   0.1978   0.2268   0.3217   0.3427   0.3877
     0.3946   0.4409   0.4829   0.4917   0.4973   0.5131   0.5324   0.6803
     0.7882   0.8438   0.8768   0.8877   1.0450   1.0809   1.1686   1.2557
     1.4811   1.5538   1.6485   1.7470   1.8039   2.1246   2.1699   3.6471
     3.7261   3.7800   3.7892   3.8849   3.8920   4.0966   4.1060   4.1170
     4.1889

[...]

          k = 0.0380-0.0419 0.0000 ( 17876 PWs)   bands (ev):

[...]

          k =-0.0760-0.0000 0.0000 ( 17886 PWs)   bands (ev):

[...]

          k =-0.0760-0.0839 0.0000 ( 17948 PWs)   bands (ev):

   -55.4797 -55.4788 -55.4696 -55.4691 -55.4018 -55.3421 -55.3193 -55.3151
   -55.2844 -55.2825 -55.2422 -55.2415 -55.0703 -54.7895 -54.4510 -54.4508
   -31.8501 -31.8483 -31.7933 -31.7928 -31.7831 -31.7752 -31.7743 -31.7588
   -31.6995 -31.6973 -31.6908 -31.6870 -31.6658 -31.6332 -31.6166 -31.6132
   -31.6048 -31.6011 -31.5991 -31.5983 -31.5956 -31.5825 -31.5802 -31.5477
   -31.5378 -31.5365 -31.5117 -31.4975 -31.4807 -31.4802 -31.4748 -31.4744
   -31.4575 -31.4573 -31.4568 -31.4533 -31.4036 -31.3380 -31.2358 -31.1256
   -31.0588 -31.0122 -30.7774 -30.7773 -30.6877 -30.6876 -30.6484 -30.6484
   -18.5815 -15.7056 -15.6733 -15.4350 -15.4291 -15.4192 -15.4046 -15.2628
   -15.2083 -15.1995 -15.1927 -15.1670 -15.1454 -15.0931 -15.0661 -15.0284
   -15.0226 -15.0172 -15.0144 -14.9523 -14.9464 -14.9252 -14.9178 -14.8039
   -14.8010 -14.7999 -14.7280 -14.6588 -14.5232 -14.2632 -13.6527 -12.9563
   -12.9560  -8.4779  -6.3847  -3.9256  -2.9992  -2.9616  -2.8136  -2.7183
    -2.6759  -2.6619  -2.6446  -2.5665  -2.4122  -2.4059  -2.3901  -2.3730
    -2.3585  -2.3214  -2.3148  -2.3023  -2.2897  -2.2823  -2.2642  -2.2282
    -2.1895  -2.1616  -2.1540  -2.1445  -2.1198  -2.1077  -2.0821  -2.0768
    -2.0424  -2.0341  -2.0177  -1.9939  -1.7366  -1.7136  -1.6951  -1.6247
    -1.6175  -1.5851  -1.5766  -1.5572  -1.5440  -1.4917  -1.3925  -1.2261
    -1.1928  -1.1861  -1.1658  -1.1007  -1.0794  -0.9300  -0.9028  -0.8837
    -0.8462  -0.7969  -0.7647  -0.7257  -0.6896  -0.6539  -0.5918  -0.5837
    -0.5039  -0.4553  -0.4543  -0.4289  -0.4173  -0.3580  -0.2790  -0.2604
    -0.2494  -0.2078  -0.1947  -0.1134  -0.0908   0.0071   0.0214   0.0868
     0.1204   0.1907   0.3858   0.4892   0.5483   0.5737   0.6272   0.7224
     0.7765   0.7904   0.8244   0.8296   0.8907   0.9320   1.0464   1.0533
     1.1210   1.2231   1.7500   1.9182   1.9191   1.9896   1.9899   3.9083
     3.9148   3.9657   3.9944   4.1469   4.1515   4.1741   4.1751   4.2951
     4.3142

     the Fermi energy is     3.6400 ev

!    total energy              =   -2955.21545254 Ry
     estimated scf accuracy    <       0.00000006 Ry
     smearing contrib. (-TS)   =      -0.02204930 Ry
     internal energy E=F+TS    =   -2955.19340324 Ry

     The total energy is F=E-TS. E is the sum of the following terms:
     one-electron contribution =  -23379.95775076 Ry
     hartree contribution      =   11781.87936495 Ry
     xc contribution           =    -489.67926109 Ry
     ewald contribution        =    9132.56091908 Ry
     electric field correction =       0.00332458 Ry

     convergence has been achieved in  80 iterations

     Forces acting on atoms (cartesian axes, Ry/au):

     atom    1 type  1   force =     0.00012349   -0.00019118    0.09689086
     atom    2 type  1   force =     0.00003877   -0.00045935   -0.17494534
     atom    3 type  2   force =     0.00012989    0.00001572   -0.02539764
     atom    4 type  2   force =    -0.00002900   -0.00126695    0.05222569
     atom    5 type  2   force =    -0.01215771    0.00000495    0.00288638
     atom    6 type  2   force =     0.01360555    0.00054905    0.00225986
     atom    7 type  1   force =     0.00059705    0.00031252   -0.01254318
     atom    8 type  1   force =     0.00044885    0.00707200    0.03084770
     atom    9 type  2   force =     0.00032573    0.00016218    0.00044344
     atom   10 type  2   force =    -0.00271429    0.00207559   -0.01689920
     atom   11 type  2   force =     0.00018326   -0.00036218    0.00013017
     atom   12 type  2   force =     0.00005535   -0.00035622    0.00022747
     atom   13 type  1   force =    -0.00018465    0.00035299   -0.00001074
     atom   14 type  1   force =    -0.00012903    0.00032745   -0.00035566
     atom   15 type  2   force =    -0.00003453   -0.00030580   -0.00007630
     atom   16 type  2   force =     0.00014740    0.00037989    0.00126785
     atom   17 type  2   force =    -0.00028309   -0.00036144    0.00030136
     atom   18 type  2   force =     0.00035972   -0.00033467    0.00005484
     atom   19 type  1   force =     0.00021032   -0.00039201    0.00038068
     atom   20 type  1   force =    -0.00046622    0.00025187    0.00033129
     atom   21 type  2   force =     0.00005868   -0.00002297    0.10303834
     atom   22 type  2   force =     0.00016836   -0.00080143    0.00030839
     atom   23 type  2   force =    -0.07166391   -0.00015812   -0.02781886
     atom   24 type  2   force =     0.07156072    0.00034195   -0.02787552
     atom   25 type  1   force =     0.00008610   -0.00017281    0.09665263
     atom   26 type  1   force =     0.00009359   -0.00025273   -0.17506225
     atom   27 type  2   force =     0.00011915   -0.00010807   -0.02446475
     atom   28 type  2   force =     0.00004005   -0.00101612    0.05205905
     atom   29 type  2   force =    -0.01235044    0.00066937    0.00265347
     atom   30 type  2   force =     0.01366980    0.00105815    0.00203535
     atom   31 type  1   force =     0.00049714    0.00306549   -0.01334676
     atom   32 type  1   force =     0.00030992   -0.00927390    0.03127461
     atom   33 type  2   force =    -0.00012499    0.00016298    0.00077530
     atom   34 type  2   force =    -0.00202605    0.00179193   -0.02552464
     atom   35 type  2   force =     0.00027245    0.00019118    0.00035792
     atom   36 type  2   force =     0.00021019    0.00010400    0.00034515
     atom   37 type  1   force =    -0.00026071   -0.00064219    0.00017708
     atom   38 type  1   force =    -0.00008614    0.00002977   -0.00022030
     atom   39 type  2   force =     0.00005544   -0.00078408    0.00027511
     atom   40 type  2   force =     0.00025025    0.00003290   -0.00011054
     atom   41 type  2   force =    -0.00040017    0.00008830   -0.00004861
     atom   42 type  2   force =     0.00037620   -0.00012612   -0.00031529
     atom   43 type  1   force =    -0.00033119    0.00050711   -0.00073525
     atom   44 type  1   force =    -0.00041631   -0.00062062    0.00122092
     atom   45 type  2   force =     0.00003927   -0.00004654    0.10308751
     atom   46 type  2   force =    -0.07165907   -0.00005861   -0.02781387
     atom   47 type  2   force =     0.07157816    0.00035967   -0.02788066
     atom   48 type  3   force =     0.00027971   -0.00044563    0.00011081
     atom   49 type  4   force =    -0.00008162   -0.00042240   -0.00025487
     atom   50 type  5   force =    -0.00021706   -0.00011001    0.00087540
     atom   51 type  3   force =    -0.00050440   -0.00036995    0.00042711
     atom   52 type  3   force =     0.00046270   -0.00067360   -0.00071022
     atom   53 type  3   force =     0.00028907    0.00028576   -0.00001320
     atom   54 type  2   force =     0.02501112   -0.00006210   -0.00096982
     atom   55 type  3   force =    -0.01312563   -0.00001879   -0.00997485
     atom   56 type  3   force =    -0.01240724    0.00002382    0.00944659

     Total force =     0.369797     Total SCF correction =     0.000421
  @ DRIVER MODE: Message from server: STATUS
  @ DRIVER MODE: Message from server: GETFORCE
  @ DRIVER MODE: Returning v,forces,stress,ensemble

     Writing output data file ./calc.save/
  @ DRIVER MODE: Message from server: EXIT
  @ DRIVE MODE: Exiting

     General routines

     Parallel routines

   This run was terminated on:   3:36: 2  16Sep2021

   JOB DONE.