     Program PWSCF v.6.7GPU starts on 28Sep2021 at  4: 0:58

     R & G space division:  proc/nbgrp/npool/nimage =       8
     Reading input from /storage/home/hcoda1/3/ntian30/research/carbon/CxH_vib/H2O_calc/ads_slab/CHN2HO_c/out_0016/pw.inp
Warning: card &CELL ignored
Warning: card   CELL_DYNAMICS='IPI', ignored
Warning: card / ignored

     Current dimensions of program PWSCF are:
     Max number of different atomic species (ntypx) = 10
     Max number of k-points (npk) =  40000
     Max angular momentum in pseudopotentials (lmaxx) =  3
     Presently no symmetry can be used with electric field

     Message from routine cell_base_init:
     DEPRECATED: use true lattice parameter, not A to a.u. conversion factor

     IMPORTANT: XC functional enforced from input :
     Exchange-correlation= BEEF-VDW
                           (   1   4  43  14   2   0   0)
     Any further DFT definition will be discarded
     Please, verify this is what you really want

  @ DRIVER MODE: Connecting to
 qe_1139763_3003540.sched-torque.pace.gatech.eduk7md8e5z_scratch
  using UNIX socket
  @ DRIVER MODE: Message from server: STATUS
  @ DRIVER MODE: Message from server: INIT
  @ DRIVER MODE: Receiving replica           0          -1
  @ DRIVER MODE: Receiving encoded integer          25
  @ DRIVER MODE:  SCF:  T  FORCE:  T  STRESS:  F  VC:  F  ENSEMBLE:  F
  @ DRIVER MODE:  SCF:  T  FORCE:  T  STRESS:  F  VC:  F  ENSEMBLE:  F

     Using Slab Decomposition

     bravais-lattice index     =            0
     lattice parameter (alat)  =       1.8897  a.u.
     unit-cell volume          =    6658.9804 (a.u.)^3
     number of atoms/cell      =           53
     number of atomic types    =            5
     number of electrons       =       400.00
     number of Kohn-Sham states=          210
     kinetic-energy cutoff     =      29.3995  Ry
     charge density cutoff     =     293.9946  Ry
     scf convergence threshold =      7.3E-08
     mixing beta               =       0.0500
     number of iterations used =            8  plain     mixing
     Exchange-correlation= BEEF-VDW
                           (   1   4  43  14   2   0   0)

     celldm(1)=   1.889726  celldm(2)=   0.000000  celldm(3)=   0.000000
     celldm(4)=   0.000000  celldm(5)=   0.000000  celldm(6)=   0.000000

     crystal axes: (cart. coord. in units of alat)
               a(1) = (   6.579727   0.000000   0.000000 )
               a(2) = (  -0.000775   5.961596   0.000000 )
               a(3) = (   0.000000   0.000000  25.155947 )

     reciprocal axes: (cart. coord. in units 2 pi/alat)
               b(1) = (  0.151982  0.000020  0.000000 )
               b(2) = (  0.000000  0.167740  0.000000 )
               b(3) = (  0.000000  0.000000  0.039752 )

     PseudoPot. # 1 for Ti read from file:
     /storage/coda1/p-amedford6/0/shared/rich_project_chbe-medford/medford-share/data/pseudos_module/espresso/nninc/pbe/van/Ti.UPF
     MD5 check sum: 8e4df49b7f0d34bbd5052bf3f5ea0213
     Pseudo is Ultrasoft, Zval = 12.0
     Generated by new atomic code, or converted to UPF format
     Using radial grid of  851 points,  6 beta functions with:
                l(1) =   0
                l(2) =   0
                l(3) =   1
                l(4) =   1
                l(5) =   2
                l(6) =   2
     Q(r) pseudized with  8 coefficients,  rinner =    1.000   1.000   1.000
                                                       1.000   1.000

     PseudoPot. # 2 for O  read from file:
     /storage/coda1/p-amedford6/0/shared/rich_project_chbe-medford/medford-share/data/pseudos_module/espresso/nninc/pbe/van/O.UPF
     MD5 check sum: 78c19812648e8988a0fe644b0f25305e
     Pseudo is Ultrasoft, Zval =  6.0
     Generated by new atomic code, or converted to UPF format
     Using radial grid of  737 points,  4 beta functions with:
                l(1) =   0
                l(2) =   0
                l(3) =   1
                l(4) =   1
     Q(r) pseudized with  8 coefficients,  rinner =    0.800   0.800   0.800

     PseudoPot. # 3 for C  read from file:
     /storage/coda1/p-amedford6/0/shared/rich_project_chbe-medford/medford-share/data/pseudos_module/espresso/nninc/pbe/van/C.UPF
     MD5 check sum: 1a69bf6b8db32088f5b2163dbdb77a27
     Pseudo is Ultrasoft, Zval =  4.0
     Generated by new atomic code, or converted to UPF format
     Using radial grid of  721 points,  4 beta functions with:
                l(1) =   0
                l(2) =   0
                l(3) =   1
                l(4) =   1
     Q(r) pseudized with  8 coefficients,  rinner =    0.800   0.800   0.800

     PseudoPot. # 4 for H  read from file:
     /storage/coda1/p-amedford6/0/shared/rich_project_chbe-medford/medford-share/data/pseudos_module/espresso/nninc/pbe/van/H.UPF
     MD5 check sum: b5ee9d7bfd3a09ee7748110bda690ff7
     Pseudo is Ultrasoft, Zval =  1.0
     Generated by new atomic code, or converted to UPF format
     Using radial grid of  615 points,  1 beta functions with:
                l(1) =   0
     Q(r) pseudized with  8 coefficients,  rinner =    0.800

     PseudoPot. # 5 for N  read from file:
     /storage/coda1/p-amedford6/0/shared/rich_project_chbe-medford/medford-share/data/pseudos_module/espresso/nninc/pbe/van/N.UPF
     MD5 check sum: 90d10febe142ad51ac9d5be1deb811c4
     Pseudo is Ultrasoft, Zval =  5.0
     Generated by new atomic code, or converted to UPF format
     Using radial grid of  729 points,  4 beta functions with:
                l(1) =   0
                l(2) =   0
                l(3) =   1
                l(4) =   1
     Q(r) pseudized with  8 coefficients,  rinner =    0.800   0.800   0.800

     atomic species   valence    mass     pseudopotential
        Ti1           12.00    47.86700     Ti( 1.00)
        O1             6.00    15.99900     O ( 1.00)
        C1             4.00    12.01100     C ( 1.00)
        H1             1.00     1.00800     H ( 1.00)
        N1             5.00    14.00700     N ( 1.00)

     No symmetry found

   Cartesian axes

     site n.     atom                  positions (alat units)
         1           Ti1 tau(   1) = (   0.0004258   2.9801865   6.0000000  )
         2           Ti1 tau(   2) = (   3.2906075   1.4906267   6.0002472  )
         3           O1  tau(   3) = (   0.0006271   0.0005054   7.9858123  )
         4           O1  tau(   4) = (   3.2906025   0.0005020   7.3038282  )
         5           O1  tau(   5) = (   4.5942328   1.4918067   9.2879030  )
         6           O1  tau(   6) = (   1.9868534   1.4903216   9.2879459  )
         7           Ti1 tau(   7) = (   3.2907910   2.8959150   9.1758416  )
         8           Ti1 tau(   8) = (   0.0015273   1.4827037   9.2680791  )
         9           O1  tau(   9) = (   3.2766663   5.9464886  11.2681881  )
        10           O1  tau(  10) = (   0.0116148   5.9584955  10.6183126  )
        11           O1  tau(  11) = (   1.2752176   1.4923442  12.6271229  )
        12           O1  tau(  12) = (   5.2852060   1.4859299  12.6156521  )
        13           Ti1 tau(  13) = (   6.5717068   2.8472942  12.7124165  )
        14           Ti1 tau(  14) = (   3.2754330   1.3122793  12.6492615  )
        15           O1  tau(  15) = (   6.5604847   5.9612185  14.6398873  )
        16           O1  tau(  16) = (   3.2770837   0.0341078  13.8632434  )
        17           O1  tau(  17) = (   4.5026011   1.5263741  16.0779633  )
        18           O1  tau(  18) = (   1.9856211   1.5373541  16.0544900  )
        19           Ti1 tau(  19) = (   3.2645371   3.0024783  15.6402076  )
        20           Ti1 tau(  20) = (   0.0306923   1.4636683  15.8866077  )
        21           O1  tau(  21) = (   3.2904802   0.0005063   4.7018136  )
        22           O1  tau(  22) = (   6.5250562   0.0096470  17.1651689  )
        23           O1  tau(  23) = (   1.3043587   1.4918075   6.0039043  )
        24           O1  tau(  24) = (   5.2767064   1.4903225   6.0039473  )
        25           Ti1 tau(  25) = (   0.0000382   5.9609847   6.0000000  )
        26           Ti1 tau(  26) = (   3.2902200   4.4714249   6.0002472  )
        27           O1  tau(  27) = (   0.0002396   2.9813036   7.9858123  )
        28           O1  tau(  28) = (   3.2902150   2.9813002   7.3038282  )
        29           O1  tau(  29) = (   4.5938453   4.4726049   9.2879030  )
        30           O1  tau(  30) = (   1.9864658   4.4711199   9.2879459  )
        31           Ti1 tau(  31) = (   3.2891106   5.8743827   9.1763621  )
        32           Ti1 tau(  32) = (   0.0006254   4.4649316   9.2693709  )
        33           O1  tau(  33) = (   3.2790072   3.0290766  11.2406627  )
        34           O1  tau(  34) = (   0.0092240   2.9805883  10.6323155  )
        35           O1  tau(  35) = (   1.2722205   4.4691906  12.6310473  )
        36           O1  tau(  36) = (   5.2766839   4.4717175  12.6187613  )
        37           Ti1 tau(  37) = (   6.5522158   5.8291752  12.6058762  )
        38           Ti1 tau(  38) = (   3.2615408   4.4097241  12.4102932  )
        39           O1  tau(  39) = (   6.5509886   2.9451087  14.6802276  )
        40           O1  tau(  40) = (   3.2772003   2.9821494  13.8576607  )
        41           O1  tau(  41) = (   4.5331312   4.4179464  16.0511208  )
        42           O1  tau(  42) = (   2.0062445   4.4387243  16.0647957  )
        43           Ti1 tau(  43) = (   3.2965114   0.0079596  16.3395523  )
        44           Ti1 tau(  44) = (   6.5556523   4.6042306  16.0453395  )
        45           O1  tau(  45) = (   3.2900926   2.9813045   4.7018136  )
        46           O1  tau(  46) = (   1.3039711   4.4726057   6.0039043  )
        47           O1  tau(  47) = (   5.2763189   4.4711207   6.0039473  )
        48           C1  tau(  48) = (   0.0539703   2.9674629  17.6512085  )
        49           H1  tau(  49) = (   1.0088706   2.9548903  18.1741722  )
        50           N1  tau(  50) = (   5.6350074   2.8916608  18.4775489  )
        51           N1  tau(  51) = (   4.6939826   2.7887373  19.1166784  )
        52           O1  tau(  52) = (   3.2898008   5.9156070  18.1392511  )
        53           H1  tau(  53) = (   3.8410492   0.4763436  18.7420070  )

     number of k points=    10  Fermi-Dirac smearing, width (Ry)=  0.0073
                       cart. coord. in units 2pi/alat
        k(    1) = (   0.0000000   0.0000000   0.0000000), wk =   0.1250000
        k(    2) = (   0.0000000   0.0419351   0.0000000), wk =   0.2500000
        k(    3) = (   0.0000000  -0.0838702   0.0000000), wk =   0.1250000
        k(    4) = (   0.0379955   0.0000049   0.0000000), wk =   0.2500000
        k(    5) = (   0.0379955   0.0419400   0.0000000), wk =   0.2500000
        k(    6) = (   0.0379955  -0.0838652   0.0000000), wk =   0.2500000
        k(    7) = (   0.0379955  -0.0419301   0.0000000), wk =   0.2500000
        k(    8) = (  -0.0759910  -0.0000099   0.0000000), wk =   0.1250000
        k(    9) = (  -0.0759910   0.0419252   0.0000000), wk =   0.2500000
        k(   10) = (  -0.0759910  -0.0838800   0.0000000), wk =   0.1250000

     Initial potential from superposition of free atoms

     starting charge  383.99917, renormalised to  400.00000

     negative rho (up, down):  1.800E-02 0.000E+00

     %%%%%%%%%%%%%%%%%%%%%%%%%%%%%%%%%%%%%%%%%%%%%%%%%%%%%%%%%%%%%%%%%%%%%%%%
     %                                                                      %
     % You are using vdW-DF, which was implemented by the Thonhauser group. %
     % Please cite the following two papers that made this development      %
     % possible and the two reviews that describe the various versions:     %
     %                                                                      %
     %   T. Thonhauser et al., PRL 115, 136402 (2015).                      %
     %   T. Thonhauser et al., PRB 76, 125112 (2007).                       %
     %   K. Berland et al., Rep. Prog. Phys. 78, 066501 (2015).             %
     %   D.C. Langreth et al., J. Phys.: Condens. Matter 21, 084203 (2009). %
     %                                                                      %
     %                                                                      %
     % If you are calculating the stress with vdW-DF, please also cite:     %
     %                                                                      %
     %   R. Sabatini et al., J. Phys.: Condens. Matter 24, 424209 (2012).   %
     %                                                                      %
     %%%%%%%%%%%%%%%%%%%%%%%%%%%%%%%%%%%%%%%%%%%%%%%%%%%%%%%%%%%%%%%%%%%%%%%%

     Adding external electric field

     Computed dipole along edir(3) :
        Dipole              -10.2460 Ry au,        -26.0427 Debye
        Dipole field         -0.0193 Ry au,

        Potential amp.        1.7924 Ry
        Total length         46.3494 bohr

     Starting wfcs are  302 atomic wfcs
  @ DRIVER MODE: Message from server: STATUS
  @ DRIVER MODE: Message from server: POSDATA
  @ DRIVER MODE: Reading and sharing cell
  @ DRIVER MODE: Reading and sharing positions
  @ DRIVER MODE: Received positions

     Self-consistent Calculation

     iteration #  1     ecut=    29.40 Ry     beta= 0.05
     Davidson diagonalization with overlap
     c_bands:  2 eigenvalues not converged
     c_bands:  1 eigenvalues not converged
     c_bands:  2 eigenvalues not converged
     c_bands:  2 eigenvalues not converged
     c_bands:  3 eigenvalues not converged
     c_bands:  2 eigenvalues not converged
     c_bands:  1 eigenvalues not converged
     c_bands:  1 eigenvalues not converged
     ethr =  1.00E-05,  avg # of iterations = 19.5

[...]

     total energy              =   -2479.78676759 Ry
     estimated scf accuracy    <    5464.25030484 Ry

     iteration #  2     ecut=    29.40 Ry     beta= 0.05
     Davidson diagonalization with overlap
     ethr =  1.00E-02,  avg # of iterations = 23.7

[...]

     iteration # 40     ecut=    29.40 Ry     beta= 0.05
     Davidson diagonalization with overlap
     c_bands:  1 eigenvalues not converged
     ethr =  6.08E-07,  avg # of iterations =  7.9

[...]

     total energy              =   -2970.23701343 Ry
     estimated scf accuracy    <       0.00000011 Ry

     iteration # 68     ecut=    29.40 Ry     beta= 0.05
     Davidson diagonalization with overlap
     ethr =  2.63E-11,  avg # of iterations =  7.4

     negative rho (up, down):  1.778E-02 0.000E+00

     Adding external electric field

     Computed dipole along edir(3) :
        Dipole                0.0343 Ry au,          0.0872 Debye
        Dipole field          0.0001 Ry au,

        Potential amp.       -0.0060 Ry
        Total length         46.3494 bohr

     End of self-consistent calculation

          k = 0.0000 0.0000 0.0000 ( 18029 PWs)   bands (ev):

   -56.9003 -56.8667 -56.1334 -56.0976 -55.8755 -55.8141 -55.7059 -55.5590
   -55.5026 -55.4939 -55.4821 -55.4687 -55.4421 -55.4305 -55.2436 -55.2289
   -33.3258 -33.1796 -33.1515 -33.0727 -32.9820 -32.9522 -32.6164 -32.3547
   -32.3533 -32.3242 -32.2748 -32.2726 -32.2415 -32.1067 -32.0953 -32.0424
   -32.0401 -32.0380 -32.0182 -31.9771 -31.9697 -31.9286 -31.9272 -31.9009
   -31.8874 -31.8549 -31.8465 -31.8268 -31.8221 -31.7673 -31.7123 -31.7107
   -31.6984 -31.6928 -31.6825 -31.6769 -31.6539 -31.6484 -31.6337 -31.6280
   -31.6216 -31.5163 -31.4944 -31.4809 -31.4729 -31.4683 -31.4381 -31.4341
   -20.3762 -17.0460 -16.5583 -16.5146 -16.2447 -16.2175 -16.1421 -16.1278
   -16.1225 -15.8618 -15.8359 -15.8118 -15.7446 -15.6949 -15.5212 -15.4246
   -15.3590 -15.2667 -15.1996 -15.1797 -15.1755 -15.1463 -15.1249 -15.1211
   -15.0337 -15.0261 -14.9154 -14.8183 -14.7733 -14.5233 -14.4792 -14.0004
   -13.8921 -13.4241  -5.5846  -4.6089  -4.5515  -4.3957  -4.1792  -4.0440
    -3.8644  -3.6698  -3.6169  -3.4617  -3.4505  -3.3898  -3.3456  -3.3288
    -3.2367  -3.1401  -3.0604  -3.0600  -3.0357  -2.9670  -2.9406  -2.7812
    -2.7802  -2.7693  -2.6457  -2.5947  -2.5403  -2.4936  -2.4816  -2.4357
    -2.4122  -2.4006  -2.3526  -2.3039  -2.2970  -2.1652  -2.1234  -2.0987
    -2.0461  -1.9881  -1.9716  -1.8968  -1.8789  -1.8557  -1.6871  -1.6211
    -1.5798  -1.5285  -1.4983  -1.4724  -1.3334  -1.3019  -1.2039  -1.2008
    -1.1630  -1.1138  -1.0563  -1.0356  -0.9667  -0.8763  -0.8620  -0.8499
    -0.7778  -0.6985  -0.6201  -0.5769  -0.5101  -0.5000  -0.4820  -0.4501
    -0.4402  -0.3469  -0.3015  -0.2534  -0.1673  -0.1393  -0.0124  -0.0020
     0.0622   0.1108   0.1302   0.1620   0.1749   0.2053   0.2751   0.3422
     0.3683   0.3957   0.5190   0.5278   0.5784   0.5940   0.7096   0.7326
     0.7421   0.7906   0.8567   0.9303   1.0549   1.0960   1.3630   1.9242
     2.3787   2.5384   2.8182   2.9049   3.2135   3.3610   3.3663   3.3758
     3.5518   3.6862

[...]

          k = 0.0380-0.0419 0.0000 ( 17876 PWs)   bands (ev):

[...]

          k =-0.0760-0.0000 0.0000 ( 17886 PWs)   bands (ev):

[...]

          k =-0.0760-0.0839 0.0000 ( 17948 PWs)   bands (ev):

   -56.8839 -56.8829 -56.1217 -56.1091 -55.8704 -55.8191 -55.7051 -55.5548
   -55.4945 -55.4861 -55.4860 -55.4850 -55.4408 -55.4290 -55.2450 -55.2302
   -33.1658 -33.1647 -33.1434 -33.1422 -33.0262 -33.0255 -32.4424 -32.4319
   -32.3158 -32.3029 -32.3022 -32.2941 -32.1775 -32.1370 -32.1004 -32.0911
   -32.0463 -32.0402 -31.9956 -31.9550 -31.9155 -31.8855 -31.8620 -31.8356
   -31.8348 -31.8263 -31.8163 -31.8132 -31.7809 -31.7743 -31.7584 -31.7214
   -31.7084 -31.7068 -31.7016 -31.6832 -31.6804 -31.6697 -31.6683 -31.6588
   -31.6415 -31.6192 -31.5806 -31.5333 -31.4944 -31.4830 -31.4630 -31.4419
   -20.3757 -16.5053 -16.4179 -16.4147 -16.3499 -16.3480 -16.1233 -16.1172
   -15.8977 -15.8653 -15.7570 -15.6660 -15.5982 -15.5454 -15.5406 -15.4995
   -15.4042 -15.3892 -15.3249 -15.2845 -15.2696 -15.2039 -15.1806 -15.1383
   -15.1308 -15.0960 -14.9555 -14.8985 -14.8727 -14.7309 -14.6195 -13.9964
   -13.9958 -13.4303  -5.5865  -4.5570  -4.3466  -4.1650  -3.5010  -3.4820
    -3.4710  -3.4645  -3.2368  -3.2220  -3.2057  -3.1067  -3.0850  -3.0542
    -2.9922  -2.9894  -2.8872  -2.8318  -2.8016  -2.7933  -2.7774  -2.7216
    -2.7192  -2.6985  -2.6517  -2.5586  -2.5493  -2.5176  -2.4957  -2.4438
    -2.3636  -2.3313  -2.3108  -2.2877  -2.2776  -2.2693  -2.2462  -2.2114
    -2.1460  -1.9613  -1.9243  -1.8839  -1.8437  -1.8011  -1.7902  -1.7224
    -1.7133  -1.6942  -1.6513  -1.5671  -1.5424  -1.5043  -1.4989  -1.4181
    -1.3678  -1.3453  -1.2898  -1.2290  -1.1188  -1.0591  -1.0251  -1.0149
    -1.0008  -0.9736  -0.9017  -0.8273  -0.7793  -0.7031  -0.6736  -0.6545
    -0.6202  -0.5959  -0.5321  -0.5186  -0.4276  -0.3732  -0.2737  -0.2054
    -0.1737  -0.1240  -0.0940  -0.0195   0.0518   0.1403   0.1688   0.2358
     0.2466   0.2990   0.3360   0.5167   0.6232   0.6501   0.6826   0.8032
     0.8157   0.8489   0.8999   0.9034   0.9042   0.9425   0.9872   1.8837
     2.9585   2.9613   3.0159   3.0226   3.3151   3.3232   3.4313   3.4355
     3.6539   3.6771

     the Fermi energy is     2.2092 ev

!    total energy              =   -2970.23703447 Ry
     estimated scf accuracy    <       0.00000007 Ry
     smearing contrib. (-TS)   =      -0.00495694 Ry
     internal energy E=F+TS    =   -2970.23207753 Ry

     The total energy is F=E-TS. E is the sum of the following terms:
     one-electron contribution =  -23890.90955122 Ry
     hartree contribution      =   12034.91540779 Ry
     xc contribution           =    -491.37501060 Ry
     ewald contribution        =    9377.13707428 Ry
     electric field correction =       0.00000222 Ry

     convergence has been achieved in  68 iterations

     Forces acting on atoms (cartesian axes, Ry/au):

     atom    1 type  1   force =     0.00015351   -0.00042141    0.12033996
     atom    2 type  1   force =    -0.00005363    0.00014355   -0.15699233
     atom    3 type  2   force =     0.00001964   -0.00007430   -0.05923440
     atom    4 type  2   force =     0.00000165    0.00008320    0.02056011
     atom    5 type  2   force =    -0.00371067   -0.00201945   -0.01102711
     atom    6 type  2   force =     0.00483514   -0.00123492   -0.01301988
     atom    7 type  1   force =    -0.00068410   -0.00618620    0.05342140
     atom    8 type  1   force =     0.00116700    0.01366949    0.08841343
     atom    9 type  2   force =    -0.00013119   -0.00126346    0.00077890
     atom   10 type  2   force =    -0.00301456    0.00052429   -0.05511111
     atom   11 type  2   force =    -0.00000371    0.00031794    0.00020743
     atom   12 type  2   force =    -0.00048318   -0.00023162   -0.00031212
     atom   13 type  1   force =    -0.00071723    0.00115995   -0.00087758
     atom   14 type  1   force =    -0.00006268   -0.00120373   -0.00011298
     atom   15 type  2   force =     0.00018130    0.00065362   -0.00030664
     atom   16 type  2   force =     0.00059460   -0.00075629   -0.00065386
     atom   17 type  2   force =     0.00054444    0.00050097   -0.00027026
     atom   18 type  2   force =    -0.00004748    0.00049615   -0.00076145
     atom   19 type  1   force =     0.00019536    0.00009337    0.00062325
     atom   20 type  1   force =     0.00042027   -0.00078196    0.00027992
     atom   21 type  2   force =     0.00009824    0.00021302    0.09833395
     atom   22 type  2   force =     0.00022644    0.00009292    0.00077847
     atom   23 type  2   force =    -0.08115589    0.00005228   -0.03236947
     atom   24 type  2   force =     0.08114305    0.00049333   -0.03236309
     atom   25 type  1   force =     0.00015602   -0.00059753    0.12074627
     atom   26 type  1   force =     0.00006178   -0.00144200   -0.15745247
     atom   27 type  2   force =     0.00009692   -0.00078461   -0.05736745
     atom   28 type  2   force =     0.00003839    0.00183059    0.01624739
     atom   29 type  2   force =    -0.00204717    0.00509096   -0.01430404
     atom   30 type  2   force =     0.00292677    0.00551934   -0.01631875
     atom   31 type  1   force =    -0.00059262    0.00199284    0.03657309
     atom   32 type  1   force =     0.00117146   -0.01698102    0.08811815
     atom   33 type  2   force =    -0.00003455    0.00050375    0.00107481
     atom   34 type  2   force =    -0.00260476    0.00100504   -0.07065125
     atom   35 type  2   force =     0.00135146   -0.00051076    0.00038850
     atom   36 type  2   force =    -0.00024028   -0.00018114    0.00024839
     atom   37 type  1   force =    -0.00060502   -0.00038538    0.00010935
     atom   38 type  1   force =     0.00106557   -0.00064023   -0.00020186
     atom   39 type  2   force =    -0.00063685   -0.00076178    0.00037123
     atom   40 type  2   force =    -0.00014720   -0.00008314   -0.00062603
     atom   41 type  2   force =     0.00094339    0.00028901   -0.00010012
     atom   42 type  2   force =     0.00013594    0.00003134   -0.00033257
     atom   43 type  1   force =     0.00000277    0.00050671    0.00047755
     atom   44 type  1   force =     0.00037481    0.00073922   -0.00074019
     atom   45 type  2   force =     0.00010197    0.00002486    0.09815511
     atom   46 type  2   force =    -0.08119833    0.00000669   -0.03235003
     atom   47 type  2   force =     0.08118910    0.00042359   -0.03236502
     atom   48 type  3   force =     0.00134999    0.00042835   -0.00040348
     atom   49 type  4   force =    -0.00038332    0.00046705    0.00071823
     atom   50 type  5   force =    -0.00307121   -0.00505672    0.00180423
     atom   51 type  5   force =     0.00223498    0.00180907   -0.00207433
     atom   52 type  2   force =    -0.00091594    0.00078522   -0.00073482
     atom   53 type  4   force =    -0.00024040    0.00164994    0.00066560

     Total force =     0.406370     Total SCF correction =     0.000820
  @ DRIVER MODE: Message from server: STATUS
  @ DRIVER MODE: Message from server: GETFORCE
  @ DRIVER MODE: Returning v,forces,stress,ensemble

     Writing output data file ./calc.save/
  @ DRIVER MODE: Message from server: EXIT
  @ DRIVE MODE: Exiting

     General routines

     Parallel routines

   This run was terminated on:   4:22:49  28Sep2021

   JOB DONE.