     Program PWSCF v.6.7GPU starts on  2Aug2021 at 17:31:37

     R & G space division:  proc/nbgrp/npool/nimage =      16
     Reading input from /storage/home/hcoda1/3/ntian30/research/carbon/02Aug_vib_paired/ads_slab/CH3N_a/out_0027/pw.inp
Warning: card &CELL ignored
Warning: card   CELL_DYNAMICS='IPI', ignored
Warning: card / ignored

     Current dimensions of program PWSCF are:
     Max number of different atomic species (ntypx) = 10
     Max number of k-points (npk) =  40000
     Max angular momentum in pseudopotentials (lmaxx) =  3
     Presently no symmetry can be used with electric field

     Message from routine cell_base_init:
     DEPRECATED: use true lattice parameter, not A to a.u. conversion factor

     IMPORTANT: XC functional enforced from input :
     Exchange-correlation= BEEF-VDW
                           (   1   4  43  14   2   0   0)
     Any further DFT definition will be discarded
     Please, verify this is what you really want

  @ DRIVER MODE: Connecting to
 qe_1139763_2482542.sched-torque.pace.gatech.edu_f9_93vm_scratch
  using UNIX socket
  @ DRIVER MODE: Message from server: STATUS
  @ DRIVER MODE: Message from server: INIT
  @ DRIVER MODE: Receiving replica           0          -1
  @ DRIVER MODE: Receiving encoded integer          25
  @ DRIVER MODE:  SCF:  T  FORCE:  T  STRESS:  F  VC:  F  ENSEMBLE:  F
  @ DRIVER MODE:  SCF:  T  FORCE:  T  STRESS:  F  VC:  F  ENSEMBLE:  F

     Using Slab Decomposition

     bravais-lattice index     =            0
     lattice parameter (alat)  =       1.8897  a.u.
     unit-cell volume          =    6658.9804 (a.u.)^3
     number of atoms/cell      =           52
     number of atomic types    =            5
     number of electrons       =       390.00
     number of Kohn-Sham states=          205
     kinetic-energy cutoff     =      29.3995  Ry
     charge density cutoff     =     293.9946  Ry
     scf convergence threshold =      7.3E-08
     mixing beta               =       0.0500
     number of iterations used =            8  plain     mixing
     Exchange-correlation= BEEF-VDW
                           (   1   4  43  14   2   0   0)

     celldm(1)=   1.889726  celldm(2)=   0.000000  celldm(3)=   0.000000
     celldm(4)=   0.000000  celldm(5)=   0.000000  celldm(6)=   0.000000

     crystal axes: (cart. coord. in units of alat)
               a(1) = (   6.579727   0.000000   0.000000 )
               a(2) = (  -0.000775   5.961596   0.000000 )
               a(3) = (   0.000000   0.000000  25.155947 )

     reciprocal axes: (cart. coord. in units 2 pi/alat)
               b(1) = (  0.151982  0.000020  0.000000 )
               b(2) = (  0.000000  0.167740  0.000000 )
               b(3) = (  0.000000  0.000000  0.039752 )

     PseudoPot. # 1 for Ti read from file:
     /storage/coda1/p-amedford6/0/shared/rich_project_chbe-medford/medford-share/data/pseudos_module/espresso/nninc/pbe/van/Ti.UPF
     MD5 check sum: 8e4df49b7f0d34bbd5052bf3f5ea0213
     Pseudo is Ultrasoft, Zval = 12.0
     Generated by new atomic code, or converted to UPF format
     Using radial grid of  851 points,  6 beta functions with:
                l(1) =   0
                l(2) =   0
                l(3) =   1
                l(4) =   1
                l(5) =   2
                l(6) =   2
     Q(r) pseudized with  8 coefficients,  rinner =    1.000   1.000   1.000
                                                       1.000   1.000

     PseudoPot. # 2 for O  read from file:
     /storage/coda1/p-amedford6/0/shared/rich_project_chbe-medford/medford-share/data/pseudos_module/espresso/nninc/pbe/van/O.UPF
     MD5 check sum: 78c19812648e8988a0fe644b0f25305e
     Pseudo is Ultrasoft, Zval =  6.0
     Generated by new atomic code, or converted to UPF format
     Using radial grid of  737 points,  4 beta functions with:
                l(1) =   0
                l(2) =   0
                l(3) =   1
                l(4) =   1
     Q(r) pseudized with  8 coefficients,  rinner =    0.800   0.800   0.800

     PseudoPot. # 3 for N  read from file:
     /storage/coda1/p-amedford6/0/shared/rich_project_chbe-medford/medford-share/data/pseudos_module/espresso/nninc/pbe/van/N.UPF
     MD5 check sum: 90d10febe142ad51ac9d5be1deb811c4
     Pseudo is Ultrasoft, Zval =  5.0
     Generated by new atomic code, or converted to UPF format
     Using radial grid of  729 points,  4 beta functions with:
                l(1) =   0
                l(2) =   0
                l(3) =   1
                l(4) =   1
     Q(r) pseudized with  8 coefficients,  rinner =    0.800   0.800   0.800

     PseudoPot. # 4 for C  read from file:
     /storage/coda1/p-amedford6/0/shared/rich_project_chbe-medford/medford-share/data/pseudos_module/espresso/nninc/pbe/van/C.UPF
     MD5 check sum: 1a69bf6b8db32088f5b2163dbdb77a27
     Pseudo is Ultrasoft, Zval =  4.0
     Generated by new atomic code, or converted to UPF format
     Using radial grid of  721 points,  4 beta functions with:
                l(1) =   0
                l(2) =   0
                l(3) =   1
                l(4) =   1
     Q(r) pseudized with  8 coefficients,  rinner =    0.800   0.800   0.800

     PseudoPot. # 5 for H  read from file:
     /storage/coda1/p-amedford6/0/shared/rich_project_chbe-medford/medford-share/data/pseudos_module/espresso/nninc/pbe/van/H.UPF
     MD5 check sum: b5ee9d7bfd3a09ee7748110bda690ff7
     Pseudo is Ultrasoft, Zval =  1.0
     Generated by new atomic code, or converted to UPF format
     Using radial grid of  615 points,  1 beta functions with:
                l(1) =   0
     Q(r) pseudized with  8 coefficients,  rinner =    0.800

     atomic species   valence    mass     pseudopotential
        Ti1           12.00    47.86700     Ti( 1.00)
        O1             6.00    15.99900     O ( 1.00)
        N1             5.00    14.00700     N ( 1.00)
        C1             4.00    12.01100     C ( 1.00)
        H1             1.00     1.00800     H ( 1.00)

     No symmetry found

   Cartesian axes

     site n.     atom                  positions (alat units)
         1           Ti1 tau(   1) = (   0.0004258   2.9801865   6.0000000  )
         2           Ti1 tau(   2) = (   3.2906075   1.4906267   6.0002472  )
         3           O1  tau(   3) = (   0.0006271   0.0005054   7.9858123  )
         4           O1  tau(   4) = (   3.2906025   0.0005020   7.3038282  )
         5           O1  tau(   5) = (   4.5942328   1.4918067   9.2879030  )
         6           O1  tau(   6) = (   1.9868534   1.4903216   9.2879459  )
         7           Ti1 tau(   7) = (   3.2907910   2.8959150   9.1758416  )
         8           Ti1 tau(   8) = (   0.0015273   1.4827037   9.2680791  )
         9           O1  tau(   9) = (   3.2848820   0.0184509  11.2968037  )
        10           O1  tau(  10) = (   0.0116148   5.9584955  10.6183126  )
        11           O1  tau(  11) = (   1.3164307   1.5202202  12.6152053  )
        12           O1  tau(  12) = (   5.2938533   1.5248534  12.6363518  )
        13           Ti1 tau(  13) = (   6.4693392   3.0155455  12.7604093  )
        14           Ti1 tau(  14) = (   3.1621140   1.5165027  12.4659144  )
        15           O1  tau(  15) = (   0.0250032   0.0426882  14.5925537  )
        16           O1  tau(  16) = (   3.2896737   0.0171256  13.8799622  )
        17           O1  tau(  17) = (   4.5365032   1.4993634  16.0438468  )
        18           O1  tau(  18) = (   2.0814567   1.5015292  16.0591106  )
        19           Ti1 tau(  19) = (   3.3082904   2.9956922  15.6854367  )
        20           Ti1 tau(  20) = (   0.0032501   1.4479889  16.1249605  )
        21           O1  tau(  21) = (   3.2904802   0.0005063   4.7018136  )
        22           O1  tau(  22) = (   0.0161699   0.0004382  17.1970091  )
        23           O1  tau(  23) = (   1.3043587   1.4918075   6.0039043  )
        24           O1  tau(  24) = (   5.2767064   1.4903225   6.0039473  )
        25           Ti1 tau(  25) = (   0.0000382   5.9609847   6.0000000  )
        26           Ti1 tau(  26) = (   3.2902200   4.4714249   6.0002472  )
        27           O1  tau(  27) = (   0.0002396   2.9813036   7.9858123  )
        28           O1  tau(  28) = (   3.2902150   2.9813002   7.3038282  )
        29           O1  tau(  29) = (   4.5938453   4.4726049   9.2879030  )
        30           O1  tau(  30) = (   1.9864658   4.4711199   9.2879459  )
        31           Ti1 tau(  31) = (   3.2891106   5.8743827   9.1763621  )
        32           Ti1 tau(  32) = (   0.0006254   4.4649316   9.2693709  )
        33           O1  tau(  33) = (   3.2855107   2.9994495  11.2959752  )
        34           O1  tau(  34) = (   0.0092240   2.9805883  10.6323155  )
        35           O1  tau(  35) = (   1.3179678   4.4860142  12.6155112  )
        36           O1  tau(  36) = (   5.2920789   4.4901865  12.6316709  )
        37           Ti1 tau(  37) = (   6.5050993   0.0355131  12.7707974  )
        38           Ti1 tau(  38) = (   3.1594757   4.4963870  12.4672366  )
        39           O1  tau(  39) = (   6.5726527   3.0227966  14.6583025  )
        40           O1  tau(  40) = (   3.2932321   2.9979836  13.8792693  )
        41           O1  tau(  41) = (   4.5322310   4.4839795  16.0418810  )
        42           O1  tau(  42) = (   2.0800586   4.4799519  16.0553745  )
        43           Ti1 tau(  43) = (   3.2910362   0.0127607  15.6894215  )
        44           Ti1 tau(  44) = (   0.0049462   4.4269923  16.0943486  )
        45           O1  tau(  45) = (   3.2900926   2.9813045   4.7018136  )
        46           O1  tau(  46) = (   1.3039711   4.4726057   6.0039043  )
        47           O1  tau(  47) = (   5.2763189   4.4711207   6.0039473  )
        48           N1  tau(  48) = (   0.0596666   2.9942962  17.3216073  )
        49           C1  tau(  49) = (   0.3918855   2.9774893  18.7266025  )
        50           H1  tau(  50) = (   0.0017595   3.8652167  19.2343835  )
        51           H1  tau(  51) = (   0.0043965   2.0815098  19.2200810  )
        52           H1  tau(  52) = (   1.4843755   2.9688857  18.8581259  )

     number of k points=    10  Fermi-Dirac smearing, width (Ry)=  0.0073
                       cart. coord. in units 2pi/alat
        k(    1) = (   0.0000000   0.0000000   0.0000000), wk =   0.1250000
        k(    2) = (   0.0000000   0.0419351   0.0000000), wk =   0.2500000
        k(    3) = (   0.0000000  -0.0838702   0.0000000), wk =   0.1250000
        k(    4) = (   0.0379955   0.0000049   0.0000000), wk =   0.2500000
        k(    5) = (   0.0379955   0.0419400   0.0000000), wk =   0.2500000
        k(    6) = (   0.0379955  -0.0838652   0.0000000), wk =   0.2500000
        k(    7) = (   0.0379955  -0.0419301   0.0000000), wk =   0.2500000
        k(    8) = (  -0.0759910  -0.0000099   0.0000000), wk =   0.1250000
        k(    9) = (  -0.0759910   0.0419252   0.0000000), wk =   0.2500000
        k(   10) = (  -0.0759910  -0.0838800   0.0000000), wk =   0.1250000

     Initial potential from superposition of free atoms

     starting charge  373.99917, renormalised to  390.00000

     negative rho (up, down):  1.730E-02 0.000E+00

     %%%%%%%%%%%%%%%%%%%%%%%%%%%%%%%%%%%%%%%%%%%%%%%%%%%%%%%%%%%%%%%%%%%%%%%%
     %                                                                      %
     % You are using vdW-DF, which was implemented by the Thonhauser group. %
     % Please cite the following two papers that made this development      %
     % possible and the two reviews that describe the various versions:     %
     %                                                                      %
     %   T. Thonhauser et al., PRL 115, 136402 (2015).                      %
     %   T. Thonhauser et al., PRB 76, 125112 (2007).                       %
     %   K. Berland et al., Rep. Prog. Phys. 78, 066501 (2015).             %
     %   D.C. Langreth et al., J. Phys.: Condens. Matter 21, 084203 (2009). %
     %                                                                      %
     %                                                                      %
     % If you are calculating the stress with vdW-DF, please also cite:     %
     %                                                                      %
     %   R. Sabatini et al., J. Phys.: Condens. Matter 24, 424209 (2012).   %
     %                                                                      %
     %%%%%%%%%%%%%%%%%%%%%%%%%%%%%%%%%%%%%%%%%%%%%%%%%%%%%%%%%%%%%%%%%%%%%%%%

     Adding external electric field

     Computed dipole along edir(3) :
        Dipole               -4.6263 Ry au,        -11.7589 Debye
        Dipole field         -0.0087 Ry au,

        Potential amp.        0.8093 Ry
        Total length         46.3494 bohr

     Starting wfcs are  295 atomic wfcs
  @ DRIVER MODE: Message from server: STATUS
  @ DRIVER MODE: Message from server: POSDATA
  @ DRIVER MODE: Reading and sharing cell
  @ DRIVER MODE: Reading and sharing positions
  @ DRIVER MODE: Received positions

     Self-consistent Calculation

     iteration #  1     ecut=    29.40 Ry     beta= 0.05
     Davidson diagonalization with overlap
     c_bands:  4 eigenvalues not converged
     c_bands:  3 eigenvalues not converged
     c_bands:  2 eigenvalues not converged
     c_bands:  4 eigenvalues not converged
     c_bands:  4 eigenvalues not converged
     c_bands:  2 eigenvalues not converged
     c_bands:  2 eigenvalues not converged
     c_bands:  2 eigenvalues not converged
     ethr =  1.00E-05,  avg # of iterations = 19.7

[...]

     total energy              =   -2877.21448581 Ry
     estimated scf accuracy    <     483.32396238 Ry

     iteration #  2     ecut=    29.40 Ry     beta= 0.05
     Davidson diagonalization with overlap
     ethr =  1.00E-02,  avg # of iterations = 13.5

[...]

     iteration # 39     ecut=    29.40 Ry     beta= 0.05
     Davidson diagonalization with overlap
     c_bands:  1 eigenvalues not converged
     c_bands:  1 eigenvalues not converged
     ethr =  1.12E-06,  avg # of iterations =  8.2

[...]

     total energy              =   -2919.13282183 Ry
     estimated scf accuracy    <       0.00000012 Ry

     iteration # 61     ecut=    29.40 Ry     beta= 0.05
     Davidson diagonalization with overlap
     ethr =  2.24E-11,  avg # of iterations =  5.6

     negative rho (up, down):  1.773E-02 0.000E+00

     Adding external electric field

     Computed dipole along edir(3) :
        Dipole                0.2513 Ry au,          0.6387 Debye
        Dipole field          0.0005 Ry au,

        Potential amp.       -0.0440 Ry
        Total length         46.3494 bohr

     End of self-consistent calculation

          k = 0.0000 0.0000 0.0000 ( 18029 PWs)   bands (ev):

   -56.8989 -56.8653 -56.0120 -56.0027 -55.9769 -55.9702 -55.8621 -55.8263
   -55.6444 -55.6092 -55.5608 -55.5389 -55.5269 -55.4411 -54.9956 -54.9427
   -33.3265 -33.1732 -33.1450 -33.0754 -32.9843 -32.9526 -32.4854 -32.4762
   -32.4050 -32.2979 -32.2524 -32.2255 -32.2105 -32.1865 -32.1536 -32.1505
   -32.1429 -32.1409 -32.1167 -32.1086 -32.1023 -32.0705 -32.0444 -32.0293
   -32.0156 -31.9984 -31.9897 -31.9662 -31.9530 -31.8995 -31.8761 -31.8754
   -31.7834 -31.7826 -31.7717 -31.7143 -31.7107 -31.6883 -31.6690 -31.6474
   -31.6231 -31.5774 -31.5180 -31.2389 -31.2203 -31.1924 -31.1641 -31.0458
   -17.0609 -16.6212 -16.3902 -16.2601 -16.1886 -16.1382 -16.0905 -15.9632
   -15.8924 -15.8891 -15.8520 -15.8125 -15.7445 -15.6052 -15.5078 -15.4481
   -15.4049 -15.2852 -15.2282 -15.1912 -15.1833 -15.1528 -15.1324 -14.9350
   -14.9126 -14.8167 -14.7994 -14.6760 -14.4486 -14.0594 -13.9493 -13.0889
    -7.8059  -4.6272  -4.1175  -3.8746  -3.7922  -3.6817  -3.6744  -3.5922
    -3.4783  -3.4274  -3.3818  -3.2662  -3.2618  -3.1166  -3.1035  -3.0736
    -3.0671  -3.0302  -2.9910  -2.9510  -2.8985  -2.8935  -2.8882  -2.7377
    -2.6379  -2.5680  -2.5454  -2.5282  -2.5006  -2.4077  -2.4030  -2.3885
    -2.3849  -2.2892  -2.1401  -2.1301  -2.0959  -2.0597  -2.0559  -2.0122
    -2.0019  -1.8457  -1.8018  -1.6853  -1.6733  -1.6389  -1.5725  -1.5689
    -1.4532  -1.3974  -1.3515  -1.3063  -1.1993  -1.1544  -1.1254  -1.0364
    -0.9759  -0.9391  -0.9200  -0.9009  -0.7935  -0.7862  -0.7702  -0.6788
    -0.6730  -0.6227  -0.5332  -0.5107  -0.5085  -0.4179  -0.4098  -0.3110
    -0.2771  -0.2244  -0.1942  -0.1142  -0.0837   0.0204   0.0591   0.0746
     0.2045   0.2200   0.2779   0.3449   0.4013   0.4449   0.4608   0.4954
     0.5044   0.5976   0.7053   0.7075   0.8192   0.8565   1.0136   1.0524
     1.3504   1.3600   2.0234   2.3763   2.5370   2.8351   3.0298   3.1425
     3.3529   3.3668   3.3725   3.5531   3.6008

[...]

          k = 0.0380-0.0419 0.0000 ( 17876 PWs)   bands (ev):

[...]

          k =-0.0760-0.0000 0.0000 ( 17886 PWs)   bands (ev):

[...]

          k =-0.0760-0.0839 0.0000 ( 17948 PWs)   bands (ev):

   -56.8822 -56.8818 -55.9958 -55.9914 -55.9872 -55.9869 -55.8471 -55.8412
   -55.6293 -55.6242 -55.5439 -55.5438 -55.5357 -55.4442 -54.9888 -54.9494
   -33.1590 -33.1587 -33.1435 -33.1432 -33.0284 -33.0281 -32.3151 -32.3127
   -32.3001 -32.2948 -32.2422 -32.2408 -32.1982 -32.1975 -32.1972 -32.1933
   -32.1856 -32.1831 -32.1821 -32.1801 -32.0990 -32.0939 -32.0477 -32.0439
   -31.9812 -31.9735 -31.9117 -31.9060 -31.8884 -31.8883 -31.8667 -31.8281
   -31.8269 -31.7932 -31.7694 -31.7692 -31.7604 -31.7302 -31.7302 -31.7092
   -31.6860 -31.6495 -31.3835 -31.3028 -31.2170 -31.1856 -31.1707 -31.1299
   -16.4089 -16.4069 -16.3752 -16.3749 -16.1039 -16.1004 -16.0510 -16.0489
   -15.8770 -15.8692 -15.6649 -15.6556 -15.6492 -15.6456 -15.5178 -15.5109
   -15.4470 -15.4341 -15.3453 -15.3388 -15.2779 -15.2716 -15.2349 -15.2135
   -14.8965 -14.8907 -14.7682 -14.7552 -14.6040 -14.0528 -14.0528 -13.1055
    -7.7966  -3.5079  -3.5071  -3.4409  -3.4399  -3.3149  -3.3082  -3.2395
    -3.2388  -3.1325  -3.1287  -3.0760  -3.0007  -2.9912  -2.9878  -2.9756
    -2.9678  -2.8356  -2.8330  -2.8203  -2.8053  -2.7539  -2.7515  -2.7352
    -2.6566  -2.6408  -2.6095  -2.5655  -2.4650  -2.4487  -2.4322  -2.4053
    -2.3481  -2.3363  -2.3222  -2.2767  -2.2567  -2.1540  -2.1068  -2.0633
    -1.9436  -1.9410  -1.9313  -1.9141  -1.7664  -1.7295  -1.6983  -1.6917
    -1.6827  -1.6332  -1.5417  -1.5334  -1.3988  -1.3941  -1.3222  -1.2392
    -1.2204  -1.1916  -1.0595  -1.0120  -0.9796  -0.9733  -0.9535  -0.9242
    -0.8962  -0.8688  -0.7240  -0.7052  -0.6806  -0.6430  -0.6304  -0.5766
    -0.5277  -0.4475  -0.3681  -0.3671  -0.2863  -0.2422  -0.1784  -0.0956
    -0.0841  -0.0777   0.2024   0.2800   0.3726   0.4572   0.5201   0.5836
     0.6071   0.6725   0.7048   0.8419   0.8451   0.8614   0.8616   0.9290
     0.9337   1.3319   1.9173   2.9501   2.9504   3.0179   3.0182   3.3418
     3.3473   3.4568   3.4662   3.5823   3.5843

     the Fermi energy is     2.2109 ev

!    total energy              =   -2919.13285888 Ry
     estimated scf accuracy    <       0.00000004 Ry
     smearing contrib. (-TS)   =      -0.00464954 Ry
     internal energy E=F+TS    =   -2919.12820934 Ry

     The total energy is F=E-TS. E is the sum of the following terms:
     one-electron contribution =  -24579.11403607 Ry
     hartree contribution      =   12373.74672318 Ry
     xc contribution           =    -479.90013911 Ry
     ewald contribution        =    9766.13912352 Ry
     electric field correction =       0.00011915 Ry

     convergence has been achieved in  61 iterations

     Forces acting on atoms (cartesian axes, Ry/au):

     atom    1 type  1   force =    -0.00002576   -0.00045729    0.12462711
     atom    2 type  1   force =    -0.00012206   -0.00051754   -0.16051396
     atom    3 type  2   force =     0.00015919   -0.00014455   -0.06868118
     atom    4 type  2   force =    -0.00004264   -0.00017469    0.02743075
     atom    5 type  2   force =    -0.01663563    0.00229183   -0.00876817
     atom    6 type  2   force =     0.01809278    0.00295545   -0.00971982
     atom    7 type  1   force =     0.00058274   -0.00360797    0.02219499
     atom    8 type  1   force =    -0.00014942   -0.00291679    0.11214920
     atom    9 type  2   force =     0.00048161   -0.00002659   -0.00026291
     atom   10 type  2   force =    -0.00265765    0.00369045   -0.07362295
     atom   11 type  2   force =     0.00131069   -0.00058470   -0.00042725
     atom   12 type  2   force =    -0.00058079   -0.00105950   -0.00077976
     atom   13 type  1   force =     0.00031342   -0.00067592    0.00069715
     atom   14 type  1   force =    -0.00082709   -0.00056816    0.00004812
     atom   15 type  2   force =    -0.00029288   -0.00011321    0.00000874
     atom   16 type  2   force =     0.00028499    0.00011999   -0.00053222
     atom   17 type  2   force =     0.00022207   -0.00019185   -0.00015786
     atom   18 type  2   force =    -0.00043030   -0.00035565   -0.00046673
     atom   19 type  1   force =     0.00061408   -0.00035758   -0.00016666
     atom   20 type  1   force =    -0.00011235   -0.00025017   -0.00019971
     atom   21 type  2   force =     0.00006141   -0.00006312    0.09971280
     atom   22 type  2   force =     0.00006788   -0.00032118    0.00052285
     atom   23 type  2   force =    -0.07926589   -0.00009449   -0.03247812
     atom   24 type  2   force =     0.07913921    0.00035542   -0.03249828
     atom   25 type  1   force =     0.00001981   -0.00047708    0.12410947
     atom   26 type  1   force =    -0.00014944   -0.00045481   -0.16059626
     atom   27 type  2   force =     0.00029222   -0.00031565   -0.06769623
     atom   28 type  2   force =    -0.00002463   -0.00001303    0.02719300
     atom   29 type  2   force =    -0.01709698    0.00187439   -0.00887576
     atom   30 type  2   force =     0.01843321    0.00225708   -0.00977423
     atom   31 type  1   force =     0.00059383   -0.00091826    0.02174819
     atom   32 type  1   force =    -0.00010454    0.00052830    0.11258630
     atom   33 type  2   force =     0.00026599   -0.00063867   -0.00044744
     atom   34 type  2   force =    -0.00272993    0.00316062   -0.07279080
     atom   35 type  2   force =    -0.00109358    0.00023388    0.00017034
     atom   36 type  2   force =     0.00082651    0.00008740    0.00028335
     atom   37 type  1   force =    -0.00008648   -0.00004312   -0.00015941
     atom   38 type  1   force =     0.00088213   -0.00028459   -0.00014978
     atom   39 type  2   force =    -0.00008728   -0.00052104    0.00006213
     atom   40 type  2   force =     0.00007530   -0.00012672   -0.00010912
     atom   41 type  2   force =     0.00017981   -0.00044795   -0.00011567
     atom   42 type  2   force =     0.00001582   -0.00012422   -0.00061772
     atom   43 type  1   force =     0.00015292    0.00064457    0.00061883
     atom   44 type  1   force =    -0.00059891   -0.00051945   -0.00024640
     atom   45 type  2   force =     0.00004627   -0.00006801    0.09973554
     atom   46 type  2   force =    -0.07927192   -0.00004625   -0.03246749
     atom   47 type  2   force =     0.07914735    0.00039741   -0.03248438
     atom   48 type  3   force =     0.00071160   -0.00047564    0.00094262
     atom   49 type  4   force =    -0.00010386   -0.00141637    0.00029823
     atom   50 type  5   force =     0.00122015   -0.00007547    0.00002655
     atom   51 type  5   force =    -0.00091166   -0.00044520    0.00032465
     atom   52 type  5   force =    -0.00079134    0.00129568    0.00031531

     Total force =     0.425577     Total SCF correction =     0.000524
  @ DRIVER MODE: Message from server: STATUS
  @ DRIVER MODE: Message from server: GETFORCE
  @ DRIVER MODE: Returning v,forces,stress,ensemble

     Writing output data file ./calc.save/
  @ DRIVER MODE: Message from server: EXIT
  @ DRIVE MODE: Exiting

     General routines

     Parallel routines

   This run was terminated on:  17:43:31   2Aug2021

   JOB DONE.