     Program PWSCF v.6.7GPU starts on  2Aug2021 at 12: 4:11

     R & G space division:  proc/nbgrp/npool/nimage =      16
     Reading input from /storage/home/hcoda1/3/ntian30/research/carbon/02Aug_vib_paired/ads_slab/CH3NNH3_a/out_0000/pw.inp
Warning: card &CELL ignored
Warning: card   CELL_DYNAMICS='IPI', ignored
Warning: card / ignored

     Current dimensions of program PWSCF are:
     Max number of different atomic species (ntypx) = 10
     Max number of k-points (npk) =  40000
     Max angular momentum in pseudopotentials (lmaxx) =  3
     Presently no symmetry can be used with electric field

     Message from routine cell_base_init:
     DEPRECATED: use true lattice parameter, not A to a.u. conversion factor

     IMPORTANT: XC functional enforced from input :
     Exchange-correlation= BEEF-VDW
                           (   1   4  43  14   2   0   0)
     Any further DFT definition will be discarded
     Please, verify this is what you really want

  @ DRIVER MODE: Connecting to
 qe_1139763_2482544.sched-torque.pace.gatech.edumzn4vhyr_scratch
  using UNIX socket
  @ DRIVER MODE: Message from server: STATUS
  @ DRIVER MODE: Message from server: INIT
  @ DRIVER MODE: Receiving replica           0          -1
  @ DRIVER MODE: Receiving encoded integer          25
  @ DRIVER MODE:  SCF:  T  FORCE:  T  STRESS:  F  VC:  F  ENSEMBLE:  F
  @ DRIVER MODE:  SCF:  T  FORCE:  T  STRESS:  F  VC:  F  ENSEMBLE:  F

     Using Slab Decomposition

     bravais-lattice index     =            0
     lattice parameter (alat)  =       1.8897  a.u.
     unit-cell volume          =    6658.9804 (a.u.)^3
     number of atoms/cell      =           56
     number of atomic types    =            5
     number of electrons       =       398.00
     number of Kohn-Sham states=          209
     kinetic-energy cutoff     =      29.3995  Ry
     charge density cutoff     =     293.9946  Ry
     scf convergence threshold =      7.3E-08
     mixing beta               =       0.0500
     number of iterations used =            8  plain     mixing
     Exchange-correlation= BEEF-VDW
                           (   1   4  43  14   2   0   0)

     celldm(1)=   1.889726  celldm(2)=   0.000000  celldm(3)=   0.000000
     celldm(4)=   0.000000  celldm(5)=   0.000000  celldm(6)=   0.000000

     crystal axes: (cart. coord. in units of alat)
               a(1) = (   6.579727   0.000000   0.000000 )
               a(2) = (  -0.000775   5.961596   0.000000 )
               a(3) = (   0.000000   0.000000  25.155947 )

     reciprocal axes: (cart. coord. in units 2 pi/alat)
               b(1) = (  0.151982  0.000020  0.000000 )
               b(2) = (  0.000000  0.167740  0.000000 )
               b(3) = (  0.000000  0.000000  0.039752 )

     PseudoPot. # 1 for Ti read from file:
     /storage/coda1/p-amedford6/0/shared/rich_project_chbe-medford/medford-share/data/pseudos_module/espresso/nninc/pbe/van/Ti.UPF
     MD5 check sum: 8e4df49b7f0d34bbd5052bf3f5ea0213
     Pseudo is Ultrasoft, Zval = 12.0
     Generated by new atomic code, or converted to UPF format
     Using radial grid of  851 points,  6 beta functions with:
                l(1) =   0
                l(2) =   0
                l(3) =   1
                l(4) =   1
                l(5) =   2
                l(6) =   2
     Q(r) pseudized with  8 coefficients,  rinner =    1.000   1.000   1.000
                                                       1.000   1.000

     PseudoPot. # 2 for O  read from file:
     /storage/coda1/p-amedford6/0/shared/rich_project_chbe-medford/medford-share/data/pseudos_module/espresso/nninc/pbe/van/O.UPF
     MD5 check sum: 78c19812648e8988a0fe644b0f25305e
     Pseudo is Ultrasoft, Zval =  6.0
     Generated by new atomic code, or converted to UPF format
     Using radial grid of  737 points,  4 beta functions with:
                l(1) =   0
                l(2) =   0
                l(3) =   1
                l(4) =   1
     Q(r) pseudized with  8 coefficients,  rinner =    0.800   0.800   0.800

     PseudoPot. # 3 for N  read from file:
     /storage/coda1/p-amedford6/0/shared/rich_project_chbe-medford/medford-share/data/pseudos_module/espresso/nninc/pbe/van/N.UPF
     MD5 check sum: 90d10febe142ad51ac9d5be1deb811c4
     Pseudo is Ultrasoft, Zval =  5.0
     Generated by new atomic code, or converted to UPF format
     Using radial grid of  729 points,  4 beta functions with:
                l(1) =   0
                l(2) =   0
                l(3) =   1
                l(4) =   1
     Q(r) pseudized with  8 coefficients,  rinner =    0.800   0.800   0.800

     PseudoPot. # 4 for C  read from file:
     /storage/coda1/p-amedford6/0/shared/rich_project_chbe-medford/medford-share/data/pseudos_module/espresso/nninc/pbe/van/C.UPF
     MD5 check sum: 1a69bf6b8db32088f5b2163dbdb77a27
     Pseudo is Ultrasoft, Zval =  4.0
     Generated by new atomic code, or converted to UPF format
     Using radial grid of  721 points,  4 beta functions with:
                l(1) =   0
                l(2) =   0
                l(3) =   1
                l(4) =   1
     Q(r) pseudized with  8 coefficients,  rinner =    0.800   0.800   0.800

     PseudoPot. # 5 for H  read from file:
     /storage/coda1/p-amedford6/0/shared/rich_project_chbe-medford/medford-share/data/pseudos_module/espresso/nninc/pbe/van/H.UPF
     MD5 check sum: b5ee9d7bfd3a09ee7748110bda690ff7
     Pseudo is Ultrasoft, Zval =  1.0
     Generated by new atomic code, or converted to UPF format
     Using radial grid of  615 points,  1 beta functions with:
                l(1) =   0
     Q(r) pseudized with  8 coefficients,  rinner =    0.800

     atomic species   valence    mass     pseudopotential
        Ti1           12.00    47.86700     Ti( 1.00)
        O1             6.00    15.99900     O ( 1.00)
        N1             5.00    14.00700     N ( 1.00)
        C1             4.00    12.01100     C ( 1.00)
        H1             1.00     1.00800     H ( 1.00)

     No symmetry found

   Cartesian axes

     site n.     atom                  positions (alat units)
         1           Ti1 tau(   1) = (   0.0004258   2.9801865   6.0000000  )
         2           Ti1 tau(   2) = (   3.2906075   1.4906267   6.0002472  )
         3           O1  tau(   3) = (   0.0006271   0.0005054   7.9858123  )
         4           O1  tau(   4) = (   3.2906025   0.0005020   7.3038282  )
         5           O1  tau(   5) = (   4.5942328   1.4918067   9.2879030  )
         6           O1  tau(   6) = (   1.9868534   1.4903216   9.2879459  )
         7           Ti1 tau(   7) = (   3.2907910   2.8959150   9.1758416  )
         8           Ti1 tau(   8) = (   0.0015273   1.4827037   9.2680791  )
         9           O1  tau(   9) = (   3.2727297   5.9424138  11.2974721  )
        10           O1  tau(  10) = (   0.0116148   5.9584955  10.6183126  )
        11           O1  tau(  11) = (   1.3027692   1.4721713  12.6242268  )
        12           O1  tau(  12) = (   5.2784376   1.4723552  12.6258992  )
        13           Ti1 tau(  13) = (   6.4570204   2.9507206  12.7630554  )
        14           Ti1 tau(  14) = (   3.1467966   1.4649636  12.4688949  )
        15           O1  tau(  15) = (   6.5600513   5.9133837  14.5918744  )
        16           O1  tau(  16) = (   3.2766225   5.9390981  13.8789110  )
        17           O1  tau(  17) = (   4.4915826   1.4834571  16.0540230  )
        18           O1  tau(  18) = (   2.0416982   1.4849982  16.0411193  )
        19           Ti1 tau(  19) = (   3.2679172   2.9642910  15.6858091  )
        20           Ti1 tau(  20) = (   6.5495220   1.5641796  16.1095294  )
        21           O1  tau(  21) = (   3.2904802   0.0005063   4.7018136  )
        22           O1  tau(  22) = (   6.5606002   0.0080969  17.2010096  )
        23           O1  tau(  23) = (   1.3043587   1.4918075   6.0039043  )
        24           O1  tau(  24) = (   5.2767064   1.4903225   6.0039473  )
        25           Ti1 tau(  25) = (   0.0000382   5.9609847   6.0000000  )
        26           Ti1 tau(  26) = (   3.2902200   4.4714249   6.0002472  )
        27           O1  tau(  27) = (   0.0002396   2.9813036   7.9858123  )
        28           O1  tau(  28) = (   3.2902150   2.9813002   7.3038282  )
        29           O1  tau(  29) = (   4.5938453   4.4726049   9.2879030  )
        30           O1  tau(  30) = (   1.9864658   4.4711199   9.2879459  )
        31           Ti1 tau(  31) = (   3.2891106   5.8743827   9.1763621  )
        32           Ti1 tau(  32) = (   0.0006254   4.4649316   9.2693709  )
        33           O1  tau(  33) = (   3.2718307   2.9587034  11.2961003  )
        34           O1  tau(  34) = (   0.0092240   2.9805883  10.6323155  )
        35           O1  tau(  35) = (   1.3028232   4.4416136  12.6207192  )
        36           O1  tau(  36) = (   5.2777600   4.4366566  12.6238879  )
        37           Ti1 tau(  37) = (   6.4830488   5.9304874  12.7660964  )
        38           Ti1 tau(  38) = (   3.1463657   4.4448748  12.4639736  )
        39           O1  tau(  39) = (   6.5417323   2.9404903  14.6589984  )
        40           O1  tau(  40) = (   3.2789452   2.9619718  13.8791424  )
        41           O1  tau(  41) = (   4.4971312   4.4676043  16.0556370  )
        42           O1  tau(  42) = (   2.0400509   4.4648231  16.0515753  )
        43           Ti1 tau(  43) = (   3.2598176   5.9476019  15.6881950  )
        44           Ti1 tau(  44) = (   6.5485469   4.5424454  16.1156095  )
        45           O1  tau(  45) = (   3.2900926   2.9813045   4.7018136  )
        46           O1  tau(  46) = (   1.3039711   4.4726057   6.0039043  )
        47           O1  tau(  47) = (   5.2763189   4.4711207   6.0039473  )
        48           N1  tau(  48) = (   0.0016189   2.9795595  17.3279962  )
        49           C1  tau(  49) = (   0.1681806   3.0735589  18.7581663  )
        50           H1  tau(  50) = (   6.0068595   3.7517258  19.1994632  )
        51           H1  tau(  51) = (   0.0766375   2.0971904  19.2409400  )
        52           H1  tau(  52) = (   1.1565538   3.4901639  19.0026035  )
        53           N1  tau(  53) = (   4.7601180   1.8141088  21.6614004  )
        54           H1  tau(  54) = (   4.4666586   2.7830198  21.5980365  )
        55           H1  tau(  55) = (   4.1231612   1.2775871  21.0809158  )
        56           H1  tau(  56) = (   4.6015807   1.5257772  22.6208530  )

     number of k points=    10  Fermi-Dirac smearing, width (Ry)=  0.0073
                       cart. coord. in units 2pi/alat
        k(    1) = (   0.0000000   0.0000000   0.0000000), wk =   0.1250000
        k(    2) = (   0.0000000   0.0419351   0.0000000), wk =   0.2500000
        k(    3) = (   0.0000000  -0.0838702   0.0000000), wk =   0.1250000
        k(    4) = (   0.0379955   0.0000049   0.0000000), wk =   0.2500000
        k(    5) = (   0.0379955   0.0419400   0.0000000), wk =   0.2500000
        k(    6) = (   0.0379955  -0.0838652   0.0000000), wk =   0.2500000
        k(    7) = (   0.0379955  -0.0419301   0.0000000), wk =   0.2500000
        k(    8) = (  -0.0759910  -0.0000099   0.0000000), wk =   0.1250000
        k(    9) = (  -0.0759910   0.0419252   0.0000000), wk =   0.2500000
        k(   10) = (  -0.0759910  -0.0838800   0.0000000), wk =   0.1250000

     Initial potential from superposition of free atoms

     starting charge  381.99914, renormalised to  398.00000

     negative rho (up, down):  9.479E-03 0.000E+00

     %%%%%%%%%%%%%%%%%%%%%%%%%%%%%%%%%%%%%%%%%%%%%%%%%%%%%%%%%%%%%%%%%%%%%%%%
     %                                                                      %
     % You are using vdW-DF, which was implemented by the Thonhauser group. %
     % Please cite the following two papers that made this development      %
     % possible and the two reviews that describe the various versions:     %
     %                                                                      %
     %   T. Thonhauser et al., PRL 115, 136402 (2015).                      %
     %   T. Thonhauser et al., PRB 76, 125112 (2007).                       %
     %   K. Berland et al., Rep. Prog. Phys. 78, 066501 (2015).             %
     %   D.C. Langreth et al., J. Phys.: Condens. Matter 21, 084203 (2009). %
     %                                                                      %
     %                                                                      %
     % If you are calculating the stress with vdW-DF, please also cite:     %
     %                                                                      %
     %   R. Sabatini et al., J. Phys.: Condens. Matter 24, 424209 (2012).   %
     %                                                                      %
     %%%%%%%%%%%%%%%%%%%%%%%%%%%%%%%%%%%%%%%%%%%%%%%%%%%%%%%%%%%%%%%%%%%%%%%%

     Adding external electric field

     Computed dipole along edir(3) :
        Dipole              -11.3717 Ry au,        -28.9040 Debye
        Dipole field         -0.0215 Ry au,

        Potential amp.        1.9893 Ry
        Total length         46.3494 bohr

     Starting wfcs are  302 atomic wfcs
  @ DRIVER MODE: Message from server: STATUS
  @ DRIVER MODE: Message from server: POSDATA
  @ DRIVER MODE: Reading and sharing cell
  @ DRIVER MODE: Reading and sharing positions
  @ DRIVER MODE: Received positions

     Self-consistent Calculation

     iteration #  1     ecut=    29.40 Ry     beta= 0.05
     Davidson diagonalization with overlap
     ethr =  1.00E-02,  avg # of iterations =  2.8

[...]

     total energy              =   -2526.48913921 Ry
     estimated scf accuracy    <    4642.21495788 Ry

[...]

     iteration # 22     ecut=    29.40 Ry     beta= 0.05
     Davidson diagonalization with overlap
     c_bands:  3 eigenvalues not converged
     c_bands:  2 eigenvalues not converged
     c_bands:  2 eigenvalues not converged
     c_bands:  2 eigenvalues not converged
     c_bands:  2 eigenvalues not converged
     ethr =  2.49E-03,  avg # of iterations = 18.0

[...]

     iteration # 68     ecut=    29.40 Ry     beta= 0.05
     Davidson diagonalization with overlap
     c_bands:  1 eigenvalues not converged
     ethr =  1.96E-07,  avg # of iterations =  9.1

[...]

     total energy              =   -2942.90679011 Ry
     estimated scf accuracy    <       0.00000010 Ry

     iteration # 95     ecut=    29.40 Ry     beta= 0.05
     Davidson diagonalization with overlap
     ethr =  2.59E-11,  avg # of iterations =  5.3

     negative rho (up, down):  1.096E-02 0.000E+00

     Adding external electric field

     Computed dipole along edir(3) :
        Dipole                0.4534 Ry au,          1.1524 Debye
        Dipole field          0.0009 Ry au,

        Potential amp.       -0.0793 Ry
        Total length         46.3494 bohr

     End of self-consistent calculation

          k = 0.0000 0.0000 0.0000 ( 18029 PWs)   bands (ev):

   -56.6139 -56.5803 -55.7332 -55.7246 -55.6978 -55.6923 -55.5876 -55.5519
   -55.3706 -55.3354 -55.2786 -55.2724 -55.2446 -55.1702 -54.7334 -54.6202
   -33.0417 -32.8886 -32.8604 -32.7901 -32.6990 -32.6678 -32.2078 -32.1971
   -32.1306 -32.0196 -31.9746 -31.9464 -31.9324 -31.9077 -31.8750 -31.8724
   -31.8685 -31.8617 -31.8386 -31.8353 -31.8238 -31.7959 -31.7706 -31.7570
   -31.7438 -31.7238 -31.7157 -31.6925 -31.6710 -31.6170 -31.6021 -31.5929
   -31.5145 -31.5094 -31.4896 -31.4478 -31.4374 -31.4061 -31.3991 -31.3747
   -31.3535 -31.2952 -31.2348 -30.9744 -30.9618 -30.8797 -30.8402 -30.7492
   -16.7778 -16.3436 -16.1138 -15.9763 -15.9088 -15.8544 -15.8091 -15.6880
   -15.6152 -15.6087 -15.5682 -15.5378 -15.4674 -15.3266 -15.2284 -15.1749
   -15.1306 -15.0096 -14.9496 -14.9168 -14.9120 -14.8777 -14.8580 -14.6620
   -14.6377 -14.5351 -14.5252 -14.3996 -14.1771 -13.7773 -13.7215 -13.6672
   -12.7972  -7.4935  -4.3435  -3.8388  -3.7996  -3.7699  -3.6013  -3.5143
    -3.4068  -3.3939  -3.3128  -3.1946  -3.1486  -3.1009  -2.9850  -2.9849
    -2.8356  -2.7954  -2.7895  -2.7857  -2.7406  -2.6772  -2.6615  -2.6226
    -2.6172  -2.6078  -2.4571  -2.3570  -2.2897  -2.2683  -2.2579  -2.2221
    -2.1439  -2.1238  -2.1092  -2.1055  -2.0049  -1.8563  -1.8546  -1.8236
    -1.7801  -1.7785  -1.7405  -1.7257  -1.5903  -1.5167  -1.4137  -1.3965
    -1.3580  -1.2938  -1.2874  -1.1894  -1.1151  -1.0525  -1.0269  -0.9179
    -0.8754  -0.8529  -0.7632  -0.7013  -0.6616  -0.6440  -0.6272  -0.5234
    -0.5033  -0.4924  -0.4076  -0.3958  -0.3386  -0.2572  -0.2375  -0.2313
    -0.1432  -0.1380  -0.0458  -0.0039   0.0379   0.0828   0.1787   0.1970
     0.2999   0.3353   0.3567   0.4765   0.4895   0.5523   0.6197   0.6872
     0.7184   0.7428   0.7723   0.7939   0.8672   0.9821   0.9869   1.0888
     1.1281   1.2958   1.3348   1.3806   1.6227   1.6491   2.3197   2.6609
     2.8208   3.1193   3.3101   3.4212   3.6362   3.6513   3.6566   3.8340
     3.8801

[...]

          k = 0.0380-0.0419 0.0000 ( 17876 PWs)   bands (ev):

[...]

          k =-0.0760-0.0000 0.0000 ( 17886 PWs)   bands (ev):

[...]

          k =-0.0760-0.0839 0.0000 ( 17948 PWs)   bands (ev):

   -56.5972 -56.5968 -55.7172 -55.7120 -55.7096 -55.7089 -55.5724 -55.5670
   -55.3558 -55.3501 -55.2693 -55.2616 -55.2615 -55.1732 -54.7305 -54.6230
   -32.8744 -32.8741 -32.8587 -32.8584 -32.7431 -32.7428 -32.0375 -32.0349
   -32.0214 -32.0153 -31.9652 -31.9641 -31.9219 -31.9204 -31.9191 -31.9181
   -31.9071 -31.9044 -31.9030 -31.9007 -31.8245 -31.8201 -31.7737 -31.7683
   -31.7072 -31.6999 -31.6388 -31.6321 -31.6059 -31.6058 -31.5988 -31.5548
   -31.5527 -31.5250 -31.4899 -31.4872 -31.4871 -31.4480 -31.4480 -31.4430
   -31.4160 -31.3768 -31.1136 -30.9944 -30.9614 -30.9296 -30.8426 -30.8079
   -16.1261 -16.1240 -16.0919 -16.0916 -15.8219 -15.8182 -15.7741 -15.7723
   -15.5996 -15.5937 -15.3871 -15.3769 -15.3710 -15.3669 -15.2428 -15.2339
   -15.1705 -15.1596 -15.0704 -15.0670 -15.0041 -14.9979 -14.9599 -14.9402
   -14.6237 -14.6162 -14.4886 -14.4799 -14.3270 -13.7710 -13.7704 -13.7207
   -12.8137  -7.4835  -3.7993  -3.7850  -3.2257  -3.2252  -3.1597  -3.1584
    -3.0375  -3.0328  -2.9561  -2.9556  -2.8564  -2.8521  -2.7562  -2.7125
    -2.7103  -2.7076  -2.6948  -2.6521  -2.5567  -2.5564  -2.5416  -2.5265
    -2.4709  -2.4688  -2.4543  -2.3818  -2.3683  -2.3324  -2.2931  -2.1865
    -2.1729  -2.1564  -2.1305  -2.0704  -2.0558  -2.0445  -1.9969  -1.9724
    -1.8946  -1.8280  -1.7868  -1.6670  -1.6635  -1.6536  -1.6415  -1.4865
    -1.4506  -1.4193  -1.4097  -1.4036  -1.3592  -1.2612  -1.2533  -1.1188
    -1.1162  -1.0464  -0.9645  -0.9414  -0.9192  -0.7849  -0.7446  -0.7037
    -0.6987  -0.6737  -0.6479  -0.6284  -0.6008  -0.4492  -0.4300  -0.3957
    -0.3649  -0.3568  -0.3156  -0.2473  -0.1676  -0.0868  -0.0857  -0.0191
     0.0330   0.0949   0.1828   0.1953   0.1992   0.4821   0.5622   0.6495
     0.7286   0.7925   0.8582   0.8829   0.9434   0.9824   1.1222   1.1252
     1.1439   1.1443   1.2044   1.2127   1.3633   1.6452   2.2063   3.2339
     3.2342   3.3014   3.3018   3.6255   3.6310   3.7400   3.7490   3.8590
     3.8643

     the Fermi energy is     2.4989 ev

!    total energy              =   -2942.90679411 Ry
     estimated scf accuracy    <       0.00000006 Ry
     smearing contrib. (-TS)   =      -0.00477679 Ry
     internal energy E=F+TS    =   -2942.90201732 Ry

     The total energy is F=E-TS. E is the sum of the following terms:
     one-electron contribution =  -23225.49628387 Ry
     hartree contribution      =   11703.03115528 Ry
     xc contribution           =    -487.46853782 Ry
     ewald contribution        =    9067.03126119 Ry
     electric field correction =       0.00038790 Ry

     convergence has been achieved in  95 iterations

     Forces acting on atoms (cartesian axes, Ry/au):

     atom    1 type  1   force =     0.00000707   -0.00043773    0.12429056
     atom    2 type  1   force =    -0.00006015   -0.00056361   -0.16062837
     atom    3 type  2   force =     0.00016547   -0.00030007   -0.06835265
     atom    4 type  2   force =    -0.00005106   -0.00038606    0.02752890
     atom    5 type  2   force =    -0.01677191    0.00112613   -0.00832417
     atom    6 type  2   force =     0.01782508    0.00162481   -0.01021645
     atom    7 type  1   force =     0.00040058   -0.00408618    0.02181655
     atom    8 type  1   force =     0.00019850   -0.00219734    0.11168235
     atom    9 type  2   force =     0.00010529    0.00018498   -0.00031665
     atom   10 type  2   force =    -0.00319731    0.00010882   -0.07305550
     atom   11 type  2   force =    -0.00035290    0.00032938   -0.00007399
     atom   12 type  2   force =     0.00014824    0.00044863   -0.00003395
     atom   13 type  1   force =     0.00012465   -0.00024160   -0.00002298
     atom   14 type  1   force =    -0.00015718    0.00004175   -0.00032547
     atom   15 type  2   force =    -0.00004633   -0.00024762    0.00018172
     atom   16 type  2   force =     0.00032985    0.00076675    0.00001385
     atom   17 type  2   force =     0.00019142    0.00030852   -0.00028504
     atom   18 type  2   force =    -0.00019749    0.00021305    0.00011971
     atom   19 type  1   force =     0.00049903   -0.00009249   -0.00022804
     atom   20 type  1   force =     0.00026312   -0.00036598   -0.00049362
     atom   21 type  2   force =     0.00010112    0.00008153    0.09969192
     atom   22 type  2   force =     0.00007955    0.00093766    0.00046212
     atom   23 type  2   force =    -0.07914901    0.00008218   -0.03243047
     atom   24 type  2   force =     0.07905691    0.00050985   -0.03242558
     atom   25 type  1   force =     0.00003157   -0.00041236    0.12381955
     atom   26 type  1   force =    -0.00003964   -0.00039868   -0.16074955
     atom   27 type  2   force =     0.00028832   -0.00046810   -0.06734227
     atom   28 type  2   force =    -0.00005343   -0.00020206    0.02727615
     atom   29 type  2   force =    -0.01730128    0.00074033   -0.00825123
     atom   30 type  2   force =     0.01827141    0.00113718   -0.01008708
     atom   31 type  1   force =     0.00033798   -0.00100231    0.02128021
     atom   32 type  1   force =     0.00021364   -0.00027201    0.11223443
     atom   33 type  2   force =     0.00012185    0.00051428   -0.00008432
     atom   34 type  2   force =    -0.00294374   -0.00065362   -0.07290981
     atom   35 type  2   force =    -0.00025670    0.00027252   -0.00009714
     atom   36 type  2   force =     0.00010499    0.00014011   -0.00003297
     atom   37 type  1   force =     0.00013287   -0.00015400    0.00023748
     atom   38 type  1   force =     0.00006522    0.00005027    0.00030671
     atom   39 type  2   force =     0.00021256    0.00037871   -0.00016361
     atom   40 type  2   force =     0.00010246    0.00034621    0.00015100
     atom   41 type  2   force =    -0.00015634    0.00033200    0.00016893
     atom   42 type  2   force =    -0.00003178    0.00060008   -0.00001256
     atom   43 type  1   force =     0.00059882    0.00052110    0.00048078
     atom   44 type  1   force =     0.00014930    0.00032575   -0.00039258
     atom   45 type  2   force =     0.00010572    0.00005035    0.09965201
     atom   46 type  2   force =    -0.07915701    0.00013363   -0.03243302
     atom   47 type  2   force =     0.07906198    0.00056762   -0.03242121
     atom   48 type  3   force =     0.00043069    0.00030214   -0.00025554
     atom   49 type  4   force =     0.00072872   -0.00037250    0.00177628
     atom   50 type  5   force =     0.00055814   -0.00036260   -0.00036522
     atom   51 type  5   force =    -0.00021891    0.00034761   -0.00011505
     atom   52 type  5   force =    -0.00071471   -0.00059452    0.00024039
     atom   53 type  3   force =     0.00097970   -0.00023105    0.00035652
     atom   54 type  5   force =    -0.00012850    0.00082140   -0.00091221
     atom   55 type  5   force =     0.00019973    0.00033561    0.00029344
     atom   56 type  5   force =    -0.00120614   -0.00063846   -0.00022324

     Total force =     0.424889     Total SCF correction =     0.000667
  @ DRIVER MODE: Message from server: STATUS
  @ DRIVER MODE: Message from server: GETFORCE
  @ DRIVER MODE: Returning v,forces,stress,ensemble

     Writing output data file ./calc.save/
  @ DRIVER MODE: Message from server: EXIT
  @ DRIVE MODE: Exiting

     General routines

     Parallel routines

   This run was terminated on:  12:23:15   2Aug2021

   JOB DONE.