     Program PWSCF v.6.7GPU starts on  2Aug2021 at 19:27:28

     R & G space division:  proc/nbgrp/npool/nimage =      16
     Reading input from /storage/home/hcoda1/3/ntian30/research/carbon/02Aug_vib_paired/ads_slab/CH3NHH_a/out_0009/pw.inp
Warning: card &CELL ignored
Warning: card   CELL_DYNAMICS='IPI', ignored
Warning: card / ignored

     Current dimensions of program PWSCF are:
     Max number of different atomic species (ntypx) = 10
     Max number of k-points (npk) =  40000
     Max angular momentum in pseudopotentials (lmaxx) =  3
     Presently no symmetry can be used with electric field

     Message from routine cell_base_init:
     DEPRECATED: use true lattice parameter, not A to a.u. conversion factor

     IMPORTANT: XC functional enforced from input :
     Exchange-correlation= BEEF-VDW
                           (   1   4  43  14   2   0   0)
     Any further DFT definition will be discarded
     Please, verify this is what you really want

  @ DRIVER MODE: Connecting to
 qe_1139763_2482538.sched-torque.pace.gatech.edupt5gfndd_scratch
  using UNIX socket
  @ DRIVER MODE: Message from server: STATUS
  @ DRIVER MODE: Message from server: INIT
  @ DRIVER MODE: Receiving replica           0          -1
  @ DRIVER MODE: Receiving encoded integer          25
  @ DRIVER MODE:  SCF:  T  FORCE:  T  STRESS:  F  VC:  F  ENSEMBLE:  F
  @ DRIVER MODE:  SCF:  T  FORCE:  T  STRESS:  F  VC:  F  ENSEMBLE:  F

     Using Slab Decomposition

     bravais-lattice index     =            0
     lattice parameter (alat)  =       1.8897  a.u.
     unit-cell volume          =    6658.9804 (a.u.)^3
     number of atoms/cell      =           54
     number of atomic types    =            5
     number of electrons       =       392.00
     number of Kohn-Sham states=          206
     kinetic-energy cutoff     =      29.3995  Ry
     charge density cutoff     =     293.9946  Ry
     scf convergence threshold =      7.3E-08
     mixing beta               =       0.0500
     number of iterations used =            8  plain     mixing
     Exchange-correlation= BEEF-VDW
                           (   1   4  43  14   2   0   0)

     celldm(1)=   1.889726  celldm(2)=   0.000000  celldm(3)=   0.000000
     celldm(4)=   0.000000  celldm(5)=   0.000000  celldm(6)=   0.000000

     crystal axes: (cart. coord. in units of alat)
               a(1) = (   6.579727   0.000000   0.000000 )
               a(2) = (  -0.000775   5.961596   0.000000 )
               a(3) = (   0.000000   0.000000  25.155947 )

     reciprocal axes: (cart. coord. in units 2 pi/alat)
               b(1) = (  0.151982  0.000020  0.000000 )
               b(2) = (  0.000000  0.167740  0.000000 )
               b(3) = (  0.000000  0.000000  0.039752 )

     PseudoPot. # 1 for Ti read from file:
     /storage/coda1/p-amedford6/0/shared/rich_project_chbe-medford/medford-share/data/pseudos_module/espresso/nninc/pbe/van/Ti.UPF
     MD5 check sum: 8e4df49b7f0d34bbd5052bf3f5ea0213
     Pseudo is Ultrasoft, Zval = 12.0
     Generated by new atomic code, or converted to UPF format
     Using radial grid of  851 points,  6 beta functions with:
                l(1) =   0
                l(2) =   0
                l(3) =   1
                l(4) =   1
                l(5) =   2
                l(6) =   2
     Q(r) pseudized with  8 coefficients,  rinner =    1.000   1.000   1.000
                                                       1.000   1.000

     PseudoPot. # 2 for O  read from file:
     /storage/coda1/p-amedford6/0/shared/rich_project_chbe-medford/medford-share/data/pseudos_module/espresso/nninc/pbe/van/O.UPF
     MD5 check sum: 78c19812648e8988a0fe644b0f25305e
     Pseudo is Ultrasoft, Zval =  6.0
     Generated by new atomic code, or converted to UPF format
     Using radial grid of  737 points,  4 beta functions with:
                l(1) =   0
                l(2) =   0
                l(3) =   1
                l(4) =   1
     Q(r) pseudized with  8 coefficients,  rinner =    0.800   0.800   0.800

     PseudoPot. # 3 for N  read from file:
     /storage/coda1/p-amedford6/0/shared/rich_project_chbe-medford/medford-share/data/pseudos_module/espresso/nninc/pbe/van/N.UPF
     MD5 check sum: 90d10febe142ad51ac9d5be1deb811c4
     Pseudo is Ultrasoft, Zval =  5.0
     Generated by new atomic code, or converted to UPF format
     Using radial grid of  729 points,  4 beta functions with:
                l(1) =   0
                l(2) =   0
                l(3) =   1
                l(4) =   1
     Q(r) pseudized with  8 coefficients,  rinner =    0.800   0.800   0.800

     PseudoPot. # 4 for C  read from file:
     /storage/coda1/p-amedford6/0/shared/rich_project_chbe-medford/medford-share/data/pseudos_module/espresso/nninc/pbe/van/C.UPF
     MD5 check sum: 1a69bf6b8db32088f5b2163dbdb77a27
     Pseudo is Ultrasoft, Zval =  4.0
     Generated by new atomic code, or converted to UPF format
     Using radial grid of  721 points,  4 beta functions with:
                l(1) =   0
                l(2) =   0
                l(3) =   1
                l(4) =   1
     Q(r) pseudized with  8 coefficients,  rinner =    0.800   0.800   0.800

     PseudoPot. # 5 for H  read from file:
     /storage/coda1/p-amedford6/0/shared/rich_project_chbe-medford/medford-share/data/pseudos_module/espresso/nninc/pbe/van/H.UPF
     MD5 check sum: b5ee9d7bfd3a09ee7748110bda690ff7
     Pseudo is Ultrasoft, Zval =  1.0
     Generated by new atomic code, or converted to UPF format
     Using radial grid of  615 points,  1 beta functions with:
                l(1) =   0
     Q(r) pseudized with  8 coefficients,  rinner =    0.800

     atomic species   valence    mass     pseudopotential
        Ti1           12.00    47.86700     Ti( 1.00)
        O1             6.00    15.99900     O ( 1.00)
        N1             5.00    14.00700     N ( 1.00)
        C1             4.00    12.01100     C ( 1.00)
        H1             1.00     1.00800     H ( 1.00)

     No symmetry found

   Cartesian axes

     site n.     atom                  positions (alat units)
         1           Ti1 tau(   1) = (   0.0004258   2.9801865   6.0000000  )
         2           Ti1 tau(   2) = (   3.2906075   1.4906267   6.0002472  )
         3           O1  tau(   3) = (   0.0006271   0.0005054   7.9858123  )
         4           O1  tau(   4) = (   3.2906025   0.0005020   7.3038282  )
         5           O1  tau(   5) = (   4.5942328   1.4918067   9.2879030  )
         6           O1  tau(   6) = (   1.9868534   1.4903216   9.2879459  )
         7           Ti1 tau(   7) = (   3.2907910   2.8959150   9.1758416  )
         8           Ti1 tau(   8) = (   0.0015273   1.4827037   9.2680791  )
         9           O1  tau(   9) = (   3.2893523   5.9576907  11.3759447  )
        10           O1  tau(  10) = (   0.0116148   5.9584955  10.6183126  )
        11           O1  tau(  11) = (   1.2892553   1.4862333  12.6941169  )
        12           O1  tau(  12) = (   5.2958346   1.4833122  12.6807028  )
        13           Ti1 tau(  13) = (   0.0095698   2.9692159  12.5083673  )
        14           Ti1 tau(  14) = (   3.3108451   1.4743585  12.5306019  )
        15           O1  tau(  15) = (   6.5736105   5.8801748  14.6991865  )
        16           O1  tau(  16) = (   3.2979610   5.9450902  14.0010558  )
        17           O1  tau(  17) = (   4.5273680   1.5185660  16.1654609  )
        18           O1  tau(  18) = (   2.0122787   1.5163527  16.1384539  )
        19           Ti1 tau(  19) = (   3.2802752   2.9921964  15.7561315  )
        20           Ti1 tau(  20) = (   0.0093588   1.3049760  15.8672178  )
        21           O1  tau(  21) = (   3.2904802   0.0005063   4.7018136  )
        22           O1  tau(  22) = (   6.5538635   0.1342075  17.2452287  )
        23           O1  tau(  23) = (   1.3043587   1.4918075   6.0039043  )
        24           O1  tau(  24) = (   5.2767064   1.4903225   6.0039473  )
        25           Ti1 tau(  25) = (   0.0000382   5.9609847   6.0000000  )
        26           Ti1 tau(  26) = (   3.2902200   4.4714249   6.0002472  )
        27           O1  tau(  27) = (   0.0002396   2.9813036   7.9858123  )
        28           O1  tau(  28) = (   3.2902150   2.9813002   7.3038282  )
        29           O1  tau(  29) = (   4.5938453   4.4726049   9.2879030  )
        30           O1  tau(  30) = (   1.9864658   4.4711199   9.2879459  )
        31           Ti1 tau(  31) = (   3.2891106   5.8743827   9.1763621  )
        32           Ti1 tau(  32) = (   0.0006254   4.4649316   9.2693709  )
        33           O1  tau(  33) = (   3.2933707   2.9638296  11.3700534  )
        34           O1  tau(  34) = (   0.0092240   2.9805883  10.6323155  )
        35           O1  tau(  35) = (   1.2923283   4.4540072  12.6594629  )
        36           O1  tau(  36) = (   5.2938616   4.4568750  12.6477176  )
        37           Ti1 tau(  37) = (   0.0202681   5.9396231  12.5027719  )
        38           Ti1 tau(  38) = (   3.3116628   4.4527548  12.5215617  )
        39           O1  tau(  39) = (   6.5466975   3.0260875  14.9671898  )
        40           O1  tau(  40) = (   3.2966604   2.9917109  13.9679302  )
        41           O1  tau(  41) = (   4.5116687   4.4737236  16.2360857  )
        42           O1  tau(  42) = (   2.0028912   4.4646324  16.2202640  )
        43           Ti1 tau(  43) = (   3.2937213   0.0113368  15.7972781  )
        44           Ti1 tau(  44) = (   0.0208052   4.5175143  16.0574476  )
        45           O1  tau(  45) = (   3.2900926   2.9813045   4.7018136  )
        46           O1  tau(  46) = (   1.3039711   4.4726057   6.0039043  )
        47           O1  tau(  47) = (   5.2763189   4.4711207   6.0039473  )
        48           N1  tau(  48) = (   6.3337458   3.3624127  18.1270434  )
        49           C1  tau(  49) = (   0.8795605   3.2539204  19.0799812  )
        50           H1  tau(  50) = (   1.4196110   4.2071110  19.0760701  )
        51           H1  tau(  51) = (   0.5395241   3.0459488  20.0957609  )
        52           H1  tau(  52) = (   1.5475163   2.4696122  18.7548312  )
        53           H1  tau(  53) = (   5.6940081   4.0973896  18.4182617  )
        54           H1  tau(  54) = (   5.7906660   2.4998151  18.1411682  )

     number of k points=    10  Fermi-Dirac smearing, width (Ry)=  0.0073
                       cart. coord. in units 2pi/alat
        k(    1) = (   0.0000000   0.0000000   0.0000000), wk =   0.1250000
        k(    2) = (   0.0000000   0.0419351   0.0000000), wk =   0.2500000
        k(    3) = (   0.0000000  -0.0838702   0.0000000), wk =   0.1250000
        k(    4) = (   0.0379955   0.0000049   0.0000000), wk =   0.2500000
        k(    5) = (   0.0379955   0.0419400   0.0000000), wk =   0.2500000
        k(    6) = (   0.0379955  -0.0838652   0.0000000), wk =   0.2500000
        k(    7) = (   0.0379955  -0.0419301   0.0000000), wk =   0.2500000
        k(    8) = (  -0.0759910  -0.0000099   0.0000000), wk =   0.1250000
        k(    9) = (  -0.0759910   0.0419252   0.0000000), wk =   0.2500000
        k(   10) = (  -0.0759910  -0.0838800   0.0000000), wk =   0.1250000

[...]
     Generated by new atomic code, or converted to UPF format
     Using radial grid of  729 points,  4 beta functions with:
                l(1) =   0
                l(2) =   0
                l(3) =   1
                l(4) =   1
     Q(r) pseudized with  8 coefficients,  rinner =    0.800   0.800   0.800

     PseudoPot. # 4 for C  read from file:
     /storage/coda1/p-amedford6/0/shared/rich_project_chbe-medford/medford-share/data/pseudos_module/espresso/nninc/pbe/van/C.UPF
     MD5 check sum: 1a69bf6b8db32088f5b2163dbdb77a27
     Pseudo is Ultrasoft, Zval =  4.0
     Generated by new atomic code, or converted to UPF format
     Using radial grid of  721 points,  4 beta functions with:
                l(1) =   0
                l(2) =   0
                l(3) =   1
                l(4) =   1
     Q(r) pseudized with  8 coefficients,  rinner =    0.800   0.800   0.800

     PseudoPot. # 5 for H  read from file:
     /storage/coda1/p-amedford6/0/shared/rich_project_chbe-medford/medford-share/data/pseudos_module/espresso/nninc/pbe/van/H.UPF
     MD5 check sum: b5ee9d7bfd3a09ee7748110bda690ff7
     Pseudo is Ultrasoft, Zval =  1.0
     Generated by new atomic code, or converted to UPF format
     Using radial grid of  615 points,  1 beta functions with:
                l(1) =   0
     Q(r) pseudized with  8 coefficients,  rinner =    0.800

     atomic species   valence    mass     pseudopotential
        Ti1           12.00    47.86700     Ti( 1.00)
        O1             6.00    15.99900     O ( 1.00)
        N1             5.00    14.00700     N ( 1.00)
        C1             4.00    12.01100     C ( 1.00)
        H1             1.00     1.00800     H ( 1.00)

     No symmetry found

   Cartesian axes

     site n.     atom                  positions (alat units)
         1           Ti1 tau(   1) = (   0.0004258   2.9801865   6.0000000  )
         2           Ti1 tau(   2) = (   3.2906075   1.4906267   6.0002472  )
         3           O1  tau(   3) = (   0.0006271   0.0005054   7.9858123  )
         4           O1  tau(   4) = (   3.2906025   0.0005020   7.3038282  )
         5           O1  tau(   5) = (   4.5942328   1.4918067   9.2879030  )
         6           O1  tau(   6) = (   1.9868534   1.4903216   9.2879459  )
         7           Ti1 tau(   7) = (   3.2907910   2.8959150   9.1758416  )
         8           Ti1 tau(   8) = (   0.0015273   1.4827037   9.2680791  )
         9           O1  tau(   9) = (   3.2893523   5.9576907  11.3759447  )
        10           O1  tau(  10) = (   0.0116148   5.9584955  10.6183126  )
        11           O1  tau(  11) = (   1.2892553   1.4862333  12.6941169  )
        12           O1  tau(  12) = (   5.2958346   1.4833122  12.6807028  )
        13           Ti1 tau(  13) = (   0.0095698   2.9692159  12.5083673  )
        14           Ti1 tau(  14) = (   3.3108451   1.4743585  12.5306019  )
        15           O1  tau(  15) = (   6.5736105   5.8801748  14.6991865  )
        16           O1  tau(  16) = (   3.2979610   5.9450902  14.0010558  )
        17           O1  tau(  17) = (   4.5273680   1.5185660  16.1654609  )
        18           O1  tau(  18) = (   2.0122787   1.5163527  16.1384539  )
        19           Ti1 tau(  19) = (   3.2802752   2.9921964  15.7561315  )
        20           Ti1 tau(  20) = (   0.0093588   1.3049760  15.8672178  )
        21           O1  tau(  21) = (   3.2904802   0.0005063   4.7018136  )
        22           O1  tau(  22) = (   6.5538635   0.1342075  17.2452287  )
        23           O1  tau(  23) = (   1.3043587   1.4918075   6.0039043  )
        24           O1  tau(  24) = (   5.2767064   1.4903225   6.0039473  )
        25           Ti1 tau(  25) = (   0.0000382   5.9609847   6.0000000  )
        26           Ti1 tau(  26) = (   3.2902200   4.4714249   6.0002472  )
        27           O1  tau(  27) = (   0.0002396   2.9813036   7.9858123  )
        28           O1  tau(  28) = (   3.2902150   2.9813002   7.3038282  )
        29           O1  tau(  29) = (   4.5938453   4.4726049   9.2879030  )
        30           O1  tau(  30) = (   1.9864658   4.4711199   9.2879459  )
        31           Ti1 tau(  31) = (   3.2891106   5.8743827   9.1763621  )
        32           Ti1 tau(  32) = (   0.0006254   4.4649316   9.2693709  )
        33           O1  tau(  33) = (   3.2933707   2.9638296  11.3700534  )
        34           O1  tau(  34) = (   0.0092240   2.9805883  10.6323155  )
        35           O1  tau(  35) = (   1.2923283   4.4540072  12.6594629  )
        36           O1  tau(  36) = (   5.2938616   4.4568750  12.6477176  )
        37           Ti1 tau(  37) = (   0.0202681   5.9396231  12.5027719  )
        38           Ti1 tau(  38) = (   3.3116628   4.4527548  12.5215617  )
        39           O1  tau(  39) = (   6.5466975   3.0260875  14.9671898  )
        40           O1  tau(  40) = (   3.2966604   2.9917109  13.9679302  )
        41           O1  tau(  41) = (   4.5116687   4.4737236  16.2360857  )
        42           O1  tau(  42) = (   2.0028912   4.4646324  16.2202640  )
        43           Ti1 tau(  43) = (   3.2937213   0.0113368  15.7972781  )
        44           Ti1 tau(  44) = (   0.0208052   4.5175143  16.0574476  )
        45           O1  tau(  45) = (   3.2900926   2.9813045   4.7018136  )
        46           O1  tau(  46) = (   1.3039711   4.4726057   6.0039043  )
        47           O1  tau(  47) = (   5.2763189   4.4711207   6.0039473  )
        48           N1  tau(  48) = (   6.3337458   3.3624127  18.1270434  )
        49           C1  tau(  49) = (   0.8795605   3.2639204  19.0799812  )
        50           H1  tau(  50) = (   1.4196110   4.2071110  19.0760701  )
        51           H1  tau(  51) = (   0.5395241   3.0459488  20.0957609  )
        52           H1  tau(  52) = (   1.5475163   2.4696122  18.7548312  )
        53           H1  tau(  53) = (   5.6940081   4.0973896  18.4182617  )
        54           H1  tau(  54) = (   5.7906660   2.4898151  18.1411682  )

     number of k points=    10  Fermi-Dirac smearing, width (Ry)=  0.0073
                       cart. coord. in units 2pi/alat
        k(    1) = (   0.0000000   0.0000000   0.0000000), wk =   0.1250000
        k(    2) = (   0.0000000   0.0419351   0.0000000), wk =   0.2500000
        k(    3) = (   0.0000000  -0.0838702   0.0000000), wk =   0.1250000
        k(    4) = (   0.0379955   0.0000049   0.0000000), wk =   0.2500000
        k(    5) = (   0.0379955   0.0419400   0.0000000), wk =   0.2500000
        k(    6) = (   0.0379955  -0.0838652   0.0000000), wk =   0.2500000
        k(    7) = (   0.0379955  -0.0419301   0.0000000), wk =   0.2500000
        k(    8) = (  -0.0759910  -0.0000099   0.0000000), wk =   0.1250000
        k(    9) = (  -0.0759910   0.0419252   0.0000000), wk =   0.2500000
        k(   10) = (  -0.0759910  -0.0838800   0.0000000), wk =   0.1250000

     Initial potential from superposition of free atoms

     starting charge  375.99915, renormalised to  392.00000

[...]

     %%%%%%%%%%%%%%%%%%%%%%%%%%%%%%%%%%%%%%%%%%%%%%%%%%%%%%%%%%%%%%%%%%%%%%%%
     %                                                                      %
     % You are using vdW-DF, which was implemented by the Thonhauser group. %
     % Please cite the following two papers that made this development      %
     % possible and the two reviews that describe the various versions:     %
     %                                                                      %
     %   T. Thonhauser et al., PRL 115, 136402 (2015).                      %
     %   T. Thonhauser et al., PRB 76, 125112 (2007).                       %
     %   K. Berland et al., Rep. Prog. Phys. 78, 066501 (2015).             %
     %   D.C. Langreth et al., J. Phys.: Condens. Matter 21, 084203 (2009). %
     %                                                                      %
     %                                                                      %
     % If you are calculating the stress with vdW-DF, please also cite:     %
     %                                                                      %
     %   R. Sabatini et al., J. Phys.: Condens. Matter 24, 424209 (2012).   %
     %                                                                      %
     %%%%%%%%%%%%%%%%%%%%%%%%%%%%%%%%%%%%%%%%%%%%%%%%%%%%%%%%%%%%%%%%%%%%%%%%

[...]

     Starting wfcs are  297 atomic wfcs
  @ DRIVER MODE: Message from server: STATUS
  @ DRIVER MODE: Message from server: POSDATA
  @ DRIVER MODE: Reading and sharing cell
  @ DRIVER MODE: Reading and sharing positions
  @ DRIVER MODE: Received positions

     Self-consistent Calculation

[...]

     iteration # 88     ecut=    29.40 Ry     beta= 0.05
     Davidson diagonalization with overlap
     c_bands:  1 eigenvalues not converged
     ethr =  8.21E-11,  avg # of iterations = 11.9

[...]

     total energy              =   -2921.63264895 Ry
     estimated scf accuracy    <       0.00000027 Ry

     iteration # 89     ecut=    29.40 Ry     beta= 0.05
     Davidson diagonalization with overlap
     ethr =  7.01E-11,  avg # of iterations = 10.6

     negative rho (up, down):  1.710E-02 0.000E+00

     Adding external electric field

     Computed dipole along edir(3) :
        Dipole                1.2970 Ry au,          3.2967 Debye
        Dipole field          0.0024 Ry au,

        Potential amp.       -0.2269 Ry
        Total length         46.3494 bohr

     End of self-consistent calculation

[...]

          k = 0.0380-0.0419 0.0000 ( 17876 PWs)   bands (ev):

[...]

          k =-0.0760-0.0839 0.0000 ( 17948 PWs)   bands (ev):

   -55.4194 -55.4129 -55.3681 -55.3674 -55.3560 -55.3137 -55.2975 -55.2938
   -55.2423 -55.2384 -55.2346 -55.1995 -55.1988 -55.1183 -54.3978 -54.3975
   -31.8097 -31.8071 -31.8049 -31.7200 -31.6952 -31.6929 -31.6924 -31.6594
   -31.6590 -31.6440 -31.6366 -31.6338 -31.6284 -31.6004 -31.5925 -31.5741
   -31.5714 -31.5672 -31.5656 -31.5633 -31.5606 -31.5566 -31.5182 -31.5144
   -31.5094 -31.5085 -31.5067 -31.4905 -31.4879 -31.4873 -31.4860 -31.4717
   -31.4678 -31.4515 -31.4477 -31.4322 -31.4318 -31.4292 -31.3819 -31.3803
   -31.3778 -31.3287 -30.7206 -30.7204 -30.6368 -30.6366 -30.5972 -30.5971
   -16.1076 -15.7798 -15.6883 -15.6409 -15.4676 -15.4384 -15.4218 -15.4067
   -15.2742 -15.2564 -15.2323 -15.2043 -15.1821 -15.1474 -15.1381 -15.1352
   -15.0558 -15.0416 -15.0346 -15.0188 -14.9529 -14.9430 -14.9407 -14.9333
   -14.8832 -14.8796 -14.8163 -14.7869 -14.7839 -14.5736 -12.9014 -12.9014
   -10.2184  -6.2387  -4.8211  -3.9202  -2.9585  -2.9299  -2.8947  -2.8911
    -2.6830  -2.6416  -2.6063  -2.5806  -2.4908  -2.4512  -2.4361  -2.4279
    -2.3564  -2.3396  -2.3216  -2.2768  -2.2708  -2.2571  -2.2350  -2.2048
    -2.1829  -2.1636  -2.1541  -2.1355  -2.0892  -2.0780  -2.0526  -2.0382
    -2.0354  -2.0165  -1.9890  -1.9430  -1.8159  -1.8077  -1.7405  -1.6413
    -1.6365  -1.5599  -1.5467  -1.5111  -1.4862  -1.4670  -1.4243  -1.2512
    -1.2076  -1.1810  -1.1714  -1.1135  -1.0502  -1.0265  -0.9562  -0.9407
    -0.9221  -0.8180  -0.7735  -0.7588  -0.6690  -0.6565  -0.5784  -0.5123
    -0.4688  -0.4429  -0.3954  -0.3906  -0.3884  -0.3407  -0.3332  -0.2520
    -0.2051  -0.1687  -0.1546  -0.1247   0.0725   0.0832   0.1094   0.2497
     0.2790   0.4020   0.4360   0.4878   0.5631   0.5959   0.6772   0.7127
     0.8419   0.8714   0.8730   0.9455   0.9568   1.0187   1.0282   1.9644
     1.9651   2.0523   2.0525   3.8198   3.8984   3.9250   3.9669   4.0789
     4.1533   4.1791   4.1998   4.2489   4.2518   4.3142

     the Fermi energy is     3.7272 ev

!    total energy              =   -2921.63265270 Ry
     estimated scf accuracy    <       0.00000007 Ry
     smearing contrib. (-TS)   =      -0.03709026 Ry
     internal energy E=F+TS    =   -2921.59556244 Ry

     The total energy is F=E-TS. E is the sum of the following terms:
     one-electron contribution =  -24028.49307547 Ry
     hartree contribution      =   12103.31574850 Ry
     xc contribution           =    -481.74255711 Ry
     ewald contribution        =    9485.32114692 Ry
     electric field correction =       0.00317472 Ry

     convergence has been achieved in  89 iterations

     Forces acting on atoms (cartesian axes, Ry/au):

     atom    1 type  1   force =     0.00003216   -0.00023316    0.09322215
     atom    2 type  1   force =    -0.00018700   -0.00034622   -0.17831636
     atom    3 type  2   force =     0.00002767   -0.00038885   -0.02021153
     atom    4 type  2   force =    -0.00002721   -0.00194469    0.05878685
     atom    5 type  2   force =    -0.01020181   -0.00112185    0.00778387
     atom    6 type  2   force =     0.01167369   -0.00040353    0.00695068
     atom    7 type  1   force =    -0.00048901    0.00211562   -0.01455730
     atom    8 type  1   force =     0.00025274   -0.00050876   -0.00478401
     atom    9 type  2   force =     0.00015179    0.00011596   -0.00006918
     atom   10 type  2   force =    -0.00113525    0.00138703    0.00053952
     atom   11 type  2   force =    -0.00010769    0.00015680    0.00005704
     atom   12 type  2   force =    -0.00002636    0.00036069    0.00023388
     atom   13 type  1   force =    -0.00005893   -0.00017947   -0.00014722
     atom   14 type  1   force =    -0.00016087    0.00009612    0.00024791
     atom   15 type  2   force =    -0.00020599   -0.00028490    0.00009385
     atom   16 type  2   force =    -0.00022361    0.00019713    0.00017873
     atom   17 type  2   force =     0.00013114   -0.00016801    0.00005713
     atom   18 type  2   force =    -0.00004366   -0.00022032    0.00016696
     atom   19 type  1   force =    -0.00027480    0.00033185    0.00048523
     atom   20 type  1   force =     0.00000992    0.00004348   -0.00045992
     atom   21 type  2   force =     0.00002874   -0.00006352    0.10389159
     atom   22 type  2   force =     0.00022208    0.00033806    0.00019713
     atom   23 type  2   force =    -0.07042713   -0.00014856   -0.02692944
     atom   24 type  2   force =     0.07027043    0.00029125   -0.02697975
     atom   25 type  1   force =    -0.00001797   -0.00013300    0.09270812
     atom   26 type  1   force =    -0.00021141   -0.00049185   -0.17833455
     atom   27 type  2   force =     0.00008600   -0.00027484   -0.01929363
     atom   28 type  2   force =     0.00004346   -0.00171627    0.05813043
     atom   29 type  2   force =    -0.01072845   -0.00111539    0.00834571
     atom   30 type  2   force =     0.01207379   -0.00083838    0.00746717
     atom   31 type  1   force =    -0.00039515    0.00596300   -0.01538575
     atom   32 type  1   force =     0.00022812   -0.00000811   -0.00516932
     atom   33 type  2   force =    -0.00007956    0.00001301    0.00007833
     atom   34 type  2   force =    -0.00101340   -0.00248836   -0.00000807
     atom   35 type  2   force =    -0.00005818    0.00024147   -0.00006039
     atom   36 type  2   force =    -0.00012608    0.00009674    0.00000300
     atom   37 type  1   force =    -0.00003190    0.00007497   -0.00019091
     atom   38 type  1   force =    -0.00008856   -0.00000024    0.00008126
     atom   39 type  2   force =     0.00021506   -0.00006383    0.00014073
     atom   40 type  2   force =    -0.00030209    0.00023849   -0.00004595
     atom   41 type  2   force =     0.00016074    0.00050324    0.00005601
     atom   42 type  2   force =    -0.00005648    0.00015221    0.00032861
     atom   43 type  1   force =    -0.00030955    0.00023840    0.00016849
     atom   44 type  1   force =    -0.00004518   -0.00037364    0.00005309
     atom   45 type  2   force =     0.00002056   -0.00007541    0.10386920
     atom   46 type  2   force =    -0.07039611   -0.00010557   -0.02687400
     atom   47 type  2   force =     0.07024485    0.00032041   -0.02692620
     atom   48 type  3   force =    -0.00530825   -0.01242973   -0.00055143
     atom   49 type  4   force =    -0.00019810   -0.00011542   -0.00011987
     atom   50 type  5   force =     0.00074809    0.00104375   -0.00004448
     atom   51 type  5   force =     0.00024081    0.00025917   -0.00048944
     atom   52 type  5   force =     0.00017822   -0.00038904    0.00003877
     atom   53 type  5   force =    -0.00056568   -0.00013254    0.00171090
     atom   54 type  5   force =     0.00646135    0.01218464   -0.00012363

     Total force =     0.366673     Total SCF correction =     0.000512
  @ DRIVER MODE: Message from server: STATUS
  @ DRIVER MODE: Message from server: GETFORCE
  @ DRIVER MODE: Returning v,forces,stress,ensemble

     Writing output data file ./calc.save/
  @ DRIVER MODE: Message from server: EXIT
  @ DRIVE MODE: Exiting

     General routines

     Parallel routines

   This run was terminated on:  12: 6:37   3Aug2021

   JOB DONE.