     Program PWSCF v.6.7GPU starts on 12Oct2021 at 22: 4:54

     R & G space division:  proc/nbgrp/npool/nimage =       8
     Reading input from /storage/home/hcoda1/3/ntian30/research/carbon/ACS_vib/ads_slab/HNNH/out_0019/pw.inp
Warning: card &CELL ignored
Warning: card   CELL_DYNAMICS='IPI', ignored
Warning: card / ignored

     Current dimensions of program PWSCF are:
     Max number of different atomic species (ntypx) = 10
     Max number of k-points (npk) =  40000
     Max angular momentum in pseudopotentials (lmaxx) =  3
     Presently no symmetry can be used with electric field

     Message from routine cell_base_init:
     DEPRECATED: use true lattice parameter, not A to a.u. conversion factor

     IMPORTANT: XC functional enforced from input :
     Exchange-correlation= BEEF-VDW
                           (   1   4  43  14   2   0   0)
     Any further DFT definition will be discarded
     Please, verify this is what you really want

  @ DRIVER MODE: Connecting to
 qe_1139763_3181311.sched-torque.pace.gatech.educw88aeqt_scratch
  using UNIX socket
  @ DRIVER MODE: Message from server: STATUS
  @ DRIVER MODE: Message from server: INIT
  @ DRIVER MODE: Receiving replica           0          -1
  @ DRIVER MODE: Receiving encoded integer          25
  @ DRIVER MODE:  SCF:  T  FORCE:  T  STRESS:  F  VC:  F  ENSEMBLE:  F
  @ DRIVER MODE:  SCF:  T  FORCE:  T  STRESS:  F  VC:  F  ENSEMBLE:  F

     Using Slab Decomposition

     bravais-lattice index     =            0
     lattice parameter (alat)  =       1.8897  a.u.
     unit-cell volume          =    6658.9804 (a.u.)^3
     number of atoms/cell      =           51
     number of atomic types    =            4
     number of electrons       =       390.00
     number of Kohn-Sham states=          205
     kinetic-energy cutoff     =      29.3995  Ry
     charge density cutoff     =     293.9946  Ry
     scf convergence threshold =      7.3E-08
     mixing beta               =       0.0500
     number of iterations used =            8  plain     mixing
     Exchange-correlation= BEEF-VDW
                           (   1   4  43  14   2   0   0)

     celldm(1)=   1.889726  celldm(2)=   0.000000  celldm(3)=   0.000000
     celldm(4)=   0.000000  celldm(5)=   0.000000  celldm(6)=   0.000000

     crystal axes: (cart. coord. in units of alat)
               a(1) = (   6.579727   0.000000   0.000000 )
               a(2) = (  -0.000775   5.961596   0.000000 )
               a(3) = (   0.000000   0.000000  25.155947 )

     reciprocal axes: (cart. coord. in units 2 pi/alat)
               b(1) = (  0.151982  0.000020  0.000000 )
               b(2) = (  0.000000  0.167740  0.000000 )
               b(3) = (  0.000000  0.000000  0.039752 )

     PseudoPot. # 1 for Ti read from file:
     /storage/coda1/p-amedford6/0/shared/rich_project_chbe-medford/medford-share/data/pseudos_module/espresso/nninc/pbe/van/Ti.UPF
     MD5 check sum: 8e4df49b7f0d34bbd5052bf3f5ea0213
     Pseudo is Ultrasoft, Zval = 12.0
     Generated by new atomic code, or converted to UPF format
     Using radial grid of  851 points,  6 beta functions with:
                l(1) =   0
                l(2) =   0
                l(3) =   1
                l(4) =   1
                l(5) =   2
                l(6) =   2
     Q(r) pseudized with  8 coefficients,  rinner =    1.000   1.000   1.000
                                                       1.000   1.000

     PseudoPot. # 2 for O  read from file:
     /storage/coda1/p-amedford6/0/shared/rich_project_chbe-medford/medford-share/data/pseudos_module/espresso/nninc/pbe/van/O.UPF
     MD5 check sum: 78c19812648e8988a0fe644b0f25305e
     Pseudo is Ultrasoft, Zval =  6.0
     Generated by new atomic code, or converted to UPF format
     Using radial grid of  737 points,  4 beta functions with:
                l(1) =   0
                l(2) =   0
                l(3) =   1
                l(4) =   1
     Q(r) pseudized with  8 coefficients,  rinner =    0.800   0.800   0.800

     PseudoPot. # 3 for H  read from file:
     /storage/coda1/p-amedford6/0/shared/rich_project_chbe-medford/medford-share/data/pseudos_module/espresso/nninc/pbe/van/H.UPF
     MD5 check sum: b5ee9d7bfd3a09ee7748110bda690ff7
     Pseudo is Ultrasoft, Zval =  1.0
     Generated by new atomic code, or converted to UPF format
     Using radial grid of  615 points,  1 beta functions with:
                l(1) =   0
     Q(r) pseudized with  8 coefficients,  rinner =    0.800

     PseudoPot. # 4 for N  read from file:
     /storage/coda1/p-amedford6/0/shared/rich_project_chbe-medford/medford-share/data/pseudos_module/espresso/nninc/pbe/van/N.UPF
     MD5 check sum: 90d10febe142ad51ac9d5be1deb811c4
     Pseudo is Ultrasoft, Zval =  5.0
     Generated by new atomic code, or converted to UPF format
     Using radial grid of  729 points,  4 beta functions with:
                l(1) =   0
                l(2) =   0
                l(3) =   1
                l(4) =   1
     Q(r) pseudized with  8 coefficients,  rinner =    0.800   0.800   0.800

     atomic species   valence    mass     pseudopotential
        Ti1           12.00    47.86700     Ti( 1.00)
        O1             6.00    15.99900     O ( 1.00)
        H1             1.00     1.00800     H ( 1.00)
        N1             5.00    14.00700     N ( 1.00)

     No symmetry found

   Cartesian axes

     site n.     atom                  positions (alat units)
         1           Ti1 tau(   1) = (   0.0004258   2.9801865   6.0000000  )
         2           Ti1 tau(   2) = (   3.2906075   1.4906267   6.0002472  )
         3           O1  tau(   3) = (   0.0006271   0.0005054   7.9858123  )
         4           O1  tau(   4) = (   3.2906025   0.0005020   7.3038282  )
         5           O1  tau(   5) = (   4.5942328   1.4918067   9.2879030  )
         6           O1  tau(   6) = (   1.9868534   1.4903216   9.2879459  )
         7           Ti1 tau(   7) = (   3.2908881   2.9042228   9.1664735  )
         8           Ti1 tau(   8) = (   0.0028208   1.4453605   9.2576896  )
         9           O1  tau(   9) = (   3.2707936   0.0024169  11.3547307  )
        10           O1  tau(  10) = (   6.5771562   5.9613851  10.5998947  )
        11           O1  tau(  11) = (   1.2750810   1.4887983  12.6623546  )
        12           O1  tau(  12) = (   5.2735957   1.4941237  12.6366476  )
        13           Ti1 tau(  13) = (   6.5484273   3.0048924  12.8091026  )
        14           Ti1 tau(  14) = (   3.2635572   1.4892482  12.5038529  )
        15           O1  tau(  15) = (   6.5112577   5.9342846  14.6610847  )
        16           O1  tau(  16) = (   3.2966729   5.9487847  13.9562402  )
        17           O1  tau(  17) = (   4.4981853   1.5100712  16.1215815  )
        18           O1  tau(  18) = (   1.9927245   1.4809274  16.0269182  )
        19           Ti1 tau(  19) = (   3.2349744   2.9714856  15.7300180  )
        20           Ti1 tau(  20) = (   6.5689460   1.3052557  15.9023701  )
        21           O1  tau(  21) = (   3.2904802   0.0005063   4.7018136  )
        22           O1  tau(  22) = (   6.5497555   0.0700294  17.2054191  )
        23           O1  tau(  23) = (   1.3043587   1.4918075   6.0039043  )
        24           O1  tau(  24) = (   5.2767064   1.4903225   6.0039473  )
        25           Ti1 tau(  25) = (   0.0000382   5.9609847   6.0000000  )
        26           Ti1 tau(  26) = (   3.2902200   4.4714249   6.0002472  )
        27           O1  tau(  27) = (   0.0002396   2.9813036   7.9858123  )
        28           O1  tau(  28) = (   3.2902150   2.9813002   7.3038282  )
        29           O1  tau(  29) = (   4.5938453   4.4726049   9.2879030  )
        30           O1  tau(  30) = (   1.9864658   4.4711199   9.2879459  )
        31           Ti1 tau(  31) = (   3.2899333   5.8856170   9.1744801  )
        32           Ti1 tau(  32) = (   0.0020137   4.3658053   9.3606106  )
        33           O1  tau(  33) = (   3.2690173   2.9735267  11.3530824  )
        34           O1  tau(  34) = (   0.0002412   2.9750176  10.5666245  )
        35           O1  tau(  35) = (   1.2748646   4.4726994  12.6423647  )
        36           O1  tau(  36) = (   5.2720213   4.4664742  12.6163582  )
        37           Ti1 tau(  37) = (   6.5582605   0.0201509  12.4985948  )
        38           Ti1 tau(  38) = (   3.2618569   4.4653106  12.4956167  )
        39           O1  tau(  39) = (   6.5348066   3.0079926  14.7180217  )
        40           O1  tau(  40) = (   3.2797409   2.9875293  13.9337705  )
        41           O1  tau(  41) = (   4.5027845   4.4373921  16.1556124  )
        42           O1  tau(  42) = (   1.9850320   4.4617864  16.0830993  )
        43           Ti1 tau(  43) = (   3.2823567   5.9555293  15.7495178  )
        44           Ti1 tau(  44) = (   6.5552429   4.5047081  16.0597439  )
        45           O1  tau(  45) = (   3.2900926   2.9813045   4.7018136  )
        46           O1  tau(  46) = (   1.3039711   4.4726057   6.0039043  )
        47           O1  tau(  47) = (   5.2763189   4.4711207   6.0039473  )
        48           H1  tau(  48) = (   0.5659039   2.5807529  19.4396776  )
        49           N1  tau(  49) = (   0.9330341   2.9538053  18.5544450  )
        50           N1  tau(  50) = (   6.5241730   3.1816813  17.7405862  )
        51           H1  tau(  51) = (   5.5806726   3.0068531  18.1306748  )

     number of k points=    10  Fermi-Dirac smearing, width (Ry)=  0.0073
                       cart. coord. in units 2pi/alat
        k(    1) = (   0.0000000   0.0000000   0.0000000), wk =   0.1250000
        k(    2) = (   0.0000000   0.0419351   0.0000000), wk =   0.2500000
        k(    3) = (   0.0000000  -0.0838702   0.0000000), wk =   0.1250000
        k(    4) = (   0.0379955   0.0000049   0.0000000), wk =   0.2500000
        k(    5) = (   0.0379955   0.0419400   0.0000000), wk =   0.2500000
        k(    6) = (   0.0379955  -0.0838652   0.0000000), wk =   0.2500000
        k(    7) = (   0.0379955  -0.0419301   0.0000000), wk =   0.2500000
        k(    8) = (  -0.0759910  -0.0000099   0.0000000), wk =   0.1250000
        k(    9) = (  -0.0759910   0.0419252   0.0000000), wk =   0.2500000
        k(   10) = (  -0.0759910  -0.0838800   0.0000000), wk =   0.1250000

     Initial potential from superposition of free atoms

     starting charge  373.99921, renormalised to  390.00000

     negative rho (up, down):  1.940E-02 0.000E+00

     %%%%%%%%%%%%%%%%%%%%%%%%%%%%%%%%%%%%%%%%%%%%%%%%%%%%%%%%%%%%%%%%%%%%%%%%
     %                                                                      %
     % You are using vdW-DF, which was implemented by the Thonhauser group. %
     % Please cite the following two papers that made this development      %
     % possible and the two reviews that describe the various versions:     %
     %                                                                      %
     %   T. Thonhauser et al., PRL 115, 136402 (2015).                      %
     %   T. Thonhauser et al., PRB 76, 125112 (2007).                       %
     %   K. Berland et al., Rep. Prog. Phys. 78, 066501 (2015).             %
     %   D.C. Langreth et al., J. Phys.: Condens. Matter 21, 084203 (2009). %
     %                                                                      %
     %                                                                      %
     % If you are calculating the stress with vdW-DF, please also cite:     %
     %                                                                      %
     %   R. Sabatini et al., J. Phys.: Condens. Matter 24, 424209 (2012).   %
     %                                                                      %
     %%%%%%%%%%%%%%%%%%%%%%%%%%%%%%%%%%%%%%%%%%%%%%%%%%%%%%%%%%%%%%%%%%%%%%%%

     Adding external electric field

     Computed dipole along edir(3) :
        Dipole               -5.1488 Ry au,        -13.0871 Debye
        Dipole field         -0.0097 Ry au,

        Potential amp.        0.9007 Ry
        Total length         46.3494 bohr

     Starting wfcs are  294 atomic wfcs
  @ DRIVER MODE: Message from server: STATUS
  @ DRIVER MODE: Message from server: POSDATA
  @ DRIVER MODE: Reading and sharing cell
  @ DRIVER MODE: Reading and sharing positions
  @ DRIVER MODE: Received positions

     Self-consistent Calculation

     iteration #  1     ecut=    29.40 Ry     beta= 0.05
     Davidson diagonalization with overlap
     c_bands:  3 eigenvalues not converged
     c_bands:  3 eigenvalues not converged
     c_bands:  1 eigenvalues not converged
     c_bands:  3 eigenvalues not converged
     c_bands:  2 eigenvalues not converged
     c_bands:  3 eigenvalues not converged
     ethr =  1.00E-05,  avg # of iterations = 22.2

[...]

     total energy              =   -2837.80649224 Ry
     estimated scf accuracy    <     992.31959249 Ry

     iteration #  2     ecut=    29.40 Ry     beta= 0.05
     Davidson diagonalization with overlap
     ethr =  1.00E-02,  avg # of iterations = 16.4

[...]

     iteration # 48     ecut=    29.40 Ry     beta= 0.05
     Davidson diagonalization with overlap
     c_bands:  1 eigenvalues not converged
     ethr =  1.53E-07,  avg # of iterations = 13.2

[...]

     total energy              =   -2926.39968335 Ry
     estimated scf accuracy    <       0.00000009 Ry

     iteration # 64     ecut=    29.40 Ry     beta= 0.05
     Davidson diagonalization with overlap
     ethr =  2.22E-11,  avg # of iterations = 11.3

     negative rho (up, down):  1.911E-02 0.000E+00

     Adding external electric field

     Computed dipole along edir(3) :
        Dipole                0.7854 Ry au,          1.9963 Debye
        Dipole field          0.0015 Ry au,

        Potential amp.       -0.1374 Ry
        Total length         46.3494 bohr

     End of self-consistent calculation

          k = 0.0000 0.0000 0.0000 ( 18029 PWs)   bands (ev):

   -55.9562 -55.9430 -55.9183 -55.9064 -55.8653 -55.8244 -55.8019 -55.7891
   -55.7311 -55.7066 -55.6730 -55.6167 -55.5672 -55.4978 -54.9234 -54.8893
   -32.5104 -32.4220 -32.3059 -32.2963 -32.2732 -32.2505 -32.2261 -32.1982
   -32.1915 -32.1836 -32.1640 -32.1510 -32.1251 -32.1231 -32.1153 -32.0973
   -32.0902 -32.0740 -32.0544 -32.0443 -32.0203 -32.0072 -31.9985 -31.9983
   -31.9827 -31.9686 -31.9506 -31.9426 -31.9295 -31.9208 -31.9159 -31.8910
   -31.8828 -31.8552 -31.8381 -31.8198 -31.8171 -31.8046 -31.7980 -31.7306
   -31.6833 -31.6117 -31.3316 -31.2403 -31.2176 -31.1479 -31.0616 -30.9508
   -18.0612 -16.7128 -16.4111 -16.2766 -16.1303 -16.0844 -15.9833 -15.7992
   -15.6958 -15.6447 -15.5803 -15.5571 -15.5543 -15.5032 -15.4936 -15.4877
   -15.4636 -15.4246 -15.3893 -15.3483 -15.3451 -15.3379 -15.3047 -15.2427
   -15.2123 -15.1152 -15.0610 -14.9646 -14.9605 -14.8269 -13.4263 -13.3095
   -10.2788  -6.6085  -4.0632  -3.9441  -3.8785  -3.8336  -3.7777  -3.5735
    -3.5203  -3.3196  -3.2493  -3.1462  -3.1022  -3.0829  -3.0771  -3.0092
    -2.8693  -2.7734  -2.7647  -2.7509  -2.7285  -2.7170  -2.7076  -2.6914
    -2.6863  -2.6409  -2.5675  -2.4988  -2.4361  -2.3762  -2.3252  -2.2457
    -2.2319  -2.2169  -2.2055  -2.1999  -2.1643  -2.1568  -2.1462  -2.0180
    -1.9947  -1.9060  -1.7833  -1.7626  -1.6472  -1.5669  -1.5486  -1.4188
    -1.3826  -1.3494  -1.3161  -1.2705  -1.2370  -1.2266  -1.1517  -1.1100
    -1.0141  -0.9781  -0.8787  -0.8336  -0.8285  -0.7676  -0.6905  -0.6792
    -0.6653  -0.5266  -0.4396  -0.4302  -0.4263  -0.3430  -0.2873  -0.2347
    -0.1877  -0.1792  -0.1604  -0.1213  -0.0937   0.0049   0.0146   0.0482
     0.0621   0.1002   0.1901   0.2592   0.2722   0.3316   0.3471   0.5573
     0.5681   0.5791   0.7177   0.7647   1.0127   1.0978   1.1238   1.2853
     1.6782   1.7331   3.1504   3.2385   3.2545   3.2913   3.3553   3.4009
     3.5539   3.6058   3.6504   3.6774   3.7021

[...]

          k = 0.0380-0.0419 0.0000 ( 17876 PWs)   bands (ev):

[...]

          k =-0.0760-0.0000 0.0000 ( 17886 PWs)   bands (ev):

[...]

          k =-0.0760-0.0839 0.0000 ( 17948 PWs)   bands (ev):

   -55.9455 -55.9288 -55.9275 -55.9218 -55.8602 -55.8141 -55.8067 -55.7993
   -55.7281 -55.6902 -55.6896 -55.6193 -55.5630 -55.5019 -54.9068 -54.9058
   -32.3153 -32.3109 -32.2475 -32.2475 -32.2382 -32.2297 -32.2131 -32.2123
   -32.1555 -32.1524 -32.1470 -32.1400 -32.1235 -32.0977 -32.0786 -32.0712
   -32.0672 -32.0650 -32.0623 -32.0599 -32.0475 -32.0282 -32.0219 -32.0141
   -32.0123 -32.0090 -32.0068 -32.0030 -31.9543 -31.9314 -31.9273 -31.9272
   -31.9121 -31.8994 -31.8954 -31.8883 -31.8449 -31.8182 -31.8145 -31.7348
   -31.7200 -31.6567 -31.2310 -31.2297 -31.1449 -31.1440 -31.1052 -31.1041
   -18.0559 -16.1507 -16.1227 -15.9728 -15.8818 -15.8706 -15.8254 -15.7667
   -15.7380 -15.6820 -15.6494 -15.6307 -15.6140 -15.5971 -15.5723 -15.5241
   -15.4742 -15.4683 -15.4585 -15.4433 -15.3928 -15.3833 -15.3582 -15.3497
   -15.3270 -15.2622 -15.2405 -15.1947 -15.1150 -14.9922 -13.4130 -13.4093
   -10.2834  -6.6092  -3.4366  -3.4037  -3.3089  -3.2060  -3.0966  -3.0921
    -3.0128  -2.9499  -2.9104  -2.8619  -2.8178  -2.7943  -2.7623  -2.7583
    -2.7507  -2.7387  -2.7298  -2.6978  -2.6852  -2.6789  -2.6446  -2.6294
    -2.6083  -2.6014  -2.5606  -2.5488  -2.5341  -2.4913  -2.4883  -2.4830
    -2.4781  -2.2865  -2.2468  -2.2002  -2.1497  -2.0703  -2.0542  -2.0405
    -2.0001  -1.9853  -1.9746  -1.9068  -1.8118  -1.6938  -1.6581  -1.6351
    -1.6221  -1.5805  -1.4049  -1.3727  -1.3576  -1.3347  -1.3031  -1.2504
    -1.2185  -1.1995  -1.1043  -1.0838  -1.0407  -0.9666  -0.9110  -0.8909
    -0.8602  -0.8227  -0.7780  -0.7391  -0.6972  -0.6818  -0.6169  -0.5683
    -0.5235  -0.5040  -0.4857  -0.4016  -0.3233  -0.2982  -0.0956   0.0371
     0.0708   0.0834   0.2203   0.2363   0.2728   0.3442   0.3774   0.4203
     0.4786   0.5844   0.5866   0.5988   0.6082   0.6676   1.4592   1.4638
     1.5383   1.5502   3.2145   3.3988   3.4422   3.4817   3.5428   3.6862
     3.7102   3.7117   3.7348   3.7882   3.8564

     the Fermi energy is     3.1953 ev

!    total energy              =   -2926.39972560 Ry
     estimated scf accuracy    <       0.00000004 Ry
     smearing contrib. (-TS)   =      -0.03281136 Ry
     internal energy E=F+TS    =   -2926.36691424 Ry

     The total energy is F=E-TS. E is the sum of the following terms:
     one-electron contribution =  -24581.00477820 Ry
     hartree contribution      =   12374.65372938 Ry
     xc contribution           =    -480.78168405 Ry
     ewald contribution        =    9760.76465453 Ry
     electric field correction =       0.00116409 Ry

     convergence has been achieved in  64 iterations

     Forces acting on atoms (cartesian axes, Ry/au):

     atom    1 type  1   force =     0.00019734    0.00160221    0.10332691
     atom    2 type  1   force =     0.00006821   -0.00228423   -0.17662750
     atom    3 type  2   force =     0.00017959    0.00648831   -0.03461296
     atom    4 type  2   force =    -0.00004848   -0.00102516    0.05239710
     atom    5 type  2   force =    -0.01731864   -0.00086741    0.00516226
     atom    6 type  2   force =     0.01632898   -0.00066162    0.00402317
     atom    7 type  1   force =     0.00051284    0.00281198   -0.00769738
     atom    8 type  1   force =    -0.00011317   -0.00003555    0.00050120
     atom    9 type  2   force =     0.00014013   -0.00018704   -0.00051261
     atom   10 type  2   force =     0.00007012   -0.00014302   -0.00039825
     atom   11 type  2   force =     0.00024319    0.00017261    0.00031712
     atom   12 type  2   force =     0.00018745    0.00030932    0.00019922
     atom   13 type  1   force =    -0.00040159    0.00068125   -0.00078017
     atom   14 type  1   force =    -0.00040395   -0.00004063   -0.00101454
     atom   15 type  2   force =     0.00000623    0.00080488    0.00012920
     atom   16 type  2   force =     0.00003951   -0.00015635    0.00088394
     atom   17 type  2   force =     0.00024359    0.00037526    0.00032187
     atom   18 type  2   force =    -0.00041209    0.00030753    0.00010249
     atom   19 type  1   force =     0.00009272   -0.00048910    0.00037063
     atom   20 type  1   force =    -0.00011857   -0.00141218    0.00021006
     atom   21 type  2   force =     0.00012774   -0.00007498    0.10332625
     atom   22 type  2   force =    -0.00030198    0.00021851    0.00139623
     atom   23 type  2   force =    -0.07031765    0.00113334   -0.02967254
     atom   24 type  2   force =     0.07030738    0.00156338   -0.02967707
     atom   25 type  1   force =     0.00011286   -0.00166550    0.11621021
     atom   26 type  1   force =    -0.00002389    0.00129333   -0.17610463
     atom   27 type  2   force =     0.00011073   -0.00260935   -0.02894458
     atom   28 type  2   force =    -0.00004101   -0.00141304    0.05145377
     atom   29 type  2   force =    -0.01884335    0.00097813    0.00642663
     atom   30 type  2   force =     0.01784494    0.00162300    0.00534065
     atom   31 type  1   force =     0.00052064   -0.00133220   -0.01367290
     atom   32 type  1   force =    -0.00010586   -0.00102167    0.00068077
     atom   33 type  2   force =     0.00007290   -0.00014377   -0.00046481
     atom   34 type  2   force =     0.00008652   -0.00065576    0.00083660
     atom   35 type  2   force =     0.00036897   -0.00019916    0.00041181
     atom   36 type  2   force =     0.00008574   -0.00015432    0.00030763
     atom   37 type  1   force =    -0.00013394    0.00021068   -0.00002586
     atom   38 type  1   force =    -0.00052198   -0.00055309   -0.00078954
     atom   39 type  2   force =    -0.00033589   -0.00049997    0.00093207
     atom   40 type  2   force =     0.00010697   -0.00014682    0.00151746
     atom   41 type  2   force =     0.00033908   -0.00045940    0.00027494
     atom   42 type  2   force =    -0.00071997   -0.00021485   -0.00009588
     atom   43 type  1   force =     0.00020287    0.00022186    0.00003700
     atom   44 type  1   force =    -0.00006229    0.00139521    0.00052398
     atom   45 type  2   force =     0.00012446   -0.00004405    0.10351849
     atom   46 type  2   force =    -0.07074785   -0.00147285   -0.02963741
     atom   47 type  2   force =     0.07072735   -0.00104439   -0.02967191
     atom   48 type  3   force =     0.00037783   -0.00062849    0.00056697
     atom   49 type  4   force =     0.00005210    0.00039998   -0.00068668
     atom   50 type  4   force =    -0.01044340   -0.00166296    0.00328308
     atom   51 type  3   force =     0.01153660    0.00070816   -0.00390247

     Total force =     0.374977     Total SCF correction =     0.000513
  @ DRIVER MODE: Message from server: STATUS
  @ DRIVER MODE: Message from server: GETFORCE
  @ DRIVER MODE: Returning v,forces,stress,ensemble

     Writing output data file ./calc.save/
  @ DRIVER MODE: Message from server: EXIT
  @ DRIVE MODE: Exiting

     General routines

     Parallel routines

   This run was terminated on:  23: 1:53  12Oct2021

   JOB DONE.