     Program PWSCF v.6.7GPU starts on  2Aug2021 at 20:47:49

     R & G space division:  proc/nbgrp/npool/nimage =      16
     Reading input from /storage/home/hcoda1/3/ntian30/research/carbon/02Aug_vib_paired/ads_slab/CH3NNH3_a/out_0031/pw.inp
Warning: card &CELL ignored
Warning: card   CELL_DYNAMICS='IPI', ignored
Warning: card / ignored

     Current dimensions of program PWSCF are:
     Max number of different atomic species (ntypx) = 10
     Max number of k-points (npk) =  40000
     Max angular momentum in pseudopotentials (lmaxx) =  3
     Presently no symmetry can be used with electric field

     Message from routine cell_base_init:
     DEPRECATED: use true lattice parameter, not A to a.u. conversion factor

     IMPORTANT: XC functional enforced from input :
     Exchange-correlation= BEEF-VDW
                           (   1   4  43  14   2   0   0)
     Any further DFT definition will be discarded
     Please, verify this is what you really want

  @ DRIVER MODE: Connecting to
 qe_1139763_2482544.sched-torque.pace.gatech.eduv_xh6xr3_scratch
  using UNIX socket
  @ DRIVER MODE: Message from server: STATUS
  @ DRIVER MODE: Message from server: INIT
  @ DRIVER MODE: Receiving replica           0          -1
  @ DRIVER MODE: Receiving encoded integer          25
  @ DRIVER MODE:  SCF:  T  FORCE:  T  STRESS:  F  VC:  F  ENSEMBLE:  F
  @ DRIVER MODE:  SCF:  T  FORCE:  T  STRESS:  F  VC:  F  ENSEMBLE:  F

     Using Slab Decomposition

     bravais-lattice index     =            0
     lattice parameter (alat)  =       1.8897  a.u.
     unit-cell volume          =    6658.9804 (a.u.)^3
     number of atoms/cell      =           56
     number of atomic types    =            5
     number of electrons       =       398.00
     number of Kohn-Sham states=          209
     kinetic-energy cutoff     =      29.3995  Ry
     charge density cutoff     =     293.9946  Ry
     scf convergence threshold =      7.3E-08
     mixing beta               =       0.0500
     number of iterations used =            8  plain     mixing
     Exchange-correlation= BEEF-VDW
                           (   1   4  43  14   2   0   0)

     celldm(1)=   1.889726  celldm(2)=   0.000000  celldm(3)=   0.000000
     celldm(4)=   0.000000  celldm(5)=   0.000000  celldm(6)=   0.000000

     crystal axes: (cart. coord. in units of alat)
               a(1) = (   6.579727   0.000000   0.000000 )
               a(2) = (  -0.000775   5.961596   0.000000 )
               a(3) = (   0.000000   0.000000  25.155947 )

     reciprocal axes: (cart. coord. in units 2 pi/alat)
               b(1) = (  0.151982  0.000020  0.000000 )
               b(2) = (  0.000000  0.167740  0.000000 )
               b(3) = (  0.000000  0.000000  0.039752 )

     PseudoPot. # 1 for Ti read from file:
     /storage/coda1/p-amedford6/0/shared/rich_project_chbe-medford/medford-share/data/pseudos_module/espresso/nninc/pbe/van/Ti.UPF
     MD5 check sum: 8e4df49b7f0d34bbd5052bf3f5ea0213
     Pseudo is Ultrasoft, Zval = 12.0
     Generated by new atomic code, or converted to UPF format
     Using radial grid of  851 points,  6 beta functions with:
                l(1) =   0
                l(2) =   0
                l(3) =   1
                l(4) =   1
                l(5) =   2
                l(6) =   2
     Q(r) pseudized with  8 coefficients,  rinner =    1.000   1.000   1.000
                                                       1.000   1.000

     PseudoPot. # 2 for O  read from file:
     /storage/coda1/p-amedford6/0/shared/rich_project_chbe-medford/medford-share/data/pseudos_module/espresso/nninc/pbe/van/O.UPF
     MD5 check sum: 78c19812648e8988a0fe644b0f25305e
     Pseudo is Ultrasoft, Zval =  6.0
     Generated by new atomic code, or converted to UPF format
     Using radial grid of  737 points,  4 beta functions with:
                l(1) =   0
                l(2) =   0
                l(3) =   1
                l(4) =   1
     Q(r) pseudized with  8 coefficients,  rinner =    0.800   0.800   0.800

     PseudoPot. # 3 for N  read from file:
     /storage/coda1/p-amedford6/0/shared/rich_project_chbe-medford/medford-share/data/pseudos_module/espresso/nninc/pbe/van/N.UPF
     MD5 check sum: 90d10febe142ad51ac9d5be1deb811c4
     Pseudo is Ultrasoft, Zval =  5.0
     Generated by new atomic code, or converted to UPF format
     Using radial grid of  729 points,  4 beta functions with:
                l(1) =   0
                l(2) =   0
                l(3) =   1
                l(4) =   1
     Q(r) pseudized with  8 coefficients,  rinner =    0.800   0.800   0.800

     PseudoPot. # 4 for C  read from file:
     /storage/coda1/p-amedford6/0/shared/rich_project_chbe-medford/medford-share/data/pseudos_module/espresso/nninc/pbe/van/C.UPF
     MD5 check sum: 1a69bf6b8db32088f5b2163dbdb77a27
     Pseudo is Ultrasoft, Zval =  4.0
     Generated by new atomic code, or converted to UPF format
     Using radial grid of  721 points,  4 beta functions with:
                l(1) =   0
                l(2) =   0
                l(3) =   1
                l(4) =   1
     Q(r) pseudized with  8 coefficients,  rinner =    0.800   0.800   0.800

     PseudoPot. # 5 for H  read from file:
     /storage/coda1/p-amedford6/0/shared/rich_project_chbe-medford/medford-share/data/pseudos_module/espresso/nninc/pbe/van/H.UPF
     MD5 check sum: b5ee9d7bfd3a09ee7748110bda690ff7
     Pseudo is Ultrasoft, Zval =  1.0
     Generated by new atomic code, or converted to UPF format
     Using radial grid of  615 points,  1 beta functions with:
                l(1) =   0
     Q(r) pseudized with  8 coefficients,  rinner =    0.800

     atomic species   valence    mass     pseudopotential
        Ti1           12.00    47.86700     Ti( 1.00)
        O1             6.00    15.99900     O ( 1.00)
        N1             5.00    14.00700     N ( 1.00)
        C1             4.00    12.01100     C ( 1.00)
        H1             1.00     1.00800     H ( 1.00)

     No symmetry found

   Cartesian axes

     site n.     atom                  positions (alat units)
         1           Ti1 tau(   1) = (   0.0004258   2.9801865   6.0000000  )
         2           Ti1 tau(   2) = (   3.2906075   1.4906267   6.0002472  )
         3           O1  tau(   3) = (   0.0006271   0.0005054   7.9858123  )
         4           O1  tau(   4) = (   3.2906025   0.0005020   7.3038282  )
         5           O1  tau(   5) = (   4.5942328   1.4918067   9.2879030  )
         6           O1  tau(   6) = (   1.9868534   1.4903216   9.2879459  )
         7           Ti1 tau(   7) = (   3.2907910   2.8959150   9.1758416  )
         8           Ti1 tau(   8) = (   0.0015273   1.4827037   9.2680791  )
         9           O1  tau(   9) = (   3.2727297   5.9424138  11.2974721  )
        10           O1  tau(  10) = (   0.0116148   5.9584955  10.6183126  )
        11           O1  tau(  11) = (   1.3027692   1.4721713  12.6242268  )
        12           O1  tau(  12) = (   5.2784376   1.4723552  12.6258992  )
        13           Ti1 tau(  13) = (   6.4570204   2.9507206  12.7630554  )
        14           Ti1 tau(  14) = (   3.1467966   1.4649636  12.4688949  )
        15           O1  tau(  15) = (   6.5600513   5.9133837  14.5918744  )
        16           O1  tau(  16) = (   3.2766225   5.9390981  13.8789110  )
        17           O1  tau(  17) = (   4.4915826   1.4834571  16.0540230  )
        18           O1  tau(  18) = (   2.0416982   1.4849982  16.0411193  )
        19           Ti1 tau(  19) = (   3.2679172   2.9642910  15.6858091  )
        20           Ti1 tau(  20) = (   6.5495220   1.5641796  16.1095294  )
        21           O1  tau(  21) = (   3.2904802   0.0005063   4.7018136  )
        22           O1  tau(  22) = (   6.5606002   0.0080969  17.2010096  )
        23           O1  tau(  23) = (   1.3043587   1.4918075   6.0039043  )
        24           O1  tau(  24) = (   5.2767064   1.4903225   6.0039473  )
        25           Ti1 tau(  25) = (   0.0000382   5.9609847   6.0000000  )
        26           Ti1 tau(  26) = (   3.2902200   4.4714249   6.0002472  )
        27           O1  tau(  27) = (   0.0002396   2.9813036   7.9858123  )
        28           O1  tau(  28) = (   3.2902150   2.9813002   7.3038282  )
        29           O1  tau(  29) = (   4.5938453   4.4726049   9.2879030  )
        30           O1  tau(  30) = (   1.9864658   4.4711199   9.2879459  )
        31           Ti1 tau(  31) = (   3.2891106   5.8743827   9.1763621  )
        32           Ti1 tau(  32) = (   0.0006254   4.4649316   9.2693709  )
        33           O1  tau(  33) = (   3.2718307   2.9587034  11.2961003  )
        34           O1  tau(  34) = (   0.0092240   2.9805883  10.6323155  )
        35           O1  tau(  35) = (   1.3028232   4.4416136  12.6207192  )
        36           O1  tau(  36) = (   5.2777600   4.4366566  12.6238879  )
        37           Ti1 tau(  37) = (   6.4830488   5.9304874  12.7660964  )
        38           Ti1 tau(  38) = (   3.1463657   4.4448748  12.4639736  )
        39           O1  tau(  39) = (   6.5417323   2.9404903  14.6589984  )
        40           O1  tau(  40) = (   3.2789452   2.9619718  13.8791424  )
        41           O1  tau(  41) = (   4.4971312   4.4676043  16.0556370  )
        42           O1  tau(  42) = (   2.0400509   4.4648231  16.0515753  )
        43           Ti1 tau(  43) = (   3.2598176   5.9476019  15.6881950  )
        44           Ti1 tau(  44) = (   6.5485469   4.5424454  16.1156095  )
        45           O1  tau(  45) = (   3.2900926   2.9813045   4.7018136  )
        46           O1  tau(  46) = (   1.3039711   4.4726057   6.0039043  )
        47           O1  tau(  47) = (   5.2763189   4.4711207   6.0039473  )
        48           N1  tau(  48) = (   0.0016189   2.9795595  17.3279962  )
        49           C1  tau(  49) = (   0.1681806   3.0735589  18.7581663  )
        50           H1  tau(  50) = (   6.0068595   3.7517258  19.1994632  )
        51           H1  tau(  51) = (   0.0766375   2.0971904  19.2409400  )
        52           H1  tau(  52) = (   1.1565538   3.4901639  19.0026035  )
        53           N1  tau(  53) = (   4.7501180   1.8141088  21.6614004  )
        54           H1  tau(  54) = (   4.4666586   2.7830198  21.5980365  )
        55           H1  tau(  55) = (   4.1231612   1.2775871  21.0809158  )
        56           H1  tau(  56) = (   4.6015807   1.5257772  22.6208530  )

     number of k points=    10  Fermi-Dirac smearing, width (Ry)=  0.0073
                       cart. coord. in units 2pi/alat
        k(    1) = (   0.0000000   0.0000000   0.0000000), wk =   0.1250000
        k(    2) = (   0.0000000   0.0419351   0.0000000), wk =   0.2500000
        k(    3) = (   0.0000000  -0.0838702   0.0000000), wk =   0.1250000
        k(    4) = (   0.0379955   0.0000049   0.0000000), wk =   0.2500000
        k(    5) = (   0.0379955   0.0419400   0.0000000), wk =   0.2500000
        k(    6) = (   0.0379955  -0.0838652   0.0000000), wk =   0.2500000
        k(    7) = (   0.0379955  -0.0419301   0.0000000), wk =   0.2500000
        k(    8) = (  -0.0759910  -0.0000099   0.0000000), wk =   0.1250000
        k(    9) = (  -0.0759910   0.0419252   0.0000000), wk =   0.2500000
        k(   10) = (  -0.0759910  -0.0838800   0.0000000), wk =   0.1250000

     Initial potential from superposition of free atoms

     starting charge  381.99914, renormalised to  398.00000

     negative rho (up, down):  9.480E-03 0.000E+00

     %%%%%%%%%%%%%%%%%%%%%%%%%%%%%%%%%%%%%%%%%%%%%%%%%%%%%%%%%%%%%%%%%%%%%%%%
     %                                                                      %
     % You are using vdW-DF, which was implemented by the Thonhauser group. %
     % Please cite the following two papers that made this development      %
     % possible and the two reviews that describe the various versions:     %
     %                                                                      %
     %   T. Thonhauser et al., PRL 115, 136402 (2015).                      %
     %   T. Thonhauser et al., PRB 76, 125112 (2007).                       %
     %   K. Berland et al., Rep. Prog. Phys. 78, 066501 (2015).             %
     %   D.C. Langreth et al., J. Phys.: Condens. Matter 21, 084203 (2009). %
     %                                                                      %
     %                                                                      %
     % If you are calculating the stress with vdW-DF, please also cite:     %
     %                                                                      %
     %   R. Sabatini et al., J. Phys.: Condens. Matter 24, 424209 (2012).   %
     %                                                                      %
     %%%%%%%%%%%%%%%%%%%%%%%%%%%%%%%%%%%%%%%%%%%%%%%%%%%%%%%%%%%%%%%%%%%%%%%%

     Adding external electric field

     Computed dipole along edir(3) :
        Dipole              -11.3717 Ry au,        -28.9040 Debye
        Dipole field         -0.0215 Ry au,

        Potential amp.        1.9893 Ry
        Total length         46.3494 bohr

     Starting wfcs are  302 atomic wfcs
  @ DRIVER MODE: Message from server: STATUS
  @ DRIVER MODE: Message from server: POSDATA
  @ DRIVER MODE: Reading and sharing cell
  @ DRIVER MODE: Reading and sharing positions
  @ DRIVER MODE: Received positions

     Self-consistent Calculation

     iteration #  1     ecut=    29.40 Ry     beta= 0.05
     Davidson diagonalization with overlap
     c_bands:  1 eigenvalues not converged
     c_bands:  1 eigenvalues not converged
     c_bands:  2 eigenvalues not converged
     c_bands:  1 eigenvalues not converged
     c_bands:  1 eigenvalues not converged
     c_bands:  1 eigenvalues not converged
     c_bands:  1 eigenvalues not converged
     c_bands:  2 eigenvalues not converged
     c_bands:  2 eigenvalues not converged
     ethr =  1.00E-05,  avg # of iterations = 19.6

[...]

     total energy              =   -2520.77489048 Ry
     estimated scf accuracy    <    4705.92366279 Ry

     iteration #  2     ecut=    29.40 Ry     beta= 0.05
     Davidson diagonalization with overlap
     ethr =  1.00E-02,  avg # of iterations = 21.8

[...]

     iteration # 58     ecut=    29.40 Ry     beta= 0.05
     Davidson diagonalization with overlap
     c_bands:  1 eigenvalues not converged
     ethr =  9.51E-10,  avg # of iterations =  7.3

[...]

     total energy              =   -2942.90666237 Ry
     estimated scf accuracy    <       0.00000009 Ry

     iteration # 68     ecut=    29.40 Ry     beta= 0.05
     Davidson diagonalization with overlap
     ethr =  2.22E-11,  avg # of iterations =  5.1

     negative rho (up, down):  1.096E-02 0.000E+00

     Adding external electric field

     Computed dipole along edir(3) :
        Dipole                0.4531 Ry au,          1.1518 Debye
        Dipole field          0.0009 Ry au,

        Potential amp.       -0.0793 Ry
        Total length         46.3494 bohr

     End of self-consistent calculation

          k = 0.0000 0.0000 0.0000 ( 18029 PWs)   bands (ev):

   -56.6144 -56.5808 -55.7337 -55.7251 -55.6983 -55.6928 -55.5883 -55.5526
   -55.3713 -55.3360 -55.2791 -55.2732 -55.2452 -55.1710 -54.7340 -54.6206
   -33.0423 -32.8890 -32.8608 -32.7906 -32.6995 -32.6683 -32.2083 -32.1976
   -32.1313 -32.0201 -31.9751 -31.9469 -31.9329 -31.9081 -31.8755 -31.8729
   -31.8691 -31.8622 -31.8391 -31.8360 -31.8243 -31.7966 -31.7713 -31.7577
   -31.7445 -31.7245 -31.7164 -31.6930 -31.6714 -31.6176 -31.6028 -31.5934
   -31.5153 -31.5101 -31.4901 -31.4486 -31.4380 -31.4066 -31.3998 -31.3755
   -31.3543 -31.2957 -31.2354 -30.9750 -30.9625 -30.8801 -30.8405 -30.7496
   -16.7784 -16.3442 -16.1145 -15.9769 -15.9093 -15.8550 -15.8096 -15.6887
   -15.6158 -15.6092 -15.5688 -15.5386 -15.4680 -15.3271 -15.2290 -15.1757
   -15.1314 -15.0104 -14.9501 -14.9176 -14.9128 -14.8784 -14.8588 -14.6629
   -14.6384 -14.5358 -14.5260 -14.4003 -14.1778 -13.7778 -13.7345 -13.6678
   -12.7980  -7.4943  -4.3441  -3.8486  -3.8393  -3.8073  -3.6020  -3.5149
    -3.4075  -3.3944  -3.3135  -3.1952  -3.1492  -3.1015  -2.9856  -2.9855
    -2.8360  -2.7962  -2.7901  -2.7862  -2.7412  -2.6780  -2.6622  -2.6233
    -2.6179  -2.6085  -2.4578  -2.3575  -2.2904  -2.2689  -2.2587  -2.2227
    -2.1446  -2.1245  -2.1096  -2.1060  -2.0057  -1.8568  -1.8553  -1.8244
    -1.7809  -1.7789  -1.7412  -1.7264  -1.5910  -1.5173  -1.4144  -1.3971
    -1.3586  -1.2943  -1.2880  -1.1901  -1.1157  -1.0531  -1.0275  -0.9185
    -0.8761  -0.8536  -0.7639  -0.7019  -0.6623  -0.6447  -0.6278  -0.5241
    -0.5039  -0.4930  -0.4083  -0.3965  -0.3392  -0.2578  -0.2381  -0.2319
    -0.1438  -0.1386  -0.0465  -0.0046   0.0372   0.0821   0.1780   0.1963
     0.2992   0.3346   0.3561   0.4758   0.4888   0.5517   0.6189   0.6865
     0.7178   0.7423   0.7716   0.7934   0.8665   0.9815   0.9864   1.0882
     1.1275   1.2952   1.3342   1.4131   1.6221   1.6499   2.3191   2.6602
     2.8202   3.1187   3.3095   3.4207   3.6356   3.6508   3.6562   3.8330
     3.8796

[...]

          k = 0.0380-0.0419 0.0000 ( 17876 PWs)   bands (ev):

[...]

          k =-0.0760-0.0000 0.0000 ( 17886 PWs)   bands (ev):

[...]

          k =-0.0760-0.0839 0.0000 ( 17948 PWs)   bands (ev):

   -56.5977 -56.5973 -55.7177 -55.7125 -55.7100 -55.7094 -55.5731 -55.5677
   -55.3564 -55.3508 -55.2701 -55.2621 -55.2620 -55.1740 -54.7311 -54.6233
   -32.8748 -32.8746 -32.8592 -32.8590 -32.7436 -32.7433 -32.0379 -32.0353
   -32.0219 -32.0158 -31.9657 -31.9646 -31.9225 -31.9208 -31.9195 -31.9187
   -31.9075 -31.9049 -31.9035 -31.9012 -31.8252 -31.8207 -31.7744 -31.7690
   -31.7078 -31.7005 -31.6395 -31.6327 -31.6065 -31.6064 -31.5996 -31.5554
   -31.5533 -31.5257 -31.4907 -31.4876 -31.4875 -31.4485 -31.4485 -31.4438
   -31.4168 -31.3776 -31.1142 -30.9948 -30.9621 -30.9303 -30.8430 -30.8082
   -16.1267 -16.1246 -16.0925 -16.0922 -15.8224 -15.8187 -15.7747 -15.7730
   -15.6003 -15.5944 -15.3876 -15.3775 -15.3716 -15.3675 -15.2434 -15.2346
   -15.1713 -15.1604 -15.0712 -15.0678 -15.0049 -14.9987 -14.9607 -14.9410
   -14.6245 -14.6169 -14.4893 -14.4806 -14.3277 -13.7712 -13.7712 -13.7337
   -12.8145  -7.4843  -3.8521  -3.8182  -3.2263  -3.2257  -3.1602  -3.1589
    -3.0382  -3.0334  -2.9567  -2.9562  -2.8570  -2.8527  -2.7570  -2.7131
    -2.7109  -2.7082  -2.6953  -2.6528  -2.5573  -2.5570  -2.5422  -2.5270
    -2.4715  -2.4694  -2.4550  -2.3826  -2.3690  -2.3331  -2.2938  -2.1872
    -2.1736  -2.1571  -2.1312  -2.0711  -2.0564  -2.0451  -1.9976  -1.9732
    -1.8953  -1.8287  -1.7874  -1.6676  -1.6641  -1.6543  -1.6423  -1.4871
    -1.4512  -1.4200  -1.4102  -1.4042  -1.3599  -1.2618  -1.2538  -1.1194
    -1.1168  -1.0471  -0.9652  -0.9420  -0.9199  -0.7856  -0.7452  -0.7043
    -0.6993  -0.6744  -0.6485  -0.6291  -0.6015  -0.4499  -0.4306  -0.3964
    -0.3656  -0.3575  -0.3163  -0.2480  -0.1682  -0.0874  -0.0862  -0.0198
     0.0323   0.0942   0.1822   0.1947   0.1987   0.4814   0.5616   0.6488
     0.7278   0.7918   0.8575   0.8821   0.9427   0.9817   1.1217   1.1246
     1.1433   1.1437   1.2038   1.2121   1.3952   1.6467   2.2057   3.2333
     3.2336   3.3008   3.3012   3.6249   3.6304   3.7394   3.7484   3.8583
     3.8640

     the Fermi energy is     2.4983 ev

!    total energy              =   -2942.90668762 Ry
     estimated scf accuracy    <       0.00000006 Ry
     smearing contrib. (-TS)   =      -0.00477836 Ry
     internal energy E=F+TS    =   -2942.90190925 Ry

     The total energy is F=E-TS. E is the sum of the following terms:
     one-electron contribution =  -23225.55385057 Ry
     hartree contribution      =   11703.05389669 Ry
     xc contribution           =    -487.47698356 Ry
     ewald contribution        =    9067.07464068 Ry
     electric field correction =       0.00038750 Ry

     convergence has been achieved in  68 iterations

     Forces acting on atoms (cartesian axes, Ry/au):

     atom    1 type  1   force =     0.00000563   -0.00044751    0.12433563
     atom    2 type  1   force =    -0.00006546   -0.00055452   -0.16061791
     atom    3 type  2   force =     0.00016261   -0.00030123   -0.06835648
     atom    4 type  2   force =    -0.00005408   -0.00038825    0.02753146
     atom    5 type  2   force =    -0.01678402    0.00112652   -0.00834175
     atom    6 type  2   force =     0.01782963    0.00162668   -0.01023555
     atom    7 type  1   force =     0.00040316   -0.00407552    0.02177761
     atom    8 type  1   force =     0.00020173   -0.00219776    0.11164959
     atom    9 type  2   force =     0.00010366    0.00018681   -0.00031813
     atom   10 type  2   force =    -0.00319736    0.00010889   -0.07306809
     atom   11 type  2   force =    -0.00034450    0.00033081   -0.00006966
     atom   12 type  2   force =     0.00013477    0.00045094   -0.00002917
     atom   13 type  1   force =     0.00013043   -0.00025289   -0.00002252
     atom   14 type  1   force =    -0.00015297    0.00003796   -0.00032132
     atom   15 type  2   force =    -0.00004865   -0.00023981    0.00020378
     atom   16 type  2   force =     0.00032625    0.00076770    0.00001444
     atom   17 type  2   force =     0.00019588    0.00031040   -0.00027095
     atom   18 type  2   force =    -0.00020595    0.00021360    0.00012561
     atom   19 type  1   force =     0.00049965   -0.00008421   -0.00020793
     atom   20 type  1   force =     0.00024986   -0.00037130   -0.00049023
     atom   21 type  2   force =     0.00009827    0.00007942    0.09964328
     atom   22 type  2   force =     0.00007738    0.00095093    0.00047056
     atom   23 type  2   force =    -0.07916007    0.00008564   -0.03243247
     atom   24 type  2   force =     0.07906280    0.00051297   -0.03242843
     atom   25 type  1   force =     0.00002792   -0.00042004    0.12385117
     atom   26 type  1   force =    -0.00003155   -0.00042244   -0.16072532
     atom   27 type  2   force =     0.00028559   -0.00046856   -0.06734495
     atom   28 type  2   force =    -0.00005734   -0.00020354    0.02726824
     atom   29 type  2   force =    -0.01731332    0.00074119   -0.00826763
     atom   30 type  2   force =     0.01827759    0.00113791   -0.01010624
     atom   31 type  1   force =     0.00033378   -0.00099927    0.02125438
     atom   32 type  1   force =     0.00020928   -0.00027394    0.11221071
     atom   33 type  2   force =     0.00011896    0.00051196   -0.00008669
     atom   34 type  2   force =    -0.00294601   -0.00065516   -0.07292227
     atom   35 type  2   force =    -0.00025006    0.00027419   -0.00009592
     atom   36 type  2   force =     0.00009262    0.00013863   -0.00003327
     atom   37 type  1   force =     0.00013409   -0.00015931    0.00023657
     atom   38 type  1   force =     0.00007031    0.00005402    0.00029937
     atom   39 type  2   force =     0.00021292    0.00037330   -0.00014631
     atom   40 type  2   force =     0.00009899    0.00034571    0.00015540
     atom   41 type  2   force =    -0.00016305    0.00033326    0.00017699
     atom   42 type  2   force =    -0.00003104    0.00060203   -0.00000458
     atom   43 type  1   force =     0.00060872    0.00052482    0.00049842
     atom   44 type  1   force =     0.00013245    0.00032845   -0.00038340
     atom   45 type  2   force =     0.00010161    0.00004994    0.09966613
     atom   46 type  2   force =    -0.07916812    0.00012773   -0.03243321
     atom   47 type  2   force =     0.07906594    0.00056174   -0.03242057
     atom   48 type  3   force =     0.00042645    0.00029987   -0.00024477
     atom   49 type  4   force =     0.00074032   -0.00035354    0.00177604
     atom   50 type  5   force =     0.00055245   -0.00036183   -0.00036709
     atom   51 type  5   force =    -0.00022343    0.00033528   -0.00011066
     atom   52 type  5   force =    -0.00072079   -0.00060106    0.00024154
     atom   53 type  3   force =     0.01021543    0.00172139    0.00470457
     atom   54 type  5   force =    -0.00193364    0.00397341   -0.00152966
     atom   55 type  5   force =    -0.00628570   -0.00405929   -0.00456518
     atom   56 type  5   force =    -0.00205003   -0.00133310    0.00090683

     Total force =     0.425157     Total SCF correction =     0.000974
  @ DRIVER MODE: Message from server: STATUS
  @ DRIVER MODE: Message from server: GETFORCE
  @ DRIVER MODE: Returning v,forces,stress,ensemble

     Writing output data file ./calc.save/
  @ DRIVER MODE: Message from server: EXIT
  @ DRIVE MODE: Exiting

     General routines

     Parallel routines

   This run was terminated on:  21: 3:51   2Aug2021

   JOB DONE.