     Program PWSCF v.6.7GPU starts on  2Aug2021 at 15:42:38

     R & G space division:  proc/nbgrp/npool/nimage =      16
     Reading input from /storage/home/hcoda1/3/ntian30/research/carbon/02Aug_vib_paired/ads_slab/CH3NH_b/out_0011/pw.inp
Warning: card &CELL ignored
Warning: card   CELL_DYNAMICS='IPI', ignored
Warning: card / ignored

     Current dimensions of program PWSCF are:
     Max number of different atomic species (ntypx) = 10
     Max number of k-points (npk) =  40000
     Max angular momentum in pseudopotentials (lmaxx) =  3
     Presently no symmetry can be used with electric field

     Message from routine cell_base_init:
     DEPRECATED: use true lattice parameter, not A to a.u. conversion factor

     IMPORTANT: XC functional enforced from input :
     Exchange-correlation= BEEF-VDW
                           (   1   4  43  14   2   0   0)
     Any further DFT definition will be discarded
     Please, verify this is what you really want

  @ DRIVER MODE: Connecting to
 qe_1139763_2482541.sched-torque.pace.gatech.eduv9y4jo2y_scratch
  using UNIX socket
  @ DRIVER MODE: Message from server: STATUS
  @ DRIVER MODE: Message from server: INIT
  @ DRIVER MODE: Receiving replica           0          -1
  @ DRIVER MODE: Receiving encoded integer          25
  @ DRIVER MODE:  SCF:  T  FORCE:  T  STRESS:  F  VC:  F  ENSEMBLE:  F
  @ DRIVER MODE:  SCF:  T  FORCE:  T  STRESS:  F  VC:  F  ENSEMBLE:  F

     Using Slab Decomposition

     bravais-lattice index     =            0
     lattice parameter (alat)  =       1.8897  a.u.
     unit-cell volume          =    6658.9804 (a.u.)^3
     number of atoms/cell      =           53
     number of atomic types    =            5
     number of electrons       =       391.00
     number of Kohn-Sham states=          205
     kinetic-energy cutoff     =      29.3995  Ry
     charge density cutoff     =     293.9946  Ry
     scf convergence threshold =      7.3E-08
     mixing beta               =       0.0500
     number of iterations used =            8  plain     mixing
     Exchange-correlation= BEEF-VDW
                           (   1   4  43  14   2   0   0)

     celldm(1)=   1.889726  celldm(2)=   0.000000  celldm(3)=   0.000000
     celldm(4)=   0.000000  celldm(5)=   0.000000  celldm(6)=   0.000000

     crystal axes: (cart. coord. in units of alat)
               a(1) = (   6.579727   0.000000   0.000000 )
               a(2) = (  -0.000775   5.961596   0.000000 )
               a(3) = (   0.000000   0.000000  25.155947 )

     reciprocal axes: (cart. coord. in units 2 pi/alat)
               b(1) = (  0.151982  0.000020  0.000000 )
               b(2) = (  0.000000  0.167740  0.000000 )
               b(3) = (  0.000000  0.000000  0.039752 )

     PseudoPot. # 1 for Ti read from file:
     /storage/coda1/p-amedford6/0/shared/rich_project_chbe-medford/medford-share/data/pseudos_module/espresso/nninc/pbe/van/Ti.UPF
     MD5 check sum: 8e4df49b7f0d34bbd5052bf3f5ea0213
     Pseudo is Ultrasoft, Zval = 12.0
     Generated by new atomic code, or converted to UPF format
     Using radial grid of  851 points,  6 beta functions with:
                l(1) =   0
                l(2) =   0
                l(3) =   1
                l(4) =   1
                l(5) =   2
                l(6) =   2
     Q(r) pseudized with  8 coefficients,  rinner =    1.000   1.000   1.000
                                                       1.000   1.000

     PseudoPot. # 2 for O  read from file:
     /storage/coda1/p-amedford6/0/shared/rich_project_chbe-medford/medford-share/data/pseudos_module/espresso/nninc/pbe/van/O.UPF
     MD5 check sum: 78c19812648e8988a0fe644b0f25305e
     Pseudo is Ultrasoft, Zval =  6.0
     Generated by new atomic code, or converted to UPF format
     Using radial grid of  737 points,  4 beta functions with:
                l(1) =   0
                l(2) =   0
                l(3) =   1
                l(4) =   1
     Q(r) pseudized with  8 coefficients,  rinner =    0.800   0.800   0.800

     PseudoPot. # 3 for H  read from file:
     /storage/coda1/p-amedford6/0/shared/rich_project_chbe-medford/medford-share/data/pseudos_module/espresso/nninc/pbe/van/H.UPF
     MD5 check sum: b5ee9d7bfd3a09ee7748110bda690ff7
     Pseudo is Ultrasoft, Zval =  1.0
     Generated by new atomic code, or converted to UPF format
     Using radial grid of  615 points,  1 beta functions with:
                l(1) =   0
     Q(r) pseudized with  8 coefficients,  rinner =    0.800

     PseudoPot. # 4 for N  read from file:
     /storage/coda1/p-amedford6/0/shared/rich_project_chbe-medford/medford-share/data/pseudos_module/espresso/nninc/pbe/van/N.UPF
     MD5 check sum: 90d10febe142ad51ac9d5be1deb811c4
     Pseudo is Ultrasoft, Zval =  5.0
     Generated by new atomic code, or converted to UPF format
     Using radial grid of  729 points,  4 beta functions with:
                l(1) =   0
                l(2) =   0
                l(3) =   1
                l(4) =   1
     Q(r) pseudized with  8 coefficients,  rinner =    0.800   0.800   0.800

     PseudoPot. # 5 for C  read from file:
     /storage/coda1/p-amedford6/0/shared/rich_project_chbe-medford/medford-share/data/pseudos_module/espresso/nninc/pbe/van/C.UPF
     MD5 check sum: 1a69bf6b8db32088f5b2163dbdb77a27
     Pseudo is Ultrasoft, Zval =  4.0
     Generated by new atomic code, or converted to UPF format
     Using radial grid of  721 points,  4 beta functions with:
                l(1) =   0
                l(2) =   0
                l(3) =   1
                l(4) =   1
     Q(r) pseudized with  8 coefficients,  rinner =    0.800   0.800   0.800

     atomic species   valence    mass     pseudopotential
        Ti1           12.00    47.86700     Ti( 1.00)
        O1             6.00    15.99900     O ( 1.00)
        H1             1.00     1.00800     H ( 1.00)
        N1             5.00    14.00700     N ( 1.00)
        C1             4.00    12.01100     C ( 1.00)

     No symmetry found

   Cartesian axes

     site n.     atom                  positions (alat units)
         1           Ti1 tau(   1) = (   0.0004258   2.9801865   6.0000000  )
         2           Ti1 tau(   2) = (   3.2906075   1.4906267   6.0002472  )
         3           O1  tau(   3) = (   0.0006271   0.0005054   7.9858123  )
         4           O1  tau(   4) = (   3.2906025   0.0005020   7.3038282  )
         5           O1  tau(   5) = (   4.5942328   1.4918067   9.2879030  )
         6           O1  tau(   6) = (   1.9868534   1.4903216   9.2879459  )
         7           Ti1 tau(   7) = (   3.2907910   2.8959150   9.1758416  )
         8           Ti1 tau(   8) = (   0.0015273   1.4827037   9.2680791  )
         9           O1  tau(   9) = (   3.2906183   5.9580730  11.3246990  )
        10           O1  tau(  10) = (   0.0116148   5.9584955  10.6183126  )
        11           O1  tau(  11) = (   1.3160896   1.4863360  12.6200149  )
        12           O1  tau(  12) = (   5.2947061   1.4800608  12.6053981  )
        13           Ti1 tau(  13) = (   6.5224157   2.9421717  12.6196007  )
        14           Ti1 tau(  14) = (   3.2076970   1.4879367  12.4696142  )
        15           O1  tau(  15) = (   6.5517659   0.0158556  14.6493665  )
        16           O1  tau(  16) = (   3.3109316   0.0069331  13.9179417  )
        17           O1  tau(  17) = (   4.5083530   1.5297238  16.0872293  )
        18           O1  tau(  18) = (   2.0274073   1.5273405  16.0409094  )
        19           Ti1 tau(  19) = (   3.2920608   3.0081397  15.6838061  )
        20           Ti1 tau(  20) = (   0.0536170   1.5416865  15.8648894  )
        21           O1  tau(  21) = (   3.2904802   0.0005063   4.7018136  )
        22           O1  tau(  22) = (   0.0122827   0.0301012  17.2134340  )
        23           O1  tau(  23) = (   1.3043587   1.4918075   6.0039043  )
        24           O1  tau(  24) = (   5.2767064   1.4903225   6.0039473  )
        25           Ti1 tau(  25) = (   0.0000382   5.9609847   6.0000000  )
        26           Ti1 tau(  26) = (   3.2902200   4.4714249   6.0002472  )
        27           O1  tau(  27) = (   0.0002396   2.9813036   7.9858123  )
        28           O1  tau(  28) = (   3.2902150   2.9813002   7.3038282  )
        29           O1  tau(  29) = (   4.5938453   4.4726049   9.2879030  )
        30           O1  tau(  30) = (   1.9864658   4.4711199   9.2879459  )
        31           Ti1 tau(  31) = (   3.2891106   5.8743827   9.1763621  )
        32           Ti1 tau(  32) = (   0.0006254   4.4649316   9.2693709  )
        33           O1  tau(  33) = (   3.2866862   2.9837957  11.3234553  )
        34           O1  tau(  34) = (   0.0092240   2.9805883  10.6323155  )
        35           O1  tau(  35) = (   1.3095649   4.4762946  12.6335636  )
        36           O1  tau(  36) = (   5.2963019   4.4650584  12.6194355  )
        37           Ti1 tau(  37) = (   6.5192018   5.9199268  12.5733442  )
        38           Ti1 tau(  38) = (   3.2055211   4.4685508  12.4747853  )
        39           O1  tau(  39) = (   6.5624772   2.9349094  14.6472044  )
        40           O1  tau(  40) = (   3.3065106   2.9879112  13.8942307  )
        41           O1  tau(  41) = (   4.5199725   4.4841037  16.0899424  )
        42           O1  tau(  42) = (   2.0389375   4.4882992  16.0664246  )
        43           Ti1 tau(  43) = (   3.3279474   0.0221627  15.7114356  )
        44           Ti1 tau(  44) = (   0.0314192   4.6578676  16.1055029  )
        45           O1  tau(  45) = (   3.2900926   2.9813045   4.7018136  )
        46           O1  tau(  46) = (   1.3039711   4.4726057   6.0039043  )
        47           O1  tau(  47) = (   5.2763189   4.4711207   6.0039473  )
        48           H1  tau(  48) = (   5.5751926   2.9245997  17.7795037  )
        49           N1  tau(  49) = (   6.5345126   2.9709300  17.4363781  )
        50           C1  tau(  50) = (   0.8205834   2.9192471  18.6315588  )
        51           H1  tau(  51) = (   0.6379014   3.7726647  19.2931901  )
        52           H1  tau(  52) = (   0.6616828   1.9903841  19.1881566  )
        53           H1  tau(  53) = (   1.8691752   2.9530840  18.3388921  )

     number of k points=    10  Fermi-Dirac smearing, width (Ry)=  0.0073
                       cart. coord. in units 2pi/alat
        k(    1) = (   0.0000000   0.0000000   0.0000000), wk =   0.1250000
        k(    2) = (   0.0000000   0.0419351   0.0000000), wk =   0.2500000
        k(    3) = (   0.0000000  -0.0838702   0.0000000), wk =   0.1250000
        k(    4) = (   0.0379955   0.0000049   0.0000000), wk =   0.2500000
        k(    5) = (   0.0379955   0.0419400   0.0000000), wk =   0.2500000
        k(    6) = (   0.0379955  -0.0838652   0.0000000), wk =   0.2500000
        k(    7) = (   0.0379955  -0.0419301   0.0000000), wk =   0.2500000
        k(    8) = (  -0.0759910  -0.0000099   0.0000000), wk =   0.1250000
        k(    9) = (  -0.0759910   0.0419252   0.0000000), wk =   0.2500000
        k(   10) = (  -0.0759910  -0.0838800   0.0000000), wk =   0.1250000

     Initial potential from superposition of free atoms

     starting charge  374.99916, renormalised to  391.00000

     negative rho (up, down):  1.779E-02 0.000E+00

     %%%%%%%%%%%%%%%%%%%%%%%%%%%%%%%%%%%%%%%%%%%%%%%%%%%%%%%%%%%%%%%%%%%%%%%%
     %                                                                      %
     % You are using vdW-DF, which was implemented by the Thonhauser group. %
     % Please cite the following two papers that made this development      %
     % possible and the two reviews that describe the various versions:     %
     %                                                                      %
     %   T. Thonhauser et al., PRL 115, 136402 (2015).                      %
     %   T. Thonhauser et al., PRB 76, 125112 (2007).                       %
     %   K. Berland et al., Rep. Prog. Phys. 78, 066501 (2015).             %
     %   D.C. Langreth et al., J. Phys.: Condens. Matter 21, 084203 (2009). %
     %                                                                      %
     %                                                                      %
     % If you are calculating the stress with vdW-DF, please also cite:     %
     %                                                                      %
     %   R. Sabatini et al., J. Phys.: Condens. Matter 24, 424209 (2012).   %
     %                                                                      %
     %%%%%%%%%%%%%%%%%%%%%%%%%%%%%%%%%%%%%%%%%%%%%%%%%%%%%%%%%%%%%%%%%%%%%%%%

     Adding external electric field

     Computed dipole along edir(3) :
        Dipole               -5.8122 Ry au,        -14.7732 Debye
        Dipole field         -0.0110 Ry au,

        Potential amp.        1.0168 Ry
        Total length         46.3494 bohr

     Starting wfcs are  296 atomic wfcs
  @ DRIVER MODE: Message from server: STATUS
  @ DRIVER MODE: Message from server: POSDATA
  @ DRIVER MODE: Reading and sharing cell
  @ DRIVER MODE: Reading and sharing positions
  @ DRIVER MODE: Received positions

     Self-consistent Calculation

     iteration #  1     ecut=    29.40 Ry     beta= 0.05
     Davidson diagonalization with overlap
     c_bands:  3 eigenvalues not converged
     c_bands:  1 eigenvalues not converged
     c_bands:  1 eigenvalues not converged
     c_bands:  3 eigenvalues not converged
     c_bands:  4 eigenvalues not converged
     c_bands:  2 eigenvalues not converged
     c_bands:  1 eigenvalues not converged
     c_bands:  1 eigenvalues not converged
     c_bands:  2 eigenvalues not converged
     ethr =  1.00E-05,  avg # of iterations = 19.5

[...]

     total energy              =   -2770.85000448 Ry
     estimated scf accuracy    <    1639.47637039 Ry

     iteration #  2     ecut=    29.40 Ry     beta= 0.05
     Davidson diagonalization with overlap
     ethr =  1.00E-02,  avg # of iterations = 18.9

[...]

     iteration # 71     ecut=    29.40 Ry     beta= 0.05
     Davidson diagonalization with overlap
     c_bands:  1 eigenvalues not converged
     ethr =  9.73E-10,  avg # of iterations =  9.9

[...]

     total energy              =   -2920.42397031 Ry
     estimated scf accuracy    <       0.00000010 Ry

     iteration # 80     ecut=    29.40 Ry     beta= 0.05
     Davidson diagonalization with overlap
     ethr =  2.44E-11,  avg # of iterations =  5.5

     negative rho (up, down):  1.813E-02 0.000E+00

     Adding external electric field

     Computed dipole along edir(3) :
        Dipole                0.6934 Ry au,          1.7623 Debye
        Dipole field          0.0013 Ry au,

        Potential amp.       -0.1213 Ry
        Total length         46.3494 bohr

     End of self-consistent calculation

          k = 0.0000 0.0000 0.0000 ( 18029 PWs)   bands (ev):

   -55.9894 -55.9820 -55.9554 -55.9458 -55.8968 -55.8325 -55.8317 -55.7973
   -55.7931 -55.7592 -55.7533 -55.7196 -55.5335 -55.2664 -54.9615 -54.9274
   -32.5409 -32.4708 -32.3443 -32.3335 -32.3096 -32.2926 -32.2826 -32.2443
   -32.2305 -32.2301 -32.2059 -32.1987 -32.1647 -32.1415 -32.1340 -32.1283
   -32.1244 -32.0928 -32.0715 -32.0466 -32.0423 -32.0348 -32.0200 -31.9923
   -31.9854 -31.9848 -31.9794 -31.9715 -31.9566 -31.9517 -31.9475 -31.9380
   -31.9298 -31.9230 -31.9065 -31.9004 -31.8659 -31.8025 -31.7062 -31.5415
   -31.5364 -31.4623 -31.3684 -31.2807 -31.2582 -31.1852 -31.0987 -30.9876
   -16.7500 -16.4666 -16.2878 -16.1440 -16.1118 -16.0266 -15.8254 -15.6986
   -15.6867 -15.5830 -15.5500 -15.5236 -15.5175 -15.4912 -15.4853 -15.4243
   -15.4224 -15.4086 -15.3994 -15.3426 -15.3180 -15.2646 -15.1861 -15.1521
   -15.1471 -15.1193 -15.0373 -15.0322 -14.5799 -14.1400 -13.4641 -13.3477
    -8.9434  -4.3528  -4.1210  -3.9464  -3.9063  -3.8916  -3.8418  -3.5877
    -3.5729  -3.3275  -3.2157  -3.1876  -3.1721  -3.1630  -3.1429  -3.1317
    -2.8857  -2.8191  -2.8037  -2.7820  -2.7743  -2.7678  -2.7558  -2.7548
    -2.7155  -2.6533  -2.5272  -2.4934  -2.4140  -2.3766  -2.3417  -2.2988
    -2.2554  -2.2480  -2.2364  -2.2178  -2.2024  -2.1814  -2.1652  -2.0310
    -1.9653  -1.8323  -1.7954  -1.7765  -1.5897  -1.5346  -1.4678  -1.4279
    -1.4149  -1.4075  -1.3755  -1.2939  -1.2054  -1.1462  -1.1375  -1.0796
    -1.0032  -0.9910  -0.8935  -0.8812  -0.8624  -0.7610  -0.7502  -0.7390
    -0.7216  -0.6568  -0.5551  -0.4742  -0.4299  -0.3997  -0.3688  -0.2992
    -0.2686  -0.1672  -0.1521  -0.1051  -0.0975  -0.0560  -0.0107  -0.0015
     0.0075   0.0152   0.0407   0.1828   0.2940   0.3478   0.3885   0.3937
     0.5498   0.5763   0.6743   0.7625   0.9875   1.0603   1.1536   1.2532
     1.2955   1.6312   1.6765   3.1539   3.2326   3.2865   3.2953   3.3979
     3.4029   3.6034   3.6131   3.6261   3.6938

[...]

          k = 0.0380-0.0419 0.0000 ( 17876 PWs)   bands (ev):

[...]

          k =-0.0760-0.0000 0.0000 ( 17886 PWs)   bands (ev):

[...]

          k =-0.0760-0.0839 0.0000 ( 17948 PWs)   bands (ev):

   -55.9726 -55.9720 -55.9651 -55.9625 -55.8917 -55.8374 -55.8153 -55.8137
   -55.7768 -55.7750 -55.7370 -55.7360 -55.5324 -55.2673 -54.9444 -54.9443
   -32.3459 -32.3423 -32.2864 -32.2859 -32.2756 -32.2683 -32.2676 -32.2547
   -32.1927 -32.1916 -32.1864 -32.1820 -32.1590 -32.1280 -32.1127 -32.1085
   -32.0957 -32.0933 -32.0921 -32.0915 -32.0881 -32.0768 -32.0745 -32.0435
   -32.0349 -32.0339 -32.0044 -31.9932 -31.9737 -31.9734 -31.9698 -31.9688
   -31.9520 -31.9513 -31.9500 -31.9469 -31.8722 -31.8049 -31.7016 -31.6061
   -31.5382 -31.4872 -31.2710 -31.2709 -31.1812 -31.1811 -31.1420 -31.1419
   -16.2038 -16.1686 -15.9319 -15.9204 -15.9139 -15.8981 -15.7522 -15.7057
   -15.6940 -15.6869 -15.6643 -15.6415 -15.5837 -15.5551 -15.5253 -15.5168
   -15.5107 -15.5085 -15.4467 -15.4416 -15.4185 -15.4116 -15.2979 -15.2941
   -15.2844 -15.2081 -15.1540 -15.0139 -14.7432 -14.1631 -13.4497 -13.4494
    -8.9481  -4.3645  -3.4978  -3.4577  -3.2786  -3.2319  -3.1724  -3.1559
    -3.1313  -3.0624  -2.8992  -2.8823  -2.8710  -2.8556  -2.8136  -2.8073
    -2.7971  -2.7844  -2.7776  -2.7590  -2.7256  -2.6934  -2.6539  -2.6465
    -2.6380  -2.6130  -2.6020  -2.5804  -2.5689  -2.5379  -2.5288  -2.5104
    -2.4817  -2.2185  -2.1986  -2.1866  -2.1179  -2.1113  -2.0779  -2.0598
    -2.0502  -2.0371  -1.9807  -1.8769  -1.7196  -1.6923  -1.6861  -1.6631
    -1.5813  -1.5719  -1.4169  -1.3958  -1.3754  -1.3389  -1.2858  -1.2610
    -1.2210  -1.1633  -1.1455  -1.0823  -1.0666  -1.0056  -0.9503  -0.9479
    -0.9286  -0.8525  -0.7696  -0.7544  -0.7406  -0.7033  -0.6931  -0.6052
    -0.5817  -0.4880  -0.4741  -0.4265  -0.3958  -0.2921  -0.1372  -0.0058
     0.0480   0.0745   0.1317   0.2302   0.2733   0.2854   0.3306   0.3367
     0.3985   0.4374   0.5520   0.5579   0.6327   0.7241   1.2329   1.4247
     1.4254   1.4963   1.4965   3.4168   3.4220   3.4695   3.4988   3.6541
     3.6587   3.6805   3.6817   3.8066   3.8234

     the Fermi energy is     3.1469 ev

!    total energy              =   -2920.42397620 Ry
     estimated scf accuracy    <       0.00000003 Ry
     smearing contrib. (-TS)   =      -0.02203632 Ry
     internal energy E=F+TS    =   -2920.40193987 Ry

     The total energy is F=E-TS. E is the sum of the following terms:
     one-electron contribution =  -24704.46933061 Ry
     hartree contribution      =   12436.90017310 Ry
     xc contribution           =    -480.86637703 Ry
     ewald contribution        =    9828.03268743 Ry
     electric field correction =       0.00090724 Ry

     convergence has been achieved in  80 iterations

     Forces acting on atoms (cartesian axes, Ry/au):

     atom    1 type  1   force =     0.00013153   -0.00025958    0.09686984
     atom    2 type  1   force =     0.00001054   -0.00052860   -0.17508763
     atom    3 type  2   force =     0.00013321   -0.00007674   -0.02544709
     atom    4 type  2   force =    -0.00000911   -0.00136646    0.05232057
     atom    5 type  2   force =    -0.01236508   -0.00013060    0.00302274
     atom    6 type  2   force =     0.01378829    0.00023617    0.00238457
     atom    7 type  1   force =     0.00058261    0.00032896   -0.01262987
     atom    8 type  1   force =     0.00046162    0.00595260    0.03112114
     atom    9 type  2   force =    -0.00033439    0.00023853    0.00041591
     atom   10 type  2   force =    -0.00269430    0.00069515   -0.01626254
     atom   11 type  2   force =    -0.00039688    0.00012149    0.00015935
     atom   12 type  2   force =     0.00012927    0.00013049    0.00018719
     atom   13 type  1   force =    -0.00011687    0.00024857    0.00028724
     atom   14 type  1   force =    -0.00003562   -0.00022672   -0.00018184
     atom   15 type  2   force =     0.00014849   -0.00010309    0.00005925
     atom   16 type  2   force =    -0.00007015    0.00027351    0.00026688
     atom   17 type  2   force =    -0.00028408   -0.00035501   -0.00027378
     atom   18 type  2   force =     0.00042246   -0.00012254    0.00028217
     atom   19 type  1   force =     0.00001641    0.00017778   -0.00024797
     atom   20 type  1   force =     0.00008165   -0.00079777   -0.00199313
     atom   21 type  2   force =     0.00007220   -0.00005867    0.10310772
     atom   22 type  2   force =    -0.00016455    0.00011774    0.00054804
     atom   23 type  2   force =    -0.07163117   -0.00016282   -0.02783103
     atom   24 type  2   force =     0.07154821    0.00032008   -0.02789181
     atom   25 type  1   force =     0.00010024   -0.00024515    0.09666402
     atom   26 type  1   force =     0.00011435   -0.00028987   -0.17526813
     atom   27 type  2   force =     0.00013199   -0.00023092   -0.02451982
     atom   28 type  2   force =     0.00002869   -0.00112800    0.05223704
     atom   29 type  2   force =    -0.01248708    0.00014848    0.00267597
     atom   30 type  2   force =     0.01379909    0.00069481    0.00202008
     atom   31 type  1   force =     0.00051209    0.00290594   -0.01337717
     atom   32 type  1   force =     0.00028728   -0.00822733    0.03150698
     atom   33 type  2   force =    -0.00005696   -0.00006634   -0.00009491
     atom   34 type  2   force =    -0.00183607    0.00055943   -0.02459136
     atom   35 type  2   force =    -0.00012922    0.00010142    0.00003897
     atom   36 type  2   force =    -0.00025289    0.00020130    0.00010852
     atom   37 type  1   force =    -0.00005974    0.00030946    0.00032057
     atom   38 type  1   force =    -0.00023714   -0.00005412   -0.00018741
     atom   39 type  2   force =     0.00007499    0.00014977   -0.00071648
     atom   40 type  2   force =    -0.00016808    0.00027052   -0.00009829
     atom   41 type  2   force =    -0.00011712    0.00018787    0.00021091
     atom   42 type  2   force =    -0.00005210    0.00000242    0.00044217
     atom   43 type  1   force =    -0.00015942   -0.00018472    0.00028989
     atom   44 type  1   force =     0.00038182    0.00055146   -0.00113263
     atom   45 type  2   force =     0.00005358   -0.00006715    0.10311584
     atom   46 type  2   force =    -0.07163839   -0.00008771   -0.02782635
     atom   47 type  2   force =     0.07156888    0.00034164   -0.02790947
     atom   48 type  3   force =     0.00350100    0.00050323   -0.00335682
     atom   49 type  4   force =    -0.00090519   -0.00096726    0.01388760
     atom   50 type  5   force =     0.00027390    0.00057695   -0.00572314
     atom   51 type  3   force =    -0.00131091   -0.00117832   -0.00138305
     atom   52 type  3   force =    -0.00041022    0.00075906   -0.00101157
     atom   53 type  3   force =    -0.00043166   -0.00018936    0.00049213

     Total force =     0.368745     Total SCF correction =     0.000399
  @ DRIVER MODE: Message from server: STATUS
  @ DRIVER MODE: Message from server: GETFORCE
  @ DRIVER MODE: Returning v,forces,stress,ensemble

     Writing output data file ./calc.save/
  @ DRIVER MODE: Message from server: EXIT
  @ DRIVE MODE: Exiting

     General routines

     Parallel routines

   This run was terminated on:  16:17:10   2Aug2021

   JOB DONE.