     Program PWSCF v.6.7GPU starts on 16Sep2021 at  0:37:52

     R & G space division:  proc/nbgrp/npool/nimage =      10
     Reading input from /storage/home/hcoda1/3/ntian30/research/carbon/CxH_vib/H2O_calc/ads_slab/CH3N2HH2O_a/out_0028/pw.inp
Warning: card &CELL ignored
Warning: card   CELL_DYNAMICS='IPI', ignored
Warning: card / ignored

     Current dimensions of program PWSCF are:
     Max number of different atomic species (ntypx) = 10
     Max number of k-points (npk) =  40000
     Max angular momentum in pseudopotentials (lmaxx) =  3
     Presently no symmetry can be used with electric field

     Message from routine cell_base_init:
     DEPRECATED: use true lattice parameter, not A to a.u. conversion factor

     IMPORTANT: XC functional enforced from input :
     Exchange-correlation= BEEF-VDW
                           (   1   4  43  14   2   0   0)
     Any further DFT definition will be discarded
     Please, verify this is what you really want

  @ DRIVER MODE: Connecting to
 qe_1139763_2852617.sched-torque.pace.gatech.eduoozpa3qc_scratch
  using UNIX socket
  @ DRIVER MODE: Message from server: STATUS
  @ DRIVER MODE: Message from server: INIT
  @ DRIVER MODE: Receiving replica           0          -1
  @ DRIVER MODE: Receiving encoded integer          25
  @ DRIVER MODE:  SCF:  T  FORCE:  T  STRESS:  F  VC:  F  ENSEMBLE:  F
  @ DRIVER MODE:  SCF:  T  FORCE:  T  STRESS:  F  VC:  F  ENSEMBLE:  F

     Using Slab Decomposition

     bravais-lattice index     =            0
     lattice parameter (alat)  =       1.8897  a.u.
     unit-cell volume          =    6658.9804 (a.u.)^3
     number of atoms/cell      =           57
     number of atomic types    =            5
     number of electrons       =       404.00
     number of Kohn-Sham states=          212
     kinetic-energy cutoff     =      29.3995  Ry
     charge density cutoff     =     293.9946  Ry
     scf convergence threshold =      7.3E-08
     mixing beta               =       0.0500
     number of iterations used =            8  plain     mixing
     Exchange-correlation= BEEF-VDW
                           (   1   4  43  14   2   0   0)

     celldm(1)=   1.889726  celldm(2)=   0.000000  celldm(3)=   0.000000
     celldm(4)=   0.000000  celldm(5)=   0.000000  celldm(6)=   0.000000

     crystal axes: (cart. coord. in units of alat)
               a(1) = (   6.579727   0.000000   0.000000 )
               a(2) = (  -0.000775   5.961596   0.000000 )
               a(3) = (   0.000000   0.000000  25.155947 )

     reciprocal axes: (cart. coord. in units 2 pi/alat)
               b(1) = (  0.151982  0.000020  0.000000 )
               b(2) = (  0.000000  0.167740  0.000000 )
               b(3) = (  0.000000  0.000000  0.039752 )

     PseudoPot. # 1 for Ti read from file:
     /storage/coda1/p-amedford6/0/shared/rich_project_chbe-medford/medford-share/data/pseudos_module/espresso/nninc/pbe/van/Ti.UPF
     MD5 check sum: 8e4df49b7f0d34bbd5052bf3f5ea0213
     Pseudo is Ultrasoft, Zval = 12.0
     Generated by new atomic code, or converted to UPF format
     Using radial grid of  851 points,  6 beta functions with:
                l(1) =   0
                l(2) =   0
                l(3) =   1
                l(4) =   1
                l(5) =   2
                l(6) =   2
     Q(r) pseudized with  8 coefficients,  rinner =    1.000   1.000   1.000
                                                       1.000   1.000

     PseudoPot. # 2 for O  read from file:
     /storage/coda1/p-amedford6/0/shared/rich_project_chbe-medford/medford-share/data/pseudos_module/espresso/nninc/pbe/van/O.UPF
     MD5 check sum: 78c19812648e8988a0fe644b0f25305e
     Pseudo is Ultrasoft, Zval =  6.0
     Generated by new atomic code, or converted to UPF format
     Using radial grid of  737 points,  4 beta functions with:
                l(1) =   0
                l(2) =   0
                l(3) =   1
                l(4) =   1
     Q(r) pseudized with  8 coefficients,  rinner =    0.800   0.800   0.800

     PseudoPot. # 3 for N  read from file:
     /storage/coda1/p-amedford6/0/shared/rich_project_chbe-medford/medford-share/data/pseudos_module/espresso/nninc/pbe/van/N.UPF
     MD5 check sum: 90d10febe142ad51ac9d5be1deb811c4
     Pseudo is Ultrasoft, Zval =  5.0
     Generated by new atomic code, or converted to UPF format
     Using radial grid of  729 points,  4 beta functions with:
                l(1) =   0
                l(2) =   0
                l(3) =   1
                l(4) =   1
     Q(r) pseudized with  8 coefficients,  rinner =    0.800   0.800   0.800

     PseudoPot. # 4 for C  read from file:
     /storage/coda1/p-amedford6/0/shared/rich_project_chbe-medford/medford-share/data/pseudos_module/espresso/nninc/pbe/van/C.UPF
     MD5 check sum: 1a69bf6b8db32088f5b2163dbdb77a27
     Pseudo is Ultrasoft, Zval =  4.0
     Generated by new atomic code, or converted to UPF format
     Using radial grid of  721 points,  4 beta functions with:
                l(1) =   0
                l(2) =   0
                l(3) =   1
                l(4) =   1
     Q(r) pseudized with  8 coefficients,  rinner =    0.800   0.800   0.800

     PseudoPot. # 5 for H  read from file:
     /storage/coda1/p-amedford6/0/shared/rich_project_chbe-medford/medford-share/data/pseudos_module/espresso/nninc/pbe/van/H.UPF
     MD5 check sum: b5ee9d7bfd3a09ee7748110bda690ff7
     Pseudo is Ultrasoft, Zval =  1.0
     Generated by new atomic code, or converted to UPF format
     Using radial grid of  615 points,  1 beta functions with:
                l(1) =   0
     Q(r) pseudized with  8 coefficients,  rinner =    0.800

     atomic species   valence    mass     pseudopotential
        Ti1           12.00    47.86700     Ti( 1.00)
        O1             6.00    15.99900     O ( 1.00)
        N1             5.00    14.00700     N ( 1.00)
        C1             4.00    12.01100     C ( 1.00)
        H1             1.00     1.00800     H ( 1.00)

     No symmetry found

   Cartesian axes

     site n.     atom                  positions (alat units)
         1           Ti1 tau(   1) = (   0.0004258   2.9801865   6.0000000  )
         2           Ti1 tau(   2) = (   3.2906075   1.4906267   6.0002472  )
         3           O1  tau(   3) = (   0.0006271   0.0005054   7.9858123  )
         4           O1  tau(   4) = (   3.2906025   0.0005020   7.3038282  )
         5           O1  tau(   5) = (   4.5942328   1.4918067   9.2879030  )
         6           O1  tau(   6) = (   1.9868534   1.4903216   9.2879459  )
         7           Ti1 tau(   7) = (   3.2907910   2.8959150   9.1758416  )
         8           Ti1 tau(   8) = (   0.0015273   1.4827037   9.2680791  )
         9           O1  tau(   9) = (   3.2846840   0.0164488  11.3171736  )
        10           O1  tau(  10) = (   0.0116148   5.9584955  10.6183126  )
        11           O1  tau(  11) = (   1.2780696   1.4966870  12.6228330  )
        12           O1  tau(  12) = (   5.2671132   1.5021727  12.6038655  )
        13           Ti1 tau(  13) = (   0.0814623   2.9703834  12.6092300  )
        14           Ti1 tau(  14) = (   3.3984034   1.5042134  12.4754612  )
        15           O1  tau(  15) = (   6.5611900   5.9602394  14.6246442  )
        16           O1  tau(  16) = (   3.2847170   0.0117735  13.9091713  )
        17           O1  tau(  17) = (   4.5127615   1.5439160  15.9886145  )
        18           O1  tau(  18) = (   2.0245574   1.5486524  15.9865356  )
        19           Ti1 tau(  19) = (   3.2678410   3.0292036  15.6627315  )
        20           Ti1 tau(  20) = (   6.5437773   1.5790868  15.8036792  )
        21           O1  tau(  21) = (   3.2904802   0.0005063   4.7018136  )
        22           O1  tau(  22) = (   6.5616667   0.0409992  17.2467836  )
        23           O1  tau(  23) = (   1.3043587   1.4918075   6.0039043  )
        24           O1  tau(  24) = (   5.2767064   1.4903225   6.0039473  )
        25           Ti1 tau(  25) = (   0.0000382   5.9609847   6.0000000  )
        26           Ti1 tau(  26) = (   3.2902200   4.4714249   6.0002472  )
        27           O1  tau(  27) = (   0.0002396   2.9813036   7.9858123  )
        28           O1  tau(  28) = (   3.2902150   2.9813002   7.3038282  )
        29           O1  tau(  29) = (   4.5938453   4.4726049   9.2879030  )
        30           O1  tau(  30) = (   1.9864658   4.4711199   9.2879459  )
        31           Ti1 tau(  31) = (   3.2891106   5.8743827   9.1763621  )
        32           Ti1 tau(  32) = (   0.0006254   4.4649316   9.2693709  )
        33           O1  tau(  33) = (   3.2886753   2.9955121  11.3174028  )
        34           O1  tau(  34) = (   0.0092240   2.9805883  10.6323155  )
        35           O1  tau(  35) = (   1.2771457   4.4765085  12.6200386  )
        36           O1  tau(  36) = (   5.2716127   4.4859779  12.5990880  )
        37           Ti1 tau(  37) = (   0.0719143   5.9417653  12.6408960  )
        38           Ti1 tau(  38) = (   3.4009286   4.4967646  12.4819834  )
        39           O1  tau(  39) = (   6.5633752   2.9851081  14.6229342  )
        40           O1  tau(  40) = (   3.2806164   3.0132077  13.8636590  )
        41           O1  tau(  41) = (   4.5054435   4.4842064  16.0752605  )
        42           O1  tau(  42) = (   2.0287922   4.4846499  16.0567397  )
        43           Ti1 tau(  43) = (   3.2585180   0.0608266  15.7494983  )
        44           Ti1 tau(  44) = (   6.5556145   4.6328118  16.1363011  )
        45           O1  tau(  45) = (   3.2900926   2.9813045   4.7018136  )
        46           O1  tau(  46) = (   1.3039711   4.4726057   6.0039043  )
        47           O1  tau(  47) = (   5.2763189   4.4711207   6.0039473  )
        48           N1  tau(  48) = (   6.4582227   2.6263240  18.5734135  )
        49           N1  tau(  49) = (   6.5493832   2.9496485  17.3103279  )
        50           C1  tau(  50) = (   0.1600853   3.5596473  19.6455425  )
        51           H1  tau(  51) = (   6.1911903   4.4878083  19.4849519  )
        52           H1  tau(  52) = (   6.4401482   3.1180517  20.5902855  )
        53           H1  tau(  53) = (   1.2308410   3.8049764  19.6956042  )
        54           H1  tau(  54) = (   6.5044843   1.6253530  18.7706356  )
        55           O1  tau(  55) = (   3.2415852   0.0755412  18.2049893  )
        56           H1  tau(  56) = (   4.0109045   5.4607113  18.3409029  )
        57           H1  tau(  57) = (   2.4534619   5.4803556  18.3240773  )

     number of k points=    10  Fermi-Dirac smearing, width (Ry)=  0.0073
                       cart. coord. in units 2pi/alat
        k(    1) = (   0.0000000   0.0000000   0.0000000), wk =   0.1250000
        k(    2) = (   0.0000000   0.0419351   0.0000000), wk =   0.2500000
        k(    3) = (   0.0000000  -0.0838702   0.0000000), wk =   0.1250000
        k(    4) = (   0.0379955   0.0000049   0.0000000), wk =   0.2500000
        k(    5) = (   0.0379955   0.0419400   0.0000000), wk =   0.2500000
        k(    6) = (   0.0379955  -0.0838652   0.0000000), wk =   0.2500000
        k(    7) = (   0.0379955  -0.0419301   0.0000000), wk =   0.2500000
        k(    8) = (  -0.0759910  -0.0000099   0.0000000), wk =   0.1250000
        k(    9) = (  -0.0759910   0.0419252   0.0000000), wk =   0.2500000
        k(   10) = (  -0.0759910  -0.0838800   0.0000000), wk =   0.1250000

     Initial potential from superposition of free atoms

     starting charge  387.99913, renormalised to  404.00000

     negative rho (up, down):  1.445E-02 0.000E+00

     %%%%%%%%%%%%%%%%%%%%%%%%%%%%%%%%%%%%%%%%%%%%%%%%%%%%%%%%%%%%%%%%%%%%%%%%
     %                                                                      %
     % You are using vdW-DF, which was implemented by the Thonhauser group. %
     % Please cite the following two papers that made this development      %
     % possible and the two reviews that describe the various versions:     %
     %                                                                      %
     %   T. Thonhauser et al., PRL 115, 136402 (2015).                      %
     %   T. Thonhauser et al., PRB 76, 125112 (2007).                       %
     %   K. Berland et al., Rep. Prog. Phys. 78, 066501 (2015).             %
     %   D.C. Langreth et al., J. Phys.: Condens. Matter 21, 084203 (2009). %
     %                                                                      %
     %                                                                      %
     % If you are calculating the stress with vdW-DF, please also cite:     %
     %                                                                      %
     %   R. Sabatini et al., J. Phys.: Condens. Matter 24, 424209 (2012).   %
     %                                                                      %
     %%%%%%%%%%%%%%%%%%%%%%%%%%%%%%%%%%%%%%%%%%%%%%%%%%%%%%%%%%%%%%%%%%%%%%%%

     Adding external electric field

     Computed dipole along edir(3) :
        Dipole              -13.5668 Ry au,        -34.4835 Debye
        Dipole field         -0.0256 Ry au,

        Potential amp.        2.3733 Ry
        Total length         46.3494 bohr

     Starting wfcs are  306 atomic wfcs
  @ DRIVER MODE: Message from server: STATUS
  @ DRIVER MODE: Message from server: POSDATA
  @ DRIVER MODE: Reading and sharing cell
  @ DRIVER MODE: Reading and sharing positions
  @ DRIVER MODE: Received positions

     Self-consistent Calculation

     iteration #  1     ecut=    29.40 Ry     beta= 0.05
     Davidson diagonalization with overlap
     c_bands:  4 eigenvalues not converged
     c_bands:  4 eigenvalues not converged
     c_bands:  4 eigenvalues not converged
     c_bands:  4 eigenvalues not converged
     c_bands:  3 eigenvalues not converged
     c_bands:  3 eigenvalues not converged
     ethr =  1.00E-05,  avg # of iterations = 25.3

[...]

     total energy              =   -2339.21271127 Ry
     estimated scf accuracy    <    7249.88258599 Ry

     iteration #  2     ecut=    29.40 Ry     beta= 0.05
     Davidson diagonalization with overlap
     ethr =  1.00E-02,  avg # of iterations = 23.9

[...]

     iteration # 40     ecut=    29.40 Ry     beta= 0.05
     Davidson diagonalization with overlap
     c_bands:  1 eigenvalues not converged
     c_bands:  1 eigenvalues not converged
     ethr =  5.09E-07,  avg # of iterations = 13.8

[...]

     total energy              =   -2975.23045306 Ry
     estimated scf accuracy    <       0.00000011 Ry

     iteration # 64     ecut=    29.40 Ry     beta= 0.05
     Davidson diagonalization with overlap
     ethr =  2.66E-11,  avg # of iterations =  5.5

     negative rho (up, down):  1.508E-02 0.000E+00

     Adding external electric field

     Computed dipole along edir(3) :
        Dipole                1.1626 Ry au,          2.9551 Debye
        Dipole field          0.0022 Ry au,

        Potential amp.       -0.2034 Ry
        Total length         46.3494 bohr

     End of self-consistent calculation

          k = 0.0000 0.0000 0.0000 ( 18029 PWs)   bands (ev):

   -55.5050 -55.4710 -55.3319 -55.2955 -55.2620 -55.2283 -55.2016 -55.1981
   -55.1871 -55.1640 -55.1528 -55.0137 -54.5520 -54.4353 -54.4013 -54.3881
   -31.9780 -31.8672 -31.7993 -31.7843 -31.7210 -31.7116 -31.6762 -31.6583
   -31.6209 -31.6038 -31.6004 -31.5732 -31.5640 -31.5194 -31.5112 -31.5001
   -31.4814 -31.4794 -31.4550 -31.4378 -31.4247 -31.4161 -31.4133 -31.3953
   -31.3920 -31.3843 -31.3746 -31.3675 -31.3649 -31.3627 -31.3409 -31.3293
   -31.3167 -31.2996 -31.2058 -31.1787 -31.0458 -30.8404 -30.7762 -30.7620
   -30.7572 -30.7345 -30.7231 -30.6574 -30.5985 -30.5712 -30.5677 -30.4600
   -18.7882 -17.7484 -16.0733 -15.8813 -15.6090 -15.4854 -15.4584 -15.2745
   -15.1982 -15.1468 -15.0147 -14.9674 -14.9382 -14.9079 -14.8957 -14.8383
   -14.8108 -14.7839 -14.7541 -14.7498 -14.7303 -14.7078 -14.6668 -14.6097
   -14.5842 -14.5230 -14.4727 -14.4513 -14.3577 -14.3531 -13.9274 -12.9370
   -12.8214 -11.9044  -8.8097  -6.5579  -5.6192  -4.3186  -4.0939  -3.4580
    -3.3825  -3.3234  -3.2075  -3.1274  -2.9891  -2.9498  -2.8810  -2.7758
    -2.6045  -2.5463  -2.5204  -2.4915  -2.4070  -2.2736  -2.2622  -2.2141
    -2.1864  -2.1658  -2.1512  -2.1352  -2.0393  -2.0010  -1.9640  -1.8536
    -1.8174  -1.7951  -1.7778  -1.7693  -1.7527  -1.6884  -1.6566  -1.6377
    -1.6277  -1.5907  -1.5563  -1.5450  -1.4155  -1.3968  -1.2794  -1.1516
    -1.1288  -1.0705  -1.0464  -0.8876  -0.8810  -0.8597  -0.8186  -0.8113
    -0.7392  -0.6665  -0.6238  -0.5498  -0.4310  -0.4218  -0.3870  -0.2408
    -0.2372  -0.2142  -0.1761  -0.1648  -0.1133  -0.1048  -0.0583   0.0027
     0.0970   0.1681   0.2735   0.2762   0.3292   0.3685   0.3815   0.4392
     0.4555   0.5052   0.5170   0.5246   0.5766   0.6115   0.6241   0.6821
     0.7333   0.8503   0.9198   0.9448   0.9915   1.1133   1.1885   1.2364
     1.2415   1.4097   1.5320   1.5615   1.5869   1.7871   1.8190   2.1537
     2.1976   3.6690   3.6858   3.7756   3.8347   3.9488   4.0205   4.1088
     4.1886   4.2582   4.3512   4.4026

[...]

          k = 0.0380-0.0419 0.0000 ( 17876 PWs)   bands (ev):

[...]

          k =-0.0760-0.0000 0.0000 ( 17886 PWs)   bands (ev):

[...]

          k =-0.0760-0.0839 0.0000 ( 17948 PWs)   bands (ev):

   -55.4882 -55.4878 -55.3174 -55.3098 -55.2451 -55.2449 -55.1964 -55.1900
   -55.1755 -55.1732 -55.1667 -55.0153 -54.5504 -54.4183 -54.4182 -54.3896
   -31.7936 -31.7935 -31.7846 -31.7845 -31.6803 -31.6632 -31.6093 -31.6086
   -31.5695 -31.5650 -31.5615 -31.5571 -31.5545 -31.5485 -31.5162 -31.5112
   -31.4891 -31.4801 -31.4776 -31.4703 -31.4382 -31.4360 -31.4279 -31.4253
   -31.4142 -31.4120 -31.4014 -31.3986 -31.3945 -31.3886 -31.3878 -31.3827
   -31.3551 -31.3310 -31.3157 -31.2135 -30.9553 -30.7995 -30.7651 -30.7473
   -30.7472 -30.7448 -30.6535 -30.6533 -30.6174 -30.6143 -30.6143 -30.5986
   -18.7871 -17.7424 -15.4964 -15.4304 -15.3598 -15.3559 -15.2511 -15.1982
   -15.1034 -15.0925 -15.0854 -15.0823 -14.9820 -14.9786 -14.9124 -14.9035
   -14.8642 -14.8576 -14.8538 -14.8371 -14.8222 -14.8171 -14.8021 -14.7553
   -14.7384 -14.7326 -14.5690 -14.5437 -14.4283 -14.4098 -14.0514 -12.9236
   -12.9235 -11.9057  -8.8201  -6.5418  -5.6110  -4.2682  -4.1145  -2.9292
    -2.9149  -2.7877  -2.6606  -2.5281  -2.5158  -2.4947  -2.4583  -2.2919
    -2.2793  -2.2640  -2.2545  -2.2128  -2.2014  -2.1825  -2.1683  -2.1142
    -2.0969  -2.0784  -2.0739  -2.0627  -2.0566  -2.0466  -2.0376  -2.0293
    -2.0057  -1.9584  -1.9371  -1.8551  -1.7699  -1.7601  -1.6828  -1.5538
    -1.5472  -1.5355  -1.5341  -1.5215  -1.5117  -1.4704  -1.4340  -1.3802
    -1.2697  -1.1517  -1.1012  -1.0830  -1.0284  -1.0092  -0.9206  -0.8400
    -0.8054  -0.7870  -0.7015  -0.6528  -0.5739  -0.5584  -0.5216  -0.4710
    -0.4469  -0.4327  -0.4171  -0.4089  -0.3449  -0.3013  -0.2337  -0.2198
    -0.1642  -0.1329  -0.1044  -0.0815  -0.0404   0.0525   0.0604   0.0886
     0.1156   0.1305   0.2050   0.3562   0.3964   0.6354   0.6445   0.7164
     0.8449   0.8673   0.8745   0.9509   0.9645   1.0019   1.0231   1.1433
     1.1662   1.1914   1.3189   1.3542   1.4462   1.9567   1.9576   2.0165
     2.0170   3.5318   4.1334   4.1435   4.1605   4.1738   4.1992   4.2058
     4.2483   4.2617   4.3946   4.4161

     the Fermi energy is     3.6450 ev

!    total energy              =   -2975.23050021 Ry
     estimated scf accuracy    <       0.00000004 Ry
     smearing contrib. (-TS)   =      -0.02107363 Ry
     internal energy E=F+TS    =   -2975.20942658 Ry

     The total energy is F=E-TS. E is the sum of the following terms:
     one-electron contribution =  -23878.67296309 Ry
     hartree contribution      =   12036.75435178 Ry
     xc contribution           =    -494.92986652 Ry
     ewald contribution        =    9361.63650034 Ry
     electric field correction =       0.00255091 Ry

     convergence has been achieved in  64 iterations

     Forces acting on atoms (cartesian axes, Ry/au):

     atom    1 type  1   force =     0.00016732   -0.00022772    0.09948440
     atom    2 type  1   force =    -0.00014590   -0.00038449   -0.17307790
     atom    3 type  2   force =    -0.00006915   -0.00000359   -0.02914369
     atom    4 type  2   force =     0.00003806   -0.00102503    0.04889492
     atom    5 type  2   force =    -0.01224283    0.00099543    0.00048311
     atom    6 type  2   force =     0.01354834    0.00186838   -0.00111187
     atom    7 type  1   force =    -0.00136515   -0.00052531   -0.00298386
     atom    8 type  1   force =     0.00094953   -0.00609087    0.04543023
     atom    9 type  2   force =     0.00000134   -0.00023528   -0.00002378
     atom   10 type  2   force =    -0.00155775    0.00261718   -0.03095023
     atom   11 type  2   force =    -0.00018498   -0.00045020    0.00003620
     atom   12 type  2   force =     0.00009479   -0.00023547    0.00014286
     atom   13 type  1   force =    -0.00018462   -0.00054020   -0.00034996
     atom   14 type  1   force =     0.00031644   -0.00016822    0.00022576
     atom   15 type  2   force =     0.00000018   -0.00010978   -0.00027158
     atom   16 type  2   force =    -0.00021447    0.00004754    0.00013226
     atom   17 type  2   force =     0.00017678   -0.00027665    0.00015530
     atom   18 type  2   force =    -0.00004713   -0.00035017    0.00001599
     atom   19 type  1   force =     0.00007220   -0.00015735    0.00037820
     atom   20 type  1   force =    -0.00002292   -0.00056972    0.00027536
     atom   21 type  2   force =     0.00008615   -0.00000644    0.10255772
     atom   22 type  2   force =     0.00008497   -0.00023555   -0.00012561
     atom   23 type  2   force =    -0.07250374   -0.00008915   -0.02846452
     atom   24 type  2   force =     0.07246673    0.00034470   -0.02844542
     atom   25 type  1   force =     0.00009175   -0.00027639    0.09899622
     atom   26 type  1   force =    -0.00005810   -0.00041374   -0.17324722
     atom   27 type  2   force =    -0.00003216    0.00000266   -0.02844866
     atom   28 type  2   force =     0.00009462   -0.00075918    0.04805919
     atom   29 type  2   force =    -0.01261269    0.00063250    0.00051938
     atom   30 type  2   force =     0.01384598    0.00096065   -0.00104921
     atom   31 type  1   force =    -0.00147152    0.00226317   -0.00570744
     atom   32 type  1   force =     0.00112693    0.00383801    0.04594295
     atom   33 type  2   force =    -0.00006200   -0.00025964   -0.00010093
     atom   34 type  2   force =    -0.00096671    0.00134127   -0.03380004
     atom   35 type  2   force =    -0.00029128    0.00004103   -0.00025428
     atom   36 type  2   force =     0.00049490    0.00010014   -0.00004082
     atom   37 type  1   force =    -0.00030974    0.00007995    0.00023164
     atom   38 type  1   force =     0.00019360   -0.00030306    0.00003355
     atom   39 type  2   force =     0.00002953   -0.00052273    0.00039123
     atom   40 type  2   force =    -0.00004736    0.00017324   -0.00026725
     atom   41 type  2   force =    -0.00014422   -0.00024936    0.00005386
     atom   42 type  2   force =     0.00022045   -0.00018123   -0.00005951
     atom   43 type  1   force =     0.00009480    0.00003960   -0.00011931
     atom   44 type  1   force =    -0.00001324   -0.00016479    0.00004778
     atom   45 type  2   force =     0.00009284   -0.00001200    0.10255344
     atom   46 type  2   force =    -0.07252821   -0.00000650   -0.02845667
     atom   47 type  2   force =     0.07248272    0.00037732   -0.02845129
     atom   48 type  3   force =    -0.00059781   -0.00077382    0.00064758
     atom   49 type  3   force =     0.00015446   -0.00050799   -0.00010584
     atom   50 type  4   force =     0.00140878    0.00332702   -0.00373128
     atom   51 type  5   force =     0.00052866    0.00017273   -0.00060123
     atom   52 type  5   force =    -0.00149364   -0.00354361    0.00400209
     atom   53 type  5   force =     0.00008957    0.00001138   -0.00004358
     atom   54 type  5   force =     0.00030891    0.00006877    0.00015618
     atom   55 type  2   force =     0.00059914    0.00053799   -0.00026888
     atom   56 type  5   force =    -0.00018649   -0.00038385   -0.00024767
     atom   57 type  5   force =    -0.00050670    0.00019844    0.00010212

     Total force =     0.372123     Total SCF correction =     0.000617
  @ DRIVER MODE: Message from server: STATUS
  @ DRIVER MODE: Message from server: GETFORCE
  @ DRIVER MODE: Returning v,forces,stress,ensemble

     Writing output data file ./calc.save/
  @ DRIVER MODE: Message from server: EXIT
  @ DRIVE MODE: Exiting

     General routines

     Parallel routines

   This run was terminated on:   0:55:37  16Sep2021

   JOB DONE.