     Program PWSCF v.6.7GPU starts on 27Jul2021 at 16: 6:34

     R & G space division:  proc/nbgrp/npool/nimage =      16
     Reading input from /storage/home/hcoda1/3/ntian30/research/carbon/15Jul_vib/ads_slab/CH3NHHH_a/out_0015/pw.inp
Warning: card &CELL ignored
Warning: card   CELL_DYNAMICS='IPI', ignored
Warning: card / ignored

     Current dimensions of program PWSCF are:
     Max number of different atomic species (ntypx) = 10
     Max number of k-points (npk) =  40000
     Max angular momentum in pseudopotentials (lmaxx) =  3
     Presently no symmetry can be used with electric field

     Message from routine cell_base_init:
     DEPRECATED: use true lattice parameter, not A to a.u. conversion factor

     IMPORTANT: XC functional enforced from input :
     Exchange-correlation= BEEF-VDW
                           (   1   4  43  14   2   0   0)
     Any further DFT definition will be discarded
     Please, verify this is what you really want

  @ DRIVER MODE: Connecting to
 qe_1139763_2431568.sched-torque.pace.gatech.eduwnxx936d_scratch
  using UNIX socket
  @ DRIVER MODE: Message from server: STATUS
  @ DRIVER MODE: Message from server: INIT
  @ DRIVER MODE: Receiving replica           0          -1
  @ DRIVER MODE: Receiving encoded integer          25
  @ DRIVER MODE:  SCF:  T  FORCE:  T  STRESS:  F  VC:  F  ENSEMBLE:  F
  @ DRIVER MODE:  SCF:  T  FORCE:  T  STRESS:  F  VC:  F  ENSEMBLE:  F

     Using Slab Decomposition

     bravais-lattice index     =            0
     lattice parameter (alat)  =       1.8897  a.u.
     unit-cell volume          =    6658.9804 (a.u.)^3
     number of atoms/cell      =           55
     number of atomic types    =            5
     number of electrons       =       393.00
     number of Kohn-Sham states=          206
     kinetic-energy cutoff     =      29.3995  Ry
     charge density cutoff     =     293.9946  Ry
     scf convergence threshold =      7.3E-08
     mixing beta               =       0.0500
     number of iterations used =            8  plain     mixing
     Exchange-correlation= BEEF-VDW
                           (   1   4  43  14   2   0   0)

     celldm(1)=   1.889726  celldm(2)=   0.000000  celldm(3)=   0.000000
     celldm(4)=   0.000000  celldm(5)=   0.000000  celldm(6)=   0.000000

     crystal axes: (cart. coord. in units of alat)
               a(1) = (   6.579727   0.000000   0.000000 )
               a(2) = (  -0.000775   5.961596   0.000000 )
               a(3) = (   0.000000   0.000000  25.155947 )

     reciprocal axes: (cart. coord. in units 2 pi/alat)
               b(1) = (  0.151982  0.000020  0.000000 )
               b(2) = (  0.000000  0.167740  0.000000 )
               b(3) = (  0.000000  0.000000  0.039752 )

     PseudoPot. # 1 for Ti read from file:
     /storage/coda1/p-amedford6/0/shared/rich_project_chbe-medford/medford-share/data/pseudos_module/espresso/nninc/pbe/van/Ti.UPF
     MD5 check sum: 8e4df49b7f0d34bbd5052bf3f5ea0213
     Pseudo is Ultrasoft, Zval = 12.0
     Generated by new atomic code, or converted to UPF format
     Using radial grid of  851 points,  6 beta functions with:
                l(1) =   0
                l(2) =   0
                l(3) =   1
                l(4) =   1
                l(5) =   2
                l(6) =   2
     Q(r) pseudized with  8 coefficients,  rinner =    1.000   1.000   1.000
                                                       1.000   1.000

     PseudoPot. # 2 for O  read from file:
     /storage/coda1/p-amedford6/0/shared/rich_project_chbe-medford/medford-share/data/pseudos_module/espresso/nninc/pbe/van/O.UPF
     MD5 check sum: 78c19812648e8988a0fe644b0f25305e
     Pseudo is Ultrasoft, Zval =  6.0
     Generated by new atomic code, or converted to UPF format
     Using radial grid of  737 points,  4 beta functions with:
                l(1) =   0
                l(2) =   0
                l(3) =   1
                l(4) =   1
     Q(r) pseudized with  8 coefficients,  rinner =    0.800   0.800   0.800

     PseudoPot. # 3 for N  read from file:
     /storage/coda1/p-amedford6/0/shared/rich_project_chbe-medford/medford-share/data/pseudos_module/espresso/nninc/pbe/van/N.UPF
     MD5 check sum: 90d10febe142ad51ac9d5be1deb811c4
     Pseudo is Ultrasoft, Zval =  5.0
     Generated by new atomic code, or converted to UPF format
     Using radial grid of  729 points,  4 beta functions with:
                l(1) =   0
                l(2) =   0
                l(3) =   1
                l(4) =   1
     Q(r) pseudized with  8 coefficients,  rinner =    0.800   0.800   0.800

     PseudoPot. # 4 for C  read from file:
     /storage/coda1/p-amedford6/0/shared/rich_project_chbe-medford/medford-share/data/pseudos_module/espresso/nninc/pbe/van/C.UPF
     MD5 check sum: 1a69bf6b8db32088f5b2163dbdb77a27
     Pseudo is Ultrasoft, Zval =  4.0
     Generated by new atomic code, or converted to UPF format
     Using radial grid of  721 points,  4 beta functions with:
                l(1) =   0
                l(2) =   0
                l(3) =   1
                l(4) =   1
     Q(r) pseudized with  8 coefficients,  rinner =    0.800   0.800   0.800

     PseudoPot. # 5 for H  read from file:
     /storage/coda1/p-amedford6/0/shared/rich_project_chbe-medford/medford-share/data/pseudos_module/espresso/nninc/pbe/van/H.UPF
     MD5 check sum: b5ee9d7bfd3a09ee7748110bda690ff7
     Pseudo is Ultrasoft, Zval =  1.0
     Generated by new atomic code, or converted to UPF format
     Using radial grid of  615 points,  1 beta functions with:
                l(1) =   0
     Q(r) pseudized with  8 coefficients,  rinner =    0.800

     atomic species   valence    mass     pseudopotential
        Ti1           12.00    47.86700     Ti( 1.00)
        O1             6.00    15.99900     O ( 1.00)
        N1             5.00    14.00700     N ( 1.00)
        C1             4.00    12.01100     C ( 1.00)
        H1             1.00     1.00800     H ( 1.00)

     Starting magnetic structure
     atomic species   magnetization
        Ti1          0.000
        O1           0.000
        N1           0.040
        C1           0.025
        H1           0.000

     No symmetry found

   Cartesian axes

     site n.     atom                  positions (alat units)
         1           Ti1 tau(   1) = (   0.0004258   2.9801865   6.0000000  )
         2           Ti1 tau(   2) = (   3.2906075   1.4906267   6.0002472  )
         3           O1  tau(   3) = (   0.0006271   0.0005054   7.9858123  )
         4           O1  tau(   4) = (   3.2906025   0.0005020   7.3038282  )
         5           O1  tau(   5) = (   4.5942328   1.4918067   9.2879030  )
         6           O1  tau(   6) = (   1.9868534   1.4903216   9.2879459  )
         7           Ti1 tau(   7) = (   3.2907910   2.8959150   9.1758416  )
         8           Ti1 tau(   8) = (   0.0015273   1.4827037   9.2680791  )
         9           O1  tau(   9) = (   3.2636084   5.9406443  11.4082010  )
        10           O1  tau(  10) = (   0.0116148   5.9584955  10.6183126  )
        11           O1  tau(  11) = (   1.2642105   1.4849797  12.6947803  )
        12           O1  tau(  12) = (   5.2691575   1.4821021  12.6650678  )
        13           Ti1 tau(  13) = (   6.5574234   2.9640577  12.4921542  )
        14           Ti1 tau(  14) = (   3.2619390   1.4709553  12.5527290  )
        15           O1  tau(  15) = (   6.5247406   5.9594380  14.6832748  )
        16           O1  tau(  16) = (   3.2695906   5.9428997  14.0562986  )
        17           O1  tau(  17) = (   4.5175969   1.4707097  16.2986306  )
        18           O1  tau(  18) = (   1.9406912   1.4777946  16.2473769  )
        19           Ti1 tau(  19) = (   3.2491105   2.9422209  15.8109686  )
        20           Ti1 tau(  20) = (   6.5361480   1.3378720  15.9626387  )
        21           O1  tau(  21) = (   3.2904802   0.0005063   4.7018136  )
        22           O1  tau(  22) = (   6.5280740   5.8897732  17.4332532  )
        23           O1  tau(  23) = (   1.3043587   1.4918075   6.0039043  )
        24           O1  tau(  24) = (   5.2767064   1.4903225   6.0039473  )
        25           Ti1 tau(  25) = (   0.0000382   5.9609847   6.0000000  )
        26           Ti1 tau(  26) = (   3.2902200   4.4714249   6.0002472  )
        27           O1  tau(  27) = (   0.0002396   2.9813036   7.9858123  )
        28           O1  tau(  28) = (   3.2902150   2.9813002   7.3038282  )
        29           O1  tau(  29) = (   4.5938453   4.4726049   9.2879030  )
        30           O1  tau(  30) = (   1.9864658   4.4711199   9.2879459  )
        31           Ti1 tau(  31) = (   3.2891106   5.8743827   9.1763621  )
        32           Ti1 tau(  32) = (   0.0006254   4.4649316   9.2693709  )
        33           O1  tau(  33) = (   3.2649920   2.9642658  11.3997388  )
        34           O1  tau(  34) = (   0.0092240   2.9805883  10.6323155  )
        35           O1  tau(  35) = (   1.2634527   4.4478426  12.7061968  )
        36           O1  tau(  36) = (   5.2693862   4.4495813  12.6755241  )
        37           Ti1 tau(  37) = (   6.5522441   5.9483113  12.5008436  )
        38           Ti1 tau(  38) = (   3.2626494   4.4468850  12.5575576  )
        39           O1  tau(  39) = (   6.4970557   2.9363996  15.0046851  )
        40           O1  tau(  40) = (   3.2722650   2.9529576  14.0194401  )
        41           O1  tau(  41) = (   4.5170401   4.4205294  16.2730734  )
        42           O1  tau(  42) = (   1.9466746   4.4191161  16.2235312  )
        43           Ti1 tau(  43) = (   3.2419262   5.9323414  15.8513663  )
        44           Ti1 tau(  44) = (   6.5549466   4.5556212  15.8889459  )
        45           O1  tau(  45) = (   3.2900926   2.9813045   4.7018136  )
        46           O1  tau(  46) = (   1.3039711   4.4726057   6.0039043  )
        47           O1  tau(  47) = (   5.2763189   4.4711207   6.0039473  )
        48           N1  tau(  48) = (   4.8657738   4.5798987  19.4796958  )
        49           C1  tau(  49) = (   5.7271871   3.4329544  19.8049648  )
        50           H1  tau(  50) = (   6.3241292   3.1621029  18.9298488  )
        51           H1  tau(  51) = (   6.4229137   3.7195585  20.5942015  )
        52           H1  tau(  52) = (   5.1874390   2.5328885  20.1195193  )
        53           H1  tau(  53) = (   5.9066942   5.7389963  18.1772939  )
        54           H1  tau(  54) = (   4.2103208   4.3266459  18.7469397  )
        55           H1  tau(  55) = (   4.3187305   4.8545830  20.2870342  )

     number of k points=    10  Fermi-Dirac smearing, width (Ry)=  0.0073
                       cart. coord. in units 2pi/alat
        k(    1) = (   0.0000000   0.0000000   0.0000000), wk =   0.0625000
        k(    2) = (   0.0000000   0.0419351   0.0000000), wk =   0.1250000
        k(    3) = (   0.0000000  -0.0838702   0.0000000), wk =   0.0625000
        k(    4) = (   0.0379955   0.0000049   0.0000000), wk =   0.1250000
        k(    5) = (   0.0379955   0.0419400   0.0000000), wk =   0.1250000
        k(    6) = (   0.0379955  -0.0838652   0.0000000), wk =   0.1250000
[...]

     Initial potential from superposition of free atoms

     starting charge  376.99914, renormalised to  393.00000

     negative rho (up, down):  6.647E-03 6.649E-03

     %%%%%%%%%%%%%%%%%%%%%%%%%%%%%%%%%%%%%%%%%%%%%%%%%%%%%%%%%%%%%%%%%%%%%%%%
     %                                                                      %
     % You are using vdW-DF, which was implemented by the Thonhauser group. %
     % Please cite the following two papers that made this development      %
     % possible and the two reviews that describe the various versions:     %
     %                                                                      %
     %   T. Thonhauser et al., PRL 115, 136402 (2015).                      %
     %   T. Thonhauser et al., PRB 76, 125112 (2007).                       %
     %   K. Berland et al., Rep. Prog. Phys. 78, 066501 (2015).             %
     %   D.C. Langreth et al., J. Phys.: Condens. Matter 21, 084203 (2009). %
     %                                                                      %
     %                                                                      %
     % If you are calculating the stress with vdW-DF, please also cite:     %
     %                                                                      %
     %   R. Sabatini et al., J. Phys.: Condens. Matter 24, 424209 (2012).   %
     %                                                                      %
     %%%%%%%%%%%%%%%%%%%%%%%%%%%%%%%%%%%%%%%%%%%%%%%%%%%%%%%%%%%%%%%%%%%%%%%%

     Adding external electric field

     Computed dipole along edir(3) :
        Dipole               -9.4918 Ry au,        -24.1257 Debye
        Dipole field         -0.0179 Ry au,

        Potential amp.        1.6604 Ry
        Total length         46.3494 bohr

[...]

     Starting wfcs are  298 atomic wfcs
  @ DRIVER MODE: Message from server: STATUS
  @ DRIVER MODE: Message from server: POSDATA
  @ DRIVER MODE: Reading and sharing cell
  @ DRIVER MODE: Reading and sharing positions
  @ DRIVER MODE: Received positions

     Self-consistent Calculation

     iteration #  1     ecut=    29.40 Ry     beta= 0.05
     Davidson diagonalization with overlap
     c_bands:  2 eigenvalues not converged
     c_bands:  1 eigenvalues not converged
     c_bands:  2 eigenvalues not converged
     c_bands:  3 eigenvalues not converged
     c_bands:  3 eigenvalues not converged
     c_bands:  1 eigenvalues not converged
     c_bands:  2 eigenvalues not converged
     c_bands:  1 eigenvalues not converged
     c_bands:  2 eigenvalues not converged
     c_bands:  3 eigenvalues not converged
     c_bands:  3 eigenvalues not converged
     c_bands:  1 eigenvalues not converged
     ethr =  1.00E-05,  avg # of iterations = 18.9

[...]

     total energy              =   -2620.51766077 Ry
     estimated scf accuracy    <    3389.60574678 Ry

     total magnetization       =     0.00 Bohr mag/cell
     absolute magnetization    =     0.01 Bohr mag/cell

[...]

     iteration #  3     ecut=    29.40 Ry     beta= 0.05
     Davidson diagonalization with overlap
     ethr =  1.00E-02,  avg # of iterations = 15.2

[...]

     iteration #154     ecut=    29.40 Ry     beta= 0.05
     Davidson diagonalization with overlap
     c_bands:  2 eigenvalues not converged
     c_bands:  1 eigenvalues not converged
     ethr =  2.82E-11,  avg # of iterations = 16.2

[...]

     total energy              =   -2922.77425324 Ry
     estimated scf accuracy    <       0.00000007 Ry

[...]

     iteration #155     ecut=    29.40 Ry     beta= 0.05
     Davidson diagonalization with overlap
     ethr =  1.90E-11,  avg # of iterations =  9.2

     negative rho (up, down):  7.248E-03 7.248E-03

[...]

     Adding external electric field

     Computed dipole along edir(3) :
        Dipole                1.4052 Ry au,          3.5717 Debye
        Dipole field          0.0027 Ry au,

        Potential amp.       -0.2458 Ry
        Total length         46.3494 bohr

     Magnetic moment per site  (integrated on atomic sphere of radius R)
     atom   1 (R=0.739)  charge=  8.0547  magn= -0.0018
     atom   2 (R=0.739)  charge=  8.0362  magn= -0.0001
     atom   3 (R=0.405)  charge=  2.0075  magn=  0.0001
     atom   4 (R=0.405)  charge=  2.0190  magn=  0.0000
     atom   5 (R=0.405)  charge=  2.0104  magn=  0.0000
     atom   6 (R=0.405)  charge=  2.0107  magn=  0.0000
     atom   7 (R=0.739)  charge=  8.0371  magn= -0.0002
     atom   8 (R=0.739)  charge=  8.0393  magn= -0.0015
     atom   9 (R=0.405)  charge=  2.0112  magn=  0.0001
     atom  10 (R=0.405)  charge=  2.0118  magn=  0.0001
     atom  11 (R=0.405)  charge=  2.0092  magn=  0.0000
     atom  12 (R=0.405)  charge=  2.0092  magn=  0.0000
     atom  13 (R=0.739)  charge=  8.0499  magn= -0.0006
     atom  14 (R=0.739)  charge=  8.0432  magn= -0.0008
     atom  15 (R=0.405)  charge=  2.0128  magn= -0.0001
     atom  16 (R=0.405)  charge=  2.0108  magn=  0.0001
     atom  17 (R=0.405)  charge=  2.0009  magn=  0.0000
     atom  18 (R=0.405)  charge=  2.0012  magn=  0.0000
     atom  19 (R=0.739)  charge=  8.0824  magn= -0.0018
     atom  20 (R=0.739)  charge=  8.1004  magn=  0.0001
     atom  21 (R=0.405)  charge=  1.9825  magn=  0.0001
     atom  22 (R=0.405)  charge=  2.0201  magn= -0.0000
     atom  23 (R=0.405)  charge=  2.0078  magn=  0.0001
     atom  24 (R=0.405)  charge=  2.0078  magn=  0.0001
     atom  25 (R=0.739)  charge=  8.0548  magn= -0.0018
     atom  26 (R=0.739)  charge=  8.0362  magn= -0.0001
     atom  27 (R=0.405)  charge=  2.0075  magn=  0.0001
     atom  28 (R=0.405)  charge=  2.0191  magn=  0.0000
     atom  29 (R=0.405)  charge=  2.0107  magn=  0.0000
     atom  30 (R=0.405)  charge=  2.0109  magn=  0.0000
     atom  31 (R=0.739)  charge=  8.0372  magn= -0.0002
     atom  32 (R=0.739)  charge=  8.0393  magn= -0.0015
     atom  33 (R=0.405)  charge=  2.0120  magn=  0.0001
     atom  34 (R=0.405)  charge=  2.0122  magn=  0.0000
     atom  35 (R=0.405)  charge=  2.0082  magn=  0.0000
     atom  36 (R=0.405)  charge=  2.0092  magn=  0.0000
     atom  37 (R=0.739)  charge=  8.0419  magn= -0.0007
     atom  38 (R=0.739)  charge=  8.0432  magn= -0.0007
     atom  39 (R=0.405)  charge=  2.0116  magn= -0.0000
     atom  40 (R=0.405)  charge=  2.0126  magn=  0.0000
     atom  41 (R=0.405)  charge=  2.0020  magn=  0.0000
     atom  42 (R=0.405)  charge=  2.0020  magn=  0.0000
     atom  43 (R=0.739)  charge=  8.0813  magn= -0.0024
     atom  44 (R=0.739)  charge=  8.1024  magn=  0.0001
     atom  45 (R=0.405)  charge=  1.9825  magn=  0.0000
     atom  46 (R=0.405)  charge=  2.0078  magn=  0.0001
     atom  47 (R=0.405)  charge=  2.0078  magn=  0.0001
     atom  48 (R=0.418)  charge=  1.3245  magn= -0.0000
     atom  49 (R=0.450)  charge=  0.8486  magn= -0.0000
     atom  50 (R=0.405)  charge=  0.4123  magn=  0.0000
     atom  51 (R=0.405)  charge=  0.4139  magn=  0.0000
     atom  52 (R=0.405)  charge=  0.4129  magn=  0.0000
     atom  53 (R=0.405)  charge=  0.3971  magn=  0.0000
     atom  54 (R=0.405)  charge=  0.4210  magn=  0.0000
     atom  55 (R=0.405)  charge=  0.4255  magn=  0.0000

     End of self-consistent calculation

 ------ SPIN UP ------------

          k = 0.0000 0.0000 0.0000 ( 18029 PWs)   bands (ev):

   -55.3073 -55.2715 -55.2548 -55.2207 -55.1712 -55.1478 -55.1454 -55.1369
   -55.1134 -55.0821 -55.0716 -55.0482 -55.0308 -54.9728 -54.2999 -54.2659
   -31.8744 -31.7498 -31.6884 -31.6597 -31.6356 -31.6142 -31.5890 -31.5484
   -31.5448 -31.5424 -31.5145 -31.5033 -31.4983 -31.4747 -31.4645 -31.4591
   -31.4459 -31.4362 -31.4073 -31.4000 -31.3956 -31.3799 -31.3710 -31.3537
   -31.3517 -31.3139 -31.3115 -31.3034 -31.3018 -31.2885 -31.2829 -31.2814
   -31.2748 -31.2739 -31.2594 -31.2561 -31.2233 -31.2092 -31.1997 -31.1927
   -31.1799 -31.1064 -30.7100 -30.6136 -30.5916 -30.5259 -30.4391 -30.3286
   -16.8235 -16.1468 -15.8905 -15.7696 -15.6605 -15.5902 -15.5200 -15.4408
   -15.3570 -15.2565 -15.1950 -15.0898 -15.0552 -15.0157 -15.0010 -14.9820
   -14.9551 -14.8751 -14.8641 -14.8534 -14.8278 -14.8097 -14.7812 -14.7725
   -14.7657 -14.7264 -14.6892 -14.5767 -14.4863 -14.4009 -12.8031 -12.6854
   -10.0106  -5.8548  -4.7421  -4.4274  -3.5129  -3.4728  -3.3426  -3.2374
    -3.2041  -3.1958  -3.0750  -2.8920  -2.7967  -2.7698  -2.6918  -2.6288
    -2.5329  -2.5291  -2.4889  -2.3886  -2.3507  -2.3240  -2.2409  -2.2141
    -2.1677  -2.1169  -2.1067  -2.1035  -2.0829  -2.0424  -2.0037  -1.8850
    -1.8000  -1.7782  -1.7046  -1.6883  -1.6823  -1.6540  -1.6112  -1.5919
    -1.5427  -1.5256  -1.4849  -1.4161  -1.3548  -1.2727  -1.2357  -1.1987
    -0.9927  -0.9640  -0.9134  -0.9109  -0.8825  -0.8141  -0.7845  -0.7548
    -0.6889  -0.6864  -0.6580  -0.5517  -0.5089  -0.3881  -0.3175  -0.2379
    -0.1163  -0.1031  -0.0791  -0.0295  -0.0060   0.0537   0.1137   0.1504
     0.1897   0.2025   0.2898   0.3192   0.3962   0.4108   0.4488   0.5121
     0.5286   0.5545   0.5721   0.5844   0.6185   0.6344   0.6684   0.7352
     0.7673   0.8687   0.9174   1.2011   1.2866   1.5955   1.6190   1.7223
     1.9036   2.3006   2.3499   3.7880   3.8488   3.8901   3.9315   3.9364
     4.0170   4.1470   4.2903   4.3003   4.3110   4.3177

[...]

          k =-0.0760-0.0000 0.0000 ( 17886 PWs)   bands (ev):

[...]

 ------ SPIN DOWN ----------

[...]

          k = 0.0380-0.0419 0.0000 ( 17876 PWs)   bands (ev):

[...]

          k =-0.0760-0.0839 0.0000 ( 17948 PWs)   bands (ev):

   -55.2920 -55.2891 -55.2412 -55.2405 -55.1557 -55.1547 -55.1444 -55.1329
   -55.1286 -55.0773 -55.0690 -55.0664 -55.0234 -54.9796 -54.2831 -54.2829
   -31.6830 -31.6779 -31.5881 -31.5817 -31.5664 -31.5659 -31.5568 -31.5317
   -31.5310 -31.5090 -31.5044 -31.5023 -31.4892 -31.4626 -31.4577 -31.4568
   -31.4311 -31.4306 -31.4239 -31.4039 -31.3811 -31.3789 -31.3680 -31.3644
   -31.3635 -31.3607 -31.3601 -31.3500 -31.3483 -31.3421 -31.3383 -31.3235
   -31.3211 -31.3079 -31.3048 -31.2932 -31.2645 -31.2486 -31.2466 -31.2436
   -31.2253 -31.1723 -30.6046 -30.6045 -30.5227 -30.5225 -30.4827 -30.4827
   -16.7622 -15.8197 -15.5916 -15.5392 -15.4984 -15.4039 -15.3301 -15.2991
   -15.2890 -15.2759 -15.1499 -15.1218 -15.1122 -15.0841 -15.0524 -15.0278
   -15.0240 -14.9891 -14.9319 -14.9257 -14.9178 -14.9096 -14.8460 -14.8378
   -14.8340 -14.8272 -14.7616 -14.7592 -14.6773 -14.6754 -12.7865 -12.7865
   -10.0203  -5.8553  -4.8693  -4.4085  -3.5245  -2.8232  -2.7956  -2.7437
    -2.7090  -2.6125  -2.5268  -2.4996  -2.4630  -2.4053  -2.3531  -2.3056
    -2.3036  -2.2680  -2.2483  -2.2295  -2.1859  -2.1642  -2.1418  -2.1235
    -2.1088  -2.0551  -2.0522  -2.0431  -2.0188  -1.9846  -1.9672  -1.9539
    -1.9377  -1.9194  -1.8939  -1.8746  -1.7316  -1.7106  -1.6702  -1.5528
    -1.5350  -1.5315  -1.4985  -1.4547  -1.4299  -1.4224  -1.3485  -1.3413
    -1.3085  -1.1517  -1.0794  -1.0776  -1.0544  -1.0304  -0.9352  -0.8837
    -0.8434  -0.7935  -0.7177  -0.6863  -0.6676  -0.5951  -0.5681  -0.4767
    -0.3873  -0.3605  -0.3523  -0.2748  -0.2733  -0.2399  -0.2268  -0.1579
    -0.0977  -0.0460  -0.0420  -0.0380   0.0907   0.1277   0.2078   0.3219
     0.4023   0.4108   0.4618   0.5223   0.6055   0.6513   0.6672   0.7890
     0.7910   0.9774   0.9807   1.0291   1.0442   1.1245   1.1296   2.0766
     2.0773   2.1696   2.1699   3.7620   3.9440   3.9977   4.0714   4.0969
     4.1951   4.2795   4.3133   4.3438   4.3655   4.3716

     the Fermi energy is     3.8551 ev

!    total energy              =   -2922.77425337 Ry
     estimated scf accuracy    <       0.00000006 Ry
     smearing contrib. (-TS)   =      -0.04551711 Ry
     internal energy E=F+TS    =   -2922.72873626 Ry

     The total energy is F=E-TS. E is the sum of the following terms:
     one-electron contribution =  -23201.64146131 Ry
     hartree contribution      =   11691.11529752 Ry
     xc contribution           =    -482.54700096 Ry
     ewald contribution        =    9070.34070209 Ry
     electric field correction =       0.00372639 Ry

     total magnetization       =    -0.02 Bohr mag/cell
     absolute magnetization    =     0.03 Bohr mag/cell

     convergence has been achieved in 155 iterations

     Forces acting on atoms (cartesian axes, Ry/au):

     atom    1 type  1   force =     0.00016958   -0.00008947    0.09305374
     atom    2 type  1   force =     0.00001414   -0.00015742   -0.17886482
     atom    3 type  2   force =     0.00002372   -0.00029347   -0.02022802
     atom    4 type  2   force =    -0.00000127   -0.00223813    0.06098786
     atom    5 type  2   force =    -0.01149443   -0.00127929    0.01054300
     atom    6 type  2   force =     0.01240725   -0.00058560    0.00810724
     atom    7 type  1   force =    -0.00122418    0.00343893   -0.01490443
     atom    8 type  1   force =     0.00123107   -0.00358408   -0.00842848
     atom    9 type  2   force =     0.00001104   -0.00004995   -0.00025216
     atom   10 type  2   force =    -0.00281473   -0.00047531    0.00153745
     atom   11 type  2   force =     0.00012490   -0.00023254   -0.00028441
     atom   12 type  2   force =    -0.00000402    0.00009032   -0.00009631
     atom   13 type  1   force =    -0.00019632   -0.00031888   -0.00063612
     atom   14 type  1   force =    -0.00005209   -0.00005081    0.00023668
     atom   15 type  2   force =    -0.00011232   -0.00024335   -0.00012788
     atom   16 type  2   force =     0.00032811    0.00035587   -0.00009550
     atom   17 type  2   force =     0.00078607    0.00029222   -0.00024106
     atom   18 type  2   force =     0.00009523   -0.00026830   -0.00004161
     atom   19 type  1   force =     0.00025068    0.00044129   -0.00046592
     atom   20 type  1   force =     0.00012242    0.00005332    0.00043905
     atom   21 type  2   force =     0.00012752   -0.00003057    0.10426016
     atom   22 type  2   force =    -0.00052318    0.00020113    0.00018132
     atom   23 type  2   force =    -0.06991115   -0.00010513   -0.02679039
     atom   24 type  2   force =     0.06988433    0.00035614   -0.02678870
     atom   25 type  1   force =     0.00018345   -0.00019650    0.09235966
     atom   26 type  1   force =    -0.00006546   -0.00036174   -0.17903727
     atom   27 type  2   force =     0.00004252   -0.00026124   -0.01896666
     atom   28 type  2   force =     0.00006465   -0.00192960    0.06024096
     atom   29 type  2   force =    -0.01168967   -0.00162514    0.01033852
     atom   30 type  2   force =     0.01247489   -0.00120912    0.00786828
     atom   31 type  1   force =    -0.00101601    0.00609598   -0.01576739
     atom   32 type  1   force =     0.00118496    0.00334211   -0.00864448
     atom   33 type  2   force =     0.00002753    0.00019970   -0.00024061
     atom   34 type  2   force =    -0.00240801   -0.00054337    0.00059557
     atom   35 type  2   force =     0.00000853    0.00000144    0.00005768
     atom   36 type  2   force =     0.00002882   -0.00007224    0.00037152
     atom   37 type  1   force =     0.00035054   -0.00004622   -0.00008038
     atom   38 type  1   force =    -0.00035983   -0.00032020    0.00047830
     atom   39 type  2   force =     0.00036088   -0.00015754    0.00062443
     atom   40 type  2   force =     0.00025202   -0.00017700    0.00005474
     atom   41 type  2   force =     0.00004034    0.00035804   -0.00040149
     atom   42 type  2   force =     0.00051937    0.00021955   -0.00018404
     atom   43 type  1   force =     0.00023388   -0.00021344   -0.00039591
     atom   44 type  1   force =     0.00015445   -0.00123937    0.00067424
     atom   45 type  2   force =     0.00012043   -0.00004760    0.10421906
     atom   46 type  2   force =    -0.06992273   -0.00005698   -0.02678043
     atom   47 type  2   force =     0.06991155    0.00034462   -0.02679954
     atom   48 type  3   force =     0.00187313   -0.00028130   -0.00219488
     atom   49 type  4   force =     0.00159119   -0.00093484   -0.00207401
     atom   50 type  5   force =    -0.00139819    0.00261191    0.00175771
     atom   51 type  5   force =    -0.00051662   -0.00039597   -0.00007848
     atom   52 type  5   force =    -0.00065538   -0.00008527    0.00106036
     atom   53 type  5   force =     0.00016242    0.00069862   -0.00104057
     atom   54 type  5   force =    -0.00032886    0.00027592   -0.00047899
     atom   55 type  5   force =    -0.00046719    0.00077988    0.00136342

     Total force =     0.367693     Total SCF correction =     0.000334
  @ DRIVER MODE: Message from server: STATUS
  @ DRIVER MODE: Message from server: GETFORCE
  @ DRIVER MODE: Returning v,forces,stress,ensemble

     Writing output data file ./calc.save/
  @ DRIVER MODE: Message from server: EXIT
  @ DRIVE MODE: Exiting

     General routines

     Parallel routines

   This run was terminated on:  17: 0:18  27Jul2021

   JOB DONE.