     Program PWSCF v.6.7GPU starts on 22Sep2021 at 15:57:47

     R & G space division:  proc/nbgrp/npool/nimage =      10
     Reading input from /storage/home/hcoda1/3/ntian30/research/carbon/CxH_vib/CH_calc/ads_slab/CHN2OH_a/out_0016/pw.inp
Warning: card &CELL ignored
Warning: card   CELL_DYNAMICS='IPI', ignored
Warning: card / ignored

     Current dimensions of program PWSCF are:
     Max number of different atomic species (ntypx) = 10
     Max number of k-points (npk) =  40000
     Max angular momentum in pseudopotentials (lmaxx) =  3
     Presently no symmetry can be used with electric field

     Message from routine cell_base_init:
     DEPRECATED: use true lattice parameter, not A to a.u. conversion factor

     IMPORTANT: XC functional enforced from input :
     Exchange-correlation= BEEF-VDW
                           (   1   4  43  14   2   0   0)
     Any further DFT definition will be discarded
     Please, verify this is what you really want

  @ DRIVER MODE: Connecting to
 qe_1139763_2934093.sched-torque.pace.gatech.eduq3ew9em6_scratch
  using UNIX socket
  @ DRIVER MODE: Message from server: STATUS
  @ DRIVER MODE: Message from server: INIT
  @ DRIVER MODE: Receiving replica           0          -1
  @ DRIVER MODE: Receiving encoded integer          25
  @ DRIVER MODE:  SCF:  T  FORCE:  T  STRESS:  F  VC:  F  ENSEMBLE:  F
  @ DRIVER MODE:  SCF:  T  FORCE:  T  STRESS:  F  VC:  F  ENSEMBLE:  F

     Using Slab Decomposition

     bravais-lattice index     =            0
     lattice parameter (alat)  =       1.8897  a.u.
     unit-cell volume          =    6658.9804 (a.u.)^3
     number of atoms/cell      =           53
     number of atomic types    =            5
     number of electrons       =       400.00
     number of Kohn-Sham states=          210
     kinetic-energy cutoff     =      29.3995  Ry
     charge density cutoff     =     293.9946  Ry
     scf convergence threshold =      7.3E-08
     mixing beta               =       0.0500
     number of iterations used =            8  plain     mixing
     Exchange-correlation= BEEF-VDW
                           (   1   4  43  14   2   0   0)

     celldm(1)=   1.889726  celldm(2)=   0.000000  celldm(3)=   0.000000
     celldm(4)=   0.000000  celldm(5)=   0.000000  celldm(6)=   0.000000

     crystal axes: (cart. coord. in units of alat)
               a(1) = (   6.579727   0.000000   0.000000 )
               a(2) = (  -0.000775   5.961596   0.000000 )
               a(3) = (   0.000000   0.000000  25.155947 )

     reciprocal axes: (cart. coord. in units 2 pi/alat)
               b(1) = (  0.151982  0.000020  0.000000 )
               b(2) = (  0.000000  0.167740  0.000000 )
               b(3) = (  0.000000  0.000000  0.039752 )

     PseudoPot. # 1 for Ti read from file:
     /storage/coda1/p-amedford6/0/shared/rich_project_chbe-medford/medford-share/data/pseudos_module/espresso/nninc/pbe/van/Ti.UPF
     MD5 check sum: 8e4df49b7f0d34bbd5052bf3f5ea0213
     Pseudo is Ultrasoft, Zval = 12.0
     Generated by new atomic code, or converted to UPF format
     Using radial grid of  851 points,  6 beta functions with:
                l(1) =   0
                l(2) =   0
                l(3) =   1
                l(4) =   1
                l(5) =   2
                l(6) =   2
     Q(r) pseudized with  8 coefficients,  rinner =    1.000   1.000   1.000
                                                       1.000   1.000

     PseudoPot. # 2 for O  read from file:
     /storage/coda1/p-amedford6/0/shared/rich_project_chbe-medford/medford-share/data/pseudos_module/espresso/nninc/pbe/van/O.UPF
     MD5 check sum: 78c19812648e8988a0fe644b0f25305e
     Pseudo is Ultrasoft, Zval =  6.0
     Generated by new atomic code, or converted to UPF format
     Using radial grid of  737 points,  4 beta functions with:
                l(1) =   0
                l(2) =   0
                l(3) =   1
                l(4) =   1
     Q(r) pseudized with  8 coefficients,  rinner =    0.800   0.800   0.800

     PseudoPot. # 3 for N  read from file:
     /storage/coda1/p-amedford6/0/shared/rich_project_chbe-medford/medford-share/data/pseudos_module/espresso/nninc/pbe/van/N.UPF
     MD5 check sum: 90d10febe142ad51ac9d5be1deb811c4
     Pseudo is Ultrasoft, Zval =  5.0
     Generated by new atomic code, or converted to UPF format
     Using radial grid of  729 points,  4 beta functions with:
                l(1) =   0
                l(2) =   0
                l(3) =   1
                l(4) =   1
     Q(r) pseudized with  8 coefficients,  rinner =    0.800   0.800   0.800

     PseudoPot. # 4 for C  read from file:
     /storage/coda1/p-amedford6/0/shared/rich_project_chbe-medford/medford-share/data/pseudos_module/espresso/nninc/pbe/van/C.UPF
     MD5 check sum: 1a69bf6b8db32088f5b2163dbdb77a27
     Pseudo is Ultrasoft, Zval =  4.0
     Generated by new atomic code, or converted to UPF format
     Using radial grid of  721 points,  4 beta functions with:
                l(1) =   0
                l(2) =   0
                l(3) =   1
                l(4) =   1
     Q(r) pseudized with  8 coefficients,  rinner =    0.800   0.800   0.800

     PseudoPot. # 5 for H  read from file:
     /storage/coda1/p-amedford6/0/shared/rich_project_chbe-medford/medford-share/data/pseudos_module/espresso/nninc/pbe/van/H.UPF
     MD5 check sum: b5ee9d7bfd3a09ee7748110bda690ff7
     Pseudo is Ultrasoft, Zval =  1.0
     Generated by new atomic code, or converted to UPF format
     Using radial grid of  615 points,  1 beta functions with:
                l(1) =   0
     Q(r) pseudized with  8 coefficients,  rinner =    0.800

     atomic species   valence    mass     pseudopotential
        Ti1           12.00    47.86700     Ti( 1.00)
        O1             6.00    15.99900     O ( 1.00)
        N1             5.00    14.00700     N ( 1.00)
        C1             4.00    12.01100     C ( 1.00)
        H1             1.00     1.00800     H ( 1.00)

     No symmetry found

   Cartesian axes

     site n.     atom                  positions (alat units)
         1           Ti1 tau(   1) = (   0.0004258   2.9801865   6.0000000  )
         2           Ti1 tau(   2) = (   3.2906075   1.4906267   6.0002472  )
         3           O1  tau(   3) = (   0.0006271   0.0005054   7.9858123  )
         4           O1  tau(   4) = (   3.2906025   0.0005020   7.3038282  )
         5           O1  tau(   5) = (   4.5942328   1.4918067   9.2879030  )
         6           O1  tau(   6) = (   1.9868534   1.4903216   9.2879459  )
         7           Ti1 tau(   7) = (   3.2907910   2.8959150   9.1758416  )
         8           Ti1 tau(   8) = (   0.0015273   1.4827037   9.2680791  )
         9           O1  tau(   9) = (   3.2947431   5.9554071  11.2675382  )
        10           O1  tau(  10) = (   0.0116148   5.9584955  10.6183126  )
        11           O1  tau(  11) = (   1.2939190   1.5012022  12.6324650  )
        12           O1  tau(  12) = (   5.3075194   1.4952059  12.6199201  )
        13           Ti1 tau(  13) = (   0.0106221   2.8553259  12.7114016  )
        14           Ti1 tau(  14) = (   3.3038960   1.3182849  12.6556579  )
        15           O1  tau(  15) = (   6.5780848   0.0092190  14.6493773  )
        16           O1  tau(  16) = (   3.3025004   0.0387551  13.8658611  )
        17           O1  tau(  17) = (   4.5583283   1.5306594  16.0644060  )
        18           O1  tau(  18) = (   2.0361898   1.5392772  16.0217891  )
        19           Ti1 tau(  19) = (   3.3091865   3.0111069  15.6373089  )
        20           Ti1 tau(  20) = (   0.0377650   1.3505479  16.0707495  )
        21           O1  tau(  21) = (   3.2904802   0.0005063   4.7018136  )
        22           O1  tau(  22) = (   0.0439016   5.9493915  17.1867805  )
        23           O1  tau(  23) = (   1.3043587   1.4918075   6.0039043  )
        24           O1  tau(  24) = (   5.2767064   1.4903225   6.0039473  )
        25           Ti1 tau(  25) = (   0.0000382   5.9609847   6.0000000  )
        26           Ti1 tau(  26) = (   3.2902200   4.4714249   6.0002472  )
        27           O1  tau(  27) = (   0.0002396   2.9813036   7.9858123  )
        28           O1  tau(  28) = (   3.2902150   2.9813002   7.3038282  )
        29           O1  tau(  29) = (   4.5938453   4.4726049   9.2879030  )
        30           O1  tau(  30) = (   1.9864658   4.4711199   9.2879459  )
        31           Ti1 tau(  31) = (   3.2891106   5.8743827   9.1763621  )
        32           Ti1 tau(  32) = (   0.0006254   4.4649316   9.2693709  )
        33           O1  tau(  33) = (   3.2958776   3.0336607  11.2353185  )
        34           O1  tau(  34) = (   0.0092240   2.9805883  10.6323155  )
        35           O1  tau(  35) = (   1.3000586   4.4853303  12.6229424  )
        36           O1  tau(  36) = (   5.2993189   4.4901910  12.6110906  )
        37           Ti1 tau(  37) = (   0.0093010   5.8444503  12.6145921  )
        38           Ti1 tau(  38) = (   3.2999333   4.4129019  12.4053696  )
        39           O1  tau(  39) = (   6.5685983   3.0141634  14.6646344  )
        40           O1  tau(  40) = (   3.3157979   2.9893391  13.8470085  )
        41           O1  tau(  41) = (   4.5469136   4.4558096  16.0384726  )
        42           O1  tau(  42) = (   2.0285042   4.4377151  15.9822253  )
        43           Ti1 tau(  43) = (   3.3362675   0.0317196  16.2890182  )
        44           Ti1 tau(  44) = (   0.0499865   4.4862307  15.8577502  )
        45           O1  tau(  45) = (   3.2900926   2.9813045   4.7018136  )
        46           O1  tau(  46) = (   1.3039711   4.4726057   6.0039043  )
        47           O1  tau(  47) = (   5.2763189   4.4711207   6.0039473  )
        48           N1  tau(  48) = (   0.0045878   3.1533891  18.5964175  )
        49           N1  tau(  49) = (   0.0147781   3.0160983  17.3860304  )
        50           C1  tau(  50) = (   0.1535999   3.3196653  19.7680592  )
        51           H1  tau(  51) = (   6.1193577   3.4501394  20.6313668  )
        52           O1  tau(  52) = (   3.1701150   5.9596689  18.1025665  )
        53           H1  tau(  53) = (   2.2867615   0.0439400  18.5018857  )

     number of k points=    10  Fermi-Dirac smearing, width (Ry)=  0.0073
                       cart. coord. in units 2pi/alat
        k(    1) = (   0.0000000   0.0000000   0.0000000), wk =   0.1250000
        k(    2) = (   0.0000000   0.0419351   0.0000000), wk =   0.2500000
        k(    3) = (   0.0000000  -0.0838702   0.0000000), wk =   0.1250000
        k(    4) = (   0.0379955   0.0000049   0.0000000), wk =   0.2500000
        k(    5) = (   0.0379955   0.0419400   0.0000000), wk =   0.2500000
        k(    6) = (   0.0379955  -0.0838652   0.0000000), wk =   0.2500000
        k(    7) = (   0.0379955  -0.0419301   0.0000000), wk =   0.2500000
        k(    8) = (  -0.0759910  -0.0000099   0.0000000), wk =   0.1250000
        k(    9) = (  -0.0759910   0.0419252   0.0000000), wk =   0.2500000
        k(   10) = (  -0.0759910  -0.0838800   0.0000000), wk =   0.1250000

     Initial potential from superposition of free atoms

     starting charge  383.99917, renormalised to  400.00000

     negative rho (up, down):  1.461E-02 0.000E+00

     %%%%%%%%%%%%%%%%%%%%%%%%%%%%%%%%%%%%%%%%%%%%%%%%%%%%%%%%%%%%%%%%%%%%%%%%
     %                                                                      %
     % You are using vdW-DF, which was implemented by the Thonhauser group. %
     % Please cite the following two papers that made this development      %
     % possible and the two reviews that describe the various versions:     %
     %                                                                      %
     %   T. Thonhauser et al., PRL 115, 136402 (2015).                      %
     %   T. Thonhauser et al., PRB 76, 125112 (2007).                       %
     %   K. Berland et al., Rep. Prog. Phys. 78, 066501 (2015).             %
     %   D.C. Langreth et al., J. Phys.: Condens. Matter 21, 084203 (2009). %
     %                                                                      %
     %                                                                      %
     % If you are calculating the stress with vdW-DF, please also cite:     %
     %                                                                      %
     %   R. Sabatini et al., J. Phys.: Condens. Matter 24, 424209 (2012).   %
     %                                                                      %
     %%%%%%%%%%%%%%%%%%%%%%%%%%%%%%%%%%%%%%%%%%%%%%%%%%%%%%%%%%%%%%%%%%%%%%%%

     Adding external electric field

     Computed dipole along edir(3) :
        Dipole              -10.4151 Ry au,        -26.4725 Debye
        Dipole field         -0.0197 Ry au,

        Potential amp.        1.8220 Ry
        Total length         46.3494 bohr

     Starting wfcs are  302 atomic wfcs
  @ DRIVER MODE: Message from server: STATUS
  @ DRIVER MODE: Message from server: POSDATA
  @ DRIVER MODE: Reading and sharing cell
  @ DRIVER MODE: Reading and sharing positions
  @ DRIVER MODE: Received positions

     Self-consistent Calculation

     iteration #  1     ecut=    29.40 Ry     beta= 0.05
     Davidson diagonalization with overlap
     c_bands:  1 eigenvalues not converged
     c_bands:  1 eigenvalues not converged
     c_bands:  1 eigenvalues not converged
     c_bands:  1 eigenvalues not converged
     c_bands:  3 eigenvalues not converged
     c_bands:  2 eigenvalues not converged
     c_bands:  3 eigenvalues not converged
     c_bands:  2 eigenvalues not converged
     c_bands:  1 eigenvalues not converged
     c_bands:  2 eigenvalues not converged
     ethr =  1.00E-05,  avg # of iterations = 20.0

[...]

     total energy              =   -2481.70299432 Ry
     estimated scf accuracy    <    5436.53555856 Ry

     iteration #  2     ecut=    29.40 Ry     beta= 0.05
     Davidson diagonalization with overlap
     ethr =  1.00E-02,  avg # of iterations = 22.8

[...]

     iteration # 36     ecut=    29.40 Ry     beta= 0.05
     Davidson diagonalization with overlap
     c_bands:  1 eigenvalues not converged
     c_bands:  1 eigenvalues not converged
     ethr =  2.53E-06,  avg # of iterations = 12.0

[...]

     total energy              =   -2970.22400483 Ry
     estimated scf accuracy    <       0.00000010 Ry

     iteration # 64     ecut=    29.40 Ry     beta= 0.05
     Davidson diagonalization with overlap
     ethr =  2.53E-11,  avg # of iterations =  2.0

     negative rho (up, down):  1.522E-02 0.000E+00

     Adding external electric field

     Computed dipole along edir(3) :
        Dipole                0.3072 Ry au,          0.7808 Debye
        Dipole field          0.0006 Ry au,

        Potential amp.       -0.0537 Ry
        Total length         46.3494 bohr

     End of self-consistent calculation

          k = 0.0000 0.0000 0.0000 ( 18029 PWs)   bands (ev):

   -56.8431 -56.8095 -56.0028 -55.9676 -55.7433 -55.6789 -55.4123 -55.3884
   -55.3784 -55.3728 -55.3084 -55.2563 -55.2543 -55.2446 -55.0631 -55.0560
   -33.2646 -33.1185 -33.0904 -33.0188 -32.9283 -32.8913 -32.4871 -32.2234
   -32.2212 -32.1927 -32.1437 -32.1417 -32.1130 -31.9749 -31.9628 -31.9104
   -31.8839 -31.8691 -31.8432 -31.7935 -31.7584 -31.7426 -31.7369 -31.7339
   -31.7207 -31.6559 -31.6517 -31.6223 -31.6173 -31.6075 -31.5991 -31.5367
   -31.5251 -31.5072 -31.5050 -31.4802 -31.4764 -31.4591 -31.4472 -31.4250
   -31.4191 -31.3988 -31.3236 -31.3067 -31.3064 -31.2745 -31.2722 -31.2608
   -18.9993 -16.9642 -16.4404 -16.1856 -16.1708 -16.0783 -16.0484 -16.0371
   -15.9567 -15.7619 -15.7002 -15.6284 -15.6074 -15.5127 -15.3877 -15.2912
   -15.1622 -15.0870 -15.0234 -15.0138 -15.0039 -14.9838 -14.8698 -14.8662
   -14.8614 -14.8186 -14.7724 -14.6142 -14.5270 -14.3659 -14.3321 -13.9100
   -13.8025 -13.6159  -6.2912  -5.0491  -4.5336  -3.9413  -3.9128  -3.8439
    -3.7396  -3.5716  -3.5689  -3.4406  -3.3733  -3.2502  -3.2392  -3.2232
    -3.1563  -3.1374  -2.9906  -2.9422  -2.9266  -2.8221  -2.7913  -2.6378
    -2.6118  -2.5169  -2.4678  -2.4336  -2.3775  -2.3513  -2.2761  -2.2693
    -2.2505  -2.1631  -2.1627  -2.1306  -2.0507  -2.0392  -1.9700  -1.9225
    -1.8832  -1.8247  -1.7998  -1.7257  -1.7222  -1.6010  -1.5190  -1.4777
    -1.4341  -1.4249  -1.3648  -1.3097  -1.1998  -1.1735  -1.0837  -1.0386
    -1.0260  -0.9756  -0.8870  -0.8585  -0.7899  -0.7174  -0.6990  -0.6135
    -0.5846  -0.5611  -0.4548  -0.4360  -0.3811  -0.3553  -0.3243  -0.3125
    -0.2346  -0.1176  -0.1032  -0.0383   0.0106   0.0388   0.1311   0.2235
     0.2706   0.3207   0.3500   0.3684   0.4449   0.4720   0.4944   0.5464
     0.5754   0.6092   0.6141   0.7183   0.7491   0.8126   0.8708   0.8911
     0.9996   1.0376   1.0958   1.1462   1.1871   1.5293   1.6356   1.8767
     2.4445   2.6110   2.8870   3.0194   3.3441   3.4310   3.4394   3.4453
     3.6826   3.8195

[...]

          k = 0.0380-0.0419 0.0000 ( 17876 PWs)   bands (ev):

[...]

          k =-0.0760-0.0000 0.0000 ( 17886 PWs)   bands (ev):

[...]

          k =-0.0760-0.0839 0.0000 ( 17948 PWs)   bands (ev):

   -56.8268 -56.8256 -55.9904 -55.9798 -55.7384 -55.6837 -55.3959 -55.3947
   -55.3844 -55.3713 -55.3121 -55.2549 -55.2526 -55.2461 -55.0645 -55.0573
   -33.1048 -33.1036 -33.0823 -33.0810 -32.9725 -32.9717 -32.3118 -32.3033
   -32.1854 -32.1733 -32.1705 -32.1635 -32.0456 -32.0020 -31.9682 -31.9590
   -31.9115 -31.9062 -31.7474 -31.7466 -31.7159 -31.6634 -31.6606 -31.6524
   -31.6443 -31.6316 -31.6167 -31.6150 -31.6106 -31.6032 -31.5894 -31.5781
   -31.5774 -31.5765 -31.5479 -31.5226 -31.5080 -31.4962 -31.4620 -31.4546
   -31.4504 -31.4441 -31.4119 -31.3802 -31.3283 -31.2957 -31.2762 -31.2634
   -18.9967 -16.3304 -16.3278 -16.2724 -16.2708 -16.1657 -16.0312 -16.0256
   -15.7779 -15.7480 -15.5532 -15.5127 -15.4635 -15.4099 -15.3719 -15.3693
   -15.2312 -15.2196 -15.1158 -15.0370 -15.0156 -14.9829 -14.9716 -14.9500
   -14.9444 -14.8730 -14.7881 -14.7259 -14.7117 -14.5438 -14.4656 -13.9071
   -13.9064 -13.6204  -6.2898  -5.0174  -3.9438  -3.7688  -3.5946  -3.3956
    -3.3931  -3.3881  -3.3804  -3.1513  -3.1407  -2.9672  -2.9606  -2.9348
    -2.8739  -2.8622  -2.7558  -2.6875  -2.6820  -2.6727  -2.6480  -2.6217
    -2.6161  -2.5525  -2.4960  -2.3886  -2.3652  -2.3301  -2.3099  -2.2958
    -2.1765  -2.1497  -2.1386  -2.1094  -2.0941  -2.0813  -2.0450  -2.0203
    -1.8669  -1.8286  -1.7199  -1.7054  -1.6849  -1.6416  -1.6245  -1.6032
    -1.5772  -1.5426  -1.5382  -1.4515  -1.4279  -1.3711  -1.2880  -1.2105
    -1.1619  -1.1497  -1.0880  -1.0364  -0.9264  -0.9020  -0.8666  -0.8464
    -0.8183  -0.7599  -0.7300  -0.6242  -0.5390  -0.5082  -0.4869  -0.4816
    -0.4470  -0.4134  -0.3912  -0.2767  -0.2646  -0.2495  -0.1509  -0.0560
     0.0280   0.0880   0.1034   0.1818   0.2779   0.3223   0.3876   0.4509
     0.4937   0.5084   0.6811   0.7296   0.8528   0.8775   0.9090   0.9713
     0.9857   0.9901   1.0122   1.0213   1.0503   1.1292   1.5546   1.7923
     3.0317   3.0346   3.0908   3.0969   3.4005   3.4039   3.5093   3.5119
     3.7939   3.8055

     the Fermi energy is     2.2205 ev

!    total energy              =   -2970.22404969 Ry
     estimated scf accuracy    <       0.00000005 Ry
     smearing contrib. (-TS)   =      -0.00328336 Ry
     internal energy E=F+TS    =   -2970.22076633 Ry

     The total energy is F=E-TS. E is the sum of the following terms:
     one-electron contribution =  -23874.86351301 Ry
     hartree contribution      =   12028.59819915 Ry
     xc contribution           =    -491.45814595 Ry
     ewald contribution        =    9367.50251538 Ry
     electric field correction =       0.00017810 Ry

     convergence has been achieved in  64 iterations

     Forces acting on atoms (cartesian axes, Ry/au):

     atom    1 type  1   force =     0.00006036   -0.00041560    0.12339735
     atom    2 type  1   force =    -0.00004295    0.00025681   -0.15537459
     atom    3 type  2   force =     0.00000922   -0.00007128   -0.06314963
     atom    4 type  2   force =     0.00000818    0.00024092    0.01792673
     atom    5 type  2   force =    -0.00300937   -0.00167595   -0.01289216
     atom    6 type  2   force =     0.00468997   -0.00105586   -0.01336657
     atom    7 type  1   force =    -0.00007016   -0.00670571    0.05745755
     atom    8 type  1   force =     0.00033431    0.01201760    0.09288763
     atom    9 type  2   force =    -0.00005471   -0.00007447   -0.00011782
     atom   10 type  2   force =    -0.00146645    0.00206368   -0.05862889
     atom   11 type  2   force =    -0.00001983    0.00037442   -0.00010161
     atom   12 type  2   force =    -0.00007786    0.00059797   -0.00004308
     atom   13 type  1   force =    -0.00017693    0.00092202   -0.00020792
     atom   14 type  1   force =    -0.00006701    0.00064281   -0.00044843
     atom   15 type  2   force =     0.00000996   -0.00067771   -0.00054128
     atom   16 type  2   force =    -0.00013554    0.00008992   -0.00107680
     atom   17 type  2   force =    -0.00002506   -0.00048445   -0.00029539
     atom   18 type  2   force =    -0.00004822    0.00041543   -0.00045126
     atom   19 type  1   force =     0.00039825   -0.00025438    0.00116035
     atom   20 type  1   force =    -0.00036139    0.00061413    0.00030057
     atom   21 type  2   force =     0.00003255    0.00021388    0.09798657
     atom   22 type  2   force =     0.00041969   -0.00017143    0.00081759
     atom   23 type  2   force =    -0.08219520    0.00004246   -0.03275570
     atom   24 type  2   force =     0.08207625    0.00048230   -0.03282948
     atom   25 type  1   force =     0.00008998   -0.00060560    0.12341691
     atom   26 type  1   force =    -0.00015733   -0.00151316   -0.15594089
     atom   27 type  2   force =     0.00006979   -0.00069207   -0.06137034
     atom   28 type  2   force =     0.00001908    0.00205728    0.01319057
     atom   29 type  2   force =    -0.00129050    0.00547090   -0.01606472
     atom   30 type  2   force =     0.00295980    0.00580302   -0.01651287
     atom   31 type  1   force =    -0.00011422    0.00212169    0.04129684
     atom   32 type  1   force =     0.00053335   -0.01545166    0.09257777
     atom   33 type  2   force =    -0.00021239   -0.00073271   -0.00056719
     atom   34 type  2   force =    -0.00141015    0.00202871   -0.07248814
     atom   35 type  2   force =     0.00019909   -0.00081336    0.00005008
     atom   36 type  2   force =    -0.00023875   -0.00092259    0.00010256
     atom   37 type  1   force =    -0.00023377   -0.00112134   -0.00026891
     atom   38 type  1   force =    -0.00008317   -0.00149061    0.00068218
     atom   39 type  2   force =     0.00035047   -0.00049796    0.00005257
     atom   40 type  2   force =    -0.00003740   -0.00068348   -0.00128333
     atom   41 type  2   force =     0.00030894    0.00022967    0.00012120
     atom   42 type  2   force =    -0.00006672    0.00031968    0.00065615
     atom   43 type  1   force =    -0.00014316   -0.00001910    0.00088383
     atom   44 type  1   force =    -0.00027555    0.00031241   -0.00092062
     atom   45 type  2   force =     0.00002648    0.00002532    0.09775277
     atom   46 type  2   force =    -0.08226312   -0.00001151   -0.03278813
     atom   47 type  2   force =     0.08211538    0.00043691   -0.03280488
     atom   48 type  3   force =    -0.00022403    0.00129137    0.00466079
     atom   49 type  3   force =     0.00043930    0.00014313    0.00098068
     atom   50 type  4   force =     0.00193724   -0.00151453   -0.00745059
     atom   51 type  5   force =    -0.00239124   -0.00017215    0.00247988
     atom   52 type  2   force =    -0.00037585   -0.00040596   -0.00024247
     atom   53 type  5   force =     0.00018040   -0.00097981    0.00014456

     Total force =     0.412412     Total SCF correction =     0.000674
  @ DRIVER MODE: Message from server: STATUS
  @ DRIVER MODE: Message from server: GETFORCE
  @ DRIVER MODE: Returning v,forces,stress,ensemble

     Writing output data file ./calc.save/
  @ DRIVER MODE: Message from server: EXIT
  @ DRIVE MODE: Exiting

     General routines

     Parallel routines

   This run was terminated on:  16:16:24  22Sep2021

   JOB DONE.