     Program PWSCF v.6.7GPU starts on 16Sep2021 at  3:19:52

     R & G space division:  proc/nbgrp/npool/nimage =      10
     Reading input from /storage/home/hcoda1/3/ntian30/research/carbon/CxH_vib/H2O_calc/ads_slab/CH2NHNH2O_a/out_0037/pw.inp
Warning: card &CELL ignored
Warning: card   CELL_DYNAMICS='IPI', ignored
Warning: card / ignored

     Current dimensions of program PWSCF are:
     Max number of different atomic species (ntypx) = 10
     Max number of k-points (npk) =  40000
     Max angular momentum in pseudopotentials (lmaxx) =  3
     Presently no symmetry can be used with electric field

     Message from routine cell_base_init:
     DEPRECATED: use true lattice parameter, not A to a.u. conversion factor

     IMPORTANT: XC functional enforced from input :
     Exchange-correlation= BEEF-VDW
                           (   1   4  43  14   2   0   0)
     Any further DFT definition will be discarded
     Please, verify this is what you really want

  @ DRIVER MODE: Connecting to
 qe_1139763_2852610.sched-torque.pace.gatech.edu1dt78t8l_scratch
  using UNIX socket
  @ DRIVER MODE: Message from server: STATUS
  @ DRIVER MODE: Message from server: INIT
  @ DRIVER MODE: Receiving replica           0          -1
  @ DRIVER MODE: Receiving encoded integer          25
  @ DRIVER MODE:  SCF:  T  FORCE:  T  STRESS:  F  VC:  F  ENSEMBLE:  F
  @ DRIVER MODE:  SCF:  T  FORCE:  T  STRESS:  F  VC:  F  ENSEMBLE:  F

     Using Slab Decomposition

     bravais-lattice index     =            0
     lattice parameter (alat)  =       1.8897  a.u.
     unit-cell volume          =    6658.9804 (a.u.)^3
     number of atoms/cell      =           56
     number of atomic types    =            5
     number of electrons       =       403.00
     number of Kohn-Sham states=          211
     kinetic-energy cutoff     =      29.3995  Ry
     charge density cutoff     =     293.9946  Ry
     scf convergence threshold =      7.3E-08
     mixing beta               =       0.0500
     number of iterations used =            8  plain     mixing
     Exchange-correlation= BEEF-VDW
                           (   1   4  43  14   2   0   0)

     celldm(1)=   1.889726  celldm(2)=   0.000000  celldm(3)=   0.000000
     celldm(4)=   0.000000  celldm(5)=   0.000000  celldm(6)=   0.000000

     crystal axes: (cart. coord. in units of alat)
               a(1) = (   6.579727   0.000000   0.000000 )
               a(2) = (  -0.000775   5.961596   0.000000 )
               a(3) = (   0.000000   0.000000  25.155947 )

     reciprocal axes: (cart. coord. in units 2 pi/alat)
               b(1) = (  0.151982  0.000020  0.000000 )
               b(2) = (  0.000000  0.167740  0.000000 )
               b(3) = (  0.000000  0.000000  0.039752 )

     PseudoPot. # 1 for Ti read from file:
     /storage/coda1/p-amedford6/0/shared/rich_project_chbe-medford/medford-share/data/pseudos_module/espresso/nninc/pbe/van/Ti.UPF
     MD5 check sum: 8e4df49b7f0d34bbd5052bf3f5ea0213
     Pseudo is Ultrasoft, Zval = 12.0
     Generated by new atomic code, or converted to UPF format
     Using radial grid of  851 points,  6 beta functions with:
                l(1) =   0
                l(2) =   0
                l(3) =   1
                l(4) =   1
                l(5) =   2
                l(6) =   2
     Q(r) pseudized with  8 coefficients,  rinner =    1.000   1.000   1.000
                                                       1.000   1.000

     PseudoPot. # 2 for O  read from file:
     /storage/coda1/p-amedford6/0/shared/rich_project_chbe-medford/medford-share/data/pseudos_module/espresso/nninc/pbe/van/O.UPF
     MD5 check sum: 78c19812648e8988a0fe644b0f25305e
     Pseudo is Ultrasoft, Zval =  6.0
     Generated by new atomic code, or converted to UPF format
     Using radial grid of  737 points,  4 beta functions with:
                l(1) =   0
                l(2) =   0
                l(3) =   1
                l(4) =   1
     Q(r) pseudized with  8 coefficients,  rinner =    0.800   0.800   0.800

     PseudoPot. # 3 for H  read from file:
     /storage/coda1/p-amedford6/0/shared/rich_project_chbe-medford/medford-share/data/pseudos_module/espresso/nninc/pbe/van/H.UPF
     MD5 check sum: b5ee9d7bfd3a09ee7748110bda690ff7
     Pseudo is Ultrasoft, Zval =  1.0
     Generated by new atomic code, or converted to UPF format
     Using radial grid of  615 points,  1 beta functions with:
                l(1) =   0
     Q(r) pseudized with  8 coefficients,  rinner =    0.800

     PseudoPot. # 4 for N  read from file:
     /storage/coda1/p-amedford6/0/shared/rich_project_chbe-medford/medford-share/data/pseudos_module/espresso/nninc/pbe/van/N.UPF
     MD5 check sum: 90d10febe142ad51ac9d5be1deb811c4
     Pseudo is Ultrasoft, Zval =  5.0
     Generated by new atomic code, or converted to UPF format
     Using radial grid of  729 points,  4 beta functions with:
                l(1) =   0
                l(2) =   0
                l(3) =   1
                l(4) =   1
     Q(r) pseudized with  8 coefficients,  rinner =    0.800   0.800   0.800

     PseudoPot. # 5 for C  read from file:
     /storage/coda1/p-amedford6/0/shared/rich_project_chbe-medford/medford-share/data/pseudos_module/espresso/nninc/pbe/van/C.UPF
     MD5 check sum: 1a69bf6b8db32088f5b2163dbdb77a27
     Pseudo is Ultrasoft, Zval =  4.0
     Generated by new atomic code, or converted to UPF format
     Using radial grid of  721 points,  4 beta functions with:
                l(1) =   0
                l(2) =   0
                l(3) =   1
                l(4) =   1
     Q(r) pseudized with  8 coefficients,  rinner =    0.800   0.800   0.800

     atomic species   valence    mass     pseudopotential
        Ti1           12.00    47.86700     Ti( 1.00)
        O1             6.00    15.99900     O ( 1.00)
        H1             1.00     1.00800     H ( 1.00)
        N1             5.00    14.00700     N ( 1.00)
        C1             4.00    12.01100     C ( 1.00)

     No symmetry found

   Cartesian axes

     site n.     atom                  positions (alat units)
         1           Ti1 tau(   1) = (   0.0004258   2.9801865   6.0000000  )
         2           Ti1 tau(   2) = (   3.2906075   1.4906267   6.0002472  )
         3           O1  tau(   3) = (   0.0006271   0.0005054   7.9858123  )
         4           O1  tau(   4) = (   3.2906025   0.0005020   7.3038282  )
         5           O1  tau(   5) = (   4.5942328   1.4918067   9.2879030  )
         6           O1  tau(   6) = (   1.9868534   1.4903216   9.2879459  )
         7           Ti1 tau(   7) = (   3.2907910   2.8959150   9.1758416  )
         8           Ti1 tau(   8) = (   0.0015273   1.4827037   9.2680791  )
         9           O1  tau(   9) = (   3.2960012   0.0062018  11.3595187  )
        10           O1  tau(  10) = (   0.0116148   5.9584955  10.6183126  )
        11           O1  tau(  11) = (   1.2731109   1.5057875  12.6314550  )
        12           O1  tau(  12) = (   5.2959999   1.4755877  12.6679080  )
        13           Ti1 tau(  13) = (   0.0553992   2.9538365  12.5526742  )
        14           Ti1 tau(  14) = (   3.3268292   1.5427496  12.5634199  )
        15           O1  tau(  15) = (   0.1371361   5.9015051  14.6217027  )
        16           O1  tau(  16) = (   3.1880369   0.0098958  13.9252199  )
        17           O1  tau(  17) = (   4.6462182   1.4014471  15.8552565  )
        18           O1  tau(  18) = (   2.0822703   1.5558083  16.1249119  )
        19           Ti1 tau(  19) = (   3.3548958   3.0525267  15.8597497  )
        20           Ti1 tau(  20) = (   0.0948755   1.3182250  15.7908873  )
        21           O1  tau(  21) = (   3.2904802   0.0005063   4.7018136  )
        22           O1  tau(  22) = (   0.0722171   0.0319689  17.1393915  )
        23           O1  tau(  23) = (   1.3043587   1.4918075   6.0039043  )
        24           O1  tau(  24) = (   5.2767064   1.4903225   6.0039473  )
        25           Ti1 tau(  25) = (   0.0000382   5.9609847   6.0000000  )
        26           Ti1 tau(  26) = (   3.2902200   4.4714249   6.0002472  )
        27           O1  tau(  27) = (   0.0002396   2.9813036   7.9858123  )
        28           O1  tau(  28) = (   3.2902150   2.9813002   7.3038282  )
        29           O1  tau(  29) = (   4.5938453   4.4726049   9.2879030  )
        30           O1  tau(  30) = (   1.9864658   4.4711199   9.2879459  )
        31           Ti1 tau(  31) = (   3.2891106   5.8743827   9.1763621  )
        32           Ti1 tau(  32) = (   0.0006254   4.4649316   9.2693709  )
        33           O1  tau(  33) = (   3.2982667   2.9897935  11.3544942  )
        34           O1  tau(  34) = (   0.0092240   2.9805883  10.6323155  )
        35           O1  tau(  35) = (   1.2737041   4.4504026  12.6113924  )
        36           O1  tau(  36) = (   5.2903739   4.4874249  12.6576873  )
        37           Ti1 tau(  37) = (   6.5697415   5.9260651  12.4959683  )
        38           Ti1 tau(  38) = (   3.3125242   4.5024033  12.5372123  )
        39           O1  tau(  39) = (   0.0674008   2.9793056  14.8363759  )
        40           O1  tau(  40) = (   3.2999477   2.9756493  13.9369993  )
        41           O1  tau(  41) = (   4.6108370   4.5787535  15.7719701  )
        42           O1  tau(  42) = (   2.0428421   4.3627697  16.1441833  )
        43           Ti1 tau(  43) = (   3.3552955   0.0804576  15.7648105  )
        44           Ti1 tau(  44) = (   6.5672415   4.5273692  15.9765751  )
        45           O1  tau(  45) = (   3.2900926   2.9813045   4.7018136  )
        46           O1  tau(  46) = (   1.3039711   4.4726057   6.0039043  )
        47           O1  tau(  47) = (   5.2763189   4.4711207   6.0039473  )
        48           H1  tau(  48) = (   4.1035413   2.4672077  18.5646977  )
        49           N1  tau(  49) = (   5.6961598   3.2907635  17.7856741  )
        50           C1  tau(  50) = (   6.4968133   2.7471819  18.6454045  )
        51           H1  tau(  51) = (   6.1325458   2.1374441  19.4677963  )
        52           H1  tau(  52) = (   0.9799315   2.9096255  18.5325614  )
        53           N1  tau(  53) = (   4.3409097   3.1788467  17.8642182  )
        54           O1  tau(  54) = (   3.3074094   5.8609012  18.0981057  )
        55           H1  tau(  55) = (   3.6736973   4.9388346  18.2201127  )
        56           H1  tau(  56) = (   2.3597147   5.7972335  18.2603650  )

     number of k points=    10  Fermi-Dirac smearing, width (Ry)=  0.0073
                       cart. coord. in units 2pi/alat
        k(    1) = (   0.0000000   0.0000000   0.0000000), wk =   0.1250000
        k(    2) = (   0.0000000   0.0419351   0.0000000), wk =   0.2500000
        k(    3) = (   0.0000000  -0.0838702   0.0000000), wk =   0.1250000
        k(    4) = (   0.0379955   0.0000049   0.0000000), wk =   0.2500000
        k(    5) = (   0.0379955   0.0419400   0.0000000), wk =   0.2500000
        k(    6) = (   0.0379955  -0.0838652   0.0000000), wk =   0.2500000
        k(    7) = (   0.0379955  -0.0419301   0.0000000), wk =   0.2500000
        k(    8) = (  -0.0759910  -0.0000099   0.0000000), wk =   0.1250000
        k(    9) = (  -0.0759910   0.0419252   0.0000000), wk =   0.2500000
        k(   10) = (  -0.0759910  -0.0838800   0.0000000), wk =   0.1250000

     Initial potential from superposition of free atoms

     starting charge  386.99914, renormalised to  403.00000

     negative rho (up, down):  1.703E-02 0.000E+00

     %%%%%%%%%%%%%%%%%%%%%%%%%%%%%%%%%%%%%%%%%%%%%%%%%%%%%%%%%%%%%%%%%%%%%%%%
     %                                                                      %
     % You are using vdW-DF, which was implemented by the Thonhauser group. %
     % Please cite the following two papers that made this development      %
     % possible and the two reviews that describe the various versions:     %
     %                                                                      %
     %   T. Thonhauser et al., PRL 115, 136402 (2015).                      %
     %   T. Thonhauser et al., PRB 76, 125112 (2007).                       %
     %   K. Berland et al., Rep. Prog. Phys. 78, 066501 (2015).             %
     %   D.C. Langreth et al., J. Phys.: Condens. Matter 21, 084203 (2009). %
     %                                                                      %
     %                                                                      %
     % If you are calculating the stress with vdW-DF, please also cite:     %
     %                                                                      %
     %   R. Sabatini et al., J. Phys.: Condens. Matter 24, 424209 (2012).   %
     %                                                                      %
     %%%%%%%%%%%%%%%%%%%%%%%%%%%%%%%%%%%%%%%%%%%%%%%%%%%%%%%%%%%%%%%%%%%%%%%%

     Adding external electric field

     Computed dipole along edir(3) :
        Dipole              -12.3736 Ry au,        -31.4507 Debye
        Dipole field         -0.0234 Ry au,

        Potential amp.        2.1646 Ry
        Total length         46.3494 bohr

     Starting wfcs are  305 atomic wfcs
  @ DRIVER MODE: Message from server: STATUS
  @ DRIVER MODE: Message from server: POSDATA
  @ DRIVER MODE: Reading and sharing cell
  @ DRIVER MODE: Reading and sharing positions
  @ DRIVER MODE: Received positions

     Self-consistent Calculation

     iteration #  1     ecut=    29.40 Ry     beta= 0.05
     Davidson diagonalization with overlap
     c_bands:  4 eigenvalues not converged
     c_bands:  3 eigenvalues not converged
     c_bands:  3 eigenvalues not converged
     c_bands:  1 eigenvalues not converged
     c_bands:  1 eigenvalues not converged
     c_bands:  4 eigenvalues not converged
     c_bands:  3 eigenvalues not converged
     ethr =  1.00E-05,  avg # of iterations = 27.4

[...]

     total energy              =   -2355.28250924 Ry
     estimated scf accuracy    <    7011.00422924 Ry

     iteration #  2     ecut=    29.40 Ry     beta= 0.05
     Davidson diagonalization with overlap
     ethr =  1.00E-02,  avg # of iterations = 25.6

[...]

     iteration # 82     ecut=    29.40 Ry     beta= 0.05
     Davidson diagonalization with overlap
     c_bands:  1 eigenvalues not converged
     ethr =  3.81E-10,  avg # of iterations = 14.0

[...]

     total energy              =   -2973.97631929 Ry
     estimated scf accuracy    <       0.00000110 Ry

     iteration # 84     ecut=    29.40 Ry     beta= 0.05
     Davidson diagonalization with overlap
     ethr =  2.72E-10,  avg # of iterations =  9.0

     negative rho (up, down):  1.700E-02 0.000E+00

     Adding external electric field

     Computed dipole along edir(3) :
        Dipole                0.9082 Ry au,          2.3085 Debye
        Dipole field          0.0017 Ry au,

        Potential amp.       -0.1589 Ry
        Total length         46.3494 bohr

     End of self-consistent calculation

          k = 0.0000 0.0000 0.0000 ( 18029 PWs)   bands (ev):

   -55.6371 -55.6030 -55.5190 -55.4831 -55.4765 -55.4636 -55.4418 -55.4297
   -55.4243 -55.4074 -55.3902 -55.3897 -55.3561 -55.2389 -54.6232 -54.5892
   -32.1228 -32.0248 -31.9711 -31.9656 -31.9578 -31.9283 -31.9141 -31.8960
   -31.8828 -31.7897 -31.7838 -31.7778 -31.7498 -31.7446 -31.7394 -31.7049
   -31.6945 -31.6816 -31.6765 -31.6684 -31.6618 -31.6601 -31.6442 -31.6415
   -31.6353 -31.6256 -31.6235 -31.6189 -31.6130 -31.6073 -31.6025 -31.5933
   -31.5833 -31.5809 -31.5802 -31.5784 -31.5727 -31.5371 -31.5289 -31.5137
   -31.4397 -31.3674 -31.0301 -30.9417 -30.9193 -30.8472 -30.7607 -30.6493
   -18.4660 -17.7420 -16.3003 -16.1097 -15.8844 -15.7825 -15.7426 -15.5693
   -15.4388 -15.3960 -15.2694 -15.2042 -15.1803 -15.1613 -15.1475 -15.1151
   -15.0916 -15.0679 -15.0661 -15.0467 -15.0218 -14.9990 -14.9715 -14.9537
   -14.9113 -14.7857 -14.7773 -14.7662 -14.7283 -14.6910 -14.2917 -13.1236
   -13.0070 -12.3760  -7.9278  -6.2533  -5.4288  -4.8405  -3.6716  -3.5797
    -3.5472  -3.5236  -3.4462  -3.3269  -3.2300  -3.0352  -2.9255  -2.8958
    -2.8719  -2.7886  -2.7057  -2.6653  -2.5630  -2.5310  -2.5201  -2.4760
    -2.4213  -2.4063  -2.3770  -2.3638  -2.3275  -2.1946  -2.1745  -2.1368
    -2.0254  -2.0089  -2.0005  -1.9584  -1.9549  -1.9245  -1.9141  -1.8961
    -1.8797  -1.8673  -1.8002  -1.7191  -1.6866  -1.6368  -1.5820  -1.5747
    -1.2742  -1.2577  -1.1903  -1.1589  -1.0882  -1.0544  -1.0405  -1.0258
    -0.9949  -0.8941  -0.8046  -0.7855  -0.7220  -0.6611  -0.5619  -0.5475
    -0.4468  -0.3981  -0.3923  -0.3793  -0.3481  -0.2884  -0.2315  -0.1747
    -0.1250  -0.0426   0.0119   0.0213   0.0630   0.1064   0.1358   0.1942
     0.2569   0.2842   0.3173   0.3325   0.3737   0.4341   0.4554   0.4684
     0.5466   0.5867   0.6120   0.7100   0.7190   0.7585   0.8303   1.0144
     1.0605   1.1995   1.3380   1.4013   1.4673   1.5934   1.8653   1.9714
     2.0176   3.4530   3.5870   3.6080   3.6435   3.7154   3.7619   3.9347
     4.0303   4.0523   4.1136

[...]

          k = 0.0380-0.0419 0.0000 ( 17876 PWs)   bands (ev):

[...]

          k =-0.0760-0.0000 0.0000 ( 17886 PWs)   bands (ev):

[...]

          k =-0.0760-0.0839 0.0000 ( 17948 PWs)   bands (ev):

   -55.6200 -55.6199 -55.5042 -55.4975 -55.4613 -55.4573 -55.4466 -55.4462
   -55.4102 -55.4051 -55.4044 -55.3736 -55.3724 -55.2407 -54.6062 -54.6060
   -31.9381 -31.9380 -31.9138 -31.9138 -31.8837 -31.8480 -31.8191 -31.8004
   -31.7898 -31.7747 -31.7655 -31.7528 -31.7485 -31.7399 -31.7395 -31.7324
   -31.7320 -31.7192 -31.7169 -31.7101 -31.6840 -31.6819 -31.6766 -31.6705
   -31.6558 -31.6535 -31.6525 -31.6389 -31.6332 -31.6308 -31.6278 -31.6270
   -31.6231 -31.6204 -31.6200 -31.6156 -31.6138 -31.6026 -31.5874 -31.5363
   -31.4497 -31.4465 -30.9321 -30.9319 -30.8430 -30.8428 -30.8040 -30.8039
   -18.4591 -17.7421 -15.8510 -15.6073 -15.5936 -15.5572 -15.5381 -15.4192
   -15.3740 -15.3698 -15.3491 -15.2943 -15.2576 -15.2213 -15.1899 -15.1720
   -15.1487 -15.1377 -15.0953 -15.0927 -15.0857 -15.0637 -15.0218 -15.0117
   -14.9874 -14.9669 -14.9623 -14.9500 -14.9173 -14.7492 -14.6396 -13.1088
   -13.1087 -12.3918  -7.8876  -6.2396  -5.4866  -4.7629  -3.1488  -3.0655
    -3.0130  -2.8003  -2.7556  -2.7353  -2.7017  -2.6418  -2.5889  -2.5713
    -2.5529  -2.5245  -2.5144  -2.4622  -2.4366  -2.4105  -2.3860  -2.3698
    -2.3606  -2.3474  -2.3213  -2.3021  -2.2797  -2.2699  -2.2467  -2.2358
    -2.2138  -2.2058  -2.1916  -2.1687  -2.0804  -1.9983  -1.8971  -1.8378
    -1.7940  -1.7936  -1.7635  -1.7339  -1.7061  -1.7019  -1.6626  -1.6332
    -1.5613  -1.5026  -1.3196  -1.3057  -1.2612  -1.1767  -1.1752  -1.1279
    -1.1190  -1.0677  -1.0402  -0.9938  -0.9440  -0.9102  -0.8231  -0.6698
    -0.6213  -0.6014  -0.5954  -0.5799  -0.5398  -0.5250  -0.4725  -0.4555
    -0.4391  -0.3713  -0.3422  -0.3375  -0.2880  -0.2691  -0.1572  -0.0582
    -0.0318   0.0223   0.0617   0.1811   0.2932   0.3623   0.4641   0.4783
     0.4969   0.5504   0.6586   0.6683   0.7138   0.7764   0.8413   0.8466
     0.8773   0.9415   0.9531   0.9903   1.7641   1.7659   1.8148   1.8376
     1.8377   3.8616   3.9024   3.9529   3.9591   3.9830   4.0332   4.0405
     4.0711   4.1216   4.1380

     the Fermi energy is     3.4854 ev

!    total energy              =   -2973.97632631 Ry
     estimated scf accuracy    <       0.00000006 Ry
     smearing contrib. (-TS)   =      -0.01978036 Ry
     internal energy E=F+TS    =   -2973.95654595 Ry

     The total energy is F=E-TS. E is the sum of the following terms:
     one-electron contribution =  -24367.69540154 Ry
     hartree contribution      =   12278.40541323 Ry
     xc contribution           =    -494.13784173 Ry
     ewald contribution        =    9609.46972747 Ry
     electric field correction =       0.00155661 Ry

     convergence has been achieved in  84 iterations

     Forces acting on atoms (cartesian axes, Ry/au):

     atom    1 type  1   force =     0.00016589   -0.00030920    0.09437767
     atom    2 type  1   force =    -0.00007256   -0.00076790   -0.17588741
     atom    3 type  2   force =     0.00005878   -0.00019362   -0.02183271
     atom    4 type  2   force =     0.00003669   -0.00134206    0.05333949
     atom    5 type  2   force =    -0.00871308   -0.00017986    0.00365767
     atom    6 type  2   force =     0.01038046    0.00047300    0.00301159
     atom    7 type  1   force =    -0.00045153    0.00080365   -0.00104936
     atom    8 type  1   force =     0.00044751    0.00751271    0.00864002
     atom    9 type  2   force =     0.00046964    0.00015279    0.00004077
     atom   10 type  2   force =    -0.00262593    0.00131860   -0.01722776
     atom   11 type  2   force =    -0.00008702    0.00009198   -0.00040659
     atom   12 type  2   force =     0.00030755    0.00007426   -0.00007669
     atom   13 type  1   force =    -0.00040049   -0.00038560   -0.00022046
     atom   14 type  1   force =     0.00035308    0.00010697    0.00020276
     atom   15 type  2   force =     0.00012499   -0.00005853   -0.00028893
     atom   16 type  2   force =     0.00019415    0.00019537    0.00011573
     atom   17 type  2   force =    -0.00008127   -0.00012563    0.00024481
     atom   18 type  2   force =    -0.00003997    0.00008395   -0.00025605
     atom   19 type  1   force =    -0.00072537    0.00024404   -0.00071183
     atom   20 type  1   force =     0.00026686   -0.00014754    0.00007216
     atom   21 type  2   force =     0.00006653   -0.00000288    0.10325966
     atom   22 type  2   force =    -0.00039845   -0.00041859   -0.00008725
     atom   23 type  2   force =    -0.07153682   -0.00011027   -0.02735486
     atom   24 type  2   force =     0.07147295    0.00037775   -0.02736763
     atom   25 type  1   force =     0.00004973   -0.00021306    0.09435442
     atom   26 type  1   force =    -0.00013871   -0.00030165   -0.17600899
     atom   27 type  2   force =     0.00003694   -0.00018817   -0.02073782
     atom   28 type  2   force =     0.00009504   -0.00112682    0.05373191
     atom   29 type  2   force =    -0.00879820   -0.00002123    0.00342329
     atom   30 type  2   force =     0.01030865    0.00036765    0.00285652
     atom   31 type  1   force =    -0.00032190    0.00464583    0.00188867
     atom   32 type  1   force =     0.00043552   -0.00852766    0.00858738
     atom   33 type  2   force =    -0.00003547    0.00003587   -0.00003444
     atom   34 type  2   force =    -0.00403222   -0.00112246   -0.01182242
     atom   35 type  2   force =     0.00014067    0.00007890    0.00033339
     atom   36 type  2   force =     0.00053259    0.00006229   -0.00021759
     atom   37 type  1   force =     0.00061616   -0.00020167   -0.00001730
     atom   38 type  1   force =     0.00021102   -0.00017618   -0.00010922
     atom   39 type  2   force =    -0.00017756   -0.00003358   -0.00022071
     atom   40 type  2   force =     0.00047852    0.00001233    0.00039258
     atom   41 type  2   force =    -0.00019928    0.00057335    0.00024665
     atom   42 type  2   force =     0.00011148   -0.00007657   -0.00036485
     atom   43 type  1   force =    -0.00066251   -0.00008995    0.00001852
     atom   44 type  1   force =     0.00047446    0.00056748    0.00090639
     atom   45 type  2   force =     0.00004897    0.00000055    0.10333520
     atom   46 type  2   force =    -0.07153035   -0.00004332   -0.02734278
     atom   47 type  2   force =     0.07147192    0.00035089   -0.02737117
     atom   48 type  3   force =     0.00037888   -0.00050410   -0.00065877
     atom   49 type  4   force =     0.00048880    0.00011135   -0.00034003
     atom   50 type  5   force =    -0.00004635   -0.00156116   -0.00108967
     atom   51 type  3   force =    -0.00043285    0.00043493    0.00101023
     atom   52 type  3   force =    -0.00007165   -0.00026817    0.00002794
     atom   53 type  4   force =    -0.00016775    0.00054699    0.00109914
     atom   54 type  2   force =     0.02281281   -0.00371698   -0.00195800
     atom   55 type  3   force =    -0.00365018    0.00508368   -0.00094211
     atom   56 type  3   force =    -0.01763977   -0.00209277    0.00282882

     Total force =     0.365032     Total SCF correction =     0.000537
  @ DRIVER MODE: Message from server: STATUS
  @ DRIVER MODE: Message from server: GETFORCE
  @ DRIVER MODE: Returning v,forces,stress,ensemble

     Writing output data file ./calc.save/
  @ DRIVER MODE: Message from server: EXIT
  @ DRIVE MODE: Exiting

     General routines

     Parallel routines

   This run was terminated on:   3:41:55  16Sep2021

   JOB DONE.