     Program PWSCF v.6.7GPU starts on  9Sep2021 at  5:26:15

     R & G space division:  proc/nbgrp/npool/nimage =      10
     Reading input from /storage/home/hcoda1/3/ntian30/research/carbon/CxH_vib/CH3_calc/ads_slab/CH3NHNH_a/out_0024/pw.inp
Warning: card &CELL ignored
Warning: card   CELL_DYNAMICS='IPI', ignored
Warning: card / ignored

     Current dimensions of program PWSCF are:
     Max number of different atomic species (ntypx) = 10
     Max number of k-points (npk) =  40000
     Max angular momentum in pseudopotentials (lmaxx) =  3
     Presently no symmetry can be used with electric field

     Message from routine cell_base_init:
     DEPRECATED: use true lattice parameter, not A to a.u. conversion factor

     IMPORTANT: XC functional enforced from input :
     Exchange-correlation= BEEF-VDW
                           (   1   4  43  14   2   0   0)
     Any further DFT definition will be discarded
     Please, verify this is what you really want

  @ DRIVER MODE: Connecting to
 qe_1139763_2767401.sched-torque.pace.gatech.eduh088v7rq_scratch
  using UNIX socket
  @ DRIVER MODE: Message from server: STATUS
  @ DRIVER MODE: Message from server: INIT
  @ DRIVER MODE: Receiving replica           0          -1
  @ DRIVER MODE: Receiving encoded integer          25
  @ DRIVER MODE:  SCF:  T  FORCE:  T  STRESS:  F  VC:  F  ENSEMBLE:  F
  @ DRIVER MODE:  SCF:  T  FORCE:  T  STRESS:  F  VC:  F  ENSEMBLE:  F

     Using Slab Decomposition

     bravais-lattice index     =            0
     lattice parameter (alat)  =       1.8897  a.u.
     unit-cell volume          =    6658.9804 (a.u.)^3
     number of atoms/cell      =           55
     number of atomic types    =            5
     number of electrons       =       397.00
     number of Kohn-Sham states=          208
     kinetic-energy cutoff     =      29.3995  Ry
     charge density cutoff     =     293.9946  Ry
     scf convergence threshold =      7.3E-08
     mixing beta               =       0.0500
     number of iterations used =            8  plain     mixing
     Exchange-correlation= BEEF-VDW
                           (   1   4  43  14   2   0   0)

     celldm(1)=   1.889726  celldm(2)=   0.000000  celldm(3)=   0.000000
     celldm(4)=   0.000000  celldm(5)=   0.000000  celldm(6)=   0.000000

     crystal axes: (cart. coord. in units of alat)
               a(1) = (   6.579727   0.000000   0.000000 )
               a(2) = (  -0.000775   5.961596   0.000000 )
               a(3) = (   0.000000   0.000000  25.155947 )

     reciprocal axes: (cart. coord. in units 2 pi/alat)
               b(1) = (  0.151982  0.000020  0.000000 )
               b(2) = (  0.000000  0.167740  0.000000 )
               b(3) = (  0.000000  0.000000  0.039752 )

     PseudoPot. # 1 for Ti read from file:
     /storage/coda1/p-amedford6/0/shared/rich_project_chbe-medford/medford-share/data/pseudos_module/espresso/nninc/pbe/van/Ti.UPF
     MD5 check sum: 8e4df49b7f0d34bbd5052bf3f5ea0213
     Pseudo is Ultrasoft, Zval = 12.0
     Generated by new atomic code, or converted to UPF format
     Using radial grid of  851 points,  6 beta functions with:
                l(1) =   0
                l(2) =   0
                l(3) =   1
                l(4) =   1
                l(5) =   2
                l(6) =   2
     Q(r) pseudized with  8 coefficients,  rinner =    1.000   1.000   1.000
                                                       1.000   1.000

     PseudoPot. # 2 for O  read from file:
     /storage/coda1/p-amedford6/0/shared/rich_project_chbe-medford/medford-share/data/pseudos_module/espresso/nninc/pbe/van/O.UPF
     MD5 check sum: 78c19812648e8988a0fe644b0f25305e
     Pseudo is Ultrasoft, Zval =  6.0
     Generated by new atomic code, or converted to UPF format
     Using radial grid of  737 points,  4 beta functions with:
                l(1) =   0
                l(2) =   0
                l(3) =   1
                l(4) =   1
     Q(r) pseudized with  8 coefficients,  rinner =    0.800   0.800   0.800

     PseudoPot. # 3 for N  read from file:
     /storage/coda1/p-amedford6/0/shared/rich_project_chbe-medford/medford-share/data/pseudos_module/espresso/nninc/pbe/van/N.UPF
     MD5 check sum: 90d10febe142ad51ac9d5be1deb811c4
     Pseudo is Ultrasoft, Zval =  5.0
     Generated by new atomic code, or converted to UPF format
     Using radial grid of  729 points,  4 beta functions with:
                l(1) =   0
                l(2) =   0
                l(3) =   1
                l(4) =   1
     Q(r) pseudized with  8 coefficients,  rinner =    0.800   0.800   0.800

     PseudoPot. # 4 for C  read from file:
     /storage/coda1/p-amedford6/0/shared/rich_project_chbe-medford/medford-share/data/pseudos_module/espresso/nninc/pbe/van/C.UPF
     MD5 check sum: 1a69bf6b8db32088f5b2163dbdb77a27
     Pseudo is Ultrasoft, Zval =  4.0
     Generated by new atomic code, or converted to UPF format
     Using radial grid of  721 points,  4 beta functions with:
                l(1) =   0
                l(2) =   0
                l(3) =   1
                l(4) =   1
     Q(r) pseudized with  8 coefficients,  rinner =    0.800   0.800   0.800

     PseudoPot. # 5 for H  read from file:
     /storage/coda1/p-amedford6/0/shared/rich_project_chbe-medford/medford-share/data/pseudos_module/espresso/nninc/pbe/van/H.UPF
     MD5 check sum: b5ee9d7bfd3a09ee7748110bda690ff7
     Pseudo is Ultrasoft, Zval =  1.0
     Generated by new atomic code, or converted to UPF format
     Using radial grid of  615 points,  1 beta functions with:
                l(1) =   0
     Q(r) pseudized with  8 coefficients,  rinner =    0.800

     atomic species   valence    mass     pseudopotential
        Ti1           12.00    47.86700     Ti( 1.00)
        O1             6.00    15.99900     O ( 1.00)
        N1             5.00    14.00700     N ( 1.00)
        C1             4.00    12.01100     C ( 1.00)
        H1             1.00     1.00800     H ( 1.00)

     No symmetry found

   Cartesian axes

     site n.     atom                  positions (alat units)
         1           Ti1 tau(   1) = (   0.0004258   2.9801865   6.0000000  )
         2           Ti1 tau(   2) = (   3.2906075   1.4906267   6.0002472  )
         3           O1  tau(   3) = (   0.0006271   0.0005054   7.9858123  )
         4           O1  tau(   4) = (   3.2906025   0.0005020   7.3038282  )
         5           O1  tau(   5) = (   4.5942328   1.4918067   9.2879030  )
         6           O1  tau(   6) = (   1.9868534   1.4903216   9.2879459  )
         7           Ti1 tau(   7) = (   3.2907910   2.8959150   9.1758416  )
         8           Ti1 tau(   8) = (   0.0015273   1.4827037   9.2680791  )
         9           O1  tau(   9) = (   3.2830128   5.9597860  11.3344455  )
        10           O1  tau(  10) = (   0.0116148   5.9584955  10.6183126  )
        11           O1  tau(  11) = (   1.2885291   1.4855062  12.6376555  )
        12           O1  tau(  12) = (   5.2724004   1.4911608  12.5936499  )
        13           Ti1 tau(  13) = (   0.0410009   3.0319447  12.6084003  )
        14           Ti1 tau(  14) = (   3.3739341   1.4916561  12.4823474  )
        15           O1  tau(  15) = (   6.4862162   0.0153916  14.6455093  )
        16           O1  tau(  16) = (   3.3439542   5.9611638  13.9051029  )
        17           O1  tau(  17) = (   4.4933269   1.5483200  16.1231154  )
        18           O1  tau(  18) = (   1.9964937   1.4536654  15.9127221  )
        19           Ti1 tau(  19) = (   3.1412959   3.0017366  15.7441667  )
        20           Ti1 tau(  20) = (   6.4823597   1.5369342  15.8006069  )
        21           O1  tau(  21) = (   3.2904802   0.0005063   4.7018136  )
        22           O1  tau(  22) = (   6.5709111   0.0522475  17.2082838  )
        23           O1  tau(  23) = (   1.3043587   1.4918075   6.0039043  )
        24           O1  tau(  24) = (   5.2767064   1.4903225   6.0039473  )
        25           Ti1 tau(  25) = (   0.0000382   5.9609847   6.0000000  )
        26           Ti1 tau(  26) = (   3.2902200   4.4714249   6.0002472  )
        27           O1  tau(  27) = (   0.0002396   2.9813036   7.9858123  )
        28           O1  tau(  28) = (   3.2902150   2.9813002   7.3038282  )
        29           O1  tau(  29) = (   4.5938453   4.4726049   9.2879030  )
        30           O1  tau(  30) = (   1.9864658   4.4711199   9.2879459  )
        31           Ti1 tau(  31) = (   3.2891106   5.8743827   9.1763621  )
        32           Ti1 tau(  32) = (   0.0006254   4.4649316   9.2693709  )
        33           O1  tau(  33) = (   3.2833609   2.9822938  11.3349093  )
        34           O1  tau(  34) = (   0.0092240   2.9805883  10.6323155  )
        35           O1  tau(  35) = (   1.2838611   4.4860338  12.6468719  )
        36           O1  tau(  36) = (   5.2760156   4.4607002  12.6015494  )
        37           Ti1 tau(  37) = (   0.0673138   0.0440259  12.5461749  )
        38           Ti1 tau(  38) = (   3.3712377   4.4654930  12.4933830  )
        39           O1  tau(  39) = (   6.5217465   2.9589972  14.6412948  )
        40           O1  tau(  40) = (   3.2809526   2.9956502  13.9333893  )
        41           O1  tau(  41) = (   4.4911989   4.4583117  16.1637052  )
        42           O1  tau(  42) = (   1.9937212   4.5427850  15.9740970  )
        43           Ti1 tau(  43) = (   3.2955853   0.0167752  15.6963065  )
        44           Ti1 tau(  44) = (   6.5082246   4.6715011  16.1069148  )
        45           O1  tau(  45) = (   3.2900926   2.9813045   4.7018136  )
        46           O1  tau(  46) = (   1.3039711   4.4726057   6.0039043  )
        47           O1  tau(  47) = (   5.2763189   4.4711207   6.0039473  )
        48           N1  tau(  48) = (   1.3945086   2.8365607  18.1849301  )
        49           N1  tau(  49) = (   0.1777896   2.9650562  17.4211889  )
        50           C1  tau(  50) = (   1.4118813   3.7128676  19.3556819  )
        51           H1  tau(  51) = (   0.5171711   3.5996102  19.9980000  )
        52           H1  tau(  52) = (   2.2935099   3.4681107  19.9517681  )
        53           H1  tau(  53) = (   1.4703795   4.7520035  19.0319817  )
        54           H1  tau(  54) = (   1.4579882   1.8621926  18.4823179  )
        55           H1  tau(  55) = (   5.9558665   2.8747675  18.0551794  )

     number of k points=    10  Fermi-Dirac smearing, width (Ry)=  0.0073
                       cart. coord. in units 2pi/alat
        k(    1) = (   0.0000000   0.0000000   0.0000000), wk =   0.1250000
        k(    2) = (   0.0000000   0.0419351   0.0000000), wk =   0.2500000
        k(    3) = (   0.0000000  -0.0838702   0.0000000), wk =   0.1250000
        k(    4) = (   0.0379955   0.0000049   0.0000000), wk =   0.2500000
        k(    5) = (   0.0379955   0.0419400   0.0000000), wk =   0.2500000
        k(    6) = (   0.0379955  -0.0838652   0.0000000), wk =   0.2500000
        k(    7) = (   0.0379955  -0.0419301   0.0000000), wk =   0.2500000
        k(    8) = (  -0.0759910  -0.0000099   0.0000000), wk =   0.1250000
        k(    9) = (  -0.0759910   0.0419252   0.0000000), wk =   0.2500000
        k(   10) = (  -0.0759910  -0.0838800   0.0000000), wk =   0.1250000

     Initial potential from superposition of free atoms

     starting charge  380.99914, renormalised to  397.00000

     negative rho (up, down):  1.539E-02 0.000E+00

     %%%%%%%%%%%%%%%%%%%%%%%%%%%%%%%%%%%%%%%%%%%%%%%%%%%%%%%%%%%%%%%%%%%%%%%%
     %                                                                      %
     % You are using vdW-DF, which was implemented by the Thonhauser group. %
     % Please cite the following two papers that made this development      %
     % possible and the two reviews that describe the various versions:     %
     %                                                                      %
     %   T. Thonhauser et al., PRL 115, 136402 (2015).                      %
     %   T. Thonhauser et al., PRB 76, 125112 (2007).                       %
     %   K. Berland et al., Rep. Prog. Phys. 78, 066501 (2015).             %
     %   D.C. Langreth et al., J. Phys.: Condens. Matter 21, 084203 (2009). %
     %                                                                      %
     %                                                                      %
     % If you are calculating the stress with vdW-DF, please also cite:     %
     %                                                                      %
     %   R. Sabatini et al., J. Phys.: Condens. Matter 24, 424209 (2012).   %
     %                                                                      %
     %%%%%%%%%%%%%%%%%%%%%%%%%%%%%%%%%%%%%%%%%%%%%%%%%%%%%%%%%%%%%%%%%%%%%%%%

     Adding external electric field

     Computed dipole along edir(3) :
        Dipole               -9.6188 Ry au,        -24.4486 Debye
        Dipole field         -0.0182 Ry au,

        Potential amp.        1.6827 Ry
        Total length         46.3494 bohr

     Starting wfcs are  301 atomic wfcs
  @ DRIVER MODE: Message from server: STATUS
  @ DRIVER MODE: Message from server: POSDATA
  @ DRIVER MODE: Reading and sharing cell
  @ DRIVER MODE: Reading and sharing positions
  @ DRIVER MODE: Received positions

     Self-consistent Calculation

     iteration #  1     ecut=    29.40 Ry     beta= 0.05
     Davidson diagonalization with overlap
     c_bands:  1 eigenvalues not converged
     c_bands:  1 eigenvalues not converged
     c_bands:  1 eigenvalues not converged
     c_bands:  1 eigenvalues not converged
     c_bands:  1 eigenvalues not converged
     c_bands:  1 eigenvalues not converged
     c_bands:  2 eigenvalues not converged
     ethr =  1.00E-05,  avg # of iterations = 18.8

[...]

     total energy              =   -2533.42532425 Ry
     estimated scf accuracy    <    4541.05867308 Ry

     iteration #  2     ecut=    29.40 Ry     beta= 0.05
     Davidson diagonalization with overlap
     ethr =  1.00E-02,  avg # of iterations = 24.2

[...]

     iteration # 34     ecut=    29.40 Ry     beta= 0.05
     Davidson diagonalization with overlap
     c_bands:  1 eigenvalues not converged
     c_bands:  1 eigenvalues not converged
     ethr =  1.17E-06,  avg # of iterations = 15.0

[...]

     total energy              =   -2941.66148660 Ry
     estimated scf accuracy    <       0.00000011 Ry

     iteration # 57     ecut=    29.40 Ry     beta= 0.05
     Davidson diagonalization with overlap
     ethr =  2.86E-11,  avg # of iterations = 10.3

     negative rho (up, down):  1.605E-02 0.000E+00

     Adding external electric field

     Computed dipole along edir(3) :
        Dipole                0.9398 Ry au,          2.3887 Debye
        Dipole field          0.0018 Ry au,

        Potential amp.       -0.1644 Ry
        Total length         46.3494 bohr

     End of self-consistent calculation

          k = 0.0000 0.0000 0.0000 ( 18029 PWs)   bands (ev):

   -55.6877 -55.6707 -55.6537 -55.6341 -55.5935 -55.5392 -55.5322 -55.5022
   -55.4961 -55.4682 -55.4662 -55.4321 -55.2591 -55.0345 -54.6680 -54.6340
   -32.2217 -32.1709 -32.0438 -32.0337 -32.0005 -31.9858 -31.9805 -31.9565
   -31.9317 -31.8998 -31.8975 -31.8913 -31.8483 -31.8401 -31.8261 -31.8244
   -31.8078 -31.7927 -31.7839 -31.7486 -31.7450 -31.7378 -31.7222 -31.7183
   -31.6959 -31.6914 -31.6886 -31.6810 -31.6668 -31.6644 -31.6570 -31.6477
   -31.6423 -31.6327 -31.6192 -31.6097 -31.5783 -31.5094 -31.4655 -31.3008
   -31.2914 -31.2372 -31.0752 -30.9867 -30.9643 -30.8920 -30.8055 -30.6944
   -16.7730 -16.4183 -16.1638 -15.9341 -15.8433 -15.8127 -15.6603 -15.5289
   -15.4196 -15.3376 -15.2527 -15.2337 -15.2267 -15.2156 -15.1897 -15.1835
   -15.1368 -15.1319 -15.1127 -15.0997 -15.0497 -15.0329 -15.0296 -14.9347
   -14.8708 -14.8356 -14.8210 -14.7860 -14.7489 -14.3341 -13.1707 -13.0542
   -11.8047  -8.9730  -5.4327  -4.3698  -3.8275  -3.7886  -3.6457  -3.5955
    -3.5347  -3.4917  -3.3180  -3.2159  -2.9432  -2.8859  -2.8567  -2.8475
    -2.7889  -2.7569  -2.6024  -2.5762  -2.5055  -2.4960  -2.4813  -2.4523
    -2.4430  -2.4352  -2.3975  -2.3768  -2.3483  -2.2444  -2.1043  -2.0948
    -2.0723  -2.0392  -2.0019  -1.9531  -1.9367  -1.9164  -1.8981  -1.8853
    -1.8728  -1.7378  -1.7028  -1.5861  -1.4970  -1.4495  -1.3688  -1.2999
    -1.2676  -1.1590  -1.1194  -1.1059  -1.0924  -1.0821  -0.9822  -0.8763
    -0.8590  -0.8213  -0.7660  -0.7106  -0.6399  -0.5950  -0.5439  -0.4917
    -0.4673  -0.4524  -0.4496  -0.4143  -0.3226  -0.1816  -0.1296  -0.0953
    -0.0730   0.0037   0.0387   0.0950   0.1194   0.1428   0.1786   0.2314
     0.2752   0.2815   0.2950   0.3095   0.3143   0.4888   0.5383   0.5800
     0.6133   0.6593   0.8205   0.8429   0.9642   1.0384   1.2002   1.2795
     1.3540   1.4322   1.5457   1.6186   1.9252   1.9709   3.4429   3.5305
     3.5751   3.5890   3.6843   3.7263   3.8958   3.9263   3.9409   4.0011

[...]

          k = 0.0380-0.0419 0.0000 ( 17876 PWs)   bands (ev):

[...]

          k =-0.0760-0.0000 0.0000 ( 17886 PWs)   bands (ev):

[...]

          k =-0.0760-0.0839 0.0000 ( 17948 PWs)   bands (ev):

   -55.6710 -55.6703 -55.6560 -55.6486 -55.5874 -55.5451 -55.5196 -55.5087
   -55.4857 -55.4842 -55.4521 -55.4464 -55.2580 -55.0355 -54.6510 -54.6508
   -32.0308 -32.0211 -31.9864 -31.9858 -31.9662 -31.9654 -31.9454 -31.9390
   -31.8861 -31.8854 -31.8752 -31.8700 -31.8530 -31.8351 -31.8105 -31.8058
   -31.8014 -31.7978 -31.7912 -31.7910 -31.7900 -31.7896 -31.7857 -31.7460
   -31.7376 -31.7261 -31.7179 -31.7067 -31.6861 -31.6852 -31.6831 -31.6764
   -31.6664 -31.6624 -31.6591 -31.6566 -31.6151 -31.5119 -31.4622 -31.3630
   -31.2935 -31.2632 -30.9771 -30.9770 -30.8881 -30.8879 -30.8488 -30.8487
   -16.7468 -15.8655 -15.8045 -15.6468 -15.6116 -15.5918 -15.5569 -15.4961
   -15.4130 -15.3860 -15.3813 -15.3341 -15.3083 -15.2755 -15.2376 -15.2231
   -15.2160 -15.1970 -15.1846 -15.1510 -15.1415 -15.1300 -15.1228 -15.0470
   -15.0096 -15.0052 -14.9994 -14.8959 -14.7692 -14.5019 -13.1560 -13.1560
   -11.8111  -8.9873  -5.4467  -4.3570  -3.7446  -3.1583  -3.0713  -2.8965
    -2.8409  -2.8122  -2.7962  -2.6301  -2.6182  -2.6044  -2.5558  -2.5367
    -2.5267  -2.5183  -2.5096  -2.4886  -2.4758  -2.4396  -2.4305  -2.3958
    -2.3815  -2.3639  -2.3471  -2.3299  -2.3104  -2.2961  -2.2785  -2.2386
    -2.2189  -2.2082  -2.1873  -2.1432  -1.9334  -1.8832  -1.8363  -1.8317
    -1.8231  -1.8031  -1.7486  -1.7437  -1.7094  -1.6579  -1.5796  -1.4349
    -1.3897  -1.3733  -1.2800  -1.2584  -1.2055  -1.1337  -1.0879  -1.0709
    -1.0358  -0.9718  -0.9353  -0.8982  -0.8318  -0.8073  -0.8013  -0.7076
    -0.6869  -0.6509  -0.6443  -0.5654  -0.5144  -0.4521  -0.4367  -0.4203
    -0.3887  -0.3552  -0.3370  -0.2687  -0.1771  -0.1761  -0.1528  -0.0438
     0.0469   0.2752   0.3380   0.3749   0.4198   0.5135   0.5819   0.6064
     0.6222   0.6441   0.6634   0.7118   0.8385   0.8485   0.8829   0.9958
     1.0990   1.6344   1.7174   1.7183   1.7908   1.7909   3.7447   3.7629
     3.7834   3.8298   3.9490   3.9560   3.9781   3.9803   4.1029   4.1161

     the Fermi energy is     3.4446 ev

!    total energy              =   -2941.66154546 Ry
     estimated scf accuracy    <       0.00000005 Ry
     smearing contrib. (-TS)   =      -0.02151661 Ry
     internal energy E=F+TS    =   -2941.64002885 Ry

     The total energy is F=E-TS. E is the sum of the following terms:
     one-electron contribution =  -24275.57515855 Ry
     hartree contribution      =   12228.22901632 Ry
     xc contribution           =    -486.86907786 Ry
     ewald contribution        =    9592.57352458 Ry
     electric field correction =       0.00166666 Ry

     convergence has been achieved in  57 iterations

     Forces acting on atoms (cartesian axes, Ry/au):

     atom    1 type  1   force =     0.00017658   -0.00011490    0.09635978
     atom    2 type  1   force =    -0.00021023   -0.00063244   -0.17550541
     atom    3 type  2   force =    -0.00004255   -0.00003611   -0.02419862
     atom    4 type  2   force =     0.00005036   -0.00143962    0.05289853
     atom    5 type  2   force =    -0.01182106   -0.00049413    0.00395905
     atom    6 type  2   force =     0.01313367    0.00023627    0.00229804
     atom    7 type  1   force =    -0.00140613    0.00080919   -0.01147975
     atom    8 type  1   force =     0.00053498    0.00920357    0.02523105
     atom    9 type  2   force =    -0.00010616    0.00017531    0.00039420
     atom   10 type  2   force =    -0.00086719    0.00148567   -0.01581515
     atom   11 type  2   force =    -0.00018849   -0.00049558    0.00039112
     atom   12 type  2   force =    -0.00014130   -0.00026151    0.00002690
     atom   13 type  1   force =     0.00055004   -0.00091388    0.00009150
     atom   14 type  1   force =    -0.00007845   -0.00041033    0.00024279
     atom   15 type  2   force =     0.00018417    0.00002721   -0.00030776
     atom   16 type  2   force =     0.00006469    0.00024877    0.00005164
     atom   17 type  2   force =    -0.00053352    0.00035071    0.00047387
     atom   18 type  2   force =     0.00011590    0.00014615    0.00031531
     atom   19 type  1   force =     0.00014548   -0.00053506    0.00016084
     atom   20 type  1   force =     0.00013979    0.00035545    0.00061921
     atom   21 type  2   force =     0.00007235   -0.00008284    0.10320347
     atom   22 type  2   force =    -0.00041741   -0.00026746    0.00021695
     atom   23 type  2   force =    -0.07148645   -0.00018202   -0.02771223
     atom   24 type  2   force =     0.07140998    0.00024931   -0.02770972
     atom   25 type  1   force =     0.00002893   -0.00027474    0.09581839
     atom   26 type  1   force =    -0.00014820   -0.00022672   -0.17567973
     atom   27 type  2   force =     0.00009245   -0.00012589   -0.02330129
     atom   28 type  2   force =     0.00007831   -0.00129478    0.05332590
     atom   29 type  2   force =    -0.01195178   -0.00005862    0.00375760
     atom   30 type  2   force =     0.01320244    0.00043065    0.00213597
     atom   31 type  1   force =    -0.00141856    0.00344936   -0.01080772
     atom   32 type  1   force =     0.00064308   -0.01009743    0.02563865
     atom   33 type  2   force =    -0.00038952    0.00004934    0.00005479
     atom   34 type  2   force =     0.00074631    0.00089962   -0.02308778
     atom   35 type  2   force =    -0.00010660    0.00029511   -0.00002285
     atom   36 type  2   force =    -0.00022867    0.00059792   -0.00028864
     atom   37 type  1   force =    -0.00082457   -0.00101998   -0.00012042
     atom   38 type  1   force =    -0.00002325   -0.00009630   -0.00002063
     atom   39 type  2   force =    -0.00035112    0.00004543    0.00055753
     atom   40 type  2   force =     0.00048710    0.00024928    0.00028168
     atom   41 type  2   force =     0.00004196    0.00050742    0.00024790
     atom   42 type  2   force =     0.00008128    0.00026405   -0.00019176
     atom   43 type  1   force =     0.00023493    0.00007095   -0.00017517
     atom   44 type  1   force =    -0.00026986   -0.00061856    0.00004580
     atom   45 type  2   force =     0.00006759   -0.00008573    0.10322661
     atom   46 type  2   force =    -0.07148899   -0.00016764   -0.02770681
     atom   47 type  2   force =     0.07141525    0.00030560   -0.02772133
     atom   48 type  3   force =    -0.00139760    0.00010865    0.00091269
     atom   49 type  3   force =     0.00030365   -0.00022076    0.00020822
     atom   50 type  4   force =    -0.00296075   -0.00071071    0.00516833
     atom   51 type  5   force =     0.00539880    0.00084600   -0.00551354
     atom   52 type  5   force =     0.00021139    0.00080047   -0.00106710
     atom   53 type  5   force =    -0.00059546   -0.00175997    0.00073146
     atom   54 type  5   force =     0.00004062    0.00066304   -0.00046841
     atom   55 type  5   force =    -0.00019823   -0.00024679   -0.00014398

     Total force =     0.367456     Total SCF correction =     0.000430
  @ DRIVER MODE: Message from server: STATUS
  @ DRIVER MODE: Message from server: GETFORCE
  @ DRIVER MODE: Returning v,forces,stress,ensemble

     Writing output data file ./calc.save/
  @ DRIVER MODE: Message from server: EXIT
  @ DRIVE MODE: Exiting

     General routines

     Parallel routines

   This run was terminated on:   5:42:54   9Sep2021

   JOB DONE.