     Program PWSCF v.6.7GPU starts on 15Sep2021 at 21:53:32

     R & G space division:  proc/nbgrp/npool/nimage =      10
     Reading input from /storage/home/hcoda1/3/ntian30/research/carbon/CxH_vib/H2O_calc/ads_slab/CHN2H2O_c/out_0020/pw.inp
Warning: card &CELL ignored
Warning: card   CELL_DYNAMICS='IPI', ignored
Warning: card / ignored

     Current dimensions of program PWSCF are:
     Max number of different atomic species (ntypx) = 10
     Max number of k-points (npk) =  40000
     Max angular momentum in pseudopotentials (lmaxx) =  3
     Presently no symmetry can be used with electric field

     Message from routine cell_base_init:
     DEPRECATED: use true lattice parameter, not A to a.u. conversion factor

     IMPORTANT: XC functional enforced from input :
     Exchange-correlation= BEEF-VDW
                           (   1   4  43  14   2   0   0)
     Any further DFT definition will be discarded
     Please, verify this is what you really want

  @ DRIVER MODE: Connecting to
 qe_1139763_2852625.sched-torque.pace.gatech.edudqvfdiju_scratch
  using UNIX socket
  @ DRIVER MODE: Message from server: STATUS
  @ DRIVER MODE: Message from server: INIT
  @ DRIVER MODE: Receiving replica           0          -1
  @ DRIVER MODE: Receiving encoded integer          25
  @ DRIVER MODE:  SCF:  T  FORCE:  T  STRESS:  F  VC:  F  ENSEMBLE:  F
  @ DRIVER MODE:  SCF:  T  FORCE:  T  STRESS:  F  VC:  F  ENSEMBLE:  F

     Using Slab Decomposition

     bravais-lattice index     =            0
     lattice parameter (alat)  =       1.8897  a.u.
     unit-cell volume          =    6658.9804 (a.u.)^3
     number of atoms/cell      =           54
     number of atomic types    =            5
     number of electrons       =       401.00
     number of Kohn-Sham states=          210
     kinetic-energy cutoff     =      29.3995  Ry
     charge density cutoff     =     293.9946  Ry
     scf convergence threshold =      7.3E-08
     mixing beta               =       0.0500
     number of iterations used =            8  plain     mixing
     Exchange-correlation= BEEF-VDW
                           (   1   4  43  14   2   0   0)

     celldm(1)=   1.889726  celldm(2)=   0.000000  celldm(3)=   0.000000
     celldm(4)=   0.000000  celldm(5)=   0.000000  celldm(6)=   0.000000

     crystal axes: (cart. coord. in units of alat)
               a(1) = (   6.579727   0.000000   0.000000 )
               a(2) = (  -0.000775   5.961596   0.000000 )
               a(3) = (   0.000000   0.000000  25.155947 )

     reciprocal axes: (cart. coord. in units 2 pi/alat)
               b(1) = (  0.151982  0.000020  0.000000 )
               b(2) = (  0.000000  0.167740  0.000000 )
               b(3) = (  0.000000  0.000000  0.039752 )

     PseudoPot. # 1 for Ti read from file:
     /storage/coda1/p-amedford6/0/shared/rich_project_chbe-medford/medford-share/data/pseudos_module/espresso/nninc/pbe/van/Ti.UPF
     MD5 check sum: 8e4df49b7f0d34bbd5052bf3f5ea0213
     Pseudo is Ultrasoft, Zval = 12.0
     Generated by new atomic code, or converted to UPF format
     Using radial grid of  851 points,  6 beta functions with:
                l(1) =   0
                l(2) =   0
                l(3) =   1
                l(4) =   1
                l(5) =   2
                l(6) =   2
     Q(r) pseudized with  8 coefficients,  rinner =    1.000   1.000   1.000
                                                       1.000   1.000

     PseudoPot. # 2 for O  read from file:
     /storage/coda1/p-amedford6/0/shared/rich_project_chbe-medford/medford-share/data/pseudos_module/espresso/nninc/pbe/van/O.UPF
     MD5 check sum: 78c19812648e8988a0fe644b0f25305e
     Pseudo is Ultrasoft, Zval =  6.0
     Generated by new atomic code, or converted to UPF format
     Using radial grid of  737 points,  4 beta functions with:
                l(1) =   0
                l(2) =   0
                l(3) =   1
                l(4) =   1
     Q(r) pseudized with  8 coefficients,  rinner =    0.800   0.800   0.800

     PseudoPot. # 3 for C  read from file:
     /storage/coda1/p-amedford6/0/shared/rich_project_chbe-medford/medford-share/data/pseudos_module/espresso/nninc/pbe/van/C.UPF
     MD5 check sum: 1a69bf6b8db32088f5b2163dbdb77a27
     Pseudo is Ultrasoft, Zval =  4.0
     Generated by new atomic code, or converted to UPF format
     Using radial grid of  721 points,  4 beta functions with:
                l(1) =   0
                l(2) =   0
                l(3) =   1
                l(4) =   1
     Q(r) pseudized with  8 coefficients,  rinner =    0.800   0.800   0.800

     PseudoPot. # 4 for H  read from file:
     /storage/coda1/p-amedford6/0/shared/rich_project_chbe-medford/medford-share/data/pseudos_module/espresso/nninc/pbe/van/H.UPF
     MD5 check sum: b5ee9d7bfd3a09ee7748110bda690ff7
     Pseudo is Ultrasoft, Zval =  1.0
     Generated by new atomic code, or converted to UPF format
     Using radial grid of  615 points,  1 beta functions with:
                l(1) =   0
     Q(r) pseudized with  8 coefficients,  rinner =    0.800

     PseudoPot. # 5 for N  read from file:
     /storage/coda1/p-amedford6/0/shared/rich_project_chbe-medford/medford-share/data/pseudos_module/espresso/nninc/pbe/van/N.UPF
     MD5 check sum: 90d10febe142ad51ac9d5be1deb811c4
     Pseudo is Ultrasoft, Zval =  5.0
     Generated by new atomic code, or converted to UPF format
     Using radial grid of  729 points,  4 beta functions with:
                l(1) =   0
                l(2) =   0
                l(3) =   1
                l(4) =   1
     Q(r) pseudized with  8 coefficients,  rinner =    0.800   0.800   0.800

     atomic species   valence    mass     pseudopotential
        Ti1           12.00    47.86700     Ti( 1.00)
        O1             6.00    15.99900     O ( 1.00)
        C1             4.00    12.01100     C ( 1.00)
        H1             1.00     1.00800     H ( 1.00)
        N1             5.00    14.00700     N ( 1.00)

     No symmetry found

   Cartesian axes

     site n.     atom                  positions (alat units)
         1           Ti1 tau(   1) = (   0.0004258   2.9801865   6.0000000  )
         2           Ti1 tau(   2) = (   3.2906075   1.4906267   6.0002472  )
         3           O1  tau(   3) = (   0.0006271   0.0005054   7.9858123  )
         4           O1  tau(   4) = (   3.2906025   0.0005020   7.3038282  )
         5           O1  tau(   5) = (   4.5942328   1.4918067   9.2879030  )
         6           O1  tau(   6) = (   1.9868534   1.4903216   9.2879459  )
         7           Ti1 tau(   7) = (   3.2907910   2.8959150   9.1758416  )
         8           Ti1 tau(   8) = (   0.0015273   1.4827037   9.2680791  )
         9           O1  tau(   9) = (   3.2982821   5.9591942  11.3418950  )
        10           O1  tau(  10) = (   0.0116148   5.9584955  10.6183126  )
        11           O1  tau(  11) = (   1.2990089   1.4837789  12.6285733  )
        12           O1  tau(  12) = (   5.2904647   1.4888503  12.6163117  )
        13           Ti1 tau(  13) = (   0.0603338   2.9457994  12.6026339  )
        14           Ti1 tau(  14) = (   3.3706290   1.4705258  12.5092779  )
        15           O1  tau(  15) = (   6.5788109   0.0160518  14.6499261  )
        16           O1  tau(  16) = (   3.3158691   0.0087694  13.9605792  )
        17           O1  tau(  17) = (   4.5613999   1.5213109  16.0555727  )
        18           O1  tau(  18) = (   2.0390476   1.5587733  16.0026688  )
        19           Ti1 tau(  19) = (   3.2958454   3.0042652  15.6812246  )
        20           Ti1 tau(  20) = (   0.0477533   1.5223793  15.8108347  )
        21           O1  tau(  21) = (   3.2904802   0.0005063   4.7018136  )
        22           O1  tau(  22) = (   0.0778492   0.0082781  17.2116806  )
        23           O1  tau(  23) = (   1.3043587   1.4918075   6.0039043  )
        24           O1  tau(  24) = (   5.2767064   1.4903225   6.0039473  )
        25           Ti1 tau(  25) = (   0.0000382   5.9609847   6.0000000  )
        26           Ti1 tau(  26) = (   3.2902200   4.4714249   6.0002472  )
        27           O1  tau(  27) = (   0.0002396   2.9813036   7.9858123  )
        28           O1  tau(  28) = (   3.2902150   2.9813002   7.3038282  )
        29           O1  tau(  29) = (   4.5938453   4.4726049   9.2879030  )
        30           O1  tau(  30) = (   1.9864658   4.4711199   9.2879459  )
        31           Ti1 tau(  31) = (   3.2891106   5.8743827   9.1763621  )
        32           Ti1 tau(  32) = (   0.0006254   4.4649316   9.2693709  )
        33           O1  tau(  33) = (   3.3003553   2.9806904  11.3444413  )
        34           O1  tau(  34) = (   0.0092240   2.9805883  10.6323155  )
        35           O1  tau(  35) = (   1.2971990   4.4717445  12.6361083  )
        36           O1  tau(  36) = (   5.2938362   4.4783115  12.6231241  )
        37           Ti1 tau(  37) = (   0.0537182   5.9220384  12.5388396  )
        38           Ti1 tau(  38) = (   3.3696634   4.4695314  12.5002334  )
        39           O1  tau(  39) = (   0.0023790   2.9538485  14.6690360  )
        40           O1  tau(  40) = (   3.3142834   2.9899978  13.8932647  )
        41           O1  tau(  41) = (   4.5682027   4.4688565  16.0600133  )
        42           O1  tau(  42) = (   2.0418658   4.4415600  16.0251682  )
        43           Ti1 tau(  43) = (   3.3511655   0.0130708  15.8150828  )
        44           Ti1 tau(  44) = (   0.0311020   4.6533438  16.0685068  )
        45           O1  tau(  45) = (   3.2900926   2.9813045   4.7018136  )
        46           O1  tau(  46) = (   1.3039711   4.4726057   6.0039043  )
        47           O1  tau(  47) = (   5.2763189   4.4711207   6.0039473  )
        48           C1  tau(  48) = (   0.0453995   2.9433715  17.6444507  )
        49           H1  tau(  49) = (   0.9770157   2.9292850  18.2072415  )
        50           N1  tau(  50) = (   5.5932985   2.7872967  18.4085793  )
        51           N1  tau(  51) = (   4.6187457   2.6299947  18.9712495  )
        52           O1  tau(  52) = (   3.0556172   5.9408547  18.1262901  )
        53           H1  tau(  53) = (   3.4776725   0.7204629  18.5958315  )
        54           H1  tau(  54) = (   2.0935776   0.0631959  18.2589326  )

     number of k points=    10  Fermi-Dirac smearing, width (Ry)=  0.0073
                       cart. coord. in units 2pi/alat
        k(    1) = (   0.0000000   0.0000000   0.0000000), wk =   0.1250000
        k(    2) = (   0.0000000   0.0419351   0.0000000), wk =   0.2500000
        k(    3) = (   0.0000000  -0.0838702   0.0000000), wk =   0.1250000
        k(    4) = (   0.0379955   0.0000049   0.0000000), wk =   0.2500000
        k(    5) = (   0.0379955   0.0419400   0.0000000), wk =   0.2500000
        k(    6) = (   0.0379955  -0.0838652   0.0000000), wk =   0.2500000
        k(    7) = (   0.0379955  -0.0419301   0.0000000), wk =   0.2500000
        k(    8) = (  -0.0759910  -0.0000099   0.0000000), wk =   0.1250000
        k(    9) = (  -0.0759910   0.0419252   0.0000000), wk =   0.2500000
        k(   10) = (  -0.0759910  -0.0838800   0.0000000), wk =   0.1250000

     Initial potential from superposition of free atoms

     starting charge  384.99916, renormalised to  401.00000

     negative rho (up, down):  1.776E-02 0.000E+00

     %%%%%%%%%%%%%%%%%%%%%%%%%%%%%%%%%%%%%%%%%%%%%%%%%%%%%%%%%%%%%%%%%%%%%%%%
     %                                                                      %
     % You are using vdW-DF, which was implemented by the Thonhauser group. %
     % Please cite the following two papers that made this development      %
     % possible and the two reviews that describe the various versions:     %
     %                                                                      %
     %   T. Thonhauser et al., PRL 115, 136402 (2015).                      %
     %   T. Thonhauser et al., PRB 76, 125112 (2007).                       %
     %   K. Berland et al., Rep. Prog. Phys. 78, 066501 (2015).             %
     %   D.C. Langreth et al., J. Phys.: Condens. Matter 21, 084203 (2009). %
     %                                                                      %
     %                                                                      %
     % If you are calculating the stress with vdW-DF, please also cite:     %
     %                                                                      %
     %   R. Sabatini et al., J. Phys.: Condens. Matter 24, 424209 (2012).   %
     %                                                                      %
     %%%%%%%%%%%%%%%%%%%%%%%%%%%%%%%%%%%%%%%%%%%%%%%%%%%%%%%%%%%%%%%%%%%%%%%%

     Adding external electric field

     Computed dipole along edir(3) :
        Dipole              -11.5984 Ry au,        -29.4801 Debye
        Dipole field         -0.0219 Ry au,

        Potential amp.        2.0290 Ry
        Total length         46.3494 bohr

     Starting wfcs are  303 atomic wfcs
  @ DRIVER MODE: Message from server: STATUS
  @ DRIVER MODE: Message from server: POSDATA
  @ DRIVER MODE: Reading and sharing cell
  @ DRIVER MODE: Reading and sharing positions
  @ DRIVER MODE: Received positions

     Self-consistent Calculation

     iteration #  1     ecut=    29.40 Ry     beta= 0.05
     Davidson diagonalization with overlap
     c_bands:  3 eigenvalues not converged
     c_bands:  2 eigenvalues not converged
     c_bands:  3 eigenvalues not converged
     c_bands:  3 eigenvalues not converged
     c_bands:  4 eigenvalues not converged
     c_bands:  2 eigenvalues not converged
     c_bands:  3 eigenvalues not converged
     c_bands:  1 eigenvalues not converged
     c_bands:  5 eigenvalues not converged
     ethr =  1.00E-05,  avg # of iterations = 23.5

[...]

     total energy              =   -2415.38473674 Ry
     estimated scf accuracy    <    6267.12545483 Ry

     iteration #  2     ecut=    29.40 Ry     beta= 0.05
     Davidson diagonalization with overlap
     ethr =  1.00E-02,  avg # of iterations = 31.1

[...]

     iteration # 75     ecut=    29.40 Ry     beta= 0.05
     Davidson diagonalization with overlap
     c_bands:  1 eigenvalues not converged
     ethr =  2.55E-11,  avg # of iterations = 12.2

[...]

     total energy              =   -2971.50184099 Ry
     estimated scf accuracy    <       0.00000008 Ry

     iteration # 76     ecut=    29.40 Ry     beta= 0.05
     Davidson diagonalization with overlap
     ethr =  1.95E-11,  avg # of iterations =  1.8

     negative rho (up, down):  1.756E-02 0.000E+00

     Adding external electric field

     Computed dipole along edir(3) :
        Dipole                0.5888 Ry au,          1.4965 Debye
        Dipole field          0.0011 Ry au,

        Potential amp.       -0.1030 Ry
        Total length         46.3494 bohr

     End of self-consistent calculation

          k = 0.0000 0.0000 0.0000 ( 18029 PWs)   bands (ev):

   -55.8745 -55.8405 -55.8404 -55.8358 -55.8038 -55.7177 -55.6889 -55.6802
   -55.6551 -55.6548 -55.6458 -55.6212 -55.4035 -55.2132 -54.8563 -54.8222
   -32.3830 -32.3579 -32.2415 -32.2129 -32.1876 -32.1669 -32.1449 -32.1388
   -32.1183 -32.0663 -32.0620 -32.0595 -32.0269 -32.0211 -32.0160 -31.9897
   -31.9798 -31.9724 -31.9654 -31.9374 -31.9318 -31.9143 -31.8915 -31.8823
   -31.8796 -31.8676 -31.8670 -31.8533 -31.8454 -31.8421 -31.8308 -31.8275
   -31.8239 -31.8188 -31.8082 -31.7964 -31.7670 -31.6528 -31.6178 -31.4737
   -31.4577 -31.4252 -31.2635 -31.1748 -31.1524 -31.0802 -30.9937 -30.8826
   -20.6583 -18.7938 -16.5774 -16.3471 -16.1240 -16.0323 -15.9871 -15.7772
   -15.6680 -15.6121 -15.4887 -15.4239 -15.4165 -15.4093 -15.3878 -15.3791
   -15.3215 -15.3125 -15.2987 -15.2932 -15.2654 -15.2279 -15.2126 -15.2113
   -15.1391 -15.0375 -15.0157 -14.9923 -14.9905 -14.9323 -14.4912 -13.6302
   -13.3584 -13.2419  -6.6335  -5.8326  -4.7545  -4.5684  -3.9513  -3.8170
    -3.7815  -3.7494  -3.7105  -3.5153  -3.4972  -3.3754  -3.2353  -3.1242
    -3.0550  -3.0209  -2.9659  -2.8901  -2.8206  -2.7591  -2.7233  -2.6803
    -2.6716  -2.6362  -2.6289  -2.6109  -2.5934  -2.4911  -2.4582  -2.4073
    -2.3431  -2.2403  -2.2202  -2.1883  -2.1840  -2.1486  -2.1407  -2.1188
    -2.1016  -2.0919  -2.0173  -1.9208  -1.8709  -1.7787  -1.6669  -1.5279
    -1.5271  -1.4817  -1.3548  -1.3404  -1.3103  -1.2840  -1.2681  -1.2321
    -1.1367  -1.0806  -1.0341  -0.9719  -0.8977  -0.8090  -0.7674  -0.7158
    -0.6506  -0.6342  -0.6259  -0.6081  -0.5700  -0.4653  -0.4417  -0.3664
    -0.3604  -0.2749  -0.2434  -0.1836  -0.1522  -0.1141  -0.0754  -0.0011
     0.0183   0.0430   0.0616   0.0887   0.0980   0.1391   0.1723   0.1769
     0.3719   0.3981   0.4572   0.4669   0.5272   0.6476   0.6663   0.7806
     0.8973   1.0932   1.1663   1.2595   1.3581   1.7376   1.7835   1.7921
     3.2488   3.3465   3.3850   3.3940   3.4809   3.4931   3.7101   3.7557
     3.7637   3.8186

[...]

          k = 0.0380-0.0419 0.0000 ( 17876 PWs)   bands (ev):

[...]

          k =-0.0760-0.0000 0.0000 ( 17886 PWs)   bands (ev):

[...]

          k =-0.0760-0.0839 0.0000 ( 17948 PWs)   bands (ev):

   -55.8579 -55.8570 -55.8347 -55.8249 -55.8185 -55.7064 -55.6916 -55.6722
   -55.6709 -55.6472 -55.6400 -55.6364 -55.4021 -55.2145 -54.8393 -54.8391
   -32.2000 -32.1777 -32.1735 -32.1729 -32.1527 -32.1519 -32.1255 -32.0985
   -32.0852 -32.0574 -32.0494 -32.0457 -32.0318 -32.0016 -31.9931 -31.9864
   -31.9787 -31.9784 -31.9776 -31.9762 -31.9746 -31.9723 -31.9539 -31.9200
   -31.9077 -31.9030 -31.8950 -31.8741 -31.8735 -31.8699 -31.8627 -31.8553
   -31.8515 -31.8481 -31.8449 -31.8424 -31.7762 -31.6561 -31.6110 -31.5301
   -31.4760 -31.4484 -31.1651 -31.1650 -31.0763 -31.0761 -31.0370 -31.0369
   -20.6577 -18.7929 -16.0384 -15.9218 -15.8399 -15.7991 -15.7315 -15.6947
   -15.6486 -15.5836 -15.5540 -15.5507 -15.4963 -15.4807 -15.4400 -15.4257
   -15.4005 -15.3944 -15.3781 -15.3299 -15.3178 -15.3094 -15.3010 -15.2973
   -15.2558 -15.2218 -15.1967 -15.1924 -15.0862 -14.9547 -14.6662 -13.6390
   -13.3437 -13.3436  -6.6313  -5.8306  -4.7112  -4.5440  -3.6410  -3.3314
    -3.3174  -3.0976  -3.0443  -2.9855  -2.9797  -2.9346  -2.8116  -2.7842
    -2.7356  -2.7279  -2.6884  -2.6831  -2.6783  -2.6588  -2.6252  -2.6064
    -2.6011  -2.5499  -2.5439  -2.5371  -2.5197  -2.5089  -2.5014  -2.4768
    -2.4508  -2.4345  -2.4182  -2.3890  -2.3091  -2.2761  -2.1067  -2.0655
    -2.0178  -2.0093  -1.9785  -1.9586  -1.9456  -1.9242  -1.8804  -1.7242
    -1.6468  -1.5797  -1.5675  -1.5583  -1.4847  -1.4680  -1.3565  -1.3189
    -1.2852  -1.2522  -1.1777  -1.0987  -1.0911  -1.0699  -0.9641  -0.9568
    -0.9239  -0.8803  -0.8407  -0.8296  -0.8212  -0.7446  -0.6886  -0.6158
    -0.6095  -0.5855  -0.5726  -0.5462  -0.5206  -0.4296  -0.3602  -0.3046
    -0.2715  -0.1839  -0.1540   0.0696   0.0877   0.2016   0.2147   0.2825
     0.3242   0.4328   0.4410   0.4880   0.5114   0.5370   0.5978   0.6649
     0.6747   0.7018   0.8199   1.5294   1.5307   1.6031   1.6034   1.7061
     3.5675   3.5994   3.6318   3.6420   3.7517   3.7721   3.7924   3.7949
     3.9109   3.9304

     the Fermi energy is     3.2565 ev

!    total energy              =   -2971.50185313 Ry
     estimated scf accuracy    <       0.00000006 Ry
     smearing contrib. (-TS)   =      -0.02121925 Ry
     internal energy E=F+TS    =   -2971.48063388 Ry

     The total energy is F=E-TS. E is the sum of the following terms:
     one-electron contribution =  -24214.34188529 Ry
     hartree contribution      =   12197.89806578 Ry
     xc contribution           =    -492.41247805 Ry
     ewald contribution        =    9537.37500949 Ry
     electric field correction =       0.00065419 Ry

     convergence has been achieved in  76 iterations

     Forces acting on atoms (cartesian axes, Ry/au):

     atom    1 type  1   force =     0.00019245   -0.00029181    0.09587119
     atom    2 type  1   force =    -0.00004555   -0.00048057   -0.17570698
     atom    3 type  2   force =     0.00007220   -0.00013856   -0.02404858
     atom    4 type  2   force =     0.00005862   -0.00155699    0.05358543
     atom    5 type  2   force =    -0.01130549   -0.00084899    0.00337139
     atom    6 type  2   force =     0.01317688   -0.00018628    0.00286083
     atom    7 type  1   force =    -0.00060059    0.00053017   -0.00604587
     atom    8 type  1   force =     0.00022496    0.00884023    0.02325371
     atom    9 type  2   force =    -0.00020541    0.00014008   -0.00007790
     atom   10 type  2   force =    -0.00060162    0.00120928   -0.01589726
     atom   11 type  2   force =    -0.00017123    0.00014090   -0.00004622
     atom   12 type  2   force =    -0.00021132   -0.00007557   -0.00017549
     atom   13 type  1   force =     0.00000385    0.00057573    0.00027202
     atom   14 type  1   force =    -0.00005056    0.00003509   -0.00005869
     atom   15 type  2   force =    -0.00029020   -0.00019622   -0.00024546
     atom   16 type  2   force =    -0.00020263    0.00023932    0.00001340
     atom   17 type  2   force =    -0.00036179    0.00006910    0.00040049
     atom   18 type  2   force =    -0.00026777    0.00017490   -0.00003273
     atom   19 type  1   force =    -0.00028333   -0.00033084   -0.00051139
     atom   20 type  1   force =    -0.00010940    0.00008363    0.00042209
     atom   21 type  2   force =     0.00006294   -0.00004410    0.10323705
     atom   22 type  2   force =     0.00016557    0.00021568    0.00005368
     atom   23 type  2   force =    -0.07142985   -0.00012518   -0.02766595
     atom   24 type  2   force =     0.07141284    0.00029846   -0.02769731
     atom   25 type  1   force =     0.00003077   -0.00024167    0.09564742
     atom   26 type  1   force =    -0.00015411   -0.00036810   -0.17586149
     atom   27 type  2   force =     0.00010098   -0.00020152   -0.02304832
     atom   28 type  2   force =     0.00012458   -0.00122071    0.05310072
     atom   29 type  2   force =    -0.01155426    0.00061984    0.00328660
     atom   30 type  2   force =     0.01329663    0.00092906    0.00278850
     atom   31 type  1   force =    -0.00046924    0.00377922   -0.01064331
     atom   32 type  1   force =     0.00008391   -0.01102791    0.02366097
     atom   33 type  2   force =     0.00011550   -0.00003429    0.00003925
     atom   34 type  2   force =     0.00007749    0.00061872   -0.02083578
     atom   35 type  2   force =    -0.00017877   -0.00022789   -0.00000178
     atom   36 type  2   force =    -0.00040133    0.00001117   -0.00009715
     atom   37 type  1   force =     0.00033432   -0.00052263    0.00005631
     atom   38 type  1   force =     0.00001171   -0.00000505   -0.00022772
     atom   39 type  2   force =    -0.00035094    0.00004390   -0.00010231
     atom   40 type  2   force =     0.00003730   -0.00015545   -0.00023024
     atom   41 type  2   force =    -0.00041872   -0.00025850    0.00013606
     atom   42 type  2   force =     0.00022278   -0.00001028   -0.00001237
     atom   43 type  1   force =     0.00014029   -0.00045907   -0.00053924
     atom   44 type  1   force =    -0.00012208   -0.00074926    0.00055054
     atom   45 type  2   force =     0.00006382   -0.00008370    0.10322143
     atom   46 type  2   force =    -0.07143741   -0.00009996   -0.02769103
     atom   47 type  2   force =     0.07143774    0.00033704   -0.02771641
     atom   48 type  3   force =     0.00168934    0.00051980   -0.00198406
     atom   49 type  4   force =    -0.00007060    0.00016775    0.00025893
     atom   50 type  5   force =     0.03186582    0.00523135   -0.01693168
     atom   51 type  5   force =    -0.03339162   -0.00493862    0.01821951
     atom   52 type  2   force =    -0.00042936    0.00009178    0.00011207
     atom   53 type  4   force =     0.00002784   -0.00014974    0.00041667
     atom   54 type  4   force =     0.00008409    0.00012724   -0.00070353

     Total force =     0.370613     Total SCF correction =     0.000727
  @ DRIVER MODE: Message from server: STATUS
  @ DRIVER MODE: Message from server: GETFORCE
  @ DRIVER MODE: Returning v,forces,stress,ensemble

     Writing output data file ./calc.save/
  @ DRIVER MODE: Message from server: EXIT
  @ DRIVE MODE: Exiting

     General routines

     Parallel routines

   This run was terminated on:  22:13:15  15Sep2021

   JOB DONE.