     Program PWSCF v.6.7GPU starts on 22Sep2021 at  6:32: 7

     R & G space division:  proc/nbgrp/npool/nimage =      10
     Reading input from /storage/home/hcoda1/3/ntian30/research/carbon/CxH_vib/CH_calc/ads_slab/CHNHNH2H2O_b/out_0024/pw.inp
Warning: card &CELL ignored
Warning: card   CELL_DYNAMICS='IPI', ignored
Warning: card / ignored

     Current dimensions of program PWSCF are:
     Max number of different atomic species (ntypx) = 10
     Max number of k-points (npk) =  40000
     Max angular momentum in pseudopotentials (lmaxx) =  3
     Presently no symmetry can be used with electric field

     Message from routine cell_base_init:
     DEPRECATED: use true lattice parameter, not A to a.u. conversion factor

     IMPORTANT: XC functional enforced from input :
     Exchange-correlation= BEEF-VDW
                           (   1   4  43  14   2   0   0)
     Any further DFT definition will be discarded
     Please, verify this is what you really want

  @ DRIVER MODE: Connecting to
 qe_1139763_2927425.sched-torque.pace.gatech.eduuig9zlsb_scratch
  using UNIX socket
  @ DRIVER MODE: Message from server: STATUS
  @ DRIVER MODE: Message from server: INIT
  @ DRIVER MODE: Receiving replica           0          -1
  @ DRIVER MODE: Receiving encoded integer          25
  @ DRIVER MODE:  SCF:  T  FORCE:  T  STRESS:  F  VC:  F  ENSEMBLE:  F
  @ DRIVER MODE:  SCF:  T  FORCE:  T  STRESS:  F  VC:  F  ENSEMBLE:  F

     Using Slab Decomposition

     bravais-lattice index     =            0
     lattice parameter (alat)  =       1.8897  a.u.
     unit-cell volume          =    6658.9804 (a.u.)^3
     number of atoms/cell      =           57
     number of atomic types    =            5
     number of electrons       =       404.00
     number of Kohn-Sham states=          212
     kinetic-energy cutoff     =      29.3995  Ry
     charge density cutoff     =     293.9946  Ry
     scf convergence threshold =      7.3E-08
     mixing beta               =       0.0500
     number of iterations used =            8  plain     mixing
     Exchange-correlation= BEEF-VDW
                           (   1   4  43  14   2   0   0)

     celldm(1)=   1.889726  celldm(2)=   0.000000  celldm(3)=   0.000000
     celldm(4)=   0.000000  celldm(5)=   0.000000  celldm(6)=   0.000000

     crystal axes: (cart. coord. in units of alat)
               a(1) = (   6.579727   0.000000   0.000000 )
               a(2) = (  -0.000775   5.961596   0.000000 )
               a(3) = (   0.000000   0.000000  25.155947 )

     reciprocal axes: (cart. coord. in units 2 pi/alat)
               b(1) = (  0.151982  0.000020  0.000000 )
               b(2) = (  0.000000  0.167740  0.000000 )
               b(3) = (  0.000000  0.000000  0.039752 )

     PseudoPot. # 1 for Ti read from file:
     /storage/coda1/p-amedford6/0/shared/rich_project_chbe-medford/medford-share/data/pseudos_module/espresso/nninc/pbe/van/Ti.UPF
     MD5 check sum: 8e4df49b7f0d34bbd5052bf3f5ea0213
     Pseudo is Ultrasoft, Zval = 12.0
     Generated by new atomic code, or converted to UPF format
     Using radial grid of  851 points,  6 beta functions with:
                l(1) =   0
                l(2) =   0
                l(3) =   1
                l(4) =   1
                l(5) =   2
                l(6) =   2
     Q(r) pseudized with  8 coefficients,  rinner =    1.000   1.000   1.000
                                                       1.000   1.000

     PseudoPot. # 2 for O  read from file:
     /storage/coda1/p-amedford6/0/shared/rich_project_chbe-medford/medford-share/data/pseudos_module/espresso/nninc/pbe/van/O.UPF
     MD5 check sum: 78c19812648e8988a0fe644b0f25305e
     Pseudo is Ultrasoft, Zval =  6.0
     Generated by new atomic code, or converted to UPF format
     Using radial grid of  737 points,  4 beta functions with:
                l(1) =   0
                l(2) =   0
                l(3) =   1
                l(4) =   1
     Q(r) pseudized with  8 coefficients,  rinner =    0.800   0.800   0.800

     PseudoPot. # 3 for N  read from file:
     /storage/coda1/p-amedford6/0/shared/rich_project_chbe-medford/medford-share/data/pseudos_module/espresso/nninc/pbe/van/N.UPF
     MD5 check sum: 90d10febe142ad51ac9d5be1deb811c4
     Pseudo is Ultrasoft, Zval =  5.0
     Generated by new atomic code, or converted to UPF format
     Using radial grid of  729 points,  4 beta functions with:
                l(1) =   0
                l(2) =   0
                l(3) =   1
                l(4) =   1
     Q(r) pseudized with  8 coefficients,  rinner =    0.800   0.800   0.800

     PseudoPot. # 4 for C  read from file:
     /storage/coda1/p-amedford6/0/shared/rich_project_chbe-medford/medford-share/data/pseudos_module/espresso/nninc/pbe/van/C.UPF
     MD5 check sum: 1a69bf6b8db32088f5b2163dbdb77a27
     Pseudo is Ultrasoft, Zval =  4.0
     Generated by new atomic code, or converted to UPF format
     Using radial grid of  721 points,  4 beta functions with:
                l(1) =   0
                l(2) =   0
                l(3) =   1
                l(4) =   1
     Q(r) pseudized with  8 coefficients,  rinner =    0.800   0.800   0.800

     PseudoPot. # 5 for H  read from file:
     /storage/coda1/p-amedford6/0/shared/rich_project_chbe-medford/medford-share/data/pseudos_module/espresso/nninc/pbe/van/H.UPF
     MD5 check sum: b5ee9d7bfd3a09ee7748110bda690ff7
     Pseudo is Ultrasoft, Zval =  1.0
     Generated by new atomic code, or converted to UPF format
     Using radial grid of  615 points,  1 beta functions with:
                l(1) =   0
     Q(r) pseudized with  8 coefficients,  rinner =    0.800

     atomic species   valence    mass     pseudopotential
        Ti1           12.00    47.86700     Ti( 1.00)
        O1             6.00    15.99900     O ( 1.00)
        N1             5.00    14.00700     N ( 1.00)
        C1             4.00    12.01100     C ( 1.00)
        H1             1.00     1.00800     H ( 1.00)

     No symmetry found

   Cartesian axes

     site n.     atom                  positions (alat units)
         1           Ti1 tau(   1) = (   0.0004258   2.9801865   6.0000000  )
         2           Ti1 tau(   2) = (   3.2906075   1.4906267   6.0002472  )
         3           O1  tau(   3) = (   0.0006271   0.0005054   7.9858123  )
         4           O1  tau(   4) = (   3.2906025   0.0005020   7.3038282  )
         5           O1  tau(   5) = (   4.5942328   1.4918067   9.2879030  )
         6           O1  tau(   6) = (   1.9868534   1.4903216   9.2879459  )
         7           Ti1 tau(   7) = (   3.2907910   2.8959150   9.1758416  )
         8           Ti1 tau(   8) = (   0.0015273   1.4827037   9.2680791  )
         9           O1  tau(   9) = (   3.3066417   5.9496923  11.3845403  )
        10           O1  tau(  10) = (   0.0116148   5.9584955  10.6183126  )
        11           O1  tau(  11) = (   1.3010148   1.4986442  12.6442229  )
        12           O1  tau(  12) = (   5.3085967   1.5001388  12.6592367  )
        13           Ti1 tau(  13) = (   0.0282779   2.9853959  12.5065338  )
        14           Ti1 tau(  14) = (   3.3279724   1.4707331  12.5413945  )
        15           O1  tau(  15) = (   0.0378505   0.0859181  14.6860672  )
        16           O1  tau(  16) = (   3.3018867   0.0259462  14.0338077  )
        17           O1  tau(  17) = (   4.5998927   1.5484098  16.1661054  )
        18           O1  tau(  18) = (   2.0454451   1.5021798  16.2221046  )
        19           Ti1 tau(  19) = (   3.3206312   2.9825829  15.7321521  )
        20           Ti1 tau(  20) = (   0.0140791   1.4435866  15.9983415  )
        21           O1  tau(  21) = (   3.2904802   0.0005063   4.7018136  )
        22           O1  tau(  22) = (   6.5273045   5.8164216  17.2577718  )
        23           O1  tau(  23) = (   1.3043587   1.4918075   6.0039043  )
        24           O1  tau(  24) = (   5.2767064   1.4903225   6.0039473  )
        25           Ti1 tau(  25) = (   0.0000382   5.9609847   6.0000000  )
        26           Ti1 tau(  26) = (   3.2902200   4.4714249   6.0002472  )
        27           O1  tau(  27) = (   0.0002396   2.9813036   7.9858123  )
        28           O1  tau(  28) = (   3.2902150   2.9813002   7.3038282  )
        29           O1  tau(  29) = (   4.5938453   4.4726049   9.2879030  )
        30           O1  tau(  30) = (   1.9864658   4.4711199   9.2879459  )
        31           Ti1 tau(  31) = (   3.2891106   5.8743827   9.1763621  )
        32           Ti1 tau(  32) = (   0.0006254   4.4649316   9.2693709  )
        33           O1  tau(  33) = (   3.3068470   2.9864458  11.3814114  )
        34           O1  tau(  34) = (   0.0092240   2.9805883  10.6323155  )
        35           O1  tau(  35) = (   1.2982948   4.4740332  12.6840172  )
        36           O1  tau(  36) = (   5.3097620   4.4704985  12.6972095  )
        37           Ti1 tau(  37) = (   0.0348817   0.0130325  12.4954113  )
        38           Ti1 tau(  38) = (   3.3270268   4.4633798  12.5435021  )
        39           O1  tau(  39) = (   0.0563025   2.9439880  14.9425960  )
        40           O1  tau(  40) = (   3.2900316   2.9661073  13.9503945  )
        41           O1  tau(  41) = (   4.5967999   4.4093095  16.0633277  )
        42           O1  tau(  42) = (   2.0412097   4.4536800  16.1303113  )
        43           Ti1 tau(  43) = (   3.2964201   5.9600488  15.8742613  )
        44           Ti1 tau(  44) = (   0.0241369   4.6516137  15.8518307  )
        45           O1  tau(  45) = (   3.2900926   2.9813045   4.7018136  )
        46           O1  tau(  46) = (   1.3039711   4.4726057   6.0039043  )
        47           O1  tau(  47) = (   5.2763189   4.4711207   6.0039473  )
        48           N1  tau(  48) = (   1.4509408   2.7109095  18.7602185  )
        49           N1  tau(  49) = (   0.0917387   2.5303350  18.2207845  )
        50           C1  tau(  50) = (   1.9503960   3.7723240  19.2784661  )
        51           H1  tau(  51) = (   1.1612915   4.5273475  19.4252495  )
        52           H1  tau(  52) = (   2.0208952   1.9183395  18.4664618  )
        53           H1  tau(  53) = (   6.1377449   3.3539424  18.4987646  )
        54           H1  tau(  54) = (   6.2616785   1.7135167  18.6767212  )
        55           O1  tau(  55) = (   3.7012217   5.9496235  18.2853534  )
        56           H1  tau(  56) = (   4.6684668   5.8470116  18.1670174  )
        57           H1  tau(  57) = (   3.3852657   5.1278045  18.7338684  )

     number of k points=    10  Fermi-Dirac smearing, width (Ry)=  0.0073
                       cart. coord. in units 2pi/alat
        k(    1) = (   0.0000000   0.0000000   0.0000000), wk =   0.1250000
        k(    2) = (   0.0000000   0.0419351   0.0000000), wk =   0.2500000
        k(    3) = (   0.0000000  -0.0838702   0.0000000), wk =   0.1250000
        k(    4) = (   0.0379955   0.0000049   0.0000000), wk =   0.2500000
        k(    5) = (   0.0379955   0.0419400   0.0000000), wk =   0.2500000
        k(    6) = (   0.0379955  -0.0838652   0.0000000), wk =   0.2500000
        k(    7) = (   0.0379955  -0.0419301   0.0000000), wk =   0.2500000
        k(    8) = (  -0.0759910  -0.0000099   0.0000000), wk =   0.1250000
        k(    9) = (  -0.0759910   0.0419252   0.0000000), wk =   0.2500000
        k(   10) = (  -0.0759910  -0.0838800   0.0000000), wk =   0.1250000

     Initial potential from superposition of free atoms

     starting charge  387.99913, renormalised to  404.00000

     negative rho (up, down):  1.597E-02 0.000E+00

     %%%%%%%%%%%%%%%%%%%%%%%%%%%%%%%%%%%%%%%%%%%%%%%%%%%%%%%%%%%%%%%%%%%%%%%%
     %                                                                      %
     % You are using vdW-DF, which was implemented by the Thonhauser group. %
     % Please cite the following two papers that made this development      %
     % possible and the two reviews that describe the various versions:     %
     %                                                                      %
     %   T. Thonhauser et al., PRL 115, 136402 (2015).                      %
     %   T. Thonhauser et al., PRB 76, 125112 (2007).                       %
     %   K. Berland et al., Rep. Prog. Phys. 78, 066501 (2015).             %
     %   D.C. Langreth et al., J. Phys.: Condens. Matter 21, 084203 (2009). %
     %                                                                      %
     %                                                                      %
     % If you are calculating the stress with vdW-DF, please also cite:     %
     %                                                                      %
     %   R. Sabatini et al., J. Phys.: Condens. Matter 24, 424209 (2012).   %
     %                                                                      %
     %%%%%%%%%%%%%%%%%%%%%%%%%%%%%%%%%%%%%%%%%%%%%%%%%%%%%%%%%%%%%%%%%%%%%%%%

     Adding external electric field

     Computed dipole along edir(3) :
        Dipole              -14.3593 Ry au,        -36.4977 Debye
        Dipole field         -0.0271 Ry au,

        Potential amp.        2.5119 Ry
        Total length         46.3494 bohr

     Starting wfcs are  306 atomic wfcs
  @ DRIVER MODE: Message from server: STATUS
  @ DRIVER MODE: Message from server: POSDATA
  @ DRIVER MODE: Reading and sharing cell
  @ DRIVER MODE: Reading and sharing positions
  @ DRIVER MODE: Received positions

     Self-consistent Calculation

     iteration #  1     ecut=    29.40 Ry     beta= 0.05
     Davidson diagonalization with overlap
     c_bands:  3 eigenvalues not converged
     c_bands:  4 eigenvalues not converged
     c_bands:  4 eigenvalues not converged
     c_bands:  4 eigenvalues not converged
     c_bands:  5 eigenvalues not converged
     c_bands:  3 eigenvalues not converged
     c_bands:  2 eigenvalues not converged
     c_bands:  4 eigenvalues not converged
     ethr =  1.00E-05,  avg # of iterations = 21.9

[...]

     total energy              =   -2220.99825418 Ry
     estimated scf accuracy    <    8586.79695963 Ry

     iteration #  2     ecut=    29.40 Ry     beta= 0.05
     Davidson diagonalization with overlap
     ethr =  1.00E-02,  avg # of iterations = 27.7

[...]

     iteration # 73     ecut=    29.40 Ry     beta= 0.05
     Davidson diagonalization with overlap
     c_bands:  1 eigenvalues not converged
     ethr =  2.13E-10,  avg # of iterations = 14.3

[...]

     total energy              =   -2975.10527840 Ry
     estimated scf accuracy    <       0.00000009 Ry

     iteration # 77     ecut=    29.40 Ry     beta= 0.05
     Davidson diagonalization with overlap
     ethr =  2.22E-11,  avg # of iterations =  7.3

     negative rho (up, down):  1.578E-02 0.000E+00

     Adding external electric field

     Computed dipole along edir(3) :
        Dipole                1.0267 Ry au,          2.6096 Debye
        Dipole field          0.0019 Ry au,

        Potential amp.       -0.1796 Ry
        Total length         46.3494 bohr

     End of self-consistent calculation

          k = 0.0000 0.0000 0.0000 ( 18029 PWs)   bands (ev):

   -55.3833 -55.3475 -55.3435 -55.3094 -55.3062 -55.3005 -55.2654 -55.2301
   -55.2149 -55.1801 -55.1734 -55.1581 -55.1397 -55.1104 -54.3749 -54.3408
   -31.9424 -31.8783 -31.8362 -31.7551 -31.7062 -31.7035 -31.6793 -31.6764
   -31.6323 -31.5964 -31.5894 -31.5881 -31.5810 -31.5777 -31.5594 -31.5574
   -31.5327 -31.5247 -31.5218 -31.5104 -31.4961 -31.4896 -31.4707 -31.4659
   -31.4576 -31.4446 -31.4439 -31.4151 -31.4007 -31.3971 -31.3939 -31.3718
   -31.3679 -31.3637 -31.3603 -31.3390 -31.3280 -31.3160 -31.3011 -31.3011
   -31.2907 -31.2845 -30.7843 -30.6899 -30.6678 -30.6007 -30.5140 -30.4030
   -18.8794 -18.4541 -16.2182 -15.9709 -15.8348 -15.7303 -15.5930 -15.4949
   -15.3857 -15.2724 -15.2493 -15.1555 -15.0813 -15.0772 -15.0401 -15.0145
   -14.9519 -14.9304 -14.9067 -14.9008 -14.8862 -14.8760 -14.8394 -14.8285
   -14.7957 -14.7846 -14.7673 -14.6476 -14.6248 -14.5500 -14.4795 -14.3422
   -12.8774 -12.7599  -9.8318  -6.9986  -6.3762  -6.0849  -4.4270  -3.7347
    -3.5421  -3.4084  -3.3301  -3.3016  -3.2838  -3.1522  -3.0592  -2.9003
    -2.8614  -2.8051  -2.6718  -2.5960  -2.5896  -2.5017  -2.4292  -2.4058
    -2.3728  -2.2637  -2.2574  -2.2078  -2.1903  -2.1671  -2.1579  -2.1112
    -2.0652  -2.0381  -1.9530  -1.8515  -1.8077  -1.7880  -1.7515  -1.7289
    -1.7243  -1.6805  -1.6743  -1.6505  -1.6119  -1.5875  -1.5421  -1.4300
    -1.3887  -1.2298  -1.1924  -1.0382  -1.0177  -0.9784  -0.9582  -0.9217
    -0.8916  -0.8753  -0.8602  -0.7704  -0.7120  -0.6458  -0.5817  -0.4909
    -0.4804  -0.4065  -0.3808  -0.3156  -0.2280  -0.1835  -0.1739  -0.1491
    -0.1457  -0.0320   0.0129   0.0731   0.0917   0.1492   0.1650   0.1872
     0.2572   0.3107   0.3802   0.4110   0.4900   0.5082   0.5433   0.5525
     0.5848   0.5953   0.6716   0.6864   0.7146   0.8173   0.9148   1.0084
     1.2183   1.2203   1.2568   1.5527   1.5549   1.6481   1.8314   2.2244
     2.2728   3.7064   3.7849   3.8345   3.8520   3.8565   3.9414   4.1960
     4.2103   4.2229   4.2292   4.2699

[...]

          k = 0.0380-0.0419 0.0000 ( 17876 PWs)   bands (ev):

[...]

          k =-0.0760-0.0000 0.0000 ( 17886 PWs)   bands (ev):

[...]

          k =-0.0760-0.0839 0.0000 ( 17948 PWs)   bands (ev):

   -55.3665 -55.3642 -55.3265 -55.3262 -55.3033 -55.2996 -55.2517 -55.2437
   -55.2006 -55.1940 -55.1599 -55.1573 -55.1559 -55.1121 -54.3578 -54.3578
   -31.7930 -31.7548 -31.7407 -31.6514 -31.6511 -31.6368 -31.6248 -31.6176
   -31.6174 -31.5966 -31.5916 -31.5884 -31.5655 -31.5577 -31.5459 -31.5319
   -31.5289 -31.5262 -31.5222 -31.5142 -31.5095 -31.5074 -31.5064 -31.4986
   -31.4668 -31.4655 -31.4462 -31.4460 -31.4458 -31.4407 -31.4380 -31.4335
   -31.4241 -31.4127 -31.4070 -31.3902 -31.3887 -31.3785 -31.3374 -31.3364
   -31.3357 -31.3168 -30.6805 -30.6805 -30.5968 -30.5967 -30.5574 -30.5573
   -18.8736 -18.4564 -15.8377 -15.6512 -15.4997 -15.4279 -15.4076 -15.3244
   -15.2690 -15.2657 -15.1927 -15.1746 -15.1622 -15.1406 -15.1310 -15.0837
   -15.0465 -15.0099 -14.9912 -14.9685 -14.9253 -14.9026 -14.9009 -14.8942
   -14.8865 -14.8462 -14.8410 -14.8377 -14.7460 -14.7440 -14.7065 -14.5581
   -12.8614 -12.8613  -9.8410  -6.9873  -6.3514  -6.0609  -4.4404  -3.6633
    -3.0216  -2.9093  -2.8985  -2.6697  -2.6513  -2.5903  -2.5778  -2.4898
    -2.4741  -2.4136  -2.3900  -2.3398  -2.3169  -2.2790  -2.2652  -2.2435
    -2.2224  -2.2087  -2.1821  -2.1661  -2.1492  -2.1296  -2.1183  -2.1070
    -2.0518  -2.0462  -2.0373  -2.0120  -1.9889  -1.9528  -1.9428  -1.9266
    -1.7711  -1.7554  -1.7340  -1.5985  -1.5941  -1.5603  -1.5200  -1.4925
    -1.4346  -1.4259  -1.3977  -1.3390  -1.1452  -1.1348  -1.1226  -1.1047
    -1.0336  -0.9780  -0.9642  -0.9462  -0.8926  -0.8145  -0.7807  -0.7282
    -0.6393  -0.5872  -0.5776  -0.5518  -0.4306  -0.4077  -0.3652  -0.3471
    -0.3309  -0.2965  -0.2949  -0.2374  -0.1848  -0.1494  -0.1264  -0.1121
    -0.0752   0.0796   0.1316   0.1479   0.2624   0.2916   0.4696   0.5125
     0.5342   0.6392   0.7225   0.7506   0.7649   0.8909   0.9127   0.9150
     0.9833   1.0055   1.0657   1.0714   1.2137   2.0041   2.0054   2.0926
     2.0928   3.8316   3.9543   3.9987   4.0345   4.1104   4.1631   4.2202
     4.2793   4.2909   4.2944   4.3685

     the Fermi energy is     3.7685 ev

!    total energy              =   -2975.10529294 Ry
     estimated scf accuracy    <       0.00000005 Ry
     smearing contrib. (-TS)   =      -0.03671925 Ry
     internal energy E=F+TS    =   -2975.06857369 Ry

     The total energy is F=E-TS. E is the sum of the following terms:
     one-electron contribution =  -23505.00230383 Ry
     hartree contribution      =   11848.53051572 Ry
     xc contribution           =    -494.91699721 Ry
     ewald contribution        =    9176.31822239 Ry
     electric field correction =       0.00198925 Ry

     convergence has been achieved in  77 iterations

     Forces acting on atoms (cartesian axes, Ry/au):

     atom    1 type  1   force =     0.00002803   -0.00024846    0.09310481
     atom    2 type  1   force =    -0.00018850   -0.00032318   -0.17838128
     atom    3 type  2   force =     0.00006075   -0.00016097   -0.02024063
     atom    4 type  2   force =     0.00001705   -0.00203591    0.05925261
     atom    5 type  2   force =    -0.01033614   -0.00110306    0.00809624
     atom    6 type  2   force =     0.01217895   -0.00054917    0.00817503
     atom    7 type  1   force =     0.00015007    0.00329223   -0.01111840
     atom    8 type  1   force =    -0.00030119    0.00052492   -0.00561574
     atom    9 type  2   force =     0.00004079    0.00017843   -0.00013085
     atom   10 type  2   force =    -0.00146371   -0.00002907   -0.00171263
     atom   11 type  2   force =     0.00038074   -0.00004129   -0.00005651
     atom   12 type  2   force =    -0.00010198    0.00010136   -0.00008687
     atom   13 type  1   force =    -0.00009000   -0.00017292   -0.00025923
     atom   14 type  1   force =    -0.00021460   -0.00037133    0.00033921
     atom   15 type  2   force =     0.00006654   -0.00046721    0.00009301
     atom   16 type  2   force =     0.00022018    0.00009439    0.00025834
     atom   17 type  2   force =     0.00035892   -0.00017002    0.00017861
     atom   18 type  2   force =    -0.00004648   -0.00015406   -0.00015662
     atom   19 type  1   force =    -0.00029491   -0.00044967    0.00001502
     atom   20 type  1   force =     0.00014454    0.00024329    0.00052924
     atom   21 type  2   force =    -0.00000478   -0.00007586    0.10401142
     atom   22 type  2   force =    -0.00009584   -0.00004052   -0.00013747
     atom   23 type  2   force =    -0.07033807   -0.00015338   -0.02683161
     atom   24 type  2   force =     0.07020634    0.00029305   -0.02690934
     atom   25 type  1   force =     0.00002364   -0.00015965    0.09276778
     atom   26 type  1   force =    -0.00015804   -0.00039590   -0.17832821
     atom   27 type  2   force =     0.00011061   -0.00031842   -0.01918441
     atom   28 type  2   force =     0.00004605   -0.00163415    0.05840531
     atom   29 type  2   force =    -0.01029851   -0.00064006    0.00729993
     atom   30 type  2   force =     0.01203422   -0.00030668    0.00743442
     atom   31 type  1   force =     0.00007752    0.00514569   -0.01465916
     atom   32 type  1   force =    -0.00013790   -0.00051472   -0.00595680
     atom   33 type  2   force =     0.00012867   -0.00039400   -0.00022475
     atom   34 type  2   force =    -0.00078876    0.00260009   -0.00103881
     atom   35 type  2   force =    -0.00007144   -0.00010927   -0.00012130
     atom   36 type  2   force =     0.00023421    0.00000596   -0.00014751
     atom   37 type  1   force =    -0.00043850    0.00008456    0.00001818
     atom   38 type  1   force =    -0.00002940   -0.00023635   -0.00025273
     atom   39 type  2   force =    -0.00030641   -0.00021164   -0.00015597
     atom   40 type  2   force =    -0.00013360   -0.00006048   -0.00003256
     atom   41 type  2   force =    -0.00015292   -0.00014735    0.00036742
     atom   42 type  2   force =    -0.00005098   -0.00024291    0.00011951
     atom   43 type  1   force =    -0.00000516   -0.00030838    0.00011706
     atom   44 type  1   force =     0.00001468    0.00000144    0.00019253
     atom   45 type  2   force =     0.00001001   -0.00010862    0.10398300
     atom   46 type  2   force =    -0.07036463   -0.00012417   -0.02685593
     atom   47 type  2   force =     0.07021036    0.00031105   -0.02691410
     atom   48 type  3   force =    -0.00014709    0.00159456    0.00030745
     atom   49 type  3   force =    -0.00098797   -0.00092388    0.00062278
     atom   50 type  4   force =    -0.00007204    0.00165908    0.00209731
     atom   51 type  5   force =     0.00080689   -0.00193293   -0.00175170
     atom   52 type  5   force =     0.00006432   -0.00073419   -0.00069813
     atom   53 type  5   force =    -0.00006772    0.00007178    0.00002296
     atom   54 type  5   force =     0.00015136    0.00050522   -0.00008885
     atom   55 type  2   force =     0.00015073   -0.00009037    0.00057404
     atom   56 type  5   force =     0.00024051   -0.00036529   -0.00043106
     atom   57 type  5   force =    -0.00046940   -0.00020165    0.00009598

     Total force =     0.366212     Total SCF correction =     0.000563
  @ DRIVER MODE: Message from server: STATUS
  @ DRIVER MODE: Message from server: GETFORCE
  @ DRIVER MODE: Returning v,forces,stress,ensemble

     Writing output data file ./calc.save/
  @ DRIVER MODE: Message from server: EXIT
  @ DRIVE MODE: Exiting

     General routines

     Parallel routines

   This run was terminated on:   6:53:50  22Sep2021

   JOB DONE.