     Program PWSCF v.6.7GPU starts on 13Oct2021 at  4: 3:44

     R & G space division:  proc/nbgrp/npool/nimage =       8
     Reading input from /storage/home/hcoda1/3/ntian30/research/carbon/ACS_vib/ads_slab/H2NNH2/out_0030/pw.inp
Warning: card &CELL ignored
Warning: card   CELL_DYNAMICS='IPI', ignored
Warning: card / ignored

     Current dimensions of program PWSCF are:
     Max number of different atomic species (ntypx) = 10
     Max number of k-points (npk) =  40000
     Max angular momentum in pseudopotentials (lmaxx) =  3
     Presently no symmetry can be used with electric field

     Message from routine cell_base_init:
     DEPRECATED: use true lattice parameter, not A to a.u. conversion factor

     IMPORTANT: XC functional enforced from input :
     Exchange-correlation= BEEF-VDW
                           (   1   4  43  14   2   0   0)
     Any further DFT definition will be discarded
     Please, verify this is what you really want

  @ DRIVER MODE: Connecting to
 qe_1139763_3181310.sched-torque.pace.gatech.edum7ppn_jx_scratch
  using UNIX socket
  @ DRIVER MODE: Message from server: STATUS
  @ DRIVER MODE: Message from server: INIT
  @ DRIVER MODE: Receiving replica           0          -1
  @ DRIVER MODE: Receiving encoded integer          25
  @ DRIVER MODE:  SCF:  T  FORCE:  T  STRESS:  F  VC:  F  ENSEMBLE:  F
  @ DRIVER MODE:  SCF:  T  FORCE:  T  STRESS:  F  VC:  F  ENSEMBLE:  F

     Using Slab Decomposition

     bravais-lattice index     =            0
     lattice parameter (alat)  =       1.8897  a.u.
     unit-cell volume          =    6658.9804 (a.u.)^3
     number of atoms/cell      =           53
     number of atomic types    =            4
     number of electrons       =       392.00
     number of Kohn-Sham states=          206
     kinetic-energy cutoff     =      29.3995  Ry
     charge density cutoff     =     293.9946  Ry
     scf convergence threshold =      7.3E-08
     mixing beta               =       0.0500
     number of iterations used =            8  plain     mixing
     Exchange-correlation= BEEF-VDW
                           (   1   4  43  14   2   0   0)

     celldm(1)=   1.889726  celldm(2)=   0.000000  celldm(3)=   0.000000
     celldm(4)=   0.000000  celldm(5)=   0.000000  celldm(6)=   0.000000

     crystal axes: (cart. coord. in units of alat)
               a(1) = (   6.579727   0.000000   0.000000 )
               a(2) = (  -0.000775   5.961596   0.000000 )
               a(3) = (   0.000000   0.000000  25.155947 )

     reciprocal axes: (cart. coord. in units 2 pi/alat)
               b(1) = (  0.151982  0.000020  0.000000 )
               b(2) = (  0.000000  0.167740  0.000000 )
               b(3) = (  0.000000  0.000000  0.039752 )

     PseudoPot. # 1 for Ti read from file:
     /storage/coda1/p-amedford6/0/shared/rich_project_chbe-medford/medford-share/data/pseudos_module/espresso/nninc/pbe/van/Ti.UPF
     MD5 check sum: 8e4df49b7f0d34bbd5052bf3f5ea0213
     Pseudo is Ultrasoft, Zval = 12.0
     Generated by new atomic code, or converted to UPF format
     Using radial grid of  851 points,  6 beta functions with:
                l(1) =   0
                l(2) =   0
                l(3) =   1
                l(4) =   1
                l(5) =   2
                l(6) =   2
     Q(r) pseudized with  8 coefficients,  rinner =    1.000   1.000   1.000
                                                       1.000   1.000

     PseudoPot. # 2 for O  read from file:
     /storage/coda1/p-amedford6/0/shared/rich_project_chbe-medford/medford-share/data/pseudos_module/espresso/nninc/pbe/van/O.UPF
     MD5 check sum: 78c19812648e8988a0fe644b0f25305e
     Pseudo is Ultrasoft, Zval =  6.0
     Generated by new atomic code, or converted to UPF format
     Using radial grid of  737 points,  4 beta functions with:
                l(1) =   0
                l(2) =   0
                l(3) =   1
                l(4) =   1
     Q(r) pseudized with  8 coefficients,  rinner =    0.800   0.800   0.800

     PseudoPot. # 3 for H  read from file:
     /storage/coda1/p-amedford6/0/shared/rich_project_chbe-medford/medford-share/data/pseudos_module/espresso/nninc/pbe/van/H.UPF
     MD5 check sum: b5ee9d7bfd3a09ee7748110bda690ff7
     Pseudo is Ultrasoft, Zval =  1.0
     Generated by new atomic code, or converted to UPF format
     Using radial grid of  615 points,  1 beta functions with:
                l(1) =   0
     Q(r) pseudized with  8 coefficients,  rinner =    0.800

     PseudoPot. # 4 for N  read from file:
     /storage/coda1/p-amedford6/0/shared/rich_project_chbe-medford/medford-share/data/pseudos_module/espresso/nninc/pbe/van/N.UPF
     MD5 check sum: 90d10febe142ad51ac9d5be1deb811c4
     Pseudo is Ultrasoft, Zval =  5.0
     Generated by new atomic code, or converted to UPF format
     Using radial grid of  729 points,  4 beta functions with:
                l(1) =   0
                l(2) =   0
                l(3) =   1
                l(4) =   1
     Q(r) pseudized with  8 coefficients,  rinner =    0.800   0.800   0.800

     atomic species   valence    mass     pseudopotential
        Ti1           12.00    47.86700     Ti( 1.00)
        O1             6.00    15.99900     O ( 1.00)
        H1             1.00     1.00800     H ( 1.00)
        N1             5.00    14.00700     N ( 1.00)

     No symmetry found

   Cartesian axes

     site n.     atom                  positions (alat units)
         1           Ti1 tau(   1) = (   0.0004258   2.9801865   6.0000000  )
         2           Ti1 tau(   2) = (   3.2906075   1.4906267   6.0002472  )
         3           O1  tau(   3) = (   0.0006271   0.0005054   7.9858123  )
         4           O1  tau(   4) = (   3.2906025   0.0005020   7.3038282  )
         5           O1  tau(   5) = (   4.5942328   1.4918067   9.2879030  )
         6           O1  tau(   6) = (   1.9868534   1.4903216   9.2879459  )
         7           Ti1 tau(   7) = (   3.2907910   2.8959150   9.1758416  )
         8           Ti1 tau(   8) = (   0.0001184   1.4796821   9.2618995  )
         9           O1  tau(   9) = (   3.3033009   5.9571037  11.3689245  )
        10           O1  tau(  10) = (   0.0046093   5.9606512  10.6148452  )
        11           O1  tau(  11) = (   1.3031693   1.4924284  12.6635891  )
        12           O1  tau(  12) = (   5.3048943   1.4931164  12.6630676  )
        13           Ti1 tau(  13) = (   0.0220873   2.9701805  12.5026553  )
        14           Ti1 tau(  14) = (   3.3209497   1.4853901  12.5165241  )
        15           O1  tau(  15) = (   0.0111090   5.9548334  14.6950652  )
        16           O1  tau(  16) = (   3.3059555   5.9578033  13.9930857  )
        17           O1  tau(  17) = (   4.5400856   1.4977043  16.1996482  )
        18           O1  tau(  18) = (   2.0449602   1.5055634  16.1912035  )
        19           Ti1 tau(  19) = (   3.3033294   2.9754315  15.7369611  )
        20           Ti1 tau(  20) = (   0.0669189   1.3514287  15.9855452  )
        21           O1  tau(  21) = (   3.2904802   0.0005063   4.7018136  )
        22           O1  tau(  22) = (   0.0169155   5.9572437  17.2386537  )
        23           O1  tau(  23) = (   1.3043587   1.4918075   6.0039043  )
        24           O1  tau(  24) = (   5.2767064   1.4903225   6.0039473  )
        25           Ti1 tau(  25) = (   0.0000382   5.9609847   6.0000000  )
        26           Ti1 tau(  26) = (   3.2902200   4.4714249   6.0002472  )
        27           O1  tau(  27) = (   0.0002396   2.9813036   7.9858123  )
        28           O1  tau(  28) = (   3.2902150   2.9813002   7.3038282  )
        29           O1  tau(  29) = (   4.5938453   4.4726049   9.2879030  )
        30           O1  tau(  30) = (   1.9864658   4.4711199   9.2879459  )
        31           Ti1 tau(  31) = (   3.2891106   5.8743827   9.1763621  )
        32           Ti1 tau(  32) = (  -0.0005703   4.4645639   9.2621285  )
        33           O1  tau(  33) = (   3.3036452   2.9764387  11.3618117  )
        34           O1  tau(  34) = (   0.0064946   2.9800876  10.6274040  )
        35           O1  tau(  35) = (   1.3025983   4.4627906  12.6614389  )
        36           O1  tau(  36) = (   5.3044333   4.4622094  12.6652126  )
        37           Ti1 tau(  37) = (   0.0242538   5.9517307  12.5043500  )
        38           Ti1 tau(  38) = (   3.3173473   4.4639239  12.5158395  )
        39           O1  tau(  39) = (   0.0133908   2.9741471  14.9664594  )
        40           O1  tau(  40) = (   3.3068033   2.9766936  13.9537582  )
        41           O1  tau(  41) = (   4.5624531   4.4468677  16.1922021  )
        42           O1  tau(  42) = (   2.0658021   4.4533190  16.1937748  )
        43           Ti1 tau(  43) = (   3.3070936   5.9559909  15.7859554  )
        44           Ti1 tau(  44) = (   6.5464735   4.5686029  15.9538643  )
        45           O1  tau(  45) = (   3.2900926   2.9813045   4.7018136  )
        46           O1  tau(  46) = (   1.3039711   4.4726057   6.0039043  )
        47           O1  tau(  47) = (   5.2763189   4.4711207   6.0039473  )
        48           H1  tau(  48) = (   6.1991321   4.2482542  18.7414658  )
        49           H1  tau(  49) = (   1.1283133   3.8395711  18.1715982  )
        50           N1  tau(  50) = (   0.1317752   3.6792193  18.0720352  )
        51           N1  tau(  51) = (   6.4315599   2.2892659  18.0961467  )
        52           H1  tau(  52) = (   5.4285218   2.1347736  18.1583859  )
        53           H1  tau(  53) = (   0.3235236   1.7579878  18.8239140  )

     number of k points=    10  Fermi-Dirac smearing, width (Ry)=  0.0073
                       cart. coord. in units 2pi/alat
        k(    1) = (   0.0000000   0.0000000   0.0000000), wk =   0.1250000
        k(    2) = (   0.0000000   0.0419351   0.0000000), wk =   0.2500000
        k(    3) = (   0.0000000  -0.0838702   0.0000000), wk =   0.1250000
        k(    4) = (   0.0379955   0.0000049   0.0000000), wk =   0.2500000
        k(    5) = (   0.0379955   0.0419400   0.0000000), wk =   0.2500000
        k(    6) = (   0.0379955  -0.0838652   0.0000000), wk =   0.2500000
        k(    7) = (   0.0379955  -0.0419301   0.0000000), wk =   0.2500000
        k(    8) = (  -0.0759910  -0.0000099   0.0000000), wk =   0.1250000
        k(    9) = (  -0.0759910   0.0419252   0.0000000), wk =   0.2500000
        k(   10) = (  -0.0759910  -0.0838800   0.0000000), wk =   0.1250000

     Initial potential from superposition of free atoms

     starting charge  375.99919, renormalised to  392.00000

     negative rho (up, down):  1.864E-02 0.000E+00

     %%%%%%%%%%%%%%%%%%%%%%%%%%%%%%%%%%%%%%%%%%%%%%%%%%%%%%%%%%%%%%%%%%%%%%%%
     %                                                                      %
     % You are using vdW-DF, which was implemented by the Thonhauser group. %
     % Please cite the following two papers that made this development      %
     % possible and the two reviews that describe the various versions:     %
     %                                                                      %
     %   T. Thonhauser et al., PRL 115, 136402 (2015).                      %
     %   T. Thonhauser et al., PRB 76, 125112 (2007).                       %
     %   K. Berland et al., Rep. Prog. Phys. 78, 066501 (2015).             %
     %   D.C. Langreth et al., J. Phys.: Condens. Matter 21, 084203 (2009). %
     %                                                                      %
     %                                                                      %
     % If you are calculating the stress with vdW-DF, please also cite:     %
     %                                                                      %
     %   R. Sabatini et al., J. Phys.: Condens. Matter 24, 424209 (2012).   %
     %                                                                      %
     %%%%%%%%%%%%%%%%%%%%%%%%%%%%%%%%%%%%%%%%%%%%%%%%%%%%%%%%%%%%%%%%%%%%%%%%

     Adding external electric field

     Computed dipole along edir(3) :
        Dipole               -7.0285 Ry au,        -17.8646 Debye
        Dipole field         -0.0133 Ry au,

        Potential amp.        1.2295 Ry
        Total length         46.3494 bohr

     Starting wfcs are  296 atomic wfcs
  @ DRIVER MODE: Message from server: STATUS
  @ DRIVER MODE: Message from server: POSDATA
  @ DRIVER MODE: Reading and sharing cell
  @ DRIVER MODE: Reading and sharing positions
  @ DRIVER MODE: Received positions

     Self-consistent Calculation

     iteration #  1     ecut=    29.40 Ry     beta= 0.05
     Davidson diagonalization with overlap
     c_bands:  1 eigenvalues not converged
     c_bands:  1 eigenvalues not converged
     c_bands:  2 eigenvalues not converged
     c_bands:  1 eigenvalues not converged
     c_bands:  1 eigenvalues not converged
     c_bands:  1 eigenvalues not converged
     ethr =  1.00E-05,  avg # of iterations = 19.6

[...]

     total energy              =   -2685.31606250 Ry
     estimated scf accuracy    <    2688.10562221 Ry

[...]

     iteration #  3     ecut=    29.40 Ry     beta= 0.05
     Davidson diagonalization with overlap
     ethr =  1.00E-02,  avg # of iterations = 16.0

[...]

     iteration # 77     ecut=    29.40 Ry     beta= 0.05
     Davidson diagonalization with overlap
     ethr =  1.50E-10,  avg # of iterations =  6.4

[...]

     total energy              =   -2928.89057383 Ry
     estimated scf accuracy    <       0.00000030 Ry

     iteration # 81     ecut=    29.40 Ry     beta= 0.05
     Davidson diagonalization with overlap
     c_bands:  1 eigenvalues not converged
     c_bands:  1 eigenvalues not converged
     ethr =  2.79E-11,  avg # of iterations = 13.0

     negative rho (up, down):  1.631E-02 0.000E+00

     Adding external electric field

     Computed dipole along edir(3) :
        Dipole                1.6249 Ry au,          4.1301 Debye
        Dipole field          0.0031 Ry au,

        Potential amp.       -0.2843 Ry
        Total length         46.3494 bohr

     End of self-consistent calculation

          k = 0.0000 0.0000 0.0000 ( 18029 PWs)   bands (ev):

   -55.3070 -55.2710 -55.2557 -55.2215 -55.1814 -55.1756 -55.1471 -55.1203
   -55.0992 -55.0888 -55.0857 -55.0803 -55.0550 -55.0257 -54.2848 -54.2507
   -31.8792 -31.7494 -31.6942 -31.6689 -31.6240 -31.6102 -31.6049 -31.5969
   -31.5470 -31.5460 -31.5172 -31.5156 -31.5016 -31.4797 -31.4639 -31.4506
   -31.4445 -31.4248 -31.4188 -31.4074 -31.3980 -31.3716 -31.3706 -31.3599
   -31.3517 -31.3233 -31.3122 -31.3119 -31.3046 -31.2979 -31.2934 -31.2896
   -31.2839 -31.2742 -31.2726 -31.2684 -31.2624 -31.2346 -31.2194 -31.2163
   -31.2008 -31.1299 -30.6940 -30.6003 -30.5783 -30.5104 -30.4236 -30.3127
   -18.6235 -16.1479 -15.8859 -15.7509 -15.5962 -15.5046 -15.4005 -15.3428
   -15.2368 -15.1550 -15.0674 -15.0551 -15.0303 -15.0036 -14.9646 -14.9318
   -14.8471 -14.8425 -14.8196 -14.7995 -14.7978 -14.7496 -14.7406 -14.7201
   -14.7017 -14.6809 -14.5467 -14.4614 -14.3933 -14.1307 -13.3264 -12.7876
   -12.6701  -7.5423  -7.0121  -5.5036  -3.4851  -3.3203  -3.2949  -3.2379
    -3.1994  -3.0593  -2.9452  -2.7261  -2.7151  -2.6224  -2.5865  -2.5385
    -2.5166  -2.4979  -2.3316  -2.3026  -2.2889  -2.2327  -2.1721  -2.1178
    -2.1029  -2.0989  -2.0876  -2.0696  -2.0642  -1.9442  -1.8696  -1.7959
    -1.7323  -1.6994  -1.6626  -1.6539  -1.6352  -1.5951  -1.5873  -1.5569
    -1.5420  -1.4967  -1.4687  -1.3389  -1.2866  -1.2153  -1.0290  -0.9412
    -0.8956  -0.8816  -0.8468  -0.8017  -0.7883  -0.6844  -0.6717  -0.6494
    -0.6038  -0.5404  -0.4839  -0.4328  -0.3635  -0.3041  -0.2956  -0.1916
    -0.0945  -0.0851  -0.0639   0.0338   0.0690   0.1164   0.1955   0.2119
     0.2238   0.3104   0.3528   0.3893   0.4277   0.4525   0.5757   0.6196
     0.6332   0.6476   0.6520   0.6774   0.7039   0.7688   0.7993   0.8687
     0.9944   1.0997   1.1687   1.2661   1.3087   1.6411   1.6447   1.7378
     1.9217   2.3124   2.3593   3.7939   3.8628   3.9369   3.9464   3.9560
     4.0279   4.1081   4.2672   4.2911   4.2993   4.3154

[...]

          k = 0.0380-0.0419 0.0000 ( 17876 PWs)   bands (ev):

[...]

          k =-0.0760-0.0000 0.0000 ( 17886 PWs)   bands (ev):

[...]

          k =-0.0760-0.0839 0.0000 ( 17948 PWs)   bands (ev):

   -55.2891 -55.2886 -55.2389 -55.2382 -55.1715 -55.1643 -55.1641 -55.1051
   -55.1030 -55.1004 -55.0734 -55.0732 -55.0708 -55.0326 -54.2677 -54.2676
   -31.6831 -31.6812 -31.6019 -31.5907 -31.5706 -31.5647 -31.5641 -31.5323
   -31.5306 -31.5107 -31.5079 -31.5060 -31.4996 -31.4445 -31.4416 -31.4385
   -31.4337 -31.4328 -31.4311 -31.4277 -31.3972 -31.3849 -31.3812 -31.3710
   -31.3577 -31.3572 -31.3568 -31.3565 -31.3424 -31.3389 -31.3340 -31.3254
   -31.3189 -31.3141 -31.3027 -31.2988 -31.2983 -31.2897 -31.2698 -31.2557
   -31.2541 -31.2351 -30.5909 -30.5909 -30.5066 -30.5064 -30.4670 -30.4670
   -18.6086 -15.5924 -15.5709 -15.5302 -15.3359 -15.3256 -15.3125 -15.3094
   -15.2067 -15.1924 -15.1200 -15.0941 -15.0470 -15.0280 -15.0130 -15.0114
   -14.9186 -14.8992 -14.8936 -14.8912 -14.8206 -14.8123 -14.8040 -14.7950
   -14.7648 -14.7579 -14.6560 -14.6533 -14.6232 -14.6035 -13.1566 -12.7718
   -12.7715  -7.5416  -7.0368  -5.5552  -3.0700  -2.8603  -2.7866  -2.7107
    -2.5534  -2.5328  -2.4927  -2.3823  -2.3432  -2.3289  -2.3221  -2.2908
    -2.2376  -2.2193  -2.2083  -2.1474  -2.1451  -2.1252  -2.1161  -2.0905
    -2.0795  -2.0353  -2.0266  -2.0074  -1.9705  -1.9535  -1.9296  -1.9044
    -1.8991  -1.8812  -1.8231  -1.7904  -1.6828  -1.6692  -1.6052  -1.5126
    -1.5053  -1.4235  -1.3959  -1.3605  -1.3391  -1.3369  -1.2172  -1.1352
    -1.0813  -1.0501  -1.0431  -0.9337  -0.8976  -0.8158  -0.8025  -0.7890
    -0.7313  -0.6481  -0.6254  -0.6095  -0.5250  -0.4625  -0.4547  -0.3595
    -0.3374  -0.2747  -0.2613  -0.2595  -0.2174  -0.1987  -0.1718  -0.1127
    -0.0767  -0.0396  -0.0178   0.0218   0.2187   0.2398   0.2631   0.3927
     0.5115   0.5338   0.5673   0.6049   0.6993   0.7646   0.8042   0.8505
     0.9020   0.9866   0.9958   1.0904   1.0967   1.1520   1.1586   2.0944
     2.0953   2.1801   2.1811   3.9640   4.0061   4.0663   4.0959   4.1790
     4.3075   4.3230   4.3769   4.3792   4.4455   4.4501

     the Fermi energy is     3.8570 ev

!    total energy              =   -2928.89057931 Ry
     estimated scf accuracy    <       0.00000006 Ry
     smearing contrib. (-TS)   =      -0.03701261 Ry
     internal energy E=F+TS    =   -2928.85356670 Ry

     The total energy is F=E-TS. E is the sum of the following terms:
     one-electron contribution =  -24386.42664031 Ry
     hartree contribution      =   12284.73567169 Ry
     xc contribution           =    -482.74306261 Ry
     ewald contribution        =    9655.57548195 Ry
     electric field correction =       0.00498258 Ry

     convergence has been achieved in  81 iterations

     Forces acting on atoms (cartesian axes, Ry/au):

     atom    1 type  1   force =     0.00007792   -0.00018185    0.09195046
     atom    2 type  1   force =    -0.00017981   -0.00022690   -0.17807873
     atom    3 type  2   force =     0.00000503   -0.00050297   -0.02211952
     atom    4 type  2   force =     0.00002808   -0.00184638    0.05826999
     atom    5 type  2   force =    -0.01042034   -0.00081596    0.00668353
     atom    6 type  2   force =     0.01171413   -0.00037123    0.00700466
     atom    7 type  1   force =    -0.00031603    0.00236560   -0.01479561
     atom    8 type  1   force =     0.00006604    0.00001275    0.00013676
     atom    9 type  2   force =    -0.00010689   -0.00011445   -0.00082085
     atom   10 type  2   force =     0.00012392   -0.00005302    0.00053423
     atom   11 type  2   force =     0.00010605   -0.00006559   -0.00027277
     atom   12 type  2   force =    -0.00031530   -0.00005487   -0.00018931
     atom   13 type  1   force =     0.00006543    0.00019671    0.00013310
     atom   14 type  1   force =    -0.00009537   -0.00010546   -0.00011682
     atom   15 type  2   force =     0.00023921    0.00013926    0.00077288
     atom   16 type  2   force =    -0.00010641    0.00007083   -0.00030583
     atom   17 type  2   force =    -0.00048574   -0.00017595    0.00008752
     atom   18 type  2   force =     0.00056677   -0.00009731    0.00041129
     atom   19 type  1   force =     0.00012259   -0.00012222    0.00050880
     atom   20 type  1   force =    -0.00120395   -0.00040165    0.00083809
     atom   21 type  2   force =     0.00000725   -0.00002736    0.10390156
     atom   22 type  2   force =     0.00002243    0.00024820   -0.00114702
     atom   23 type  2   force =    -0.07047627   -0.00019203   -0.02663212
     atom   24 type  2   force =     0.07032441    0.00023322   -0.02669249
     atom   25 type  1   force =     0.00003113   -0.00012732    0.09064935
     atom   26 type  1   force =    -0.00018184   -0.00036024   -0.17823492
     atom   27 type  2   force =     0.00000661   -0.00017945   -0.02112753
     atom   28 type  2   force =     0.00006244   -0.00153034    0.05748601
     atom   29 type  2   force =    -0.01049472   -0.00096714    0.00672987
     atom   30 type  2   force =     0.01166184   -0.00039066    0.00703879
     atom   31 type  1   force =    -0.00036782    0.00547559   -0.01573446
     atom   32 type  1   force =     0.00004035    0.00000760    0.00007297
     atom   33 type  2   force =    -0.00010537   -0.00008698   -0.00051738
     atom   34 type  2   force =    -0.00003129    0.00000863    0.00022829
     atom   35 type  2   force =     0.00014423   -0.00021195   -0.00014725
     atom   36 type  2   force =    -0.00035880   -0.00019110   -0.00014403
     atom   37 type  1   force =     0.00003875   -0.00007160    0.00075145
     atom   38 type  1   force =    -0.00016351   -0.00037802   -0.00009115
     atom   39 type  2   force =     0.00002479    0.00004431   -0.00009678
     atom   40 type  2   force =    -0.00039582   -0.00004107   -0.00027630
     atom   41 type  2   force =    -0.00060188    0.00006921    0.00029641
     atom   42 type  2   force =     0.00036767    0.00004852    0.00059797
     atom   43 type  1   force =    -0.00001864   -0.00002255   -0.00013006
     atom   44 type  1   force =     0.00019241    0.00096687    0.00132015
     atom   45 type  2   force =     0.00000907   -0.00004283    0.10386226
     atom   46 type  2   force =    -0.07048716   -0.00003558   -0.02668098
     atom   47 type  2   force =     0.07033590    0.00042218   -0.02671249
     atom   48 type  3   force =     0.00065690   -0.00053536    0.00033833
     atom   49 type  3   force =     0.00104262   -0.00001285    0.00014015
     atom   50 type  4   force =    -0.00135315   -0.00011693    0.00084693
     atom   51 type  4   force =    -0.00303413   -0.00064190    0.00095785
     atom   52 type  3   force =     0.00210394    0.00106650   -0.00124610
     atom   53 type  3   force =     0.00111232   -0.00007693   -0.00023915

     Total force =     0.365065     Total SCF correction =     0.000767
  @ DRIVER MODE: Message from server: STATUS
  @ DRIVER MODE: Message from server: GETFORCE
  @ DRIVER MODE: Returning v,forces,stress,ensemble

     Writing output data file ./calc.save/
  @ DRIVER MODE: Message from server: EXIT
  @ DRIVE MODE: Exiting

     General routines

     Parallel routines

   This run was terminated on:   4:33:59  13Oct2021

   JOB DONE.