     Program PWSCF v.6.7GPU starts on  9Sep2021 at  1: 5:22

     R & G space division:  proc/nbgrp/npool/nimage =      10
     Reading input from /storage/home/hcoda1/3/ntian30/research/carbon/CxH_vib/CH2_calc/ads_slab/CH2N2H_a/out_0011/pw.inp
Warning: card &CELL ignored
Warning: card   CELL_DYNAMICS='IPI', ignored
Warning: card / ignored

     Current dimensions of program PWSCF are:
     Max number of different atomic species (ntypx) = 10
     Max number of k-points (npk) =  40000
     Max angular momentum in pseudopotentials (lmaxx) =  3
     Presently no symmetry can be used with electric field

     Message from routine cell_base_init:
     DEPRECATED: use true lattice parameter, not A to a.u. conversion factor

     IMPORTANT: XC functional enforced from input :
     Exchange-correlation= BEEF-VDW
                           (   1   4  43  14   2   0   0)
     Any further DFT definition will be discarded
     Please, verify this is what you really want

  @ DRIVER MODE: Connecting to
 qe_1139763_2767385.sched-torque.pace.gatech.edusi3qbsye_scratch
  using UNIX socket
  @ DRIVER MODE: Message from server: STATUS
  @ DRIVER MODE: Message from server: INIT
  @ DRIVER MODE: Receiving replica           0          -1
  @ DRIVER MODE: Receiving encoded integer          25
  @ DRIVER MODE:  SCF:  T  FORCE:  T  STRESS:  F  VC:  F  ENSEMBLE:  F
  @ DRIVER MODE:  SCF:  T  FORCE:  T  STRESS:  F  VC:  F  ENSEMBLE:  F

     Using Slab Decomposition

     bravais-lattice index     =            0
     lattice parameter (alat)  =       1.8897  a.u.
     unit-cell volume          =    6658.9804 (a.u.)^3
     number of atoms/cell      =           53
     number of atomic types    =            5
     number of electrons       =       395.00
     number of Kohn-Sham states=          207
     kinetic-energy cutoff     =      29.3995  Ry
     charge density cutoff     =     293.9946  Ry
     scf convergence threshold =      7.3E-08
     mixing beta               =       0.0500
     number of iterations used =            8  plain     mixing
     Exchange-correlation= BEEF-VDW
                           (   1   4  43  14   2   0   0)

     celldm(1)=   1.889726  celldm(2)=   0.000000  celldm(3)=   0.000000
     celldm(4)=   0.000000  celldm(5)=   0.000000  celldm(6)=   0.000000

     crystal axes: (cart. coord. in units of alat)
               a(1) = (   6.579727   0.000000   0.000000 )
               a(2) = (  -0.000775   5.961596   0.000000 )
               a(3) = (   0.000000   0.000000  25.155947 )

     reciprocal axes: (cart. coord. in units 2 pi/alat)
               b(1) = (  0.151982  0.000020  0.000000 )
               b(2) = (  0.000000  0.167740  0.000000 )
               b(3) = (  0.000000  0.000000  0.039752 )

     PseudoPot. # 1 for Ti read from file:
     /storage/coda1/p-amedford6/0/shared/rich_project_chbe-medford/medford-share/data/pseudos_module/espresso/nninc/pbe/van/Ti.UPF
     MD5 check sum: 8e4df49b7f0d34bbd5052bf3f5ea0213
     Pseudo is Ultrasoft, Zval = 12.0
     Generated by new atomic code, or converted to UPF format
     Using radial grid of  851 points,  6 beta functions with:
                l(1) =   0
                l(2) =   0
                l(3) =   1
                l(4) =   1
                l(5) =   2
                l(6) =   2
     Q(r) pseudized with  8 coefficients,  rinner =    1.000   1.000   1.000
                                                       1.000   1.000

     PseudoPot. # 2 for O  read from file:
     /storage/coda1/p-amedford6/0/shared/rich_project_chbe-medford/medford-share/data/pseudos_module/espresso/nninc/pbe/van/O.UPF
     MD5 check sum: 78c19812648e8988a0fe644b0f25305e
     Pseudo is Ultrasoft, Zval =  6.0
     Generated by new atomic code, or converted to UPF format
     Using radial grid of  737 points,  4 beta functions with:
                l(1) =   0
                l(2) =   0
                l(3) =   1
                l(4) =   1
     Q(r) pseudized with  8 coefficients,  rinner =    0.800   0.800   0.800

     PseudoPot. # 3 for N  read from file:
     /storage/coda1/p-amedford6/0/shared/rich_project_chbe-medford/medford-share/data/pseudos_module/espresso/nninc/pbe/van/N.UPF
     MD5 check sum: 90d10febe142ad51ac9d5be1deb811c4
     Pseudo is Ultrasoft, Zval =  5.0
     Generated by new atomic code, or converted to UPF format
     Using radial grid of  729 points,  4 beta functions with:
                l(1) =   0
                l(2) =   0
                l(3) =   1
                l(4) =   1
     Q(r) pseudized with  8 coefficients,  rinner =    0.800   0.800   0.800

     PseudoPot. # 4 for C  read from file:
     /storage/coda1/p-amedford6/0/shared/rich_project_chbe-medford/medford-share/data/pseudos_module/espresso/nninc/pbe/van/C.UPF
     MD5 check sum: 1a69bf6b8db32088f5b2163dbdb77a27
     Pseudo is Ultrasoft, Zval =  4.0
     Generated by new atomic code, or converted to UPF format
     Using radial grid of  721 points,  4 beta functions with:
                l(1) =   0
                l(2) =   0
                l(3) =   1
                l(4) =   1
     Q(r) pseudized with  8 coefficients,  rinner =    0.800   0.800   0.800

     PseudoPot. # 5 for H  read from file:
     /storage/coda1/p-amedford6/0/shared/rich_project_chbe-medford/medford-share/data/pseudos_module/espresso/nninc/pbe/van/H.UPF
     MD5 check sum: b5ee9d7bfd3a09ee7748110bda690ff7
     Pseudo is Ultrasoft, Zval =  1.0
     Generated by new atomic code, or converted to UPF format
     Using radial grid of  615 points,  1 beta functions with:
                l(1) =   0
     Q(r) pseudized with  8 coefficients,  rinner =    0.800

     atomic species   valence    mass     pseudopotential
        Ti1           12.00    47.86700     Ti( 1.00)
        O1             6.00    15.99900     O ( 1.00)
        N1             5.00    14.00700     N ( 1.00)
        C1             4.00    12.01100     C ( 1.00)
        H1             1.00     1.00800     H ( 1.00)

     No symmetry found

   Cartesian axes

     site n.     atom                  positions (alat units)
         1           Ti1 tau(   1) = (   0.0004258   2.9801865   6.0000000  )
         2           Ti1 tau(   2) = (   3.2906075   1.4906267   6.0002472  )
         3           O1  tau(   3) = (   0.0006271   0.0005054   7.9858123  )
         4           O1  tau(   4) = (   3.2906025   0.0005020   7.3038282  )
         5           O1  tau(   5) = (   4.5942328   1.4918067   9.2879030  )
         6           O1  tau(   6) = (   1.9868534   1.4903216   9.2879459  )
         7           Ti1 tau(   7) = (   3.2907910   2.8959150   9.1758416  )
         8           Ti1 tau(   8) = (   0.0015273   1.4827037   9.2680791  )
         9           O1  tau(   9) = (   3.3007851   0.0027079  11.3193151  )
        10           O1  tau(  10) = (   0.0116148   5.9584955  10.6183126  )
        11           O1  tau(  11) = (   1.3147357   1.5019762  12.6210215  )
        12           O1  tau(  12) = (   5.3120411   1.4917641  12.6342566  )
        13           Ti1 tau(  13) = (   6.5359925   2.9538565  12.6086018  )
        14           Ti1 tau(  14) = (   3.2189980   1.4905645  12.4770757  )
        15           O1  tau(  15) = (   0.0426301   5.9606301  14.6312846  )
        16           O1  tau(  16) = (   3.3149351   0.0098317  13.8848037  )
        17           O1  tau(  17) = (   4.5523768   1.5206755  16.0744300  )
        18           O1  tau(  18) = (   2.0715852   1.4807026  15.9918588  )
        19           Ti1 tau(  19) = (   3.2935730   2.9941335  15.6827836  )
        20           Ti1 tau(  20) = (   0.0200723   1.3023755  15.9747514  )
        21           O1  tau(  21) = (   3.2904802   0.0005063   4.7018136  )
        22           O1  tau(  22) = (   6.5179923   0.0002674  17.1556216  )
        23           O1  tau(  23) = (   1.3043587   1.4918075   6.0039043  )
        24           O1  tau(  24) = (   5.2767064   1.4903225   6.0039473  )
        25           Ti1 tau(  25) = (   0.0000382   5.9609847   6.0000000  )
        26           Ti1 tau(  26) = (   3.2902200   4.4714249   6.0002472  )
        27           O1  tau(  27) = (   0.0002396   2.9813036   7.9858123  )
        28           O1  tau(  28) = (   3.2902150   2.9813002   7.3038282  )
        29           O1  tau(  29) = (   4.5938453   4.4726049   9.2879030  )
        30           O1  tau(  30) = (   1.9864658   4.4711199   9.2879459  )
        31           Ti1 tau(  31) = (   3.2891106   5.8743827   9.1763621  )
        32           Ti1 tau(  32) = (   0.0006254   4.4649316   9.2693709  )
        33           O1  tau(  33) = (   3.3053585   2.9833221  11.3185053  )
        34           O1  tau(  34) = (   0.0092240   2.9805883  10.6323155  )
        35           O1  tau(  35) = (   1.3157767   4.4721532  12.6203727  )
        36           O1  tau(  36) = (   5.3104355   4.4689601  12.6331991  )
        37           Ti1 tau(  37) = (   6.5385524   5.9338372  12.5465384  )
        38           Ti1 tau(  38) = (   3.2200853   4.4710709  12.4725482  )
        39           O1  tau(  39) = (   0.0068575   2.9964749  14.7765288  )
        40           O1  tau(  40) = (   3.3021705   2.9848394  13.8818356  )
        41           O1  tau(  41) = (   4.5334443   4.4765196  15.9883447  )
        42           O1  tau(  42) = (   2.0816803   4.4801587  16.0471567  )
        43           Ti1 tau(  43) = (   3.3155128   0.0116264  15.6901768  )
        44           Ti1 tau(  44) = (   6.5575601   4.4671909  15.9479714  )
        45           O1  tau(  45) = (   3.2900926   2.9813045   4.7018136  )
        46           O1  tau(  46) = (   1.3039711   4.4726057   6.0039043  )
        47           O1  tau(  47) = (   5.2763189   4.4711207   6.0039473  )
        48           N1  tau(  48) = (   0.4270260   2.3853988  17.9668900  )
        49           C1  tau(  49) = (   0.9469377   1.9340014  19.0483692  )
        50           H1  tau(  50) = (   1.0789317   2.5769861  19.9249762  )
        51           H1  tau(  51) = (   1.2326487   0.8959138  19.0941702  )
        52           N1  tau(  52) = (   0.0025679   3.6232397  17.7996529  )
        53           H1  tau(  53) = (   0.1020252   4.2324666  18.6151602  )

     number of k points=    10  Fermi-Dirac smearing, width (Ry)=  0.0073
                       cart. coord. in units 2pi/alat
        k(    1) = (   0.0000000   0.0000000   0.0000000), wk =   0.1250000
        k(    2) = (   0.0000000   0.0419351   0.0000000), wk =   0.2500000
        k(    3) = (   0.0000000  -0.0838702   0.0000000), wk =   0.1250000
        k(    4) = (   0.0379955   0.0000049   0.0000000), wk =   0.2500000
        k(    5) = (   0.0379955   0.0419400   0.0000000), wk =   0.2500000
        k(    6) = (   0.0379955  -0.0838652   0.0000000), wk =   0.2500000
        k(    7) = (   0.0379955  -0.0419301   0.0000000), wk =   0.2500000
        k(    8) = (  -0.0759910  -0.0000099   0.0000000), wk =   0.1250000
        k(    9) = (  -0.0759910   0.0419252   0.0000000), wk =   0.2500000
        k(   10) = (  -0.0759910  -0.0838800   0.0000000), wk =   0.1250000

     Initial potential from superposition of free atoms

     starting charge  378.99916, renormalised to  395.00000

     negative rho (up, down):  1.650E-02 0.000E+00

     %%%%%%%%%%%%%%%%%%%%%%%%%%%%%%%%%%%%%%%%%%%%%%%%%%%%%%%%%%%%%%%%%%%%%%%%
     %                                                                      %
     % You are using vdW-DF, which was implemented by the Thonhauser group. %
     % Please cite the following two papers that made this development      %
     % possible and the two reviews that describe the various versions:     %
     %                                                                      %
     %   T. Thonhauser et al., PRL 115, 136402 (2015).                      %
     %   T. Thonhauser et al., PRB 76, 125112 (2007).                       %
     %   K. Berland et al., Rep. Prog. Phys. 78, 066501 (2015).             %
     %   D.C. Langreth et al., J. Phys.: Condens. Matter 21, 084203 (2009). %
     %                                                                      %
     %                                                                      %
     % If you are calculating the stress with vdW-DF, please also cite:     %
     %                                                                      %
     %   R. Sabatini et al., J. Phys.: Condens. Matter 24, 424209 (2012).   %
     %                                                                      %
     %%%%%%%%%%%%%%%%%%%%%%%%%%%%%%%%%%%%%%%%%%%%%%%%%%%%%%%%%%%%%%%%%%%%%%%%

     Adding external electric field

     Computed dipole along edir(3) :
        Dipole               -8.3938 Ry au,        -21.3349 Debye
        Dipole field         -0.0158 Ry au,

        Potential amp.        1.4684 Ry
        Total length         46.3494 bohr

     Starting wfcs are  299 atomic wfcs
  @ DRIVER MODE: Message from server: STATUS
  @ DRIVER MODE: Message from server: POSDATA
  @ DRIVER MODE: Reading and sharing cell
  @ DRIVER MODE: Reading and sharing positions
  @ DRIVER MODE: Received positions

     Self-consistent Calculation

     iteration #  1     ecut=    29.40 Ry     beta= 0.05
     Davidson diagonalization with overlap
     c_bands:  2 eigenvalues not converged
     c_bands:  1 eigenvalues not converged
     c_bands:  2 eigenvalues not converged
     c_bands:  3 eigenvalues not converged
     c_bands:  3 eigenvalues not converged
     c_bands:  2 eigenvalues not converged
     c_bands:  1 eigenvalues not converged
     ethr =  1.00E-05,  avg # of iterations = 19.3

[...]

     total energy              =   -2613.94415664 Ry
     estimated scf accuracy    <    3601.21549671 Ry

[...]

     iteration #  3     ecut=    29.40 Ry     beta= 0.05
     Davidson diagonalization with overlap
     ethr =  1.00E-02,  avg # of iterations = 14.6

[...]

     iteration # 51     ecut=    29.40 Ry     beta= 0.05
     Davidson diagonalization with overlap
     c_bands:  1 eigenvalues not converged
     c_bands:  1 eigenvalues not converged
     c_bands:  1 eigenvalues not converged
     ethr =  3.71E-06,  avg # of iterations = 17.0

[...]

     total energy              =   -2939.13518833 Ry
     estimated scf accuracy    <       0.00000009 Ry

     iteration # 80     ecut=    29.40 Ry     beta= 0.05
     Davidson diagonalization with overlap
     ethr =  2.33E-11,  avg # of iterations = 12.0

     negative rho (up, down):  1.682E-02 0.000E+00

     Adding external electric field

     Computed dipole along edir(3) :
        Dipole                0.7893 Ry au,          2.0062 Debye
        Dipole field          0.0015 Ry au,

        Potential amp.       -0.1381 Ry
        Total length         46.3494 bohr

     End of self-consistent calculation

          k = 0.0000 0.0000 0.0000 ( 18029 PWs)   bands (ev):

   -55.8515 -55.8506 -55.8174 -55.8145 -55.7446 -55.7017 -55.6641 -55.6622
   -55.6291 -55.6282 -55.6235 -55.5899 -55.1886 -55.1427 -54.8272 -54.7932
   -32.4047 -32.3344 -32.2403 -32.1621 -32.1484 -32.1437 -32.1301 -32.1153
   -32.0946 -32.0815 -32.0287 -32.0108 -32.0040 -32.0023 -31.9923 -31.9887
   -31.9563 -31.9445 -31.9384 -31.9358 -31.9089 -31.9066 -31.8906 -31.8885
   -31.8577 -31.8535 -31.8512 -31.8502 -31.8251 -31.8102 -31.8025 -31.7922
   -31.7798 -31.7780 -31.7704 -31.7370 -31.7306 -31.4531 -31.4158 -31.3885
   -31.3357 -31.3009 -31.2340 -31.1464 -31.1239 -31.0511 -30.9646 -30.8532
   -17.9430 -16.6109 -16.3308 -16.0755 -16.0002 -15.9963 -15.8628 -15.6998
   -15.5871 -15.5202 -15.4398 -15.4101 -15.3881 -15.3525 -15.3463 -15.3084
   -15.2996 -15.2740 -15.2707 -15.2084 -15.2051 -15.1975 -15.1877 -15.1035
   -15.0459 -14.9943 -14.9868 -14.9134 -14.8794 -14.3513 -13.3292 -13.2128
   -12.2122  -7.8554  -5.3797  -4.5421  -3.9877  -3.8283  -3.7587  -3.7242
    -3.6475  -3.4878  -3.4091  -3.1308  -3.0816  -3.0229  -3.0133  -2.9768
    -2.9434  -2.7817  -2.7038  -2.6760  -2.6604  -2.6381  -2.6230  -2.6109
    -2.5969  -2.5756  -2.4953  -2.4135  -2.3690  -2.2931  -2.2790  -2.2447
    -2.1637  -2.1632  -2.1231  -2.1031  -2.0852  -2.0687  -2.0602  -2.0447
    -1.9040  -1.8446  -1.8335  -1.6516  -1.6321  -1.5874  -1.4572  -1.4478
    -1.3375  -1.3219  -1.2822  -1.2445  -1.1720  -1.1500  -1.0386  -0.9972
    -0.9354  -0.8890  -0.8728  -0.7976  -0.7328  -0.6921  -0.6784  -0.6162
    -0.6094  -0.5965  -0.4647  -0.3847  -0.3319  -0.2758  -0.2539  -0.1977
    -0.1581  -0.1149  -0.0273  -0.0003   0.0113   0.0697   0.0912   0.1168
     0.1284   0.1482   0.1767   0.2325   0.3508   0.3825   0.4586   0.4728
     0.5332   0.6676   0.8055   0.8724   0.9253   1.0227   1.1260   1.1954
     1.2688   1.3878   1.7658   1.8112   2.1290   3.2682   3.3702   3.4030
     3.4140   3.5171   3.6658   3.7274   3.7424   3.7839   3.8208

[...]

          k = 0.0380-0.0419 0.0000 ( 17876 PWs)   bands (ev):

[...]

          k =-0.0760-0.0000 0.0000 ( 17886 PWs)   bands (ev):

[...]

          k =-0.0760-0.0839 0.0000 ( 17948 PWs)   bands (ev):

   -55.8347 -55.8341 -55.8330 -55.8319 -55.7360 -55.7103 -55.6474 -55.6457
   -55.6455 -55.6445 -55.6074 -55.6062 -55.1807 -55.1505 -54.8102 -54.8100
   -32.2069 -32.2053 -32.1499 -32.1495 -32.1293 -32.1289 -32.0954 -32.0925
   -32.0831 -32.0666 -32.0011 -31.9983 -31.9929 -31.9910 -31.9689 -31.9613
   -31.9545 -31.9539 -31.9488 -31.9474 -31.9456 -31.9341 -31.9284 -31.9215
   -31.9094 -31.9042 -31.8597 -31.8494 -31.8474 -31.8466 -31.8383 -31.8376
   -31.8243 -31.8237 -31.8231 -31.8219 -31.6825 -31.4484 -31.4146 -31.4101
   -31.3921 -31.3368 -31.1367 -31.1365 -31.0469 -31.0467 -31.0079 -31.0078
   -17.9298 -16.0261 -16.0233 -15.8155 -15.7766 -15.7574 -15.7517 -15.6618
   -15.5760 -15.5426 -15.5396 -15.4522 -15.4267 -15.4105 -15.3942 -15.3887
   -15.3801 -15.3503 -15.3152 -15.3077 -15.2936 -15.2880 -15.2761 -15.2191
   -15.1678 -15.1636 -15.1410 -15.0689 -14.8299 -14.6921 -13.3147 -13.3146
   -12.1724  -7.7957  -5.4256  -4.6038  -3.3206  -3.3111  -3.0651  -3.0269
    -3.0211  -3.0026  -2.9500  -2.7887  -2.7762  -2.7565  -2.7491  -2.7042
    -2.6808  -2.6605  -2.6408  -2.6355  -2.6068  -2.5803  -2.5654  -2.5284
    -2.5216  -2.5126  -2.4811  -2.4702  -2.4229  -2.4185  -2.3975  -2.3708
    -2.3609  -2.3254  -2.1828  -2.1065  -2.0784  -1.9933  -1.9864  -1.9452
    -1.9220  -1.9023  -1.8818  -1.8673  -1.8292  -1.6935  -1.6107  -1.5493
    -1.5406  -1.4561  -1.4283  -1.3663  -1.2772  -1.2513  -1.2305  -1.1590
    -1.0839  -1.0452  -0.9929  -0.9809  -0.9130  -0.9041  -0.8465  -0.8101
    -0.8081  -0.7312  -0.7015  -0.6533  -0.6171  -0.6004  -0.5774  -0.5502
    -0.5350  -0.5126  -0.4372  -0.3519  -0.3002  -0.2387  -0.1466  -0.0145
     0.1033   0.2159   0.2379   0.2822   0.3348   0.3692   0.4623   0.4661
     0.5303   0.5530   0.5941   0.6718   0.6831   0.7075   0.8186   0.8486
     1.5600   1.5603   1.6311   1.6313   2.0688   3.5910   3.6198   3.6389
     3.6707   3.8002   3.8062   3.8166   3.8175   3.9543   3.9608

     the Fermi energy is     3.2781 ev

!    total energy              =   -2939.13519905 Ry
     estimated scf accuracy    <       0.00000004 Ry
     smearing contrib. (-TS)   =      -0.02099103 Ry
     internal energy E=F+TS    =   -2939.11420802 Ry

     The total energy is F=E-TS. E is the sum of the following terms:
     one-electron contribution =  -24494.35045601 Ry
     hartree contribution      =   12335.13439446 Ry
     xc contribution           =    -485.37658143 Ry
     ewald contribution        =    9705.47725933 Ry
     electric field correction =       0.00117562 Ry

     convergence has been achieved in  80 iterations

     Forces acting on atoms (cartesian axes, Ry/au):

     atom    1 type  1   force =     0.00007213   -0.00023770    0.09633626
     atom    2 type  1   force =     0.00005739   -0.00057982   -0.17516290
     atom    3 type  2   force =     0.00014919   -0.00013072   -0.02408774
     atom    4 type  2   force =    -0.00000436   -0.00124795    0.05221900
     atom    5 type  2   force =    -0.01055729   -0.00047665    0.00251384
     atom    6 type  2   force =     0.01237448    0.00022319    0.00288693
     atom    7 type  1   force =     0.00098502    0.00026409   -0.01174746
     atom    8 type  1   force =    -0.00013652    0.00775906    0.02264191
     atom    9 type  2   force =    -0.00020055   -0.00015309   -0.00027408
     atom   10 type  2   force =    -0.00262223    0.00115194   -0.01266523
     atom   11 type  2   force =     0.00006077   -0.00011969    0.00005573
     atom   12 type  2   force =     0.00010297    0.00018517   -0.00038582
     atom   13 type  1   force =     0.00043911   -0.00034550    0.00023172
     atom   14 type  1   force =     0.00015312    0.00032608   -0.00015418
     atom   15 type  2   force =    -0.00021832    0.00015385    0.00003785
     atom   16 type  2   force =     0.00010870   -0.00020650    0.00036752
     atom   17 type  2   force =     0.00048740   -0.00002073    0.00037810
     atom   18 type  2   force =     0.00060440   -0.00013951    0.00033414
     atom   19 type  1   force =    -0.00110629    0.00007114    0.00013024
     atom   20 type  1   force =     0.00016975   -0.00039459   -0.00089029
     atom   21 type  2   force =     0.00004816    0.00000562    0.10311257
     atom   22 type  2   force =     0.00008891   -0.00017896   -0.00004082
     atom   23 type  2   force =    -0.07162751   -0.00015487   -0.02764533
     atom   24 type  2   force =     0.07156524    0.00034683   -0.02770566
     atom   25 type  1   force =     0.00015981   -0.00023637    0.09586661
     atom   26 type  1   force =     0.00009638   -0.00040319   -0.17542265
     atom   27 type  2   force =     0.00017523   -0.00021445   -0.02292169
     atom   28 type  2   force =     0.00006372   -0.00101296    0.05218630
     atom   29 type  2   force =    -0.01085767    0.00048111    0.00243538
     atom   30 type  2   force =     0.01255236    0.00064200    0.00278253
     atom   31 type  1   force =     0.00087373    0.00347284   -0.01293302
     atom   32 type  1   force =     0.00002887   -0.00925848    0.02306247
     atom   33 type  2   force =    -0.00048492    0.00013511    0.00022641
     atom   34 type  2   force =    -0.00302578    0.00022836   -0.01287766
     atom   35 type  2   force =     0.00008401    0.00008808   -0.00007900
     atom   36 type  2   force =     0.00010896    0.00033302   -0.00039311
     atom   37 type  1   force =     0.00032683    0.00036549    0.00008295
     atom   38 type  1   force =     0.00002600   -0.00043449    0.00015239
     atom   39 type  2   force =     0.00015615    0.00045815    0.00054331
     atom   40 type  2   force =     0.00035371    0.00012716   -0.00035894
     atom   41 type  2   force =     0.00035007    0.00007457    0.00022493
     atom   42 type  2   force =     0.00099047    0.00003506    0.00046924
     atom   43 type  1   force =    -0.00153035   -0.00045737   -0.00036401
     atom   44 type  1   force =     0.00070044   -0.00052439   -0.00041339
     atom   45 type  2   force =     0.00006270   -0.00003688    0.10306803
     atom   46 type  2   force =    -0.07165019   -0.00006824   -0.02765958
     atom   47 type  2   force =     0.07158899    0.00032972   -0.02772760
     atom   48 type  3   force =    -0.00629023    0.00286339   -0.01489731
     atom   49 type  4   force =     0.00695536   -0.00057972    0.02432965
     atom   50 type  5   force =    -0.00197565   -0.00386970   -0.00689564
     atom   51 type  5   force =     0.00015402   -0.00052462   -0.00168024
     atom   52 type  3   force =    -0.00107785    0.00207382   -0.00220988
     atom   53 type  5   force =     0.00009120   -0.00018769    0.00091723

     Total force =     0.367073     Total SCF correction =     0.000530
  @ DRIVER MODE: Message from server: STATUS
  @ DRIVER MODE: Message from server: GETFORCE
  @ DRIVER MODE: Returning v,forces,stress,ensemble

     Writing output data file ./calc.save/
  @ DRIVER MODE: Message from server: EXIT
  @ DRIVE MODE: Exiting

     General routines

     Parallel routines

   This run was terminated on:   1:25:34   9Sep2021

   JOB DONE.