     Program PWSCF v.6.7GPU starts on 23Aug2021 at 16: 0:29

     R & G space division:  proc/nbgrp/npool/nimage =       6
     Reading input from /storage/home/hcoda1/3/ntian30/research/carbon/CH_vib/ads_slab/CHNHHH_a/out_0006/pw.inp
Warning: card &CELL ignored
Warning: card   CELL_DYNAMICS='IPI', ignored
Warning: card / ignored

     Current dimensions of program PWSCF are:
     Max number of different atomic species (ntypx) = 10
     Max number of k-points (npk) =  40000
     Max angular momentum in pseudopotentials (lmaxx) =  3
     Presently no symmetry can be used with electric field

     Message from routine cell_base_init:
     DEPRECATED: use true lattice parameter, not A to a.u. conversion factor

     IMPORTANT: XC functional enforced from input :
     Exchange-correlation= BEEF-VDW
                           (   1   4  43  14   2   0   0)
     Any further DFT definition will be discarded
     Please, verify this is what you really want

  @ DRIVER MODE: Connecting to
 qe_1139763_2632793.sched-torque.pace.gatech.eduh0onk4ua_scratch
  using UNIX socket
  @ DRIVER MODE: Message from server: STATUS
  @ DRIVER MODE: Message from server: INIT
  @ DRIVER MODE: Receiving replica           0          -1
  @ DRIVER MODE: Receiving encoded integer          25
  @ DRIVER MODE:  SCF:  T  FORCE:  T  STRESS:  F  VC:  F  ENSEMBLE:  F
  @ DRIVER MODE:  SCF:  T  FORCE:  T  STRESS:  F  VC:  F  ENSEMBLE:  F

     Using Slab Decomposition

     bravais-lattice index     =            0
     lattice parameter (alat)  =       1.8897  a.u.
     unit-cell volume          =    6658.9804 (a.u.)^3
     number of atoms/cell      =           53
     number of atomic types    =            5
     number of electrons       =       391.00
     number of Kohn-Sham states=          205
     kinetic-energy cutoff     =      29.3995  Ry
     charge density cutoff     =     293.9946  Ry
     scf convergence threshold =      7.3E-08
     mixing beta               =       0.0500
     number of iterations used =            8  plain     mixing
     Exchange-correlation= BEEF-VDW
                           (   1   4  43  14   2   0   0)

     celldm(1)=   1.889726  celldm(2)=   0.000000  celldm(3)=   0.000000
     celldm(4)=   0.000000  celldm(5)=   0.000000  celldm(6)=   0.000000

     crystal axes: (cart. coord. in units of alat)
               a(1) = (   6.579727   0.000000   0.000000 )
               a(2) = (  -0.000775   5.961596   0.000000 )
               a(3) = (   0.000000   0.000000  25.155947 )

     reciprocal axes: (cart. coord. in units 2 pi/alat)
               b(1) = (  0.151982  0.000020  0.000000 )
               b(2) = (  0.000000  0.167740  0.000000 )
               b(3) = (  0.000000  0.000000  0.039752 )

     PseudoPot. # 1 for Ti read from file:
     /storage/coda1/p-amedford6/0/shared/rich_project_chbe-medford/medford-share/data/pseudos_module/espresso/nninc/pbe/van/Ti.UPF
     MD5 check sum: 8e4df49b7f0d34bbd5052bf3f5ea0213
     Pseudo is Ultrasoft, Zval = 12.0
     Generated by new atomic code, or converted to UPF format
     Using radial grid of  851 points,  6 beta functions with:
                l(1) =   0
                l(2) =   0
                l(3) =   1
                l(4) =   1
                l(5) =   2
                l(6) =   2
     Q(r) pseudized with  8 coefficients,  rinner =    1.000   1.000   1.000
                                                       1.000   1.000

     PseudoPot. # 2 for O  read from file:
     /storage/coda1/p-amedford6/0/shared/rich_project_chbe-medford/medford-share/data/pseudos_module/espresso/nninc/pbe/van/O.UPF
     MD5 check sum: 78c19812648e8988a0fe644b0f25305e
     Pseudo is Ultrasoft, Zval =  6.0
     Generated by new atomic code, or converted to UPF format
     Using radial grid of  737 points,  4 beta functions with:
                l(1) =   0
                l(2) =   0
                l(3) =   1
                l(4) =   1
     Q(r) pseudized with  8 coefficients,  rinner =    0.800   0.800   0.800

     PseudoPot. # 3 for N  read from file:
     /storage/coda1/p-amedford6/0/shared/rich_project_chbe-medford/medford-share/data/pseudos_module/espresso/nninc/pbe/van/N.UPF
     MD5 check sum: 90d10febe142ad51ac9d5be1deb811c4
     Pseudo is Ultrasoft, Zval =  5.0
     Generated by new atomic code, or converted to UPF format
     Using radial grid of  729 points,  4 beta functions with:
                l(1) =   0
                l(2) =   0
                l(3) =   1
                l(4) =   1
     Q(r) pseudized with  8 coefficients,  rinner =    0.800   0.800   0.800

     PseudoPot. # 4 for C  read from file:
     /storage/coda1/p-amedford6/0/shared/rich_project_chbe-medford/medford-share/data/pseudos_module/espresso/nninc/pbe/van/C.UPF
     MD5 check sum: 1a69bf6b8db32088f5b2163dbdb77a27
     Pseudo is Ultrasoft, Zval =  4.0
     Generated by new atomic code, or converted to UPF format
     Using radial grid of  721 points,  4 beta functions with:
                l(1) =   0
                l(2) =   0
                l(3) =   1
                l(4) =   1
     Q(r) pseudized with  8 coefficients,  rinner =    0.800   0.800   0.800

     PseudoPot. # 5 for H  read from file:
     /storage/coda1/p-amedford6/0/shared/rich_project_chbe-medford/medford-share/data/pseudos_module/espresso/nninc/pbe/van/H.UPF
     MD5 check sum: b5ee9d7bfd3a09ee7748110bda690ff7
     Pseudo is Ultrasoft, Zval =  1.0
     Generated by new atomic code, or converted to UPF format
     Using radial grid of  615 points,  1 beta functions with:
                l(1) =   0
     Q(r) pseudized with  8 coefficients,  rinner =    0.800

     atomic species   valence    mass     pseudopotential
        Ti1           12.00    47.86700     Ti( 1.00)
        O1             6.00    15.99900     O ( 1.00)
        N1             5.00    14.00700     N ( 1.00)
        C1             4.00    12.01100     C ( 1.00)
        H1             1.00     1.00800     H ( 1.00)

     No symmetry found

   Cartesian axes

     site n.     atom                  positions (alat units)
         1           Ti1 tau(   1) = (   0.0004258   2.9801865   6.0000000  )
         2           Ti1 tau(   2) = (   3.2906075   1.4906267   6.0002472  )
         3           O1  tau(   3) = (   0.0006271   0.0005054   7.9858123  )
         4           O1  tau(   4) = (   3.2906025   0.0005020   7.3038282  )
         5           O1  tau(   5) = (   4.5942328   1.4918067   9.2879030  )
         6           O1  tau(   6) = (   1.9868534   1.4903216   9.2879459  )
         7           Ti1 tau(   7) = (   3.2907910   2.8959150   9.1758416  )
         8           Ti1 tau(   8) = (   0.0015273   1.4827037   9.2680791  )
         9           O1  tau(   9) = (   3.3113122   5.9567026  11.3833813  )
        10           O1  tau(  10) = (   0.0116148   5.9584955  10.6183126  )
        11           O1  tau(  11) = (   1.3074368   1.4838846  12.6958875  )
        12           O1  tau(  12) = (   5.3165545   1.4905306  12.6890028  )
        13           Ti1 tau(  13) = (   0.0319163   2.9634337  12.5060949  )
        14           Ti1 tau(  14) = (   3.3348194   1.4676286  12.5406051  )
        15           O1  tau(  15) = (   6.5718004   5.8756060  14.7032446  )
        16           O1  tau(  16) = (   3.3285255   5.9545307  14.0046557  )
        17           O1  tau(  17) = (   4.5620449   1.5282301  16.1894795  )
        18           O1  tau(  18) = (   2.0507131   1.5111456  16.1254446  )
        19           Ti1 tau(  19) = (   3.3090684   3.0029381  15.7706148  )
        20           Ti1 tau(  20) = (   0.0350077   1.2886257  15.8758580  )
        21           O1  tau(  21) = (   3.2904802   0.0005063   4.7018136  )
        22           O1  tau(  22) = (   0.0240991   0.1326893  17.2553962  )
        23           O1  tau(  23) = (   1.3043587   1.4918075   6.0039043  )
        24           O1  tau(  24) = (   5.2767064   1.4903225   6.0039473  )
        25           Ti1 tau(  25) = (   0.0000382   5.9609847   6.0000000  )
        26           Ti1 tau(  26) = (   3.2902200   4.4714249   6.0002472  )
        27           O1  tau(  27) = (   0.0002396   2.9813036   7.9858123  )
        28           O1  tau(  28) = (   3.2902150   2.9813002   7.3038282  )
        29           O1  tau(  29) = (   4.5938453   4.4726049   9.2879030  )
        30           O1  tau(  30) = (   1.9864658   4.4711199   9.2879459  )
        31           Ti1 tau(  31) = (   3.2891106   5.8743827   9.1763621  )
        32           Ti1 tau(  32) = (   0.0006254   4.4649316   9.2693709  )
        33           O1  tau(  33) = (   3.3073171   2.9646269  11.3784001  )
        34           O1  tau(  34) = (   0.0092240   2.9805883  10.6323155  )
        35           O1  tau(  35) = (   1.3112202   4.4579144  12.6624112  )
        36           O1  tau(  36) = (   5.3138049   4.4530836  12.6532163  )
        37           Ti1 tau(  37) = (   0.0383750   5.9352221  12.5084026  )
        38           Ti1 tau(  38) = (   3.3346062   4.4465110  12.5317211  )
        39           O1  tau(  39) = (   0.0124192   3.0170750  14.9941726  )
        40           O1  tau(  40) = (   3.3221393   2.9969786  13.9787254  )
        41           O1  tau(  41) = (   4.5445774   4.4782521  16.2319081  )
        42           O1  tau(  42) = (   2.0501905   4.4790704  16.2078326  )
        43           Ti1 tau(  43) = (   3.3285819   0.0194352  15.8051934  )
        44           Ti1 tau(  44) = (   0.0611752   4.5099810  16.0683830  )
        45           O1  tau(  45) = (   3.2900926   2.9813045   4.7018136  )
        46           O1  tau(  46) = (   1.3039711   4.4726057   6.0039043  )
        47           O1  tau(  47) = (   5.2763189   4.4711207   6.0039473  )
        48           N1  tau(  48) = (   6.2166669   3.4226028  18.2451681  )
        49           C1  tau(  49) = (   0.7325778   3.1430902  19.0455235  )
        50           H1  tau(  50) = (   1.1688338   2.1628109  18.9760543  )
        51           H1  tau(  51) = (   5.7007151   4.2593073  18.4945226  )
        52           H1  tau(  52) = (   5.5741914   2.6425579  18.1107425  )
        53           H1  tau(  53) = (   1.2593429   3.9788434  19.4721980  )

     number of k points=    10  Fermi-Dirac smearing, width (Ry)=  0.0073
                       cart. coord. in units 2pi/alat
        k(    1) = (   0.0000000   0.0000000   0.0000000), wk =   0.1250000
        k(    2) = (   0.0000000   0.0419351   0.0000000), wk =   0.2500000
        k(    3) = (   0.0000000  -0.0838702   0.0000000), wk =   0.1250000
        k(    4) = (   0.0379955   0.0000049   0.0000000), wk =   0.2500000
        k(    5) = (   0.0379955   0.0419400   0.0000000), wk =   0.2500000
        k(    6) = (   0.0379955  -0.0838652   0.0000000), wk =   0.2500000
        k(    7) = (   0.0379955  -0.0419301   0.0000000), wk =   0.2500000
        k(    8) = (  -0.0759910  -0.0000099   0.0000000), wk =   0.1250000
        k(    9) = (  -0.0759910   0.0419252   0.0000000), wk =   0.2500000
        k(   10) = (  -0.0759910  -0.0838800   0.0000000), wk =   0.1250000

     Initial potential from superposition of free atoms

     starting charge  374.99916, renormalised to  391.00000

     negative rho (up, down):  1.699E-02 0.000E+00

     %%%%%%%%%%%%%%%%%%%%%%%%%%%%%%%%%%%%%%%%%%%%%%%%%%%%%%%%%%%%%%%%%%%%%%%%
     %                                                                      %
     % You are using vdW-DF, which was implemented by the Thonhauser group. %
     % Please cite the following two papers that made this development      %
     % possible and the two reviews that describe the various versions:     %
     %                                                                      %
     %   T. Thonhauser et al., PRL 115, 136402 (2015).                      %
     %   T. Thonhauser et al., PRB 76, 125112 (2007).                       %
     %   K. Berland et al., Rep. Prog. Phys. 78, 066501 (2015).             %
     %   D.C. Langreth et al., J. Phys.: Condens. Matter 21, 084203 (2009). %
     %                                                                      %
     %                                                                      %
     % If you are calculating the stress with vdW-DF, please also cite:     %
     %                                                                      %
     %   R. Sabatini et al., J. Phys.: Condens. Matter 24, 424209 (2012).   %
     %                                                                      %
     %%%%%%%%%%%%%%%%%%%%%%%%%%%%%%%%%%%%%%%%%%%%%%%%%%%%%%%%%%%%%%%%%%%%%%%%

     Adding external electric field

     Computed dipole along edir(3) :
        Dipole               -6.8911 Ry au,        -17.5155 Debye
        Dipole field         -0.0130 Ry au,

        Potential amp.        1.2055 Ry
        Total length         46.3494 bohr

     Starting wfcs are  296 atomic wfcs
  @ DRIVER MODE: Message from server: STATUS
  @ DRIVER MODE: Message from server: POSDATA
  @ DRIVER MODE: Reading and sharing cell
  @ DRIVER MODE: Reading and sharing positions
  @ DRIVER MODE: Received positions

     Self-consistent Calculation

     iteration #  1     ecut=    29.40 Ry     beta= 0.05
     Davidson diagonalization with overlap
     c_bands:  1 eigenvalues not converged
     c_bands:  2 eigenvalues not converged
     ethr =  1.00E-05,  avg # of iterations = 15.9

[...]

     total energy              =   -2713.93889893 Ry
     estimated scf accuracy    <    2276.26625435 Ry

     iteration #  2     ecut=    29.40 Ry     beta= 0.05
     Davidson diagonalization with overlap
     ethr =  1.00E-02,  avg # of iterations = 18.9

[...]

     iteration # 69     ecut=    29.40 Ry     beta= 0.05
     Davidson diagonalization with overlap
     c_bands:  1 eigenvalues not converged
     ethr =  2.40E-11,  avg # of iterations = 14.3

[...]

     total energy              =   -2920.25691946 Ry
     estimated scf accuracy    <       0.00000009 Ry

     iteration # 70     ecut=    29.40 Ry     beta= 0.05
     Davidson diagonalization with overlap
     ethr =  2.35E-11,  avg # of iterations = 13.0

     negative rho (up, down):  1.631E-02 0.000E+00

     Adding external electric field

     Computed dipole along edir(3) :
        Dipole                0.9113 Ry au,          2.3162 Debye
        Dipole field          0.0017 Ry au,

        Potential amp.       -0.1594 Ry
        Total length         46.3494 bohr

     End of self-consistent calculation

          k = 0.0000 0.0000 0.0000 ( 18029 PWs)   bands (ev):

   -55.7126 -55.6763 -55.6664 -55.6323 -55.5998 -55.5964 -55.5621 -55.5378
   -55.5296 -55.5034 -55.4982 -55.4646 -55.4443 -55.2837 -54.6980 -54.6639
   -32.2777 -32.1593 -32.0839 -32.0358 -32.0319 -32.0268 -32.0224 -32.0041
   -31.9554 -31.9458 -31.9252 -31.9203 -31.9114 -31.8815 -31.8670 -31.8659
   -31.8513 -31.8380 -31.8337 -31.8189 -31.8141 -31.7806 -31.7736 -31.7682
   -31.7400 -31.7291 -31.7281 -31.7235 -31.7175 -31.7104 -31.6983 -31.6963
   -31.6867 -31.6840 -31.6513 -31.6512 -31.6462 -31.6262 -31.6169 -31.6097
   -31.5032 -31.4565 -31.1074 -31.0129 -30.9909 -30.9238 -30.8370 -30.7261
   -16.7298 -16.5228 -16.2649 -16.1012 -15.9998 -15.9130 -15.7721 -15.7528
   -15.6365 -15.5596 -15.4173 -15.3829 -15.3686 -15.3512 -15.3301 -15.3191
   -15.2610 -15.2552 -15.2346 -15.2100 -15.2060 -15.1579 -15.1545 -15.1143
   -15.0908 -15.0327 -14.9593 -14.8753 -14.8030 -14.4780 -13.2006 -13.0831
    -9.5716  -6.9094  -5.0145  -3.8767  -3.7335  -3.6696  -3.6153  -3.6077
    -3.4638  -3.2931  -3.1539  -3.1269  -3.1032  -2.9826  -2.9186  -2.9040
    -2.8803  -2.7541  -2.7251  -2.6761  -2.6391  -2.5649  -2.5607  -2.5188
    -2.5052  -2.4622  -2.4561  -2.4284  -2.3024  -2.2822  -2.2504  -2.1814
    -2.1207  -2.1197  -2.0621  -2.0441  -2.0044  -1.9955  -1.9860  -1.9453
    -1.9372  -1.9025  -1.8024  -1.7378  -1.6060  -1.5719  -1.4288  -1.3550
    -1.3066  -1.2884  -1.2044  -1.1856  -1.1360  -1.0934  -1.0859  -1.0514
    -0.9384  -0.8548  -0.8025  -0.7474  -0.7162  -0.6988  -0.6098  -0.5176
    -0.4940  -0.4809  -0.4411  -0.3389  -0.3169  -0.2561  -0.1949  -0.1792
    -0.1701  -0.0772  -0.0435   0.0296   0.0784   0.0994   0.1725   0.1977
     0.2178   0.2231   0.2576   0.2700   0.3440   0.3624   0.3873   0.4739
     0.5989   0.8441   0.8954   0.9058   1.2253   1.2296   1.3248   1.5080
     1.9012   1.9495   3.3785   3.3964   3.4598   3.5290   3.5327   3.5958
     3.6197   3.8649   3.8861   3.8935   3.9099

[...]

          k = 0.0380-0.0419 0.0000 ( 17876 PWs)   bands (ev):

[...]

          k =-0.0760-0.0000 0.0000 ( 17886 PWs)   bands (ev):

[...]

          k =-0.0760-0.0839 0.0000 ( 17948 PWs)   bands (ev):

   -55.6974 -55.6913 -55.6495 -55.6491 -55.5953 -55.5799 -55.5786 -55.5339
   -55.5222 -55.5186 -55.4818 -55.4811 -55.4422 -55.2858 -54.6810 -54.6807
   -32.0844 -32.0797 -31.9889 -31.9745 -31.9742 -31.9705 -31.9454 -31.9407
   -31.9406 -31.9245 -31.9180 -31.9089 -31.9038 -31.8634 -31.8600 -31.8545
   -31.8504 -31.8460 -31.8404 -31.8371 -31.8209 -31.8013 -31.7929 -31.7922
   -31.7749 -31.7704 -31.7691 -31.7686 -31.7549 -31.7513 -31.7350 -31.7315
   -31.7312 -31.7173 -31.7144 -31.7116 -31.6657 -31.6620 -31.6612 -31.6227
   -31.5480 -31.5054 -31.0036 -31.0034 -30.9200 -30.9198 -30.8804 -30.8803
   -16.7039 -16.0052 -15.9378 -15.8997 -15.7513 -15.7103 -15.6758 -15.6644
   -15.5412 -15.5107 -15.4898 -15.4678 -15.4335 -15.4177 -15.4112 -15.3618
   -15.3328 -15.3123 -15.3080 -15.2940 -15.2313 -15.2250 -15.2201 -15.2128
   -15.1651 -15.1615 -15.0702 -15.0672 -15.0471 -14.7653 -13.1846 -13.1846
    -9.5736  -6.8916  -4.9941  -3.2125  -3.1968  -3.1546  -3.1330  -2.9721
    -2.9155  -2.8957  -2.8651  -2.7960  -2.7418  -2.7250  -2.6822  -2.6779
    -2.6233  -2.5917  -2.5662  -2.5515  -2.5460  -2.5314  -2.5097  -2.4752
    -2.4448  -2.4436  -2.4338  -2.3894  -2.3626  -2.3518  -2.3144  -2.3077
    -2.3003  -2.2715  -2.2103  -2.1113  -2.0786  -2.0538  -1.9579  -1.9224
    -1.9174  -1.8377  -1.8047  -1.7494  -1.7432  -1.7370  -1.5738  -1.4995
    -1.4614  -1.4587  -1.4371  -1.3094  -1.2950  -1.2164  -1.1924  -1.1819
    -1.0984  -1.0718  -1.0278  -1.0014  -0.9241  -0.8960  -0.8343  -0.7467
    -0.7093  -0.7014  -0.6708  -0.6672  -0.6185  -0.6074  -0.5222  -0.4832
    -0.4484  -0.4380  -0.3906  -0.2071  -0.1884  -0.1592  -0.0192   0.0286
     0.1552   0.1786   0.2394   0.3134   0.3533   0.3991   0.4354   0.5806
     0.5907   0.6191   0.6679   0.6790   0.7376   0.7463   1.6811   1.6816
     1.7694   1.7697   3.3926   3.6383   3.6406   3.6765   3.6995   3.8538
     3.8993   3.9420   3.9647   3.9679   3.9890

     the Fermi energy is     3.4464 ev

!    total energy              =   -2920.25693938 Ry
     estimated scf accuracy    <       0.00000004 Ry
     smearing contrib. (-TS)   =      -0.04252867 Ry
     internal energy E=F+TS    =   -2920.21441071 Ry

     The total energy is F=E-TS. E is the sum of the following terms:
     one-electron contribution =  -24057.02832755 Ry
     hartree contribution      =   12114.77551431 Ry
     xc contribution           =    -480.86400952 Ry
     ewald contribution        =    9502.90084498 Ry
     electric field correction =       0.00156708 Ry

     convergence has been achieved in  70 iterations

     Forces acting on atoms (cartesian axes, Ry/au):

     atom    1 type  1   force =    -0.00001837   -0.00020107    0.09317845
     atom    2 type  1   force =    -0.00011159   -0.00033378   -0.17839482
     atom    3 type  2   force =     0.00009109   -0.00038914   -0.02007019
     atom    4 type  2   force =     0.00004772   -0.00199881    0.05912824
     atom    5 type  2   force =    -0.01020799   -0.00082000    0.00742874
     atom    6 type  2   force =     0.01221936   -0.00042780    0.00774389
     atom    7 type  1   force =     0.00014972    0.00228613   -0.01370344
     atom    8 type  1   force =    -0.00035082   -0.00184498   -0.00453393
     atom    9 type  2   force =    -0.00034066    0.00036493   -0.00021992
     atom   10 type  2   force =    -0.00026605    0.00141618    0.00224872
     atom   11 type  2   force =    -0.00014154    0.00010341   -0.00008029
     atom   12 type  2   force =    -0.00026226   -0.00023074   -0.00059018
     atom   13 type  1   force =    -0.00049273    0.00091481   -0.00032882
     atom   14 type  1   force =    -0.00069807    0.00043909   -0.00050756
     atom   15 type  2   force =     0.00006801   -0.00035851    0.00033446
     atom   16 type  2   force =    -0.00040722   -0.00009861    0.00009915
     atom   17 type  2   force =     0.00012938   -0.00017228   -0.00019426
     atom   18 type  2   force =    -0.00041078   -0.00011264    0.00061904
     atom   19 type  1   force =    -0.00070365   -0.00010141   -0.00027688
     atom   20 type  1   force =    -0.00007722   -0.00035871   -0.00081103
     atom   21 type  2   force =     0.00002453   -0.00006299    0.10399431
     atom   22 type  2   force =    -0.00056503   -0.00020641    0.00067017
     atom   23 type  2   force =    -0.07036431   -0.00014972   -0.02688026
     atom   24 type  2   force =     0.07024112    0.00028860   -0.02696559
     atom   25 type  1   force =     0.00002330   -0.00014280    0.09255900
     atom   26 type  1   force =    -0.00014350   -0.00045614   -0.17847770
     atom   27 type  2   force =     0.00015937   -0.00028492   -0.01913790
     atom   28 type  2   force =     0.00005858   -0.00177081    0.05850900
     atom   29 type  2   force =    -0.01069576   -0.00130026    0.00789877
     atom   30 type  2   force =     0.01257384   -0.00082988    0.00816389
     atom   31 type  1   force =     0.00028159    0.00600000   -0.01441926
     atom   32 type  1   force =    -0.00036932    0.00123104   -0.00499575
     atom   33 type  2   force =    -0.00004731   -0.00045680   -0.00007350
     atom   34 type  2   force =     0.00078233   -0.00259120    0.00064962
     atom   35 type  2   force =    -0.00061149   -0.00029575   -0.00009935
     atom   36 type  2   force =     0.00060679    0.00004987    0.00007068
     atom   37 type  1   force =    -0.00047240   -0.00041828   -0.00002057
     atom   38 type  1   force =    -0.00026812    0.00034937   -0.00089236
     atom   39 type  2   force =    -0.00066465    0.00024822    0.00018986
     atom   40 type  2   force =    -0.00014683   -0.00036367   -0.00049588
     atom   41 type  2   force =    -0.00060519   -0.00011887    0.00050361
     atom   42 type  2   force =    -0.00005650   -0.00021107    0.00050136
     atom   43 type  1   force =     0.00040513   -0.00001331   -0.00063837
     atom   44 type  1   force =     0.00047131    0.00131396   -0.00095145
     atom   45 type  2   force =     0.00003814   -0.00007697    0.10394860
     atom   46 type  2   force =    -0.07033366   -0.00009007   -0.02686154
     atom   47 type  2   force =     0.07023678    0.00035150   -0.02691747
     atom   48 type  3   force =    -0.00532757   -0.00276707   -0.00683042
     atom   49 type  4   force =     0.00351791    0.00142078    0.00446883
     atom   50 type  5   force =     0.00039434   -0.00085218   -0.00032087
     atom   51 type  5   force =     0.00030338    0.00233657    0.00147316
     atom   52 type  5   force =     0.00139567    0.00203177    0.00064174
     atom   53 type  5   force =     0.00094124   -0.00023859   -0.00033370

     Total force =     0.366509     Total SCF correction =     0.000308
  @ DRIVER MODE: Message from server: STATUS
  @ DRIVER MODE: Message from server: GETFORCE
  @ DRIVER MODE: Returning v,forces,stress,ensemble

     Writing output data file ./calc.save/
  @ DRIVER MODE: Message from server: EXIT
  @ DRIVE MODE: Exiting

     General routines

     Parallel routines

   This run was terminated on:  16:30:15  23Aug2021

   JOB DONE.