     Program PWSCF v.6.7GPU starts on 24Sep2021 at 10:51:32

     R & G space division:  proc/nbgrp/npool/nimage =       8
     Reading input from /storage/home/hcoda1/3/ntian30/research/carbon/CxH_vib/H2O_calc/ads_slab/CH3NH2NHHO_c/out_0055/pw.inp
Warning: card &CELL ignored
Warning: card   CELL_DYNAMICS='IPI', ignored
Warning: card / ignored

     Current dimensions of program PWSCF are:
     Max number of different atomic species (ntypx) = 10
     Max number of k-points (npk) =  40000
     Max angular momentum in pseudopotentials (lmaxx) =  3
     Presently no symmetry can be used with electric field

     Message from routine cell_base_init:
     DEPRECATED: use true lattice parameter, not A to a.u. conversion factor

     IMPORTANT: XC functional enforced from input :
     Exchange-correlation= BEEF-VDW
                           (   1   4  43  14   2   0   0)
     Any further DFT definition will be discarded
     Please, verify this is what you really want

  @ DRIVER MODE: Connecting to
 qe_1139763_2947310.sched-torque.pace.gatech.edugp4qawmk_scratch
  using UNIX socket
  @ DRIVER MODE: Message from server: STATUS
  @ DRIVER MODE: Message from server: INIT
  @ DRIVER MODE: Receiving replica           0          -1
  @ DRIVER MODE: Receiving encoded integer          25
  @ DRIVER MODE:  SCF:  T  FORCE:  T  STRESS:  F  VC:  F  ENSEMBLE:  F
  @ DRIVER MODE:  SCF:  T  FORCE:  T  STRESS:  F  VC:  F  ENSEMBLE:  F

     Using Slab Decomposition

     bravais-lattice index     =            0
     lattice parameter (alat)  =       1.8897  a.u.
     unit-cell volume          =    6658.9804 (a.u.)^3
     number of atoms/cell      =           58
     number of atomic types    =            5
     number of electrons       =       405.00
     number of Kohn-Sham states=          212
     kinetic-energy cutoff     =      29.3995  Ry
     charge density cutoff     =     293.9946  Ry
     scf convergence threshold =      7.3E-08
     mixing beta               =       0.0500
     number of iterations used =            8  plain     mixing
     Exchange-correlation= BEEF-VDW
                           (   1   4  43  14   2   0   0)

     celldm(1)=   1.889726  celldm(2)=   0.000000  celldm(3)=   0.000000
     celldm(4)=   0.000000  celldm(5)=   0.000000  celldm(6)=   0.000000

     crystal axes: (cart. coord. in units of alat)
               a(1) = (   6.579727   0.000000   0.000000 )
               a(2) = (  -0.000775   5.961596   0.000000 )
               a(3) = (   0.000000   0.000000  25.155947 )

     reciprocal axes: (cart. coord. in units 2 pi/alat)
               b(1) = (  0.151982  0.000020  0.000000 )
               b(2) = (  0.000000  0.167740  0.000000 )
               b(3) = (  0.000000  0.000000  0.039752 )

     PseudoPot. # 1 for Ti read from file:
     /storage/coda1/p-amedford6/0/shared/rich_project_chbe-medford/medford-share/data/pseudos_module/espresso/nninc/pbe/van/Ti.UPF
     MD5 check sum: 8e4df49b7f0d34bbd5052bf3f5ea0213
     Pseudo is Ultrasoft, Zval = 12.0
     Generated by new atomic code, or converted to UPF format
     Using radial grid of  851 points,  6 beta functions with:
                l(1) =   0
                l(2) =   0
                l(3) =   1
                l(4) =   1
                l(5) =   2
                l(6) =   2
     Q(r) pseudized with  8 coefficients,  rinner =    1.000   1.000   1.000
                                                       1.000   1.000

     PseudoPot. # 2 for O  read from file:
     /storage/coda1/p-amedford6/0/shared/rich_project_chbe-medford/medford-share/data/pseudos_module/espresso/nninc/pbe/van/O.UPF
     MD5 check sum: 78c19812648e8988a0fe644b0f25305e
     Pseudo is Ultrasoft, Zval =  6.0
     Generated by new atomic code, or converted to UPF format
     Using radial grid of  737 points,  4 beta functions with:
                l(1) =   0
                l(2) =   0
                l(3) =   1
                l(4) =   1
     Q(r) pseudized with  8 coefficients,  rinner =    0.800   0.800   0.800

     PseudoPot. # 3 for N  read from file:
     /storage/coda1/p-amedford6/0/shared/rich_project_chbe-medford/medford-share/data/pseudos_module/espresso/nninc/pbe/van/N.UPF
     MD5 check sum: 90d10febe142ad51ac9d5be1deb811c4
     Pseudo is Ultrasoft, Zval =  5.0
     Generated by new atomic code, or converted to UPF format
     Using radial grid of  729 points,  4 beta functions with:
                l(1) =   0
                l(2) =   0
                l(3) =   1
                l(4) =   1
     Q(r) pseudized with  8 coefficients,  rinner =    0.800   0.800   0.800

     PseudoPot. # 4 for C  read from file:
     /storage/coda1/p-amedford6/0/shared/rich_project_chbe-medford/medford-share/data/pseudos_module/espresso/nninc/pbe/van/C.UPF
     MD5 check sum: 1a69bf6b8db32088f5b2163dbdb77a27
     Pseudo is Ultrasoft, Zval =  4.0
     Generated by new atomic code, or converted to UPF format
     Using radial grid of  721 points,  4 beta functions with:
                l(1) =   0
                l(2) =   0
                l(3) =   1
                l(4) =   1
     Q(r) pseudized with  8 coefficients,  rinner =    0.800   0.800   0.800

     PseudoPot. # 5 for H  read from file:
     /storage/coda1/p-amedford6/0/shared/rich_project_chbe-medford/medford-share/data/pseudos_module/espresso/nninc/pbe/van/H.UPF
     MD5 check sum: b5ee9d7bfd3a09ee7748110bda690ff7
     Pseudo is Ultrasoft, Zval =  1.0
     Generated by new atomic code, or converted to UPF format
     Using radial grid of  615 points,  1 beta functions with:
                l(1) =   0
     Q(r) pseudized with  8 coefficients,  rinner =    0.800

     atomic species   valence    mass     pseudopotential
        Ti1           12.00    47.86700     Ti( 1.00)
        O1             6.00    15.99900     O ( 1.00)
        N1             5.00    14.00700     N ( 1.00)
        C1             4.00    12.01100     C ( 1.00)
        H1             1.00     1.00800     H ( 1.00)

     No symmetry found

   Cartesian axes

     site n.     atom                  positions (alat units)
         1           Ti1 tau(   1) = (   0.0004258   2.9801865   6.0000000  )
         2           Ti1 tau(   2) = (   3.2906075   1.4906267   6.0002472  )
         3           O1  tau(   3) = (   0.0006271   0.0005054   7.9858123  )
         4           O1  tau(   4) = (   3.2906025   0.0005020   7.3038282  )
         5           O1  tau(   5) = (   4.5942328   1.4918067   9.2879030  )
         6           O1  tau(   6) = (   1.9868534   1.4903216   9.2879459  )
         7           Ti1 tau(   7) = (   3.2907910   2.8959150   9.1758416  )
         8           Ti1 tau(   8) = (   0.0015273   1.4827037   9.2680791  )
         9           O1  tau(   9) = (   3.2766908   5.9368450  11.3531397  )
        10           O1  tau(  10) = (   0.0116148   5.9584955  10.6183126  )
        11           O1  tau(  11) = (   1.2656210   1.4746568  12.6519442  )
        12           O1  tau(  12) = (   5.2821112   1.4671822  12.6528637  )
        13           Ti1 tau(  13) = (   0.0097886   3.0246942  12.5604876  )
        14           Ti1 tau(  14) = (   3.2716845   1.2919425  12.6923688  )
        15           O1  tau(  15) = (   6.5701288   5.9533353  14.7096902  )
        16           O1  tau(  16) = (   3.2612835   0.0684280  14.0222998  )
        17           O1  tau(  17) = (   4.5366247   1.5847279  16.0182572  )
        18           O1  tau(  18) = (   1.9973522   1.5932486  16.1410213  )
        19           Ti1 tau(  19) = (   3.3011230   3.0369928  15.6528835  )
        20           Ti1 tau(  20) = (   6.4616919   1.5442775  15.7581475  )
        21           O1  tau(  21) = (   3.2904802   0.0005063   4.7018136  )
        22           O1  tau(  22) = (   6.5264998   0.0144113  17.2942622  )
        23           O1  tau(  23) = (   1.3043587   1.4918075   6.0039043  )
        24           O1  tau(  24) = (   5.2767064   1.4903225   6.0039473  )
        25           Ti1 tau(  25) = (   0.0000382   5.9609847   6.0000000  )
        26           Ti1 tau(  26) = (   3.2902200   4.4714249   6.0002472  )
        27           O1  tau(  27) = (   0.0002396   2.9813036   7.9858123  )
        28           O1  tau(  28) = (   3.2902150   2.9813002   7.3038282  )
        29           O1  tau(  29) = (   4.5938453   4.4726049   9.2879030  )
        30           O1  tau(  30) = (   1.9864658   4.4711199   9.2879459  )
        31           Ti1 tau(  31) = (   3.2891106   5.8743827   9.1763621  )
        32           Ti1 tau(  32) = (   0.0006254   4.4649316   9.2693709  )
        33           O1  tau(  33) = (   3.2807216   2.9716845  11.3098041  )
        34           O1  tau(  34) = (   0.0092240   2.9805883  10.6323155  )
        35           O1  tau(  35) = (   1.2724369   4.4570745  12.6376724  )
        36           O1  tau(  36) = (   5.2808598   4.4590940  12.6336130  )
        37           Ti1 tau(  37) = (   6.5522345   0.0346224  12.5198063  )
        38           Ti1 tau(  38) = (   3.2841791   4.3624788  12.4156291  )
        39           O1  tau(  39) = (   6.5678423   2.9906399  14.7075790  )
        40           O1  tau(  40) = (   3.2630306   2.9991211  13.8878987  )
        41           O1  tau(  41) = (   4.5399391   4.4365880  16.1202346  )
        42           O1  tau(  42) = (   1.9952260   4.4486394  16.1468368  )
        43           Ti1 tau(  43) = (   3.1909378   0.0332154  16.1742435  )
        44           Ti1 tau(  44) = (   6.5525253   4.6749982  16.1158565  )
        45           O1  tau(  45) = (   3.2900926   2.9813045   4.7018136  )
        46           O1  tau(  46) = (   1.3039711   4.4726057   6.0039043  )
        47           O1  tau(  47) = (   5.2763189   4.4711207   6.0039473  )
        48           N1  tau(  48) = (   0.9351815   2.3805788  18.4294677  )
        49           N1  tau(  49) = (   6.5001775   2.8750743  17.5309975  )
        50           C1  tau(  50) = (   1.3386797   3.2909482  19.5301671  )
        51           H1  tau(  51) = (   0.4734699   3.4817333  20.1622224  )
        52           H1  tau(  52) = (   2.1262835   2.8019037  20.1042238  )
        53           H1  tau(  53) = (   1.7016266   4.2178517  19.0939426  )
        54           H1  tau(  54) = (   0.6429753   1.4474929  18.7566963  )
        55           H1  tau(  55) = (   5.6191021   2.8022447  18.0351622  )
        56           H1  tau(  56) = (   1.7303324   2.1440475  17.7969061  )
        57           O1  tau(  57) = (   3.3571931   0.1367260  18.0860582  )
        58           H1  tau(  58) = (   4.3009782   5.9598238  18.3144400  )

     number of k points=    10  Fermi-Dirac smearing, width (Ry)=  0.0073
                       cart. coord. in units 2pi/alat
        k(    1) = (   0.0000000   0.0000000   0.0000000), wk =   0.1250000
        k(    2) = (   0.0000000   0.0419351   0.0000000), wk =   0.2500000
        k(    3) = (   0.0000000  -0.0838702   0.0000000), wk =   0.1250000
        k(    4) = (   0.0379955   0.0000049   0.0000000), wk =   0.2500000
        k(    5) = (   0.0379955   0.0419400   0.0000000), wk =   0.2500000
        k(    6) = (   0.0379955  -0.0838652   0.0000000), wk =   0.2500000
        k(    7) = (   0.0379955  -0.0419301   0.0000000), wk =   0.2500000
        k(    8) = (  -0.0759910  -0.0000099   0.0000000), wk =   0.1250000
        k(    9) = (  -0.0759910   0.0419252   0.0000000), wk =   0.2500000
        k(   10) = (  -0.0759910  -0.0838800   0.0000000), wk =   0.1250000

     Initial potential from superposition of free atoms

     starting charge  388.99913, renormalised to  405.00000

     negative rho (up, down):  1.469E-02 0.000E+00

     %%%%%%%%%%%%%%%%%%%%%%%%%%%%%%%%%%%%%%%%%%%%%%%%%%%%%%%%%%%%%%%%%%%%%%%%
     %                                                                      %
     % You are using vdW-DF, which was implemented by the Thonhauser group. %
     % Please cite the following two papers that made this development      %
     % possible and the two reviews that describe the various versions:     %
     %                                                                      %
     %   T. Thonhauser et al., PRL 115, 136402 (2015).                      %
     %   T. Thonhauser et al., PRB 76, 125112 (2007).                       %
     %   K. Berland et al., Rep. Prog. Phys. 78, 066501 (2015).             %
     %   D.C. Langreth et al., J. Phys.: Condens. Matter 21, 084203 (2009). %
     %                                                                      %
     %                                                                      %
     % If you are calculating the stress with vdW-DF, please also cite:     %
     %                                                                      %
     %   R. Sabatini et al., J. Phys.: Condens. Matter 24, 424209 (2012).   %
     %                                                                      %
     %%%%%%%%%%%%%%%%%%%%%%%%%%%%%%%%%%%%%%%%%%%%%%%%%%%%%%%%%%%%%%%%%%%%%%%%

     Adding external electric field

     Computed dipole along edir(3) :
        Dipole              -13.9957 Ry au,        -35.5736 Debye
        Dipole field         -0.0264 Ry au,

        Potential amp.        2.4483 Ry
        Total length         46.3494 bohr

     Starting wfcs are  307 atomic wfcs
  @ DRIVER MODE: Message from server: STATUS
  @ DRIVER MODE: Message from server: POSDATA
  @ DRIVER MODE: Reading and sharing cell
  @ DRIVER MODE: Reading and sharing positions
  @ DRIVER MODE: Received positions

     Self-consistent Calculation

     iteration #  1     ecut=    29.40 Ry     beta= 0.05
     Davidson diagonalization with overlap
     c_bands:  5 eigenvalues not converged
     c_bands:  2 eigenvalues not converged
     c_bands:  1 eigenvalues not converged
     c_bands:  3 eigenvalues not converged
     c_bands:  3 eigenvalues not converged
     ethr =  1.00E-05,  avg # of iterations = 29.9

[...]

     total energy              =   -2225.12857304 Ry
     estimated scf accuracy    <    8521.06541000 Ry

     iteration #  2     ecut=    29.40 Ry     beta= 0.05
     Davidson diagonalization with overlap
     ethr =  1.00E-02,  avg # of iterations = 24.1

[...]

     iteration # 46     ecut=    29.40 Ry     beta= 0.05
     Davidson diagonalization with overlap
     c_bands:  1 eigenvalues not converged
     ethr =  2.75E-07,  avg # of iterations = 16.1

[...]

     total energy              =   -2976.49305529 Ry
     estimated scf accuracy    <       0.00000012 Ry

     iteration # 71     ecut=    29.40 Ry     beta= 0.05
     Davidson diagonalization with overlap
     ethr =  2.89E-11,  avg # of iterations =  6.1

     negative rho (up, down):  1.567E-02 0.000E+00

     Adding external electric field

     Computed dipole along edir(3) :
        Dipole                1.5008 Ry au,          3.8147 Debye
        Dipole field          0.0028 Ry au,

        Potential amp.       -0.2625 Ry
        Total length         46.3494 bohr

     End of self-consistent calculation

          k = 0.0000 0.0000 0.0000 ( 18029 PWs)   bands (ev):

   -55.2965 -55.1733 -55.1392 -55.0035 -54.9941 -54.9903 -54.9686 -54.9605
   -54.9304 -54.8817 -54.8490 -54.8130 -54.7926 -54.7517 -54.1368 -54.1028
   -31.6560 -31.6243 -31.5433 -31.4955 -31.4930 -31.4882 -31.4654 -31.4465
   -31.4189 -31.4144 -31.3696 -31.3353 -31.3256 -31.2780 -31.2653 -31.2578
   -31.2512 -31.2307 -31.2154 -31.1987 -31.1845 -31.1821 -31.1716 -31.1681
   -31.1491 -31.1263 -31.1240 -31.1204 -31.1105 -31.1027 -31.0967 -31.0764
   -31.0690 -31.0541 -31.0371 -31.0250 -31.0224 -31.0108 -31.0077 -31.0074
   -30.9812 -30.9417 -30.5426 -30.4573 -30.4347 -30.3601 -30.2737 -30.1620
   -18.8692 -16.0028 -15.8018 -15.6515 -15.4848 -15.3410 -15.2546 -15.0551
   -14.9393 -14.8993 -14.8820 -14.8091 -14.7051 -14.7045 -14.6606 -14.6332
   -14.6293 -14.6007 -14.5888 -14.5870 -14.5695 -14.5203 -14.5051 -14.4602
   -14.4539 -14.4150 -14.3026 -14.2330 -14.1884 -14.1153 -14.0002 -13.0862
   -12.6362 -12.5200 -10.7867  -7.5741  -6.2380  -5.5801  -3.7376  -3.6290
    -3.4234  -3.1654  -3.0991  -3.0712  -3.0440  -2.8909  -2.7656  -2.5853
    -2.4752  -2.4304  -2.3124  -2.2952  -2.2140  -2.1649  -2.1208  -2.0726
    -2.0429  -1.9770  -1.9601  -1.9553  -1.9275  -1.8606  -1.8329  -1.7176
    -1.6873  -1.6252  -1.5675  -1.4981  -1.4814  -1.4747  -1.4675  -1.4568
    -1.4278  -1.4125  -1.3807  -1.3408  -1.2606  -1.2072  -1.1985  -1.1598
    -1.0764  -0.8912  -0.7678  -0.7437  -0.6867  -0.6419  -0.5908  -0.5786
    -0.5551  -0.5177  -0.4110  -0.3978  -0.3341  -0.3051  -0.2431  -0.1918
    -0.1644  -0.1016  -0.0387   0.0482   0.0679   0.0871   0.1286   0.1749
     0.2461   0.2837   0.3223   0.3523   0.4401   0.4942   0.5544   0.5609
     0.5932   0.6659   0.7222   0.7695   0.7901   0.8092   0.8601   0.8766
     0.9196   0.9742   1.0151   1.0298   1.1016   1.1601   1.2070   1.2403
     1.3377   1.3537   1.5134   1.5687   1.8364   1.8887   1.9566   2.0823
     2.4552   2.5000   3.9351   4.0557   4.0670   4.0894   4.1683   4.2312
     4.3983   4.4054   4.5172   4.6178

[...]

          k = 0.0380-0.0419 0.0000 ( 17876 PWs)   bands (ev):

[...]

          k =-0.0760-0.0000 0.0000 ( 17886 PWs)   bands (ev):

[...]

          k =-0.0760-0.0839 0.0000 ( 17948 PWs)   bands (ev):

   -55.2958 -55.1567 -55.1556 -54.9909 -54.9874 -54.9845 -54.9781 -54.9762
   -54.9237 -54.8885 -54.8387 -54.8233 -54.7855 -54.7586 -54.1202 -54.1193
   -31.5574 -31.5346 -31.4896 -31.4717 -31.4710 -31.4513 -31.4503 -31.4134
   -31.3138 -31.3071 -31.3018 -31.3000 -31.2949 -31.2765 -31.2754 -31.2663
   -31.2660 -31.2452 -31.2441 -31.2145 -31.2014 -31.1974 -31.1968 -31.1903
   -31.1759 -31.1657 -31.1570 -31.1523 -31.1497 -31.1448 -31.1405 -31.1212
   -31.1098 -31.0879 -31.0740 -31.0663 -31.0329 -31.0294 -31.0188 -31.0154
   -31.0110 -30.9938 -30.4478 -30.4471 -30.3561 -30.3549 -30.3173 -30.3166
   -18.8650 -15.9602 -15.3735 -15.1696 -15.1068 -15.0830 -15.0686 -15.0316
   -15.0054 -14.9517 -14.9326 -14.8753 -14.8440 -14.8312 -14.7598 -14.7437
   -14.6883 -14.6588 -14.6464 -14.6065 -14.6020 -14.5797 -14.5473 -14.5387
   -14.4735 -14.4596 -14.4561 -14.3646 -14.3543 -14.2328 -14.1870 -13.0971
   -12.6222 -12.6216 -10.7888  -7.5850  -6.2241  -5.5699  -3.6826  -3.6413
    -3.3793  -2.5853  -2.4482  -2.4379  -2.3018  -2.2886  -2.1927  -2.1462
    -2.0928  -2.0748  -2.0527  -2.0335  -2.0028  -1.9699  -1.9535  -1.9463
    -1.9183  -1.8959  -1.8709  -1.8649  -1.8292  -1.8243  -1.8030  -1.7798
    -1.7696  -1.7347  -1.7213  -1.7171  -1.7030  -1.6498  -1.6311  -1.4682
    -1.4374  -1.3469  -1.3131  -1.2896  -1.2803  -1.2551  -1.2374  -1.2167
    -1.1615  -1.1093  -1.0475  -0.9213  -0.8764  -0.8113  -0.7756  -0.6981
    -0.6569  -0.6233  -0.5949  -0.5710  -0.5376  -0.4820  -0.4038  -0.3490
    -0.3034  -0.2624  -0.1644  -0.1465  -0.1228  -0.1115  -0.0778  -0.0191
    -0.0124   0.0441   0.0632   0.1253   0.1405   0.1565   0.1748   0.2543
     0.3524   0.4333   0.4564   0.5480   0.5653   0.6553   0.7018   0.8030
     0.9143   0.9601   0.9995   1.0096   1.0930   1.0981   1.1549   1.1777
     1.2600   1.3490   1.4136   1.4218   1.4418   1.4955   2.2516   2.2602
     2.3202   2.3205   4.1860   4.3486   4.4286   4.4400   4.4720   4.4827
     4.5152   4.5176   4.6034   4.6121

     the Fermi energy is     3.9543 ev

!    total energy              =   -2976.49307729 Ry
     estimated scf accuracy    <       0.00000006 Ry
     smearing contrib. (-TS)   =      -0.02056952 Ry
     internal energy E=F+TS    =   -2976.47250777 Ry

     The total energy is F=E-TS. E is the sum of the following terms:
     one-electron contribution =  -23617.04653355 Ry
     hartree contribution      =   11908.25738554 Ry
     xc contribution           =    -495.75846715 Ry
     ewald contribution        =    9228.07085682 Ry
     electric field correction =       0.00425057 Ry

     convergence has been achieved in  71 iterations

     Forces acting on atoms (cartesian axes, Ry/au):

     atom    1 type  1   force =     0.00014480   -0.00013190    0.09534321
     atom    2 type  1   force =    -0.00002548    0.00040259   -0.17474386
     atom    3 type  2   force =     0.00004196   -0.00018400   -0.02257614
     atom    4 type  2   force =     0.00001499   -0.00200486    0.05319477
     atom    5 type  2   force =    -0.00813987   -0.00302365    0.00227918
     atom    6 type  2   force =     0.00923701   -0.00231914    0.00057339
     atom    7 type  1   force =    -0.00079038   -0.00509955    0.00572676
     atom    8 type  1   force =     0.00083414    0.00656657    0.01469468
     atom    9 type  2   force =     0.00011703    0.00041973    0.00070830
     atom   10 type  2   force =    -0.00346487    0.00091855   -0.01235578
     atom   11 type  2   force =    -0.00002890   -0.00055375    0.00029712
     atom   12 type  2   force =     0.00008490   -0.00043071    0.00025196
     atom   13 type  1   force =     0.00094047    0.00086598    0.00009467
     atom   14 type  1   force =    -0.00020313    0.00006538   -0.00037409
     atom   15 type  2   force =     0.00013493   -0.00078435   -0.00069751
     atom   16 type  2   force =     0.00007650   -0.00009264    0.00072278
     atom   17 type  2   force =    -0.00009744   -0.00008990    0.00024867
     atom   18 type  2   force =    -0.00019681    0.00051285   -0.00033227
     atom   19 type  1   force =    -0.00007416   -0.00005986   -0.00012473
     atom   20 type  1   force =     0.00029365    0.00010650   -0.00030736
     atom   21 type  2   force =     0.00009261    0.00000024    0.10302656
     atom   22 type  2   force =    -0.00011842    0.00030487    0.00079627
     atom   23 type  2   force =    -0.07211386   -0.00022455   -0.02756876
     atom   24 type  2   force =     0.07206955    0.00026258   -0.02758690
     atom   25 type  1   force =     0.00015909   -0.00029456    0.09518500
     atom   26 type  1   force =     0.00001182   -0.00124368   -0.17523258
     atom   27 type  2   force =    -0.00000360    0.00008402   -0.02154045
     atom   28 type  2   force =     0.00005428   -0.00043601    0.04876873
     atom   29 type  2   force =    -0.00786052    0.00198395    0.00251911
     atom   30 type  2   force =     0.00888691    0.00234361    0.00069844
     atom   31 type  1   force =    -0.00069300    0.00833793   -0.00444570
     atom   32 type  1   force =     0.00106395   -0.00751491    0.01447605
     atom   33 type  2   force =     0.00012574    0.00022464   -0.00002465
     atom   34 type  2   force =    -0.00269888   -0.00027574   -0.01822894
     atom   35 type  2   force =    -0.00056642    0.00026208    0.00009706
     atom   36 type  2   force =     0.00072775    0.00039379    0.00025531
     atom   37 type  1   force =     0.00018450   -0.00036460    0.00022821
     atom   38 type  1   force =    -0.00006773   -0.00002106   -0.00073135
     atom   39 type  2   force =     0.00024861    0.00031396   -0.00009924
     atom   40 type  2   force =     0.00025256    0.00000711    0.00074027
     atom   41 type  2   force =    -0.00018522   -0.00017878    0.00021795
     atom   42 type  2   force =     0.00032968   -0.00033248    0.00023766
     atom   43 type  1   force =    -0.00051885    0.00015709   -0.00095552
     atom   44 type  1   force =     0.00047018   -0.00027190   -0.00019060
     atom   45 type  2   force =     0.00008937   -0.00009794    0.10284270
     atom   46 type  2   force =    -0.07215921   -0.00003609   -0.02759635
     atom   47 type  2   force =     0.07210521    0.00036155   -0.02760381
     atom   48 type  3   force =     0.00029438    0.00013383    0.00002047
     atom   49 type  3   force =    -0.00071816    0.00051494   -0.00034902
     atom   50 type  4   force =     0.00010186    0.00071756    0.00034102
     atom   51 type  5   force =     0.00023853    0.00043183   -0.00022899
     atom   52 type  5   force =    -0.00027723   -0.00022652   -0.00051682
     atom   53 type  5   force =     0.00042949    0.00016744   -0.00024925
     atom   54 type  5   force =    -0.00010401   -0.00038281   -0.00000647
     atom   55 type  5   force =    -0.00025841   -0.00030757   -0.00007681
     atom   56 type  5   force =    -0.00005861    0.00005752   -0.00048931
     atom   57 type  2   force =     0.01786316   -0.00289921    0.00440339
     atom   58 type  5   force =    -0.01629644    0.00296403   -0.00375646

     Total force =     0.364385     Total SCF correction =     0.000597
  @ DRIVER MODE: Message from server: STATUS
  @ DRIVER MODE: Message from server: GETFORCE
  @ DRIVER MODE: Returning v,forces,stress,ensemble

     Writing output data file ./calc.save/
  @ DRIVER MODE: Message from server: EXIT
  @ DRIVE MODE: Exiting

     General routines

     Parallel routines

   This run was terminated on:  11:20:28  24Sep2021

   JOB DONE.