     Program PWSCF v.6.7GPU starts on 23Sep2021 at  8:38:57

     R & G space division:  proc/nbgrp/npool/nimage =      10
     Reading input from /storage/home/hcoda1/3/ntian30/research/carbon/CxH_vib/H2O_calc/ads_slab/CHNHNHH2O_b/out_0049/pw.inp
Warning: card &CELL ignored
Warning: card   CELL_DYNAMICS='IPI', ignored
Warning: card / ignored

     Current dimensions of program PWSCF are:
     Max number of different atomic species (ntypx) = 10
     Max number of k-points (npk) =  40000
     Max angular momentum in pseudopotentials (lmaxx) =  3
     Presently no symmetry can be used with electric field

     Message from routine cell_base_init:
     DEPRECATED: use true lattice parameter, not A to a.u. conversion factor

     IMPORTANT: XC functional enforced from input :
     Exchange-correlation= BEEF-VDW
                           (   1   4  43  14   2   0   0)
     Any further DFT definition will be discarded
     Please, verify this is what you really want

  @ DRIVER MODE: Connecting to
 qe_1139763_2937311.sched-torque.pace.gatech.eduai826nfs_scratch
  using UNIX socket
  @ DRIVER MODE: Message from server: STATUS
  @ DRIVER MODE: Message from server: INIT
  @ DRIVER MODE: Receiving replica           0          -1
  @ DRIVER MODE: Receiving encoded integer          25
  @ DRIVER MODE:  SCF:  T  FORCE:  T  STRESS:  F  VC:  F  ENSEMBLE:  F
  @ DRIVER MODE:  SCF:  T  FORCE:  T  STRESS:  F  VC:  F  ENSEMBLE:  F

     Using Slab Decomposition

     bravais-lattice index     =            0
     lattice parameter (alat)  =       1.8897  a.u.
     unit-cell volume          =    6658.9804 (a.u.)^3
     number of atoms/cell      =           56
     number of atomic types    =            5
     number of electrons       =       403.00
     number of Kohn-Sham states=          211
     kinetic-energy cutoff     =      29.3995  Ry
     charge density cutoff     =     293.9946  Ry
     scf convergence threshold =      7.3E-08
     mixing beta               =       0.0500
     number of iterations used =            8  plain     mixing
     Exchange-correlation= BEEF-VDW
                           (   1   4  43  14   2   0   0)

     celldm(1)=   1.889726  celldm(2)=   0.000000  celldm(3)=   0.000000
     celldm(4)=   0.000000  celldm(5)=   0.000000  celldm(6)=   0.000000

     crystal axes: (cart. coord. in units of alat)
               a(1) = (   6.579727   0.000000   0.000000 )
               a(2) = (  -0.000775   5.961596   0.000000 )
               a(3) = (   0.000000   0.000000  25.155947 )

     reciprocal axes: (cart. coord. in units 2 pi/alat)
               b(1) = (  0.151982  0.000020  0.000000 )
               b(2) = (  0.000000  0.167740  0.000000 )
               b(3) = (  0.000000  0.000000  0.039752 )

     PseudoPot. # 1 for Ti read from file:
     /storage/coda1/p-amedford6/0/shared/rich_project_chbe-medford/medford-share/data/pseudos_module/espresso/nninc/pbe/van/Ti.UPF
     MD5 check sum: 8e4df49b7f0d34bbd5052bf3f5ea0213
     Pseudo is Ultrasoft, Zval = 12.0
     Generated by new atomic code, or converted to UPF format
     Using radial grid of  851 points,  6 beta functions with:
                l(1) =   0
                l(2) =   0
                l(3) =   1
                l(4) =   1
                l(5) =   2
                l(6) =   2
     Q(r) pseudized with  8 coefficients,  rinner =    1.000   1.000   1.000
                                                       1.000   1.000

     PseudoPot. # 2 for O  read from file:
     /storage/coda1/p-amedford6/0/shared/rich_project_chbe-medford/medford-share/data/pseudos_module/espresso/nninc/pbe/van/O.UPF
     MD5 check sum: 78c19812648e8988a0fe644b0f25305e
     Pseudo is Ultrasoft, Zval =  6.0
     Generated by new atomic code, or converted to UPF format
     Using radial grid of  737 points,  4 beta functions with:
                l(1) =   0
                l(2) =   0
                l(3) =   1
                l(4) =   1
     Q(r) pseudized with  8 coefficients,  rinner =    0.800   0.800   0.800

     PseudoPot. # 3 for N  read from file:
     /storage/coda1/p-amedford6/0/shared/rich_project_chbe-medford/medford-share/data/pseudos_module/espresso/nninc/pbe/van/N.UPF
     MD5 check sum: 90d10febe142ad51ac9d5be1deb811c4
     Pseudo is Ultrasoft, Zval =  5.0
     Generated by new atomic code, or converted to UPF format
     Using radial grid of  729 points,  4 beta functions with:
                l(1) =   0
                l(2) =   0
                l(3) =   1
                l(4) =   1
     Q(r) pseudized with  8 coefficients,  rinner =    0.800   0.800   0.800

     PseudoPot. # 4 for C  read from file:
     /storage/coda1/p-amedford6/0/shared/rich_project_chbe-medford/medford-share/data/pseudos_module/espresso/nninc/pbe/van/C.UPF
     MD5 check sum: 1a69bf6b8db32088f5b2163dbdb77a27
     Pseudo is Ultrasoft, Zval =  4.0
     Generated by new atomic code, or converted to UPF format
     Using radial grid of  721 points,  4 beta functions with:
                l(1) =   0
                l(2) =   0
                l(3) =   1
                l(4) =   1
     Q(r) pseudized with  8 coefficients,  rinner =    0.800   0.800   0.800

     PseudoPot. # 5 for H  read from file:
     /storage/coda1/p-amedford6/0/shared/rich_project_chbe-medford/medford-share/data/pseudos_module/espresso/nninc/pbe/van/H.UPF
     MD5 check sum: b5ee9d7bfd3a09ee7748110bda690ff7
     Pseudo is Ultrasoft, Zval =  1.0
     Generated by new atomic code, or converted to UPF format
     Using radial grid of  615 points,  1 beta functions with:
                l(1) =   0
     Q(r) pseudized with  8 coefficients,  rinner =    0.800

     atomic species   valence    mass     pseudopotential
        Ti1           12.00    47.86700     Ti( 1.00)
        O1             6.00    15.99900     O ( 1.00)
        N1             5.00    14.00700     N ( 1.00)
        C1             4.00    12.01100     C ( 1.00)
        H1             1.00     1.00800     H ( 1.00)

     No symmetry found

   Cartesian axes

     site n.     atom                  positions (alat units)
         1           Ti1 tau(   1) = (   0.0004258   2.9801865   6.0000000  )
         2           Ti1 tau(   2) = (   3.2906075   1.4906267   6.0002472  )
         3           O1  tau(   3) = (   0.0006271   0.0005054   7.9858123  )
         4           O1  tau(   4) = (   3.2906025   0.0005020   7.3038282  )
         5           O1  tau(   5) = (   4.5942328   1.4918067   9.2879030  )
         6           O1  tau(   6) = (   1.9868534   1.4903216   9.2879459  )
         7           Ti1 tau(   7) = (   3.2907910   2.8959150   9.1758416  )
         8           Ti1 tau(   8) = (   0.0015273   1.4827037   9.2680791  )
         9           O1  tau(   9) = (   3.2780774   5.9605562  11.3537357  )
        10           O1  tau(  10) = (   0.0116148   5.9584955  10.6183126  )
        11           O1  tau(  11) = (   1.2922713   1.4781662  12.6511241  )
        12           O1  tau(  12) = (   5.2965393   1.5043564  12.6031353  )
        13           Ti1 tau(  13) = (   6.5273184   3.0207086  12.5807821  )
        14           Ti1 tau(  14) = (   3.2344070   1.4559942  12.5004267  )
        15           O1  tau(  15) = (   6.4759410   0.0295824  14.6525783  )
        16           O1  tau(  16) = (   3.3604338   0.0238249  13.9383540  )
        17           O1  tau(  17) = (   4.5324113   1.5808541  16.1066768  )
        18           O1  tau(  18) = (   1.9684897   1.4712893  15.8817925  )
        19           Ti1 tau(  19) = (   3.2566353   3.0739815  15.8599551  )
        20           Ti1 tau(  20) = (   6.5466614   1.5318677  15.7800735  )
        21           O1  tau(  21) = (   3.2904802   0.0005063   4.7018136  )
        22           O1  tau(  22) = (   6.5744325   0.0155309  17.2227980  )
        23           O1  tau(  23) = (   1.3043587   1.4918075   6.0039043  )
        24           O1  tau(  24) = (   5.2767064   1.4903225   6.0039473  )
        25           Ti1 tau(  25) = (   0.0000382   5.9609847   6.0000000  )
        26           Ti1 tau(  26) = (   3.2902200   4.4714249   6.0002472  )
        27           O1  tau(  27) = (   0.0002396   2.9813036   7.9858123  )
        28           O1  tau(  28) = (   3.2902150   2.9813002   7.3038282  )
        29           O1  tau(  29) = (   4.5938453   4.4726049   9.2879030  )
        30           O1  tau(  30) = (   1.9864658   4.4711199   9.2879459  )
        31           Ti1 tau(  31) = (   3.2891106   5.8743827   9.1763621  )
        32           Ti1 tau(  32) = (   0.0006254   4.4649316   9.2693709  )
        33           O1  tau(  33) = (   3.2727763   2.9788165  11.3438337  )
        34           O1  tau(  34) = (   0.0092240   2.9805883  10.6323155  )
        35           O1  tau(  35) = (   1.2865780   4.4896361  12.6556599  )
        36           O1  tau(  36) = (   5.2967437   4.4749066  12.6066920  )
        37           Ti1 tau(  37) = (   6.5467059   0.0356701  12.5108493  )
        38           Ti1 tau(  38) = (   3.2305653   4.4019604  12.5605372  )
        39           O1  tau(  39) = (   6.5199767   2.9846217  14.6905747  )
        40           O1  tau(  40) = (   3.2851694   3.0254550  13.9321539  )
        41           O1  tau(  41) = (   4.5310495   4.4602642  16.1636806  )
        42           O1  tau(  42) = (   1.9842988   4.5744318  15.9411167  )
        43           Ti1 tau(  43) = (   3.2691225   0.1036042  15.7405456  )
        44           Ti1 tau(  44) = (   6.5697781   4.6877429  16.0360384  )
        45           O1  tau(  45) = (   3.2900926   2.9813045   4.7018136  )
        46           O1  tau(  46) = (   1.3039711   4.4726057   6.0039043  )
        47           O1  tau(  47) = (   5.2763189   4.4711207   6.0039473  )
        48           N1  tau(  48) = (   1.2792381   2.8578196  18.3696018  )
        49           N1  tau(  49) = (   0.1888888   2.9646215  17.5057353  )
        50           C1  tau(  50) = (   2.5352320   2.9081513  18.0382144  )
        51           H1  tau(  51) = (   3.1442446   2.7411670  18.9317345  )
        52           H1  tau(  52) = (   1.0014291   2.6635404  19.3302151  )
        53           H1  tau(  53) = (   5.9397212   2.8571719  18.0851170  )
        54           O1  tau(  54) = (   3.2630597   0.0341043  18.2348460  )
        55           H1  tau(  55) = (   4.0455299   5.4198958  18.2485053  )
        56           H1  tau(  56) = (   2.4823979   5.4091459  18.3156537  )

     number of k points=    10  Fermi-Dirac smearing, width (Ry)=  0.0073
                       cart. coord. in units 2pi/alat
        k(    1) = (   0.0000000   0.0000000   0.0000000), wk =   0.1250000
        k(    2) = (   0.0000000   0.0419351   0.0000000), wk =   0.2500000
        k(    3) = (   0.0000000  -0.0838702   0.0000000), wk =   0.1250000
        k(    4) = (   0.0379955   0.0000049   0.0000000), wk =   0.2500000
        k(    5) = (   0.0379955   0.0419400   0.0000000), wk =   0.2500000
        k(    6) = (   0.0379955  -0.0838652   0.0000000), wk =   0.2500000
        k(    7) = (   0.0379955  -0.0419301   0.0000000), wk =   0.2500000
        k(    8) = (  -0.0759910  -0.0000099   0.0000000), wk =   0.1250000
        k(    9) = (  -0.0759910   0.0419252   0.0000000), wk =   0.2500000
        k(   10) = (  -0.0759910  -0.0838800   0.0000000), wk =   0.1250000

     Initial potential from superposition of free atoms

     starting charge  386.99914, renormalised to  403.00000

     negative rho (up, down):  1.738E-02 0.000E+00

     %%%%%%%%%%%%%%%%%%%%%%%%%%%%%%%%%%%%%%%%%%%%%%%%%%%%%%%%%%%%%%%%%%%%%%%%
     %                                                                      %
     % You are using vdW-DF, which was implemented by the Thonhauser group. %
     % Please cite the following two papers that made this development      %
     % possible and the two reviews that describe the various versions:     %
     %                                                                      %
     %   T. Thonhauser et al., PRL 115, 136402 (2015).                      %
     %   T. Thonhauser et al., PRB 76, 125112 (2007).                       %
     %   K. Berland et al., Rep. Prog. Phys. 78, 066501 (2015).             %
     %   D.C. Langreth et al., J. Phys.: Condens. Matter 21, 084203 (2009). %
     %                                                                      %
     %                                                                      %
     % If you are calculating the stress with vdW-DF, please also cite:     %
     %                                                                      %
     %   R. Sabatini et al., J. Phys.: Condens. Matter 24, 424209 (2012).   %
     %                                                                      %
     %%%%%%%%%%%%%%%%%%%%%%%%%%%%%%%%%%%%%%%%%%%%%%%%%%%%%%%%%%%%%%%%%%%%%%%%

     Adding external electric field

     Computed dipole along edir(3) :
        Dipole              -12.3463 Ry au,        -31.3811 Debye
        Dipole field         -0.0233 Ry au,

        Potential amp.        2.1598 Ry
        Total length         46.3494 bohr

     Starting wfcs are  305 atomic wfcs
  @ DRIVER MODE: Message from server: STATUS
  @ DRIVER MODE: Message from server: POSDATA
  @ DRIVER MODE: Reading and sharing cell
  @ DRIVER MODE: Reading and sharing positions
  @ DRIVER MODE: Received positions

     Self-consistent Calculation

     iteration #  1     ecut=    29.40 Ry     beta= 0.05
     Davidson diagonalization with overlap
     c_bands:  5 eigenvalues not converged
     c_bands:  3 eigenvalues not converged
     c_bands:  3 eigenvalues not converged
     c_bands:  1 eigenvalues not converged
     c_bands:  2 eigenvalues not converged
     c_bands:  2 eigenvalues not converged
     c_bands:  5 eigenvalues not converged
     c_bands:  2 eigenvalues not converged
     c_bands:  4 eigenvalues not converged
     ethr =  1.00E-05,  avg # of iterations = 29.3

[...]

     total energy              =   -2358.74245373 Ry
     estimated scf accuracy    <    6971.32351735 Ry

     iteration #  2     ecut=    29.40 Ry     beta= 0.05
     Davidson diagonalization with overlap
     ethr =  1.00E-02,  avg # of iterations = 25.9

[...]

     iteration # 62     ecut=    29.40 Ry     beta= 0.05
     Davidson diagonalization with overlap
     c_bands:  1 eigenvalues not converged
     ethr =  6.09E-11,  avg # of iterations =  8.1

[...]

     total energy              =   -2973.93997183 Ry
     estimated scf accuracy    <       0.00000023 Ry

     iteration # 64     ecut=    29.40 Ry     beta= 0.05
     Davidson diagonalization with overlap
     ethr =  3.03E-11,  avg # of iterations =  7.7

     negative rho (up, down):  1.725E-02 0.000E+00

     Adding external electric field

     Computed dipole along edir(3) :
        Dipole                1.3988 Ry au,          3.5554 Debye
        Dipole field          0.0026 Ry au,

        Potential amp.       -0.2447 Ry
        Total length         46.3494 bohr

     End of self-consistent calculation

          k = 0.0000 0.0000 0.0000 ( 18029 PWs)   bands (ev):

   -55.3199 -55.2859 -55.2103 -55.1858 -55.1673 -55.1559 -55.1404 -55.1186
   -55.1066 -55.1042 -55.0975 -55.0630 -54.9925 -54.8350 -54.3000 -54.2660
   -31.8042 -31.7312 -31.6568 -31.6502 -31.6403 -31.6118 -31.5872 -31.5650
   -31.5197 -31.5018 -31.4723 -31.4641 -31.4555 -31.4408 -31.4260 -31.4214
   -31.3983 -31.3803 -31.3772 -31.3650 -31.3353 -31.3331 -31.3290 -31.3260
   -31.3231 -31.3192 -31.3152 -31.2972 -31.2891 -31.2791 -31.2724 -31.2719
   -31.2619 -31.2605 -31.2520 -31.2482 -31.2406 -31.2151 -31.2101 -31.0912
   -31.0762 -31.0503 -30.7068 -30.6189 -30.5965 -30.5238 -30.4374 -30.3261
   -18.8285 -18.6495 -15.9778 -15.7940 -15.6130 -15.4740 -15.3920 -15.1604
   -15.1021 -15.0636 -14.9824 -14.9597 -14.8591 -14.8402 -14.8386 -14.8204
   -14.8175 -14.7623 -14.7475 -14.7429 -14.6944 -14.6875 -14.6622 -14.6466
   -14.5941 -14.5155 -14.5068 -14.4605 -14.4152 -14.3686 -14.0241 -13.4138
   -12.8007 -12.6843  -8.8036  -7.2709  -6.5929  -4.3212  -3.7874  -3.3609
    -3.2845  -3.2493  -3.2244  -3.0883  -2.9711  -2.8524  -2.7559  -2.6680
    -2.5847  -2.4802  -2.4226  -2.3779  -2.3171  -2.2575  -2.2313  -2.1457
    -2.1259  -2.1063  -2.0845  -2.0579  -2.0282  -1.9896  -1.8688  -1.8582
    -1.7761  -1.7194  -1.6789  -1.6632  -1.6394  -1.6339  -1.6010  -1.5810
    -1.5721  -1.5606  -1.5583  -1.5233  -1.3850  -1.3601  -1.3323  -1.3108
    -1.1634  -1.0259  -0.9370  -0.9345  -0.8249  -0.7603  -0.7572  -0.7189
    -0.7031  -0.6008  -0.5154  -0.4787  -0.4542  -0.3729  -0.3158  -0.2629
    -0.2112  -0.1757  -0.1090  -0.0851  -0.0685  -0.0516   0.0171   0.0800
     0.1411   0.2265   0.2701   0.2943   0.3853   0.3993   0.4225   0.4870
     0.5194   0.5642   0.5995   0.6288   0.6522   0.6826   0.7079   0.7511
     0.7890   0.9148   0.9328   0.9616   0.9829   1.1571   1.2064   1.3097
     1.3398   1.4413   1.4838   1.6628   1.7240   1.8033   1.9159   2.2940
     2.3398   3.7894   3.9007   3.9349   3.9599   3.9992   4.0505   4.2570
     4.3302   4.3714   4.4291

[...]

          k = 0.0380-0.0419 0.0000 ( 17876 PWs)   bands (ev):

[...]

          k =-0.0760-0.0000 0.0000 ( 17886 PWs)   bands (ev):

[...]

          k =-0.0760-0.0839 0.0000 ( 17948 PWs)   bands (ev):

   -55.3031 -55.3025 -55.2008 -55.1824 -55.1760 -55.1444 -55.1304 -55.1236
   -55.1228 -55.1078 -55.0843 -55.0764 -54.9908 -54.8367 -54.2830 -54.2829
   -31.6196 -31.6192 -31.5975 -31.5970 -31.5654 -31.5333 -31.5023 -31.4898
   -31.4830 -31.4677 -31.4490 -31.4438 -31.4398 -31.4304 -31.4253 -31.4240
   -31.4225 -31.4222 -31.4167 -31.4010 -31.3900 -31.3760 -31.3652 -31.3630
   -31.3581 -31.3535 -31.3444 -31.3318 -31.3259 -31.3244 -31.3091 -31.2999
   -31.2968 -31.2960 -31.2942 -31.2916 -31.2612 -31.2339 -31.2199 -31.1472
   -31.0936 -31.0792 -30.6092 -30.6092 -30.5197 -30.5196 -30.4807 -30.4806
   -18.8148 -18.6589 -15.3554 -15.3201 -15.2821 -15.2549 -15.2389 -15.1179
   -15.1042 -15.0686 -15.0272 -15.0138 -14.9835 -14.9549 -14.9062 -14.8974
   -14.8633 -14.8438 -14.8047 -14.7781 -14.7588 -14.7545 -14.7377 -14.7161
   -14.6725 -14.6507 -14.6382 -14.6339 -14.5820 -14.4879 -14.2097 -13.4364
   -12.7861 -12.7860  -8.7994  -7.1963  -6.5943  -4.5285  -3.5726  -2.8460
    -2.6695  -2.6309  -2.5763  -2.4882  -2.4411  -2.3190  -2.3126  -2.2896
    -2.2446  -2.2317  -2.1909  -2.1506  -2.1445  -2.1168  -2.1043  -2.0598
    -2.0482  -2.0454  -2.0308  -1.9959  -1.9917  -1.9711  -1.9469  -1.9438
    -1.9338  -1.9175  -1.8844  -1.8774  -1.8499  -1.8310  -1.6792  -1.6042
    -1.5632  -1.4855  -1.4624  -1.4456  -1.4266  -1.3921  -1.3719  -1.3461
    -1.3177  -1.1723  -1.0278  -0.9966  -0.9714  -0.8730  -0.8581  -0.8386
    -0.7916  -0.7501  -0.7150  -0.6561  -0.6472  -0.6017  -0.5802  -0.4605
    -0.4227  -0.3226  -0.2880  -0.2860  -0.2683  -0.2537  -0.2368  -0.2109
    -0.1614  -0.0901  -0.0746  -0.0258  -0.0022   0.0004   0.0135   0.1594
     0.2303   0.2507   0.3526   0.3830   0.5578   0.7219   0.7338   0.8016
     0.8645   0.9193   0.9535   0.9934   1.0036   1.0692   1.0940   1.1987
     1.2090   1.2578   1.2629   1.3415   1.3542   2.0877   2.0894   2.1597
     2.1599   4.1533   4.1691   4.1972   4.2603   4.3038   4.3154   4.3527
     4.3564   4.4594   4.4749

     the Fermi energy is     3.8076 ev

!    total energy              =   -2973.94001427 Ry
     estimated scf accuracy    <       0.00000002 Ry
     smearing contrib. (-TS)   =      -0.02072071 Ry
     internal energy E=F+TS    =   -2973.91929356 Ry

     The total energy is F=E-TS. E is the sum of the following terms:
     one-electron contribution =  -24338.90349965 Ry
     hartree contribution      =   12267.16232829 Ry
     xc contribution           =    -494.11063696 Ry
     ewald contribution        =    9591.92882229 Ry
     electric field correction =       0.00369246 Ry

     convergence has been achieved in  64 iterations

     Forces acting on atoms (cartesian axes, Ry/au):

     atom    1 type  1   force =     0.00003278   -0.00009646    0.09506135
     atom    2 type  1   force =     0.00017985   -0.00069344   -0.17564624
     atom    3 type  2   force =     0.00008727   -0.00005168   -0.02295031
     atom    4 type  2   force =     0.00002004   -0.00143186    0.05289049
     atom    5 type  2   force =    -0.01000078   -0.00031215    0.00380704
     atom    6 type  2   force =     0.01112314    0.00020426    0.00206103
     atom    7 type  1   force =    -0.00021853    0.00179441   -0.00589062
     atom    8 type  1   force =     0.00081176    0.01009000    0.01604251
     atom    9 type  2   force =    -0.00016048    0.00086756    0.00032621
     atom   10 type  2   force =    -0.00227402    0.00217437   -0.01800441
     atom   11 type  2   force =     0.00022833   -0.00003165    0.00008241
     atom   12 type  2   force =    -0.00033841   -0.00018242    0.00056310
     atom   13 type  1   force =    -0.00002301    0.00125267    0.00016849
     atom   14 type  1   force =    -0.00011732    0.00007851    0.00000012
     atom   15 type  2   force =     0.00012103    0.00020072    0.00002614
     atom   16 type  2   force =    -0.00037590    0.00043636   -0.00026270
     atom   17 type  2   force =    -0.00015567   -0.00022657   -0.00002907
     atom   18 type  2   force =    -0.00005898    0.00002128    0.00041004
     atom   19 type  1   force =    -0.00049683    0.00033379   -0.00023634
     atom   20 type  1   force =    -0.00027846   -0.00004762    0.00011024
     atom   21 type  2   force =     0.00009276   -0.00008493    0.10319495
     atom   22 type  2   force =     0.00046675    0.00000538    0.00068361
     atom   23 type  2   force =    -0.07162168   -0.00016520   -0.02758972
     atom   24 type  2   force =     0.07158009    0.00024732   -0.02763866
     atom   25 type  1   force =     0.00023942   -0.00039463    0.09517526
     atom   26 type  1   force =    -0.00003325   -0.00020223   -0.17580578
     atom   27 type  2   force =     0.00012022   -0.00011771   -0.02197593
     atom   28 type  2   force =     0.00001386   -0.00139565    0.05322023
     atom   29 type  2   force =    -0.01034365   -0.00022701    0.00364846
     atom   30 type  2   force =     0.01138037    0.00042477    0.00191636
     atom   31 type  1   force =    -0.00029967    0.00266430   -0.00009117
     atom   32 type  1   force =     0.00067554   -0.01115027    0.01691980
     atom   33 type  2   force =     0.00037465   -0.00027452    0.00000551
     atom   34 type  2   force =    -0.00034092    0.00144488   -0.01893428
     atom   35 type  2   force =    -0.00002050   -0.00035058   -0.00015689
     atom   36 type  2   force =     0.00001287   -0.00024625    0.00044128
     atom   37 type  1   force =    -0.00004720   -0.00122838    0.00033037
     atom   38 type  1   force =    -0.00039241    0.00090393    0.00005954
     atom   39 type  2   force =     0.00010352    0.00007827    0.00011975
     atom   40 type  2   force =    -0.00049420   -0.00059733   -0.00000542
     atom   41 type  2   force =     0.00022618   -0.00016008    0.00025915
     atom   42 type  2   force =    -0.00027363   -0.00035938   -0.00021754
     atom   43 type  1   force =    -0.00020893   -0.00021926    0.00063642
     atom   44 type  1   force =     0.00000573   -0.00042001    0.00009728
     atom   45 type  2   force =     0.00009829   -0.00010015    0.10321555
     atom   46 type  2   force =    -0.07160876   -0.00016728   -0.02758102
     atom   47 type  2   force =     0.07160706    0.00024416   -0.02759393
     atom   48 type  3   force =     0.00016046   -0.00052227    0.00032306
     atom   49 type  3   force =     0.00003210    0.00010107   -0.00016287
     atom   50 type  4   force =     0.00038062   -0.00028888    0.00047359
     atom   51 type  5   force =    -0.00015383   -0.00048134   -0.00026616
     atom   52 type  5   force =    -0.00002988   -0.00102940   -0.00080142
     atom   53 type  5   force =     0.00015624   -0.00040630   -0.00060821
     atom   54 type  2   force =    -0.01196474   -0.00578218    0.00093287
     atom   55 type  5   force =    -0.00084876   -0.00129377    0.00015409
     atom   56 type  5   force =     0.01284950    0.00717084   -0.00090759

     Total force =     0.365753     Total SCF correction =     0.000364
  @ DRIVER MODE: Message from server: STATUS
  @ DRIVER MODE: Message from server: GETFORCE
  @ DRIVER MODE: Returning v,forces,stress,ensemble

     Writing output data file ./calc.save/
  @ DRIVER MODE: Message from server: EXIT
  @ DRIVE MODE: Exiting

     General routines

     Parallel routines

   This run was terminated on:   8:57:16  23Sep2021

   JOB DONE.