     Program PWSCF v.6.7GPU starts on 23Sep2021 at  1:55:30

     R & G space division:  proc/nbgrp/npool/nimage =       8
     Reading input from /storage/home/hcoda1/3/ntian30/research/carbon/CxH_vib/H2O_calc/ads_slab/CH2OHHO_a/out_0011/pw.inp
Warning: card &CELL ignored
Warning: card   CELL_DYNAMICS='IPI', ignored
Warning: card / ignored

     Current dimensions of program PWSCF are:
     Max number of different atomic species (ntypx) = 10
     Max number of k-points (npk) =  40000
     Max angular momentum in pseudopotentials (lmaxx) =  3
     Presently no symmetry can be used with electric field

     Message from routine cell_base_init:
     DEPRECATED: use true lattice parameter, not A to a.u. conversion factor

     IMPORTANT: XC functional enforced from input :
     Exchange-correlation= BEEF-VDW
                           (   1   4  43  14   2   0   0)
     Any further DFT definition will be discarded
     Please, verify this is what you really want

  @ DRIVER MODE: Connecting to
 qe_1139763_2941013.sched-torque.pace.gatech.edu7_nx_rio_scratch
  using UNIX socket
  @ DRIVER MODE: Message from server: STATUS
  @ DRIVER MODE: Message from server: INIT
  @ DRIVER MODE: Receiving replica           0          -1
  @ DRIVER MODE: Receiving encoded integer          25
  @ DRIVER MODE:  SCF:  T  FORCE:  T  STRESS:  F  VC:  F  ENSEMBLE:  F
  @ DRIVER MODE:  SCF:  T  FORCE:  T  STRESS:  F  VC:  F  ENSEMBLE:  F

     Using Slab Decomposition

     bravais-lattice index     =            0
     lattice parameter (alat)  =       1.8897  a.u.
     unit-cell volume          =    6658.9804 (a.u.)^3
     number of atoms/cell      =           54
     number of atomic types    =            4
     number of electrons       =       398.00
     number of Kohn-Sham states=          209
     kinetic-energy cutoff     =      29.3995  Ry
     charge density cutoff     =     293.9946  Ry
     scf convergence threshold =      7.3E-08
     mixing beta               =       0.0500
     number of iterations used =            8  plain     mixing
     Exchange-correlation= BEEF-VDW
                           (   1   4  43  14   2   0   0)

     celldm(1)=   1.889726  celldm(2)=   0.000000  celldm(3)=   0.000000
     celldm(4)=   0.000000  celldm(5)=   0.000000  celldm(6)=   0.000000

     crystal axes: (cart. coord. in units of alat)
               a(1) = (   6.579727   0.000000   0.000000 )
               a(2) = (  -0.000775   5.961596   0.000000 )
               a(3) = (   0.000000   0.000000  25.155947 )

     reciprocal axes: (cart. coord. in units 2 pi/alat)
               b(1) = (  0.151982  0.000020  0.000000 )
               b(2) = (  0.000000  0.167740  0.000000 )
               b(3) = (  0.000000  0.000000  0.039752 )

     PseudoPot. # 1 for Ti read from file:
     /storage/coda1/p-amedford6/0/shared/rich_project_chbe-medford/medford-share/data/pseudos_module/espresso/nninc/pbe/van/Ti.UPF
     MD5 check sum: 8e4df49b7f0d34bbd5052bf3f5ea0213
     Pseudo is Ultrasoft, Zval = 12.0
     Generated by new atomic code, or converted to UPF format
     Using radial grid of  851 points,  6 beta functions with:
                l(1) =   0
                l(2) =   0
                l(3) =   1
                l(4) =   1
                l(5) =   2
                l(6) =   2
     Q(r) pseudized with  8 coefficients,  rinner =    1.000   1.000   1.000
                                                       1.000   1.000

     PseudoPot. # 2 for O  read from file:
     /storage/coda1/p-amedford6/0/shared/rich_project_chbe-medford/medford-share/data/pseudos_module/espresso/nninc/pbe/van/O.UPF
     MD5 check sum: 78c19812648e8988a0fe644b0f25305e
     Pseudo is Ultrasoft, Zval =  6.0
     Generated by new atomic code, or converted to UPF format
     Using radial grid of  737 points,  4 beta functions with:
                l(1) =   0
                l(2) =   0
                l(3) =   1
                l(4) =   1
     Q(r) pseudized with  8 coefficients,  rinner =    0.800   0.800   0.800

     PseudoPot. # 3 for C  read from file:
     /storage/coda1/p-amedford6/0/shared/rich_project_chbe-medford/medford-share/data/pseudos_module/espresso/nninc/pbe/van/C.UPF
     MD5 check sum: 1a69bf6b8db32088f5b2163dbdb77a27
     Pseudo is Ultrasoft, Zval =  4.0
     Generated by new atomic code, or converted to UPF format
     Using radial grid of  721 points,  4 beta functions with:
                l(1) =   0
                l(2) =   0
                l(3) =   1
                l(4) =   1
     Q(r) pseudized with  8 coefficients,  rinner =    0.800   0.800   0.800

     PseudoPot. # 4 for H  read from file:
     /storage/coda1/p-amedford6/0/shared/rich_project_chbe-medford/medford-share/data/pseudos_module/espresso/nninc/pbe/van/H.UPF
     MD5 check sum: b5ee9d7bfd3a09ee7748110bda690ff7
     Pseudo is Ultrasoft, Zval =  1.0
     Generated by new atomic code, or converted to UPF format
     Using radial grid of  615 points,  1 beta functions with:
                l(1) =   0
     Q(r) pseudized with  8 coefficients,  rinner =    0.800

     atomic species   valence    mass     pseudopotential
        Ti1           12.00    47.86700     Ti( 1.00)
        O1             6.00    15.99900     O ( 1.00)
        C1             4.00    12.01100     C ( 1.00)
        H1             1.00     1.00800     H ( 1.00)

     No symmetry found

   Cartesian axes

     site n.     atom                  positions (alat units)
         1           Ti1 tau(   1) = (   0.0004258   2.9801865   6.0000000  )
         2           Ti1 tau(   2) = (   3.2906075   1.4906267   6.0002472  )
         3           O1  tau(   3) = (   0.0006271   0.0005054   7.9858123  )
         4           O1  tau(   4) = (   3.2906025   0.0005020   7.3038282  )
         5           O1  tau(   5) = (   4.5942328   1.4918067   9.2879030  )
         6           O1  tau(   6) = (   1.9868534   1.4903216   9.2879459  )
         7           Ti1 tau(   7) = (   3.2053781   3.0281819   9.2289109  )
         8           Ti1 tau(   8) = (   6.4789090   1.5422439   9.3246958  )
         9           O1  tau(   9) = (   3.3131828   0.0076525  11.3143355  )
        10           O1  tau(  10) = (   0.0036331   0.0073455  10.5537702  )
        11           O1  tau(  11) = (   1.2849538   1.5262321  12.5678262  )
        12           O1  tau(  12) = (   5.3289628   1.4687457  12.6164477  )
        13           Ti1 tau(  13) = (   0.0494698   3.0469090  12.7547230  )
        14           Ti1 tau(  14) = (   3.2845375   1.6334081  12.5308488  )
        15           O1  tau(  15) = (   0.1943872   0.0117586  14.6058021  )
        16           O1  tau(  16) = (   3.1943342   5.9422946  13.9142442  )
        17           O1  tau(  17) = (   4.6623408   1.4089460  15.7678261  )
        18           O1  tau(  18) = (   2.0428328   1.6351894  16.0888801  )
        19           Ti1 tau(  19) = (   3.4388860   2.9458104  15.8736401  )
        20           Ti1 tau(  20) = (   0.1295272   1.3814375  15.8666627  )
        21           O1  tau(  21) = (   3.2904802   0.0005063   4.7018136  )
        22           O1  tau(  22) = (   0.0846747   0.0144810  17.1090220  )
        23           O1  tau(  23) = (   1.3043587   1.4918075   6.0039043  )
        24           O1  tau(  24) = (   5.2767064   1.4903225   6.0039473  )
        25           Ti1 tau(  25) = (   0.0000382   5.9609847   6.0000000  )
        26           Ti1 tau(  26) = (   3.2902200   4.4714249   6.0002472  )
        27           O1  tau(  27) = (   0.0002396   2.9813036   7.9858123  )
        28           O1  tau(  28) = (   3.2902150   2.9813002   7.3038282  )
        29           O1  tau(  29) = (   4.5938453   4.4726049   9.2879030  )
        30           O1  tau(  30) = (   1.9864658   4.4711199   9.2879459  )
        31           Ti1 tau(  31) = (   3.2224821   0.0470802   9.2230333  )
        32           Ti1 tau(  32) = (   6.4759698   4.4664252   9.3127940  )
        33           O1  tau(  33) = (   3.3094535   2.9663607  11.2852029  )
        34           O1  tau(  34) = (   6.5591786   2.9896559  10.5312464  )
        35           O1  tau(  35) = (   1.2916819   4.4480478  12.5709280  )
        36           O1  tau(  36) = (   5.3369627   4.5124161  12.6303246  )
        37           Ti1 tau(  37) = (   6.5569224   0.0640291  12.4639877  )
        38           Ti1 tau(  38) = (   3.2972653   4.6387695  12.6472152  )
        39           O1  tau(  39) = (   0.0654804   2.9943531  14.6628162  )
        40           O1  tau(  40) = (   3.3673531   2.9793459  13.8791815  )
        41           O1  tau(  41) = (   4.6654837   4.5585741  15.7845026  )
        42           O1  tau(  42) = (   2.0434307   4.3527116  16.0649513  )
        43           Ti1 tau(  43) = (   3.4443475   5.9291804  16.0141943  )
        44           Ti1 tau(  44) = (   0.1552736   4.5966999  15.8683145  )
        45           O1  tau(  45) = (   3.2900926   2.9813045   4.7018136  )
        46           O1  tau(  46) = (   1.3039711   4.4726057   6.0039043  )
        47           O1  tau(  47) = (   5.2763189   4.4711207   6.0039473  )
        48           C1  tau(  48) = (   4.6056898   2.9812133  17.8228851  )
        49           O1  tau(  49) = (   6.0966523   2.9907575  17.3946881  )
        50           H1  tau(  50) = (   0.0599730   2.9907033  18.2108262  )
        51           H1  tau(  51) = (   4.4920754   2.0732530  18.4117920  )
        52           H1  tau(  52) = (   4.4771298   3.8877196  18.4106030  )
        53           O1  tau(  53) = (   3.3127961   5.9530928  17.8757943  )
        54           H1  tau(  54) = (   2.4287022   0.1083392  18.2542858  )

     number of k points=    10  Fermi-Dirac smearing, width (Ry)=  0.0073
                       cart. coord. in units 2pi/alat
        k(    1) = (   0.0000000   0.0000000   0.0000000), wk =   0.1250000
        k(    2) = (   0.0000000   0.0419351   0.0000000), wk =   0.2500000
        k(    3) = (   0.0000000  -0.0838702   0.0000000), wk =   0.1250000
        k(    4) = (   0.0379955   0.0000049   0.0000000), wk =   0.2500000
        k(    5) = (   0.0379955   0.0419400   0.0000000), wk =   0.2500000
        k(    6) = (   0.0379955  -0.0838652   0.0000000), wk =   0.2500000
        k(    7) = (   0.0379955  -0.0419301   0.0000000), wk =   0.2500000
        k(    8) = (  -0.0759910  -0.0000099   0.0000000), wk =   0.1250000
        k(    9) = (  -0.0759910   0.0419252   0.0000000), wk =   0.2500000
        k(   10) = (  -0.0759910  -0.0838800   0.0000000), wk =   0.1250000

     Initial potential from superposition of free atoms

     starting charge  381.99917, renormalised to  398.00000

     negative rho (up, down):  1.911E-02 0.000E+00

     %%%%%%%%%%%%%%%%%%%%%%%%%%%%%%%%%%%%%%%%%%%%%%%%%%%%%%%%%%%%%%%%%%%%%%%%
     %                                                                      %
     % You are using vdW-DF, which was implemented by the Thonhauser group. %
     % Please cite the following two papers that made this development      %
     % possible and the two reviews that describe the various versions:     %
     %                                                                      %
     %   T. Thonhauser et al., PRL 115, 136402 (2015).                      %
     %   T. Thonhauser et al., PRB 76, 125112 (2007).                       %
     %   K. Berland et al., Rep. Prog. Phys. 78, 066501 (2015).             %
     %   D.C. Langreth et al., J. Phys.: Condens. Matter 21, 084203 (2009). %
     %                                                                      %
     %                                                                      %
     % If you are calculating the stress with vdW-DF, please also cite:     %
     %                                                                      %
     %   R. Sabatini et al., J. Phys.: Condens. Matter 24, 424209 (2012).   %
     %                                                                      %
     %%%%%%%%%%%%%%%%%%%%%%%%%%%%%%%%%%%%%%%%%%%%%%%%%%%%%%%%%%%%%%%%%%%%%%%%

     Adding external electric field

     Computed dipole along edir(3) :
        Dipole               -7.9344 Ry au,        -20.1673 Debye
        Dipole field         -0.0150 Ry au,

        Potential amp.        1.3880 Ry
        Total length         46.3494 bohr

     Starting wfcs are  300 atomic wfcs
  @ DRIVER MODE: Message from server: STATUS
  @ DRIVER MODE: Message from server: POSDATA
  @ DRIVER MODE: Reading and sharing cell
  @ DRIVER MODE: Reading and sharing positions
  @ DRIVER MODE: Received positions

     Self-consistent Calculation

     iteration #  1     ecut=    29.40 Ry     beta= 0.05
     Davidson diagonalization with overlap
     c_bands:  1 eigenvalues not converged
     c_bands:  2 eigenvalues not converged
     c_bands:  2 eigenvalues not converged
     c_bands:  1 eigenvalues not converged
     c_bands:  1 eigenvalues not converged
     c_bands:  1 eigenvalues not converged
     ethr =  1.00E-05,  avg # of iterations = 18.8

[...]

     total energy              =   -2649.55973328 Ry
     estimated scf accuracy    <    3499.85258114 Ry

[...]

     iteration #  3     ecut=    29.40 Ry     beta= 0.05
     Davidson diagonalization with overlap
     ethr =  1.00E-02,  avg # of iterations = 14.0

[...]

     iteration # 47     ecut=    29.40 Ry     beta= 0.05
     Davidson diagonalization with overlap
     c_bands:  1 eigenvalues not converged
     ethr =  1.44E-07,  avg # of iterations =  6.5

[...]

     total energy              =   -2964.91864753 Ry
     estimated scf accuracy    <       0.00000012 Ry

     iteration # 65     ecut=    29.40 Ry     beta= 0.05
     Davidson diagonalization with overlap
     ethr =  3.05E-11,  avg # of iterations =  4.2

     negative rho (up, down):  1.874E-02 0.000E+00

     Adding external electric field

     Computed dipole along edir(3) :
        Dipole                0.6495 Ry au,          1.6509 Debye
        Dipole field          0.0012 Ry au,

        Potential amp.       -0.1136 Ry
        Total length         46.3494 bohr

     End of self-consistent calculation

          k = 0.0000 0.0000 0.0000 ( 18029 PWs)   bands (ev):

   -56.4281 -56.3632 -55.7944 -55.7916 -55.7463 -55.7415 -55.7378 -55.6973
   -55.6913 -55.6437 -55.4571 -55.4405 -55.3767 -55.3608 -54.9536 -54.9197
   -32.8304 -32.7037 -32.6268 -32.5990 -32.4971 -32.4551 -32.4073 -32.3190
   -32.2112 -32.1801 -32.1010 -32.0583 -32.0379 -32.0007 -31.9997 -31.9914
   -31.9724 -31.9581 -31.9531 -31.9418 -31.9374 -31.9328 -31.9197 -31.9032
   -31.8904 -31.8876 -31.8702 -31.8598 -31.8487 -31.8298 -31.8209 -31.7959
   -31.7579 -31.7012 -31.6596 -31.6441 -31.6211 -31.5898 -31.5874 -31.5585
   -31.5461 -31.4192 -31.3463 -31.3007 -31.2761 -31.1622 -31.0760 -30.9671
   -19.2917 -16.5856 -16.4342 -16.3055 -16.1686 -15.9531 -15.9244 -15.8206
   -15.7206 -15.6785 -15.5983 -15.5690 -15.4311 -15.3814 -15.3532 -15.3323
   -15.3125 -15.2928 -15.2786 -15.2406 -15.2252 -15.1916 -15.1375 -15.0723
   -15.0510 -14.9992 -14.9672 -14.9507 -14.8660 -14.8019 -14.7211 -13.4610
   -13.3551  -9.1379  -6.1904  -4.0839  -3.9844  -3.9335  -3.8810  -3.7837
    -3.7171  -3.6849  -3.6257  -3.3032  -3.1717  -3.0774  -3.0230  -2.9998
    -2.9247  -2.9232  -2.9093  -2.7910  -2.7322  -2.7058  -2.6445  -2.6277
    -2.5843  -2.5501  -2.5456  -2.5309  -2.4887  -2.4483  -2.4084  -2.3906
    -2.3437  -2.2601  -2.2434  -2.1651  -2.1305  -2.1091  -2.0218  -1.9561
    -1.9469  -1.9099  -1.8874  -1.7791  -1.6030  -1.5162  -1.4592  -1.4041
    -1.3830  -1.3172  -1.3070  -1.2529  -1.1934  -1.1659  -1.1620  -1.0461
    -0.9933  -0.9606  -0.9146  -0.8801  -0.8158  -0.7686  -0.7528  -0.7226
    -0.7089  -0.6028  -0.5149  -0.4940  -0.4655  -0.4326  -0.3120  -0.2693
    -0.2329  -0.2054  -0.1881  -0.1472  -0.1038  -0.0349   0.0100   0.0657
     0.1044   0.1753   0.1857   0.2240   0.2591   0.2952   0.3580   0.3738
     0.4773   0.5067   0.5632   0.5994   0.7442   0.7734   0.9301   0.9946
     1.0568   1.1514   1.2780   1.3397   1.5873   1.6266   1.7808   2.8871
     3.0500   3.3177   3.3629   3.4978   3.5674   3.6262   3.7674   3.7949
     3.8495

[...]

          k = 0.0380-0.0419 0.0000 ( 17876 PWs)   bands (ev):

[...]

          k =-0.0760-0.0000 0.0000 ( 17886 PWs)   bands (ev):

[...]

          k =-0.0760-0.0839 0.0000 ( 17948 PWs)   bands (ev):

   -56.4233 -56.3678 -55.7866 -55.7851 -55.7538 -55.7441 -55.7342 -55.7044
   -55.6841 -55.6509 -55.4540 -55.4357 -55.3814 -55.3637 -54.9368 -54.9364
   -32.7007 -32.6694 -32.6289 -32.6236 -32.5706 -32.5228 -32.3293 -32.1581
   -32.1038 -32.0698 -32.0496 -32.0321 -32.0311 -32.0180 -32.0116 -32.0096
   -31.9941 -31.9779 -31.9723 -31.9535 -31.9516 -31.9492 -31.9460 -31.9338
   -31.9200 -31.9006 -31.8889 -31.8808 -31.8643 -31.8353 -31.7850 -31.7643
   -31.7554 -31.7199 -31.7135 -31.6798 -31.6594 -31.6457 -31.6323 -31.6001
   -31.5931 -31.4202 -31.2894 -31.2891 -31.1601 -31.1596 -31.1194 -31.1190
   -19.2838 -16.2412 -16.1240 -15.9372 -15.9011 -15.8254 -15.8237 -15.7741
   -15.7337 -15.6371 -15.5823 -15.5639 -15.4923 -15.4678 -15.4502 -15.4244
   -15.3741 -15.3490 -15.3254 -15.3139 -15.2708 -15.2461 -15.2426 -15.1953
   -15.1431 -15.1164 -15.0983 -15.0468 -14.9907 -14.9319 -14.8792 -13.4624
   -13.4567  -9.1461  -6.1717  -4.0918  -3.6846  -3.6366  -3.3342  -3.1522
    -2.9727  -2.9611  -2.9475  -2.9395  -2.8702  -2.8639  -2.8157  -2.7750
    -2.7194  -2.6994  -2.6722  -2.6667  -2.6607  -2.6193  -2.6085  -2.5823
    -2.5556  -2.5503  -2.5072  -2.5001  -2.4801  -2.4341  -2.4192  -2.3874
    -2.3564  -2.3289  -2.2781  -2.2211  -2.2021  -2.1887  -2.0627  -1.9941
    -1.9878  -1.9119  -1.8977  -1.8695  -1.8302  -1.7530  -1.6918  -1.6543
    -1.5214  -1.5011  -1.4450  -1.4087  -1.3334  -1.3221  -1.2384  -1.2090
    -1.1714  -1.1357  -1.1069  -1.0826  -1.0619  -1.0584  -0.9343  -0.9031
    -0.8525  -0.8361  -0.8032  -0.7704  -0.7461  -0.6905  -0.6221  -0.6134
    -0.5653  -0.5176  -0.4499  -0.4125  -0.3311  -0.2756  -0.2340  -0.1664
    -0.0604   0.0604   0.0988   0.2030   0.3009   0.3084   0.3747   0.4235
     0.4507   0.4955   0.5792   0.5918   0.6589   0.6703   0.7037   0.7614
     0.8105   0.8801   1.4274   1.4432   1.4649   1.4676   1.7181   3.4307
     3.4574   3.4775   3.5202   3.6664   3.7598   3.7866   3.8527   3.9005
     3.9177

     the Fermi energy is     2.4075 ev

!    total energy              =   -2964.91867463 Ry
     estimated scf accuracy    <       0.00000003 Ry
     smearing contrib. (-TS)   =      -0.00043025 Ry
     internal energy E=F+TS    =   -2964.91824438 Ry

     The total energy is F=E-TS. E is the sum of the following terms:
     one-electron contribution =  -24903.93104668 Ry
     hartree contribution      =   12542.37474215 Ry
     xc contribution           =    -490.06144863 Ry
     ewald contribution        =    9886.69871266 Ry
     electric field correction =       0.00079612 Ry

     convergence has been achieved in  65 iterations

     Forces acting on atoms (cartesian axes, Ry/au):

     atom    1 type  1   force =     0.00009575   -0.00023511    0.12243239
     atom    2 type  1   force =     0.00010856    0.00183475   -0.15176247
     atom    3 type  2   force =    -0.00068121   -0.00092110   -0.05776821
     atom    4 type  2   force =    -0.00119430    0.00052244    0.04763313
     atom    5 type  2   force =    -0.01071902   -0.00519219   -0.00143943
     atom    6 type  2   force =     0.01360009    0.00025516   -0.00014857
     atom    7 type  1   force =    -0.00027505    0.00014939    0.00009835
     atom    8 type  1   force =     0.00039995   -0.00013562   -0.00035544
     atom    9 type  2   force =     0.00000923   -0.00024305    0.00042916
     atom   10 type  2   force =    -0.00012404   -0.00005623    0.00009985
     atom   11 type  2   force =    -0.00044279   -0.00026987    0.00025519
     atom   12 type  2   force =     0.00015999    0.00007924   -0.00001491
     atom   13 type  1   force =     0.00040931   -0.00011104    0.00007608
     atom   14 type  1   force =    -0.00010891   -0.00028893   -0.00000556
     atom   15 type  2   force =    -0.00036013   -0.00017629   -0.00044043
     atom   16 type  2   force =     0.00019232    0.00008246   -0.00005484
     atom   17 type  2   force =    -0.00047724   -0.00019679   -0.00004336
     atom   18 type  2   force =     0.00010416   -0.00019631    0.00011028
     atom   19 type  1   force =    -0.00072355   -0.00001026   -0.00036800
     atom   20 type  1   force =    -0.00003550    0.00001512   -0.00095215
     atom   21 type  2   force =     0.00027008    0.00012766    0.09728651
     atom   22 type  2   force =    -0.00033642   -0.00032954   -0.00003430
     atom   23 type  2   force =    -0.08313240    0.00238787   -0.03358098
     atom   24 type  2   force =     0.08318009    0.00267559   -0.03364835
     atom   25 type  1   force =     0.00042089    0.00038114    0.13900748
     atom   26 type  1   force =     0.00005209   -0.00119120   -0.15159376
     atom   27 type  2   force =    -0.00069599    0.00143514   -0.05291124
     atom   28 type  2   force =    -0.00117882    0.00017443    0.04594590
     atom   29 type  2   force =    -0.01132987    0.00058831   -0.00073528
     atom   30 type  2   force =     0.01406702    0.00412879    0.00076757
     atom   31 type  1   force =    -0.00050340   -0.00017178    0.00017560
     atom   32 type  1   force =     0.00035418   -0.00004515   -0.00012581
     atom   33 type  2   force =    -0.00024461    0.00010869    0.00010015
     atom   34 type  2   force =     0.00013519    0.00008542    0.00009379
     atom   35 type  2   force =    -0.00017943    0.00054786    0.00033679
     atom   36 type  2   force =     0.00020302   -0.00000568   -0.00017910
     atom   37 type  1   force =    -0.00062494    0.00028373    0.00034925
     atom   38 type  1   force =    -0.00032864   -0.00039771   -0.00018540
     atom   39 type  2   force =     0.00013783   -0.00010468   -0.00017267
     atom   40 type  2   force =    -0.00029134   -0.00008588    0.00033072
     atom   41 type  2   force =    -0.00039780   -0.00029574   -0.00008163
     atom   42 type  2   force =    -0.00023084   -0.00020430    0.00030998
     atom   43 type  1   force =    -0.00007963   -0.00004767   -0.00056826
     atom   44 type  1   force =    -0.00004371    0.00001165   -0.00041895
     atom   45 type  2   force =     0.00023320    0.00013534    0.09735819
     atom   46 type  2   force =    -0.08305415   -0.00265132   -0.03359883
     atom   47 type  2   force =     0.08308882   -0.00230515   -0.03370309
     atom   48 type  3   force =    -0.00092409   -0.00004072   -0.00220139
     atom   49 type  2   force =     0.00634560    0.00000283    0.01752070
     atom   50 type  4   force =    -0.00668549    0.00007256   -0.01367471
     atom   51 type  4   force =     0.00109225   -0.00026455    0.00003521
     atom   52 type  4   force =     0.00076660    0.00014154   -0.00033475
     atom   53 type  2   force =    -0.00068513    0.00057121    0.00101026
     atom   54 type  4   force =     0.00066222   -0.00062445   -0.00066065

     Total force =     0.378483     Total SCF correction =     0.000374
  @ DRIVER MODE: Message from server: STATUS
  @ DRIVER MODE: Message from server: GETFORCE
  @ DRIVER MODE: Returning v,forces,stress,ensemble

     Writing output data file ./calc.save/
  @ DRIVER MODE: Message from server: EXIT
  @ DRIVE MODE: Exiting

     General routines

     Parallel routines

   This run was terminated on:   2:17:47  23Sep2021

   JOB DONE.