     Program PWSCF v.6.7GPU starts on 23Aug2021 at 19:12:45

     R & G space division:  proc/nbgrp/npool/nimage =       6
     Reading input from /storage/home/hcoda1/3/ntian30/research/carbon/CH_vib/ads_slab/CHN2_b/out_0013/pw.inp
Warning: card &CELL ignored
Warning: card   CELL_DYNAMICS='IPI', ignored
Warning: card / ignored

     Current dimensions of program PWSCF are:
     Max number of different atomic species (ntypx) = 10
     Max number of k-points (npk) =  40000
     Max angular momentum in pseudopotentials (lmaxx) =  3
     Presently no symmetry can be used with electric field

     Message from routine cell_base_init:
     DEPRECATED: use true lattice parameter, not A to a.u. conversion factor

     IMPORTANT: XC functional enforced from input :
     Exchange-correlation= BEEF-VDW
                           (   1   4  43  14   2   0   0)
     Any further DFT definition will be discarded
     Please, verify this is what you really want

  @ DRIVER MODE: Connecting to
 qe_1139763_2632794.sched-torque.pace.gatech.edu_bc0gcmc_scratch
  using UNIX socket
  @ DRIVER MODE: Message from server: STATUS
  @ DRIVER MODE: Message from server: INIT
  @ DRIVER MODE: Receiving replica           0          -1
  @ DRIVER MODE: Receiving encoded integer          25
  @ DRIVER MODE:  SCF:  T  FORCE:  T  STRESS:  F  VC:  F  ENSEMBLE:  F
  @ DRIVER MODE:  SCF:  T  FORCE:  T  STRESS:  F  VC:  F  ENSEMBLE:  F

     Using Slab Decomposition

     bravais-lattice index     =            0
     lattice parameter (alat)  =       1.8897  a.u.
     unit-cell volume          =    6658.9804 (a.u.)^3
     number of atoms/cell      =           51
     number of atomic types    =            5
     number of electrons       =       393.00
     number of Kohn-Sham states=          206
     kinetic-energy cutoff     =      29.3995  Ry
     charge density cutoff     =     293.9946  Ry
     scf convergence threshold =      7.3E-08
     mixing beta               =       0.0500
     number of iterations used =            8  plain     mixing
     Exchange-correlation= BEEF-VDW
                           (   1   4  43  14   2   0   0)

     celldm(1)=   1.889726  celldm(2)=   0.000000  celldm(3)=   0.000000
     celldm(4)=   0.000000  celldm(5)=   0.000000  celldm(6)=   0.000000

     crystal axes: (cart. coord. in units of alat)
               a(1) = (   6.579727   0.000000   0.000000 )
               a(2) = (  -0.000775   5.961596   0.000000 )
               a(3) = (   0.000000   0.000000  25.155947 )

     reciprocal axes: (cart. coord. in units 2 pi/alat)
               b(1) = (  0.151982  0.000020  0.000000 )
               b(2) = (  0.000000  0.167740  0.000000 )
               b(3) = (  0.000000  0.000000  0.039752 )

     PseudoPot. # 1 for Ti read from file:
     /storage/coda1/p-amedford6/0/shared/rich_project_chbe-medford/medford-share/data/pseudos_module/espresso/nninc/pbe/van/Ti.UPF
     MD5 check sum: 8e4df49b7f0d34bbd5052bf3f5ea0213
     Pseudo is Ultrasoft, Zval = 12.0
     Generated by new atomic code, or converted to UPF format
     Using radial grid of  851 points,  6 beta functions with:
                l(1) =   0
                l(2) =   0
                l(3) =   1
                l(4) =   1
                l(5) =   2
                l(6) =   2
     Q(r) pseudized with  8 coefficients,  rinner =    1.000   1.000   1.000
                                                       1.000   1.000

     PseudoPot. # 2 for O  read from file:
     /storage/coda1/p-amedford6/0/shared/rich_project_chbe-medford/medford-share/data/pseudos_module/espresso/nninc/pbe/van/O.UPF
     MD5 check sum: 78c19812648e8988a0fe644b0f25305e
     Pseudo is Ultrasoft, Zval =  6.0
     Generated by new atomic code, or converted to UPF format
     Using radial grid of  737 points,  4 beta functions with:
                l(1) =   0
                l(2) =   0
                l(3) =   1
                l(4) =   1
     Q(r) pseudized with  8 coefficients,  rinner =    0.800   0.800   0.800

     PseudoPot. # 3 for N  read from file:
     /storage/coda1/p-amedford6/0/shared/rich_project_chbe-medford/medford-share/data/pseudos_module/espresso/nninc/pbe/van/N.UPF
     MD5 check sum: 90d10febe142ad51ac9d5be1deb811c4
     Pseudo is Ultrasoft, Zval =  5.0
     Generated by new atomic code, or converted to UPF format
     Using radial grid of  729 points,  4 beta functions with:
                l(1) =   0
                l(2) =   0
                l(3) =   1
                l(4) =   1
     Q(r) pseudized with  8 coefficients,  rinner =    0.800   0.800   0.800

     PseudoPot. # 4 for C  read from file:
     /storage/coda1/p-amedford6/0/shared/rich_project_chbe-medford/medford-share/data/pseudos_module/espresso/nninc/pbe/van/C.UPF
     MD5 check sum: 1a69bf6b8db32088f5b2163dbdb77a27
     Pseudo is Ultrasoft, Zval =  4.0
     Generated by new atomic code, or converted to UPF format
     Using radial grid of  721 points,  4 beta functions with:
                l(1) =   0
                l(2) =   0
                l(3) =   1
                l(4) =   1
     Q(r) pseudized with  8 coefficients,  rinner =    0.800   0.800   0.800

     PseudoPot. # 5 for H  read from file:
     /storage/coda1/p-amedford6/0/shared/rich_project_chbe-medford/medford-share/data/pseudos_module/espresso/nninc/pbe/van/H.UPF
     MD5 check sum: b5ee9d7bfd3a09ee7748110bda690ff7
     Pseudo is Ultrasoft, Zval =  1.0
     Generated by new atomic code, or converted to UPF format
     Using radial grid of  615 points,  1 beta functions with:
                l(1) =   0
     Q(r) pseudized with  8 coefficients,  rinner =    0.800

     atomic species   valence    mass     pseudopotential
        Ti1           12.00    47.86700     Ti( 1.00)
        O1             6.00    15.99900     O ( 1.00)
        N1             5.00    14.00700     N ( 1.00)
        C1             4.00    12.01100     C ( 1.00)
        H1             1.00     1.00800     H ( 1.00)

     No symmetry found

   Cartesian axes

     site n.     atom                  positions (alat units)
         1           Ti1 tau(   1) = (   0.0004258   2.9801865   6.0000000  )
         2           Ti1 tau(   2) = (   3.2906075   1.4906267   6.0002472  )
         3           O1  tau(   3) = (   0.0006271   0.0005054   7.9858123  )
         4           O1  tau(   4) = (   3.2906025   0.0005020   7.3038282  )
         5           O1  tau(   5) = (   4.5942328   1.4918067   9.2879030  )
         6           O1  tau(   6) = (   1.9868534   1.4903216   9.2879459  )
         7           Ti1 tau(   7) = (   3.2907910   2.8959150   9.1758416  )
         8           Ti1 tau(   8) = (   0.0015273   1.4827037   9.2680791  )
         9           O1  tau(   9) = (   3.2950996   0.0139504  11.3317891  )
        10           O1  tau(  10) = (   0.0116148   5.9584955  10.6183126  )
        11           O1  tau(  11) = (   1.2919129   1.4990403  12.6236220  )
        12           O1  tau(  12) = (   5.2764399   1.5074276  12.6212280  )
        13           Ti1 tau(  13) = (   0.0528816   2.9532107  12.6238214  )
        14           Ti1 tau(  14) = (   3.3640876   1.5054642  12.4823551  )
        15           O1  tau(  15) = (   0.0126464   0.0517330  14.6735668  )
        16           O1  tau(  16) = (   3.2893787   0.0313947  13.9162352  )
        17           O1  tau(  17) = (   4.5455072   1.5470193  16.0571763  )
        18           O1  tau(  18) = (   2.0683839   1.5479149  16.0688871  )
        19           Ti1 tau(  19) = (   3.3004933   3.0285056  15.7062229  )
        20           Ti1 tau(  20) = (   6.5748692   1.5544668  15.8636821  )
        21           O1  tau(  21) = (   3.2904802   0.0005063   4.7018136  )
        22           O1  tau(  22) = (   0.0156978   0.0568370  17.2307755  )
        23           O1  tau(  23) = (   1.3043587   1.4918075   6.0039043  )
        24           O1  tau(  24) = (   5.2767064   1.4903225   6.0039473  )
        25           Ti1 tau(  25) = (   0.0000382   5.9609847   6.0000000  )
        26           Ti1 tau(  26) = (   3.2902200   4.4714249   6.0002472  )
        27           O1  tau(  27) = (   0.0002396   2.9813036   7.9858123  )
        28           O1  tau(  28) = (   3.2902150   2.9813002   7.3038282  )
        29           O1  tau(  29) = (   4.5938453   4.4726049   9.2879030  )
        30           O1  tau(  30) = (   1.9864658   4.4711199   9.2879459  )
        31           Ti1 tau(  31) = (   3.2891106   5.8743827   9.1763621  )
        32           Ti1 tau(  32) = (   0.0006254   4.4649316   9.2693709  )
        33           O1  tau(  33) = (   3.2930415   3.0011583  11.3325650  )
        34           O1  tau(  34) = (   0.0092240   2.9805883  10.6323155  )
        35           O1  tau(  35) = (   1.2898468   4.4882246  12.6384491  )
        36           O1  tau(  36) = (   5.2806636   4.4975927  12.6358184  )
        37           Ti1 tau(  37) = (   0.0525728   5.9296047  12.5528222  )
        38           Ti1 tau(  38) = (   3.3636738   4.4864912  12.4891182  )
        39           O1  tau(  39) = (   0.0107234   2.9627607  14.6747216  )
        40           O1  tau(  40) = (   3.2927234   3.0099296  13.9079960  )
        41           O1  tau(  41) = (   4.5395255   4.5218754  16.0742521  )
        42           O1  tau(  42) = (   2.0629885   4.5199598  16.0715304  )
        43           Ti1 tau(  43) = (   3.2878121   0.0461507  15.7166771  )
        44           Ti1 tau(  44) = (   0.0020781   4.6962996  16.1098215  )
        45           O1  tau(  45) = (   3.2900926   2.9813045   4.7018136  )
        46           O1  tau(  46) = (   1.3039711   4.4726057   6.0039043  )
        47           O1  tau(  47) = (   5.2763189   4.4711207   6.0039473  )
        48           N1  tau(  48) = (   0.1203982   2.9607606  18.6152809  )
        49           N1  tau(  49) = (   0.0157770   3.0106383  17.4001577  )
        50           C1  tau(  50) = (   0.0551646   2.9076078  19.8026698  )
        51           H1  tau(  51) = (   0.7310076   2.8879977  20.6380856  )

     number of k points=    10  Fermi-Dirac smearing, width (Ry)=  0.0073
                       cart. coord. in units 2pi/alat
        k(    1) = (   0.0000000   0.0000000   0.0000000), wk =   0.1250000
        k(    2) = (   0.0000000   0.0419351   0.0000000), wk =   0.2500000
        k(    3) = (   0.0000000  -0.0838702   0.0000000), wk =   0.1250000
        k(    4) = (   0.0379955   0.0000049   0.0000000), wk =   0.2500000
        k(    5) = (   0.0379955   0.0419400   0.0000000), wk =   0.2500000
        k(    6) = (   0.0379955  -0.0838652   0.0000000), wk =   0.2500000
        k(    7) = (   0.0379955  -0.0419301   0.0000000), wk =   0.2500000
        k(    8) = (  -0.0759910  -0.0000099   0.0000000), wk =   0.1250000
        k(    9) = (  -0.0759910   0.0419252   0.0000000), wk =   0.2500000
        k(   10) = (  -0.0759910  -0.0838800   0.0000000), wk =   0.1250000

     Initial potential from superposition of free atoms

     starting charge  376.99918, renormalised to  393.00000

     negative rho (up, down):  1.564E-02 0.000E+00

     %%%%%%%%%%%%%%%%%%%%%%%%%%%%%%%%%%%%%%%%%%%%%%%%%%%%%%%%%%%%%%%%%%%%%%%%
     %                                                                      %
     % You are using vdW-DF, which was implemented by the Thonhauser group. %
     % Please cite the following two papers that made this development      %
     % possible and the two reviews that describe the various versions:     %
     %                                                                      %
     %   T. Thonhauser et al., PRL 115, 136402 (2015).                      %
     %   T. Thonhauser et al., PRB 76, 125112 (2007).                       %
     %   K. Berland et al., Rep. Prog. Phys. 78, 066501 (2015).             %
     %   D.C. Langreth et al., J. Phys.: Condens. Matter 21, 084203 (2009). %
     %                                                                      %
     %                                                                      %
     % If you are calculating the stress with vdW-DF, please also cite:     %
     %                                                                      %
     %   R. Sabatini et al., J. Phys.: Condens. Matter 24, 424209 (2012).   %
     %                                                                      %
     %%%%%%%%%%%%%%%%%%%%%%%%%%%%%%%%%%%%%%%%%%%%%%%%%%%%%%%%%%%%%%%%%%%%%%%%

     Adding external electric field

     Computed dipole along edir(3) :
        Dipole               -7.5501 Ry au,        -19.1904 Debye
        Dipole field         -0.0142 Ry au,

        Potential amp.        1.3208 Ry
        Total length         46.3494 bohr

     Starting wfcs are  297 atomic wfcs
  @ DRIVER MODE: Message from server: STATUS
  @ DRIVER MODE: Message from server: POSDATA
  @ DRIVER MODE: Reading and sharing cell
  @ DRIVER MODE: Reading and sharing positions
  @ DRIVER MODE: Received positions

     Self-consistent Calculation

     iteration #  1     ecut=    29.40 Ry     beta= 0.05
     Davidson diagonalization with overlap
     c_bands:  1 eigenvalues not converged
     c_bands:  1 eigenvalues not converged
     c_bands:  1 eigenvalues not converged
     ethr =  1.00E-05,  avg # of iterations = 18.4

[...]

     total energy              =   -2707.52131283 Ry
     estimated scf accuracy    <    2541.60445771 Ry

[...]

     iteration #  3     ecut=    29.40 Ry     beta= 0.05
     Davidson diagonalization with overlap
     ethr =  1.00E-02,  avg # of iterations = 16.7

[...]

     iteration # 52     ecut=    29.40 Ry     beta= 0.05
     Davidson diagonalization with overlap
     c_bands:  1 eigenvalues not converged
     c_bands:  1 eigenvalues not converged
     c_bands:  1 eigenvalues not converged
     c_bands:  1 eigenvalues not converged
     ethr =  5.36E-09,  avg # of iterations = 17.3

[...]

     total energy              =   -2936.63948413 Ry
     estimated scf accuracy    <       0.00000013 Ry

     iteration # 61     ecut=    29.40 Ry     beta= 0.05
     Davidson diagonalization with overlap
     ethr =  3.29E-11,  avg # of iterations =  8.2

     negative rho (up, down):  1.607E-02 0.000E+00

     Adding external electric field

     Computed dipole along edir(3) :
        Dipole                0.7418 Ry au,          1.8854 Debye
        Dipole field          0.0014 Ry au,

        Potential amp.       -0.1298 Ry
        Total length         46.3494 bohr

     End of self-consistent calculation

          k = 0.0000 0.0000 0.0000 ( 18029 PWs)   bands (ev):

   -55.9138 -55.9128 -55.8797 -55.8761 -55.7729 -55.7601 -55.7376 -55.7231
   -55.7224 -55.6892 -55.6890 -55.6553 -55.4723 -55.2277 -54.8926 -54.8585
   -32.4668 -32.3964 -32.2701 -32.2222 -32.2205 -32.2139 -32.2065 -32.1795
   -32.1565 -32.1314 -32.1009 -32.0912 -32.0864 -32.0661 -32.0589 -32.0526
   -32.0182 -32.0057 -31.9986 -31.9769 -31.9746 -31.9710 -31.9521 -31.9267
   -31.9200 -31.9122 -31.9093 -31.9003 -31.8989 -31.8909 -31.8856 -31.8641
   -31.8540 -31.8422 -31.8298 -31.8276 -31.8011 -31.6937 -31.6859 -31.5054
   -31.4579 -31.4568 -31.2997 -31.2113 -31.1889 -31.1165 -31.0300 -30.9189
   -19.2708 -16.6536 -16.3884 -16.1430 -16.0616 -16.0324 -15.9169 -15.7549
   -15.6377 -15.5769 -15.4765 -15.4705 -15.4504 -15.4175 -15.3874 -15.3628
   -15.3578 -15.3478 -15.3312 -15.2994 -15.2751 -15.2535 -15.2297 -15.1406
   -15.0834 -15.0482 -14.9886 -14.9804 -14.9708 -14.5091 -13.9268 -13.3951
   -13.2787  -6.6043  -5.3128  -4.2208  -4.0279  -3.9144  -3.8689  -3.8203
    -3.7653  -3.6611  -3.5242  -3.4552  -3.1416  -3.0894  -3.0774  -3.0527
    -3.0283  -2.8150  -2.7495  -2.7266  -2.6930  -2.6879  -2.6851  -2.6766
    -2.6598  -2.6272  -2.5059  -2.4495  -2.3779  -2.3373  -2.3084  -2.3008
    -2.2261  -2.1871  -2.1758  -2.1511  -2.1495  -2.1262  -2.1166  -2.0994
    -1.9619  -1.8951  -1.7728  -1.7081  -1.6743  -1.5228  -1.4953  -1.3916
    -1.3661  -1.3427  -1.3065  -1.2758  -1.2168  -1.0829  -1.0747  -1.0641
    -1.0320  -0.9334  -0.8808  -0.8077  -0.7520  -0.7329  -0.6827  -0.6709
    -0.6672  -0.6230  -0.4634  -0.3885  -0.3291  -0.3197  -0.2750  -0.2143
    -0.1844  -0.1059  -0.0638  -0.0338  -0.0198   0.0229   0.0601   0.0838
     0.0942   0.1039   0.1176   0.3031   0.3456   0.3637   0.4216   0.4394
     0.6114   0.6570   0.7416   0.8367   1.0549   1.1295   1.2133   1.3216
     1.3359   1.5744   1.7008   1.7465   3.2175   3.3071   3.3436   3.3524
     3.4596   3.5314   3.6742   3.6861   3.7063   3.7495

[...]

          k = 0.0380-0.0419 0.0000 ( 17876 PWs)   bands (ev):

[...]

          k =-0.0760-0.0000 0.0000 ( 17886 PWs)   bands (ev):

[...]

          k =-0.0760-0.0839 0.0000 ( 17948 PWs)   bands (ev):

   -55.8981 -55.8971 -55.8962 -55.8906 -55.7595 -55.7510 -55.7486 -55.7337
   -55.7070 -55.7047 -55.6739 -55.6707 -55.4711 -55.2288 -54.8755 -54.8754
   -32.2729 -32.2659 -32.2119 -32.2113 -32.1922 -32.1915 -32.1641 -32.1596
   -32.1196 -32.1121 -32.0863 -32.0842 -32.0446 -32.0373 -32.0294 -32.0266
   -32.0194 -32.0193 -32.0167 -32.0158 -32.0120 -32.0090 -31.9757 -31.9647
   -31.9565 -31.9500 -31.9360 -31.9328 -31.9073 -31.9066 -31.9048 -31.9022
   -31.8884 -31.8865 -31.8829 -31.8806 -31.8493 -31.6964 -31.6816 -31.5757
   -31.4788 -31.4597 -31.2017 -31.2016 -31.1126 -31.1124 -31.0733 -31.0732
   -19.2682 -16.0816 -16.0682 -15.8642 -15.8305 -15.8181 -15.8107 -15.6944
   -15.6152 -15.6070 -15.6058 -15.5047 -15.4926 -15.4840 -15.4518 -15.4421
   -15.4225 -15.4211 -15.3829 -15.3757 -15.3697 -15.3525 -15.3448 -15.2590
   -15.2327 -15.2285 -15.1973 -15.0837 -14.9491 -14.6892 -13.9326 -13.3805
   -13.3804  -6.6031  -5.2815  -4.1835  -3.9135  -3.3711  -3.3547  -3.0997
    -3.0683  -3.0592  -3.0039  -2.8317  -2.8143  -2.7906  -2.7686  -2.7380
    -2.7315  -2.7240  -2.7171  -2.6982  -2.6542  -2.6298  -2.5993  -2.5849
    -2.5705  -2.5701  -2.5394  -2.5266  -2.4852  -2.4709  -2.4604  -2.4379
    -2.4132  -2.4032  -2.2503  -2.1569  -2.1256  -2.0531  -2.0464  -2.0051
    -1.9788  -1.9637  -1.9407  -1.9050  -1.7634  -1.6484  -1.6127  -1.5979
    -1.5179  -1.4741  -1.3974  -1.3385  -1.2944  -1.2879  -1.2315  -1.1821
    -1.1211  -1.1103  -1.0468  -1.0139  -0.9757  -0.9436  -0.9031  -0.8727
    -0.8674  -0.7817  -0.7312  -0.7235  -0.6720  -0.6680  -0.6382  -0.5812
    -0.5620  -0.5339  -0.4112  -0.3913  -0.2837  -0.2017  -0.1398   0.0538
     0.1350   0.1599   0.2134   0.2838   0.3738   0.3875   0.4027   0.4084
     0.4568   0.5087   0.6151   0.6261   0.6644   0.7948   1.2559   1.4577
     1.4931   1.4939   1.5662   1.5664   3.5307   3.5400   3.5584   3.5747
     3.7304   3.7332   3.7530   3.7544   3.8893   3.9016

     the Fermi energy is     3.2189 ev

!    total energy              =   -2936.63952802 Ry
     estimated scf accuracy    <       0.00000006 Ry
     smearing contrib. (-TS)   =      -0.02147033 Ry
     internal energy E=F+TS    =   -2936.61805769 Ry

     The total energy is F=E-TS. E is the sum of the following terms:
     one-electron contribution =  -24291.69344405 Ry
     hartree contribution      =   12231.37873016 Ry
     xc contribution           =    -483.56147302 Ry
     ewald contribution        =    9607.25709092 Ry
     electric field correction =       0.00103831 Ry

     convergence has been achieved in  61 iterations

     Forces acting on atoms (cartesian axes, Ry/au):

     atom    1 type  1   force =     0.00009590   -0.00014363    0.09655541
     atom    2 type  1   force =    -0.00015396   -0.00057815   -0.17552502
     atom    3 type  2   force =    -0.00000002    0.00006070   -0.02460838
     atom    4 type  2   force =     0.00005428   -0.00130310    0.05297357
     atom    5 type  2   force =    -0.01197784    0.00009962    0.00367502
     atom    6 type  2   force =     0.01362650    0.00068846    0.00268258
     atom    7 type  1   force =    -0.00091455    0.00090413   -0.01121582
     atom    8 type  1   force =     0.00035505    0.00992724    0.02721483
     atom    9 type  2   force =    -0.00018348   -0.00023640    0.00016519
     atom   10 type  2   force =    -0.00142773    0.00227521   -0.01251364
     atom   11 type  2   force =    -0.00012770    0.00025381   -0.00026088
     atom   12 type  2   force =     0.00033724    0.00000014   -0.00056872
     atom   13 type  1   force =     0.00035675   -0.00123784   -0.00058259
     atom   14 type  1   force =     0.00042140    0.00000882   -0.00000700
     atom   15 type  2   force =    -0.00001634   -0.00081012   -0.00045795
     atom   16 type  2   force =     0.00010080   -0.00047941    0.00006491
     atom   17 type  2   force =    -0.00040212   -0.00050976    0.00008178
     atom   18 type  2   force =    -0.00029842   -0.00066506   -0.00020795
     atom   19 type  1   force =    -0.00000175   -0.00031623    0.00004241
     atom   20 type  1   force =     0.00016446   -0.00025370   -0.00019009
     atom   21 type  2   force =     0.00003726   -0.00004421    0.10325211
     atom   22 type  2   force =    -0.00034406   -0.00084176   -0.00102762
     atom   23 type  2   force =    -0.07149154   -0.00010915   -0.02767429
     atom   24 type  2   force =     0.07140598    0.00031415   -0.02768064
     atom   25 type  1   force =     0.00006337   -0.00012200    0.09605446
     atom   26 type  1   force =    -0.00023089   -0.00021900   -0.17569199
     atom   27 type  2   force =     0.00006375   -0.00012922   -0.02362689
     atom   28 type  2   force =     0.00005705   -0.00109269    0.05315837
     atom   29 type  2   force =    -0.01210261    0.00086831    0.00328206
     atom   30 type  2   force =     0.01365994    0.00133758    0.00233764
     atom   31 type  1   force =    -0.00082867    0.00333238   -0.01192300
     atom   32 type  1   force =     0.00043008   -0.01207352    0.02753388
     atom   33 type  2   force =     0.00022053    0.00015692    0.00011950
     atom   34 type  2   force =    -0.00107117    0.00252701   -0.02034228
     atom   35 type  2   force =     0.00016207   -0.00087528   -0.00029460
     atom   36 type  2   force =     0.00039447   -0.00059472   -0.00058493
     atom   37 type  1   force =     0.00005855    0.00117141   -0.00029793
     atom   38 type  1   force =     0.00033018    0.00031336   -0.00012714
     atom   39 type  2   force =    -0.00004699    0.00041282   -0.00083157
     atom   40 type  2   force =    -0.00001278    0.00005465   -0.00054334
     atom   41 type  2   force =     0.00050619   -0.00011496   -0.00009565
     atom   42 type  2   force =    -0.00053432    0.00010058    0.00081583
     atom   43 type  1   force =    -0.00012955   -0.00035580    0.00029777
     atom   44 type  1   force =    -0.00007286   -0.00001547   -0.00003714
     atom   45 type  2   force =     0.00004850   -0.00005727    0.10325507
     atom   46 type  2   force =    -0.07148850   -0.00006260   -0.02767592
     atom   47 type  2   force =     0.07141884    0.00034595   -0.02768597
     atom   48 type  3   force =    -0.00167085   -0.00058505   -0.00320930
     atom   49 type  3   force =     0.00077707   -0.00051423    0.00045825
     atom   50 type  4   force =     0.00520615   -0.00052376    0.00764923
     atom   51 type  5   force =    -0.00482365   -0.00028915   -0.00618164

     Total force =     0.367860     Total SCF correction =     0.000673
  @ DRIVER MODE: Message from server: STATUS
  @ DRIVER MODE: Message from server: GETFORCE
  @ DRIVER MODE: Returning v,forces,stress,ensemble

     Writing output data file ./calc.save/
  @ DRIVER MODE: Message from server: EXIT
  @ DRIVE MODE: Exiting

     General routines

     Parallel routines

   This run was terminated on:  19:41:28  23Aug2021

   JOB DONE.