     Program PWSCF v.6.7GPU starts on 15Sep2021 at 17:10:30

     R & G space division:  proc/nbgrp/npool/nimage =      10
     Reading input from /storage/home/hcoda1/3/ntian30/research/carbon/CxH_vib/H2O_calc/ads_slab/CHNH2O_a/out_0005/pw.inp
Warning: card &CELL ignored
Warning: card   CELL_DYNAMICS='IPI', ignored
Warning: card / ignored

     Current dimensions of program PWSCF are:
     Max number of different atomic species (ntypx) = 10
     Max number of k-points (npk) =  40000
     Max angular momentum in pseudopotentials (lmaxx) =  3
     Presently no symmetry can be used with electric field

     Message from routine cell_base_init:
     DEPRECATED: use true lattice parameter, not A to a.u. conversion factor

     IMPORTANT: XC functional enforced from input :
     Exchange-correlation= BEEF-VDW
                           (   1   4  43  14   2   0   0)
     Any further DFT definition will be discarded
     Please, verify this is what you really want

  @ DRIVER MODE: Connecting to
 qe_1139763_2852627.sched-torque.pace.gatech.edufi05u19d_scratch
  using UNIX socket
  @ DRIVER MODE: Message from server: STATUS
  @ DRIVER MODE: Message from server: INIT
  @ DRIVER MODE: Receiving replica           0          -1
  @ DRIVER MODE: Receiving encoded integer          25
  @ DRIVER MODE:  SCF:  T  FORCE:  T  STRESS:  F  VC:  F  ENSEMBLE:  F
  @ DRIVER MODE:  SCF:  T  FORCE:  T  STRESS:  F  VC:  F  ENSEMBLE:  F

     Using Slab Decomposition

     bravais-lattice index     =            0
     lattice parameter (alat)  =       1.8897  a.u.
     unit-cell volume          =    6658.9804 (a.u.)^3
     number of atoms/cell      =           53
     number of atomic types    =            5
     number of electrons       =       396.00
     number of Kohn-Sham states=          208
     kinetic-energy cutoff     =      29.3995  Ry
     charge density cutoff     =     293.9946  Ry
     scf convergence threshold =      7.3E-08
     mixing beta               =       0.0500
     number of iterations used =            8  plain     mixing
     Exchange-correlation= BEEF-VDW
                           (   1   4  43  14   2   0   0)

     celldm(1)=   1.889726  celldm(2)=   0.000000  celldm(3)=   0.000000
     celldm(4)=   0.000000  celldm(5)=   0.000000  celldm(6)=   0.000000

     crystal axes: (cart. coord. in units of alat)
               a(1) = (   6.579727   0.000000   0.000000 )
               a(2) = (  -0.000775   5.961596   0.000000 )
               a(3) = (   0.000000   0.000000  25.155947 )

     reciprocal axes: (cart. coord. in units 2 pi/alat)
               b(1) = (  0.151982  0.000020  0.000000 )
               b(2) = (  0.000000  0.167740  0.000000 )
               b(3) = (  0.000000  0.000000  0.039752 )

     PseudoPot. # 1 for Ti read from file:
     /storage/coda1/p-amedford6/0/shared/rich_project_chbe-medford/medford-share/data/pseudos_module/espresso/nninc/pbe/van/Ti.UPF
     MD5 check sum: 8e4df49b7f0d34bbd5052bf3f5ea0213
     Pseudo is Ultrasoft, Zval = 12.0
     Generated by new atomic code, or converted to UPF format
     Using radial grid of  851 points,  6 beta functions with:
                l(1) =   0
                l(2) =   0
                l(3) =   1
                l(4) =   1
                l(5) =   2
                l(6) =   2
     Q(r) pseudized with  8 coefficients,  rinner =    1.000   1.000   1.000
                                                       1.000   1.000

     PseudoPot. # 2 for O  read from file:
     /storage/coda1/p-amedford6/0/shared/rich_project_chbe-medford/medford-share/data/pseudos_module/espresso/nninc/pbe/van/O.UPF
     MD5 check sum: 78c19812648e8988a0fe644b0f25305e
     Pseudo is Ultrasoft, Zval =  6.0
     Generated by new atomic code, or converted to UPF format
     Using radial grid of  737 points,  4 beta functions with:
                l(1) =   0
                l(2) =   0
                l(3) =   1
                l(4) =   1
     Q(r) pseudized with  8 coefficients,  rinner =    0.800   0.800   0.800

     PseudoPot. # 3 for N  read from file:
     /storage/coda1/p-amedford6/0/shared/rich_project_chbe-medford/medford-share/data/pseudos_module/espresso/nninc/pbe/van/N.UPF
     MD5 check sum: 90d10febe142ad51ac9d5be1deb811c4
     Pseudo is Ultrasoft, Zval =  5.0
     Generated by new atomic code, or converted to UPF format
     Using radial grid of  729 points,  4 beta functions with:
                l(1) =   0
                l(2) =   0
                l(3) =   1
                l(4) =   1
     Q(r) pseudized with  8 coefficients,  rinner =    0.800   0.800   0.800

     PseudoPot. # 4 for C  read from file:
     /storage/coda1/p-amedford6/0/shared/rich_project_chbe-medford/medford-share/data/pseudos_module/espresso/nninc/pbe/van/C.UPF
     MD5 check sum: 1a69bf6b8db32088f5b2163dbdb77a27
     Pseudo is Ultrasoft, Zval =  4.0
     Generated by new atomic code, or converted to UPF format
     Using radial grid of  721 points,  4 beta functions with:
                l(1) =   0
                l(2) =   0
                l(3) =   1
                l(4) =   1
     Q(r) pseudized with  8 coefficients,  rinner =    0.800   0.800   0.800

     PseudoPot. # 5 for H  read from file:
     /storage/coda1/p-amedford6/0/shared/rich_project_chbe-medford/medford-share/data/pseudos_module/espresso/nninc/pbe/van/H.UPF
     MD5 check sum: b5ee9d7bfd3a09ee7748110bda690ff7
     Pseudo is Ultrasoft, Zval =  1.0
     Generated by new atomic code, or converted to UPF format
     Using radial grid of  615 points,  1 beta functions with:
                l(1) =   0
     Q(r) pseudized with  8 coefficients,  rinner =    0.800

     atomic species   valence    mass     pseudopotential
        Ti1           12.00    47.86700     Ti( 1.00)
        O1             6.00    15.99900     O ( 1.00)
        N1             5.00    14.00700     N ( 1.00)
        C1             4.00    12.01100     C ( 1.00)
        H1             1.00     1.00800     H ( 1.00)

     No symmetry found

   Cartesian axes

     site n.     atom                  positions (alat units)
         1           Ti1 tau(   1) = (   0.0004258   2.9801865   6.0000000  )
         2           Ti1 tau(   2) = (   3.2906075   1.4906267   6.0002472  )
         3           O1  tau(   3) = (   0.0006271   0.0005054   7.9858123  )
         4           O1  tau(   4) = (   3.2906025   0.0005020   7.3038282  )
         5           O1  tau(   5) = (   4.5942328   1.4918067   9.2879030  )
         6           O1  tau(   6) = (   1.9868534   1.4903216   9.2879459  )
         7           Ti1 tau(   7) = (   3.2907910   2.8959150   9.1758416  )
         8           Ti1 tau(   8) = (   0.0015273   1.4827037   9.2680791  )
         9           O1  tau(   9) = (   3.3001320   0.0223556  11.3750156  )
        10           O1  tau(  10) = (   0.0116148   5.9584955  10.6183126  )
        11           O1  tau(  11) = (   1.2984793   1.5070296  12.6822906  )
        12           O1  tau(  12) = (   5.3053048   1.5066133  12.6782214  )
        13           Ti1 tau(  13) = (   0.0240538   2.9928608  12.5236668  )
        14           Ti1 tau(  14) = (   3.3205759   1.5163330  12.5292614  )
        15           O1  tau(  15) = (   0.0116174   5.9170763  14.6754219  )
        16           O1  tau(  16) = (   3.3074613   5.9602333  14.0123823  )
        17           O1  tau(  17) = (   4.5729729   1.5428591  16.1031931  )
        18           O1  tau(  18) = (   2.0357456   1.5455963  16.0959954  )
        19           Ti1 tau(  19) = (   3.3038618   3.0179751  15.7376193  )
        20           Ti1 tau(  20) = (   0.0182819   1.3639466  15.8252938  )
        21           O1  tau(  21) = (   3.2904802   0.0005063   4.7018136  )
        22           O1  tau(  22) = (   0.0233993   0.1148627  17.2261141  )
        23           O1  tau(  23) = (   1.3043587   1.4918075   6.0039043  )
        24           O1  tau(  24) = (   5.2767064   1.4903225   6.0039473  )
        25           Ti1 tau(  25) = (   0.0000382   5.9609847   6.0000000  )
        26           Ti1 tau(  26) = (   3.2902200   4.4714249   6.0002472  )
        27           O1  tau(  27) = (   0.0002396   2.9813036   7.9858123  )
        28           O1  tau(  28) = (   3.2902150   2.9813002   7.3038282  )
        29           O1  tau(  29) = (   4.5938453   4.4726049   9.2879030  )
        30           O1  tau(  30) = (   1.9864658   4.4711199   9.2879459  )
        31           Ti1 tau(  31) = (   3.2891106   5.8743827   9.1763621  )
        32           Ti1 tau(  32) = (   0.0006254   4.4649316   9.2693709  )
        33           O1  tau(  33) = (   3.3008157   2.9919736  11.3713264  )
        34           O1  tau(  34) = (   0.0092240   2.9805883  10.6323155  )
        35           O1  tau(  35) = (   1.3007438   4.4795902  12.6508594  )
        36           O1  tau(  36) = (   5.3032704   4.4808111  12.6474791  )
        37           Ti1 tau(  37) = (   0.0257871   0.0021926  12.5000826  )
        38           Ti1 tau(  38) = (   3.3207303   4.5031034  12.5344522  )
        39           O1  tau(  39) = (   0.0087802   3.0322157  14.9253570  )
        40           O1  tau(  40) = (   3.3068524   3.0154938  13.9499554  )
        41           O1  tau(  41) = (   4.5633958   4.4699756  16.2119971  )
        42           O1  tau(  42) = (   2.0378630   4.4655417  16.1963084  )
        43           Ti1 tau(  43) = (   3.3121544   0.0541299  15.8353365  )
        44           Ti1 tau(  44) = (   0.0163097   4.5868159  16.0488687  )
        45           O1  tau(  45) = (   3.2900926   2.9813045   4.7018136  )
        46           O1  tau(  46) = (   1.3039711   4.4726057   6.0039043  )
        47           O1  tau(  47) = (   5.2763189   4.4711207   6.0039473  )
        48           N1  tau(  48) = (   0.0062226   3.2377968  17.9535855  )
        49           C1  tau(  49) = (   6.5597590   2.5083335  18.8557918  )
        50           H1  tau(  50) = (   6.5336154   1.7992569  19.6484373  )
        51           O1  tau(  51) = (   3.2480284   5.9531242  18.4006015  )
        52           H1  tau(  52) = (   3.9795166   5.3132839  18.3896481  )
        53           H1  tau(  53) = (   2.4340588   5.4237150  18.3412978  )

     number of k points=    10  Fermi-Dirac smearing, width (Ry)=  0.0073
                       cart. coord. in units 2pi/alat
        k(    1) = (   0.0000000   0.0000000   0.0000000), wk =   0.1250000
        k(    2) = (   0.0000000   0.0419351   0.0000000), wk =   0.2500000
        k(    3) = (   0.0000000  -0.0838702   0.0000000), wk =   0.1250000
        k(    4) = (   0.0379955   0.0000049   0.0000000), wk =   0.2500000
        k(    5) = (   0.0379955   0.0419400   0.0000000), wk =   0.2500000
        k(    6) = (   0.0379955  -0.0838652   0.0000000), wk =   0.2500000
        k(    7) = (   0.0379955  -0.0419301   0.0000000), wk =   0.2500000
        k(    8) = (  -0.0759910  -0.0000099   0.0000000), wk =   0.1250000
        k(    9) = (  -0.0759910   0.0419252   0.0000000), wk =   0.2500000
        k(   10) = (  -0.0759910  -0.0838800   0.0000000), wk =   0.1250000

     Initial potential from superposition of free atoms

     starting charge  379.99917, renormalised to  396.00000

     negative rho (up, down):  1.669E-02 0.000E+00

     %%%%%%%%%%%%%%%%%%%%%%%%%%%%%%%%%%%%%%%%%%%%%%%%%%%%%%%%%%%%%%%%%%%%%%%%
     %                                                                      %
     % You are using vdW-DF, which was implemented by the Thonhauser group. %
     % Please cite the following two papers that made this development      %
     % possible and the two reviews that describe the various versions:     %
     %                                                                      %
     %   T. Thonhauser et al., PRL 115, 136402 (2015).                      %
     %   T. Thonhauser et al., PRB 76, 125112 (2007).                       %
     %   K. Berland et al., Rep. Prog. Phys. 78, 066501 (2015).             %
     %   D.C. Langreth et al., J. Phys.: Condens. Matter 21, 084203 (2009). %
     %                                                                      %
     %                                                                      %
     % If you are calculating the stress with vdW-DF, please also cite:     %
     %                                                                      %
     %   R. Sabatini et al., J. Phys.: Condens. Matter 24, 424209 (2012).   %
     %                                                                      %
     %%%%%%%%%%%%%%%%%%%%%%%%%%%%%%%%%%%%%%%%%%%%%%%%%%%%%%%%%%%%%%%%%%%%%%%%

     Adding external electric field

     Computed dipole along edir(3) :
        Dipole               -9.4898 Ry au,        -24.1207 Debye
        Dipole field         -0.0179 Ry au,

        Potential amp.        1.6601 Ry
        Total length         46.3494 bohr

     Starting wfcs are  299 atomic wfcs
  @ DRIVER MODE: Message from server: STATUS
  @ DRIVER MODE: Message from server: POSDATA
  @ DRIVER MODE: Reading and sharing cell
  @ DRIVER MODE: Reading and sharing positions
  @ DRIVER MODE: Received positions

     Self-consistent Calculation

     iteration #  1     ecut=    29.40 Ry     beta= 0.05
     Davidson diagonalization with overlap
     c_bands:  1 eigenvalues not converged
     c_bands:  1 eigenvalues not converged
     c_bands:  2 eigenvalues not converged
     c_bands:  3 eigenvalues not converged
     c_bands:  3 eigenvalues not converged
     c_bands:  2 eigenvalues not converged
     c_bands:  3 eigenvalues not converged
     c_bands:  1 eigenvalues not converged
     c_bands:  2 eigenvalues not converged
     c_bands:  2 eigenvalues not converged
     ethr =  1.00E-05,  avg # of iterations = 20.0

[...]

     total energy              =   -2563.44840579 Ry
     estimated scf accuracy    <    4341.46317126 Ry

     iteration #  2     ecut=    29.40 Ry     beta= 0.05
     Davidson diagonalization with overlap
     ethr =  1.00E-02,  avg # of iterations = 24.2

[...]

     iteration # 73     ecut=    29.40 Ry     beta= 0.05
     Davidson diagonalization with overlap
     c_bands:  1 eigenvalues not converged
     ethr =  4.29E-11,  avg # of iterations = 12.4

[...]

     total energy              =   -2951.44716463 Ry
     estimated scf accuracy    <       0.00000020 Ry

     iteration # 74     ecut=    29.40 Ry     beta= 0.05
     Davidson diagonalization with overlap
     ethr =  4.29E-11,  avg # of iterations =  8.7

     negative rho (up, down):  1.628E-02 0.000E+00

     Adding external electric field

     Computed dipole along edir(3) :
        Dipole                1.4706 Ry au,          3.7380 Debye
        Dipole field          0.0028 Ry au,

        Potential amp.       -0.2573 Ry
        Total length         46.3494 bohr

     End of self-consistent calculation

          k = 0.0000 0.0000 0.0000 ( 18029 PWs)   bands (ev):

   -55.3253 -55.2894 -55.2881 -55.2540 -55.2357 -55.2029 -55.1656 -55.1474
   -55.1177 -55.1169 -55.1128 -55.1018 -55.0833 -55.0090 -54.3128 -54.2788
   -31.8849 -31.7797 -31.7106 -31.6917 -31.6436 -31.6362 -31.6213 -31.6209
   -31.5772 -31.5420 -31.5359 -31.5326 -31.5091 -31.4971 -31.4718 -31.4701
   -31.4645 -31.4636 -31.4463 -31.4401 -31.4108 -31.4011 -31.3869 -31.3830
   -31.3768 -31.3481 -31.3452 -31.3379 -31.3339 -31.3327 -31.3247 -31.3138
   -31.3056 -31.2999 -31.2958 -31.2699 -31.2610 -31.2494 -31.2450 -31.2270
   -31.2199 -31.1247 -30.7220 -30.6282 -30.6061 -30.5383 -30.4516 -30.3407
   -18.9098 -17.2445 -16.1289 -15.8740 -15.7187 -15.6186 -15.5231 -15.3786
   -15.3269 -15.2172 -15.1521 -15.0111 -14.9703 -14.9498 -14.9369 -14.9321
   -14.8896 -14.8646 -14.8576 -14.8243 -14.8227 -14.7960 -14.7604 -14.7513
   -14.7211 -14.7054 -14.6534 -14.5495 -14.4812 -14.4181 -14.1112 -12.8152
   -12.6979  -8.9773  -6.6383  -4.6302  -3.4727  -3.3909  -3.3358  -3.2296
    -3.2227  -3.1683  -3.1292  -3.0689  -3.0224  -2.7782  -2.7252  -2.6628
    -2.5778  -2.5062  -2.4944  -2.4554  -2.3265  -2.2841  -2.2414  -2.1732
    -2.1575  -2.1330  -2.1083  -2.0983  -2.0355  -2.0293  -2.0095  -1.8923
    -1.8446  -1.7837  -1.7322  -1.7179  -1.6648  -1.6443  -1.6134  -1.6121
    -1.6053  -1.5599  -1.5571  -1.5005  -1.4932  -1.3851  -1.3479  -1.1586
    -1.0607  -1.0052  -0.9634  -0.8959  -0.8813  -0.8085  -0.7642  -0.7114
    -0.7065  -0.6542  -0.5328  -0.4392  -0.4133  -0.3894  -0.3067  -0.2677
    -0.2037  -0.1874  -0.1048  -0.0909  -0.0849  -0.0723   0.0540   0.1002
     0.1826   0.1911   0.2368   0.2570   0.3393   0.3508   0.4221   0.4588
     0.5171   0.5581   0.6141   0.6229   0.6501   0.6679   0.6863   0.7748
     0.7885   0.8198   0.8899   1.0275   1.2240   1.2866   1.3113   1.6175
     1.6391   1.7100   1.8949   2.2857   2.3337   3.7689   3.8482   3.9103
     3.9195   3.9344   4.0048   4.2516   4.2684   4.2693   4.2849   4.3131

[...]

          k = 0.0380-0.0419 0.0000 ( 17876 PWs)   bands (ev):

[...]

          k =-0.0760-0.0000 0.0000 ( 17886 PWs)   bands (ev):

[...]

          k =-0.0760-0.0839 0.0000 ( 17948 PWs)   bands (ev):

   -55.3088 -55.3056 -55.2711 -55.2708 -55.2334 -55.1914 -55.1771 -55.1323
   -55.1274 -55.1146 -55.1040 -55.1005 -55.0998 -55.0119 -54.2958 -54.2956
   -31.6937 -31.6857 -31.6331 -31.5950 -31.5947 -31.5801 -31.5720 -31.5627
   -31.5624 -31.5357 -31.5252 -31.5224 -31.5130 -31.4806 -31.4647 -31.4603
   -31.4556 -31.4533 -31.4515 -31.4454 -31.4405 -31.4067 -31.4049 -31.4028
   -31.3907 -31.3904 -31.3878 -31.3762 -31.3715 -31.3648 -31.3583 -31.3456
   -31.3424 -31.3409 -31.3296 -31.3278 -31.3137 -31.2875 -31.2803 -31.2798
   -31.2270 -31.2166 -30.6189 -30.6187 -30.5346 -30.5344 -30.4950 -30.4949
   -18.9089 -17.2390 -15.6598 -15.5606 -15.4516 -15.3320 -15.3239 -15.2667
   -15.2179 -15.1373 -15.0940 -15.0846 -15.0630 -15.0470 -15.0196 -15.0108
   -14.9941 -14.9208 -14.9099 -14.8997 -14.8762 -14.8358 -14.8250 -14.8223
   -14.8050 -14.7798 -14.7756 -14.6809 -14.6779 -14.5750 -14.4465 -12.7994
   -12.7993  -8.9752  -6.6314  -4.6164  -3.2778  -3.2071  -2.9141  -2.8278
    -2.7807  -2.6925  -2.5431  -2.5129  -2.4417  -2.4352  -2.3677  -2.3172
    -2.3027  -2.2805  -2.2002  -2.1821  -2.1722  -2.1609  -2.1483  -2.1171
    -2.0965  -2.0499  -2.0435  -2.0435  -2.0345  -2.0115  -1.9772  -1.9591
    -1.9179  -1.9095  -1.8897  -1.8397  -1.7943  -1.7763  -1.7623  -1.6599
    -1.6290  -1.5283  -1.5235  -1.4228  -1.4175  -1.3856  -1.3660  -1.3564
    -1.2841  -1.2161  -1.0696  -1.0602  -1.0247  -0.9460  -0.9324  -0.8759
    -0.8728  -0.7869  -0.7687  -0.7371  -0.6462  -0.6153  -0.5138  -0.4996
    -0.4906  -0.3519  -0.3496  -0.2937  -0.2840  -0.2805  -0.2094  -0.2051
    -0.2000  -0.1182  -0.0850  -0.0583  -0.0472   0.0082   0.1978   0.2225
     0.2552   0.3757   0.4296   0.5654   0.6610   0.6641   0.7338   0.7946
     0.8160   0.8753   0.9704   0.9837   1.0477   1.0714   1.1198   1.1336
     1.1437   2.0671   2.0682   2.1536   2.1537   3.8852   3.9815   4.0535
     4.1027   4.1124   4.2050   4.2901   4.3187   4.3510   4.3529   4.4310

     the Fermi energy is     3.8265 ev

!    total energy              =   -2951.44718345 Ry
     estimated scf accuracy    <       0.00000006 Ry
     smearing contrib. (-TS)   =      -0.03732428 Ry
     internal energy E=F+TS    =   -2951.40985917 Ry

     The total energy is F=E-TS. E is the sum of the following terms:
     one-electron contribution =  -24063.27920809 Ry
     hartree contribution      =   12124.62584476 Ry
     xc contribution           =    -487.21335550 Ry
     ewald contribution        =    9474.45277829 Ry
     electric field correction =       0.00408136 Ry

     convergence has been achieved in  74 iterations

     Forces acting on atoms (cartesian axes, Ry/au):

     atom    1 type  1   force =    -0.00004096   -0.00025412    0.09360393
     atom    2 type  1   force =    -0.00016455   -0.00043963   -0.17783133
     atom    3 type  2   force =     0.00002586   -0.00025777   -0.02077007
     atom    4 type  2   force =    -0.00003087   -0.00180117    0.05842184
     atom    5 type  2   force =    -0.01030760   -0.00058388    0.00697941
     atom    6 type  2   force =     0.01197160    0.00005005    0.00669292
     atom    7 type  1   force =    -0.00013289    0.00222082   -0.01161722
     atom    8 type  1   force =    -0.00006904    0.00224616   -0.00161253
     atom    9 type  2   force =     0.00007295    0.00060597    0.00061317
     atom   10 type  2   force =    -0.00107453    0.00322151   -0.00400447
     atom   11 type  2   force =     0.00038009   -0.00031375   -0.00036697
     atom   12 type  2   force =    -0.00042568   -0.00031673   -0.00024141
     atom   13 type  1   force =     0.00001766    0.00014310    0.00049740
     atom   14 type  1   force =     0.00000028   -0.00045844    0.00051446
     atom   15 type  2   force =    -0.00025286   -0.00046681    0.00019828
     atom   16 type  2   force =    -0.00001872    0.00043549    0.00009638
     atom   17 type  2   force =    -0.00034125   -0.00036624   -0.00047705
     atom   18 type  2   force =     0.00054673   -0.00038560   -0.00070353
     atom   19 type  1   force =    -0.00042119   -0.00114698    0.00020216
     atom   20 type  1   force =     0.00013939    0.00030083   -0.00028738
     atom   21 type  2   force =    -0.00001264   -0.00012039    0.10389797
     atom   22 type  2   force =    -0.00002122    0.00052422   -0.00071768
     atom   23 type  2   force =    -0.07054981   -0.00021414   -0.02695544
     atom   24 type  2   force =     0.07034292    0.00021929   -0.02700656
     atom   25 type  1   force =    -0.00001980   -0.00027985    0.09313129
     atom   26 type  1   force =    -0.00018793   -0.00052008   -0.17812598
     atom   27 type  2   force =     0.00007051   -0.00020785   -0.01971664
     atom   28 type  2   force =     0.00001717   -0.00155400    0.05762301
     atom   29 type  2   force =    -0.01084163   -0.00007636    0.00741542
     atom   30 type  2   force =     0.01236844    0.00026063    0.00709545
     atom   31 type  1   force =    -0.00009386    0.00572799   -0.01413179
     atom   32 type  1   force =    -0.00008554   -0.00266403   -0.00137284
     atom   33 type  2   force =     0.00010929   -0.00051801    0.00033437
     atom   34 type  2   force =    -0.00048509   -0.00028979   -0.00107351
     atom   35 type  2   force =    -0.00032236   -0.00016906   -0.00038076
     atom   36 type  2   force =     0.00031453   -0.00029260   -0.00017349
     atom   37 type  1   force =     0.00011733   -0.00044058    0.00086570
     atom   38 type  1   force =    -0.00002032   -0.00061086   -0.00017171
     atom   39 type  2   force =     0.00000993    0.00000355   -0.00043765
     atom   40 type  2   force =    -0.00007576   -0.00013848   -0.00018355
     atom   41 type  2   force =    -0.00039247    0.00022906    0.00011048
     atom   42 type  2   force =     0.00061467    0.00029468    0.00014480
     atom   43 type  1   force =    -0.00041748    0.00066914   -0.00006366
     atom   44 type  1   force =     0.00031912    0.00005372    0.00002170
     atom   45 type  2   force =    -0.00002221   -0.00014517    0.10387876
     atom   46 type  2   force =    -0.07053124   -0.00015749   -0.02694575
     atom   47 type  2   force =     0.07033144    0.00027524   -0.02700269
     atom   48 type  3   force =    -0.00078179   -0.02227233    0.02775624
     atom   49 type  4   force =     0.00066272    0.02164731   -0.02713723
     atom   50 type  5   force =    -0.00007579   -0.00136443    0.00022532
     atom   51 type  2   force =     0.00029409    0.00047620   -0.00079394
     atom   52 type  5   force =    -0.00000216   -0.00058722   -0.00013182
     atom   53 type  5   force =    -0.00050750   -0.00019114    0.00011426

     Total force =     0.369210     Total SCF correction =     0.000624
  @ DRIVER MODE: Message from server: STATUS
  @ DRIVER MODE: Message from server: GETFORCE
  @ DRIVER MODE: Returning v,forces,stress,ensemble

     Writing output data file ./calc.save/
  @ DRIVER MODE: Message from server: EXIT
  @ DRIVE MODE: Exiting

     General routines

     Parallel routines

   This run was terminated on:  17:29:42  15Sep2021

   JOB DONE.