     Program PWSCF v.6.7GPU starts on  8Sep2021 at 22: 5:47

     R & G space division:  proc/nbgrp/npool/nimage =      10
     Reading input from /storage/home/hcoda1/3/ntian30/research/carbon/CxH_vib/CH2_calc/ads_slab/CH2_a/out_0001/pw.inp
Warning: card &CELL ignored
Warning: card   CELL_DYNAMICS='IPI', ignored
Warning: card / ignored

     Current dimensions of program PWSCF are:
     Max number of different atomic species (ntypx) = 10
     Max number of k-points (npk) =  40000
     Max angular momentum in pseudopotentials (lmaxx) =  3
     Presently no symmetry can be used with electric field

     Message from routine cell_base_init:
     DEPRECATED: use true lattice parameter, not A to a.u. conversion factor

     IMPORTANT: XC functional enforced from input :
     Exchange-correlation= BEEF-VDW
                           (   1   4  43  14   2   0   0)
     Any further DFT definition will be discarded
     Please, verify this is what you really want

  @ DRIVER MODE: Connecting to
 qe_1139763_2767395.sched-torque.pace.gatech.eduv5yhdusp_scratch
  using UNIX socket
  @ DRIVER MODE: Message from server: STATUS
  @ DRIVER MODE: Message from server: INIT
  @ DRIVER MODE: Receiving replica           0          -1
  @ DRIVER MODE: Receiving encoded integer          25
  @ DRIVER MODE:  SCF:  T  FORCE:  T  STRESS:  F  VC:  F  ENSEMBLE:  F
  @ DRIVER MODE:  SCF:  T  FORCE:  T  STRESS:  F  VC:  F  ENSEMBLE:  F

     Using Slab Decomposition

     bravais-lattice index     =            0
     lattice parameter (alat)  =       1.8897  a.u.
     unit-cell volume          =    6658.9804 (a.u.)^3
     number of atoms/cell      =           50
     number of atomic types    =            4
     number of electrons       =       384.00
     number of Kohn-Sham states=          202
     kinetic-energy cutoff     =      29.3995  Ry
     charge density cutoff     =     293.9946  Ry
     scf convergence threshold =      7.3E-08
     mixing beta               =       0.0500
     number of iterations used =            8  plain     mixing
     Exchange-correlation= BEEF-VDW
                           (   1   4  43  14   2   0   0)

     celldm(1)=   1.889726  celldm(2)=   0.000000  celldm(3)=   0.000000
     celldm(4)=   0.000000  celldm(5)=   0.000000  celldm(6)=   0.000000

     crystal axes: (cart. coord. in units of alat)
               a(1) = (   6.579727   0.000000   0.000000 )
               a(2) = (  -0.000775   5.961596   0.000000 )
               a(3) = (   0.000000   0.000000  25.155947 )

     reciprocal axes: (cart. coord. in units 2 pi/alat)
               b(1) = (  0.151982  0.000020  0.000000 )
               b(2) = (  0.000000  0.167740  0.000000 )
               b(3) = (  0.000000  0.000000  0.039752 )

     PseudoPot. # 1 for Ti read from file:
     /storage/coda1/p-amedford6/0/shared/rich_project_chbe-medford/medford-share/data/pseudos_module/espresso/nninc/pbe/van/Ti.UPF
     MD5 check sum: 8e4df49b7f0d34bbd5052bf3f5ea0213
     Pseudo is Ultrasoft, Zval = 12.0
     Generated by new atomic code, or converted to UPF format
     Using radial grid of  851 points,  6 beta functions with:
                l(1) =   0
                l(2) =   0
                l(3) =   1
                l(4) =   1
                l(5) =   2
                l(6) =   2
     Q(r) pseudized with  8 coefficients,  rinner =    1.000   1.000   1.000
                                                       1.000   1.000

     PseudoPot. # 2 for O  read from file:
     /storage/coda1/p-amedford6/0/shared/rich_project_chbe-medford/medford-share/data/pseudos_module/espresso/nninc/pbe/van/O.UPF
     MD5 check sum: 78c19812648e8988a0fe644b0f25305e
     Pseudo is Ultrasoft, Zval =  6.0
     Generated by new atomic code, or converted to UPF format
     Using radial grid of  737 points,  4 beta functions with:
                l(1) =   0
                l(2) =   0
                l(3) =   1
                l(4) =   1
     Q(r) pseudized with  8 coefficients,  rinner =    0.800   0.800   0.800

     PseudoPot. # 3 for C  read from file:
     /storage/coda1/p-amedford6/0/shared/rich_project_chbe-medford/medford-share/data/pseudos_module/espresso/nninc/pbe/van/C.UPF
     MD5 check sum: 1a69bf6b8db32088f5b2163dbdb77a27
     Pseudo is Ultrasoft, Zval =  4.0
     Generated by new atomic code, or converted to UPF format
     Using radial grid of  721 points,  4 beta functions with:
                l(1) =   0
                l(2) =   0
                l(3) =   1
                l(4) =   1
     Q(r) pseudized with  8 coefficients,  rinner =    0.800   0.800   0.800

     PseudoPot. # 4 for H  read from file:
     /storage/coda1/p-amedford6/0/shared/rich_project_chbe-medford/medford-share/data/pseudos_module/espresso/nninc/pbe/van/H.UPF
     MD5 check sum: b5ee9d7bfd3a09ee7748110bda690ff7
     Pseudo is Ultrasoft, Zval =  1.0
     Generated by new atomic code, or converted to UPF format
     Using radial grid of  615 points,  1 beta functions with:
                l(1) =   0
     Q(r) pseudized with  8 coefficients,  rinner =    0.800

     atomic species   valence    mass     pseudopotential
        Ti1           12.00    47.86700     Ti( 1.00)
        O1             6.00    15.99900     O ( 1.00)
        C1             4.00    12.01100     C ( 1.00)
        H1             1.00     1.00800     H ( 1.00)

     No symmetry found

   Cartesian axes

     site n.     atom                  positions (alat units)
         1           Ti1 tau(   1) = (   0.0004258   2.9801865   6.0000000  )
         2           Ti1 tau(   2) = (   3.2906075   1.4906267   6.0002472  )
         3           O1  tau(   3) = (   0.0006271   0.0005054   7.9858123  )
         4           O1  tau(   4) = (   3.2906025   0.0005020   7.3038282  )
         5           O1  tau(   5) = (   4.5942328   1.4918067   9.2879030  )
         6           O1  tau(   6) = (   1.9868534   1.4903216   9.2879459  )
         7           Ti1 tau(   7) = (   3.2756478   2.8760420   9.1630771  )
         8           Ti1 tau(   8) = (   6.5651030   1.4385007   9.3790407  )
         9           O1  tau(   9) = (   3.2651923   0.0045787  11.3553482  )
        10           O1  tau(  10) = (   6.5766178   5.9492394  10.5646413  )
        11           O1  tau(  11) = (   1.2591847   1.4977620  12.6679731  )
        12           O1  tau(  12) = (   5.2482661   1.4982983  12.6347741  )
        13           Ti1 tau(  13) = (   0.0651775   2.9654633  12.8696618  )
        14           Ti1 tau(  14) = (   3.3800656   1.4924449  12.4946823  )
        15           O1  tau(  15) = (   6.5296085   5.9207011  14.6097682  )
        16           O1  tau(  16) = (   3.2682314   0.0147111  13.9481481  )
        17           O1  tau(  17) = (   4.4912147   1.5408453  16.1034427  )
        18           O1  tau(  18) = (   2.0062121   1.5430191  16.1010343  )
        19           Ti1 tau(  19) = (   3.2584153   3.0188911  15.7272741  )
        20           Ti1 tau(  20) = (   6.5595668   1.6180917  16.2090303  )
        21           O1  tau(  21) = (   3.2904802   0.0005063   4.7018136  )
        22           O1  tau(  22) = (   6.5447935   0.0528136  17.2578995  )
        23           O1  tau(  23) = (   1.3043587   1.4918075   6.0039043  )
        24           O1  tau(  24) = (   5.2767064   1.4903225   6.0039473  )
        25           Ti1 tau(  25) = (   0.0000382   5.9609847   6.0000000  )
        26           Ti1 tau(  26) = (   3.2902200   4.4714249   6.0002472  )
        27           O1  tau(  27) = (   0.0002396   2.9813036   7.9858123  )
        28           O1  tau(  28) = (   3.2902150   2.9813002   7.3038282  )
        29           O1  tau(  29) = (   4.5938453   4.4726049   9.2879030  )
        30           O1  tau(  30) = (   1.9864658   4.4711199   9.2879459  )
        31           Ti1 tau(  31) = (   3.2806623   5.8565216   9.1617982  )
        32           Ti1 tau(  32) = (   6.5670484   4.4138833   9.3856844  )
        33           O1  tau(  33) = (   3.2704644   2.9808095  11.3502114  )
        34           O1  tau(  34) = (   6.5770050   2.9672111  10.5601139  )
        35           O1  tau(  35) = (   1.2614422   4.4490125  12.6594447  )
        36           O1  tau(  36) = (   5.2451530   4.4578719  12.6250501  )
        37           Ti1 tau(  37) = (   0.0436288   5.9429386  12.8080954  )
        38           Ti1 tau(  38) = (   3.3780510   4.4695497  12.4860242  )
        39           O1  tau(  39) = (   6.5513063   2.9765972  14.7162787  )
        40           O1  tau(  40) = (   3.2682626   2.9952000  13.9367060  )
        41           O1  tau(  41) = (   4.4851171   4.5114873  16.1027694  )
        42           O1  tau(  42) = (   2.0082088   4.5103763  16.0975713  )
        43           Ti1 tau(  43) = (   3.2690221   0.0357551  15.7449602  )
        44           Ti1 tau(  44) = (   6.5655258   4.6249605  16.1704562  )
        45           O1  tau(  45) = (   3.2900926   2.9813045   4.7018136  )
        46           O1  tau(  46) = (   1.3039711   4.4726057   6.0039043  )
        47           O1  tau(  47) = (   5.2763189   4.4711207   6.0039473  )
        48           C1  tau(  48) = (   6.5159393   3.0234738  17.6125649  )
        49           H1  tau(  49) = (   0.8472112   3.1395175  18.2203151  )
        50           H1  tau(  50) = (   5.6209537   3.1160310  18.2142257  )

     number of k points=    10  Fermi-Dirac smearing, width (Ry)=  0.0073
                       cart. coord. in units 2pi/alat
        k(    1) = (   0.0000000   0.0000000   0.0000000), wk =   0.1250000
        k(    2) = (   0.0000000   0.0419351   0.0000000), wk =   0.2500000
        k(    3) = (   0.0000000  -0.0838702   0.0000000), wk =   0.1250000
        k(    4) = (   0.0379955   0.0000049   0.0000000), wk =   0.2500000
        k(    5) = (   0.0379955   0.0419400   0.0000000), wk =   0.2500000
        k(    6) = (   0.0379955  -0.0838652   0.0000000), wk =   0.2500000
        k(    7) = (   0.0379955  -0.0419301   0.0000000), wk =   0.2500000
        k(    8) = (  -0.0759910  -0.0000099   0.0000000), wk =   0.1250000
        k(    9) = (  -0.0759910   0.0419252   0.0000000), wk =   0.2500000
        k(   10) = (  -0.0759910  -0.0838800   0.0000000), wk =   0.1250000

     Initial potential from superposition of free atoms

     starting charge  367.99919, renormalised to  384.00000

     negative rho (up, down):  2.116E-02 0.000E+00

     %%%%%%%%%%%%%%%%%%%%%%%%%%%%%%%%%%%%%%%%%%%%%%%%%%%%%%%%%%%%%%%%%%%%%%%%
     %                                                                      %
     % You are using vdW-DF, which was implemented by the Thonhauser group. %
     % Please cite the following two papers that made this development      %
     % possible and the two reviews that describe the various versions:     %
     %                                                                      %
     %   T. Thonhauser et al., PRL 115, 136402 (2015).                      %
     %   T. Thonhauser et al., PRB 76, 125112 (2007).                       %
     %   K. Berland et al., Rep. Prog. Phys. 78, 066501 (2015).             %
     %   D.C. Langreth et al., J. Phys.: Condens. Matter 21, 084203 (2009). %
     %                                                                      %
     %                                                                      %
     % If you are calculating the stress with vdW-DF, please also cite:     %
     %                                                                      %
     %   R. Sabatini et al., J. Phys.: Condens. Matter 24, 424209 (2012).   %
     %                                                                      %
     %%%%%%%%%%%%%%%%%%%%%%%%%%%%%%%%%%%%%%%%%%%%%%%%%%%%%%%%%%%%%%%%%%%%%%%%

     Adding external electric field

     Computed dipole along edir(3) :
        Dipole               -0.5194 Ry au,         -1.3201 Debye
        Dipole field         -0.0010 Ry au,

        Potential amp.        0.0909 Ry
        Total length         46.3494 bohr

     Starting wfcs are  290 atomic wfcs
  @ DRIVER MODE: Message from server: STATUS
  @ DRIVER MODE: Message from server: POSDATA
  @ DRIVER MODE: Reading and sharing cell
  @ DRIVER MODE: Reading and sharing positions
  @ DRIVER MODE: Received positions

     Self-consistent Calculation

     iteration #  1     ecut=    29.40 Ry     beta= 0.05
     Davidson diagonalization with overlap
     c_bands:  1 eigenvalues not converged
     c_bands:  2 eigenvalues not converged
     c_bands:  3 eigenvalues not converged
     c_bands:  1 eigenvalues not converged
     c_bands:  1 eigenvalues not converged
     c_bands:  2 eigenvalues not converged
     c_bands:  1 eigenvalues not converged
     c_bands:  2 eigenvalues not converged
     c_bands:  1 eigenvalues not converged
     c_bands:  2 eigenvalues not converged
     ethr =  1.00E-05,  avg # of iterations = 22.0

[...]

     total energy              =   -2899.22794047 Ry
     estimated scf accuracy    <      12.10184913 Ry

     iteration #  2     ecut=    29.40 Ry     beta= 0.05
     Davidson diagonalization with overlap
     ethr =  3.15E-03,  avg # of iterations =  1.0

[...]

     iteration # 41     ecut=    29.40 Ry     beta= 0.05
     Davidson diagonalization with overlap
     c_bands:  1 eigenvalues not converged
     c_bands:  1 eigenvalues not converged
     c_bands:  3 eigenvalues not converged
     ethr =  2.21E-07,  avg # of iterations = 11.6

[...]

     total energy              =   -2897.72446358 Ry
     estimated scf accuracy    <       0.00000017 Ry

     iteration # 64     ecut=    29.40 Ry     beta= 0.05
     Davidson diagonalization with overlap
     ethr =  4.31E-11,  avg # of iterations =  5.0

     negative rho (up, down):  2.038E-02 0.000E+00

     Adding external electric field

     Computed dipole along edir(3) :
        Dipole                0.2848 Ry au,          0.7238 Debye
        Dipole field          0.0005 Ry au,

        Potential amp.       -0.0498 Ry
        Total length         46.3494 bohr

     End of self-consistent calculation

          k = 0.0000 0.0000 0.0000 ( 18029 PWs)   bands (ev):

   -56.6528 -56.6187 -56.3989 -56.3622 -56.3258 -56.2732 -56.0915 -56.0858
   -56.0518 -55.9846 -55.9591 -55.9209 -55.5527 -55.4710 -55.4370 -55.4281
   -33.0823 -32.9452 -32.9016 -32.8728 -32.8432 -32.7766 -32.7517 -32.7229
   -32.7088 -32.6433 -32.6250 -32.5988 -32.5906 -32.5672 -32.5618 -32.5515
   -32.5482 -32.5303 -32.4594 -32.4539 -32.3874 -32.3490 -32.3373 -32.3260
   -32.3085 -32.3082 -32.2368 -32.2247 -32.2156 -32.1965 -32.1955 -32.1594
   -32.1505 -32.1371 -32.1131 -32.0580 -32.0203 -31.8725 -31.8607 -31.8074
   -31.7945 -31.7708 -31.7463 -31.6908 -31.6057 -31.6050 -31.4937 -31.4749
   -17.0502 -16.8383 -16.6268 -16.4779 -16.3965 -16.3440 -16.0508 -16.0333
   -16.0244 -15.9244 -15.9128 -15.8600 -15.8261 -15.8234 -15.8132 -15.8072
   -15.7722 -15.7290 -15.6969 -15.6615 -15.6284 -15.5946 -15.5042 -15.4657
   -15.4472 -15.3223 -15.2647 -15.2306 -15.0949 -13.9645 -13.8499  -8.3926
    -4.4328  -4.3836  -4.2311  -4.2222  -4.1030  -3.8885  -3.7066  -3.5188
    -3.4874  -3.4578  -3.4521  -3.3482  -3.2951  -3.1848  -3.1839  -3.1527
    -3.1381  -3.1064  -3.0847  -3.0802  -3.0406  -3.0235  -2.9547  -2.9147
    -2.9049  -2.8482  -2.7682  -2.6749  -2.6551  -2.6266  -2.5941  -2.5551
    -2.5374  -2.4389  -2.4321  -2.3673  -2.2336  -2.2094  -2.1614  -2.1331
    -2.1013  -2.0621  -1.9245  -1.7858  -1.7420  -1.7255  -1.6951  -1.6849
    -1.6549  -1.5322  -1.4898  -1.3907  -1.3591  -1.2474  -1.2351  -1.2173
    -1.2019  -1.1713  -1.1026  -1.0755  -1.0404  -0.9603  -0.8975  -0.7674
    -0.7347  -0.7154  -0.6864  -0.6789  -0.6206  -0.5788  -0.5209  -0.5104
    -0.4517  -0.4093  -0.3926  -0.3759  -0.3528  -0.2926  -0.2167  -0.1956
    -0.1321  -0.0948   0.1023   0.1372   0.1656   0.1943   0.2689   0.3019
     0.4788   0.4930   0.5575   0.7601   0.7991   1.1509   1.2303   1.7152
     2.6107   2.7909   2.9852   3.0431   3.0874   3.1673   3.2220   3.2999
     3.3328   3.4548

[...]

          k = 0.0380-0.0419 0.0000 ( 17876 PWs)   bands (ev):

[...]

          k =-0.0760-0.0000 0.0000 ( 17886 PWs)   bands (ev):

[...]

          k =-0.0760-0.0839 0.0000 ( 17948 PWs)   bands (ev):

   -56.6384 -56.6329 -56.3843 -56.3767 -56.3194 -56.2794 -56.0886 -56.0695
   -56.0678 -55.9874 -55.9476 -55.9323 -55.5503 -55.4540 -55.4539 -55.4304
   -32.9020 -32.8974 -32.8902 -32.8834 -32.7980 -32.7933 -32.7529 -32.7466
   -32.6865 -32.6734 -32.6163 -32.6096 -32.5859 -32.5782 -32.5710 -32.5633
   -32.5188 -32.4824 -32.4088 -32.3921 -32.3913 -32.3321 -32.3231 -32.3200
   -32.3081 -32.2934 -32.2881 -32.2844 -32.2624 -32.2537 -32.2344 -32.2179
   -32.1598 -32.1588 -32.1479 -32.1451 -31.9289 -31.8589 -31.8111 -31.7837
   -31.7836 -31.7312 -31.6982 -31.6866 -31.6865 -31.6484 -31.6483 -31.4945
   -16.5193 -16.4921 -16.2735 -16.2599 -16.1500 -16.1473 -16.1350 -16.1340
   -16.0457 -16.0413 -15.9951 -15.9744 -15.9169 -15.9047 -15.8635 -15.8621
   -15.8400 -15.8386 -15.7972 -15.7946 -15.6521 -15.6503 -15.5380 -15.5304
   -15.4928 -15.4510 -15.4107 -15.3983 -15.2353 -13.9521 -13.9517  -8.3945
    -3.8227  -3.7855  -3.4876  -3.4793  -3.2794  -3.2760  -3.2571  -3.2488
    -3.2288  -3.2014  -3.1976  -3.1858  -3.1480  -3.1072  -3.0840  -3.0657
    -3.0547  -3.0470  -3.0423  -3.0412  -3.0211  -3.0019  -2.9868  -2.9623
    -2.9027  -2.8917  -2.8681  -2.8588  -2.7759  -2.6317  -2.5642  -2.5584
    -2.5498  -2.5293  -2.4877  -2.3980  -2.3935  -2.3567  -2.3495  -2.3308
    -2.1383  -2.0727  -2.0694  -2.0075  -1.9786  -1.8752  -1.7297  -1.6951
    -1.6696  -1.6482  -1.5664  -1.5268  -1.5126  -1.4890  -1.4816  -1.4542
    -1.4441  -1.3581  -1.3498  -1.3164  -1.2712  -1.2096  -1.2056  -1.1837
    -1.1629  -1.0643  -0.9959  -0.9793  -0.9649  -0.9232  -0.8592  -0.8030
    -0.7631  -0.6752  -0.6596  -0.3908  -0.3889  -0.2526  -0.2397  -0.1128
    -0.1011  -0.0081   0.0236   0.0670   0.1824   0.1957   0.2007   0.2263
     0.3276   0.3289   0.3617   0.9411   0.9414   1.0068   1.0081   1.9896
     3.0337   3.0504   3.1320   3.1492   3.1538   3.1714   3.2153   3.2179
     3.5597   3.5697

     the Fermi energy is     2.3272 ev

!    total energy              =   -2897.72450094 Ry
     estimated scf accuracy    <       0.00000007 Ry
     smearing contrib. (-TS)   =      -0.00186211 Ry
     internal energy E=F+TS    =   -2897.72263883 Ry

     The total energy is F=E-TS. E is the sum of the following terms:
     one-electron contribution =  -24684.99469992 Ry
     hartree contribution      =   12420.45454301 Ry
     xc contribution           =    -473.85546934 Ry
     ewald contribution        =    9840.67283440 Ry
     electric field correction =       0.00015304 Ry

     convergence has been achieved in  64 iterations

     Forces acting on atoms (cartesian axes, Ry/au):

     atom    1 type  1   force =     0.00029653   -0.00003784    0.14818027
     atom    2 type  1   force =     0.00005582   -0.00032638   -0.17144407
     atom    3 type  2   force =    -0.00004582    0.00265133   -0.05989498
     atom    4 type  2   force =    -0.00032567   -0.00140973    0.04060969
     atom    5 type  2   force =    -0.02537281    0.00093875    0.00496202
     atom    6 type  2   force =     0.02288036    0.00011333    0.00300966
     atom    7 type  1   force =    -0.00050840   -0.00071839   -0.00012557
     atom    8 type  1   force =     0.00073900   -0.00040838    0.00037907
     atom    9 type  2   force =     0.00089334   -0.00028306    0.00035221
     atom   10 type  2   force =    -0.00010903   -0.00000691   -0.00018578
     atom   11 type  2   force =    -0.00015133    0.00003115    0.00015931
     atom   12 type  2   force =     0.00017544    0.00012842    0.00011424
     atom   13 type  1   force =     0.00002768   -0.00100459    0.00030450
     atom   14 type  1   force =    -0.00004387   -0.00115231   -0.00033794
     atom   15 type  2   force =    -0.00008160   -0.00029117   -0.00036423
     atom   16 type  2   force =     0.00000417    0.00015603    0.00036533
     atom   17 type  2   force =     0.00088310   -0.00006540    0.00011075
     atom   18 type  2   force =    -0.00094031   -0.00004910    0.00051319
     atom   19 type  1   force =     0.00084571   -0.00024828    0.00012942
     atom   20 type  1   force =     0.00010471   -0.00014159    0.00041366
     atom   21 type  2   force =     0.00014068   -0.00010472    0.10273580
     atom   22 type  2   force =     0.00014331   -0.00012224   -0.00028990
     atom   23 type  2   force =    -0.07352830    0.00029595   -0.03460502
     atom   24 type  2   force =     0.07357765    0.00074257   -0.03465652
     atom   25 type  1   force =     0.00008126   -0.00018316    0.14937926
     atom   26 type  1   force =    -0.00000349   -0.00105237   -0.17159691
     atom   27 type  2   force =    -0.00007007    0.00191855   -0.05888564
     atom   28 type  2   force =    -0.00039740   -0.00137134    0.04058166
     atom   29 type  2   force =    -0.02529347    0.00190877    0.00524977
     atom   30 type  2   force =     0.02338135    0.00034070    0.00329725
     atom   31 type  1   force =    -0.00048176   -0.00019942   -0.00006974
     atom   32 type  1   force =     0.00062293   -0.00027719   -0.00003187
     atom   33 type  2   force =     0.00005065   -0.00037841    0.00043195
     atom   34 type  2   force =     0.00007426   -0.00014898    0.00007380
     atom   35 type  2   force =    -0.00018356   -0.00036099   -0.00034296
     atom   36 type  2   force =     0.00051966   -0.00063397   -0.00014436
     atom   37 type  1   force =     0.00091025    0.00031682   -0.00007319
     atom   38 type  1   force =    -0.00033815   -0.00015497    0.00018482
     atom   39 type  2   force =     0.00020214    0.00009973   -0.00108324
     atom   40 type  2   force =    -0.00001234    0.00029916   -0.00084122
     atom   41 type  2   force =    -0.00004050    0.00040084    0.00012090
     atom   42 type  2   force =    -0.00001222    0.00035027    0.00048367
     atom   43 type  1   force =     0.00060905    0.00079638   -0.00077508
     atom   44 type  1   force =    -0.00041139    0.00022455    0.00009280
     atom   45 type  2   force =     0.00013786   -0.00009532    0.10269972
     atom   46 type  2   force =    -0.07355595   -0.00012423   -0.03459573
     atom   47 type  2   force =     0.07361358    0.00034044   -0.03467233
     atom   48 type  3   force =     0.01838564    0.00015775   -0.00014922
     atom   49 type  4   force =    -0.00901585   -0.00172505   -0.00520824
     atom   50 type  4   force =    -0.00843284    0.00086399    0.00543905

     Total force =     0.405000     Total SCF correction =     0.000686
  @ DRIVER MODE: Message from server: STATUS
  @ DRIVER MODE: Message from server: GETFORCE
  @ DRIVER MODE: Returning v,forces,stress,ensemble

     Writing output data file ./calc.save/
  @ DRIVER MODE: Message from server: EXIT
  @ DRIVE MODE: Exiting

     General routines

     Parallel routines

   This run was terminated on:  22:20:27   8Sep2021

   JOB DONE.