     Program PWSCF v.6.7GPU starts on 23Jul2021 at  1:22:23

     R & G space division:  proc/nbgrp/npool/nimage =      16
     Reading input from /storage/home/hcoda1/3/ntian30/research/carbon/1Jul_vib/slab/rutile_O_br_vacant/out_0024/pw.inp
Warning: card &CELL ignored
Warning: card   CELL_DYNAMICS='IPI', ignored
Warning: card / ignored

     Current dimensions of program PWSCF are:
     Max number of different atomic species (ntypx) = 10
     Max number of k-points (npk) =  40000
     Max angular momentum in pseudopotentials (lmaxx) =  3
     Presently no symmetry can be used with electric field

     Message from routine cell_base_init:
     DEPRECATED: use true lattice parameter, not A to a.u. conversion factor

     IMPORTANT: XC functional enforced from input :
     Exchange-correlation= BEEF-VDW
                           (   1   4  43  14   2   0   0)
     Any further DFT definition will be discarded
     Please, verify this is what you really want

  @ DRIVER MODE: Connecting to
 qe_1139763_2402406.sched-torque.pace.gatech.edupsnhzwfb_scratch
  using UNIX socket
  @ DRIVER MODE: Message from server: STATUS
  @ DRIVER MODE: Message from server: INIT
  @ DRIVER MODE: Receiving replica           0          -1
  @ DRIVER MODE: Receiving encoded integer          25
  @ DRIVER MODE:  SCF:  T  FORCE:  T  STRESS:  F  VC:  F  ENSEMBLE:  F
  @ DRIVER MODE:  SCF:  T  FORCE:  T  STRESS:  F  VC:  F  ENSEMBLE:  F

     Using Slab Decomposition

     bravais-lattice index     =            0
     lattice parameter (alat)  =       1.8897  a.u.
     unit-cell volume          =    6658.9804 (a.u.)^3
     number of atoms/cell      =           47
     number of atomic types    =            2
     number of electrons       =       378.00
     number of Kohn-Sham states=          199
     kinetic-energy cutoff     =      29.3995  Ry
     charge density cutoff     =     293.9946  Ry
     scf convergence threshold =      7.3E-08
     mixing beta               =       0.0500
     number of iterations used =            8  plain     mixing
     Exchange-correlation= BEEF-VDW
                           (   1   4  43  14   2   0   0)

     celldm(1)=   1.889726  celldm(2)=   0.000000  celldm(3)=   0.000000
     celldm(4)=   0.000000  celldm(5)=   0.000000  celldm(6)=   0.000000

     crystal axes: (cart. coord. in units of alat)
               a(1) = (   6.579727   0.000000   0.000000 )
               a(2) = (  -0.000775   5.961596   0.000000 )
               a(3) = (   0.000000   0.000000  25.155947 )

     reciprocal axes: (cart. coord. in units 2 pi/alat)
               b(1) = (  0.151982  0.000020  0.000000 )
               b(2) = (  0.000000  0.167740  0.000000 )
               b(3) = (  0.000000  0.000000  0.039752 )

     PseudoPot. # 1 for Ti read from file:
     /storage/coda1/p-amedford6/0/shared/rich_project_chbe-medford/medford-share/data/pseudos_module/espresso/nninc/pbe/van/Ti.UPF
     MD5 check sum: 8e4df49b7f0d34bbd5052bf3f5ea0213
     Pseudo is Ultrasoft, Zval = 12.0
     Generated by new atomic code, or converted to UPF format
     Using radial grid of  851 points,  6 beta functions with:
                l(1) =   0
                l(2) =   0
                l(3) =   1
                l(4) =   1
                l(5) =   2
                l(6) =   2
     Q(r) pseudized with  8 coefficients,  rinner =    1.000   1.000   1.000
                                                       1.000   1.000

     PseudoPot. # 2 for O  read from file:
     /storage/coda1/p-amedford6/0/shared/rich_project_chbe-medford/medford-share/data/pseudos_module/espresso/nninc/pbe/van/O.UPF
     MD5 check sum: 78c19812648e8988a0fe644b0f25305e
     Pseudo is Ultrasoft, Zval =  6.0
     Generated by new atomic code, or converted to UPF format
     Using radial grid of  737 points,  4 beta functions with:
                l(1) =   0
                l(2) =   0
                l(3) =   1
                l(4) =   1
     Q(r) pseudized with  8 coefficients,  rinner =    0.800   0.800   0.800

     atomic species   valence    mass     pseudopotential
        Ti1           12.00    47.86700     Ti( 1.00)
        O1             6.00    15.99900     O ( 1.00)

     Starting magnetic structure
     atomic species   magnetization
        Ti1          0.000
        O1           0.000

     No symmetry found

   Cartesian axes

     site n.     atom                  positions (alat units)
         1           Ti1 tau(   1) = (   0.0004258   2.9801865   6.0000000  )
         2           Ti1 tau(   2) = (   3.2906075   1.4906267   6.0002472  )
         3           O1  tau(   3) = (   0.0006271   0.0005054   7.9858123  )
         4           O1  tau(   4) = (   3.2906025   0.0005020   7.3038282  )
         5           O1  tau(   5) = (   4.5942328   1.4918067   9.2879030  )
         6           O1  tau(   6) = (   1.9868534   1.4903216   9.2879459  )
         7           Ti1 tau(   7) = (   3.2895655   2.9803496   9.1561551  )
         8           Ti1 tau(   8) = (   6.5792279   1.4901203   9.2542590  )
         9           O1  tau(   9) = (   3.2908496   0.0003861  11.3974292  )
        10           O1  tau(  10) = (   0.0009741   0.0005107  10.6121890  )
        11           O1  tau(  11) = (   1.2851668   1.4970119  12.6717501  )
        12           O1  tau(  12) = (   5.2960956   1.4969944  12.6716611  )
        13           Ti1 tau(  13) = (   0.0014209   2.9817635  12.4865077  )
        14           Ti1 tau(  14) = (   3.2920103   1.4923710  12.5431595  )
        15           O1  tau(  15) = (   0.0005111   0.0003601  14.6908606  )
        16           O1  tau(  16) = (   3.2907661   0.0003422  14.0280135  )
        17           O1  tau(  17) = (   4.5563287   1.5043111  16.1972802  )
        18           O1  tau(  18) = (   2.0238984   1.5042417  16.1969189  )
        19           Ti1 tau(  19) = (   3.2900530   2.9812534  15.7923096  )
        20           Ti1 tau(  20) = (   0.0002900   1.3462356  15.9516996  )
        21           O1  tau(  21) = (   3.2904802   0.0005063   4.7018136  )
        22           O1  tau(  22) = (   0.0005067   0.0002908  17.2230471  )
        23           O1  tau(  23) = (   1.3043587   1.4918075   6.0039043  )
        24           O1  tau(  24) = (   5.2767064   1.4903225   6.0039473  )
        25           Ti1 tau(  25) = (   0.0000382   5.9609847   6.0000000  )
        26           Ti1 tau(  26) = (   3.2902200   4.4714249   6.0002472  )
        27           O1  tau(  27) = (   0.0002396   2.9813036   7.9858123  )
        28           O1  tau(  28) = (   3.2902150   2.9813002   7.3038282  )
        29           O1  tau(  29) = (   4.5938453   4.4726049   9.2879030  )
        30           O1  tau(  30) = (   1.9864658   4.4711199   9.2879459  )
        31           Ti1 tau(  31) = (   3.2890184   5.9611387   9.1545655  )
        32           Ti1 tau(  32) = (   6.5788211   4.4731772   9.2541010  )
        33           O1  tau(  33) = (   3.2904314   2.9811918  11.3932170  )
        34           O1  tau(  34) = (   0.0006808   2.9813391  10.6259032  )
        35           O1  tau(  35) = (   1.2847872   4.4655815  12.6717948  )
        36           O1  tau(  36) = (   5.2956760   4.4653813  12.6716352  )
        37           Ti1 tau(  37) = (   0.0020938   0.0010105  12.4782417  )
        38           Ti1 tau(  38) = (   3.2917349   4.4701355  12.5431901  )
        39           O1  tau(  39) = (   0.0000992   2.9811129  15.0245885  )
        40           O1  tau(  40) = (   3.2903432   2.9811263  13.9978513  )
        41           O1  tau(  41) = (   4.5559250   4.4580163  16.1971803  )
        42           O1  tau(  42) = (   2.0234811   4.4579909  16.1969720  )
        43           Ti1 tau(  43) = (   3.2904469   0.0004528  15.8318627  )
        44           Ti1 tau(  44) = (   0.0000435   4.6159127  15.9515978  )
        45           O1  tau(  45) = (   3.2900926   2.9813045   4.7118136  )
        46           O1  tau(  46) = (   1.3039711   4.4726057   6.0039043  )
        47           O1  tau(  47) = (   5.2763189   4.4711207   6.0039473  )

     number of k points=    10  Fermi-Dirac smearing, width (Ry)=  0.0073
                       cart. coord. in units 2pi/alat
        k(    1) = (   0.0000000   0.0000000   0.0000000), wk =   0.0625000
        k(    2) = (   0.0000000   0.0419351   0.0000000), wk =   0.1250000
        k(    3) = (   0.0000000  -0.0838702   0.0000000), wk =   0.0625000
        k(    4) = (   0.0379955   0.0000049   0.0000000), wk =   0.1250000
        k(    5) = (   0.0379955   0.0419400   0.0000000), wk =   0.1250000
        k(    6) = (   0.0379955  -0.0838652   0.0000000), wk =   0.1250000
        k(    7) = (   0.0379955  -0.0419301   0.0000000), wk =   0.1250000
        k(    8) = (  -0.0759910  -0.0000099   0.0000000), wk =   0.0625000
        k(    9) = (  -0.0759910   0.0419252   0.0000000), wk =   0.1250000
        k(   10) = (  -0.0759910  -0.0838800   0.0000000), wk =   0.0625000

     Initial potential from superposition of free atoms

     starting charge  361.99925, renormalised to  378.00000

     negative rho (up, down):  1.185E-02 1.185E-02

     %%%%%%%%%%%%%%%%%%%%%%%%%%%%%%%%%%%%%%%%%%%%%%%%%%%%%%%%%%%%%%%%%%%%%%%%
     %                                                                      %
     % You are using vdW-DF, which was implemented by the Thonhauser group. %
     % Please cite the following two papers that made this development      %
     % possible and the two reviews that describe the various versions:     %
     %                                                                      %
     %   T. Thonhauser et al., PRL 115, 136402 (2015).                      %
     %   T. Thonhauser et al., PRB 76, 125112 (2007).                       %
     %   K. Berland et al., Rep. Prog. Phys. 78, 066501 (2015).             %
     %   D.C. Langreth et al., J. Phys.: Condens. Matter 21, 084203 (2009). %
     %                                                                      %
     %                                                                      %
     % If you are calculating the stress with vdW-DF, please also cite:     %
     %                                                                      %
     %   R. Sabatini et al., J. Phys.: Condens. Matter 24, 424209 (2012).   %
     %                                                                      %
     %%%%%%%%%%%%%%%%%%%%%%%%%%%%%%%%%%%%%%%%%%%%%%%%%%%%%%%%%%%%%%%%%%%%%%%%

     Adding external electric field

     Computed dipole along edir(3) :
        Dipole                1.1365 Ry au,          2.8888 Debye
        Dipole field          0.0021 Ry au,

        Potential amp.       -0.1988 Ry
        Total length         46.3494 bohr

[...]

     Starting wfcs are  284 atomic wfcs
  @ DRIVER MODE: Message from server: STATUS
  @ DRIVER MODE: Message from server: POSDATA
  @ DRIVER MODE: Reading and sharing cell
  @ DRIVER MODE: Reading and sharing positions
  @ DRIVER MODE: Received positions

     Self-consistent Calculation

     iteration #  1     ecut=    29.40 Ry     beta= 0.05
     Davidson diagonalization with overlap
     c_bands:  2 eigenvalues not converged
     c_bands:  3 eigenvalues not converged
     c_bands:  2 eigenvalues not converged
     c_bands:  3 eigenvalues not converged
     c_bands:  1 eigenvalues not converged
     c_bands:  2 eigenvalues not converged
     c_bands:  1 eigenvalues not converged
     c_bands:  1 eigenvalues not converged
     c_bands:  3 eigenvalues not converged
     c_bands:  2 eigenvalues not converged
     c_bands:  2 eigenvalues not converged
     c_bands:  3 eigenvalues not converged
     c_bands:  2 eigenvalues not converged
     c_bands:  3 eigenvalues not converged
     c_bands:  1 eigenvalues not converged
     c_bands:  2 eigenvalues not converged
     c_bands:  1 eigenvalues not converged
     c_bands:  1 eigenvalues not converged
     c_bands:  3 eigenvalues not converged
     c_bands:  2 eigenvalues not converged
     ethr =  1.00E-05,  avg # of iterations = 20.0

[...]

     total energy              =   -2885.09866615 Ry
     estimated scf accuracy    <      12.51158358 Ry

     total magnetization       =    -0.00 Bohr mag/cell
     absolute magnetization    =     0.00 Bohr mag/cell

     iteration #  2     ecut=    29.40 Ry     beta= 0.05
     Davidson diagonalization with overlap
     ethr =  3.31E-03,  avg # of iterations =  1.0

[...]

     iteration # 84     ecut=    29.40 Ry     beta= 0.05
     Davidson diagonalization with overlap
     c_bands:  1 eigenvalues not converged
     c_bands:  1 eigenvalues not converged
     c_bands:  1 eigenvalues not converged
     c_bands:  1 eigenvalues not converged
     c_bands:  1 eigenvalues not converged
     c_bands:  1 eigenvalues not converged
     c_bands:  1 eigenvalues not converged
     c_bands:  1 eigenvalues not converged
     c_bands:  1 eigenvalues not converged
     c_bands:  1 eigenvalues not converged
     ethr =  2.87E-11,  avg # of iterations = 18.1

[...]

     total energy              =   -2883.85524336 Ry
     estimated scf accuracy    <       0.00000022 Ry

[...]

     iteration # 85     ecut=    29.40 Ry     beta= 0.05
     Davidson diagonalization with overlap
     ethr =  2.87E-11,  avg # of iterations = 12.9

     negative rho (up, down):  1.072E-02 1.072E-02

[...]

     Adding external electric field

     Computed dipole along edir(3) :
        Dipole                0.5502 Ry au,          1.3985 Debye
        Dipole field          0.0010 Ry au,

        Potential amp.       -0.0963 Ry
        Total length         46.3494 bohr

     Magnetic moment per site  (integrated on atomic sphere of radius R)
     atom   1 (R=0.740)  charge=  8.0667  magn= -0.0000
     atom   2 (R=0.740)  charge=  8.0465  magn=  0.0000
     atom   3 (R=0.740)  charge=  5.0351  magn= -0.0000
     atom   4 (R=0.740)  charge=  5.0740  magn=  0.0000
     atom   5 (R=0.740)  charge=  5.0337  magn=  0.0000
     atom   6 (R=0.740)  charge=  5.0338  magn=  0.0000
     atom   7 (R=0.740)  charge=  8.0461  magn= -0.0000
     atom   8 (R=0.740)  charge=  8.0494  magn=  0.0000
     atom   9 (R=0.740)  charge=  5.0395  magn= -0.0000
     atom  10 (R=0.740)  charge=  5.0477  magn= -0.0000
     atom  11 (R=0.740)  charge=  5.0325  magn= -0.0000
     atom  12 (R=0.740)  charge=  5.0326  magn=  0.0000
     atom  13 (R=0.740)  charge=  8.0562  magn=  0.0000
     atom  14 (R=0.740)  charge=  8.0499  magn=  0.0000
     atom  15 (R=0.740)  charge=  5.0483  magn= -0.0000
     atom  16 (R=0.740)  charge=  5.0335  magn= -0.0000
     atom  17 (R=0.740)  charge=  5.0152  magn=  0.0000
     atom  18 (R=0.740)  charge=  5.0151  magn= -0.0000
     atom  19 (R=0.740)  charge=  8.0776  magn= -0.0000
     atom  20 (R=0.740)  charge=  8.0901  magn=  0.0000
     atom  21 (R=0.740)  charge=  4.9135  magn=  0.0000
     atom  22 (R=0.740)  charge=  4.9955  magn= -0.0000
     atom  23 (R=0.740)  charge=  5.0274  magn=  0.0000
     atom  24 (R=0.740)  charge=  5.0275  magn=  0.0000
     atom  25 (R=0.740)  charge=  8.0668  magn= -0.0000
     atom  26 (R=0.740)  charge=  8.0465  magn= -0.0000
     atom  27 (R=0.740)  charge=  5.0345  magn= -0.0000
     atom  28 (R=0.740)  charge=  5.0735  magn=  0.0000
     atom  29 (R=0.740)  charge=  5.0337  magn= -0.0000
     atom  30 (R=0.740)  charge=  5.0338  magn=  0.0000
     atom  31 (R=0.740)  charge=  8.0464  magn= -0.0000
     atom  32 (R=0.740)  charge=  8.0494  magn= -0.0000
     atom  33 (R=0.740)  charge=  5.0395  magn= -0.0000
     atom  34 (R=0.740)  charge=  5.0426  magn=  0.0000
     atom  35 (R=0.740)  charge=  5.0324  magn= -0.0000
     atom  36 (R=0.740)  charge=  5.0325  magn=  0.0000
     atom  37 (R=0.740)  charge=  8.0520  magn=  0.0000
     atom  38 (R=0.740)  charge=  8.0499  magn=  0.0000
     atom  39 (R=0.740)  charge=  5.0311  magn= -0.0000
     atom  40 (R=0.740)  charge=  5.0467  magn= -0.0000
     atom  41 (R=0.740)  charge=  5.0152  magn= -0.0000
     atom  42 (R=0.740)  charge=  5.0151  magn=  0.0000
     atom  43 (R=0.740)  charge=  8.0771  magn=  0.0000
     atom  44 (R=0.740)  charge=  8.0902  magn= -0.0000
     atom  45 (R=0.740)  charge=  4.9173  magn=  0.0000
     atom  46 (R=0.740)  charge=  5.0274  magn=  0.0000
     atom  47 (R=0.740)  charge=  5.0275  magn=  0.0000

     End of self-consistent calculation

 ------ SPIN UP ------------

          k = 0.0000 0.0000 0.0000 ( 18029 PWs)   bands (ev):

   -56.2706 -56.2348 -56.2193 -56.1851 -56.1509 -56.1376 -56.1081 -56.1030
   -56.0852 -56.0760 -56.0739 -56.0482 -56.0213 -56.0142 -55.3315 -55.2974
   -32.8327 -32.7873 -32.7215 -32.6225 -32.5808 -32.5761 -32.5728 -32.5627
   -32.5097 -32.4966 -32.4760 -32.4696 -32.4646 -32.4409 -32.4401 -32.4205
   -32.4081 -32.4068 -32.3938 -32.3840 -32.3720 -32.3709 -32.3673 -32.3670
   -32.3418 -32.3391 -32.3181 -32.2744 -32.2683 -32.2590 -32.2583 -32.2522
   -32.2457 -32.2368 -32.2360 -32.2314 -32.2267 -32.2052 -32.1967 -32.1810
   -32.1634 -32.1035 -31.7462 -31.6398 -31.6184 -31.5620 -31.4753 -31.3633
   -17.1016 -16.8790 -16.7367 -16.6004 -16.4984 -16.3948 -16.2713 -16.2205
   -16.1672 -16.0206 -15.9602 -15.9345 -15.8963 -15.8721 -15.8645 -15.8498
   -15.8264 -15.8097 -15.7880 -15.7816 -15.7651 -15.7647 -15.7165 -15.6640
   -15.5711 -15.5034 -15.4326 -15.3752 -15.0506 -13.8539 -13.7307  -4.4220
    -4.2867  -4.2125  -4.1973  -4.1463  -4.0357  -3.8155  -3.7919  -3.7259
    -3.5700  -3.5215  -3.4646  -3.4050  -3.3351  -3.2783  -3.2675  -3.1664
    -3.1414  -3.1369  -3.1302  -3.0493  -3.0471  -3.0247  -2.9979  -2.9590
    -2.8672  -2.7477  -2.7031  -2.6693  -2.6485  -2.6403  -2.6200  -2.5884
    -2.5564  -2.5213  -2.5206  -2.4860  -2.4437  -2.3195  -2.1725  -2.1286
    -2.0632  -1.9670  -1.8955  -1.8304  -1.7901  -1.7523  -1.7271  -1.6778
    -1.6470  -1.6136  -1.5371  -1.4483  -1.4067  -1.3022  -1.2877  -1.2187
    -1.1833  -1.1099  -1.0683  -1.0665  -1.0226  -0.9343  -0.9073  -0.7847
    -0.7564  -0.7485  -0.7378  -0.7265  -0.6174  -0.5125  -0.4850  -0.4735
    -0.4726  -0.3882  -0.3381  -0.3309  -0.3161  -0.3102  -0.2594  -0.1845
    -0.1435  -0.0920   0.0505   0.2707   0.2774   0.3428   0.5600   0.6466
     0.6841   0.8295   1.2589   1.3232   2.8274   2.8933   2.9245   2.9575
     2.9857   3.0341   3.3242   3.3379   3.3620   3.3892   3.4075

[...]

          k =-0.0760-0.0000 0.0000 ( 17886 PWs)   bands (ev):

[...]

 ------ SPIN DOWN ----------

[...]

          k = 0.0380-0.0419 0.0000 ( 17876 PWs)   bands (ev):

[...]

          k =-0.0760-0.0839 0.0000 ( 17948 PWs)   bands (ev):

   -56.2528 -56.2523 -56.2023 -56.2019 -56.1466 -56.1226 -56.1180 -56.0921
   -56.0895 -56.0801 -56.0787 -56.0314 -56.0310 -56.0277 -55.3144 -55.3143
   -32.7108 -32.6383 -32.6355 -32.5363 -32.5360 -32.5360 -32.5215 -32.4953
   -32.4946 -32.4683 -32.4645 -32.4641 -32.4579 -32.4153 -32.4132 -32.4123
   -32.4066 -32.4051 -32.3921 -32.3865 -32.3855 -32.3815 -32.3700 -32.3543
   -32.3496 -32.3485 -32.3467 -32.3424 -32.3200 -32.3198 -32.3152 -32.3107
   -32.2879 -32.2859 -32.2613 -32.2612 -32.2610 -32.2599 -32.2303 -32.2169
   -32.2167 -32.2083 -31.6309 -31.6309 -31.5586 -31.5574 -31.5191 -31.5183
   -16.8095 -16.4546 -16.4160 -16.3303 -16.3229 -16.2228 -16.2032 -16.1149
   -16.0735 -16.0487 -16.0481 -15.9961 -15.9764 -15.9560 -15.9532 -15.8908
   -15.8752 -15.8465 -15.8437 -15.7885 -15.7859 -15.7850 -15.7838 -15.7476
   -15.7446 -15.7050 -15.7013 -15.6011 -15.4342 -13.8522 -13.8162  -3.8259
    -3.7238  -3.6694  -3.5534  -3.4795  -3.4437  -3.3971  -3.3880  -3.3140
    -3.2707  -3.2662  -3.1826  -3.1724  -3.1719  -3.1592  -3.0970  -3.0824
    -3.0577  -3.0330  -3.0073  -2.9788  -2.9667  -2.9652  -2.9450  -2.9356
    -2.9165  -2.9141  -2.8859  -2.8602  -2.8380  -2.8217  -2.6617  -2.6574
    -2.5714  -2.5114  -2.5100  -2.4309  -2.4227  -2.3788  -2.3447  -2.2898
    -2.2494  -2.0934  -2.0714  -2.0680  -2.0033  -1.9770  -1.9074  -1.8509
    -1.8343  -1.7874  -1.7305  -1.6126  -1.5949  -1.5696  -1.4631  -1.4624
    -1.3879  -1.3134  -1.2693  -1.2640  -1.2617  -1.2326  -1.2274  -1.2248
    -1.1151  -1.0626  -1.0158  -1.0091  -0.9961  -0.7918  -0.7331  -0.7185
    -0.6136  -0.5526  -0.3685  -0.3660  -0.3215  -0.2207  -0.2044  -0.2040
    -0.1586  -0.0309  -0.0184   0.0510   0.0935   0.1072   0.1472   0.1489
     1.0255   1.0299   1.1200   1.1493   2.9984   3.0807   3.0863   3.1355
     3.2759   3.3269   3.3329   3.3784   3.3792   3.3832   3.4607

     the Fermi energy is     2.8931 ev

!    total energy              =   -2883.85524611 Ry
     estimated scf accuracy    <       0.00000006 Ry
     smearing contrib. (-TS)   =      -0.03659796 Ry
     internal energy E=F+TS    =   -2883.81864815 Ry

     The total energy is F=E-TS. E is the sum of the following terms:
     one-electron contribution =  -24918.31666103 Ry
     hartree contribution      =   12534.06795542 Ry
     xc contribution           =    -468.95248637 Ry
     ewald contribution        =    9969.38197251 Ry
     electric field correction =       0.00057132 Ry

     total magnetization       =    -0.00 Bohr mag/cell
     absolute magnetization    =     0.00 Bohr mag/cell

     convergence has been achieved in  85 iterations

     Forces acting on atoms (cartesian axes, Ry/au):

     atom    1 type  1   force =     0.00010626   -0.00000233    0.09003147
     atom    2 type  1   force =    -0.00004134   -0.00026692   -0.18292434
     atom    3 type  2   force =     0.00003045   -0.00000533   -0.02426328
     atom    4 type  2   force =    -0.00000945   -0.00002093    0.05247316
     atom    5 type  2   force =    -0.01334177   -0.00029922    0.00587660
     atom    6 type  2   force =     0.01331495    0.00018181    0.00584502
     atom    7 type  1   force =    -0.00003039    0.00002131    0.00012117
     atom    8 type  1   force =     0.00001716    0.00044923    0.00043934
     atom    9 type  2   force =     0.00001312    0.00001724    0.00084354
     atom   10 type  2   force =    -0.00000310    0.00000694   -0.00038856
     atom   11 type  2   force =     0.00017396   -0.00023979    0.00050358
     atom   12 type  2   force =    -0.00019848   -0.00025530    0.00050264
     atom   13 type  1   force =    -0.00000212   -0.00000211   -0.00072331
     atom   14 type  1   force =     0.00003682   -0.00072996    0.00054510
     atom   15 type  2   force =    -0.00000324   -0.00001414   -0.00072304
     atom   16 type  2   force =     0.00001792    0.00001278    0.00016721
     atom   17 type  2   force =    -0.00003280    0.00023245    0.00000908
     atom   18 type  2   force =     0.00004752    0.00023088    0.00001982
     atom   19 type  1   force =    -0.00001825   -0.00000985   -0.00082442
     atom   20 type  1   force =     0.00002669    0.00015283   -0.00001760
     atom   21 type  2   force =     0.00005873    0.00007638    0.10498033
     atom   22 type  2   force =    -0.00001623   -0.00000399    0.00046543
     atom   23 type  2   force =    -0.06769319   -0.00032578   -0.02608047
     atom   24 type  2   force =     0.06759758    0.00010988   -0.02611664
     atom   25 type  1   force =     0.00010571    0.00000799    0.08905552
     atom   26 type  1   force =    -0.00006587    0.00017776   -0.18292612
     atom   27 type  2   force =     0.00003139   -0.00002117   -0.02319249
     atom   28 type  2   force =    -0.00000583   -0.00002150    0.05337559
     atom   29 type  2   force =    -0.01334975   -0.00024454    0.00587373
     atom   30 type  2   force =     0.01331817    0.00025278    0.00584192
     atom   31 type  1   force =    -0.00003325    0.00001815    0.00056807
     atom   32 type  1   force =     0.00000789   -0.00044400    0.00045485
     atom   33 type  2   force =     0.00001557    0.00001099   -0.00027802
     atom   34 type  2   force =    -0.00001457    0.00000328    0.00012414
     atom   35 type  2   force =     0.00016580    0.00026289    0.00050252
     atom   36 type  2   force =    -0.00019186    0.00025724    0.00050659
     atom   37 type  1   force =     0.00000298   -0.00001947    0.00080615
     atom   38 type  1   force =     0.00002605    0.00074848    0.00053985
     atom   39 type  2   force =    -0.00001701    0.00000004   -0.00042576
     atom   40 type  2   force =     0.00001532    0.00001265   -0.00046080
     atom   41 type  2   force =    -0.00003133   -0.00022162    0.00001246
     atom   42 type  2   force =     0.00005273   -0.00022956    0.00001441
     atom   43 type  1   force =    -0.00001462   -0.00000249    0.00043209
     atom   44 type  1   force =    -0.00003230   -0.00014055   -0.00001754
     atom   45 type  2   force =     0.00005826    0.00007364    0.10062812
     atom   46 type  2   force =    -0.06769255   -0.00011637   -0.02607785
     atom   47 type  2   force =     0.06759829    0.00031930   -0.02611928

     Total force =     0.364309     Total SCF correction =     0.000638
  @ DRIVER MODE: Message from server: STATUS
  @ DRIVER MODE: Message from server: GETFORCE
  @ DRIVER MODE: Returning v,forces,stress,ensemble

     Writing output data file ./calc.save/
  @ DRIVER MODE: Message from server: EXIT
  @ DRIVE MODE: Exiting

     General routines

     Parallel routines

   This run was terminated on:   2:44: 9  23Jul2021

   JOB DONE.