     Program PWSCF v.6.7GPU starts on  2Aug2021 at 17:20:19

     R & G space division:  proc/nbgrp/npool/nimage =      16
     Reading input from /storage/home/hcoda1/3/ntian30/research/carbon/02Aug_vib_paired/ads_slab/CH3N_a/out_0026/pw.inp
Warning: card &CELL ignored
Warning: card   CELL_DYNAMICS='IPI', ignored
Warning: card / ignored

     Current dimensions of program PWSCF are:
     Max number of different atomic species (ntypx) = 10
     Max number of k-points (npk) =  40000
     Max angular momentum in pseudopotentials (lmaxx) =  3
     Presently no symmetry can be used with electric field

     Message from routine cell_base_init:
     DEPRECATED: use true lattice parameter, not A to a.u. conversion factor

     IMPORTANT: XC functional enforced from input :
     Exchange-correlation= BEEF-VDW
                           (   1   4  43  14   2   0   0)
     Any further DFT definition will be discarded
     Please, verify this is what you really want

  @ DRIVER MODE: Connecting to
 qe_1139763_2482542.sched-torque.pace.gatech.edumbhvnm7u_scratch
  using UNIX socket
  @ DRIVER MODE: Message from server: STATUS
  @ DRIVER MODE: Message from server: INIT
  @ DRIVER MODE: Receiving replica           0          -1
  @ DRIVER MODE: Receiving encoded integer          25
  @ DRIVER MODE:  SCF:  T  FORCE:  T  STRESS:  F  VC:  F  ENSEMBLE:  F
  @ DRIVER MODE:  SCF:  T  FORCE:  T  STRESS:  F  VC:  F  ENSEMBLE:  F

     Using Slab Decomposition

     bravais-lattice index     =            0
     lattice parameter (alat)  =       1.8897  a.u.
     unit-cell volume          =    6658.9804 (a.u.)^3
     number of atoms/cell      =           52
     number of atomic types    =            5
     number of electrons       =       390.00
     number of Kohn-Sham states=          205
     kinetic-energy cutoff     =      29.3995  Ry
     charge density cutoff     =     293.9946  Ry
     scf convergence threshold =      7.3E-08
     mixing beta               =       0.0500
     number of iterations used =            8  plain     mixing
     Exchange-correlation= BEEF-VDW
                           (   1   4  43  14   2   0   0)

     celldm(1)=   1.889726  celldm(2)=   0.000000  celldm(3)=   0.000000
     celldm(4)=   0.000000  celldm(5)=   0.000000  celldm(6)=   0.000000

     crystal axes: (cart. coord. in units of alat)
               a(1) = (   6.579727   0.000000   0.000000 )
               a(2) = (  -0.000775   5.961596   0.000000 )
               a(3) = (   0.000000   0.000000  25.155947 )

     reciprocal axes: (cart. coord. in units 2 pi/alat)
               b(1) = (  0.151982  0.000020  0.000000 )
               b(2) = (  0.000000  0.167740  0.000000 )
               b(3) = (  0.000000  0.000000  0.039752 )

     PseudoPot. # 1 for Ti read from file:
     /storage/coda1/p-amedford6/0/shared/rich_project_chbe-medford/medford-share/data/pseudos_module/espresso/nninc/pbe/van/Ti.UPF
     MD5 check sum: 8e4df49b7f0d34bbd5052bf3f5ea0213
     Pseudo is Ultrasoft, Zval = 12.0
     Generated by new atomic code, or converted to UPF format
     Using radial grid of  851 points,  6 beta functions with:
                l(1) =   0
                l(2) =   0
                l(3) =   1
                l(4) =   1
                l(5) =   2
                l(6) =   2
     Q(r) pseudized with  8 coefficients,  rinner =    1.000   1.000   1.000
                                                       1.000   1.000

     PseudoPot. # 2 for O  read from file:
     /storage/coda1/p-amedford6/0/shared/rich_project_chbe-medford/medford-share/data/pseudos_module/espresso/nninc/pbe/van/O.UPF
     MD5 check sum: 78c19812648e8988a0fe644b0f25305e
     Pseudo is Ultrasoft, Zval =  6.0
     Generated by new atomic code, or converted to UPF format
     Using radial grid of  737 points,  4 beta functions with:
                l(1) =   0
                l(2) =   0
                l(3) =   1
                l(4) =   1
     Q(r) pseudized with  8 coefficients,  rinner =    0.800   0.800   0.800

     PseudoPot. # 3 for N  read from file:
     /storage/coda1/p-amedford6/0/shared/rich_project_chbe-medford/medford-share/data/pseudos_module/espresso/nninc/pbe/van/N.UPF
     MD5 check sum: 90d10febe142ad51ac9d5be1deb811c4
     Pseudo is Ultrasoft, Zval =  5.0
     Generated by new atomic code, or converted to UPF format
     Using radial grid of  729 points,  4 beta functions with:
                l(1) =   0
                l(2) =   0
                l(3) =   1
                l(4) =   1
     Q(r) pseudized with  8 coefficients,  rinner =    0.800   0.800   0.800

     PseudoPot. # 4 for C  read from file:
     /storage/coda1/p-amedford6/0/shared/rich_project_chbe-medford/medford-share/data/pseudos_module/espresso/nninc/pbe/van/C.UPF
     MD5 check sum: 1a69bf6b8db32088f5b2163dbdb77a27
     Pseudo is Ultrasoft, Zval =  4.0
     Generated by new atomic code, or converted to UPF format
     Using radial grid of  721 points,  4 beta functions with:
                l(1) =   0
                l(2) =   0
                l(3) =   1
                l(4) =   1
     Q(r) pseudized with  8 coefficients,  rinner =    0.800   0.800   0.800

     PseudoPot. # 5 for H  read from file:
     /storage/coda1/p-amedford6/0/shared/rich_project_chbe-medford/medford-share/data/pseudos_module/espresso/nninc/pbe/van/H.UPF
     MD5 check sum: b5ee9d7bfd3a09ee7748110bda690ff7
     Pseudo is Ultrasoft, Zval =  1.0
     Generated by new atomic code, or converted to UPF format
     Using radial grid of  615 points,  1 beta functions with:
                l(1) =   0
     Q(r) pseudized with  8 coefficients,  rinner =    0.800

     atomic species   valence    mass     pseudopotential
        Ti1           12.00    47.86700     Ti( 1.00)
        O1             6.00    15.99900     O ( 1.00)
        N1             5.00    14.00700     N ( 1.00)
        C1             4.00    12.01100     C ( 1.00)
        H1             1.00     1.00800     H ( 1.00)

     No symmetry found

   Cartesian axes

     site n.     atom                  positions (alat units)
         1           Ti1 tau(   1) = (   0.0004258   2.9801865   6.0000000  )
         2           Ti1 tau(   2) = (   3.2906075   1.4906267   6.0002472  )
         3           O1  tau(   3) = (   0.0006271   0.0005054   7.9858123  )
         4           O1  tau(   4) = (   3.2906025   0.0005020   7.3038282  )
         5           O1  tau(   5) = (   4.5942328   1.4918067   9.2879030  )
         6           O1  tau(   6) = (   1.9868534   1.4903216   9.2879459  )
         7           Ti1 tau(   7) = (   3.2907910   2.8959150   9.1758416  )
         8           Ti1 tau(   8) = (   0.0015273   1.4827037   9.2680791  )
         9           O1  tau(   9) = (   3.2848820   0.0184509  11.2968037  )
        10           O1  tau(  10) = (   0.0116148   5.9584955  10.6183126  )
        11           O1  tau(  11) = (   1.3164307   1.5202202  12.6152053  )
        12           O1  tau(  12) = (   5.2938533   1.5248534  12.6363518  )
        13           Ti1 tau(  13) = (   6.4693392   3.0155455  12.7604093  )
        14           Ti1 tau(  14) = (   3.1621140   1.5165027  12.4659144  )
        15           O1  tau(  15) = (   0.0250032   0.0426882  14.5925537  )
        16           O1  tau(  16) = (   3.2896737   0.0171256  13.8799622  )
        17           O1  tau(  17) = (   4.5365032   1.4993634  16.0438468  )
        18           O1  tau(  18) = (   2.0814567   1.5015292  16.0591106  )
        19           Ti1 tau(  19) = (   3.3082904   2.9956922  15.6854367  )
        20           Ti1 tau(  20) = (   0.0032501   1.4479889  16.1249605  )
        21           O1  tau(  21) = (   3.2904802   0.0005063   4.7018136  )
        22           O1  tau(  22) = (   0.0161699   0.0004382  17.1970091  )
        23           O1  tau(  23) = (   1.3043587   1.4918075   6.0039043  )
        24           O1  tau(  24) = (   5.2767064   1.4903225   6.0039473  )
        25           Ti1 tau(  25) = (   0.0000382   5.9609847   6.0000000  )
        26           Ti1 tau(  26) = (   3.2902200   4.4714249   6.0002472  )
        27           O1  tau(  27) = (   0.0002396   2.9813036   7.9858123  )
        28           O1  tau(  28) = (   3.2902150   2.9813002   7.3038282  )
        29           O1  tau(  29) = (   4.5938453   4.4726049   9.2879030  )
        30           O1  tau(  30) = (   1.9864658   4.4711199   9.2879459  )
        31           Ti1 tau(  31) = (   3.2891106   5.8743827   9.1763621  )
        32           Ti1 tau(  32) = (   0.0006254   4.4649316   9.2693709  )
        33           O1  tau(  33) = (   3.2855107   2.9994495  11.2959752  )
        34           O1  tau(  34) = (   0.0092240   2.9805883  10.6323155  )
        35           O1  tau(  35) = (   1.3179678   4.4860142  12.6155112  )
        36           O1  tau(  36) = (   5.2920789   4.4901865  12.6316709  )
        37           Ti1 tau(  37) = (   6.5050993   0.0355131  12.7707974  )
        38           Ti1 tau(  38) = (   3.1594757   4.4963870  12.4672366  )
        39           O1  tau(  39) = (   6.5726527   3.0227966  14.6583025  )
        40           O1  tau(  40) = (   3.2932321   2.9979836  13.8792693  )
        41           O1  tau(  41) = (   4.5322310   4.4839795  16.0418810  )
        42           O1  tau(  42) = (   2.0800586   4.4799519  16.0553745  )
        43           Ti1 tau(  43) = (   3.2910362   0.0127607  15.6894215  )
        44           Ti1 tau(  44) = (   0.0049462   4.4269923  16.0943486  )
        45           O1  tau(  45) = (   3.2900926   2.9813045   4.7018136  )
        46           O1  tau(  46) = (   1.3039711   4.4726057   6.0039043  )
        47           O1  tau(  47) = (   5.2763189   4.4711207   6.0039473  )
        48           N1  tau(  48) = (   0.0596666   2.9942962  17.3216073  )
        49           C1  tau(  49) = (   0.3918855   2.9774893  18.7266025  )
        50           H1  tau(  50) = (   0.0017595   3.8652167  19.2343835  )
        51           H1  tau(  51) = (   0.0043965   2.0815098  19.2200810  )
        52           H1  tau(  52) = (   1.4943755   2.9788857  18.8581259  )

     number of k points=    10  Fermi-Dirac smearing, width (Ry)=  0.0073
                       cart. coord. in units 2pi/alat
        k(    1) = (   0.0000000   0.0000000   0.0000000), wk =   0.1250000
        k(    2) = (   0.0000000   0.0419351   0.0000000), wk =   0.2500000
        k(    3) = (   0.0000000  -0.0838702   0.0000000), wk =   0.1250000
        k(    4) = (   0.0379955   0.0000049   0.0000000), wk =   0.2500000
        k(    5) = (   0.0379955   0.0419400   0.0000000), wk =   0.2500000
        k(    6) = (   0.0379955  -0.0838652   0.0000000), wk =   0.2500000
        k(    7) = (   0.0379955  -0.0419301   0.0000000), wk =   0.2500000
        k(    8) = (  -0.0759910  -0.0000099   0.0000000), wk =   0.1250000
        k(    9) = (  -0.0759910   0.0419252   0.0000000), wk =   0.2500000
        k(   10) = (  -0.0759910  -0.0838800   0.0000000), wk =   0.1250000

     Initial potential from superposition of free atoms

     starting charge  373.99917, renormalised to  390.00000

     negative rho (up, down):  1.730E-02 0.000E+00

     %%%%%%%%%%%%%%%%%%%%%%%%%%%%%%%%%%%%%%%%%%%%%%%%%%%%%%%%%%%%%%%%%%%%%%%%
     %                                                                      %
     % You are using vdW-DF, which was implemented by the Thonhauser group. %
     % Please cite the following two papers that made this development      %
     % possible and the two reviews that describe the various versions:     %
     %                                                                      %
     %   T. Thonhauser et al., PRL 115, 136402 (2015).                      %
     %   T. Thonhauser et al., PRB 76, 125112 (2007).                       %
     %   K. Berland et al., Rep. Prog. Phys. 78, 066501 (2015).             %
     %   D.C. Langreth et al., J. Phys.: Condens. Matter 21, 084203 (2009). %
     %                                                                      %
     %                                                                      %
     % If you are calculating the stress with vdW-DF, please also cite:     %
     %                                                                      %
     %   R. Sabatini et al., J. Phys.: Condens. Matter 24, 424209 (2012).   %
     %                                                                      %
     %%%%%%%%%%%%%%%%%%%%%%%%%%%%%%%%%%%%%%%%%%%%%%%%%%%%%%%%%%%%%%%%%%%%%%%%

     Adding external electric field

     Computed dipole along edir(3) :
        Dipole               -4.6263 Ry au,        -11.7589 Debye
        Dipole field         -0.0087 Ry au,

        Potential amp.        0.8093 Ry
        Total length         46.3494 bohr

     Starting wfcs are  295 atomic wfcs
  @ DRIVER MODE: Message from server: STATUS
  @ DRIVER MODE: Message from server: POSDATA
  @ DRIVER MODE: Reading and sharing cell
  @ DRIVER MODE: Reading and sharing positions
  @ DRIVER MODE: Received positions

     Self-consistent Calculation

     iteration #  1     ecut=    29.40 Ry     beta= 0.05
     Davidson diagonalization with overlap
     c_bands:  4 eigenvalues not converged
     c_bands:  2 eigenvalues not converged
     c_bands:  2 eigenvalues not converged
     c_bands:  4 eigenvalues not converged
     c_bands:  4 eigenvalues not converged
     c_bands:  2 eigenvalues not converged
     c_bands:  3 eigenvalues not converged
     c_bands:  2 eigenvalues not converged
     ethr =  1.00E-05,  avg # of iterations = 19.8

[...]

     total energy              =   -2877.02384964 Ry
     estimated scf accuracy    <     485.37724222 Ry

     iteration #  2     ecut=    29.40 Ry     beta= 0.05
     Davidson diagonalization with overlap
     ethr =  1.00E-02,  avg # of iterations = 13.7

[...]

     iteration # 30     ecut=    29.40 Ry     beta= 0.05
     Davidson diagonalization with overlap
     c_bands:  1 eigenvalues not converged
     ethr =  1.55E-06,  avg # of iterations =  9.0

[...]

     total energy              =   -2919.13271631 Ry
     estimated scf accuracy    <       0.00000008 Ry

     iteration # 61     ecut=    29.40 Ry     beta= 0.05
     Davidson diagonalization with overlap
     ethr =  2.02E-11,  avg # of iterations =  3.1

     negative rho (up, down):  1.771E-02 0.000E+00

     Adding external electric field

     Computed dipole along edir(3) :
        Dipole                0.2501 Ry au,          0.6357 Debye
        Dipole field          0.0005 Ry au,

        Potential amp.       -0.0438 Ry
        Total length         46.3494 bohr

     End of self-consistent calculation

          k = 0.0000 0.0000 0.0000 ( 18029 PWs)   bands (ev):

   -56.8990 -56.8654 -56.0123 -56.0030 -55.9772 -55.9705 -55.8627 -55.8269
   -55.6454 -55.6102 -55.5613 -55.5395 -55.5274 -55.4416 -54.9965 -54.9439
   -33.3266 -33.1734 -33.1453 -33.0755 -32.9844 -32.9527 -32.4858 -32.4765
   -32.4056 -32.2983 -32.2527 -32.2259 -32.2108 -32.1868 -32.1539 -32.1509
   -32.1435 -32.1412 -32.1170 -32.1096 -32.1027 -32.0711 -32.0450 -32.0299
   -32.0162 -31.9990 -31.9905 -31.9670 -31.9534 -31.9000 -31.8771 -31.8758
   -31.7843 -31.7832 -31.7722 -31.7149 -31.7117 -31.6887 -31.6695 -31.6479
   -31.6236 -31.5778 -31.5190 -31.2398 -31.2211 -31.1935 -31.1652 -31.0469
   -17.0611 -16.6216 -16.3907 -16.2603 -16.1890 -16.1384 -16.0909 -15.9640
   -15.8929 -15.8895 -15.8523 -15.8130 -15.7450 -15.6056 -15.5082 -15.4487
   -15.4055 -15.2857 -15.2285 -15.1919 -15.1840 -15.1533 -15.1332 -14.9355
   -14.9131 -14.8173 -14.8002 -14.6765 -14.4491 -14.0596 -13.9496 -13.0851
    -7.7870  -4.6274  -4.1178  -3.8751  -3.7926  -3.6822  -3.6748  -3.5923
    -3.4786  -3.4278  -3.3822  -3.2665  -3.2623  -3.1168  -3.1018  -3.0738
    -3.0675  -3.0292  -2.9800  -2.9514  -2.8983  -2.8903  -2.8881  -2.7356
    -2.6383  -2.5685  -2.5459  -2.5288  -2.5007  -2.4084  -2.4036  -2.3889
    -2.3853  -2.2901  -2.1403  -2.1298  -2.0962  -2.0601  -2.0564  -2.0112
    -2.0027  -1.8463  -1.8023  -1.6858  -1.6738  -1.6391  -1.5729  -1.5692
    -1.4534  -1.3979  -1.3518  -1.3066  -1.1996  -1.1548  -1.1259  -1.0372
    -0.9765  -0.9395  -0.9206  -0.9013  -0.7930  -0.7865  -0.7702  -0.6794
    -0.6735  -0.6232  -0.5337  -0.5107  -0.5087  -0.4183  -0.4102  -0.3117
    -0.2776  -0.2249  -0.1948  -0.1148  -0.0842   0.0200   0.0585   0.0741
     0.2040   0.2193   0.2774   0.3443   0.4008   0.4444   0.4605   0.4949
     0.5040   0.5971   0.7050   0.7071   0.8188   0.8560   1.0134   1.0522
     1.3496   1.3592   2.0232   2.3761   2.5367   2.8350   3.0294   3.1421
     3.3526   3.3666   3.3723   3.5526   3.6009

[...]

          k = 0.0380-0.0419 0.0000 ( 17876 PWs)   bands (ev):

[...]

          k =-0.0760-0.0000 0.0000 ( 17886 PWs)   bands (ev):

[...]

          k =-0.0760-0.0839 0.0000 ( 17948 PWs)   bands (ev):

   -56.8823 -56.8820 -55.9961 -55.9918 -55.9876 -55.9872 -55.8477 -55.8418
   -55.6304 -55.6251 -55.5443 -55.5442 -55.5363 -55.4447 -54.9897 -54.9506
   -33.1593 -33.1590 -33.1436 -33.1433 -33.0286 -33.0283 -32.3155 -32.3130
   -32.3004 -32.2951 -32.2426 -32.2412 -32.1986 -32.1980 -32.1975 -32.1939
   -32.1860 -32.1834 -32.1824 -32.1805 -32.0996 -32.0945 -32.0483 -32.0445
   -31.9821 -31.9743 -31.9128 -31.9070 -31.8889 -31.8888 -31.8673 -31.8292
   -31.8279 -31.7938 -31.7698 -31.7696 -31.7609 -31.7307 -31.7306 -31.7098
   -31.6865 -31.6500 -31.3844 -31.3039 -31.2178 -31.1864 -31.1718 -31.1311
   -16.4092 -16.4072 -16.3755 -16.3752 -16.1043 -16.1007 -16.0515 -16.0494
   -15.8775 -15.8697 -15.6653 -15.6560 -15.6497 -15.6461 -15.5183 -15.5113
   -15.4475 -15.4346 -15.3463 -15.3394 -15.2784 -15.2721 -15.2356 -15.2142
   -14.8971 -14.8912 -14.7688 -14.7557 -14.6044 -14.0531 -14.0531 -13.1018
    -7.7775  -3.5082  -3.5074  -3.4412  -3.4403  -3.3154  -3.3087  -3.2397
    -3.2391  -3.1330  -3.1292  -3.0738  -2.9976  -2.9916  -2.9883  -2.9764
    -2.9521  -2.8360  -2.8334  -2.8207  -2.8057  -2.7542  -2.7517  -2.7360
    -2.6570  -2.6413  -2.6101  -2.5660  -2.4656  -2.4493  -2.4330  -2.4060
    -2.3485  -2.3362  -2.3227  -2.2772  -2.2552  -2.1545  -2.1062  -2.0639
    -1.9440  -1.9414  -1.9316  -1.9145  -1.7669  -1.7298  -1.6988  -1.6920
    -1.6832  -1.6335  -1.5420  -1.5337  -1.3993  -1.3946  -1.3228  -1.2396
    -1.2206  -1.1919  -1.0599  -1.0121  -0.9801  -0.9737  -0.9540  -0.9247
    -0.8963  -0.8694  -0.7246  -0.7057  -0.6812  -0.6435  -0.6310  -0.5760
    -0.5282  -0.4481  -0.3684  -0.3675  -0.2867  -0.2428  -0.1789  -0.0962
    -0.0846  -0.0782   0.2019   0.2796   0.3720   0.4566   0.5196   0.5830
     0.6066   0.6720   0.7042   0.8415   0.8447   0.8612   0.8614   0.9285
     0.9332   1.3308   1.9172   2.9499   2.9502   3.0176   3.0180   3.3416
     3.3471   3.4565   3.4659   3.5818   3.5838

     the Fermi energy is     2.2108 ev

!    total energy              =   -2919.13275087 Ry
     estimated scf accuracy    <       0.00000007 Ry
     smearing contrib. (-TS)   =      -0.00465395 Ry
     internal energy E=F+TS    =   -2919.12809692 Ry

     The total energy is F=E-TS. E is the sum of the following terms:
     one-electron contribution =  -24579.01384243 Ry
     hartree contribution      =   12373.68749597 Ry
     xc contribution           =    -479.89305346 Ry
     ewald contribution        =    9766.09118496 Ry
     electric field correction =       0.00011805 Ry

     convergence has been achieved in  61 iterations

     Forces acting on atoms (cartesian axes, Ry/au):

     atom    1 type  1   force =    -0.00002655   -0.00045624    0.12460768
     atom    2 type  1   force =    -0.00012237   -0.00051890   -0.16053935
     atom    3 type  2   force =     0.00015835   -0.00014271   -0.06866417
     atom    4 type  2   force =    -0.00004311   -0.00017643    0.02745040
     atom    5 type  2   force =    -0.01664267    0.00229770   -0.00876808
     atom    6 type  2   force =     0.01809823    0.00296145   -0.00972005
     atom    7 type  1   force =     0.00058213   -0.00361083    0.02217434
     atom    8 type  1   force =    -0.00015016   -0.00291747    0.11212538
     atom    9 type  2   force =     0.00048022   -0.00002649   -0.00025243
     atom   10 type  2   force =    -0.00265971    0.00369121   -0.07361715
     atom   11 type  2   force =     0.00131425   -0.00058640   -0.00041566
     atom   12 type  2   force =    -0.00056371   -0.00105637   -0.00076572
     atom   13 type  1   force =     0.00030814   -0.00067689    0.00068240
     atom   14 type  1   force =    -0.00082550   -0.00056911    0.00003632
     atom   15 type  2   force =    -0.00030225   -0.00010992    0.00000667
     atom   16 type  2   force =     0.00028452    0.00011873   -0.00051990
     atom   17 type  2   force =     0.00024251   -0.00019590   -0.00015495
     atom   18 type  2   force =    -0.00046265   -0.00035695   -0.00048897
     atom   19 type  1   force =     0.00059879   -0.00039479   -0.00013848
     atom   20 type  1   force =    -0.00009332   -0.00033638   -0.00020695
     atom   21 type  2   force =     0.00005970   -0.00006317    0.09972113
     atom   22 type  2   force =     0.00006276   -0.00032694    0.00047179
     atom   23 type  2   force =    -0.07927374   -0.00009356   -0.03248546
     atom   24 type  2   force =     0.07914633    0.00035471   -0.03250525
     atom   25 type  1   force =     0.00002033   -0.00047964    0.12408928
     atom   26 type  1   force =    -0.00015130   -0.00045226   -0.16062224
     atom   27 type  2   force =     0.00029136   -0.00031719   -0.06767805
     atom   28 type  2   force =    -0.00002542   -0.00001441    0.02721651
     atom   29 type  2   force =    -0.01710517    0.00187689   -0.00887597
     atom   30 type  2   force =     0.01843961    0.00225954   -0.00977431
     atom   31 type  1   force =     0.00059387   -0.00091953    0.02172436
     atom   32 type  1   force =    -0.00010670    0.00052706    0.11256065
     atom   33 type  2   force =     0.00026381   -0.00063974   -0.00044047
     atom   34 type  2   force =    -0.00273145    0.00315912   -0.07278553
     atom   35 type  2   force =    -0.00108966    0.00023386    0.00018130
     atom   36 type  2   force =     0.00084423    0.00008374    0.00029762
     atom   37 type  1   force =    -0.00009033   -0.00004493   -0.00016159
     atom   38 type  1   force =     0.00088352   -0.00028685   -0.00016097
     atom   39 type  2   force =    -0.00009083   -0.00051191    0.00009049
     atom   40 type  2   force =     0.00007475   -0.00012560   -0.00010188
     atom   41 type  2   force =     0.00022307   -0.00045469   -0.00009616
     atom   42 type  2   force =    -0.00005329   -0.00013078   -0.00059450
     atom   43 type  1   force =     0.00013431    0.00067746    0.00064398
     atom   44 type  1   force =    -0.00056842   -0.00038826   -0.00034327
     atom   45 type  2   force =     0.00004549   -0.00006816    0.09974007
     atom   46 type  2   force =    -0.07928079   -0.00004625   -0.03247607
     atom   47 type  2   force =     0.07915433    0.00039623   -0.03249246
     atom   48 type  3   force =     0.00088548   -0.00054878    0.00159646
     atom   49 type  4   force =     0.00974193    0.00021283    0.00069520
     atom   50 type  5   force =     0.00070526   -0.00005484   -0.00004162
     atom   51 type  5   force =     0.00055591   -0.00045068    0.00038739
     atom   52 type  5   force =    -0.01173410   -0.00030057   -0.00061179

     Total force =     0.425847     Total SCF correction =     0.000653
  @ DRIVER MODE: Message from server: STATUS
  @ DRIVER MODE: Message from server: GETFORCE
  @ DRIVER MODE: Returning v,forces,stress,ensemble

     Writing output data file ./calc.save/
  @ DRIVER MODE: Message from server: EXIT
  @ DRIVE MODE: Exiting

     General routines

     Parallel routines

   This run was terminated on:  17:31:36   2Aug2021

   JOB DONE.