     Program PWSCF v.6.8 starts on 30Aug2021 at 14:39:27

     R & G space division:  proc/nbgrp/npool/nimage =      24

     Reading input from /storage/home/hcoda1/3/ntian30/research/carbon/methanol/ads_slab/CH3OHN2_n/methanol.log/pw.inp
Warning: card &CELL ignored
Warning: card   CELL_DYNAMICS='IPI', ignored
Warning: card / ignored

     Current dimensions of program PWSCF are:
     Max number of different atomic species (ntypx) = 10
     Max number of k-points (npk) =  40000
     Max angular momentum in pseudopotentials (lmaxx) =  4
     Presently no symmetry can be used with electric field

     Message from routine cell_base_init:
     DEPRECATED: use true lattice parameter, not A to a.u. conversion factor

     IMPORTANT: XC functional enforced from input :
     Exchange-correlation= BEEF-VDW
                           (   1   4  43  14   2   0   0)
     Any further DFT definition will be discarded
     Please, verify this is what you really want

  @ DRIVER MODE: Connecting to
 qe_1139763_2685218.sched-torque.pace.gatech.edu1dkt2d1m_scratch
  using UNIX socket
  @ DRIVER MODE: Message from server: STATUS
  @ DRIVER MODE: Message from server: INIT
  @ DRIVER MODE: Receiving replica           0          -1
  @ DRIVER MODE: Receiving encoded integer          25
  @ DRIVER MODE:  SCF:  T  FORCE:  T  STRESS:  F  VC:  F  ENSEMBLE:  F
  @ DRIVER MODE:  SCF:  T  FORCE:  T  STRESS:  F  VC:  F  ENSEMBLE:  F

     Using Slab Decomposition

     bravais-lattice index     =            0
     lattice parameter (alat)  =       1.8897  a.u.
     unit-cell volume          =    6658.9804 (a.u.)^3
     number of atoms/cell      =           55
     number of atomic types    =            5
     number of electrons       =       402.00
     number of Kohn-Sham states=          211
     kinetic-energy cutoff     =      29.3995  Ry
     charge density cutoff     =     293.9946  Ry
     scf convergence threshold =      7.3E-08
     mixing beta               =       0.0500
     number of iterations used =            8  plain     mixing
     Exchange-correlation= BEEF-VDW
                           (   1   4  43  14   2   0   0)

     celldm(1)=   1.889726  celldm(2)=   0.000000  celldm(3)=   0.000000
     celldm(4)=   0.000000  celldm(5)=   0.000000  celldm(6)=   0.000000

     crystal axes: (cart. coord. in units of alat)
               a(1) = (   6.579727   0.000000   0.000000 )
               a(2) = (  -0.000775   5.961596   0.000000 )
               a(3) = (   0.000000   0.000000  25.155947 )

     reciprocal axes: (cart. coord. in units 2 pi/alat)
               b(1) = (  0.151982  0.000020  0.000000 )
               b(2) = (  0.000000  0.167740  0.000000 )
               b(3) = (  0.000000  0.000000  0.039752 )

     PseudoPot. # 1 for Ti read from file:
     /storage/coda1/p-amedford6/0/shared/rich_project_chbe-medford/medford-share/data/pseudos_module/espresso/nninc/pbe/van/Ti.UPF
     MD5 check sum: 8e4df49b7f0d34bbd5052bf3f5ea0213
     Pseudo is Ultrasoft, Zval = 12.0
     Generated by new atomic code, or converted to UPF format
     Using radial grid of  851 points,  6 beta functions with:
                l(1) =   0
                l(2) =   0
                l(3) =   1
                l(4) =   1
                l(5) =   2
                l(6) =   2
     Q(r) pseudized with  8 coefficients,  rinner =    1.000   1.000   1.000
                                                       1.000   1.000

     PseudoPot. # 2 for O  read from file:
     /storage/coda1/p-amedford6/0/shared/rich_project_chbe-medford/medford-share/data/pseudos_module/espresso/nninc/pbe/van/O.UPF
     MD5 check sum: 78c19812648e8988a0fe644b0f25305e
     Pseudo is Ultrasoft, Zval =  6.0
     Generated by new atomic code, or converted to UPF format
     Using radial grid of  737 points,  4 beta functions with:
                l(1) =   0
                l(2) =   0
                l(3) =   1
                l(4) =   1
     Q(r) pseudized with  8 coefficients,  rinner =    0.800   0.800   0.800

     PseudoPot. # 3 for C  read from file:
     /storage/coda1/p-amedford6/0/shared/rich_project_chbe-medford/medford-share/data/pseudos_module/espresso/nninc/pbe/van/C.UPF
     MD5 check sum: 1a69bf6b8db32088f5b2163dbdb77a27
     Pseudo is Ultrasoft, Zval =  4.0
     Generated by new atomic code, or converted to UPF format
     Using radial grid of  721 points,  4 beta functions with:
                l(1) =   0
                l(2) =   0
                l(3) =   1
                l(4) =   1
     Q(r) pseudized with  8 coefficients,  rinner =    0.800   0.800   0.800

     PseudoPot. # 4 for H  read from file:
     /storage/coda1/p-amedford6/0/shared/rich_project_chbe-medford/medford-share/data/pseudos_module/espresso/nninc/pbe/van/H.UPF
     MD5 check sum: b5ee9d7bfd3a09ee7748110bda690ff7
     Pseudo is Ultrasoft, Zval =  1.0
     Generated by new atomic code, or converted to UPF format
     Using radial grid of  615 points,  1 beta functions with:
                l(1) =   0
     Q(r) pseudized with  8 coefficients,  rinner =    0.800

     PseudoPot. # 5 for N  read from file:
     /storage/coda1/p-amedford6/0/shared/rich_project_chbe-medford/medford-share/data/pseudos_module/espresso/nninc/pbe/van/N.UPF
     MD5 check sum: 90d10febe142ad51ac9d5be1deb811c4
     Pseudo is Ultrasoft, Zval =  5.0
     Generated by new atomic code, or converted to UPF format
     Using radial grid of  729 points,  4 beta functions with:
                l(1) =   0
                l(2) =   0
                l(3) =   1
                l(4) =   1
     Q(r) pseudized with  8 coefficients,  rinner =    0.800   0.800   0.800

     atomic species   valence    mass     pseudopotential
        Ti1           12.00    47.86700     Ti( 1.00)
        O1             6.00    15.99900     O ( 1.00)
        C1             4.00    12.01100     C ( 1.00)
        H1             1.00     1.00800     H ( 1.00)
        N1             5.00    14.00700     N ( 1.00)

     No symmetry found

   Cartesian axes

     site n.     atom                  positions (alat units)
         1           Ti1 tau(   1) = (   0.0004258   2.9801865   6.0000000  )
         2           Ti1 tau(   2) = (   3.2906075   1.4906267   6.0002472  )
         3           O1  tau(   3) = (   0.0006271   0.0005054   7.9858123  )
         4           O1  tau(   4) = (   3.2906025   0.0005020   7.3038282  )
         5           O1  tau(   5) = (   4.5942328   1.4918067   9.2879030  )
         6           O1  tau(   6) = (   1.9868534   1.4903216   9.2879459  )
         7           Ti1 tau(   7) = (   3.3021192   3.0013726   9.1559606  )
         8           Ti1 tau(   8) = (   0.0193113   1.4897290   9.2589557  )
         9           O1  tau(   9) = (   3.2722964   0.0091792  11.3883460  )
        10           O1  tau(  10) = (   6.5758979   0.0018863  10.6213819  )
        11           O1  tau(  11) = (   1.2686513   1.5214143  12.6543571  )
        12           O1  tau(  12) = (   5.2747919   1.5203212  12.6462517  )
        13           Ti1 tau(  13) = (   6.5523151   2.9997954  12.4875151  )
        14           Ti1 tau(  14) = (   3.2568535   1.5191218  12.5298849  )
        15           O1  tau(  15) = (   6.5502494   0.1428195  14.7146693  )
        16           O1  tau(  16) = (   3.2696560   0.0432880  14.0033951  )
        17           O1  tau(  17) = (   4.5205468   1.5018975  16.2537626  )
        18           O1  tau(  18) = (   2.0094599   1.5006194  16.2381262  )
        19           Ti1 tau(  19) = (   3.2645096   2.9931572  15.7781393  )
        20           Ti1 tau(  20) = (   6.5536469   1.4235375  16.1373887  )
        21           O1  tau(  21) = (   3.2904802   0.0005063   4.7018136  )
        22           O1  tau(  22) = (   6.5593633   5.7877869  17.2527805  )
        23           O1  tau(  23) = (   1.3043587   1.4918075   6.0039043  )
        24           O1  tau(  24) = (   5.2767064   1.4903225   6.0039473  )
        25           Ti1 tau(  25) = (   0.0000382   5.9609847   6.0000000  )
        26           Ti1 tau(  26) = (   3.2902200   4.4714249   6.0002472  )
        27           O1  tau(  27) = (   0.0002396   2.9813036   7.9858123  )
        28           O1  tau(  28) = (   3.2902150   2.9813002   7.3038282  )
        29           O1  tau(  29) = (   4.5938453   4.4726049   9.2879030  )
        30           O1  tau(  30) = (   1.9864658   4.4711199   9.2879459  )
        31           Ti1 tau(  31) = (   3.3070864   0.0186050   9.1555137  )
        32           Ti1 tau(  32) = (   0.0189529   4.4785929   9.2579079  )
        33           O1  tau(  33) = (   3.2721460   3.0134182  11.3841444  )
        34           O1  tau(  34) = (   6.5743747   2.9972075  10.6293231  )
        35           O1  tau(  35) = (   1.2644736   4.4871391  12.7149656  )
        36           O1  tau(  36) = (   5.2793800   4.4878911  12.7080014  )
        37           Ti1 tau(  37) = (   6.5510435   0.0349511  12.4990712  )
        38           Ti1 tau(  38) = (   3.2571354   4.4984972  12.5427853  )
        39           O1  tau(  39) = (   6.5520331   2.9333915  15.0371926  )
        40           O1  tau(  40) = (   3.2721801   2.9735564  13.9862719  )
        41           O1  tau(  41) = (   4.5203875   4.4744495  16.1258944  )
        42           O1  tau(  42) = (   2.0073924   4.4721670  16.1212407  )
        43           Ti1 tau(  43) = (   3.2631111   0.0168914  15.8037529  )
        44           Ti1 tau(  44) = (   6.5463548   4.6605216  15.8078345  )
        45           O1  tau(  45) = (   3.2900926   2.9813045   4.7018136  )
        46           O1  tau(  46) = (   1.3039711   4.4726057   6.0039043  )
        47           O1  tau(  47) = (   5.2763189   4.4711207   6.0039473  )
        48           C1  tau(  48) = (   6.5242992   2.1809267  19.4465401  )
        49           O1  tau(  49) = (   0.0148260   2.7438948  18.1184794  )
        50           H1  tau(  50) = (   6.5092154   1.1023238  19.3286493  )
        51           H1  tau(  51) = (   0.0606026   3.7146365  18.1979091  )
        52           H1  tau(  52) = (   0.8216107   2.4782675  20.0256770  )
        53           H1  tau(  53) = (   5.6140840   2.5129912  19.9496412  )
        54           N1  tau(  54) = (   3.2631111   0.0168914  19.1037529  )
        55           N1  tau(  55) = (   3.2631111   0.0168914  17.9737729  )

     number of k points=    10  Fermi-Dirac smearing, width (Ry)=  0.0073
                       cart. coord. in units 2pi/alat
        k(    1) = (   0.0000000   0.0000000   0.0000000), wk =   0.1250000
        k(    2) = (   0.0000000   0.0419351   0.0000000), wk =   0.2500000
        k(    3) = (   0.0000000  -0.0838702   0.0000000), wk =   0.1250000
        k(    4) = (   0.0379955   0.0000049   0.0000000), wk =   0.2500000
        k(    5) = (   0.0379955   0.0419400   0.0000000), wk =   0.2500000
        k(    6) = (   0.0379955  -0.0838652   0.0000000), wk =   0.2500000
        k(    7) = (   0.0379955  -0.0419301   0.0000000), wk =   0.2500000
        k(    8) = (  -0.0759910  -0.0000099   0.0000000), wk =   0.1250000
        k(    9) = (  -0.0759910   0.0419252   0.0000000), wk =   0.2500000
[...]
     atom   19 type  1   force =    -0.00045911   -0.00017776   -0.00223325
     atom   20 type  1   force =    -0.00002818    0.00178025   -0.00140105
     atom   21 type  2   force =     0.00010154    0.00000970    0.10510653
     atom   22 type  2   force =    -0.00010328   -0.00014714    0.00188084
     atom   23 type  2   force =    -0.06767464   -0.00050179   -0.02616578
     atom   24 type  2   force =     0.06760600   -0.00005978   -0.02622585
     atom   25 type  1   force =    -0.00008097    0.00010175    0.08889895
     atom   26 type  1   force =    -0.00003636   -0.00032430   -0.18417267
     atom   27 type  2   force =     0.00028760   -0.00006603   -0.02169283
     atom   28 type  2   force =     0.00031271    0.00046904    0.05145603
     atom   29 type  2   force =    -0.01391340    0.00082830    0.00513471
     atom   30 type  2   force =     0.01279234    0.00086997    0.00454234
     atom   31 type  1   force =    -0.00004024   -0.00008880    0.00110648
     atom   32 type  1   force =     0.00048824   -0.00056999    0.00034664
     atom   33 type  2   force =     0.00019298   -0.00005883   -0.00069374
     atom   34 type  2   force =    -0.00010181   -0.00017850   -0.00023555
     atom   35 type  2   force =    -0.00102822   -0.00008977   -0.00037958
     atom   36 type  2   force =     0.00078663   -0.00008077   -0.00018739
     atom   37 type  1   force =     0.00066435   -0.00039759    0.00101327
     atom   38 type  1   force =    -0.00048014    0.00469798    0.00327516
     atom   39 type  2   force =     0.00013726    0.00075801   -0.00073697
     atom   40 type  2   force =     0.00005710    0.00003765   -0.00078295
     atom   41 type  2   force =     0.00734856   -0.01187296   -0.00988057
     atom   42 type  2   force =    -0.00678114   -0.01188471   -0.00972340
     atom   43 type  1   force =    -0.00085047   -0.00123670    0.00361001
     atom   44 type  1   force =     0.00000024   -0.00184890   -0.00093995
     atom   45 type  2   force =     0.00010578   -0.00002515    0.10504697
     atom   46 type  2   force =    -0.06766785   -0.00020124   -0.02613202
     atom   47 type  2   force =     0.06762130    0.00025127   -0.02619111
     atom   48 type  3   force =     0.00030550   -0.00143864    0.00279993
     atom   49 type  2   force =     0.00023559    0.00072930   -0.00163510
     atom   50 type  4   force =    -0.00012786    0.00044509   -0.00061011
     atom   51 type  4   force =     0.00000190    0.00035119   -0.00001015
     atom   52 type  4   force =    -0.00024425   -0.00036103   -0.00022026
     atom   53 type  4   force =    -0.00063819   -0.00001365    0.00007923
     atom   54 type  5   force =    -0.00000784    0.00129246   -0.11347129
     atom   55 type  5   force =    -0.00059955   -0.00695436    0.17505694

     Total force =     0.424362     Total SCF correction =     0.001138
  @ DRIVER MODE: Message from server: STATUS
  @ DRIVER MODE: Message from server: GETFORCE
  @ DRIVER MODE: Returning v,forces,stress,ensemble

     Writing config to output data dir ./calc.save/
  @ DRIVER MODE: Message from server: STATUS
  @ DRIVER MODE: Message from server: INIT
  @ DRIVER MODE: Receiving replica           0           0
  @ DRIVER MODE: Receiving encoded integer          25
  @ DRIVER MODE:  SCF:  T  FORCE:  T  STRESS:  F  VC:  F  ENSEMBLE:  F
  @ DRIVER MODE:  SCF:  T  FORCE:  T  STRESS:  F  VC:  F  ENSEMBLE:  F
  @ DRIVER MODE: Message from server: STATUS
  @ DRIVER MODE: Message from server: POSDATA
  @ DRIVER MODE: Reading and sharing positions
  @ DRIVER MODE: Received positions
     NEW-OLD atomic charge density approx. for the potential

[...]

     Self-consistent Calculation

[...]

     iteration # 15     ecut=    29.40 Ry     beta= 0.05
     Davidson diagonalization with overlap
     c_bands:  1 eigenvalues not converged
     ethr =  5.84E-11,  avg # of iterations = 15.5

[...]

     total energy              =   -2972.81573421 Ry
     estimated scf accuracy    <       0.00000008 Ry

     iteration # 17     ecut=    29.40 Ry     beta= 0.05
     Davidson diagonalization with overlap
     ethr =  2.10E-11,  avg # of iterations = 13.2

[...]

     End of self-consistent calculation

[...]

          k = 0.0380-0.0419 0.0000 ( 17876 PWs)   bands (ev):

[...]

          k =-0.0760-0.0839 0.0000 ( 17948 PWs)   bands (ev):

   -55.2705 -55.2656 -55.2595 -55.2207 -55.2206 -55.1621 -55.1417 -55.1383
   -55.1098 -55.1067 -55.1013 -55.0465 -55.0376 -54.9722 -54.3241 -54.3240
   -31.7312 -31.6528 -31.6478 -31.5545 -31.5525 -31.5524 -31.5424 -31.5131
   -31.5123 -31.4943 -31.4902 -31.4842 -31.4800 -31.4773 -31.4600 -31.4283
   -31.4261 -31.4239 -31.4236 -31.4227 -31.4071 -31.3982 -31.3857 -31.3738
   -31.3683 -31.3627 -31.3624 -31.3584 -31.3549 -31.3392 -31.3392 -31.3372
   -31.3306 -31.3095 -31.3070 -31.2846 -31.2807 -31.2716 -31.2388 -31.2305
   -31.2232 -31.1813 -30.6413 -30.6411 -30.5663 -30.5661 -30.5267 -30.5265
   -21.6702 -19.3960 -15.6814 -15.5017 -15.4557 -15.3298 -15.3129 -15.2535
   -15.2356 -15.1285 -15.0755 -15.0666 -15.0599 -15.0245 -15.0108 -14.9821
   -14.9611 -14.9048 -14.8897 -14.8851 -14.8501 -14.8075 -14.7998 -14.7948
   -14.7929 -14.7602 -14.7552 -14.7202 -14.7142 -14.6475 -14.4947 -12.8232
   -12.8229 -10.5980  -6.9216  -6.3634  -4.8575  -4.8263  -4.4030  -4.3402
    -3.6680  -2.7982  -2.7754  -2.7082  -2.5496  -2.5137  -2.4754  -2.4393
    -2.4032  -2.3513  -2.3097  -2.2807  -2.2716  -2.2025  -2.1976  -2.1844
    -2.1757  -2.1684  -2.1039  -2.0898  -2.0438  -2.0161  -2.0089  -2.0002
    -1.9933  -1.9608  -1.9530  -1.9461  -1.9062  -1.8914  -1.8850  -1.8704
    -1.7598  -1.6721  -1.6495  -1.5654  -1.5169  -1.5137  -1.4324  -1.4050
    -1.3581  -1.3498  -1.3050  -1.2086  -1.0830  -1.0804  -1.0596  -1.0408
    -0.9375  -0.9202  -0.8454  -0.8188  -0.7811  -0.7575  -0.7390  -0.5943
    -0.5692  -0.5093  -0.4870  -0.4670  -0.3866  -0.3332  -0.2902  -0.2721
    -0.2718  -0.2283  -0.2204  -0.1118  -0.0828  -0.0355  -0.0238  -0.0144
     0.0335   0.2096   0.2298   0.2450   0.3693   0.3937   0.5597   0.6114
     0.6513   0.7635   0.7853   0.7942   0.8317   0.9678   0.9832   1.0271
     1.0803   1.0947   1.1318   1.1390   2.0349   2.0367   2.1412   2.1421
     3.9747   4.0566   4.1002   4.1179   4.2033   4.2519   4.3220   4.3455
     4.3737   4.3780   4.4500

     the Fermi energy is     3.8776 ev

!    total energy              =   -2972.81573675 Ry
     estimated scf accuracy    <       0.00000006 Ry
     smearing contrib. (-TS)   =      -0.03714571 Ry
     internal energy E=F+TS    =   -2972.77859103 Ry

     The total energy is F=E-TS. E is the sum of the following terms:
     one-electron contribution =  -23103.31658834 Ry
     hartree contribution      =   11647.28588989 Ry
     xc contribution           =    -493.21304729 Ry
     ewald contribution        =    8976.46236138 Ry
     electric field correction =       0.00279333 Ry

     convergence has been achieved in  17 iterations

     Forces acting on atoms (cartesian axes, Ry/au):

     atom    1 type  1   force =    -0.00020212   -0.00002653    0.09152613
     atom    2 type  1   force =    -0.00009498    0.00061614   -0.18402500
     atom    3 type  2   force =     0.00064455    0.00133348   -0.02299727
     atom    4 type  2   force =     0.00090053    0.00041257    0.05195826
     atom    5 type  2   force =    -0.01352703    0.00033817    0.00635468
     atom    6 type  2   force =     0.01321746   -0.00017464    0.00595860
     atom    7 type  1   force =    -0.00055345    0.00005074   -0.00028841
     atom    8 type  1   force =    -0.00034516    0.00029571   -0.00024554
     atom    9 type  2   force =     0.00010394   -0.00005869   -0.00076377
     atom   10 type  2   force =    -0.00006086   -0.00001686   -0.00032302
     atom   11 type  2   force =     0.00011575    0.00021751   -0.00021775
     atom   12 type  2   force =    -0.00012435    0.00023029   -0.00019028
     atom   13 type  1   force =     0.00014939    0.00031111   -0.00030783
     atom   14 type  1   force =     0.00002675   -0.00053772    0.00047029
     atom   15 type  2   force =    -0.00002394    0.00080213    0.00036020
     atom   16 type  2   force =    -0.00002079    0.00000723    0.00071261
     atom   17 type  2   force =     0.00005327    0.00014600    0.00012661
     atom   18 type  2   force =     0.00002745    0.00009076    0.00024811
     atom   19 type  1   force =    -0.00003612    0.00014938   -0.00007010
     atom   20 type  1   force =    -0.00016362   -0.00034794    0.00004840
     atom   21 type  2   force =     0.00007100    0.00011707    0.10509878
     atom   22 type  2   force =     0.00011532   -0.00003513   -0.00060455
     atom   23 type  2   force =    -0.06773618   -0.00036842   -0.02628055
     atom   24 type  2   force =     0.06764943    0.00008885   -0.02635107
     atom   25 type  1   force =    -0.00027695    0.00008584    0.09038204
     atom   26 type  1   force =    -0.00017138   -0.00054320   -0.18401858
     atom   27 type  2   force =     0.00061940   -0.00046277   -0.02187916
     atom   28 type  2   force =     0.00090946    0.00049216    0.05196187
     atom   29 type  2   force =    -0.01410456    0.00058866    0.00493691
     atom   30 type  2   force =     0.01394006    0.00009798    0.00447538
     atom   31 type  1   force =    -0.00054184   -0.00046109    0.00001083
     atom   32 type  1   force =    -0.00036252   -0.00031055   -0.00023067
     atom   33 type  2   force =     0.00005917   -0.00021313   -0.00032675
     atom   34 type  2   force =    -0.00003108    0.00014292   -0.00031136
     atom   35 type  2   force =    -0.00004456   -0.00018931   -0.00016420
     atom   36 type  2   force =     0.00009109   -0.00025586   -0.00010123
     atom   37 type  1   force =     0.00008460   -0.00065609   -0.00012038
     atom   38 type  1   force =     0.00007717   -0.00013303    0.00076972
     atom   39 type  2   force =     0.00011314   -0.00033788   -0.00029627
     atom   40 type  2   force =     0.00004737   -0.00061145    0.00023347
     atom   41 type  2   force =     0.00003889   -0.00072142   -0.00010124
     atom   42 type  2   force =    -0.00014404   -0.00066179   -0.00013756
     atom   43 type  1   force =     0.00005010   -0.00064929   -0.00003967
     atom   44 type  1   force =    -0.00013202    0.00120146    0.00040112
     atom   45 type  2   force =     0.00007377    0.00009110    0.10501538
     atom   46 type  2   force =    -0.06772772   -0.00015808   -0.02625341
     atom   47 type  2   force =     0.06768063    0.00030031   -0.02633851
     atom   48 type  3   force =    -0.00044793   -0.00070986    0.00149246
     atom   49 type  2   force =     0.00013282    0.00001902   -0.00028269
     atom   50 type  4   force =    -0.00011443    0.00053849    0.00032840
     atom   51 type  4   force =     0.00016244   -0.00008622    0.00027187
     atom   52 type  4   force =    -0.00023272    0.00005392    0.00012156
     atom   53 type  4   force =     0.00007093    0.00009954   -0.00011870
     atom   54 type  5   force =     0.00001573    0.00034971   -0.00023323
     atom   55 type  5   force =    -0.00002126   -0.00054128    0.00035505

     Total force =     0.367080     Total SCF correction =     0.001167
  @ DRIVER MODE: Message from server: STATUS
  @ DRIVER MODE: Message from server: GETFORCE
  @ DRIVER MODE: Returning v,forces,stress,ensemble

     Writing config to output data dir ./calc.save/
  @ DRIVER MODE: Message from server: STATUS
  @ DRIVER MODE: Message from server: INIT
  @ DRIVER MODE: Receiving replica           0           0
  @ DRIVER MODE: Receiving encoded integer           2
  @ DRIVER MODE:  SCF:  T  FORCE:  T  STRESS:  F  VC:  F  ENSEMBLE:  F
  @ DRIVER MODE:  SCF:  F  FORCE:  F  STRESS:  F  VC:  F  ENSEMBLE:  T
  @ DRIVER MODE: Message from server: STATUS
  @ DRIVER MODE: Message from server: POSDATA
  @ DRIVER MODE: Reading and sharing positions
  @ DRIVER MODE: Received positions
     NEW-OLD atomic charge density approx. for the potential

[...]

     Adding external electric field

     Computed dipole along edir(3) :
        Dipole                1.2166 Ry au,          3.0924 Debye
        Dipole field          0.0023 Ry au,

        Potential amp.       -0.2128 Ry
        Total length         46.3494 bohr

  @ DRIVER MODE: BEEF-vdw

[...]

     negative rho (up, down):  1.472E-02 0.000E+00

     negative rho (up, down):  1.472E-02 0.000E+00
 BEEFens 2000 ensemble energies
             -0.354107578123627E+02
             -0.204149562626814E+01
             -0.730572874194989E+01
              0.245618481378938E+02
             -0.121731071360538E+02
             -0.940805714338586E+01
             -0.246099378905329E+02
             -0.514186882123081E+02
             -0.219405093932956E+02
             -0.230729241595454E+02
             -0.213789162295436E+02
              0.432024718805637E+01
              0.202870507561676E+01
             -0.109566459186371E+01
              0.177936215659562E+01
              0.270553457483622E+02
             -0.104583264711358E+02
             -0.736124550573956E+01
              0.119573923938095E+02
             -0.632371093978801E+02
              0.316736981230462E+02
             -0.135507218488491E+02
             -0.247636422790220E+01
             -0.572761820543320E+01
             -0.946170099152312E+00
             -0.221777235562854E+01
              0.490675458256517E+02
             -0.152866992807799E+02
             -0.413927549665584E+01
             -0.309969705702682E+02
              0.400763960931624E+02
             -0.443433906218078E+01
             -0.218207540863834E+02
              0.114607003587389E+02
             -0.209343711611371E+01
              0.132830244896020E+02
             -0.551865930138689E+00
              0.277193615322568E+01
              0.193034777067368E+02
             -0.558406743247379E+02
              0.311177529945995E+02
              0.828400261540266E+01
             -0.639637441594678E+01
             -0.178523225289480E+02
              0.704284390364884E+01
             -0.111618742060226E+02
              0.254398121460929E+02
              0.203059559045535E+02
             -0.130802664088728E+02
             -0.167137394060505E+02
             -0.176170035031323E+02
             -0.212432775500143E+02
              0.107842302021025E+02
             -0.276909658593663E+02
              0.848988434776112E+01
              0.353364472997590E+02
              0.407300684640902E+02
              0.189799632378784E+02
              0.852946412148475E+01
              0.177226046634322E+02
[...]
             -0.416549721611444E+02
              0.283842403323456E+01
             -0.143074225131114E+01
             -0.580614898547992E+01
              0.587351619569745E-01
             -0.370904457749326E+02
             -0.716340034504000E+01
              0.506045271521140E+01
              0.755814661003464E+01
              0.277860923850633E+02
             -0.242699584071847E+02
              0.317254960911109E+02
             -0.227030410349242E+02
              0.145998272411117E+02
              0.229883517440161E+02

 BEEF-vdW xc energy contributions
           1 :   -417.762515856236
           2 :    363.666899651188
           3 :   -276.663501981711
           4 :    186.192992184473
           5 :   -115.315356779944
           6 :    72.9265865511041
           7 :   -55.0639456900309
           8 :    51.5767296079842
           9 :   -53.0223877780710
          10 :    54.1844394247832
          11 :   -53.8022686404472
          12 :    52.3478934347397
          13 :   -50.1637336420386
          14 :    46.9703737359874
          15 :   -42.4190927662077
          16 :    36.7400713317289
          17 :   -30.8811251097881
          18 :    26.0731404496117
          19 :   -23.2028920799783
          20 :    22.4235466045233
          21 :   -23.2273397722835
          22 :    24.8234424110225
          23 :   -26.4931517212684
          24 :    27.7032783133598
          25 :   -28.0727597176553
          26 :    27.3756173312951
          27 :   -25.6081046589225
          28 :    23.0283865831963
          29 :   -20.1257392767692
          30 :    17.5076504147530
          31 :   -49.1643044639667
          32 :   -33.3293732308911
  @ DRIVER MODE: Message from server: STATUS
  @ DRIVER MODE: Message from server: GETFORCE
  @ DRIVER MODE: Returning v,forces,stress,ensemble
  @ DRIVE MODE: Returning Ensemble Energies

     Writing config to output data dir ./calc.save/
  @ DRIVER MODE: Message from server: EXIT
  @ DRIVE MODE: Exiting

     General routines

     Parallel routines

   This run was terminated on:  18:31:48  30Aug2021

   JOB DONE.