     Program PWSCF v.6.7GPU starts on 10Sep2021 at 10:47:27

     R & G space division:  proc/nbgrp/npool/nimage =      10
     Reading input from /storage/home/hcoda1/3/ntian30/research/carbon/CxH_vib/CH_calc/ads_slab/CHNHNH_a/out_0001/pw.inp
Warning: card &CELL ignored
Warning: card   CELL_DYNAMICS='IPI', ignored
Warning: card / ignored

     Current dimensions of program PWSCF are:
     Max number of different atomic species (ntypx) = 10
     Max number of k-points (npk) =  40000
     Max angular momentum in pseudopotentials (lmaxx) =  3
     Presently no symmetry can be used with electric field

     Message from routine cell_base_init:
     DEPRECATED: use true lattice parameter, not A to a.u. conversion factor

     IMPORTANT: XC functional enforced from input :
     Exchange-correlation= BEEF-VDW
                           (   1   4  43  14   2   0   0)
     Any further DFT definition will be discarded
     Please, verify this is what you really want

  @ DRIVER MODE: Connecting to
 qe_1139763_2787518.sched-torque.pace.gatech.edux_5qdqwu_scratch
  using UNIX socket
  @ DRIVER MODE: Message from server: STATUS
  @ DRIVER MODE: Message from server: INIT
  @ DRIVER MODE: Receiving replica           0          -1
  @ DRIVER MODE: Receiving encoded integer          25
  @ DRIVER MODE:  SCF:  T  FORCE:  T  STRESS:  F  VC:  F  ENSEMBLE:  F
  @ DRIVER MODE:  SCF:  T  FORCE:  T  STRESS:  F  VC:  F  ENSEMBLE:  F

     Using Slab Decomposition

     bravais-lattice index     =            0
     lattice parameter (alat)  =       1.8897  a.u.
     unit-cell volume          =    6658.9804 (a.u.)^3
     number of atoms/cell      =           53
     number of atomic types    =            5
     number of electrons       =       395.00
     number of Kohn-Sham states=          207
     kinetic-energy cutoff     =      29.3995  Ry
     charge density cutoff     =     293.9946  Ry
     scf convergence threshold =      7.3E-08
     mixing beta               =       0.0500
     number of iterations used =            8  plain     mixing
     Exchange-correlation= BEEF-VDW
                           (   1   4  43  14   2   0   0)

     celldm(1)=   1.889726  celldm(2)=   0.000000  celldm(3)=   0.000000
     celldm(4)=   0.000000  celldm(5)=   0.000000  celldm(6)=   0.000000

     crystal axes: (cart. coord. in units of alat)
               a(1) = (   6.579727   0.000000   0.000000 )
               a(2) = (  -0.000775   5.961596   0.000000 )
               a(3) = (   0.000000   0.000000  25.155947 )

     reciprocal axes: (cart. coord. in units 2 pi/alat)
               b(1) = (  0.151982  0.000020  0.000000 )
               b(2) = (  0.000000  0.167740  0.000000 )
               b(3) = (  0.000000  0.000000  0.039752 )

     PseudoPot. # 1 for Ti read from file:
     /storage/coda1/p-amedford6/0/shared/rich_project_chbe-medford/medford-share/data/pseudos_module/espresso/nninc/pbe/van/Ti.UPF
     MD5 check sum: 8e4df49b7f0d34bbd5052bf3f5ea0213
     Pseudo is Ultrasoft, Zval = 12.0
     Generated by new atomic code, or converted to UPF format
     Using radial grid of  851 points,  6 beta functions with:
                l(1) =   0
                l(2) =   0
                l(3) =   1
                l(4) =   1
                l(5) =   2
                l(6) =   2
     Q(r) pseudized with  8 coefficients,  rinner =    1.000   1.000   1.000
                                                       1.000   1.000

     PseudoPot. # 2 for O  read from file:
     /storage/coda1/p-amedford6/0/shared/rich_project_chbe-medford/medford-share/data/pseudos_module/espresso/nninc/pbe/van/O.UPF
     MD5 check sum: 78c19812648e8988a0fe644b0f25305e
     Pseudo is Ultrasoft, Zval =  6.0
     Generated by new atomic code, or converted to UPF format
     Using radial grid of  737 points,  4 beta functions with:
                l(1) =   0
                l(2) =   0
                l(3) =   1
                l(4) =   1
     Q(r) pseudized with  8 coefficients,  rinner =    0.800   0.800   0.800

     PseudoPot. # 3 for N  read from file:
     /storage/coda1/p-amedford6/0/shared/rich_project_chbe-medford/medford-share/data/pseudos_module/espresso/nninc/pbe/van/N.UPF
     MD5 check sum: 90d10febe142ad51ac9d5be1deb811c4
     Pseudo is Ultrasoft, Zval =  5.0
     Generated by new atomic code, or converted to UPF format
     Using radial grid of  729 points,  4 beta functions with:
                l(1) =   0
                l(2) =   0
                l(3) =   1
                l(4) =   1
     Q(r) pseudized with  8 coefficients,  rinner =    0.800   0.800   0.800

     PseudoPot. # 4 for C  read from file:
     /storage/coda1/p-amedford6/0/shared/rich_project_chbe-medford/medford-share/data/pseudos_module/espresso/nninc/pbe/van/C.UPF
     MD5 check sum: 1a69bf6b8db32088f5b2163dbdb77a27
     Pseudo is Ultrasoft, Zval =  4.0
     Generated by new atomic code, or converted to UPF format
     Using radial grid of  721 points,  4 beta functions with:
                l(1) =   0
                l(2) =   0
                l(3) =   1
                l(4) =   1
     Q(r) pseudized with  8 coefficients,  rinner =    0.800   0.800   0.800

     PseudoPot. # 5 for H  read from file:
     /storage/coda1/p-amedford6/0/shared/rich_project_chbe-medford/medford-share/data/pseudos_module/espresso/nninc/pbe/van/H.UPF
     MD5 check sum: b5ee9d7bfd3a09ee7748110bda690ff7
     Pseudo is Ultrasoft, Zval =  1.0
     Generated by new atomic code, or converted to UPF format
     Using radial grid of  615 points,  1 beta functions with:
                l(1) =   0
     Q(r) pseudized with  8 coefficients,  rinner =    0.800

     atomic species   valence    mass     pseudopotential
        Ti1           12.00    47.86700     Ti( 1.00)
        O1             6.00    15.99900     O ( 1.00)
        N1             5.00    14.00700     N ( 1.00)
        C1             4.00    12.01100     C ( 1.00)
        H1             1.00     1.00800     H ( 1.00)

     No symmetry found

   Cartesian axes

     site n.     atom                  positions (alat units)
         1           Ti1 tau(   1) = (   0.0004258   2.9801865   6.0000000  )
         2           Ti1 tau(   2) = (   3.2906075   1.4906267   6.0002472  )
         3           O1  tau(   3) = (   0.0006271   0.0005054   7.9858123  )
         4           O1  tau(   4) = (   3.2906025   0.0005020   7.3038282  )
         5           O1  tau(   5) = (   4.5942328   1.4918067   9.2879030  )
         6           O1  tau(   6) = (   1.9868534   1.4903216   9.2879459  )
         7           Ti1 tau(   7) = (   3.2907910   2.8959150   9.1758416  )
         8           Ti1 tau(   8) = (   0.0015273   1.4827037   9.2680791  )
         9           O1  tau(   9) = (   3.2974950   5.9468587  11.3331085  )
        10           O1  tau(  10) = (   0.0116148   5.9584955  10.6183126  )
        11           O1  tau(  11) = (   1.3019594   1.4757037  12.6170356  )
        12           O1  tau(  12) = (   5.2841045   1.4688878  12.6073194  )
        13           Ti1 tau(  13) = (   0.0658538   3.0089988  12.6217963  )
        14           Ti1 tau(  14) = (   3.3903573   1.4765488  12.4775701  )
        15           O1  tau(  15) = (   6.5762050   0.0002902  14.6414759  )
        16           O1  tau(  16) = (   3.3078303   5.9588356  13.9306596  )
        17           O1  tau(  17) = (   4.5399328   1.5113171  16.0740780  )
        18           O1  tau(  18) = (   2.0525891   1.5105181  16.0861438  )
        19           Ti1 tau(  19) = (   3.3041007   2.9930787  15.6963055  )
        20           Ti1 tau(  20) = (   0.0280933   1.5113244  15.8467906  )
        21           O1  tau(  21) = (   3.2904802   0.0005063   4.7018136  )
        22           O1  tau(  22) = (   0.0368235   0.0128086  17.1990618  )
        23           O1  tau(  23) = (   1.3043587   1.4918075   6.0039043  )
        24           O1  tau(  24) = (   5.2767064   1.4903225   6.0039473  )
        25           Ti1 tau(  25) = (   0.0000382   5.9609847   6.0000000  )
        26           Ti1 tau(  26) = (   3.2902200   4.4714249   6.0002472  )
        27           O1  tau(  27) = (   0.0002396   2.9813036   7.9858123  )
        28           O1  tau(  28) = (   3.2902150   2.9813002   7.3038282  )
        29           O1  tau(  29) = (   4.5938453   4.4726049   9.2879030  )
        30           O1  tau(  30) = (   1.9864658   4.4711199   9.2879459  )
        31           Ti1 tau(  31) = (   3.2891106   5.8743827   9.1763621  )
        32           Ti1 tau(  32) = (   0.0006254   4.4649316   9.2693709  )
        33           O1  tau(  33) = (   3.3000731   2.9737533  11.3293525  )
        34           O1  tau(  34) = (   0.0092240   2.9805883  10.6323155  )
        35           O1  tau(  35) = (   1.3001503   4.4664650  12.6348062  )
        36           O1  tau(  36) = (   5.2875254   4.4541756  12.6228532  )
        37           Ti1 tau(  37) = (   0.0765437   0.0243871  12.5594496  )
        38           Ti1 tau(  38) = (   3.3883988   4.4566399  12.4818539  )
        39           O1  tau(  39) = (   0.0169469   2.9261715  14.6451004  )
        40           O1  tau(  40) = (   3.3035743   2.9719493  13.9037931  )
        41           O1  tau(  41) = (   4.5445893   4.4635849  16.0933648  )
        42           O1  tau(  42) = (   2.0554864   4.4706235  16.0676963  )
        43           Ti1 tau(  43) = (   3.3300396   0.0018144  15.7250798  )
        44           Ti1 tau(  44) = (   0.0441581   4.6348571  16.0952712  )
        45           O1  tau(  45) = (   3.2900926   2.9813045   4.7018136  )
        46           O1  tau(  46) = (   1.3039711   4.4726057   6.0039043  )
        47           O1  tau(  47) = (   5.2763189   4.4711207   6.0039473  )
        48           N1  tau(  48) = (   1.0152718   2.8101955  18.5330041  )
        49           N1  tau(  49) = (   6.5702222   2.9467621  17.4444712  )
        50           C1  tau(  50) = (   1.2122298   3.5280882  19.5702009  )
        51           H1  tau(  51) = (   0.5037382   4.3646449  19.6222421  )
        52           H1  tau(  52) = (   1.5845460   1.9874866  18.3412699  )
        53           H1  tau(  53) = (   5.6894004   2.9582294  17.9538253  )

     number of k points=    10  Fermi-Dirac smearing, width (Ry)=  0.0073
                       cart. coord. in units 2pi/alat
        k(    1) = (   0.0000000   0.0000000   0.0000000), wk =   0.1250000
        k(    2) = (   0.0000000   0.0419351   0.0000000), wk =   0.2500000
        k(    3) = (   0.0000000  -0.0838702   0.0000000), wk =   0.1250000
        k(    4) = (   0.0379955   0.0000049   0.0000000), wk =   0.2500000
        k(    5) = (   0.0379955   0.0419400   0.0000000), wk =   0.2500000
        k(    6) = (   0.0379955  -0.0838652   0.0000000), wk =   0.2500000
        k(    7) = (   0.0379955  -0.0419301   0.0000000), wk =   0.2500000
        k(    8) = (  -0.0759910  -0.0000099   0.0000000), wk =   0.1250000
        k(    9) = (  -0.0759910   0.0419252   0.0000000), wk =   0.2500000
        k(   10) = (  -0.0759910  -0.0838800   0.0000000), wk =   0.1250000

     Initial potential from superposition of free atoms

     starting charge  378.99916, renormalised to  395.00000

     negative rho (up, down):  1.643E-02 0.000E+00

     %%%%%%%%%%%%%%%%%%%%%%%%%%%%%%%%%%%%%%%%%%%%%%%%%%%%%%%%%%%%%%%%%%%%%%%%
     %                                                                      %
     % You are using vdW-DF, which was implemented by the Thonhauser group. %
     % Please cite the following two papers that made this development      %
     % possible and the two reviews that describe the various versions:     %
     %                                                                      %
     %   T. Thonhauser et al., PRL 115, 136402 (2015).                      %
     %   T. Thonhauser et al., PRB 76, 125112 (2007).                       %
     %   K. Berland et al., Rep. Prog. Phys. 78, 066501 (2015).             %
     %   D.C. Langreth et al., J. Phys.: Condens. Matter 21, 084203 (2009). %
     %                                                                      %
     %                                                                      %
     % If you are calculating the stress with vdW-DF, please also cite:     %
     %                                                                      %
     %   R. Sabatini et al., J. Phys.: Condens. Matter 24, 424209 (2012).   %
     %                                                                      %
     %%%%%%%%%%%%%%%%%%%%%%%%%%%%%%%%%%%%%%%%%%%%%%%%%%%%%%%%%%%%%%%%%%%%%%%%

     Adding external electric field

     Computed dipole along edir(3) :
        Dipole               -8.5017 Ry au,        -21.6093 Debye
        Dipole field         -0.0160 Ry au,

        Potential amp.        1.4872 Ry
        Total length         46.3494 bohr

     Starting wfcs are  299 atomic wfcs
  @ DRIVER MODE: Message from server: STATUS
  @ DRIVER MODE: Message from server: POSDATA
  @ DRIVER MODE: Reading and sharing cell
  @ DRIVER MODE: Reading and sharing positions
  @ DRIVER MODE: Received positions

     Self-consistent Calculation

     iteration #  1     ecut=    29.40 Ry     beta= 0.05
     Davidson diagonalization with overlap
     c_bands:  1 eigenvalues not converged
     c_bands:  1 eigenvalues not converged
     c_bands:  2 eigenvalues not converged
     c_bands:  3 eigenvalues not converged
     c_bands:  3 eigenvalues not converged
     c_bands:  1 eigenvalues not converged
     c_bands:  1 eigenvalues not converged
     ethr =  1.00E-05,  avg # of iterations = 19.2

[...]

     total energy              =   -2621.18707971 Ry
     estimated scf accuracy    <    3530.48906329 Ry

[...]

     iteration #  5     ecut=    29.40 Ry     beta= 0.05
     Davidson diagonalization with overlap
     ethr =  1.00E-02,  avg # of iterations =  3.7

[...]

     iteration # 58     ecut=    29.40 Ry     beta= 0.05
     Davidson diagonalization with overlap
     c_bands:  1 eigenvalues not converged
     c_bands:  1 eigenvalues not converged
     c_bands:  1 eigenvalues not converged
     c_bands:  1 eigenvalues not converged
     ethr =  8.15E-07,  avg # of iterations = 15.3

[...]

     total energy              =   -2939.04800490 Ry
     estimated scf accuracy    <       0.00000010 Ry

     iteration # 77     ecut=    29.40 Ry     beta= 0.05
     Davidson diagonalization with overlap
     ethr =  2.45E-11,  avg # of iterations = 12.1

     negative rho (up, down):  1.570E-02 0.000E+00

     Adding external electric field

     Computed dipole along edir(3) :
        Dipole                0.0335 Ry au,          0.0852 Debye
        Dipole field          0.0001 Ry au,

        Potential amp.       -0.0059 Ry
        Total length         46.3494 bohr

     End of self-consistent calculation

          k = 0.0000 0.0000 0.0000 ( 18029 PWs)   bands (ev):

   -56.2451 -56.2390 -56.2111 -56.2031 -56.1537 -56.0823 -56.0818 -56.0532
   -56.0462 -56.0192 -56.0175 -55.9839 -55.7950 -55.5300 -55.2221 -55.1880
   -32.7955 -32.7273 -32.5953 -32.5832 -32.5633 -32.5519 -32.5382 -32.5081
   -32.4875 -32.4859 -32.4602 -32.4482 -32.4202 -32.3972 -32.3917 -32.3808
   -32.3802 -32.3492 -32.3340 -32.3022 -32.2947 -32.2921 -32.2680 -32.2484
   -32.2458 -32.2408 -32.2406 -32.2279 -32.2203 -32.2044 -32.1993 -32.1970
   -32.1924 -32.1836 -32.1704 -32.1600 -32.1297 -32.0469 -31.9847 -31.8079
   -31.7916 -31.7319 -31.6291 -31.5409 -31.5184 -31.4458 -31.3593 -31.2483
   -17.3235 -16.9945 -16.7218 -16.5135 -16.4011 -16.3693 -16.2695 -16.0861
   -15.9623 -15.9323 -15.8326 -15.8054 -15.7813 -15.7709 -15.7481 -15.7389
   -15.6929 -15.6868 -15.6745 -15.6592 -15.6058 -15.5808 -15.5529 -15.4436
   -15.4371 -15.4035 -15.3774 -15.3012 -15.2951 -14.8355 -13.7246 -13.6082
   -12.7758  -8.6143  -5.3448  -4.3698  -4.2317  -4.1984  -4.1505  -4.0986
    -3.8844  -3.8168  -3.7684  -3.5672  -3.4725  -3.4321  -3.4198  -3.4040
    -3.3746  -3.1481  -3.1227  -3.0590  -3.0356  -3.0297  -3.0188  -3.0091
    -2.9876  -2.9708  -2.8991  -2.7938  -2.7219  -2.6725  -2.6246  -2.6179
    -2.5570  -2.5132  -2.5063  -2.4890  -2.4841  -2.4775  -2.4380  -2.4292
    -2.2934  -2.2328  -2.0993  -2.0625  -2.0430  -1.8949  -1.8521  -1.7578
    -1.6911  -1.6737  -1.6643  -1.6356  -1.5504  -1.5286  -1.4090  -1.3868
    -1.3454  -1.2689  -1.2609  -1.2393  -1.1370  -1.1218  -1.0167  -1.0089
    -1.0034  -0.9856  -0.9262  -0.7372  -0.7148  -0.6867  -0.6671  -0.6328
    -0.5571  -0.5271  -0.4366  -0.4242  -0.3653  -0.3420  -0.3205  -0.2706
    -0.2651  -0.2531  -0.2493  -0.2333  -0.0577   0.0035   0.0605   0.1117
     0.1280   0.2841   0.3333   0.4123   0.4973   0.7255   0.7999   0.8399
     0.8882   0.9921   1.3712   1.4168   2.4425   2.8955   2.9758   3.0257
     3.0358   3.1297   3.1364   3.3438   3.3654   3.3707   3.4362

[...]

          k = 0.0380-0.0419 0.0000 ( 17876 PWs)   bands (ev):

[...]

          k =-0.0760-0.0000 0.0000 ( 17886 PWs)   bands (ev):

[...]

          k =-0.0760-0.0839 0.0000 ( 17948 PWs)   bands (ev):

   -56.2285 -56.2276 -56.2217 -56.2202 -56.1492 -56.0866 -56.0686 -56.0595
   -56.0371 -56.0347 -56.0010 -56.0005 -55.7939 -55.5309 -55.2050 -55.2049
   -32.6005 -32.5977 -32.5430 -32.5423 -32.5316 -32.5240 -32.5231 -32.5046
   -32.4470 -32.4457 -32.4401 -32.4371 -32.4119 -32.3767 -32.3661 -32.3617
   -32.3542 -32.3506 -32.3482 -32.3479 -32.3469 -32.3402 -32.3380 -32.2901
   -32.2891 -32.2783 -32.2603 -32.2501 -32.2357 -32.2353 -32.2328 -32.2325
   -32.2160 -32.2152 -32.2074 -32.2052 -32.1387 -32.0493 -31.9800 -31.8651
   -31.8005 -31.7568 -31.5312 -31.5311 -31.4420 -31.4418 -31.4026 -31.4026
   -17.3062 -16.4453 -16.4137 -16.1871 -16.1771 -16.1624 -16.1587 -16.0221
   -15.9544 -15.9510 -15.9441 -15.9125 -15.8849 -15.8469 -15.8020 -15.7798
   -15.7792 -15.7675 -15.7608 -15.7073 -15.7021 -15.6804 -15.6735 -15.5722
   -15.5605 -15.5571 -15.5048 -15.4158 -15.2875 -15.0094 -13.7100 -13.7099
   -12.7863  -8.6197  -5.3418  -3.8990  -3.7362  -3.6990  -3.5008  -3.4134
    -3.4127  -3.4018  -3.3288  -3.1612  -3.1468  -3.1238  -3.1002  -3.0731
    -3.0728  -3.0587  -3.0525  -3.0336  -3.0102  -2.9745  -2.9362  -2.9321
    -2.9100  -2.9000  -2.8742  -2.8603  -2.8311  -2.8189  -2.8031  -2.7850
    -2.7669  -2.7514  -2.5994  -2.4777  -2.4442  -2.3816  -2.3732  -2.3543
    -2.3200  -2.3085  -2.2956  -2.2338  -2.1332  -1.9960  -1.9486  -1.9417
    -1.9091  -1.8309  -1.8177  -1.6728  -1.6584  -1.6307  -1.5922  -1.5381
    -1.5221  -1.4715  -1.4092  -1.3963  -1.3647  -1.3334  -1.2584  -1.2080
    -1.2050  -1.1862  -1.1283  -1.0397  -1.0326  -1.0152  -1.0079  -0.9572
    -0.8803  -0.8661  -0.8343  -0.7498  -0.7323  -0.6329  -0.5497  -0.3452
    -0.2664  -0.2192  -0.1729  -0.1399  -0.0366   0.0101   0.0256   0.0617
     0.0750   0.1211   0.1804   0.2874   0.2944   0.3552   0.4647   0.8046
     1.1636   1.1644   1.2365   1.2367   2.4008   3.1552   3.1638   3.2194
     3.2417   3.3925   3.3982   3.4227   3.4239   3.5433   3.5611

     the Fermi energy is     2.8903 ev

!    total energy              =   -2939.04801255 Ry
     estimated scf accuracy    <       0.00000006 Ry
     smearing contrib. (-TS)   =      -0.02304930 Ry
     internal energy E=F+TS    =   -2939.02496326 Ry

     The total energy is F=E-TS. E is the sum of the following terms:
     one-electron contribution =  -24314.79812593 Ry
     hartree contribution      =   12241.17848475 Ry
     xc contribution           =    -485.12590240 Ry
     ewald contribution        =    9619.72057820 Ry
     electric field correction =       0.00000212 Ry

     convergence has been achieved in  77 iterations

     Forces acting on atoms (cartesian axes, Ry/au):

     atom    1 type  1   force =     0.00025971   -0.00023781    0.09664579
     atom    2 type  1   force =    -0.00018498   -0.00052519   -0.17530877
     atom    3 type  2   force =    -0.00000547   -0.00007956   -0.02502734
     atom    4 type  2   force =     0.00005634   -0.00154527    0.05298017
     atom    5 type  2   force =    -0.01216990   -0.00104320    0.00344391
     atom    6 type  2   force =     0.01404549   -0.00028339    0.00273451
     atom    7 type  1   force =    -0.00096031    0.00048760   -0.01194210
     atom    8 type  1   force =     0.00044290    0.00876139    0.02924970
     atom    9 type  2   force =     0.00051016    0.00030956   -0.00016025
     atom   10 type  2   force =    -0.00089998   -0.00020208   -0.01706893
     atom   11 type  2   force =     0.00035654    0.00018398    0.00037948
     atom   12 type  2   force =    -0.00104623    0.00082197    0.00051381
     atom   13 type  1   force =     0.00144581    0.00081635   -0.00018070
     atom   14 type  1   force =    -0.00124800    0.00035189   -0.00027958
     atom   15 type  2   force =    -0.00061028    0.00079595    0.00070159
     atom   16 type  2   force =     0.00031885   -0.00036380   -0.00015485
     atom   17 type  2   force =     0.00071041    0.00022420   -0.00019425
     atom   18 type  2   force =    -0.00076512    0.00013014   -0.00027862
     atom   19 type  1   force =    -0.00009741   -0.00056563    0.00004291
     atom   20 type  1   force =    -0.00002422   -0.00063129   -0.00004259
     atom   21 type  2   force =     0.00007827   -0.00005942    0.10318289
     atom   22 type  2   force =    -0.00002783    0.00154923    0.00012328
     atom   23 type  2   force =    -0.07148702   -0.00015044   -0.02776454
     atom   24 type  2   force =     0.07142873    0.00026967   -0.02776488
     atom   25 type  1   force =     0.00007971   -0.00022709    0.09649094
     atom   26 type  1   force =    -0.00013372   -0.00034536   -0.17548662
     atom   27 type  2   force =     0.00006095   -0.00023866   -0.02406158
     atom   28 type  2   force =     0.00011447   -0.00128261    0.05275197
     atom   29 type  2   force =    -0.01228026    0.00002323    0.00301071
     atom   30 type  2   force =     0.01404356    0.00040339    0.00237791
     atom   31 type  1   force =    -0.00094337    0.00315483   -0.01288027
     atom   32 type  1   force =     0.00028349   -0.01002464    0.02992612
     atom   33 type  2   force =     0.00025634   -0.00014322    0.00048314
     atom   34 type  2   force =    -0.00003448    0.00000264   -0.02433540
     atom   35 type  2   force =    -0.00034392    0.00021756   -0.00025751
     atom   36 type  2   force =    -0.00112611    0.00054180   -0.00004831
     atom   37 type  1   force =     0.00122056   -0.00092886    0.00035041
     atom   38 type  1   force =    -0.00092715   -0.00057558   -0.00005409
     atom   39 type  2   force =    -0.00025264   -0.00063037    0.00088224
     atom   40 type  2   force =     0.00008398    0.00054449    0.00015334
     atom   41 type  2   force =    -0.00103697   -0.00011838   -0.00029756
     atom   42 type  2   force =     0.00151982   -0.00029044   -0.00018922
     atom   43 type  1   force =    -0.00052112    0.00033744   -0.00035546
     atom   44 type  1   force =    -0.00011132    0.00075101   -0.00016490
     atom   45 type  2   force =     0.00005134   -0.00008803    0.10318337
     atom   46 type  2   force =    -0.07151261   -0.00016610   -0.02774985
     atom   47 type  2   force =     0.07147849    0.00033327   -0.02778943
     atom   48 type  3   force =     0.01164968   -0.00757763   -0.00017734
     atom   49 type  3   force =    -0.00303959    0.00020922    0.00150709
     atom   50 type  4   force =    -0.00183483    0.00090534   -0.00111167
     atom   51 type  5   force =    -0.00024884    0.00168891    0.00012777
     atom   52 type  5   force =    -0.00490523    0.00496344    0.00057380
     atom   53 type  5   force =    -0.00171668   -0.00045444   -0.00069026

     Total force =     0.368709     Total SCF correction =     0.000542
  @ DRIVER MODE: Message from server: STATUS
  @ DRIVER MODE: Message from server: GETFORCE
  @ DRIVER MODE: Returning v,forces,stress,ensemble

     Writing output data file ./calc.save/
  @ DRIVER MODE: Message from server: EXIT
  @ DRIVE MODE: Exiting

     General routines

     Parallel routines

   This run was terminated on:  11: 6:56  10Sep2021

   JOB DONE.