     Program PWSCF v.6.7GPU starts on 22Sep2021 at 19:40:36

     R & G space division:  proc/nbgrp/npool/nimage =      10
     Reading input from /storage/home/hcoda1/3/ntian30/research/carbon/CxH_vib/H2O_calc/ads_slab/CHNHHO_a/out_0012/pw.inp
Warning: card &CELL ignored
Warning: card   CELL_DYNAMICS='IPI', ignored
Warning: card / ignored

     Current dimensions of program PWSCF are:
     Max number of different atomic species (ntypx) = 10
     Max number of k-points (npk) =  40000
     Max angular momentum in pseudopotentials (lmaxx) =  3
     Presently no symmetry can be used with electric field

     Message from routine cell_base_init:
     DEPRECATED: use true lattice parameter, not A to a.u. conversion factor

     IMPORTANT: XC functional enforced from input :
     Exchange-correlation= BEEF-VDW
                           (   1   4  43  14   2   0   0)
     Any further DFT definition will be discarded
     Please, verify this is what you really want

  @ DRIVER MODE: Connecting to
 qe_1139763_2937314.sched-torque.pace.gatech.edu_6sim4l3_scratch
  using UNIX socket
  @ DRIVER MODE: Message from server: STATUS
  @ DRIVER MODE: Message from server: INIT
  @ DRIVER MODE: Receiving replica           0          -1
  @ DRIVER MODE: Receiving encoded integer          25
  @ DRIVER MODE:  SCF:  T  FORCE:  T  STRESS:  F  VC:  F  ENSEMBLE:  F
  @ DRIVER MODE:  SCF:  T  FORCE:  T  STRESS:  F  VC:  F  ENSEMBLE:  F

     Using Slab Decomposition

     bravais-lattice index     =            0
     lattice parameter (alat)  =       1.8897  a.u.
     unit-cell volume          =    6658.9804 (a.u.)^3
     number of atoms/cell      =           53
     number of atomic types    =            5
     number of electrons       =       396.00
     number of Kohn-Sham states=          208
     kinetic-energy cutoff     =      29.3995  Ry
     charge density cutoff     =     293.9946  Ry
     scf convergence threshold =      7.3E-08
     mixing beta               =       0.0500
     number of iterations used =            8  plain     mixing
     Exchange-correlation= BEEF-VDW
                           (   1   4  43  14   2   0   0)

     celldm(1)=   1.889726  celldm(2)=   0.000000  celldm(3)=   0.000000
     celldm(4)=   0.000000  celldm(5)=   0.000000  celldm(6)=   0.000000

     crystal axes: (cart. coord. in units of alat)
               a(1) = (   6.579727   0.000000   0.000000 )
               a(2) = (  -0.000775   5.961596   0.000000 )
               a(3) = (   0.000000   0.000000  25.155947 )

     reciprocal axes: (cart. coord. in units 2 pi/alat)
               b(1) = (  0.151982  0.000020  0.000000 )
               b(2) = (  0.000000  0.167740  0.000000 )
               b(3) = (  0.000000  0.000000  0.039752 )

     PseudoPot. # 1 for Ti read from file:
     /storage/coda1/p-amedford6/0/shared/rich_project_chbe-medford/medford-share/data/pseudos_module/espresso/nninc/pbe/van/Ti.UPF
     MD5 check sum: 8e4df49b7f0d34bbd5052bf3f5ea0213
     Pseudo is Ultrasoft, Zval = 12.0
     Generated by new atomic code, or converted to UPF format
     Using radial grid of  851 points,  6 beta functions with:
                l(1) =   0
                l(2) =   0
                l(3) =   1
                l(4) =   1
                l(5) =   2
                l(6) =   2
     Q(r) pseudized with  8 coefficients,  rinner =    1.000   1.000   1.000
                                                       1.000   1.000

     PseudoPot. # 2 for O  read from file:
     /storage/coda1/p-amedford6/0/shared/rich_project_chbe-medford/medford-share/data/pseudos_module/espresso/nninc/pbe/van/O.UPF
     MD5 check sum: 78c19812648e8988a0fe644b0f25305e
     Pseudo is Ultrasoft, Zval =  6.0
     Generated by new atomic code, or converted to UPF format
     Using radial grid of  737 points,  4 beta functions with:
                l(1) =   0
                l(2) =   0
                l(3) =   1
                l(4) =   1
     Q(r) pseudized with  8 coefficients,  rinner =    0.800   0.800   0.800

     PseudoPot. # 3 for N  read from file:
     /storage/coda1/p-amedford6/0/shared/rich_project_chbe-medford/medford-share/data/pseudos_module/espresso/nninc/pbe/van/N.UPF
     MD5 check sum: 90d10febe142ad51ac9d5be1deb811c4
     Pseudo is Ultrasoft, Zval =  5.0
     Generated by new atomic code, or converted to UPF format
     Using radial grid of  729 points,  4 beta functions with:
                l(1) =   0
                l(2) =   0
                l(3) =   1
                l(4) =   1
     Q(r) pseudized with  8 coefficients,  rinner =    0.800   0.800   0.800

     PseudoPot. # 4 for C  read from file:
     /storage/coda1/p-amedford6/0/shared/rich_project_chbe-medford/medford-share/data/pseudos_module/espresso/nninc/pbe/van/C.UPF
     MD5 check sum: 1a69bf6b8db32088f5b2163dbdb77a27
     Pseudo is Ultrasoft, Zval =  4.0
     Generated by new atomic code, or converted to UPF format
     Using radial grid of  721 points,  4 beta functions with:
                l(1) =   0
                l(2) =   0
                l(3) =   1
                l(4) =   1
     Q(r) pseudized with  8 coefficients,  rinner =    0.800   0.800   0.800

     PseudoPot. # 5 for H  read from file:
     /storage/coda1/p-amedford6/0/shared/rich_project_chbe-medford/medford-share/data/pseudos_module/espresso/nninc/pbe/van/H.UPF
     MD5 check sum: b5ee9d7bfd3a09ee7748110bda690ff7
     Pseudo is Ultrasoft, Zval =  1.0
     Generated by new atomic code, or converted to UPF format
     Using radial grid of  615 points,  1 beta functions with:
                l(1) =   0
     Q(r) pseudized with  8 coefficients,  rinner =    0.800

     atomic species   valence    mass     pseudopotential
        Ti1           12.00    47.86700     Ti( 1.00)
        O1             6.00    15.99900     O ( 1.00)
        N1             5.00    14.00700     N ( 1.00)
        C1             4.00    12.01100     C ( 1.00)
        H1             1.00     1.00800     H ( 1.00)

     No symmetry found

   Cartesian axes

     site n.     atom                  positions (alat units)
         1           Ti1 tau(   1) = (   0.0004258   2.9801865   6.0000000  )
         2           Ti1 tau(   2) = (   3.2906075   1.4906267   6.0002472  )
         3           O1  tau(   3) = (   0.0006271   0.0005054   7.9858123  )
         4           O1  tau(   4) = (   3.2906025   0.0005020   7.3038282  )
         5           O1  tau(   5) = (   4.5942328   1.4918067   9.2879030  )
         6           O1  tau(   6) = (   1.9868534   1.4903216   9.2879459  )
         7           Ti1 tau(   7) = (   3.2907910   2.8959150   9.1758416  )
         8           Ti1 tau(   8) = (   0.0015273   1.4827037   9.2680791  )
         9           O1  tau(   9) = (   3.2817170   5.9459930  11.3074998  )
        10           O1  tau(  10) = (   0.0116148   5.9584955  10.6183126  )
        11           O1  tau(  11) = (   1.2737360   1.4926482  12.6406718  )
        12           O1  tau(  12) = (   5.2902952   1.4950437  12.6299455  )
        13           Ti1 tau(  13) = (   6.5743562   2.8588748  12.6391164  )
        14           Ti1 tau(  14) = (   3.2840152   1.3010445  12.6757008  )
        15           O1  tau(  15) = (   6.5722207   0.0022838  14.6395268  )
        16           O1  tau(  16) = (   3.2882888   0.0547267  13.9272720  )
        17           O1  tau(  17) = (   4.5277618   1.5549090  16.0796657  )
        18           O1  tau(  18) = (   1.9889223   1.5445724  16.0964948  )
        19           Ti1 tau(  19) = (   3.2710169   3.0098750  15.6493427  )
        20           Ti1 tau(  20) = (   0.0212523   1.3583160  16.0154628  )
        21           O1  tau(  21) = (   3.2904802   0.0005063   4.7018136  )
        22           O1  tau(  22) = (   6.5278121   5.9442159  17.1408904  )
        23           O1  tau(  23) = (   1.3043587   1.4918075   6.0039043  )
        24           O1  tau(  24) = (   5.2767064   1.4903225   6.0039473  )
        25           Ti1 tau(  25) = (   0.0000382   5.9609847   6.0000000  )
        26           Ti1 tau(  26) = (   3.2902200   4.4714249   6.0002472  )
        27           O1  tau(  27) = (   0.0002396   2.9813036   7.9858123  )
        28           O1  tau(  28) = (   3.2902150   2.9813002   7.3038282  )
        29           O1  tau(  29) = (   4.5938453   4.4726049   9.2879030  )
        30           O1  tau(  30) = (   1.9864658   4.4711199   9.2879459  )
        31           Ti1 tau(  31) = (   3.2891106   5.8743827   9.1763621  )
        32           Ti1 tau(  32) = (   0.0006254   4.4649316   9.2693709  )
        33           O1  tau(  33) = (   3.2809651   3.0158959  11.2742024  )
        34           O1  tau(  34) = (   0.0092240   2.9805883  10.6323155  )
        35           O1  tau(  35) = (   1.2801966   4.4796301  12.6363892  )
        36           O1  tau(  36) = (   5.2833020   4.4787161  12.6245292  )
        37           Ti1 tau(  37) = (   6.5725262   5.8449372  12.5269696  )
        38           Ti1 tau(  38) = (   3.2830651   4.3950422  12.4122791  )
        39           O1  tau(  39) = (   6.5612936   2.9998473  14.7091997  )
        40           O1  tau(  40) = (   3.2734765   2.9867355  13.8776313  )
        41           O1  tau(  41) = (   4.5260587   4.4294304  16.0527172  )
        42           O1  tau(  42) = (   1.9919704   4.4458081  16.0639873  )
        43           Ti1 tau(  43) = (   3.3135318   0.0270965  16.3071496  )
        44           Ti1 tau(  44) = (   0.0294795   4.5257316  15.8201724  )
        45           O1  tau(  45) = (   3.2900926   2.9813045   4.7018136  )
        46           O1  tau(  46) = (   1.3039711   4.4726057   6.0039043  )
        47           O1  tau(  47) = (   5.2763189   4.4711207   6.0039473  )
        48           N1  tau(  48) = (   6.4282372   2.9740631  17.7102171  )
        49           C1  tau(  49) = (   0.6535733   3.0176064  18.7120832  )
        50           H1  tau(  50) = (   1.7291544   2.9413089  18.4820742  )
        51           H1  tau(  51) = (   5.4410488   3.0579230  17.9716058  )
        52           O1  tau(  52) = (   3.3635319   0.0010587  18.1193045  )
        53           H1  tau(  53) = (   4.1580425   0.0400832  18.6733683  )

     number of k points=    10  Fermi-Dirac smearing, width (Ry)=  0.0073
                       cart. coord. in units 2pi/alat
        k(    1) = (   0.0000000   0.0000000   0.0000000), wk =   0.1250000
        k(    2) = (   0.0000000   0.0419351   0.0000000), wk =   0.2500000
        k(    3) = (   0.0000000  -0.0838702   0.0000000), wk =   0.1250000
        k(    4) = (   0.0379955   0.0000049   0.0000000), wk =   0.2500000
        k(    5) = (   0.0379955   0.0419400   0.0000000), wk =   0.2500000
        k(    6) = (   0.0379955  -0.0838652   0.0000000), wk =   0.2500000
        k(    7) = (   0.0379955  -0.0419301   0.0000000), wk =   0.2500000
        k(    8) = (  -0.0759910  -0.0000099   0.0000000), wk =   0.1250000
        k(    9) = (  -0.0759910   0.0419252   0.0000000), wk =   0.2500000
        k(   10) = (  -0.0759910  -0.0838800   0.0000000), wk =   0.1250000

     Initial potential from superposition of free atoms

     starting charge  379.99917, renormalised to  396.00000

     negative rho (up, down):  1.776E-02 0.000E+00

     %%%%%%%%%%%%%%%%%%%%%%%%%%%%%%%%%%%%%%%%%%%%%%%%%%%%%%%%%%%%%%%%%%%%%%%%
     %                                                                      %
     % You are using vdW-DF, which was implemented by the Thonhauser group. %
     % Please cite the following two papers that made this development      %
     % possible and the two reviews that describe the various versions:     %
     %                                                                      %
     %   T. Thonhauser et al., PRL 115, 136402 (2015).                      %
     %   T. Thonhauser et al., PRB 76, 125112 (2007).                       %
     %   K. Berland et al., Rep. Prog. Phys. 78, 066501 (2015).             %
     %   D.C. Langreth et al., J. Phys.: Condens. Matter 21, 084203 (2009). %
     %                                                                      %
     %                                                                      %
     % If you are calculating the stress with vdW-DF, please also cite:     %
     %                                                                      %
     %   R. Sabatini et al., J. Phys.: Condens. Matter 24, 424209 (2012).   %
     %                                                                      %
     %%%%%%%%%%%%%%%%%%%%%%%%%%%%%%%%%%%%%%%%%%%%%%%%%%%%%%%%%%%%%%%%%%%%%%%%

     Adding external electric field

     Computed dipole along edir(3) :
        Dipole               -8.0685 Ry au,        -20.5081 Debye
        Dipole field         -0.0152 Ry au,

        Potential amp.        1.4115 Ry
        Total length         46.3494 bohr

     Starting wfcs are  299 atomic wfcs
  @ DRIVER MODE: Message from server: STATUS
  @ DRIVER MODE: Message from server: POSDATA
  @ DRIVER MODE: Reading and sharing cell
  @ DRIVER MODE: Reading and sharing positions
  @ DRIVER MODE: Received positions

     Self-consistent Calculation

     iteration #  1     ecut=    29.40 Ry     beta= 0.05
     Davidson diagonalization with overlap
     c_bands:  1 eigenvalues not converged
     c_bands:  1 eigenvalues not converged
     c_bands:  2 eigenvalues not converged
     c_bands:  1 eigenvalues not converged
     c_bands:  1 eigenvalues not converged
     c_bands:  1 eigenvalues not converged
     ethr =  1.00E-05,  avg # of iterations = 18.5

[...]

     total energy              =   -2618.23292727 Ry
     estimated scf accuracy    <    3681.72114304 Ry

     iteration #  2     ecut=    29.40 Ry     beta= 0.05
     Davidson diagonalization with overlap
     ethr =  1.00E-02,  avg # of iterations = 21.5

[...]

     iteration # 63     ecut=    29.40 Ry     beta= 0.05
     Davidson diagonalization with overlap
     c_bands:  1 eigenvalues not converged
     c_bands:  1 eigenvalues not converged
     ethr =  1.89E-06,  avg # of iterations = 12.4

[...]

     total energy              =   -2951.37633293 Ry
     estimated scf accuracy    <       0.00000008 Ry

     iteration # 93     ecut=    29.40 Ry     beta= 0.05
     Davidson diagonalization with overlap
     ethr =  2.07E-11,  avg # of iterations =  4.6

     negative rho (up, down):  1.666E-02 0.000E+00

     Adding external electric field

     Computed dipole along edir(3) :
        Dipole                0.1640 Ry au,          0.4168 Debye
        Dipole field          0.0003 Ry au,

        Potential amp.       -0.0287 Ry
        Total length         46.3494 bohr

     End of self-consistent calculation

          k = 0.0000 0.0000 0.0000 ( 18029 PWs)   bands (ev):

   -56.4445 -56.4106 -56.1648 -56.1465 -56.1310 -55.9634 -55.9102 -55.8614
   -55.8581 -55.8551 -55.8232 -55.7222 -55.6798 -55.5370 -55.2938 -55.2598
   -32.9086 -32.7386 -32.7181 -32.6381 -32.5988 -32.5319 -32.5053 -32.4471
   -32.4408 -32.4167 -32.3825 -32.3800 -32.3660 -32.3605 -32.3596 -32.3249
   -32.3035 -32.2700 -32.2640 -32.1897 -32.1801 -32.1662 -32.1430 -32.1289
   -32.1186 -32.1115 -32.0984 -32.0710 -32.0704 -32.0627 -32.0337 -32.0233
   -32.0055 -31.9752 -31.9744 -31.9551 -31.9491 -31.8751 -31.8679 -31.7965
   -31.7680 -31.7490 -31.6941 -31.6221 -31.5989 -31.5124 -31.4270 -31.3150
   -16.9074 -16.8383 -16.5987 -16.4447 -16.2687 -16.1906 -16.0563 -16.0421
   -15.9168 -15.8622 -15.7964 -15.7947 -15.7556 -15.6792 -15.6228 -15.5895
   -15.5500 -15.5296 -15.5239 -15.5133 -15.5096 -15.5053 -15.4617 -15.3435
   -15.3039 -15.2485 -15.2390 -15.2298 -15.0938 -14.8258 -14.7900 -13.7914
   -13.6775  -8.1657  -4.6751  -4.2947  -4.1794  -4.1199  -3.9450  -3.8976
    -3.8025  -3.6066  -3.5669  -3.5359  -3.3672  -3.3097  -3.2080  -3.1739
    -3.1601  -3.1085  -3.0357  -3.0264  -2.9858  -2.9037  -2.8592  -2.8555
    -2.8267  -2.7900  -2.7676  -2.7044  -2.6494  -2.6213  -2.5536  -2.5168
    -2.4818  -2.4669  -2.4383  -2.4238  -2.3894  -2.3698  -2.3575  -2.2076
    -2.1837  -2.1529  -2.0874  -2.0097  -1.8687  -1.7891  -1.7684  -1.6748
    -1.5990  -1.5628  -1.5280  -1.4754  -1.3928  -1.3781  -1.3680  -1.3317
    -1.2530  -1.2272  -1.1816  -1.1312  -1.0630  -0.9723  -0.9711  -0.9148
    -0.8715  -0.8120  -0.7235  -0.6975  -0.6357  -0.5849  -0.5642  -0.4858
    -0.4388  -0.4137  -0.3947  -0.3813  -0.3226  -0.2577  -0.2083  -0.1813
    -0.1087  -0.1014  -0.0615   0.0098   0.0311   0.0354   0.1552   0.1945
     0.2069   0.2590   0.3760   0.4355   0.5156   0.5776   0.6480   0.7319
     0.7397   0.9465   1.0615   1.2861   1.3264   2.5625   2.7453   2.8673
     2.9372   3.1398   3.1845   3.2398   3.4946   3.5192   3.5272   3.6008

[...]

          k = 0.0380-0.0419 0.0000 ( 17876 PWs)   bands (ev):

[...]

          k =-0.0760-0.0000 0.0000 ( 17886 PWs)   bands (ev):

[...]

          k =-0.0760-0.0839 0.0000 ( 17948 PWs)   bands (ev):

   -56.4280 -56.4269 -56.1497 -56.1460 -56.1458 -55.9573 -55.9162 -55.8581
   -55.8562 -55.8458 -55.8360 -55.7242 -55.6778 -55.5388 -55.2774 -55.2762
   -32.7253 -32.7250 -32.7234 -32.7230 -32.5507 -32.5494 -32.4697 -32.4649
   -32.4181 -32.3755 -32.3635 -32.3569 -32.3523 -32.3417 -32.3353 -32.2831
   -32.2602 -32.2396 -32.2304 -32.1818 -32.1781 -32.1780 -32.1738 -32.1503
   -32.1422 -32.1328 -32.1200 -32.0790 -32.0688 -32.0684 -32.0663 -32.0585
   -32.0514 -32.0150 -31.9845 -31.9593 -31.9481 -31.9410 -31.8862 -31.8807
   -31.7988 -31.7526 -31.6121 -31.6113 -31.5085 -31.5072 -31.4703 -31.4694
   -16.8920 -16.2583 -16.2342 -16.1276 -16.0975 -16.0877 -16.0657 -15.9492
   -15.9048 -15.8977 -15.8851 -15.8150 -15.7617 -15.7353 -15.6952 -15.6889
   -15.6395 -15.6288 -15.6122 -15.5602 -15.5462 -15.5418 -15.5278 -15.4866
   -15.4558 -15.4282 -15.2634 -15.2042 -15.1539 -15.1128 -14.9216 -13.7804
   -13.7798  -8.1773  -4.6670  -4.0346  -3.5132  -3.4736  -3.3831  -3.3620
    -3.2416  -3.2365  -3.1615  -3.0853  -3.0828  -3.0047  -2.9928  -2.9876
    -2.9464  -2.9320  -2.9266  -2.9196  -2.8774  -2.8716  -2.8530  -2.8337
    -2.8263  -2.8111  -2.7727  -2.7231  -2.7050  -2.6856  -2.6396  -2.6239
    -2.4925  -2.4361  -2.4260  -2.4245  -2.3848  -2.3493  -2.3323  -2.3134
    -2.2804  -2.2213  -2.1656  -2.0424  -2.0226  -1.8254  -1.8045  -1.7727
    -1.7467  -1.7151  -1.7010  -1.6375  -1.5927  -1.5728  -1.5500  -1.5280
    -1.4275  -1.3820  -1.3315  -1.3282  -1.2856  -1.2593  -1.2046  -1.1077
    -1.0574  -1.0288  -1.0063  -0.9895  -0.9526  -0.9249  -0.8772  -0.8329
    -0.8256  -0.8007  -0.7513  -0.5902  -0.4176  -0.3707  -0.3504  -0.2795
    -0.2607  -0.2126  -0.0866  -0.0422  -0.0158   0.0088   0.0437   0.0817
     0.0911   0.1572   0.3416   0.3550   0.4249   0.4664   0.4725   0.5641
     0.6571   1.1109   1.1187   1.1452   1.1460   2.5906   3.2902   3.2922
     3.2946   3.3110   3.4103   3.4531   3.4617   3.5064   3.5804   3.6291

     the Fermi energy is     2.7084 ev

!    total energy              =   -2951.37633577 Ry
     estimated scf accuracy    <       0.00000003 Ry
     smearing contrib. (-TS)   =      -0.01719609 Ry
     internal energy E=F+TS    =   -2951.35913968 Ry

     The total energy is F=E-TS. E is the sum of the following terms:
     one-electron contribution =  -24271.05599128 Ry
     hartree contribution      =   12221.49004092 Ry
     xc contribution           =    -487.03341411 Ry
     ewald contribution        =    9585.24017406 Ry
     electric field correction =       0.00005074 Ry

     convergence has been achieved in  93 iterations

     Forces acting on atoms (cartesian axes, Ry/au):

     atom    1 type  1   force =     0.00006615   -0.00028788    0.10092229
     atom    2 type  1   force =    -0.00005844    0.00024690   -0.16915953
     atom    3 type  2   force =     0.00000459   -0.00004156   -0.03004997
     atom    4 type  2   force =     0.00000218   -0.00098492    0.04174947
     atom    5 type  2   force =    -0.00515321   -0.00241684   -0.00311133
     atom    6 type  2   force =     0.00630389   -0.00183442   -0.00472068
     atom    7 type  1   force =    -0.00066115   -0.00538288    0.02569955
     atom    8 type  1   force =     0.00077683    0.01604211    0.04164403
     atom    9 type  2   force =    -0.00021402    0.00019839   -0.00015618
     atom   10 type  2   force =    -0.00257921    0.00084876   -0.03487852
     atom   11 type  2   force =     0.00003955    0.00003512   -0.00006250
     atom   12 type  2   force =     0.00029537   -0.00035281   -0.00008033
     atom   13 type  1   force =    -0.00070786   -0.00017770    0.00057023
     atom   14 type  1   force =     0.00018115    0.00015716    0.00072110
     atom   15 type  2   force =     0.00024769    0.00010917   -0.00018516
     atom   16 type  2   force =     0.00004150   -0.00007316   -0.00052044
     atom   17 type  2   force =    -0.00017008    0.00009197   -0.00009794
     atom   18 type  2   force =     0.00020839   -0.00006730   -0.00008525
     atom   19 type  1   force =     0.00005252    0.00023887    0.00081598
     atom   20 type  1   force =    -0.00000408    0.00048098    0.00168346
     atom   21 type  2   force =     0.00007275    0.00015340    0.10147138
     atom   22 type  2   force =     0.00002109    0.00032999   -0.00024195
     atom   23 type  2   force =    -0.07490934   -0.00008646   -0.02882453
     atom   24 type  2   force =     0.07484113    0.00036538   -0.02885410
     atom   25 type  1   force =     0.00018321   -0.00035525    0.10077853
     atom   26 type  1   force =     0.00001054   -0.00114873   -0.16936729
     atom   27 type  2   force =     0.00004663   -0.00040047   -0.02853254
     atom   28 type  2   force =     0.00000968    0.00075539    0.03772778
     atom   29 type  2   force =    -0.00384447    0.00436915   -0.00534160
     atom   30 type  2   force =     0.00492235    0.00489291   -0.00701260
     atom   31 type  1   force =    -0.00064419    0.00464688    0.01151825
     atom   32 type  1   force =     0.00089093   -0.01905678    0.04101224
     atom   33 type  2   force =     0.00044207   -0.00006466   -0.00010473
     atom   34 type  2   force =    -0.00214085    0.00072943   -0.04010592
     atom   35 type  2   force =     0.00009391   -0.00044231   -0.00028074
     atom   36 type  2   force =     0.00017955   -0.00017464   -0.00003409
     atom   37 type  1   force =    -0.00004517   -0.00014633    0.00072012
     atom   38 type  1   force =     0.00001267    0.00001104    0.00054957
     atom   39 type  2   force =    -0.00006334    0.00027095   -0.00063699
     atom   40 type  2   force =     0.00032609   -0.00004754   -0.00033064
     atom   41 type  2   force =    -0.00004922    0.00009535    0.00004001
     atom   42 type  2   force =    -0.00005597    0.00009630    0.00006940
     atom   43 type  1   force =     0.00018924   -0.00005175    0.00130881
     atom   44 type  1   force =    -0.00014505   -0.00013252    0.00052178
     atom   45 type  2   force =     0.00006728   -0.00000147    0.10125700
     atom   46 type  2   force =    -0.07495850   -0.00001453   -0.02885361
     atom   47 type  2   force =     0.07487342    0.00041358   -0.02887984
     atom   48 type  3   force =     0.00742447    0.00055243    0.01252546
     atom   49 type  4   force =    -0.00696802   -0.00068768   -0.01469073
     atom   50 type  5   force =    -0.00197200   -0.00033059    0.00164196
     atom   51 type  5   force =     0.00211362   -0.00081909   -0.00003678
     atom   52 type  2   force =    -0.00023758   -0.00018388    0.00108932
     atom   53 type  5   force =     0.00064127   -0.00036748   -0.00080121

     Total force =     0.370588     Total SCF correction =     0.000380
  @ DRIVER MODE: Message from server: STATUS
  @ DRIVER MODE: Message from server: GETFORCE
  @ DRIVER MODE: Returning v,forces,stress,ensemble

     Writing output data file ./calc.save/
  @ DRIVER MODE: Message from server: EXIT
  @ DRIVE MODE: Exiting

     General routines

     Parallel routines

   This run was terminated on:  20: 3:59  22Sep2021

   JOB DONE.