     Program PWSCF v.6.7GPU starts on 15Sep2021 at 19:44: 0

     R & G space division:  proc/nbgrp/npool/nimage =      10
     Reading input from /storage/home/hcoda1/3/ntian30/research/carbon/CxH_vib/H2O_calc/ads_slab/CH3NHNH2H2O_a/out_0012/pw.inp
Warning: card &CELL ignored
Warning: card   CELL_DYNAMICS='IPI', ignored
Warning: card / ignored

     Current dimensions of program PWSCF are:
     Max number of different atomic species (ntypx) = 10
     Max number of k-points (npk) =  40000
     Max angular momentum in pseudopotentials (lmaxx) =  3
     Presently no symmetry can be used with electric field

     Message from routine cell_base_init:
     DEPRECATED: use true lattice parameter, not A to a.u. conversion factor

     IMPORTANT: XC functional enforced from input :
     Exchange-correlation= BEEF-VDW
                           (   1   4  43  14   2   0   0)
     Any further DFT definition will be discarded
     Please, verify this is what you really want

  @ DRIVER MODE: Connecting to
 qe_1139763_2852619.sched-torque.pace.gatech.edujtttelyc_scratch
  using UNIX socket
  @ DRIVER MODE: Message from server: STATUS
  @ DRIVER MODE: Message from server: INIT
  @ DRIVER MODE: Receiving replica           0          -1
  @ DRIVER MODE: Receiving encoded integer          25
  @ DRIVER MODE:  SCF:  T  FORCE:  T  STRESS:  F  VC:  F  ENSEMBLE:  F
  @ DRIVER MODE:  SCF:  T  FORCE:  T  STRESS:  F  VC:  F  ENSEMBLE:  F

     Using Slab Decomposition

     bravais-lattice index     =            0
     lattice parameter (alat)  =       1.8897  a.u.
     unit-cell volume          =    6658.9804 (a.u.)^3
     number of atoms/cell      =           59
     number of atomic types    =            5
     number of electrons       =       406.00
     number of Kohn-Sham states=          213
     kinetic-energy cutoff     =      29.3995  Ry
     charge density cutoff     =     293.9946  Ry
     scf convergence threshold =      7.3E-08
     mixing beta               =       0.0500
     number of iterations used =            8  plain     mixing
     Exchange-correlation= BEEF-VDW
                           (   1   4  43  14   2   0   0)

     celldm(1)=   1.889726  celldm(2)=   0.000000  celldm(3)=   0.000000
     celldm(4)=   0.000000  celldm(5)=   0.000000  celldm(6)=   0.000000

     crystal axes: (cart. coord. in units of alat)
               a(1) = (   6.579727   0.000000   0.000000 )
               a(2) = (  -0.000775   5.961596   0.000000 )
               a(3) = (   0.000000   0.000000  25.155947 )

     reciprocal axes: (cart. coord. in units 2 pi/alat)
               b(1) = (  0.151982  0.000020  0.000000 )
               b(2) = (  0.000000  0.167740  0.000000 )
               b(3) = (  0.000000  0.000000  0.039752 )

     PseudoPot. # 1 for Ti read from file:
     /storage/coda1/p-amedford6/0/shared/rich_project_chbe-medford/medford-share/data/pseudos_module/espresso/nninc/pbe/van/Ti.UPF
     MD5 check sum: 8e4df49b7f0d34bbd5052bf3f5ea0213
     Pseudo is Ultrasoft, Zval = 12.0
     Generated by new atomic code, or converted to UPF format
     Using radial grid of  851 points,  6 beta functions with:
                l(1) =   0
                l(2) =   0
                l(3) =   1
                l(4) =   1
                l(5) =   2
                l(6) =   2
     Q(r) pseudized with  8 coefficients,  rinner =    1.000   1.000   1.000
                                                       1.000   1.000

     PseudoPot. # 2 for O  read from file:
     /storage/coda1/p-amedford6/0/shared/rich_project_chbe-medford/medford-share/data/pseudos_module/espresso/nninc/pbe/van/O.UPF
     MD5 check sum: 78c19812648e8988a0fe644b0f25305e
     Pseudo is Ultrasoft, Zval =  6.0
     Generated by new atomic code, or converted to UPF format
     Using radial grid of  737 points,  4 beta functions with:
                l(1) =   0
                l(2) =   0
                l(3) =   1
                l(4) =   1
     Q(r) pseudized with  8 coefficients,  rinner =    0.800   0.800   0.800

     PseudoPot. # 3 for N  read from file:
     /storage/coda1/p-amedford6/0/shared/rich_project_chbe-medford/medford-share/data/pseudos_module/espresso/nninc/pbe/van/N.UPF
     MD5 check sum: 90d10febe142ad51ac9d5be1deb811c4
     Pseudo is Ultrasoft, Zval =  5.0
     Generated by new atomic code, or converted to UPF format
     Using radial grid of  729 points,  4 beta functions with:
                l(1) =   0
                l(2) =   0
                l(3) =   1
                l(4) =   1
     Q(r) pseudized with  8 coefficients,  rinner =    0.800   0.800   0.800

     PseudoPot. # 4 for C  read from file:
     /storage/coda1/p-amedford6/0/shared/rich_project_chbe-medford/medford-share/data/pseudos_module/espresso/nninc/pbe/van/C.UPF
     MD5 check sum: 1a69bf6b8db32088f5b2163dbdb77a27
     Pseudo is Ultrasoft, Zval =  4.0
     Generated by new atomic code, or converted to UPF format
     Using radial grid of  721 points,  4 beta functions with:
                l(1) =   0
                l(2) =   0
                l(3) =   1
                l(4) =   1
     Q(r) pseudized with  8 coefficients,  rinner =    0.800   0.800   0.800

     PseudoPot. # 5 for H  read from file:
     /storage/coda1/p-amedford6/0/shared/rich_project_chbe-medford/medford-share/data/pseudos_module/espresso/nninc/pbe/van/H.UPF
     MD5 check sum: b5ee9d7bfd3a09ee7748110bda690ff7
     Pseudo is Ultrasoft, Zval =  1.0
     Generated by new atomic code, or converted to UPF format
     Using radial grid of  615 points,  1 beta functions with:
                l(1) =   0
     Q(r) pseudized with  8 coefficients,  rinner =    0.800

     atomic species   valence    mass     pseudopotential
        Ti1           12.00    47.86700     Ti( 1.00)
        O1             6.00    15.99900     O ( 1.00)
        N1             5.00    14.00700     N ( 1.00)
        C1             4.00    12.01100     C ( 1.00)
        H1             1.00     1.00800     H ( 1.00)

     No symmetry found

   Cartesian axes

     site n.     atom                  positions (alat units)
         1           Ti1 tau(   1) = (   0.0004258   2.9801865   6.0000000  )
         2           Ti1 tau(   2) = (   3.2906075   1.4906267   6.0002472  )
         3           O1  tau(   3) = (   0.0006271   0.0005054   7.9858123  )
         4           O1  tau(   4) = (   3.2906025   0.0005020   7.3038282  )
         5           O1  tau(   5) = (   4.5942328   1.4918067   9.2879030  )
         6           O1  tau(   6) = (   1.9868534   1.4903216   9.2879459  )
         7           Ti1 tau(   7) = (   3.2907910   2.8959150   9.1758416  )
         8           Ti1 tau(   8) = (   0.0015273   1.4827037   9.2680791  )
         9           O1  tau(   9) = (   3.2683845   0.0132936  11.3796717  )
        10           O1  tau(  10) = (   0.0116148   5.9584955  10.6183126  )
        11           O1  tau(  11) = (   1.2681313   1.5011218  12.7194972  )
        12           O1  tau(  12) = (   5.2787963   1.4993765  12.6897032  )
        13           Ti1 tau(  13) = (   6.5560253   2.9823375  12.4990790  )
        14           Ti1 tau(  14) = (   3.2673924   1.4925278  12.5394213  )
        15           O1  tau(  15) = (   6.5345332   5.8735037  14.6996474  )
        16           O1  tau(  16) = (   3.2898196   5.9462848  13.9939205  )
        17           O1  tau(  17) = (   4.4957945   1.5291507  16.1605787  )
        18           O1  tau(  18) = (   1.9883785   1.5110281  16.0762771  )
        19           Ti1 tau(  19) = (   3.2526948   3.0056396  15.7740191  )
        20           Ti1 tau(  20) = (   0.0000763   1.3299063  15.8143521  )
        21           O1  tau(  21) = (   3.2904802   0.0005063   4.7018136  )
        22           O1  tau(  22) = (   6.5205728   0.2065101  17.2442985  )
        23           O1  tau(  23) = (   1.3043587   1.4918075   6.0039043  )
        24           O1  tau(  24) = (   5.2767064   1.4903225   6.0039473  )
        25           Ti1 tau(  25) = (   0.0000382   5.9609847   6.0000000  )
        26           Ti1 tau(  26) = (   3.2902200   4.4714249   6.0002472  )
        27           O1  tau(  27) = (   0.0002396   2.9813036   7.9858123  )
        28           O1  tau(  28) = (   3.2902150   2.9813002   7.3038282  )
        29           O1  tau(  29) = (   4.5938453   4.4726049   9.2879030  )
        30           O1  tau(  30) = (   1.9864658   4.4711199   9.2879459  )
        31           Ti1 tau(  31) = (   3.2891106   5.8743827   9.1763621  )
        32           Ti1 tau(  32) = (   0.0006254   4.4649316   9.2693709  )
        33           O1  tau(  33) = (   3.2688559   2.9716192  11.3757022  )
        34           O1  tau(  34) = (   0.0092240   2.9805883  10.6323155  )
        35           O1  tau(  35) = (   1.2711362   4.4646907  12.6658965  )
        36           O1  tau(  36) = (   5.2748280   4.4660984  12.6332574  )
        37           Ti1 tau(  37) = (   6.5627654   5.9477838  12.5072267  )
        38           Ti1 tau(  38) = (   3.2667511   4.4702655  12.5260729  )
        39           O1  tau(  39) = (   6.5087961   3.0586107  15.0099536  )
        40           O1  tau(  40) = (   3.2849776   3.0149387  13.9815115  )
        41           O1  tau(  41) = (   4.4906635   4.4862850  16.2792570  )
        42           O1  tau(  42) = (   1.9756856   4.4939852  16.2100911  )
        43           Ti1 tau(  43) = (   3.2747729   0.0241646  15.7895078  )
        44           Ti1 tau(  44) = (   6.5697470   4.5456975  16.1185117  )
        45           O1  tau(  45) = (   3.2900926   2.9813045   4.7018136  )
        46           O1  tau(  46) = (   1.3039711   4.4726057   6.0039043  )
        47           O1  tau(  47) = (   5.2763189   4.4711207   6.0039473  )
        48           N1  tau(  48) = (   0.9980056   3.0961469  19.0053282  )
        49           N1  tau(  49) = (   6.4063515   3.4839273  18.2329180  )
        50           C1  tau(  50) = (   1.6570833   4.2684698  19.5811903  )
        51           H1  tau(  51) = (   0.9936588   4.8902639  20.1979557  )
        52           H1  tau(  52) = (   2.4789334   3.9063689  20.1993048  )
        53           H1  tau(  53) = (   2.0598354   4.8861676  18.7819781  )
        54           H1  tau(  54) = (   0.6510520   2.5058952  19.7602174  )
        55           H1  tau(  55) = (   5.8507131   4.1735594  18.7414995  )
        56           H1  tau(  56) = (   5.8147758   2.6545292  18.1916272  )
        57           O1  tau(  57) = (   5.1718451   0.7889162  19.5681371  )
        58           H1  tau(  58) = (   5.5516362   0.5215711  18.6954158  )
        59           H1  tau(  59) = (   4.2099197   0.7512590  19.4668632  )

     number of k points=    10  Fermi-Dirac smearing, width (Ry)=  0.0073
                       cart. coord. in units 2pi/alat
        k(    1) = (   0.0000000   0.0000000   0.0000000), wk =   0.1250000
        k(    2) = (   0.0000000   0.0419351   0.0000000), wk =   0.2500000
        k(    3) = (   0.0000000  -0.0838702   0.0000000), wk =   0.1250000
        k(    4) = (   0.0379955   0.0000049   0.0000000), wk =   0.2500000
        k(    5) = (   0.0379955   0.0419400   0.0000000), wk =   0.2500000
        k(    6) = (   0.0379955  -0.0838652   0.0000000), wk =   0.2500000
        k(    7) = (   0.0379955  -0.0419301   0.0000000), wk =   0.2500000
        k(    8) = (  -0.0759910  -0.0000099   0.0000000), wk =   0.1250000
        k(    9) = (  -0.0759910   0.0419252   0.0000000), wk =   0.2500000
        k(   10) = (  -0.0759910  -0.0838800   0.0000000), wk =   0.1250000

     Initial potential from superposition of free atoms

     starting charge  389.99912, renormalised to  406.00000

     negative rho (up, down):  1.389E-02 0.000E+00

     %%%%%%%%%%%%%%%%%%%%%%%%%%%%%%%%%%%%%%%%%%%%%%%%%%%%%%%%%%%%%%%%%%%%%%%%
     %                                                                      %
     % You are using vdW-DF, which was implemented by the Thonhauser group. %
     % Please cite the following two papers that made this development      %
     % possible and the two reviews that describe the various versions:     %
     %                                                                      %
     %   T. Thonhauser et al., PRL 115, 136402 (2015).                      %
     %   T. Thonhauser et al., PRB 76, 125112 (2007).                       %
     %   K. Berland et al., Rep. Prog. Phys. 78, 066501 (2015).             %
     %   D.C. Langreth et al., J. Phys.: Condens. Matter 21, 084203 (2009). %
     %                                                                      %
     %                                                                      %
     % If you are calculating the stress with vdW-DF, please also cite:     %
     %                                                                      %
     %   R. Sabatini et al., J. Phys.: Condens. Matter 24, 424209 (2012).   %
     %                                                                      %
     %%%%%%%%%%%%%%%%%%%%%%%%%%%%%%%%%%%%%%%%%%%%%%%%%%%%%%%%%%%%%%%%%%%%%%%%

     Adding external electric field

     Computed dipole along edir(3) :
        Dipole              -16.7215 Ry au,        -42.5018 Debye
        Dipole field         -0.0316 Ry au,

        Potential amp.        2.9252 Ry
        Total length         46.3494 bohr

     Starting wfcs are  308 atomic wfcs
  @ DRIVER MODE: Message from server: STATUS
  @ DRIVER MODE: Message from server: POSDATA
  @ DRIVER MODE: Reading and sharing cell
  @ DRIVER MODE: Reading and sharing positions
  @ DRIVER MODE: Received positions

     Self-consistent Calculation

     iteration #  1     ecut=    29.40 Ry     beta= 0.05
     Davidson diagonalization with overlap
     c_bands:  2 eigenvalues not converged
     c_bands:  3 eigenvalues not converged
     c_bands:  2 eigenvalues not converged
     c_bands:  4 eigenvalues not converged
     c_bands:  1 eigenvalues not converged
     c_bands:  4 eigenvalues not converged
     c_bands:  3 eigenvalues not converged
     c_bands:  5 eigenvalues not converged
     c_bands:  3 eigenvalues not converged
     ethr =  1.00E-05,  avg # of iterations = 24.9

[...]

     total energy              =   -2136.61457676 Ry
     estimated scf accuracy    <    9693.36948498 Ry

     iteration #  2     ecut=    29.40 Ry     beta= 0.05
     Davidson diagonalization with overlap
     ethr =  1.00E-02,  avg # of iterations = 32.5

[...]

     iteration # 56     ecut=    29.40 Ry     beta= 0.05
     Davidson diagonalization with overlap
     c_bands:  2 eigenvalues not converged
     ethr =  1.02E-10,  avg # of iterations = 14.6

[...]

     total energy              =   -2977.68367370 Ry
     estimated scf accuracy    <       0.00000009 Ry

     iteration # 60     ecut=    29.40 Ry     beta= 0.05
     Davidson diagonalization with overlap
     ethr =  2.12E-11,  avg # of iterations = 13.1

     negative rho (up, down):  1.439E-02 0.000E+00

     Adding external electric field

     Computed dipole along edir(3) :
        Dipole                1.0154 Ry au,          2.5808 Debye
        Dipole field          0.0019 Ry au,

        Potential amp.       -0.1776 Ry
        Total length         46.3494 bohr

     End of self-consistent calculation

          k = 0.0000 0.0000 0.0000 ( 18029 PWs)   bands (ev):

   -55.3617 -55.3244 -55.3121 -55.2957 -55.2780 -55.2424 -55.2408 -55.2059
   -55.1847 -55.1833 -55.1503 -55.1445 -55.1109 -55.0199 -54.3444 -54.3103
   -31.9280 -31.8111 -31.8051 -31.7294 -31.6779 -31.6739 -31.6739 -31.6510
   -31.6010 -31.5969 -31.5737 -31.5712 -31.5571 -31.5412 -31.5325 -31.5286
   -31.5161 -31.5091 -31.4986 -31.4810 -31.4660 -31.4648 -31.4372 -31.4265
   -31.4191 -31.4153 -31.3949 -31.3873 -31.3709 -31.3693 -31.3647 -31.3556
   -31.3437 -31.3426 -31.3338 -31.3313 -31.2983 -31.2951 -31.2729 -31.2557
   -31.2322 -31.2301 -30.7539 -30.6593 -30.6373 -30.5702 -30.4834 -30.3725
   -18.0016 -17.6706 -16.1955 -15.9348 -15.7895 -15.6611 -15.5632 -15.4353
   -15.4158 -15.2938 -15.2235 -15.1199 -15.0686 -15.0501 -15.0144 -15.0042
   -14.9810 -14.9103 -14.9041 -14.8903 -14.8663 -14.8575 -14.8114 -14.8035
   -14.7623 -14.7380 -14.7136 -14.6149 -14.5247 -14.4499 -14.3426 -13.1443
   -12.8471 -12.7296  -9.4182  -6.3263  -5.8783  -5.7710  -4.2602  -3.5338
    -3.3851  -3.3159  -3.2801  -3.2548  -3.1212  -2.9637  -2.9183  -2.8058
    -2.7898  -2.6888  -2.6465  -2.5753  -2.5583  -2.5435  -2.3975  -2.3740
    -2.3488  -2.2822  -2.2553  -2.1882  -2.1672  -2.1563  -2.1466  -2.1238
    -2.0959  -2.0504  -1.9937  -1.9350  -1.8416  -1.8134  -1.7661  -1.7320
    -1.7157  -1.6981  -1.6531  -1.6421  -1.6024  -1.5879  -1.5647  -1.5535
    -1.3893  -1.3611  -1.2663  -1.2037  -1.1039  -1.0020  -0.9662  -0.9516
    -0.8547  -0.8362  -0.7826  -0.7422  -0.7399  -0.7053  -0.5936  -0.5312
    -0.4787  -0.4152  -0.3920  -0.3522  -0.2843  -0.2006  -0.1450  -0.1311
    -0.1132  -0.0925   0.0113   0.0236   0.0756   0.1502   0.1597   0.1659
     0.2396   0.2960   0.3663   0.3912   0.4090   0.5141   0.5296   0.5619
     0.5678   0.5975   0.6184   0.6432   0.7036   0.7339   0.8170   0.9387
     1.1305   1.2198   1.2472   1.3707   1.5702   1.5828   1.6784   1.8615
     2.2547   2.3031   3.7354   3.8065   3.8813   3.8853   3.9077   3.9717
     4.2084   4.2259   4.2403   4.2440   4.2681

[...]

          k = 0.0380-0.0419 0.0000 ( 17876 PWs)   bands (ev):

[...]

          k =-0.0760-0.0000 0.0000 ( 17886 PWs)   bands (ev):

[...]

          k =-0.0760-0.0839 0.0000 ( 17948 PWs)   bands (ev):

   -55.3480 -55.3379 -55.2953 -55.2947 -55.2944 -55.2352 -55.2302 -55.2180
   -55.1888 -55.1687 -55.1659 -55.1279 -55.1276 -55.0210 -54.3275 -54.3271
   -31.7361 -31.7281 -31.7268 -31.6416 -31.6219 -31.6204 -31.6200 -31.5864
   -31.5861 -31.5751 -31.5610 -31.5599 -31.5531 -31.5335 -31.5218 -31.5081
   -31.5016 -31.4985 -31.4970 -31.4954 -31.4886 -31.4813 -31.4491 -31.4415
   -31.4384 -31.4380 -31.4239 -31.4196 -31.4150 -31.4145 -31.4091 -31.4015
   -31.3991 -31.3819 -31.3787 -31.3764 -31.3617 -31.3587 -31.3091 -31.3085
   -31.3024 -31.2359 -30.6501 -30.6498 -30.5665 -30.5663 -30.5269 -30.5267
   -17.9884 -17.6809 -15.6770 -15.5910 -15.5700 -15.4149 -15.3633 -15.3368
   -15.3258 -15.2105 -15.1679 -15.1488 -15.1342 -15.1125 -15.0742 -15.0646
   -15.0578 -14.9947 -14.9743 -14.9655 -14.9395 -14.8855 -14.8780 -14.8700
   -14.8622 -14.8123 -14.8085 -14.7695 -14.7177 -14.7143 -14.6384 -13.1506
   -12.8310 -12.8310  -9.4229  -6.3480  -5.9171  -5.6792  -4.2381  -2.9291
    -2.8488  -2.8376  -2.8310  -2.6961  -2.6282  -2.5528  -2.5305  -2.5088
    -2.4222  -2.4109  -2.3804  -2.3551  -2.3251  -2.2866  -2.2481  -2.2420
    -2.2062  -2.1976  -2.1819  -2.1653  -2.1424  -2.1266  -2.0944  -2.0837
    -2.0691  -2.0253  -2.0003  -1.9838  -1.9650  -1.9443  -1.9356  -1.9182
    -1.8420  -1.7522  -1.7287  -1.6424  -1.5723  -1.5704  -1.5612  -1.5043
    -1.4611  -1.4217  -1.3977  -1.3797  -1.2415  -1.1696  -1.1259  -1.1116
    -1.0969  -0.9662  -0.9589  -0.8834  -0.8612  -0.8549  -0.7568  -0.7151
    -0.6782  -0.6715  -0.5847  -0.5722  -0.4964  -0.3981  -0.3763  -0.3622
    -0.3174  -0.3156  -0.2781  -0.2651  -0.1688  -0.1331  -0.1054  -0.0993
    -0.0814  -0.0413   0.1097   0.1586   0.1651   0.2979   0.3301   0.4685
     0.4984   0.5628   0.6424   0.6911   0.7438   0.7765   0.8634   0.9379
     0.9411   1.0044   1.0200   1.0861   1.0983   1.3768   2.0346   2.0351
     2.1229   2.1233   3.8835   3.9983   4.0020   4.0312   4.1534   4.1769
     4.2531   4.2807   4.3199   4.3232   4.3813

     the Fermi energy is     3.7994 ev

!    total energy              =   -2977.68373589 Ry
     estimated scf accuracy    <       0.00000004 Ry
     smearing contrib. (-TS)   =      -0.03717684 Ry
     internal energy E=F+TS    =   -2977.64655906 Ry

     The total energy is F=E-TS. E is the sum of the following terms:
     one-electron contribution =  -22679.58918794 Ry
     hartree contribution      =   11437.13905310 Ry
     xc contribution           =    -496.62194356 Ry
     ewald contribution        =    8761.42357377 Ry
     electric field correction =       0.00194556 Ry

     convergence has been achieved in  60 iterations

     Forces acting on atoms (cartesian axes, Ry/au):

     atom    1 type  1   force =     0.00025335   -0.00037693    0.09324358
     atom    2 type  1   force =     0.00003091   -0.00038046   -0.17816114
     atom    3 type  2   force =     0.00004839   -0.00041570   -0.02001032
     atom    4 type  2   force =     0.00001000   -0.00190182    0.05911299
     atom    5 type  2   force =    -0.01036342   -0.00058943    0.00860130
     atom    6 type  2   force =     0.01131065    0.00010185    0.00626619
     atom    7 type  1   force =    -0.00097401    0.00198708   -0.01427198
     atom    8 type  1   force =     0.00097842   -0.00256168   -0.00600363
     atom    9 type  2   force =     0.00016913   -0.00002057    0.00008330
     atom   10 type  2   force =    -0.00231169    0.00309262    0.00261466
     atom   11 type  2   force =     0.00040248   -0.00043755   -0.00057015
     atom   12 type  2   force =     0.00005310   -0.00041897   -0.00057584
     atom   13 type  1   force =     0.00033541   -0.00026984   -0.00020947
     atom   14 type  1   force =     0.00004819   -0.00008498   -0.00006277
     atom   15 type  2   force =     0.00000984    0.00043402    0.00003022
     atom   16 type  2   force =     0.00030786    0.00027552   -0.00014033
     atom   17 type  2   force =     0.00043738    0.00026426    0.00037369
     atom   18 type  2   force =    -0.00052963    0.00021019   -0.00010146
     atom   19 type  1   force =    -0.00015390    0.00006135    0.00039411
     atom   20 type  1   force =    -0.00007266   -0.00020128    0.00068442
     atom   21 type  2   force =     0.00011894   -0.00011053    0.10403317
     atom   22 type  2   force =     0.00015338   -0.00027197    0.00044860
     atom   23 type  2   force =    -0.07031608   -0.00019293   -0.02687915
     atom   24 type  2   force =     0.07029451    0.00025242   -0.02687980
     atom   25 type  1   force =     0.00016966   -0.00031080    0.09240191
     atom   26 type  1   force =     0.00004437   -0.00054211   -0.17849272
     atom   27 type  2   force =     0.00008274   -0.00021145   -0.01907672
     atom   28 type  2   force =     0.00006009   -0.00173200    0.05853294
     atom   29 type  2   force =    -0.01103023   -0.00113804    0.00943444
     atom   30 type  2   force =     0.01188642   -0.00069527    0.00721992
     atom   31 type  1   force =    -0.00088098    0.00646384   -0.01492899
     atom   32 type  1   force =     0.00101894    0.00219160   -0.00640439
     atom   33 type  2   force =     0.00025977    0.00009909    0.00001078
     atom   34 type  2   force =    -0.00214650   -0.00243484   -0.00032031
     atom   35 type  2   force =     0.00026535    0.00013196   -0.00001662
     atom   36 type  2   force =     0.00026698    0.00004164    0.00049992
     atom   37 type  1   force =    -0.00008931    0.00002974   -0.00008477
     atom   38 type  1   force =     0.00014099   -0.00006854    0.00000010
     atom   39 type  2   force =    -0.00011539   -0.00020865    0.00052956
     atom   40 type  2   force =    -0.00014105    0.00008565    0.00004806
     atom   41 type  2   force =    -0.00030284    0.00009744    0.00035336
     atom   42 type  2   force =     0.00018720   -0.00012932   -0.00014881
     atom   43 type  1   force =     0.00037613    0.00030211    0.00000943
     atom   44 type  1   force =    -0.00011133   -0.00021097    0.00080053
     atom   45 type  2   force =     0.00011878   -0.00010963    0.10397058
     atom   46 type  2   force =    -0.07027737   -0.00013091   -0.02681980
     atom   47 type  2   force =     0.07026967    0.00027463   -0.02688406
     atom   48 type  3   force =    -0.00000995   -0.00052418    0.00312957
     atom   49 type  3   force =     0.00049032   -0.00382507   -0.01305352
     atom   50 type  4   force =     0.00051232   -0.00020328    0.00021335
     atom   51 type  5   force =    -0.00072290    0.00025268    0.00035684
     atom   52 type  5   force =     0.00043662    0.00008513    0.00035479
     atom   53 type  5   force =    -0.00008014    0.00020318   -0.00050277
     atom   54 type  5   force =     0.00148203   -0.00052732    0.00082753
     atom   55 type  5   force =    -0.00284299    0.00466995    0.00507208
     atom   56 type  5   force =     0.00028707    0.00012216    0.00164271
     atom   57 type  2   force =    -0.00101955   -0.00076128    0.00083385
     atom   58 type  5   force =     0.00004228   -0.00024263   -0.00008962
     atom   59 type  5   force =     0.00113225    0.00051083   -0.00143934

     Total force =     0.366647     Total SCF correction =     0.000676
  @ DRIVER MODE: Message from server: STATUS
  @ DRIVER MODE: Message from server: GETFORCE
  @ DRIVER MODE: Returning v,forces,stress,ensemble

     Writing output data file ./calc.save/
  @ DRIVER MODE: Message from server: EXIT
  @ DRIVE MODE: Exiting

     General routines

     Parallel routines

   This run was terminated on:  20: 2:48  15Sep2021

   JOB DONE.