     Program PWSCF v.6.7GPU starts on 18Oct2021 at 17:11:10

     R & G space division:  proc/nbgrp/npool/nimage =       8
     Reading input from /storage/home/hcoda1/3/ntian30/research/carbon/CxH_vib/Thiel_calc/ads_slab/HNNH_perslab/out_0011/pw.inp
Warning: card &CELL ignored
Warning: card   CELL_DYNAMICS='IPI', ignored
Warning: card / ignored

     Current dimensions of program PWSCF are:
     Max number of different atomic species (ntypx) = 10
     Max number of k-points (npk) =  40000
     Max angular momentum in pseudopotentials (lmaxx) =  3
     Presently no symmetry can be used with electric field

     Message from routine cell_base_init:
     DEPRECATED: use true lattice parameter, not A to a.u. conversion factor

     IMPORTANT: XC functional enforced from input :
     Exchange-correlation= BEEF-VDW
                           (   1   4  43  14   2   0   0)
     Any further DFT definition will be discarded
     Please, verify this is what you really want

  @ DRIVER MODE: Connecting to
 qe_1139763_3255131.sched-torque.pace.gatech.eduq070do4l_scratch
  using UNIX socket
  @ DRIVER MODE: Message from server: STATUS
  @ DRIVER MODE: Message from server: INIT
  @ DRIVER MODE: Receiving replica           0          -1
  @ DRIVER MODE: Receiving encoded integer          25
  @ DRIVER MODE:  SCF:  T  FORCE:  T  STRESS:  F  VC:  F  ENSEMBLE:  F
  @ DRIVER MODE:  SCF:  T  FORCE:  T  STRESS:  F  VC:  F  ENSEMBLE:  F

     Using Slab Decomposition

     bravais-lattice index     =            0
     lattice parameter (alat)  =       1.8897  a.u.
     unit-cell volume          =    9988.4706 (a.u.)^3
     number of atoms/cell      =           57
     number of atomic types    =            4
     number of electrons       =       438.00
     number of Kohn-Sham states=          229
     kinetic-energy cutoff     =      29.3995  Ry
     charge density cutoff     =     293.9946  Ry
     scf convergence threshold =      7.3E-08
     mixing beta               =       0.0500
     number of iterations used =            8  plain     mixing
     Exchange-correlation= BEEF-VDW
                           (   1   4  43  14   2   0   0)

     celldm(1)=   1.889726  celldm(2)=   0.000000  celldm(3)=   0.000000
     celldm(4)=   0.000000  celldm(5)=   0.000000  celldm(6)=   0.000000

     crystal axes: (cart. coord. in units of alat)
               a(1) = (   6.579727   0.000000   0.000000 )
               a(2) = (  -0.001163   8.942395   0.000000 )
               a(3) = (   0.000000   0.000000  25.155947 )

     reciprocal axes: (cart. coord. in units 2 pi/alat)
               b(1) = (  0.151982  0.000020  0.000000 )
               b(2) = (  0.000000  0.111827  0.000000 )
               b(3) = (  0.000000  0.000000  0.039752 )

     PseudoPot. # 1 for O  read from file:
     /storage/coda1/p-amedford6/0/shared/rich_project_chbe-medford/medford-share/data/pseudos_module/espresso/nninc/pbe/van/O.UPF
     MD5 check sum: 78c19812648e8988a0fe644b0f25305e
     Pseudo is Ultrasoft, Zval =  6.0
     Generated by new atomic code, or converted to UPF format
     Using radial grid of  737 points,  4 beta functions with:
                l(1) =   0
                l(2) =   0
                l(3) =   1
                l(4) =   1
     Q(r) pseudized with  8 coefficients,  rinner =    0.800   0.800   0.800

     PseudoPot. # 2 for Ti read from file:
     /storage/coda1/p-amedford6/0/shared/rich_project_chbe-medford/medford-share/data/pseudos_module/espresso/nninc/pbe/van/Ti.UPF
     MD5 check sum: 8e4df49b7f0d34bbd5052bf3f5ea0213
     Pseudo is Ultrasoft, Zval = 12.0
     Generated by new atomic code, or converted to UPF format
     Using radial grid of  851 points,  6 beta functions with:
                l(1) =   0
                l(2) =   0
                l(3) =   1
                l(4) =   1
                l(5) =   2
                l(6) =   2
     Q(r) pseudized with  8 coefficients,  rinner =    1.000   1.000   1.000
                                                       1.000   1.000

     PseudoPot. # 3 for H  read from file:
     /storage/coda1/p-amedford6/0/shared/rich_project_chbe-medford/medford-share/data/pseudos_module/espresso/nninc/pbe/van/H.UPF
     MD5 check sum: b5ee9d7bfd3a09ee7748110bda690ff7
     Pseudo is Ultrasoft, Zval =  1.0
     Generated by new atomic code, or converted to UPF format
     Using radial grid of  615 points,  1 beta functions with:
                l(1) =   0
     Q(r) pseudized with  8 coefficients,  rinner =    0.800

     PseudoPot. # 4 for N  read from file:
     /storage/coda1/p-amedford6/0/shared/rich_project_chbe-medford/medford-share/data/pseudos_module/espresso/nninc/pbe/van/N.UPF
     MD5 check sum: 90d10febe142ad51ac9d5be1deb811c4
     Pseudo is Ultrasoft, Zval =  5.0
     Generated by new atomic code, or converted to UPF format
     Using radial grid of  729 points,  4 beta functions with:
                l(1) =   0
                l(2) =   0
                l(3) =   1
                l(4) =   1
     Q(r) pseudized with  8 coefficients,  rinner =    0.800   0.800   0.800

     atomic species   valence    mass     pseudopotential
        O1             6.00    15.99900     O ( 1.00)
        Ti1           12.00    47.86700     Ti( 1.00)
        H1             1.00     1.00800     H ( 1.00)
        N1             5.00    14.00700     N ( 1.00)

     No symmetry found

   Cartesian axes

     site n.     atom                  positions (alat units)
         1           O1  tau(   1) = (   0.0007354   0.0005023  10.5931620  )
         2           O1  tau(   2) = (   3.2896598   8.9340738  13.9086047  )
         3           O1  tau(   3) = (   6.5779785   8.9335072  17.2267929  )
         4           O1  tau(   4) = (   0.0006271   0.0005054   7.9858123  )
         5           O1  tau(   5) = (   3.2892818   8.9168625  11.1887994  )
         6           O1  tau(   6) = (   0.0000953   0.0200859  14.6187425  )
         7           O1  tau(   7) = (   1.9868534   1.4903216   9.2879459  )
         8           O1  tau(   8) = (   5.2299496   1.5903429  12.5639559  )
         9           O1  tau(   9) = (   2.0057315   1.6103507  16.0678580  )
        10           Ti1 tau(  10) = (   0.0007404   1.4906270   9.2895810  )
        11           Ti1 tau(  11) = (   3.2903845   1.3415648  12.5012035  )
        12           Ti1 tau(  12) = (   0.0001950   1.2451541  15.9845895  )
        13           O1  tau(  13) = (   4.5942328   1.4918067   9.2879030  )
        14           O1  tau(  14) = (   1.3504490   1.5899334  12.5641350  )
        15           O1  tau(  15) = (   4.5723762   1.6092463  16.0679920  )
        16           Ti1 tau(  16) = (   3.2902859   2.9801868   9.2893338  )
        17           Ti1 tau(  17) = (  -0.0000381   2.8017340  12.4757424  )
        18           Ti1 tau(  18) = (   3.2890522   2.9119407  15.7046117  )
        19           O1  tau(  19) = (   0.0003479   2.9813005  10.5931620  )
        20           O1  tau(  20) = (   3.2896940   2.9634103  13.8950687  )
        21           O1  tau(  21) = (   0.0002396   2.9813036   7.9858123  )
        22           O1  tau(  22) = (   3.2899864   2.9652420  11.1892519  )
        23           O1  tau(  23) = (  -0.0000843   3.0239999  14.5506518  )
        24           O1  tau(  24) = (   1.9864658   4.4711199   9.2879459  )
        25           O1  tau(  25) = (   5.2265999   4.6000300  12.5825491  )
        26           O1  tau(  26) = (   2.0173024   4.5375175  16.0298170  )
        27           Ti1 tau(  27) = (   0.0003529   4.4714252   9.2895810  )
        28           Ti1 tau(  28) = (   3.2900658   4.3228872  12.5050252  )
        29           Ti1 tau(  29) = (   0.0015352   4.3959346  15.6897578  )
        30           O1  tau(  30) = (   4.5938453   4.4726049   9.2879030  )
        31           O1  tau(  31) = (   1.3532953   4.6000771  12.5829012  )
        32           O1  tau(  32) = (   4.5620845   4.5358613  16.0300787  )
        33           Ti1 tau(  33) = (   3.2898983   5.9609850   9.2893338  )
        34           Ti1 tau(  34) = (  -0.0003676   5.8120669  12.4544080  )
        35           Ti1 tau(  35) = (   3.2921900   5.8807914  15.7090278  )
        36           O1  tau(  36) = (  -0.0000397   5.9620987  10.5931620  )
        37           O1  tau(  37) = (   3.2903388   5.9631658  13.9136923  )
        38           O1  tau(  38) = (  -0.0000761   5.9602876  17.3216368  )
        39           O1  tau(  39) = (  -0.0001480   5.9621018   7.9858123  )
        40           O1  tau(  40) = (   3.2896813   5.9437884  11.1873515  )
        41           O1  tau(  41) = (  -0.0004454   6.0514558  14.6911356  )
        42           O1  tau(  42) = (   1.9860782   7.4519181   9.2879459  )
        43           O1  tau(  43) = (   5.2331690   7.5528723  12.5749626  )
        44           O1  tau(  44) = (   2.0197658   7.5481525  16.0489791  )
        45           Ti1 tau(  45) = (  -0.0000347   7.4522234   9.2895810  )
        46           Ti1 tau(  46) = (   3.2899396   7.3045924  12.4973202  )
        47           Ti1 tau(  47) = (   0.0022254   7.3576980  16.0878887  )
        48           O1  tau(  48) = (   4.5934577   7.4534031   9.2879030  )
        49           O1  tau(  49) = (   1.3462119   7.5526743  12.5754142  )
        50           O1  tau(  50) = (   4.5579802   7.5455642  16.0489991  )
        51           Ti1 tau(  51) = (   3.2895107   8.9417832   9.2893338  )
        52           Ti1 tau(  52) = (  -0.0004108   8.7719052  12.5005688  )
        53           Ti1 tau(  53) = (   3.2909707   8.8596889  15.7095313  )
        54           H1  tau(  54) = (   6.5770345   5.6246256  18.2315160  )
        55           N1  tau(  55) = (   6.5773047   3.3138987  18.5216601  )
        56           N1  tau(  56) = (   6.5788436   3.1068121  17.3210979  )
        57           H1  tau(  57) = (   6.5767427   2.4184016  19.0716447  )

     number of k points=    10  Fermi-Dirac smearing, width (Ry)=  0.0073
                       cart. coord. in units 2pi/alat
        k(    1) = (   0.0000000   0.0000000   0.0000000), wk =   0.1250000
        k(    2) = (   0.0000000   0.0279567   0.0000000), wk =   0.2500000
        k(    3) = (   0.0000000  -0.0559134   0.0000000), wk =   0.1250000
        k(    4) = (   0.0379955   0.0000049   0.0000000), wk =   0.2500000
        k(    5) = (   0.0379955   0.0279617   0.0000000), wk =   0.2500000
        k(    6) = (   0.0379955  -0.0559085   0.0000000), wk =   0.2500000
        k(    7) = (   0.0379955  -0.0279518   0.0000000), wk =   0.2500000
        k(    8) = (  -0.0759910  -0.0000099   0.0000000), wk =   0.1250000
        k(    9) = (  -0.0759910   0.0279468   0.0000000), wk =   0.2500000
        k(   10) = (  -0.0759910  -0.0559233   0.0000000), wk =   0.1250000

     Initial potential from superposition of free atoms

     starting charge  419.99912, renormalised to  438.00000

     negative rho (up, down):  3.866E-02 0.000E+00

     %%%%%%%%%%%%%%%%%%%%%%%%%%%%%%%%%%%%%%%%%%%%%%%%%%%%%%%%%%%%%%%%%%%%%%%%
     %                                                                      %
     % You are using vdW-DF, which was implemented by the Thonhauser group. %
     % Please cite the following two papers that made this development      %
     % possible and the two reviews that describe the various versions:     %
     %                                                                      %
     %   T. Thonhauser et al., PRL 115, 136402 (2015).                      %
     %   T. Thonhauser et al., PRB 76, 125112 (2007).                       %
     %   K. Berland et al., Rep. Prog. Phys. 78, 066501 (2015).             %
     %   D.C. Langreth et al., J. Phys.: Condens. Matter 21, 084203 (2009). %
     %                                                                      %
     %                                                                      %
     % If you are calculating the stress with vdW-DF, please also cite:     %
     %                                                                      %
     %   R. Sabatini et al., J. Phys.: Condens. Matter 24, 424209 (2012).   %
     %                                                                      %
     %%%%%%%%%%%%%%%%%%%%%%%%%%%%%%%%%%%%%%%%%%%%%%%%%%%%%%%%%%%%%%%%%%%%%%%%

     Adding external electric field

     Computed dipole along edir(3) :
        Dipole               -4.5366 Ry au,        -11.5310 Debye
        Dipole field         -0.0057 Ry au,

        Potential amp.        0.5291 Ry
        Total length         46.3494 bohr

     Starting wfcs are  330 atomic wfcs
  @ DRIVER MODE: Message from server: STATUS
  @ DRIVER MODE: Message from server: POSDATA
  @ DRIVER MODE: Reading and sharing cell
  @ DRIVER MODE: Reading and sharing positions
  @ DRIVER MODE: Received positions

     Self-consistent Calculation

     iteration #  1     ecut=    29.40 Ry     beta= 0.05
     Davidson diagonalization with overlap
     c_bands:  3 eigenvalues not converged
     c_bands:  2 eigenvalues not converged
     c_bands:  3 eigenvalues not converged
     c_bands:  4 eigenvalues not converged
     c_bands:  4 eigenvalues not converged
     c_bands:  1 eigenvalues not converged
     c_bands:  2 eigenvalues not converged
     ethr =  1.00E-05,  avg # of iterations = 24.9

[...]

     total energy              =   -3289.49801891 Ry
     estimated scf accuracy    <      54.10291290 Ry

     iteration #  2     ecut=    29.40 Ry     beta= 0.05
     Davidson diagonalization with overlap
     ethr =  1.00E-02,  avg # of iterations =  5.4

[...]

     iteration # 36     ecut=    29.40 Ry     beta= 0.05
     Davidson diagonalization with overlap
     c_bands:  1 eigenvalues not converged
     c_bands:  1 eigenvalues not converged
     ethr =  1.51E-06,  avg # of iterations = 16.2

[...]

     total energy              =   -3290.76642673 Ry
     estimated scf accuracy    <       0.00000029 Ry

     iteration # 64     ecut=    29.40 Ry     beta= 0.05
     Davidson diagonalization with overlap
     ethr =  6.60E-11,  avg # of iterations =  6.3

     negative rho (up, down):  3.654E-02 0.000E+00

     Adding external electric field

     Computed dipole along edir(3) :
        Dipole                1.2203 Ry au,          3.1017 Debye
        Dipole field          0.0015 Ry au,

        Potential amp.       -0.1423 Ry
        Total length         46.3494 bohr

     End of self-consistent calculation

          k = 0.0000 0.0000 0.0000 ( 26871 PWs)   bands (ev):

   -57.9727 -57.9717 -57.9683 -57.9481 -57.9457 -57.9097 -57.8494 -57.8044
   -57.7805 -57.7713 -57.7018 -57.6798 -57.6477 -57.3894 -57.3653 -56.9131
   -56.8899 -56.8757 -34.3704 -34.3627 -34.3607 -34.3473 -34.3447 -34.3119
   -34.3030 -34.2948 -34.2924 -34.2854 -34.2479 -34.2428 -34.1847 -34.1795
   -34.1721 -34.1701 -34.1601 -34.1471 -34.1430 -34.1390 -34.1205 -34.0979
   -34.0888 -34.0702 -34.0683 -34.0669 -34.0582 -34.0350 -34.0126 -33.9653
   -33.9652 -33.9542 -33.9379 -33.9302 -33.9260 -33.9219 -33.8942 -33.8711
   -33.8611 -33.8202 -33.6869 -33.6704 -33.6319 -33.6056 -33.5775 -33.2349
   -33.2274 -33.2183 -33.2121 -33.2057 -33.1345 -33.0756 -33.0599 -32.9323
   -20.9581 -19.3929 -18.8068 -18.4107 -18.2201 -18.2050 -18.1961 -18.1383
   -18.0608 -18.0570 -17.8811 -17.7876 -17.7686 -17.7384 -17.7201 -17.6912
   -17.6329 -17.6110 -17.5900 -17.5798 -17.5601 -17.5537 -17.4753 -17.4139
   -17.3865 -17.3809 -17.3700 -17.3663 -17.2985 -17.2147 -17.1243 -17.0619
   -17.0350 -15.3773 -15.3238 -15.3185 -11.2448  -7.6661  -7.2135  -6.1288
    -5.9247  -5.8514  -5.7770  -5.4741  -5.4297  -5.4129  -5.3769  -5.3266
    -5.3023  -5.2842  -5.2271  -5.2078  -5.2068  -5.1880  -5.1081  -5.0798
    -5.0538  -4.9817  -4.9365  -4.9137  -4.8509  -4.8368  -4.7402  -4.7370
    -4.7123  -4.7103  -4.6980  -4.6805  -4.6314  -4.6215  -4.5465  -4.5139
    -4.4695  -4.3492  -4.3342  -4.2623  -4.2480  -4.2186  -4.1359  -4.0712
    -4.0628  -4.0444  -4.0092  -3.9751  -3.9419  -3.9075  -3.8590  -3.7816
    -3.7124  -3.6740  -3.5617  -3.5067  -3.4788  -3.4497  -3.3727  -3.3557
    -3.3155  -3.2419  -3.1929  -3.1532  -3.1158  -3.1144  -3.0803  -2.9814
    -2.9755  -2.8997  -2.8144  -2.7896  -2.7078  -2.7002  -2.6880  -2.6718
    -2.6542  -2.6247  -2.5953  -2.5660  -2.4894  -2.4745  -2.4489  -2.3964
    -2.2898  -2.2730  -2.2681  -2.2508  -2.2479  -2.1804  -2.0811  -1.9739
    -1.9735  -1.9612  -1.8223  -1.7956  -1.7381  -1.7346  -1.6890  -1.6173
    -1.5616  -1.1709  -0.9311  -0.6451  -0.6126  -0.6041  -0.3657  -0.3559
    -0.2377   0.0276   1.0041   1.2735   1.3572   1.4376   1.4904   1.4964
     1.6204   1.6439   1.6781   1.7241   1.7714

[...]

          k = 0.0380-0.0280 0.0000 ( 26873 PWs)   bands (ev):

[...]

          k =-0.0760-0.0000 0.0000 ( 26902 PWs)   bands (ev):

[...]

          k =-0.0760-0.0559 0.0000 ( 26868 PWs)   bands (ev):

   -57.9704 -57.9692 -57.9653 -57.9628 -57.9384 -57.9104 -57.8490 -57.8001
   -57.7890 -57.7668 -57.6996 -57.6832 -57.6465 -57.3896 -57.3651 -56.9092
   -56.8972 -56.8723 -34.4391 -34.4287 -34.3760 -34.3619 -34.3269 -34.3051
   -34.3016 -34.2918 -34.2639 -34.2565 -34.2189 -34.1989 -34.1977 -34.1615
   -34.1588 -34.1561 -34.1538 -34.1372 -34.1148 -34.1128 -34.1081 -34.1014
   -34.0978 -34.0623 -34.0556 -34.0459 -34.0257 -34.0206 -33.9981 -33.9921
   -33.9865 -33.9863 -33.9732 -33.9701 -33.9416 -33.9259 -33.9214 -33.8706
   -33.8536 -33.7759 -33.7286 -33.6736 -33.6334 -33.6076 -33.5787 -33.3116
   -33.2367 -33.2253 -33.2021 -33.1200 -33.1053 -33.0469 -33.0353 -33.0218
   -20.9572 -19.3871 -18.4991 -18.4865 -18.1733 -18.1054 -18.0710 -18.0397
   -17.9996 -17.9629 -17.9353 -17.9246 -17.8950 -17.8022 -17.7880 -17.7162
   -17.6981 -17.6699 -17.6566 -17.6283 -17.5930 -17.5890 -17.5756 -17.4716
   -17.4623 -17.3755 -17.3556 -17.3140 -17.2572 -17.2121 -17.1130 -17.0964
   -17.0027 -15.3798 -15.3721 -15.2583 -11.2423  -7.6485  -7.1974  -5.7590
    -5.7517  -5.7169  -5.6990  -5.6665  -5.3857  -5.3801  -5.2093  -5.2086
    -5.2032  -5.1663  -5.1442  -5.1038  -5.0879  -5.0776  -5.0636  -5.0585
    -5.0050  -4.9939  -4.9382  -4.9095  -4.8601  -4.8565  -4.8442  -4.7893
    -4.7638  -4.7373  -4.7253  -4.7151  -4.5709  -4.5475  -4.5215  -4.4846
    -4.4452  -4.4288  -4.3557  -4.2965  -4.2229  -4.1058  -4.0853  -4.0778
    -4.0238  -3.9852  -3.9216  -3.8731  -3.7193  -3.6834  -3.6585  -3.5902
    -3.5612  -3.5508  -3.5327  -3.5104  -3.4960  -3.4466  -3.4377  -3.3833
    -3.3490  -3.3293  -3.3027  -3.2105  -3.1592  -3.1245  -3.0857  -3.0699
    -3.0565  -3.0436  -3.0176  -3.0128  -3.0102  -2.9464  -2.9375  -2.8944
    -2.8518  -2.7609  -2.7306  -2.6916  -2.6350  -2.5307  -2.5110  -2.4604
    -2.4501  -2.3910  -2.2063  -2.1936  -2.1764  -2.1329  -2.0871  -2.0464
    -2.0380  -2.0182  -1.9685  -1.8622  -1.7240  -1.7048  -1.5442  -1.4760
    -1.4678  -1.4470  -1.2454  -0.8285  -0.5442  -0.5160  -0.5108  -0.3691
    -0.3658   0.0298   1.1657   1.1888   1.2550   1.3278   1.3628   1.3709
     1.3914   1.4931   1.4965   1.5987   1.6641

     the Fermi energy is     1.1035 ev

!    total energy              =   -3290.76646179 Ry
     estimated scf accuracy    <       0.00000005 Ry
     smearing contrib. (-TS)   =      -0.03257105 Ry
     internal energy E=F+TS    =   -3290.73389074 Ry

     The total energy is F=E-TS. E is the sum of the following terms:
     one-electron contribution =  -34501.91703591 Ry
     hartree contribution      =   17312.39416398 Ry
     xc contribution           =    -540.52607661 Ry
     ewald contribution        =   14439.31318432 Ry
     electric field correction =       0.00187348 Ry

     convergence has been achieved in  64 iterations

     Forces acting on atoms (cartesian axes, Ry/au):

     atom    1 type  1   force =    -0.00000205    0.00294938    0.06156607
     atom    2 type  1   force =     0.00005592    0.00059691   -0.00856448
     atom    3 type  1   force =     0.00000758   -0.00422245    0.00144466
     atom    4 type  1   force =     0.00004965   -0.00106302    0.10518331
     atom    5 type  1   force =     0.00005029   -0.00001830    0.01003175
     atom    6 type  1   force =    -0.00003368   -0.00415317    0.00721243
     atom    7 type  1   force =     0.07078960   -0.00018325   -0.02970451
     atom    8 type  1   force =     0.00424301   -0.02881383    0.00207025
     atom    9 type  1   force =     0.00612376   -0.02300031    0.00291990
     atom   10 type  2   force =    -0.00005634   -0.00530070   -0.17420840
     atom   11 type  2   force =    -0.00024801    0.02021755   -0.00536732
     atom   12 type  2   force =    -0.00005324    0.02508180   -0.00919611
     atom   13 type  1   force =    -0.07088263   -0.00063182   -0.02964407
     atom   14 type  1   force =    -0.00453667   -0.02851867    0.00204595
     atom   15 type  1   force =    -0.00601393   -0.02305503    0.00289232
     atom   16 type  2   force =     0.00011100   -0.00200378    0.06348013
     atom   17 type  2   force =     0.00046826    0.03498139    0.00354071
     atom   18 type  2   force =    -0.00005497    0.01839792   -0.00125732
     atom   19 type  1   force =    -0.00001218    0.00864425    0.05620855
     atom   20 type  1   force =     0.00004123    0.00028670   -0.00784287
     atom   21 type  1   force =     0.00004752    0.00236642    0.10556769
     atom   22 type  1   force =     0.00004600   -0.00046356    0.00967675
     atom   23 type  1   force =    -0.00001555   -0.00191877    0.00348033
     atom   24 type  1   force =     0.06931345   -0.00028408   -0.02956143
     atom   25 type  1   force =     0.00471282   -0.02811405    0.00248934
     atom   26 type  1   force =     0.00584184   -0.01546812   -0.00003691
     atom   27 type  2   force =    -0.00005964   -0.00797566   -0.18332775
     atom   28 type  2   force =    -0.00026780    0.02044863   -0.00613221
     atom   29 type  2   force =    -0.00008728    0.02468485    0.00365955
     atom   30 type  1   force =    -0.06940748   -0.00073874   -0.02950672
     atom   31 type  1   force =    -0.00498390   -0.02782199    0.00245660
     atom   32 type  1   force =    -0.00557688   -0.01532777   -0.00003215
     atom   33 type  2   force =     0.00007835   -0.00103004    0.06382033
     atom   34 type  2   force =     0.00047214    0.03463933    0.00477279
     atom   35 type  2   force =    -0.00013530    0.02204269    0.00120303
     atom   36 type  1   force =    -0.00001252    0.00376330    0.05856452
     atom   37 type  1   force =     0.00004897   -0.00066756   -0.00648232
     atom   38 type  1   force =     0.00000468   -0.00185163    0.00016536
     atom   39 type  1   force =     0.00005477   -0.00050618    0.10667574
     atom   40 type  1   force =     0.00004795   -0.00052467    0.00898730
     atom   41 type  1   force =    -0.00000837   -0.00433037   -0.00081741
     atom   42 type  1   force =     0.06972208   -0.00120155   -0.03000516
     atom   43 type  1   force =     0.00452286   -0.02930834    0.00153522
     atom   44 type  1   force =     0.00973968   -0.02509267    0.00511316
     atom   45 type  2   force =    -0.00006636    0.00910649   -0.17968274
     atom   46 type  2   force =    -0.00025050    0.02120769   -0.00526991
     atom   47 type  2   force =    -0.00012134    0.02457717   -0.01008121
     atom   48 type  1   force =    -0.06982009   -0.00165154   -0.02995601
     atom   49 type  1   force =    -0.00480525   -0.02900154    0.00150669
     atom   50 type  1   force =    -0.00948753   -0.02499417    0.00514041
     atom   51 type  2   force =     0.00011577   -0.00179701    0.06382706
     atom   52 type  2   force =     0.00047487    0.03634940    0.00305680
     atom   53 type  2   force =    -0.00014993    0.03611573    0.00359487
     atom   54 type  3   force =    -0.00000313   -0.00097261   -0.00086141
     atom   55 type  4   force =    -0.00004039    0.00272152    0.02721430
     atom   56 type  4   force =     0.00003427   -0.00979207   -0.02115006
     atom   57 type  3   force =    -0.00002536    0.00261991   -0.00241536

     Total force =     0.454815     Total SCF correction =     0.000531
  @ DRIVER MODE: Message from server: STATUS
  @ DRIVER MODE: Message from server: GETFORCE
  @ DRIVER MODE: Returning v,forces,stress,ensemble

     Writing output data file ./calc.save/
  @ DRIVER MODE: Message from server: EXIT
  @ DRIVE MODE: Exiting

     General routines

     Parallel routines

   This run was terminated on:  17:43:37  18Oct2021

   JOB DONE.