     Program PWSCF v.6.7GPU starts on  9Sep2021 at  3:33: 8

     R & G space division:  proc/nbgrp/npool/nimage =      10
     Reading input from /storage/home/hcoda1/3/ntian30/research/carbon/CxH_vib/CH2_calc/ads_slab/CH2NNHH_a/out_0017/pw.inp
Warning: card &CELL ignored
Warning: card   CELL_DYNAMICS='IPI', ignored
Warning: card / ignored

     Current dimensions of program PWSCF are:
     Max number of different atomic species (ntypx) = 10
     Max number of k-points (npk) =  40000
     Max angular momentum in pseudopotentials (lmaxx) =  3
     Presently no symmetry can be used with electric field

     Message from routine cell_base_init:
     DEPRECATED: use true lattice parameter, not A to a.u. conversion factor

     IMPORTANT: XC functional enforced from input :
     Exchange-correlation= BEEF-VDW
                           (   1   4  43  14   2   0   0)
     Any further DFT definition will be discarded
     Please, verify this is what you really want

  @ DRIVER MODE: Connecting to
 qe_1139763_2767391.sched-torque.pace.gatech.eduy0jyf2_n_scratch
  using UNIX socket
  @ DRIVER MODE: Message from server: STATUS
  @ DRIVER MODE: Message from server: INIT
  @ DRIVER MODE: Receiving replica           0          -1
  @ DRIVER MODE: Receiving encoded integer          25
  @ DRIVER MODE:  SCF:  T  FORCE:  T  STRESS:  F  VC:  F  ENSEMBLE:  F
  @ DRIVER MODE:  SCF:  T  FORCE:  T  STRESS:  F  VC:  F  ENSEMBLE:  F

     Using Slab Decomposition

     bravais-lattice index     =            0
     lattice parameter (alat)  =       1.8897  a.u.
     unit-cell volume          =    6658.9804 (a.u.)^3
     number of atoms/cell      =           54
     number of atomic types    =            5
     number of electrons       =       396.00
     number of Kohn-Sham states=          208
     kinetic-energy cutoff     =      29.3995  Ry
     charge density cutoff     =     293.9946  Ry
     scf convergence threshold =      7.3E-08
     mixing beta               =       0.0500
     number of iterations used =            8  plain     mixing
     Exchange-correlation= BEEF-VDW
                           (   1   4  43  14   2   0   0)

     celldm(1)=   1.889726  celldm(2)=   0.000000  celldm(3)=   0.000000
     celldm(4)=   0.000000  celldm(5)=   0.000000  celldm(6)=   0.000000

     crystal axes: (cart. coord. in units of alat)
               a(1) = (   6.579727   0.000000   0.000000 )
               a(2) = (  -0.000775   5.961596   0.000000 )
               a(3) = (   0.000000   0.000000  25.155947 )

     reciprocal axes: (cart. coord. in units 2 pi/alat)
               b(1) = (  0.151982  0.000020  0.000000 )
               b(2) = (  0.000000  0.167740  0.000000 )
               b(3) = (  0.000000  0.000000  0.039752 )

     PseudoPot. # 1 for Ti read from file:
     /storage/coda1/p-amedford6/0/shared/rich_project_chbe-medford/medford-share/data/pseudos_module/espresso/nninc/pbe/van/Ti.UPF
     MD5 check sum: 8e4df49b7f0d34bbd5052bf3f5ea0213
     Pseudo is Ultrasoft, Zval = 12.0
     Generated by new atomic code, or converted to UPF format
     Using radial grid of  851 points,  6 beta functions with:
                l(1) =   0
                l(2) =   0
                l(3) =   1
                l(4) =   1
                l(5) =   2
                l(6) =   2
     Q(r) pseudized with  8 coefficients,  rinner =    1.000   1.000   1.000
                                                       1.000   1.000

     PseudoPot. # 2 for O  read from file:
     /storage/coda1/p-amedford6/0/shared/rich_project_chbe-medford/medford-share/data/pseudos_module/espresso/nninc/pbe/van/O.UPF
     MD5 check sum: 78c19812648e8988a0fe644b0f25305e
     Pseudo is Ultrasoft, Zval =  6.0
     Generated by new atomic code, or converted to UPF format
     Using radial grid of  737 points,  4 beta functions with:
                l(1) =   0
                l(2) =   0
                l(3) =   1
                l(4) =   1
     Q(r) pseudized with  8 coefficients,  rinner =    0.800   0.800   0.800

     PseudoPot. # 3 for N  read from file:
     /storage/coda1/p-amedford6/0/shared/rich_project_chbe-medford/medford-share/data/pseudos_module/espresso/nninc/pbe/van/N.UPF
     MD5 check sum: 90d10febe142ad51ac9d5be1deb811c4
     Pseudo is Ultrasoft, Zval =  5.0
     Generated by new atomic code, or converted to UPF format
     Using radial grid of  729 points,  4 beta functions with:
                l(1) =   0
                l(2) =   0
                l(3) =   1
                l(4) =   1
     Q(r) pseudized with  8 coefficients,  rinner =    0.800   0.800   0.800

     PseudoPot. # 4 for C  read from file:
     /storage/coda1/p-amedford6/0/shared/rich_project_chbe-medford/medford-share/data/pseudos_module/espresso/nninc/pbe/van/C.UPF
     MD5 check sum: 1a69bf6b8db32088f5b2163dbdb77a27
     Pseudo is Ultrasoft, Zval =  4.0
     Generated by new atomic code, or converted to UPF format
     Using radial grid of  721 points,  4 beta functions with:
                l(1) =   0
                l(2) =   0
                l(3) =   1
                l(4) =   1
     Q(r) pseudized with  8 coefficients,  rinner =    0.800   0.800   0.800

     PseudoPot. # 5 for H  read from file:
     /storage/coda1/p-amedford6/0/shared/rich_project_chbe-medford/medford-share/data/pseudos_module/espresso/nninc/pbe/van/H.UPF
     MD5 check sum: b5ee9d7bfd3a09ee7748110bda690ff7
     Pseudo is Ultrasoft, Zval =  1.0
     Generated by new atomic code, or converted to UPF format
     Using radial grid of  615 points,  1 beta functions with:
                l(1) =   0
     Q(r) pseudized with  8 coefficients,  rinner =    0.800

     atomic species   valence    mass     pseudopotential
        Ti1           12.00    47.86700     Ti( 1.00)
        O1             6.00    15.99900     O ( 1.00)
        N1             5.00    14.00700     N ( 1.00)
        C1             4.00    12.01100     C ( 1.00)
        H1             1.00     1.00800     H ( 1.00)

     No symmetry found

   Cartesian axes

     site n.     atom                  positions (alat units)
         1           Ti1 tau(   1) = (   0.0004258   2.9801865   6.0000000  )
         2           Ti1 tau(   2) = (   3.2906075   1.4906267   6.0002472  )
         3           O1  tau(   3) = (   0.0006271   0.0005054   7.9858123  )
         4           O1  tau(   4) = (   3.2906025   0.0005020   7.3038282  )
         5           O1  tau(   5) = (   4.5942328   1.4918067   9.2879030  )
         6           O1  tau(   6) = (   1.9868534   1.4903216   9.2879459  )
         7           Ti1 tau(   7) = (   3.2907910   2.8959150   9.1758416  )
         8           Ti1 tau(   8) = (   0.0015273   1.4827037   9.2680791  )
         9           O1  tau(   9) = (   3.2741875   5.9357071  11.3735532  )
        10           O1  tau(  10) = (   0.0116148   5.9584955  10.6183126  )
        11           O1  tau(  11) = (   1.2759687   1.4857368  12.6615302  )
        12           O1  tau(  12) = (   5.2764777   1.4850508  12.6403612  )
        13           Ti1 tau(  13) = (   6.5724762   2.9646551  12.5117882  )
        14           Ti1 tau(  14) = (   3.2886223   1.4652571  12.5194246  )
        15           O1  tau(  15) = (   6.5416971   0.0664024  14.6986244  )
        16           O1  tau(  16) = (   3.2828258   5.9593040  13.9967703  )
        17           O1  tau(  17) = (   4.5136565   1.4796660  16.2299008  )
        18           O1  tau(  18) = (   2.0038615   1.4742267  16.2123189  )
        19           Ti1 tau(  19) = (   3.2480181   2.9445974  15.7466143  )
        20           Ti1 tau(  20) = (   6.5118905   1.3801257  16.1190456  )
        21           O1  tau(  21) = (   3.2904802   0.0005063   4.7018136  )
        22           O1  tau(  22) = (   6.5538845   5.8109167  17.2256470  )
        23           O1  tau(  23) = (   1.3043587   1.4918075   6.0039043  )
        24           O1  tau(  24) = (   5.2767064   1.4903225   6.0039473  )
        25           Ti1 tau(  25) = (   0.0000382   5.9609847   6.0000000  )
        26           Ti1 tau(  26) = (   3.2902200   4.4714249   6.0002472  )
        27           O1  tau(  27) = (   0.0002396   2.9813036   7.9858123  )
        28           O1  tau(  28) = (   3.2902150   2.9813002   7.3038282  )
        29           O1  tau(  29) = (   4.5938453   4.4726049   9.2879030  )
        30           O1  tau(  30) = (   1.9864658   4.4711199   9.2879459  )
        31           Ti1 tau(  31) = (   3.2891106   5.8743827   9.1763621  )
        32           Ti1 tau(  32) = (   0.0006254   4.4649316   9.2693709  )
        33           O1  tau(  33) = (   3.2754078   2.9701464  11.3677572  )
        34           O1  tau(  34) = (   0.0092240   2.9805883  10.6323155  )
        35           O1  tau(  35) = (   1.2711598   4.4556272  12.7031535  )
        36           O1  tau(  36) = (   5.2783420   4.4558858  12.6781970  )
        37           Ti1 tau(  37) = (   0.0002938   5.9583472  12.5066983  )
        38           Ti1 tau(  38) = (   3.2916940   4.4447674  12.5292973  )
        39           O1  tau(  39) = (   6.5347695   2.9176514  14.9891124  )
        40           O1  tau(  40) = (   3.2818703   2.9467213  13.9608579  )
        41           O1  tau(  41) = (   4.5039121   4.4250859  16.1805084  )
        42           O1  tau(  42) = (   2.0002864   4.4376668  16.1101511  )
        43           Ti1 tau(  43) = (   3.2613398   5.9375382  15.7939200  )
        44           Ti1 tau(  44) = (   0.0097882   4.6113729  15.8292928  )
        45           O1  tau(  45) = (   3.2900926   2.9813045   4.7018136  )
        46           O1  tau(  46) = (   1.3039711   4.4726057   6.0039043  )
        47           O1  tau(  47) = (   5.2763189   4.4711207   6.0039473  )
        48           N1  tau(  48) = (   6.5527080   2.6566917  18.2311642  )
        49           C1  tau(  49) = (   0.9950107   2.5313988  18.9921798  )
        50           H1  tau(  50) = (   0.9966315   2.9146593  20.0010098  )
        51           H1  tau(  51) = (   1.8622571   2.0164067  18.6108951  )
        52           N1  tau(  52) = (   5.4094651   3.2293427  18.7544413  )
        53           H1  tau(  53) = (   5.6216840   3.8708726  19.5154782  )
        54           H1  tau(  54) = (   4.9168071   3.7283298  18.0160565  )

     number of k points=    10  Fermi-Dirac smearing, width (Ry)=  0.0073
                       cart. coord. in units 2pi/alat
        k(    1) = (   0.0000000   0.0000000   0.0000000), wk =   0.1250000
        k(    2) = (   0.0000000   0.0419351   0.0000000), wk =   0.2500000
        k(    3) = (   0.0000000  -0.0838702   0.0000000), wk =   0.1250000
        k(    4) = (   0.0379955   0.0000049   0.0000000), wk =   0.2500000
        k(    5) = (   0.0379955   0.0419400   0.0000000), wk =   0.2500000
        k(    6) = (   0.0379955  -0.0838652   0.0000000), wk =   0.2500000
        k(    7) = (   0.0379955  -0.0419301   0.0000000), wk =   0.2500000
        k(    8) = (  -0.0759910  -0.0000099   0.0000000), wk =   0.1250000
        k(    9) = (  -0.0759910   0.0419252   0.0000000), wk =   0.2500000
        k(   10) = (  -0.0759910  -0.0838800   0.0000000), wk =   0.1250000

     Initial potential from superposition of free atoms

     starting charge  379.99915, renormalised to  396.00000

     negative rho (up, down):  1.581E-02 0.000E+00

     %%%%%%%%%%%%%%%%%%%%%%%%%%%%%%%%%%%%%%%%%%%%%%%%%%%%%%%%%%%%%%%%%%%%%%%%
     %                                                                      %
     % You are using vdW-DF, which was implemented by the Thonhauser group. %
     % Please cite the following two papers that made this development      %
     % possible and the two reviews that describe the various versions:     %
     %                                                                      %
     %   T. Thonhauser et al., PRL 115, 136402 (2015).                      %
     %   T. Thonhauser et al., PRB 76, 125112 (2007).                       %
     %   K. Berland et al., Rep. Prog. Phys. 78, 066501 (2015).             %
     %   D.C. Langreth et al., J. Phys.: Condens. Matter 21, 084203 (2009). %
     %                                                                      %
     %                                                                      %
     % If you are calculating the stress with vdW-DF, please also cite:     %
     %                                                                      %
     %   R. Sabatini et al., J. Phys.: Condens. Matter 24, 424209 (2012).   %
     %                                                                      %
     %%%%%%%%%%%%%%%%%%%%%%%%%%%%%%%%%%%%%%%%%%%%%%%%%%%%%%%%%%%%%%%%%%%%%%%%

     Adding external electric field

     Computed dipole along edir(3) :
        Dipole               -9.9790 Ry au,        -25.3641 Debye
        Dipole field         -0.0188 Ry au,

        Potential amp.        1.7457 Ry
        Total length         46.3494 bohr

     Starting wfcs are  300 atomic wfcs
  @ DRIVER MODE: Message from server: STATUS
  @ DRIVER MODE: Message from server: POSDATA
  @ DRIVER MODE: Reading and sharing cell
  @ DRIVER MODE: Reading and sharing positions
  @ DRIVER MODE: Received positions

     Self-consistent Calculation

     iteration #  1     ecut=    29.40 Ry     beta= 0.05
     Davidson diagonalization with overlap
     c_bands:  1 eigenvalues not converged
     c_bands:  2 eigenvalues not converged
     c_bands:  2 eigenvalues not converged
     c_bands:  1 eigenvalues not converged
     c_bands:  3 eigenvalues not converged
     c_bands:  2 eigenvalues not converged
     c_bands:  3 eigenvalues not converged
     c_bands:  2 eigenvalues not converged
     c_bands:  1 eigenvalues not converged
     c_bands:  1 eigenvalues not converged
     ethr =  1.00E-05,  avg # of iterations = 20.0

[...]

     total energy              =   -2515.76758742 Ry
     estimated scf accuracy    <    4741.17186622 Ry

     iteration #  2     ecut=    29.40 Ry     beta= 0.05
     Davidson diagonalization with overlap
     ethr =  1.00E-02,  avg # of iterations = 23.6

[...]

     iteration # 56     ecut=    29.40 Ry     beta= 0.05
     Davidson diagonalization with overlap
     c_bands:  1 eigenvalues not converged
     ethr =  4.21E-09,  avg # of iterations = 14.8

[...]

     total energy              =   -2940.36656514 Ry
     estimated scf accuracy    <       0.00000010 Ry

     iteration # 65     ecut=    29.40 Ry     beta= 0.05
     Davidson diagonalization with overlap
     ethr =  2.43E-11,  avg # of iterations =  8.8

     negative rho (up, down):  1.645E-02 0.000E+00

     Adding external electric field

     Computed dipole along edir(3) :
        Dipole                1.2671 Ry au,          3.2206 Debye
        Dipole field          0.0024 Ry au,

        Potential amp.       -0.2217 Ry
        Total length         46.3494 bohr

     End of self-consistent calculation

          k = 0.0000 0.0000 0.0000 ( 18029 PWs)   bands (ev):

   -55.4177 -55.3810 -55.3696 -55.3355 -55.2970 -55.2932 -55.2873 -55.2625
   -55.2356 -55.2193 -55.2013 -55.2009 -55.1675 -55.0508 -54.3971 -54.3630
   -31.9868 -31.8620 -31.8192 -31.7852 -31.7311 -31.7252 -31.7203 -31.7066
   -31.6588 -31.6513 -31.6280 -31.6268 -31.6147 -31.5879 -31.5728 -31.5678
   -31.5553 -31.5545 -31.5332 -31.5276 -31.5220 -31.5121 -31.4834 -31.4743
   -31.4663 -31.4636 -31.4380 -31.4279 -31.4267 -31.4209 -31.4185 -31.3998
   -31.3989 -31.3934 -31.3862 -31.3836 -31.3496 -31.3363 -31.3293 -31.3124
   -31.2723 -31.2151 -30.8063 -30.7125 -30.6905 -30.6229 -30.5361 -30.4250
   -18.5936 -16.2496 -15.9808 -15.8383 -15.7140 -15.6150 -15.4904 -15.4683
   -15.3408 -15.2559 -15.1425 -15.0982 -15.0867 -15.0835 -15.0505 -15.0237
   -14.9591 -14.9547 -14.9371 -14.9106 -14.9000 -14.8569 -14.8537 -14.8121
   -14.7917 -14.7896 -14.6635 -14.5745 -14.5041 -14.1812 -13.6754 -12.8998
   -12.7823  -8.7675  -6.4847  -6.0821  -4.0075  -3.5904  -3.4344  -3.3778
    -3.3364  -3.3096  -3.2006  -3.1628  -3.0230  -2.8263  -2.7777  -2.6875
    -2.6252  -2.6169  -2.5978  -2.4169  -2.4094  -2.3528  -2.3025  -2.2606
    -2.2387  -2.2241  -2.2049  -2.1799  -2.1692  -2.1590  -1.9859  -1.9702
    -1.8990  -1.8254  -1.8155  -1.7650  -1.7442  -1.7139  -1.7055  -1.6974
    -1.6522  -1.6326  -1.6026  -1.5548  -1.4290  -1.3378  -1.3073  -1.2260
    -1.0991  -1.0529  -1.0010  -0.9979  -0.9051  -0.9010  -0.8804  -0.7951
    -0.7617  -0.7124  -0.6399  -0.5715  -0.5147  -0.4562  -0.4090  -0.3987
    -0.3439  -0.2268  -0.2011  -0.1823  -0.1604  -0.0398  -0.0211   0.0191
     0.0936   0.1238   0.1246   0.2414   0.2673   0.3252   0.3299   0.4062
     0.4673   0.5116   0.5207   0.5395   0.5687   0.5718   0.6464   0.6596
     0.6899   0.7599   0.8273   0.9181   1.1476   1.1839   1.1972   1.5300
     1.5323   1.6257   1.8093   2.2013   2.2494   3.6813   3.7513   3.8261
     3.8323   3.8506   3.9189   4.1555   4.1737   4.1816   4.1871   4.2301

[...]

          k = 0.0380-0.0419 0.0000 ( 17876 PWs)   bands (ev):

[...]

          k =-0.0760-0.0000 0.0000 ( 17886 PWs)   bands (ev):

[...]

          k =-0.0760-0.0839 0.0000 ( 17948 PWs)   bands (ev):

   -55.4030 -55.3955 -55.3525 -55.3525 -55.2879 -55.2870 -55.2814 -55.2780
   -55.2234 -55.2200 -55.2162 -55.1848 -55.1840 -55.0521 -54.3801 -54.3799
   -31.7931 -31.7876 -31.7463 -31.6938 -31.6801 -31.6772 -31.6770 -31.6442
   -31.6440 -31.6279 -31.6189 -31.6141 -31.6095 -31.5628 -31.5555 -31.5532
   -31.5510 -31.5490 -31.5437 -31.5383 -31.5231 -31.5104 -31.4937 -31.4933
   -31.4891 -31.4750 -31.4734 -31.4722 -31.4721 -31.4702 -31.4532 -31.4491
   -31.4432 -31.4331 -31.4297 -31.4150 -31.4138 -31.4102 -31.3651 -31.3650
   -31.2934 -31.2759 -30.7032 -30.7030 -30.6189 -30.6188 -30.5796 -30.5794
   -18.5912 -15.7116 -15.6787 -15.6214 -15.4410 -15.4133 -15.4066 -15.3875
   -15.2573 -15.2407 -15.2098 -15.1805 -15.1494 -15.1241 -15.1199 -15.1020
   -15.0322 -15.0214 -15.0132 -14.9957 -14.9302 -14.9262 -14.9175 -14.9126
   -14.8658 -14.8630 -14.7676 -14.7661 -14.6659 -14.5501 -13.6812 -12.8838
   -12.8838  -8.7492  -6.4583  -6.0963  -4.0167  -3.2619  -2.9448  -2.8782
    -2.8497  -2.6527  -2.6291  -2.5864  -2.5311  -2.4510  -2.4250  -2.4183
    -2.4095  -2.3384  -2.3270  -2.2772  -2.2681  -2.2490  -2.2337  -2.2232
    -2.1937  -2.1678  -2.1438  -2.1349  -2.1236  -2.0696  -2.0591  -2.0415
    -2.0111  -1.9915  -1.9822  -1.9655  -1.8662  -1.7821  -1.7525  -1.7255
    -1.6213  -1.6169  -1.5371  -1.5213  -1.4901  -1.4486  -1.4358  -1.4154
    -1.2333  -1.2050  -1.1722  -1.1594  -1.1510  -1.0117  -0.9980  -0.9419
    -0.9010  -0.8949  -0.7861  -0.7620  -0.7369  -0.6609  -0.6250  -0.5913
    -0.5396  -0.4343  -0.4169  -0.4062  -0.3728  -0.3687  -0.3127  -0.3007
    -0.2255  -0.1833  -0.1505  -0.1366  -0.0937   0.0945   0.1177   0.1325
     0.2759   0.3313   0.4248   0.5248   0.5350   0.5906   0.6294   0.6960
     0.7571   0.8181   0.8704   0.8917   0.8931   0.9715   0.9892   1.0428
     1.0447   1.9825   1.9831   2.0693   2.0697   3.8241   3.9325   3.9438
     3.9843   4.0658   4.1248   4.1977   4.2262   4.2650   4.2674   4.3350

     the Fermi energy is     3.7433 ev

!    total energy              =   -2940.36659177 Ry
     estimated scf accuracy    <       0.00000005 Ry
     smearing contrib. (-TS)   =      -0.03728282 Ry
     internal energy E=F+TS    =   -2940.32930895 Ry

     The total energy is F=E-TS. E is the sum of the following terms:
     one-electron contribution =  -23759.49856439 Ry
     hartree contribution      =   11971.09980698 Ry
     xc contribution           =    -486.12359202 Ry
     ewald contribution        =    9334.19001062 Ry
     electric field correction =       0.00302986 Ry

     convergence has been achieved in  65 iterations

     Forces acting on atoms (cartesian axes, Ry/au):

     atom    1 type  1   force =     0.00006376   -0.00013224    0.09326747
     atom    2 type  1   force =    -0.00005676   -0.00026202   -0.17806524
     atom    3 type  2   force =     0.00002260   -0.00016230   -0.02025514
     atom    4 type  2   force =     0.00000896   -0.00195753    0.05852183
     atom    5 type  2   force =    -0.01066569   -0.00127540    0.00871187
     atom    6 type  2   force =     0.01176177   -0.00062027    0.00683428
     atom    7 type  1   force =    -0.00091901    0.00298926   -0.01444516
     atom    8 type  1   force =     0.00063573   -0.00051941   -0.00372367
     atom    9 type  2   force =     0.00014488    0.00010373    0.00009439
     atom   10 type  2   force =    -0.00209702   -0.00122119    0.00066008
     atom   11 type  2   force =     0.00007157    0.00021353   -0.00012011
     atom   12 type  2   force =     0.00058012    0.00028537   -0.00006881
     atom   13 type  1   force =    -0.00014196    0.00029647    0.00009681
     atom   14 type  1   force =     0.00013450    0.00046406   -0.00039087
     atom   15 type  2   force =     0.00001955    0.00041000   -0.00008192
     atom   16 type  2   force =     0.00041910    0.00016822   -0.00032473
     atom   17 type  2   force =     0.00024779   -0.00036024   -0.00039066
     atom   18 type  2   force =     0.00018986   -0.00054075    0.00007812
     atom   19 type  1   force =    -0.00092373   -0.00010119    0.00022465
     atom   20 type  1   force =     0.00018394    0.00003648   -0.00010695
     atom   21 type  2   force =     0.00009593   -0.00000365    0.10391270
     atom   22 type  2   force =    -0.00019409    0.00006211    0.00019695
     atom   23 type  2   force =    -0.07040006   -0.00012792   -0.02690230
     atom   24 type  2   force =     0.07033292    0.00032788   -0.02694140
     atom   25 type  1   force =     0.00008448   -0.00022701    0.09281459
     atom   26 type  1   force =    -0.00005264   -0.00034396   -0.17806322
     atom   27 type  2   force =     0.00011143   -0.00036260   -0.01930750
     atom   28 type  2   force =     0.00004059   -0.00165532    0.05794345
     atom   29 type  2   force =    -0.01065108   -0.00128256    0.00804056
     atom   30 type  2   force =     0.01165516   -0.00089055    0.00609862
     atom   31 type  1   force =    -0.00090406    0.00490503   -0.01543445
     atom   32 type  1   force =     0.00083375    0.00021524   -0.00392302
     atom   33 type  2   force =     0.00010375    0.00046521    0.00022390
     atom   34 type  2   force =    -0.00177021    0.00109718    0.00069834
     atom   35 type  2   force =     0.00030743    0.00006496    0.00007715
     atom   36 type  2   force =     0.00027267   -0.00024867    0.00018979
     atom   37 type  1   force =    -0.00035633    0.00002229   -0.00009429
     atom   38 type  1   force =    -0.00023703    0.00050560   -0.00015965
     atom   39 type  2   force =     0.00049191   -0.00071879   -0.00006866
     atom   40 type  2   force =    -0.00015660    0.00007292   -0.00001528
     atom   41 type  2   force =     0.00009553   -0.00010240   -0.00016562
     atom   42 type  2   force =     0.00017905    0.00010598   -0.00001644
     atom   43 type  1   force =    -0.00023861   -0.00009777    0.00012970
     atom   44 type  1   force =     0.00012380    0.00008571   -0.00019465
     atom   45 type  2   force =     0.00010734   -0.00002832    0.10388549
     atom   46 type  2   force =    -0.07041612   -0.00005075   -0.02689904
     atom   47 type  2   force =     0.07036721    0.00037376   -0.02690852
     atom   48 type  3   force =    -0.00115339   -0.00039035   -0.00151851
     atom   49 type  4   force =     0.00132816   -0.00392195   -0.01033319
     atom   50 type  5   force =     0.00072539    0.00377592    0.01178175
     atom   51 type  5   force =    -0.00047874   -0.00010978   -0.00053836
     atom   52 type  3   force =     0.00066164    0.00092093    0.00019604
     atom   53 type  5   force =    -0.00032967   -0.00024185    0.00105314
     atom   54 type  5   force =    -0.00025944   -0.00001113   -0.00027431

     Total force =     0.366256     Total SCF correction =     0.000552
  @ DRIVER MODE: Message from server: STATUS
  @ DRIVER MODE: Message from server: GETFORCE
  @ DRIVER MODE: Returning v,forces,stress,ensemble

     Writing output data file ./calc.save/
  @ DRIVER MODE: Message from server: EXIT
  @ DRIVE MODE: Exiting

     General routines

     Parallel routines

   This run was terminated on:   3:52: 1   9Sep2021

   JOB DONE.