     Program PWSCF v.6.7GPU starts on 22Sep2021 at 22:18:24

     R & G space division:  proc/nbgrp/npool/nimage =      10
     Reading input from /storage/home/hcoda1/3/ntian30/research/carbon/CxH_vib/H2O_calc/ads_slab/CH2NHHHO_a/out_0017/pw.inp
Warning: card &CELL ignored
Warning: card   CELL_DYNAMICS='IPI', ignored
Warning: card / ignored

     Current dimensions of program PWSCF are:
     Max number of different atomic species (ntypx) = 10
     Max number of k-points (npk) =  40000
     Max angular momentum in pseudopotentials (lmaxx) =  3
     Presently no symmetry can be used with electric field

     Message from routine cell_base_init:
     DEPRECATED: use true lattice parameter, not A to a.u. conversion factor

     IMPORTANT: XC functional enforced from input :
     Exchange-correlation= BEEF-VDW
                           (   1   4  43  14   2   0   0)
     Any further DFT definition will be discarded
     Please, verify this is what you really want

  @ DRIVER MODE: Connecting to
 qe_1139763_2937325.sched-torque.pace.gatech.edurh22ou9n_scratch
  using UNIX socket
  @ DRIVER MODE: Message from server: STATUS
  @ DRIVER MODE: Message from server: INIT
  @ DRIVER MODE: Receiving replica           0          -1
  @ DRIVER MODE: Receiving encoded integer          25
  @ DRIVER MODE:  SCF:  T  FORCE:  T  STRESS:  F  VC:  F  ENSEMBLE:  F
  @ DRIVER MODE:  SCF:  T  FORCE:  T  STRESS:  F  VC:  F  ENSEMBLE:  F

     Using Slab Decomposition

     bravais-lattice index     =            0
     lattice parameter (alat)  =       1.8897  a.u.
     unit-cell volume          =    6658.9804 (a.u.)^3
     number of atoms/cell      =           55
     number of atomic types    =            5
     number of electrons       =       398.00
     number of Kohn-Sham states=          209
     kinetic-energy cutoff     =      29.3995  Ry
     charge density cutoff     =     293.9946  Ry
     scf convergence threshold =      7.3E-08
     mixing beta               =       0.0500
     number of iterations used =            8  plain     mixing
     Exchange-correlation= BEEF-VDW
                           (   1   4  43  14   2   0   0)

     celldm(1)=   1.889726  celldm(2)=   0.000000  celldm(3)=   0.000000
     celldm(4)=   0.000000  celldm(5)=   0.000000  celldm(6)=   0.000000

     crystal axes: (cart. coord. in units of alat)
               a(1) = (   6.579727   0.000000   0.000000 )
               a(2) = (  -0.000775   5.961596   0.000000 )
               a(3) = (   0.000000   0.000000  25.155947 )

     reciprocal axes: (cart. coord. in units 2 pi/alat)
               b(1) = (  0.151982  0.000020  0.000000 )
               b(2) = (  0.000000  0.167740  0.000000 )
               b(3) = (  0.000000  0.000000  0.039752 )

     PseudoPot. # 1 for Ti read from file:
     /storage/coda1/p-amedford6/0/shared/rich_project_chbe-medford/medford-share/data/pseudos_module/espresso/nninc/pbe/van/Ti.UPF
     MD5 check sum: 8e4df49b7f0d34bbd5052bf3f5ea0213
     Pseudo is Ultrasoft, Zval = 12.0
     Generated by new atomic code, or converted to UPF format
     Using radial grid of  851 points,  6 beta functions with:
                l(1) =   0
                l(2) =   0
                l(3) =   1
                l(4) =   1
                l(5) =   2
                l(6) =   2
     Q(r) pseudized with  8 coefficients,  rinner =    1.000   1.000   1.000
                                                       1.000   1.000

     PseudoPot. # 2 for O  read from file:
     /storage/coda1/p-amedford6/0/shared/rich_project_chbe-medford/medford-share/data/pseudos_module/espresso/nninc/pbe/van/O.UPF
     MD5 check sum: 78c19812648e8988a0fe644b0f25305e
     Pseudo is Ultrasoft, Zval =  6.0
     Generated by new atomic code, or converted to UPF format
     Using radial grid of  737 points,  4 beta functions with:
                l(1) =   0
                l(2) =   0
                l(3) =   1
                l(4) =   1
     Q(r) pseudized with  8 coefficients,  rinner =    0.800   0.800   0.800

     PseudoPot. # 3 for N  read from file:
     /storage/coda1/p-amedford6/0/shared/rich_project_chbe-medford/medford-share/data/pseudos_module/espresso/nninc/pbe/van/N.UPF
     MD5 check sum: 90d10febe142ad51ac9d5be1deb811c4
     Pseudo is Ultrasoft, Zval =  5.0
     Generated by new atomic code, or converted to UPF format
     Using radial grid of  729 points,  4 beta functions with:
                l(1) =   0
                l(2) =   0
                l(3) =   1
                l(4) =   1
     Q(r) pseudized with  8 coefficients,  rinner =    0.800   0.800   0.800

     PseudoPot. # 4 for C  read from file:
     /storage/coda1/p-amedford6/0/shared/rich_project_chbe-medford/medford-share/data/pseudos_module/espresso/nninc/pbe/van/C.UPF
     MD5 check sum: 1a69bf6b8db32088f5b2163dbdb77a27
     Pseudo is Ultrasoft, Zval =  4.0
     Generated by new atomic code, or converted to UPF format
     Using radial grid of  721 points,  4 beta functions with:
                l(1) =   0
                l(2) =   0
                l(3) =   1
                l(4) =   1
     Q(r) pseudized with  8 coefficients,  rinner =    0.800   0.800   0.800

     PseudoPot. # 5 for H  read from file:
     /storage/coda1/p-amedford6/0/shared/rich_project_chbe-medford/medford-share/data/pseudos_module/espresso/nninc/pbe/van/H.UPF
     MD5 check sum: b5ee9d7bfd3a09ee7748110bda690ff7
     Pseudo is Ultrasoft, Zval =  1.0
     Generated by new atomic code, or converted to UPF format
     Using radial grid of  615 points,  1 beta functions with:
                l(1) =   0
     Q(r) pseudized with  8 coefficients,  rinner =    0.800

     atomic species   valence    mass     pseudopotential
        Ti1           12.00    47.86700     Ti( 1.00)
        O1             6.00    15.99900     O ( 1.00)
        N1             5.00    14.00700     N ( 1.00)
        C1             4.00    12.01100     C ( 1.00)
        H1             1.00     1.00800     H ( 1.00)

     No symmetry found

   Cartesian axes

     site n.     atom                  positions (alat units)
         1           Ti1 tau(   1) = (   0.0004258   2.9801865   6.0000000  )
         2           Ti1 tau(   2) = (   3.2906075   1.4906267   6.0002472  )
         3           O1  tau(   3) = (   0.0006271   0.0005054   7.9858123  )
         4           O1  tau(   4) = (   3.2906025   0.0005020   7.3038282  )
         5           O1  tau(   5) = (   4.5942328   1.4918067   9.2879030  )
         6           O1  tau(   6) = (   1.9868534   1.4903216   9.2879459  )
         7           Ti1 tau(   7) = (   3.2907910   2.8959150   9.1758416  )
         8           Ti1 tau(   8) = (   0.0015273   1.4827037   9.2680791  )
         9           O1  tau(   9) = (   3.3134935   5.9450930  11.3716456  )
        10           O1  tau(  10) = (   0.0116148   5.9584955  10.6183126  )
        11           O1  tau(  11) = (   1.3009377   1.4930576  12.6823270  )
        12           O1  tau(  12) = (   5.3410967   1.4903504  12.6863499  )
        13           Ti1 tau(  13) = (   0.0342001   2.9430440  12.5112676  )
        14           Ti1 tau(  14) = (   3.3297267   1.2953541  12.7310232  )
        15           O1  tau(  15) = (   0.0493764   5.9086628  14.6689690  )
        16           O1  tau(  16) = (   3.3288597   0.0714287  14.0177558  )
        17           O1  tau(  17) = (   4.6153468   1.5975901  16.1787110  )
        18           O1  tau(  18) = (   2.0592605   1.5839887  16.0909148  )
        19           Ti1 tau(  19) = (   3.3163104   3.0362344  15.7082748  )
        20           Ti1 tau(  20) = (   0.1120434   1.3330501  15.8434463  )
        21           O1  tau(  21) = (   3.2904802   0.0005063   4.7018136  )
        22           O1  tau(  22) = (   0.0690725   0.1374024  17.2087871  )
        23           O1  tau(  23) = (   1.3043587   1.4918075   6.0039043  )
        24           O1  tau(  24) = (   5.2767064   1.4903225   6.0039473  )
        25           Ti1 tau(  25) = (   0.0000382   5.9609847   6.0000000  )
        26           Ti1 tau(  26) = (   3.2902200   4.4714249   6.0002472  )
        27           O1  tau(  27) = (   0.0002396   2.9813036   7.9858123  )
        28           O1  tau(  28) = (   3.2902150   2.9813002   7.3038282  )
        29           O1  tau(  29) = (   4.5938453   4.4726049   9.2879030  )
        30           O1  tau(  30) = (   1.9864658   4.4711199   9.2879459  )
        31           Ti1 tau(  31) = (   3.2891106   5.8743827   9.1763621  )
        32           Ti1 tau(  32) = (   0.0006254   4.4649316   9.2693709  )
        33           O1  tau(  33) = (   3.3165203   3.0043058  11.3207354  )
        34           O1  tau(  34) = (   0.0092240   2.9805883  10.6323155  )
        35           O1  tau(  35) = (   1.3050136   4.4578615  12.6552238  )
        36           O1  tau(  36) = (   5.3353050   4.4620295  12.6594116  )
        37           Ti1 tau(  37) = (   0.0330755   5.9154870  12.5003292  )
        38           Ti1 tau(  38) = (   3.3291962   4.3779952  12.4454333  )
        39           O1  tau(  39) = (   0.0233967   3.0352723  14.9286183  )
        40           O1  tau(  40) = (   3.3272303   3.0068708  13.9347379  )
        41           O1  tau(  41) = (   4.5962338   4.4808180  16.1645836  )
        42           O1  tau(  42) = (   2.0526765   4.4464907  16.1857218  )
        43           Ti1 tau(  43) = (   3.4309460   0.0633718  16.3216252  )
        44           Ti1 tau(  44) = (   0.1034465   4.5521166  15.9739525  )
        45           O1  tau(  45) = (   3.2900926   2.9813045   4.7018136  )
        46           O1  tau(  46) = (   1.3039711   4.4726057   6.0039043  )
        47           O1  tau(  47) = (   5.2763189   4.4711207   6.0039473  )
        48           N1  tau(  48) = (   6.1597698   3.4535781  18.2989460  )
        49           C1  tau(  49) = (   0.6557129   3.1470513  19.0816575  )
        50           H1  tau(  50) = (   1.2037892   3.9510289  19.5315217  )
        51           H1  tau(  51) = (   1.0557295   2.1499681  19.0337936  )
        52           H1  tau(  52) = (   5.6880836   4.3337965  18.4846543  )
        53           H1  tau(  53) = (   5.5056413   2.7003945  18.1017309  )
        54           O1  tau(  54) = (   3.2744276   0.0793712  18.1757868  )
        55           H1  tau(  55) = (   2.3604784   5.9194474  18.4805682  )

     number of k points=    10  Fermi-Dirac smearing, width (Ry)=  0.0073
                       cart. coord. in units 2pi/alat
        k(    1) = (   0.0000000   0.0000000   0.0000000), wk =   0.1250000
        k(    2) = (   0.0000000   0.0419351   0.0000000), wk =   0.2500000
        k(    3) = (   0.0000000  -0.0838702   0.0000000), wk =   0.1250000
        k(    4) = (   0.0379955   0.0000049   0.0000000), wk =   0.2500000
        k(    5) = (   0.0379955   0.0419400   0.0000000), wk =   0.2500000
        k(    6) = (   0.0379955  -0.0838652   0.0000000), wk =   0.2500000
        k(    7) = (   0.0379955  -0.0419301   0.0000000), wk =   0.2500000
        k(    8) = (  -0.0759910  -0.0000099   0.0000000), wk =   0.1250000
        k(    9) = (  -0.0759910   0.0419252   0.0000000), wk =   0.2500000
        k(   10) = (  -0.0759910  -0.0838800   0.0000000), wk =   0.1250000

     Initial potential from superposition of free atoms

     starting charge  381.99915, renormalised to  398.00000

     negative rho (up, down):  1.645E-02 0.000E+00

     %%%%%%%%%%%%%%%%%%%%%%%%%%%%%%%%%%%%%%%%%%%%%%%%%%%%%%%%%%%%%%%%%%%%%%%%
     %                                                                      %
     % You are using vdW-DF, which was implemented by the Thonhauser group. %
     % Please cite the following two papers that made this development      %
     % possible and the two reviews that describe the various versions:     %
     %                                                                      %
     %   T. Thonhauser et al., PRL 115, 136402 (2015).                      %
     %   T. Thonhauser et al., PRB 76, 125112 (2007).                       %
     %   K. Berland et al., Rep. Prog. Phys. 78, 066501 (2015).             %
     %   D.C. Langreth et al., J. Phys.: Condens. Matter 21, 084203 (2009). %
     %                                                                      %
     %                                                                      %
     % If you are calculating the stress with vdW-DF, please also cite:     %
     %                                                                      %
     %   R. Sabatini et al., J. Phys.: Condens. Matter 24, 424209 (2012).   %
     %                                                                      %
     %%%%%%%%%%%%%%%%%%%%%%%%%%%%%%%%%%%%%%%%%%%%%%%%%%%%%%%%%%%%%%%%%%%%%%%%

     Adding external electric field

     Computed dipole along edir(3) :
        Dipole              -10.2314 Ry au,        -26.0055 Debye
        Dipole field         -0.0193 Ry au,

        Potential amp.        1.7898 Ry
        Total length         46.3494 bohr

     Starting wfcs are  301 atomic wfcs
  @ DRIVER MODE: Message from server: STATUS
  @ DRIVER MODE: Message from server: POSDATA
  @ DRIVER MODE: Reading and sharing cell
  @ DRIVER MODE: Reading and sharing positions
  @ DRIVER MODE: Received positions

     Self-consistent Calculation

     iteration #  1     ecut=    29.40 Ry     beta= 0.05
     Davidson diagonalization with overlap
     c_bands:  1 eigenvalues not converged
     c_bands:  3 eigenvalues not converged
     c_bands:  2 eigenvalues not converged
     c_bands:  1 eigenvalues not converged
     c_bands:  4 eigenvalues not converged
     c_bands:  4 eigenvalues not converged
     c_bands:  4 eigenvalues not converged
     c_bands:  2 eigenvalues not converged
     c_bands:  3 eigenvalues not converged
     c_bands:  4 eigenvalues not converged
     ethr =  1.00E-05,  avg # of iterations = 20.0

[...]

     total energy              =   -2477.31969300 Ry
     estimated scf accuracy    <    5313.93898607 Ry

     iteration #  2     ecut=    29.40 Ry     beta= 0.05
     Davidson diagonalization with overlap
     ethr =  1.00E-02,  avg # of iterations = 23.1

[...]

     iteration # 61     ecut=    29.40 Ry     beta= 0.05
     Davidson diagonalization with overlap
     c_bands:  1 eigenvalues not converged
     c_bands:  1 eigenvalues not converged
     ethr =  4.26E-09,  avg # of iterations = 12.3

[...]

     total energy              =   -2953.88665536 Ry
     estimated scf accuracy    <       0.00000009 Ry

     iteration # 72     ecut=    29.40 Ry     beta= 0.05
     Davidson diagonalization with overlap
     ethr =  2.23E-11,  avg # of iterations = 11.0

     negative rho (up, down):  1.575E-02 0.000E+00

     Adding external electric field

     Computed dipole along edir(3) :
        Dipole                0.8531 Ry au,          2.1683 Debye
        Dipole field          0.0016 Ry au,

        Potential amp.       -0.1492 Ry
        Total length         46.3494 bohr

     End of self-consistent calculation

          k = 0.0000 0.0000 0.0000 ( 18029 PWs)   bands (ev):

   -55.7672 -55.7147 -55.6806 -55.5835 -55.5447 -55.5436 -55.5293 -55.5098
   -55.5011 -55.4507 -55.4501 -55.3389 -55.3093 -55.2659 -54.6930 -54.6589
   -32.2005 -32.0860 -32.0686 -32.0621 -32.0471 -32.0337 -32.0051 -31.9840
   -31.9825 -31.9604 -31.9458 -31.8674 -31.8524 -31.8522 -31.8299 -31.8233
   -31.8224 -31.7928 -31.7723 -31.7464 -31.7450 -31.7374 -31.7278 -31.7244
   -31.7228 -31.7163 -31.6877 -31.6789 -31.6707 -31.6694 -31.6621 -31.6570
   -31.6462 -31.6382 -31.6165 -31.6061 -31.5332 -31.5298 -31.5114 -31.4784
   -31.4705 -31.4620 -31.0992 -31.0123 -30.9899 -30.9166 -30.8302 -30.7185
   -16.8807 -16.6132 -16.3795 -16.2141 -15.9913 -15.9392 -15.8785 -15.7060
   -15.5909 -15.5355 -15.3514 -15.2830 -15.2546 -15.2420 -15.2376 -15.2201
   -15.2073 -15.1639 -15.1464 -15.1442 -15.1386 -15.1043 -15.0768 -15.0356
   -14.9888 -14.9531 -14.8564 -14.8014 -14.7617 -14.5177 -14.4841 -13.1916
   -13.0751  -9.8077  -7.0660  -5.3356  -4.1430  -3.7427  -3.6293  -3.6182
    -3.5576  -3.5021  -3.3449  -3.2243  -3.1426  -3.1267  -2.9746  -2.8609
    -2.8154  -2.7495  -2.7152  -2.6754  -2.6380  -2.6273  -2.5948  -2.5033
    -2.4813  -2.4671  -2.4058  -2.3803  -2.3141  -2.2903  -2.2581  -2.2453
    -2.1385  -2.0866  -2.0527  -2.0441  -2.0280  -2.0002  -1.9731  -1.9659
    -1.9386  -1.8548  -1.8010  -1.7458  -1.7189  -1.7034  -1.4000  -1.3277
    -1.2926  -1.2561  -1.1658  -1.1480  -1.1130  -1.0945  -1.0791  -1.0721
    -0.9574  -0.8890  -0.8301  -0.8002  -0.7566  -0.7243  -0.6114  -0.5589
    -0.5086  -0.4683  -0.4551  -0.4307  -0.3440  -0.3170  -0.3011  -0.1998
    -0.1570  -0.0924  -0.0223  -0.0084   0.0408   0.0705   0.1088   0.1456
     0.2038   0.2364   0.2540   0.2979   0.3370   0.3478   0.4058   0.4223
     0.5179   0.6022   0.6211   0.6914   0.7807   0.8270   0.9461   1.0087
     1.2797   1.3336   1.3468   1.5252   1.9010   1.9466   3.3628   3.3999
     3.5160   3.5292   3.6049   3.6160   3.7005   3.8561   3.9050   4.0158
     4.0524

[...]

          k = 0.0380-0.0419 0.0000 ( 17876 PWs)   bands (ev):

[...]

          k =-0.0760-0.0000 0.0000 ( 17886 PWs)   bands (ev):

[...]

          k =-0.0760-0.0839 0.0000 ( 17948 PWs)   bands (ev):

   -55.7663 -55.6978 -55.6974 -55.5728 -55.5551 -55.5300 -55.5272 -55.5260
   -55.4949 -55.4565 -55.4483 -55.3351 -55.3117 -55.2696 -54.6763 -54.6754
   -32.0312 -32.0159 -32.0156 -32.0151 -31.9908 -31.9903 -31.9865 -31.9749
   -31.9163 -31.8906 -31.8730 -31.8599 -31.8552 -31.8349 -31.8204 -31.8178
   -31.8172 -31.8141 -31.8103 -31.8053 -31.7802 -31.7540 -31.7453 -31.7382
   -31.7306 -31.7285 -31.7137 -31.7120 -31.7107 -31.7022 -31.7015 -31.6817
   -31.6795 -31.6751 -31.6448 -31.6144 -31.5957 -31.5585 -31.5372 -31.5319
   -31.5191 -31.4741 -31.0029 -31.0022 -30.9126 -30.9114 -30.8738 -30.8730
   -16.8627 -16.6024 -16.0526 -15.8032 -15.7107 -15.7003 -15.5683 -15.5012
   -15.4900 -15.4482 -15.4287 -15.4072 -15.4008 -15.3763 -15.3357 -15.2817
   -15.2522 -15.2255 -15.2192 -15.1796 -15.1723 -15.1537 -15.1511 -15.1294
   -15.0797 -15.0387 -15.0251 -15.0100 -14.8253 -14.7722 -14.6412 -13.1772
   -13.1767  -9.8084  -7.0578  -5.3201  -4.1280  -3.3711  -3.1770  -3.0136
    -2.9422  -2.8868  -2.7933  -2.7507  -2.7361  -2.6908  -2.6678  -2.6450
    -2.5650  -2.5504  -2.5213  -2.5098  -2.4804  -2.4656  -2.4592  -2.4495
    -2.4053  -2.3966  -2.3867  -2.3548  -2.3470  -2.3367  -2.2974  -2.2763
    -2.2662  -2.2556  -2.2069  -2.1834  -2.1051  -2.0655  -1.9683  -1.8851
    -1.8744  -1.8511  -1.8037  -1.7919  -1.7496  -1.7338  -1.6904  -1.6159
    -1.5316  -1.4639  -1.3523  -1.3094  -1.2980  -1.2391  -1.2212  -1.1649
    -1.1315  -1.1004  -1.0709  -0.9709  -0.9383  -0.8815  -0.7651  -0.7010
    -0.6886  -0.6657  -0.6552  -0.6195  -0.5990  -0.5839  -0.5530  -0.4710
    -0.4333  -0.4184  -0.4089  -0.3725  -0.2468  -0.1250  -0.0807  -0.0207
     0.0453   0.0614   0.1152   0.1551   0.3097   0.3438   0.4410   0.4558
     0.4768   0.5902   0.5975   0.6780   0.7200   0.7648   0.7933   0.8257
     0.8305   0.8702   1.6949   1.7033   1.7669   1.7670   3.3719   3.7443
     3.8465   3.8629   3.8804   3.9213   3.9352   3.9643   3.9699   4.0340
     4.0497

     the Fermi energy is     3.4048 ev

!    total energy              =   -2953.88667531 Ry
     estimated scf accuracy    <       0.00000005 Ry
     smearing contrib. (-TS)   =      -0.02908343 Ry
     internal energy E=F+TS    =   -2953.85759189 Ry

     The total energy is F=E-TS. E is the sum of the following terms:
     one-electron contribution =  -23670.20788621 Ry
     hartree contribution      =   11926.04646697 Ry
     xc contribution           =    -488.85553226 Ry
     ewald contribution        =    9279.15798625 Ry
     electric field correction =       0.00137337 Ry

     convergence has been achieved in  72 iterations

     Forces acting on atoms (cartesian axes, Ry/au):

     atom    1 type  1   force =    -0.00001784   -0.00029091    0.09378448
     atom    2 type  1   force =    -0.00009550    0.00049065   -0.17550671
     atom    3 type  2   force =     0.00011134   -0.00024376   -0.02088592
     atom    4 type  2   force =     0.00001374   -0.00197587    0.05495849
     atom    5 type  2   force =    -0.00644882   -0.00243923    0.00277312
     atom    6 type  2   force =     0.00860854   -0.00177010    0.00361210
     atom    7 type  1   force =     0.00058983   -0.00336442    0.00969063
     atom    8 type  1   force =    -0.00066705    0.00047471    0.00110186
     atom    9 type  2   force =    -0.00001269    0.00059813   -0.00097450
     atom   10 type  2   force =    -0.00024954    0.00115451   -0.00781060
     atom   11 type  2   force =    -0.00012680   -0.00001558    0.00016224
     atom   12 type  2   force =    -0.00041297   -0.00017995    0.00002387
     atom   13 type  1   force =    -0.00027980    0.00001761   -0.00043318
     atom   14 type  1   force =    -0.00061529    0.00042750    0.00040826
     atom   15 type  2   force =    -0.00006154    0.00105787   -0.00005681
     atom   16 type  2   force =    -0.00007809    0.00007246   -0.00021920
     atom   17 type  2   force =    -0.00043808    0.00053849   -0.00036880
     atom   18 type  2   force =     0.00016829    0.00069390   -0.00023956
     atom   19 type  1   force =     0.00005835   -0.00017182    0.00061840
     atom   20 type  1   force =    -0.00012772   -0.00047237    0.00011975
     atom   21 type  2   force =     0.00001544    0.00008537    0.10329553
     atom   22 type  2   force =    -0.00007208    0.00022929   -0.00014829
     atom   23 type  2   force =    -0.07186377   -0.00017603   -0.02713260
     atom   24 type  2   force =     0.07172993    0.00029661   -0.02721078
     atom   25 type  1   force =     0.00009346   -0.00020023    0.09358642
     atom   26 type  1   force =    -0.00025466   -0.00137989   -0.17562858
     atom   27 type  2   force =     0.00015139   -0.00016124   -0.01963602
     atom   28 type  2   force =     0.00011081   -0.00028422    0.05020022
     atom   29 type  2   force =    -0.00551184    0.00259642    0.00166543
     atom   30 type  2   force =     0.00765928    0.00269044    0.00255813
     atom   31 type  1   force =     0.00070650    0.00798186   -0.00206114
     atom   32 type  1   force =    -0.00071067   -0.00206614    0.00020754
     atom   33 type  2   force =    -0.00017031   -0.00073239   -0.00012031
     atom   34 type  2   force =     0.00011507   -0.00173148   -0.00873516
     atom   35 type  2   force =    -0.00004821   -0.00011688   -0.00059015
     atom   36 type  2   force =    -0.00018681   -0.00019219   -0.00039861
     atom   37 type  1   force =     0.00044718    0.00066583   -0.00071187
     atom   38 type  1   force =    -0.00062350   -0.00053475    0.00021315
     atom   39 type  2   force =    -0.00002033    0.00012472    0.00021497
     atom   40 type  2   force =     0.00011521    0.00002218    0.00062379
     atom   41 type  2   force =    -0.00061270   -0.00022143    0.00004078
     atom   42 type  2   force =     0.00062887    0.00008530   -0.00069967
     atom   43 type  1   force =    -0.00023075    0.00047189   -0.00022054
     atom   44 type  1   force =    -0.00004100   -0.00119927    0.00022851
     atom   45 type  2   force =     0.00001784   -0.00005510    0.10307908
     atom   46 type  2   force =    -0.07187434   -0.00001855   -0.02714505
     atom   47 type  2   force =     0.07178115    0.00040295   -0.02723395
     atom   48 type  3   force =    -0.00008621   -0.00069771   -0.00062628
     atom   49 type  4   force =    -0.00192363   -0.00328941   -0.00214305
     atom   50 type  5   force =     0.00291952    0.00413588    0.00315194
     atom   51 type  5   force =    -0.00004269   -0.00056632    0.00076829
     atom   52 type  5   force =     0.00002075    0.00066306   -0.00063286
     atom   53 type  5   force =    -0.00066939   -0.00105484    0.00011284
     atom   54 type  2   force =    -0.00133218   -0.00063736   -0.00053403
     atom   55 type  5   force =    -0.00015570    0.00026180    0.00090440

     Total force =     0.362083     Total SCF correction =     0.000549
  @ DRIVER MODE: Message from server: STATUS
  @ DRIVER MODE: Message from server: GETFORCE
  @ DRIVER MODE: Returning v,forces,stress,ensemble

     Writing output data file ./calc.save/
  @ DRIVER MODE: Message from server: EXIT
  @ DRIVE MODE: Exiting

     General routines

     Parallel routines

   This run was terminated on:  22:37:42  22Sep2021

   JOB DONE.