     Program PWSCF v.6.7GPU starts on 25Aug2021 at  1:57:11

     R & G space division:  proc/nbgrp/npool/nimage =       6
     Reading input from /storage/home/hcoda1/3/ntian30/research/carbon/CH3_vib_end_on/ads_slab/CH3N_a/out_0023/pw.inp
Warning: card &CELL ignored
Warning: card   CELL_DYNAMICS='IPI', ignored
Warning: card / ignored

     Current dimensions of program PWSCF are:
     Max number of different atomic species (ntypx) = 10
     Max number of k-points (npk) =  40000
     Max angular momentum in pseudopotentials (lmaxx) =  3
     Presently no symmetry can be used with electric field

     Message from routine cell_base_init:
     DEPRECATED: use true lattice parameter, not A to a.u. conversion factor

     IMPORTANT: XC functional enforced from input :
     Exchange-correlation= BEEF-VDW
                           (   1   4  43  14   2   0   0)
     Any further DFT definition will be discarded
     Please, verify this is what you really want

  @ DRIVER MODE: Connecting to
 qe_1139763_2643872.sched-torque.pace.gatech.edu8t7bvn04_scratch
  using UNIX socket
  @ DRIVER MODE: Message from server: STATUS
  @ DRIVER MODE: Message from server: INIT
  @ DRIVER MODE: Receiving replica           0          -1
  @ DRIVER MODE: Receiving encoded integer          25
  @ DRIVER MODE:  SCF:  T  FORCE:  T  STRESS:  F  VC:  F  ENSEMBLE:  F
  @ DRIVER MODE:  SCF:  T  FORCE:  T  STRESS:  F  VC:  F  ENSEMBLE:  F

     Using Slab Decomposition

     bravais-lattice index     =            0
     lattice parameter (alat)  =       1.8897  a.u.
     unit-cell volume          =    6658.9804 (a.u.)^3
     number of atoms/cell      =           52
     number of atomic types    =            5
     number of electrons       =       390.00
     number of Kohn-Sham states=          205
     kinetic-energy cutoff     =      29.3995  Ry
     charge density cutoff     =     293.9946  Ry
     scf convergence threshold =      7.3E-08
     mixing beta               =       0.0500
     number of iterations used =            8  plain     mixing
     Exchange-correlation= BEEF-VDW
                           (   1   4  43  14   2   0   0)

     celldm(1)=   1.889726  celldm(2)=   0.000000  celldm(3)=   0.000000
     celldm(4)=   0.000000  celldm(5)=   0.000000  celldm(6)=   0.000000

     crystal axes: (cart. coord. in units of alat)
               a(1) = (   6.579727   0.000000   0.000000 )
               a(2) = (  -0.000775   5.961596   0.000000 )
               a(3) = (   0.000000   0.000000  25.155947 )

     reciprocal axes: (cart. coord. in units 2 pi/alat)
               b(1) = (  0.151982  0.000020  0.000000 )
               b(2) = (  0.000000  0.167740  0.000000 )
               b(3) = (  0.000000  0.000000  0.039752 )

     PseudoPot. # 1 for Ti read from file:
     /storage/coda1/p-amedford6/0/shared/rich_project_chbe-medford/medford-share/data/pseudos_module/espresso/nninc/pbe/van/Ti.UPF
     MD5 check sum: 8e4df49b7f0d34bbd5052bf3f5ea0213
     Pseudo is Ultrasoft, Zval = 12.0
     Generated by new atomic code, or converted to UPF format
     Using radial grid of  851 points,  6 beta functions with:
                l(1) =   0
                l(2) =   0
                l(3) =   1
                l(4) =   1
                l(5) =   2
                l(6) =   2
     Q(r) pseudized with  8 coefficients,  rinner =    1.000   1.000   1.000
                                                       1.000   1.000

     PseudoPot. # 2 for O  read from file:
     /storage/coda1/p-amedford6/0/shared/rich_project_chbe-medford/medford-share/data/pseudos_module/espresso/nninc/pbe/van/O.UPF
     MD5 check sum: 78c19812648e8988a0fe644b0f25305e
     Pseudo is Ultrasoft, Zval =  6.0
     Generated by new atomic code, or converted to UPF format
     Using radial grid of  737 points,  4 beta functions with:
                l(1) =   0
                l(2) =   0
                l(3) =   1
                l(4) =   1
     Q(r) pseudized with  8 coefficients,  rinner =    0.800   0.800   0.800

     PseudoPot. # 3 for N  read from file:
     /storage/coda1/p-amedford6/0/shared/rich_project_chbe-medford/medford-share/data/pseudos_module/espresso/nninc/pbe/van/N.UPF
     MD5 check sum: 90d10febe142ad51ac9d5be1deb811c4
     Pseudo is Ultrasoft, Zval =  5.0
     Generated by new atomic code, or converted to UPF format
     Using radial grid of  729 points,  4 beta functions with:
                l(1) =   0
                l(2) =   0
                l(3) =   1
                l(4) =   1
     Q(r) pseudized with  8 coefficients,  rinner =    0.800   0.800   0.800

     PseudoPot. # 4 for C  read from file:
     /storage/coda1/p-amedford6/0/shared/rich_project_chbe-medford/medford-share/data/pseudos_module/espresso/nninc/pbe/van/C.UPF
     MD5 check sum: 1a69bf6b8db32088f5b2163dbdb77a27
     Pseudo is Ultrasoft, Zval =  4.0
     Generated by new atomic code, or converted to UPF format
     Using radial grid of  721 points,  4 beta functions with:
                l(1) =   0
                l(2) =   0
                l(3) =   1
                l(4) =   1
     Q(r) pseudized with  8 coefficients,  rinner =    0.800   0.800   0.800

     PseudoPot. # 5 for H  read from file:
     /storage/coda1/p-amedford6/0/shared/rich_project_chbe-medford/medford-share/data/pseudos_module/espresso/nninc/pbe/van/H.UPF
     MD5 check sum: b5ee9d7bfd3a09ee7748110bda690ff7
     Pseudo is Ultrasoft, Zval =  1.0
     Generated by new atomic code, or converted to UPF format
     Using radial grid of  615 points,  1 beta functions with:
                l(1) =   0
     Q(r) pseudized with  8 coefficients,  rinner =    0.800

     atomic species   valence    mass     pseudopotential
        Ti1           12.00    47.86700     Ti( 1.00)
        O1             6.00    15.99900     O ( 1.00)
        N1             5.00    14.00700     N ( 1.00)
        C1             4.00    12.01100     C ( 1.00)
        H1             1.00     1.00800     H ( 1.00)

     No symmetry found

   Cartesian axes

     site n.     atom                  positions (alat units)
         1           Ti1 tau(   1) = (   0.0004258   2.9801865   6.0000000  )
         2           Ti1 tau(   2) = (   3.2906075   1.4906267   6.0002472  )
         3           O1  tau(   3) = (   0.0006271   0.0005054   7.9858123  )
         4           O1  tau(   4) = (   3.2906025   0.0005020   7.3038282  )
         5           O1  tau(   5) = (   4.5942328   1.4918067   9.2879030  )
         6           O1  tau(   6) = (   1.9868534   1.4903216   9.2879459  )
         7           Ti1 tau(   7) = (   3.2907910   2.8959150   9.1758416  )
         8           Ti1 tau(   8) = (   0.0015273   1.4827037   9.2680791  )
         9           O1  tau(   9) = (   3.3018735   5.9614316  11.2970789  )
        10           O1  tau(  10) = (   0.0116148   5.9584955  10.6183126  )
        11           O1  tau(  11) = (   1.3353665   1.4968727  12.6140821  )
        12           O1  tau(  12) = (   5.3123320   1.5002621  12.6324210  )
        13           Ti1 tau(  13) = (   6.4913169   2.9877414  12.7576577  )
        14           Ti1 tau(  14) = (   3.1819880   1.4874128  12.4666476  )
        15           O1  tau(  15) = (   0.0325390   5.9514364  14.5942808  )
        16           O1  tau(  16) = (   3.3157460   0.0104736  13.8786857  )
        17           O1  tau(  17) = (   4.5538541   1.5308062  16.0536203  )
        18           O1  tau(  18) = (   2.1012647   1.5271178  16.0466835  )
        19           Ti1 tau(  19) = (   3.3239613   3.0121693  15.6870930  )
        20           Ti1 tau(  20) = (   0.0188375   1.6096557  16.0875739  )
        21           O1  tau(  21) = (   3.2904802   0.0005063   4.7018136  )
        22           O1  tau(  22) = (   0.0443345   0.0604659  17.2041813  )
        23           O1  tau(  23) = (   1.3043587   1.4918075   6.0039043  )
        24           O1  tau(  24) = (   5.2767064   1.4903225   6.0039473  )
        25           Ti1 tau(  25) = (   0.0000382   5.9609847   6.0000000  )
        26           Ti1 tau(  26) = (   3.2902200   4.4714249   6.0002472  )
        27           O1  tau(  27) = (   0.0002396   2.9813036   7.9858123  )
        28           O1  tau(  28) = (   3.2902150   2.9813002   7.3038282  )
        29           O1  tau(  29) = (   4.5938453   4.4726049   9.2879030  )
        30           O1  tau(  30) = (   1.9864658   4.4711199   9.2879459  )
        31           Ti1 tau(  31) = (   3.2891106   5.8743827   9.1763621  )
        32           Ti1 tau(  32) = (   0.0006254   4.4649316   9.2693709  )
        33           O1  tau(  33) = (   3.3028429   2.9834257  11.2952420  )
        34           O1  tau(  34) = (   0.0092240   2.9805883  10.6323155  )
        35           O1  tau(  35) = (   1.3370139   4.4664586  12.6123119  )
        36           O1  tau(  36) = (   5.3107101   4.4655690  12.6333123  )
        37           Ti1 tau(  37) = (   6.5188704   0.0058144  12.7695920  )
        38           Ti1 tau(  38) = (   3.1805296   4.4670443  12.4671176  )
        39           O1  tau(  39) = (   0.0099197   2.9765079  14.6559069  )
        40           O1  tau(  40) = (   3.3143426   2.9928857  13.8797190  )
        41           O1  tau(  41) = (   4.5573730   4.5089470  16.0521860  )
        42           O1  tau(  42) = (   2.1018054   4.5121927  16.0508938  )
        43           Ti1 tau(  43) = (   3.3145791   0.0316975  15.6896801  )
        44           Ti1 tau(  44) = (   0.0207397   4.5876961  16.1385408  )
        45           O1  tau(  45) = (   3.2900926   2.9813045   4.7018136  )
        46           O1  tau(  46) = (   1.3039711   4.4726057   6.0039043  )
        47           O1  tau(  47) = (   5.2763189   4.4711207   6.0039473  )
        48           N1  tau(  48) = (   0.0936308   3.0233000  17.3257847  )
        49           C1  tau(  49) = (   0.4281149   3.0137428  18.7308649  )
        50           H1  tau(  50) = (   0.7292188   4.0033843  19.0862330  )
        51           H1  tau(  51) = (   6.1445545   2.6862439  19.3132575  )
        52           H1  tau(  52) = (   1.2401080   2.3040860  18.9332505  )

     number of k points=    10  Fermi-Dirac smearing, width (Ry)=  0.0073
                       cart. coord. in units 2pi/alat
        k(    1) = (   0.0000000   0.0000000   0.0000000), wk =   0.1250000
        k(    2) = (   0.0000000   0.0419351   0.0000000), wk =   0.2500000
        k(    3) = (   0.0000000  -0.0838702   0.0000000), wk =   0.1250000
        k(    4) = (   0.0379955   0.0000049   0.0000000), wk =   0.2500000
        k(    5) = (   0.0379955   0.0419400   0.0000000), wk =   0.2500000
        k(    6) = (   0.0379955  -0.0838652   0.0000000), wk =   0.2500000
        k(    7) = (   0.0379955  -0.0419301   0.0000000), wk =   0.2500000
        k(    8) = (  -0.0759910  -0.0000099   0.0000000), wk =   0.1250000
        k(    9) = (  -0.0759910   0.0419252   0.0000000), wk =   0.2500000
        k(   10) = (  -0.0759910  -0.0838800   0.0000000), wk =   0.1250000

     Initial potential from superposition of free atoms

     starting charge  373.99917, renormalised to  390.00000

     negative rho (up, down):  1.731E-02 0.000E+00

     %%%%%%%%%%%%%%%%%%%%%%%%%%%%%%%%%%%%%%%%%%%%%%%%%%%%%%%%%%%%%%%%%%%%%%%%
     %                                                                      %
     % You are using vdW-DF, which was implemented by the Thonhauser group. %
     % Please cite the following two papers that made this development      %
     % possible and the two reviews that describe the various versions:     %
     %                                                                      %
     %   T. Thonhauser et al., PRL 115, 136402 (2015).                      %
     %   T. Thonhauser et al., PRB 76, 125112 (2007).                       %
     %   K. Berland et al., Rep. Prog. Phys. 78, 066501 (2015).             %
     %   D.C. Langreth et al., J. Phys.: Condens. Matter 21, 084203 (2009). %
     %                                                                      %
     %                                                                      %
     % If you are calculating the stress with vdW-DF, please also cite:     %
     %                                                                      %
     %   R. Sabatini et al., J. Phys.: Condens. Matter 24, 424209 (2012).   %
     %                                                                      %
     %%%%%%%%%%%%%%%%%%%%%%%%%%%%%%%%%%%%%%%%%%%%%%%%%%%%%%%%%%%%%%%%%%%%%%%%

     Adding external electric field

     Computed dipole along edir(3) :
        Dipole               -4.6264 Ry au,        -11.7591 Debye
        Dipole field         -0.0087 Ry au,

        Potential amp.        0.8093 Ry
        Total length         46.3494 bohr

     Starting wfcs are  295 atomic wfcs
  @ DRIVER MODE: Message from server: STATUS
  @ DRIVER MODE: Message from server: POSDATA
  @ DRIVER MODE: Reading and sharing cell
  @ DRIVER MODE: Reading and sharing positions
  @ DRIVER MODE: Received positions

     Self-consistent Calculation

     iteration #  1     ecut=    29.40 Ry     beta= 0.05
     Davidson diagonalization with overlap
     c_bands:  3 eigenvalues not converged
     c_bands:  3 eigenvalues not converged
     c_bands:  2 eigenvalues not converged
     c_bands:  4 eigenvalues not converged
     c_bands:  4 eigenvalues not converged
     c_bands:  2 eigenvalues not converged
     c_bands:  2 eigenvalues not converged
     c_bands:  4 eigenvalues not converged
     ethr =  1.00E-05,  avg # of iterations = 19.7

[...]

     total energy              =   -2877.66475345 Ry
     estimated scf accuracy    <     478.63197826 Ry

     iteration #  2     ecut=    29.40 Ry     beta= 0.05
     Davidson diagonalization with overlap
     ethr =  1.00E-02,  avg # of iterations = 13.8

[...]

     iteration # 40     ecut=    29.40 Ry     beta= 0.05
     Davidson diagonalization with overlap
     c_bands:  2 eigenvalues not converged
     ethr =  1.23E-08,  avg # of iterations =  7.2

[...]

     total energy              =   -2919.13175849 Ry
     estimated scf accuracy    <       0.00000012 Ry

     iteration # 52     ecut=    29.40 Ry     beta= 0.05
     Davidson diagonalization with overlap
     ethr =  2.98E-11,  avg # of iterations =  5.0

     negative rho (up, down):  1.788E-02 0.000E+00

     Adding external electric field

     Computed dipole along edir(3) :
        Dipole                0.2606 Ry au,          0.6623 Debye
        Dipole field          0.0005 Ry au,

        Potential amp.       -0.0456 Ry
        Total length         46.3494 bohr

     End of self-consistent calculation

          k = 0.0000 0.0000 0.0000 ( 18029 PWs)   bands (ev):

   -56.8870 -56.8534 -56.0090 -55.9973 -55.9741 -55.9644 -55.8620 -55.8233
   -55.6456 -55.6102 -55.5511 -55.5477 -55.5172 -55.4385 -54.9667 -54.9198
   -33.3149 -33.1617 -33.1336 -33.0630 -32.9719 -32.9410 -32.4799 -32.4736
   -32.4027 -32.2932 -32.2468 -32.2227 -32.2044 -32.1830 -32.1494 -32.1451
   -32.1411 -32.1381 -32.1125 -32.1099 -32.0985 -32.0690 -32.0427 -32.0289
   -32.0158 -31.9962 -31.9892 -31.9657 -31.9434 -31.8897 -31.8769 -31.8655
   -31.7892 -31.7843 -31.7621 -31.7228 -31.7122 -31.6787 -31.6678 -31.6429
   -31.6242 -31.5677 -31.4967 -31.2175 -31.1918 -31.1711 -31.1407 -31.0255
   -17.0512 -16.6159 -16.3855 -16.2496 -16.1824 -16.1277 -16.0840 -15.9598
   -15.8866 -15.8819 -15.8415 -15.8092 -15.7386 -15.6002 -15.5016 -15.4444
   -15.4008 -15.2816 -15.2229 -15.1893 -15.1835 -15.1445 -15.1297 -14.9325
   -14.9059 -14.8179 -14.7984 -14.6711 -14.4394 -14.0497 -13.9396 -13.0878
    -7.8172  -4.6167  -4.1122  -3.8711  -3.7882  -3.6799  -3.6673  -3.5869
    -3.4678  -3.4210  -3.3744  -3.2583  -3.2549  -3.1087  -3.1079  -3.0626
    -3.0601  -3.0242  -2.9773  -2.9421  -2.9098  -2.8927  -2.8852  -2.7348
    -2.6321  -2.5652  -2.5382  -2.5252  -2.4948  -2.4229  -2.3930  -2.3837
    -2.3798  -2.2744  -2.1294  -2.1283  -2.0958  -2.0538  -2.0514  -2.0129
    -2.0004  -1.8754  -1.7849  -1.6756  -1.6662  -1.6287  -1.5671  -1.5605
    -1.4639  -1.3884  -1.3180  -1.3004  -1.1909  -1.1468  -1.1237  -1.0342
    -0.9725  -0.9350  -0.9122  -0.8958  -0.7930  -0.7764  -0.7691  -0.6756
    -0.6634  -0.6199  -0.5268  -0.5038  -0.4985  -0.4160  -0.4089  -0.3039
    -0.2756  -0.2309  -0.1980  -0.0933  -0.0726   0.0255   0.0625   0.0813
     0.2026   0.2199   0.2805   0.3529   0.4183   0.4350   0.4706   0.5010
     0.5174   0.5954   0.7076   0.7148   0.8184   0.8515   1.0230   1.0619
     1.3462   1.3546   2.0466   2.3875   2.5472   2.8455   3.0348   3.1481
     3.3624   3.3780   3.3834   3.5551   3.6071

[...]

          k = 0.0380-0.0419 0.0000 ( 17876 PWs)   bands (ev):

[...]

          k =-0.0760-0.0000 0.0000 ( 17886 PWs)   bands (ev):

[...]

          k =-0.0760-0.0839 0.0000 ( 17948 PWs)   bands (ev):

   -56.8703 -56.8700 -55.9938 -55.9880 -55.9816 -55.9810 -55.8505 -55.8346
   -55.6308 -55.6248 -55.5449 -55.5342 -55.5340 -55.4413 -54.9587 -54.9277
   -33.1475 -33.1473 -33.1319 -33.1317 -33.0161 -33.0158 -32.3098 -32.3074
   -32.2981 -32.2916 -32.2385 -32.2351 -32.1966 -32.1926 -32.1914 -32.1873
   -32.1833 -32.1805 -32.1783 -32.1767 -32.1008 -32.0883 -32.0496 -32.0374
   -31.9813 -31.9727 -31.9131 -31.9072 -31.8786 -31.8785 -31.8729 -31.8294
   -31.8277 -31.7978 -31.7611 -31.7597 -31.7596 -31.7206 -31.7206 -31.7185
   -31.6841 -31.6446 -31.3616 -31.2841 -31.1885 -31.1612 -31.1494 -31.1079
   -16.4000 -16.3979 -16.3651 -16.3648 -16.0960 -16.0925 -16.0461 -16.0428
   -15.8713 -15.8642 -15.6592 -15.6503 -15.6433 -15.6405 -15.5127 -15.5070
   -15.4436 -15.4294 -15.3418 -15.3393 -15.2762 -15.2701 -15.2317 -15.2119
   -14.9015 -14.8839 -14.7719 -14.7466 -14.5831 -14.0431 -14.0431 -13.1043
    -7.8080  -3.4984  -3.4976  -3.4341  -3.4332  -3.3087  -3.3028  -3.2296
    -3.2288  -3.1273  -3.1235  -3.0856  -3.0036  -2.9846  -2.9817  -2.9728
    -2.9698  -2.8298  -2.8272  -2.8160  -2.8001  -2.7440  -2.7418  -2.7280
    -2.6521  -2.6377  -2.6037  -2.5654  -2.4567  -2.4433  -2.4301  -2.3985
    -2.3422  -2.3291  -2.3157  -2.2740  -2.2523  -2.1626  -2.1066  -2.0546
    -1.9386  -1.9355  -1.9270  -1.9115  -1.7603  -1.7185  -1.6909  -1.6837
    -1.6757  -1.6323  -1.5336  -1.5269  -1.3923  -1.3917  -1.3119  -1.2330
    -1.2155  -1.1853  -1.0553  -1.0151  -0.9783  -0.9701  -0.9426  -0.9232
    -0.8998  -0.8622  -0.7208  -0.7077  -0.6707  -0.6356  -0.6306  -0.5756
    -0.5170  -0.4372  -0.3607  -0.3597  -0.3057  -0.2330  -0.1726  -0.0914
    -0.0777  -0.0731   0.2072   0.2868   0.3789   0.4554   0.5238   0.5775
     0.6121   0.6770   0.7156   0.8489   0.8535   0.8712   0.8715   0.9337
     0.9352   1.3369   1.9360   2.9605   2.9608   3.0277   3.0281   3.3517
     3.3576   3.4657   3.4752   3.5865   3.5887

     the Fermi energy is     2.2264 ev

!    total energy              =   -2919.13184599 Ry
     estimated scf accuracy    <       0.00000005 Ry
     smearing contrib. (-TS)   =      -0.00481361 Ry
     internal energy E=F+TS    =   -2919.12703238 Ry

     The total energy is F=E-TS. E is the sum of the following terms:
     one-electron contribution =  -24569.88306439 Ry
     hartree contribution      =   12369.17638455 Ry
     xc contribution           =    -479.90403431 Ry
     ewald contribution        =    9761.48355365 Ry
     electric field correction =       0.00012813 Ry

     convergence has been achieved in  52 iterations

     Forces acting on atoms (cartesian axes, Ry/au):

     atom    1 type  1   force =     0.00006377   -0.00051291    0.12429050
     atom    2 type  1   force =    -0.00008843   -0.00054891   -0.16063334
     atom    3 type  2   force =     0.00022111   -0.00024099   -0.06808905
     atom    4 type  2   force =    -0.00000193   -0.00032170    0.02756824
     atom    5 type  2   force =    -0.01621559    0.00174521   -0.00936402
     atom    6 type  2   force =     0.01826969    0.00228471   -0.00891772
     atom    7 type  1   force =     0.00112146   -0.00381383    0.02202321
     atom    8 type  1   force =    -0.00061543   -0.00325246    0.11125663
     atom    9 type  2   force =    -0.00010907    0.00138944   -0.00035025
     atom   10 type  2   force =    -0.00190932    0.00178616   -0.07348702
     atom   11 type  2   force =     0.00080822    0.00006187    0.00005104
     atom   12 type  2   force =    -0.00064268    0.00019977    0.00015230
     atom   13 type  1   force =     0.00006009    0.00022146   -0.00038967
     atom   14 type  1   force =    -0.00102079   -0.00024480   -0.00048457
     atom   15 type  2   force =     0.00000536   -0.00028160    0.00008043
     atom   16 type  2   force =    -0.00006503    0.00106567    0.00076722
     atom   17 type  2   force =     0.00007107    0.00014434   -0.00045516
     atom   18 type  2   force =     0.00007031    0.00020767   -0.00005811
     atom   19 type  1   force =     0.00012905    0.00003244   -0.00076150
     atom   20 type  1   force =     0.00034404   -0.00083726    0.00010069
     atom   21 type  2   force =     0.00004021   -0.00006668    0.09975787
     atom   22 type  2   force =     0.00016989   -0.00050156   -0.00001260
     atom   23 type  2   force =    -0.07919318   -0.00005413   -0.03245514
     atom   24 type  2   force =     0.07905968    0.00038205   -0.03247674
     atom   25 type  1   force =     0.00004764   -0.00050200    0.12373896
     atom   26 type  1   force =    -0.00009587   -0.00050477   -0.16065520
     atom   27 type  2   force =     0.00032751   -0.00048119   -0.06714229
     atom   28 type  2   force =     0.00002587   -0.00014266    0.02725797
     atom   29 type  2   force =    -0.01661583    0.00134733   -0.00956821
     atom   30 type  2   force =     0.01855678    0.00165386   -0.00913544
     atom   31 type  1   force =     0.00110065   -0.00129150    0.02158278
     atom   32 type  1   force =    -0.00052036    0.00069257    0.11190591
     atom   33 type  2   force =    -0.00034209   -0.00115343    0.00015140
     atom   34 type  2   force =    -0.00156651    0.00135607   -0.07242447
     atom   35 type  2   force =    -0.00179269   -0.00019853    0.00026861
     atom   36 type  2   force =     0.00070073   -0.00041949   -0.00004923
     atom   37 type  1   force =     0.00072466   -0.00033306    0.00071108
     atom   38 type  1   force =    -0.00017243    0.00052365    0.00019734
     atom   39 type  2   force =     0.00016627   -0.00030180   -0.00039276
     atom   40 type  2   force =     0.00010259   -0.00017397    0.00035536
     atom   41 type  2   force =     0.00000382    0.00044695   -0.00013699
     atom   42 type  2   force =     0.00027995    0.00053649   -0.00002348
     atom   43 type  1   force =     0.00037256    0.00015980   -0.00037405
     atom   44 type  1   force =    -0.00022509   -0.00005258    0.00002089
     atom   45 type  2   force =     0.00002466   -0.00007131    0.09976389
     atom   46 type  2   force =    -0.07920255   -0.00000294   -0.03245275
     atom   47 type  2   force =     0.07906906    0.00042259   -0.03247708
     atom   48 type  3   force =     0.00054371   -0.00064771   -0.00193049
     atom   49 type  4   force =     0.00332493    0.00128304   -0.00290985
     atom   50 type  5   force =    -0.00095589   -0.00001468    0.00038012
     atom   51 type  5   force =    -0.00396061   -0.00141224    0.00492994
     atom   52 type  5   force =    -0.00049399    0.00043758    0.00029479

     Total force =     0.424719     Total SCF correction =     0.000576
  @ DRIVER MODE: Message from server: STATUS
  @ DRIVER MODE: Message from server: GETFORCE
  @ DRIVER MODE: Returning v,forces,stress,ensemble

     Writing output data file ./calc.save/
  @ DRIVER MODE: Message from server: EXIT
  @ DRIVE MODE: Exiting

     General routines

     Parallel routines

   This run was terminated on:   2:18:18  25Aug2021

   JOB DONE.