     Program PWSCF v.6.8 starts on 11Oct2021 at 21:53:37

     R & G space division:  proc/nbgrp/npool/nimage =       4

     Reading input from /storage/home/hcoda1/3/ntian30/research/carbon/ACS_sus_calc/ads_slab/HNNH/ACS_sus_calc.log/pw.inp
Warning: card &CELL ignored
Warning: card   CELL_DYNAMICS='IPI', ignored
Warning: card / ignored

     Current dimensions of program PWSCF are:
     Max number of different atomic species (ntypx) = 10
     Max number of k-points (npk) =  40000
     Max angular momentum in pseudopotentials (lmaxx) =  4
     Presently no symmetry can be used with electric field

     Message from routine cell_base_init:
     DEPRECATED: use true lattice parameter, not A to a.u. conversion factor

     IMPORTANT: XC functional enforced from input :
     Exchange-correlation= BEEF-VDW
                           (   1   4  43  14   2   0   0)
     Any further DFT definition will be discarded
     Please, verify this is what you really want

  @ DRIVER MODE: Connecting to
 qe_1139763_3174293.sched-torque.pace.gatech.eduj_ftxi3m_scratch
  using UNIX socket
  @ DRIVER MODE: Message from server: STATUS
  @ DRIVER MODE: Message from server: INIT
  @ DRIVER MODE: Receiving replica           0          -1
  @ DRIVER MODE: Receiving encoded integer          25
  @ DRIVER MODE:  SCF:  T  FORCE:  T  STRESS:  F  VC:  F  ENSEMBLE:  F
  @ DRIVER MODE:  SCF:  T  FORCE:  T  STRESS:  F  VC:  F  ENSEMBLE:  F

     Using Slab Decomposition

     bravais-lattice index     =            0
     lattice parameter (alat)  =       1.8897  a.u.
     unit-cell volume          =    6658.9804 (a.u.)^3
     number of atoms/cell      =           51
     number of atomic types    =            4
     number of electrons       =       390.00
     number of Kohn-Sham states=          205
     kinetic-energy cutoff     =      29.3995  Ry
     charge density cutoff     =     293.9946  Ry
     scf convergence threshold =      7.3E-08
     mixing beta               =       0.0500
     number of iterations used =            8  plain     mixing
     Exchange-correlation= BEEF-VDW
                           (   1   4  43  14   2   0   0)

     celldm(1)=   1.889726  celldm(2)=   0.000000  celldm(3)=   0.000000
     celldm(4)=   0.000000  celldm(5)=   0.000000  celldm(6)=   0.000000

     crystal axes: (cart. coord. in units of alat)
               a(1) = (   6.579727   0.000000   0.000000 )
               a(2) = (  -0.000775   5.961596   0.000000 )
               a(3) = (   0.000000   0.000000  25.155947 )

     reciprocal axes: (cart. coord. in units 2 pi/alat)
               b(1) = (  0.151982  0.000020  0.000000 )
               b(2) = (  0.000000  0.167740  0.000000 )
               b(3) = (  0.000000  0.000000  0.039752 )

     PseudoPot. # 1 for Ti read from file:
     /storage/coda1/p-amedford6/0/shared/rich_project_chbe-medford/medford-share/data/pseudos_module/espresso/nninc/pbe/van/Ti.UPF
     MD5 check sum: 8e4df49b7f0d34bbd5052bf3f5ea0213
     Pseudo is Ultrasoft, Zval = 12.0
     Generated by new atomic code, or converted to UPF format
     Using radial grid of  851 points,  6 beta functions with:
                l(1) =   0
                l(2) =   0
                l(3) =   1
                l(4) =   1
                l(5) =   2
                l(6) =   2
     Q(r) pseudized with  8 coefficients,  rinner =    1.000   1.000   1.000
                                                       1.000   1.000

     PseudoPot. # 2 for O  read from file:
     /storage/coda1/p-amedford6/0/shared/rich_project_chbe-medford/medford-share/data/pseudos_module/espresso/nninc/pbe/van/O.UPF
     MD5 check sum: 78c19812648e8988a0fe644b0f25305e
     Pseudo is Ultrasoft, Zval =  6.0
     Generated by new atomic code, or converted to UPF format
     Using radial grid of  737 points,  4 beta functions with:
                l(1) =   0
                l(2) =   0
                l(3) =   1
                l(4) =   1
     Q(r) pseudized with  8 coefficients,  rinner =    0.800   0.800   0.800

     PseudoPot. # 3 for H  read from file:
     /storage/coda1/p-amedford6/0/shared/rich_project_chbe-medford/medford-share/data/pseudos_module/espresso/nninc/pbe/van/H.UPF
     MD5 check sum: b5ee9d7bfd3a09ee7748110bda690ff7
     Pseudo is Ultrasoft, Zval =  1.0
     Generated by new atomic code, or converted to UPF format
     Using radial grid of  615 points,  1 beta functions with:
                l(1) =   0
     Q(r) pseudized with  8 coefficients,  rinner =    0.800

     PseudoPot. # 4 for N  read from file:
     /storage/coda1/p-amedford6/0/shared/rich_project_chbe-medford/medford-share/data/pseudos_module/espresso/nninc/pbe/van/N.UPF
     MD5 check sum: 90d10febe142ad51ac9d5be1deb811c4
     Pseudo is Ultrasoft, Zval =  5.0
     Generated by new atomic code, or converted to UPF format
     Using radial grid of  729 points,  4 beta functions with:
                l(1) =   0
                l(2) =   0
                l(3) =   1
                l(4) =   1
     Q(r) pseudized with  8 coefficients,  rinner =    0.800   0.800   0.800

     atomic species   valence    mass     pseudopotential
        Ti1           12.00    47.86700     Ti( 1.00)
        O1             6.00    15.99900     O ( 1.00)
        H1             1.00     1.00800     H ( 1.00)
        N1             5.00    14.00700     N ( 1.00)

     No symmetry found

   Cartesian axes

     site n.     atom                  positions (alat units)
         1           Ti1 tau(   1) = (   0.0004258   2.9801865   6.0000000  )
         2           Ti1 tau(   2) = (   3.2906075   1.4906267   6.0002472  )
         3           O1  tau(   3) = (   0.0006271   0.0005054   7.9858123  )
         4           O1  tau(   4) = (   3.2906025   0.0005020   7.3038282  )
         5           O1  tau(   5) = (   4.5942328   1.4918067   9.2879030  )
         6           O1  tau(   6) = (   1.9868534   1.4903216   9.2879459  )
         7           Ti1 tau(   7) = (   3.2908881   2.9042228   9.1664735  )
         8           Ti1 tau(   8) = (   0.0018179   1.4532752   9.2626160  )
         9           O1  tau(   9) = (   3.2691318   0.0041976  11.3461699  )
        10           O1  tau(  10) = (   6.5769692   5.9602210  10.6013862  )
        11           O1  tau(  11) = (   1.2747230   1.4901136  12.6634206  )
        12           O1  tau(  12) = (   5.2695439   1.4942356  12.6373966  )
        13           Ti1 tau(  13) = (   6.5512977   3.0013878  12.7965330  )
        14           Ti1 tau(  14) = (   3.2662514   1.4922871  12.5031005  )
        15           O1  tau(  15) = (   6.5119690   5.9322313  14.6536140  )
        16           O1  tau(  16) = (   3.2936191   5.9469098  13.9547911  )
        17           O1  tau(  17) = (   4.5041835   1.5125187  16.1237945  )
        18           O1  tau(  18) = (   1.9927615   1.4814982  16.0256807  )
        19           Ti1 tau(  19) = (   3.2347755   2.9737226  15.7311854  )
        20           Ti1 tau(  20) = (   6.5650669   1.3044246  15.8981993  )
        21           O1  tau(  21) = (   3.2904802   0.0005063   4.7018136  )
        22           O1  tau(  22) = (   6.5510367   0.0706477  17.2065087  )
        23           O1  tau(  23) = (   1.3043587   1.4918075   6.0039043  )
        24           O1  tau(  24) = (   5.2767064   1.4903225   6.0039473  )
        25           Ti1 tau(  25) = (   0.0000382   5.9609847   6.0000000  )
        26           Ti1 tau(  26) = (   3.2902200   4.4714249   6.0002472  )
        27           O1  tau(  27) = (   0.0002396   2.9813036   7.9858123  )
        28           O1  tau(  28) = (   3.2902150   2.9813002   7.3038282  )
        29           O1  tau(  29) = (   4.5938453   4.4726049   9.2879030  )
        30           O1  tau(  30) = (   1.9864658   4.4711199   9.2879459  )
        31           Ti1 tau(  31) = (   3.2899333   5.8856170   9.1744801  )
        32           Ti1 tau(  32) = (   0.0011383   4.3757795   9.3628064  )
        33           O1  tau(  33) = (   3.2691864   2.9738948  11.3435788  )
        34           O1  tau(  34) = (   6.5785515   2.9736716  10.5780622  )
        35           O1  tau(  35) = (   1.2758326   4.4720650  12.6409064  )
        36           O1  tau(  36) = (   5.2671511   4.4673293  12.6165681  )
        37           Ti1 tau(  37) = (   6.5587559   0.0166203  12.5080008  )
        38           Ti1 tau(  38) = (   3.2653234   4.4675313  12.4896878  )
        39           O1  tau(  39) = (   6.5360358   3.0046744  14.7191306  )
        40           O1  tau(  40) = (   3.2785355   2.9889547  13.9333002  )
        41           O1  tau(  41) = (   4.5091761   4.4363146  16.1576192  )
        42           O1  tau(  42) = (   1.9854509   4.4633389  16.0856635  )
        43           Ti1 tau(  43) = (   3.2835823   5.9571598  15.7493309  )
        44           Ti1 tau(  44) = (   6.5552892   4.5010868  16.0577287  )
        45           O1  tau(  45) = (   3.2900926   2.9813045   4.7018136  )
        46           O1  tau(  46) = (   1.3039711   4.4726057   6.0039043  )
        47           O1  tau(  47) = (   5.2763189   4.4711207   6.0039473  )
        48           H1  tau(  48) = (   0.5603308   2.5830630  19.4432618  )
        49           N1  tau(  49) = (   0.9308817   2.9510832  18.5524733  )
        50           N1  tau(  50) = (   6.5242349   3.1831854  17.7408134  )
        51           H1  tau(  51) = (   5.5864799   3.0143468  18.1323219  )

     number of k points=    10  Fermi-Dirac smearing, width (Ry)=  0.0073
                       cart. coord. in units 2pi/alat
        k(    1) = (   0.0000000   0.0000000   0.0000000), wk =   0.1250000
        k(    2) = (   0.0000000   0.0419351   0.0000000), wk =   0.2500000
        k(    3) = (   0.0000000  -0.0838702   0.0000000), wk =   0.1250000
        k(    4) = (   0.0379955   0.0000049   0.0000000), wk =   0.2500000
        k(    5) = (   0.0379955   0.0419400   0.0000000), wk =   0.2500000
        k(    6) = (   0.0379955  -0.0838652   0.0000000), wk =   0.2500000
        k(    7) = (   0.0379955  -0.0419301   0.0000000), wk =   0.2500000
        k(    8) = (  -0.0759910  -0.0000099   0.0000000), wk =   0.1250000
        k(    9) = (  -0.0759910   0.0419252   0.0000000), wk =   0.2500000
        k(   10) = (  -0.0759910  -0.0838800   0.0000000), wk =   0.1250000

     Initial potential from superposition of free atoms

     starting charge  373.99921, renormalised to  390.00000

     negative rho (up, down):  1.931E-02 0.000E+00

     %%%%%%%%%%%%%%%%%%%%%%%%%%%%%%%%%%%%%%%%%%%%%%%%%%%%%%%%%%%%%%%%%%%%%%%%
     %                                                                      %
     % You are using vdW-DF, which was implemented by the Thonhauser group. %
     % Please cite the following two papers that made this development      %
     % possible and the two reviews that describe the various versions:     %
     %                                                                      %
     %   T. Thonhauser et al., PRL 115, 136402 (2015).                      %
     %   T. Thonhauser et al., PRB 76, 125112 (2007).                       %
     %   K. Berland et al., Rep. Prog. Phys. 78, 066501 (2015).             %
[...]
     atom   13 type  1   force =    -0.00036462    0.00095228    0.00157972
     atom   14 type  1   force =    -0.00041738   -0.00031843   -0.00224786
     atom   15 type  2   force =    -0.00004770    0.00094963    0.00302868
     atom   16 type  2   force =     0.00053333    0.00054143    0.00130843
     atom   17 type  2   force =    -0.00280548   -0.00040361   -0.00060233
     atom   18 type  2   force =     0.00177181    0.00001995    0.00018253
     atom   19 type  1   force =     0.00018690   -0.00106674   -0.00137357
     atom   20 type  1   force =     0.00048553   -0.00279844    0.00073561
     atom   21 type  2   force =     0.00013378   -0.00008076    0.10323845
     atom   22 type  2   force =    -0.00013482    0.00011882   -0.00259260
     atom   23 type  2   force =    -0.07046713    0.00114395   -0.02979855
     atom   24 type  2   force =     0.07044899    0.00157663   -0.02979638
     atom   25 type  1   force =     0.00010484   -0.00163491    0.11732671
     atom   26 type  1   force =    -0.00002241    0.00121648   -0.17584417
     atom   27 type  2   force =     0.00006382   -0.00182150   -0.02665221
     atom   28 type  2   force =     0.00000248   -0.00130591    0.05079758
     atom   29 type  2   force =    -0.01782810    0.00085171    0.00623474
     atom   30 type  2   force =     0.01682146    0.00142442    0.00510560
     atom   31 type  1   force =    -0.00001102   -0.00081657   -0.01339514
     atom   32 type  1   force =     0.00023342   -0.00195773    0.00082605
     atom   33 type  2   force =    -0.00004323   -0.00039665    0.00388520
     atom   34 type  2   force =     0.00021764    0.00119519   -0.00365166
     atom   35 type  2   force =    -0.00113258    0.00008853    0.00035777
     atom   36 type  2   force =     0.00172212   -0.00022753    0.00007165
     atom   37 type  1   force =    -0.00002243    0.00006972   -0.00184406
     atom   38 type  1   force =    -0.00052070   -0.00048986   -0.00118804
     atom   39 type  2   force =    -0.00012292    0.00075922   -0.00057655
     atom   40 type  2   force =     0.00015069   -0.00036962    0.00123449
     atom   41 type  2   force =    -0.00269675    0.00024004   -0.00044800
     atom   42 type  2   force =     0.00160318   -0.00032495   -0.00040574
     atom   43 type  1   force =    -0.00014336    0.00040171   -0.00065584
     atom   44 type  1   force =    -0.00026376    0.00266459   -0.00007979
     atom   45 type  2   force =     0.00012716   -0.00004317    0.10342479
     atom   46 type  2   force =    -0.07087559   -0.00150580   -0.02977370
     atom   47 type  2   force =     0.07085649   -0.00107496   -0.02979326
     atom   48 type  3   force =     0.00272107    0.00121949   -0.00445193
     atom   49 type  4   force =     0.00070204   -0.00168680    0.00624062
     atom   50 type  4   force =    -0.00551372   -0.00057486    0.00020686
     atom   51 type  3   force =     0.00399512   -0.00042305   -0.00185888

     Total force =     0.374740     Total SCF correction =     0.000800
  @ DRIVER MODE: Message from server: STATUS
  @ DRIVER MODE: Message from server: GETFORCE
  @ DRIVER MODE: Returning v,forces,stress,ensemble

     Writing config to output data dir ./calc.save/
  @ DRIVER MODE: Message from server: STATUS
  @ DRIVER MODE: Message from server: INIT
  @ DRIVER MODE: Receiving replica           0           0
  @ DRIVER MODE: Receiving encoded integer          25
  @ DRIVER MODE:  SCF:  T  FORCE:  T  STRESS:  F  VC:  F  ENSEMBLE:  F
  @ DRIVER MODE:  SCF:  T  FORCE:  T  STRESS:  F  VC:  F  ENSEMBLE:  F
  @ DRIVER MODE: Message from server: STATUS
  @ DRIVER MODE: Message from server: POSDATA
  @ DRIVER MODE: Reading and sharing positions
  @ DRIVER MODE: Received positions
     NEW-OLD atomic charge density approx. for the potential

[...]

     Self-consistent Calculation

[...]

     iteration # 22     ecut=    29.40 Ry     beta= 0.05
     Davidson diagonalization with overlap
     c_bands:  1 eigenvalues not converged
     c_bands:  1 eigenvalues not converged
     c_bands:  1 eigenvalues not converged
     c_bands:  1 eigenvalues not converged
     c_bands:  1 eigenvalues not converged
     ethr =  1.88E-10,  avg # of iterations = 17.9

[...]

     total energy              =   -2926.39983087 Ry
     estimated scf accuracy    <       0.00000008 Ry

     iteration # 27     ecut=    29.40 Ry     beta= 0.05
     Davidson diagonalization with overlap
     ethr =  2.10E-11,  avg # of iterations = 13.8

[...]

     End of self-consistent calculation

[...]

          k = 0.0380-0.0419 0.0000 ( 17876 PWs)   bands (ev):

[...]

          k =-0.0760-0.0839 0.0000 ( 17948 PWs)   bands (ev):

   -55.9463 -55.9295 -55.9279 -55.9222 -55.8608 -55.8148 -55.8073 -55.8002
   -55.7285 -55.6906 -55.6901 -55.6194 -55.5634 -55.5025 -54.9075 -54.9064
   -32.3158 -32.3114 -32.2483 -32.2480 -32.2390 -32.2304 -32.2136 -32.2130
   -32.1561 -32.1531 -32.1476 -32.1408 -32.1240 -32.0982 -32.0792 -32.0719
   -32.0677 -32.0657 -32.0629 -32.0605 -32.0481 -32.0288 -32.0224 -32.0148
   -32.0128 -32.0098 -32.0075 -32.0038 -31.9546 -31.9320 -31.9277 -31.9276
   -31.9126 -31.9000 -31.8958 -31.8888 -31.8452 -31.8188 -31.8147 -31.7354
   -31.7205 -31.6571 -31.2317 -31.2304 -31.1456 -31.1446 -31.1059 -31.1047
   -18.0715 -16.1513 -16.1231 -15.9731 -15.8822 -15.8710 -15.8258 -15.7671
   -15.7384 -15.6824 -15.6498 -15.6312 -15.6144 -15.5974 -15.5727 -15.5245
   -15.4746 -15.4687 -15.4589 -15.4437 -15.3932 -15.3837 -15.3586 -15.3501
   -15.3274 -15.2627 -15.2410 -15.1950 -15.1152 -14.9930 -13.4135 -13.4098
   -10.3159  -6.6294  -3.4371  -3.4042  -3.3133  -3.2068  -3.0972  -3.0926
    -3.0134  -2.9505  -2.9110  -2.8624  -2.8186  -2.7947  -2.7629  -2.7588
    -2.7512  -2.7392  -2.7305  -2.6985  -2.6859  -2.6804  -2.6454  -2.6301
    -2.6088  -2.6021  -2.5611  -2.5494  -2.5346  -2.4919  -2.4888  -2.4835
    -2.4787  -2.2871  -2.2473  -2.2008  -2.1502  -2.0708  -2.0546  -2.0412
    -2.0006  -1.9859  -1.9751  -1.9074  -1.8123  -1.6942  -1.6585  -1.6356
    -1.6227  -1.5810  -1.4052  -1.3732  -1.3581  -1.3353  -1.3035  -1.2509
    -1.2193  -1.2000  -1.1048  -1.0844  -1.0412  -0.9671  -0.9115  -0.8914
    -0.8607  -0.8231  -0.7790  -0.7397  -0.6977  -0.6822  -0.6174  -0.5687
    -0.5239  -0.5045  -0.4861  -0.4020  -0.3239  -0.2986  -0.0961   0.0367
     0.0704   0.0830   0.2198   0.2359   0.2723   0.3437   0.3768   0.4198
     0.4782   0.5838   0.5862   0.5983   0.6077   0.6672   1.4586   1.4632
     1.5378   1.5497   3.2139   3.3984   3.4418   3.4814   3.5425   3.6857
     3.7097   3.7112   3.7342   3.7883   3.8552

     the Fermi energy is     3.1949 ev

!    total energy              =   -2926.39983118 Ry
     estimated scf accuracy    <       0.00000006 Ry
     smearing contrib. (-TS)   =      -0.03280764 Ry
     internal energy E=F+TS    =   -2926.36702355 Ry

     The total energy is F=E-TS. E is the sum of the following terms:
     one-electron contribution =  -24581.08387797 Ry
     hartree contribution      =   12374.68103666 Ry
     xc contribution           =    -480.78891087 Ry
     ewald contribution        =    9760.82356623 Ry
     electric field correction =       0.00116241 Ry

     convergence has been achieved in  27 iterations

     Forces acting on atoms (cartesian axes, Ry/au):

     atom    1 type  1   force =     0.00019028    0.00161680    0.10331802
     atom    2 type  1   force =     0.00006711   -0.00227844   -0.17661192
     atom    3 type  2   force =     0.00018115    0.00647424   -0.03460909
     atom    4 type  2   force =    -0.00004609   -0.00102570    0.05242269
     atom    5 type  2   force =    -0.01730838   -0.00086648    0.00516541
     atom    6 type  2   force =     0.01632187   -0.00066096    0.00402866
     atom    7 type  1   force =     0.00052170    0.00280065   -0.00770831
     atom    8 type  1   force =    -0.00011405   -0.00005172    0.00046226
     atom    9 type  2   force =     0.00013238   -0.00019576   -0.00048972
     atom   10 type  2   force =     0.00007359   -0.00015813   -0.00041618
     atom   11 type  2   force =     0.00025080    0.00018072    0.00031213
     atom   12 type  2   force =     0.00016039    0.00031403    0.00019921
     atom   13 type  1   force =    -0.00044088    0.00070098   -0.00074406
     atom   14 type  1   force =    -0.00039890   -0.00006189   -0.00099896
     atom   15 type  2   force =     0.00001017    0.00080076    0.00011786
     atom   16 type  2   force =     0.00004132   -0.00015841    0.00087793
     atom   17 type  2   force =     0.00028103    0.00038782    0.00032858
     atom   18 type  2   force =    -0.00042196    0.00031108    0.00008476
     atom   19 type  1   force =     0.00012000   -0.00049040    0.00042144
     atom   20 type  1   force =    -0.00010098   -0.00141157    0.00015917
     atom   21 type  2   force =     0.00013142   -0.00007518    0.10333719
     atom   22 type  2   force =    -0.00029416    0.00023194    0.00138847
     atom   23 type  2   force =    -0.07030301    0.00112909   -0.02965011
     atom   24 type  2   force =     0.07029474    0.00156104   -0.02965941
     atom   25 type  1   force =     0.00010563   -0.00166620    0.11618162
     atom   26 type  1   force =    -0.00002562    0.00128890   -0.17609335
     atom   27 type  2   force =     0.00011108   -0.00261044   -0.02893821
     atom   28 type  2   force =    -0.00004011   -0.00141348    0.05147722
     atom   29 type  2   force =    -0.01882450    0.00098085    0.00643170
     atom   30 type  2   force =     0.01782694    0.00162707    0.00534904
     atom   31 type  1   force =     0.00052381   -0.00134576   -0.01366891
     atom   32 type  1   force =    -0.00009781   -0.00104169    0.00066106
     atom   33 type  2   force =     0.00006676   -0.00014234   -0.00044748
     atom   34 type  2   force =     0.00008992   -0.00064790    0.00080644
     atom   35 type  2   force =     0.00037441   -0.00019027    0.00040724
     atom   36 type  2   force =     0.00006193   -0.00014242    0.00031055
     atom   37 type  1   force =    -0.00015584    0.00024817   -0.00007184
     atom   38 type  1   force =    -0.00052647   -0.00055157   -0.00075290
     atom   39 type  2   force =    -0.00032787   -0.00048298    0.00094524
     atom   40 type  2   force =     0.00010882   -0.00014439    0.00150823
     atom   41 type  2   force =     0.00040194   -0.00047348    0.00027844
     atom   42 type  2   force =    -0.00075262   -0.00021264   -0.00011493
     atom   43 type  1   force =     0.00019239    0.00020842    0.00005849
     atom   44 type  1   force =    -0.00003268    0.00140855    0.00050125
     atom   45 type  2   force =     0.00012332   -0.00004129    0.10352079
     atom   46 type  2   force =    -0.07074128   -0.00146786   -0.02961669
     atom   47 type  2   force =     0.07072170   -0.00103459   -0.02964927
     atom   48 type  3   force =     0.00017716   -0.00066641    0.00060506
     atom   49 type  4   force =     0.00164807    0.00048333   -0.00059622
     atom   50 type  4   force =     0.00007783    0.00014010   -0.00096310
     atom   51 type  3   force =    -0.00043646   -0.00118421    0.00013452

     Total force =     0.374591     Total SCF correction =     0.000669
  @ DRIVER MODE: Message from server: STATUS
  @ DRIVER MODE: Message from server: GETFORCE
  @ DRIVER MODE: Returning v,forces,stress,ensemble

     Writing config to output data dir ./calc.save/
  @ DRIVER MODE: Message from server: STATUS
  @ DRIVER MODE: Message from server: INIT
  @ DRIVER MODE: Receiving replica           0           0
  @ DRIVER MODE: Receiving encoded integer           2
  @ DRIVER MODE:  SCF:  T  FORCE:  T  STRESS:  F  VC:  F  ENSEMBLE:  F
  @ DRIVER MODE:  SCF:  F  FORCE:  F  STRESS:  F  VC:  F  ENSEMBLE:  T
  @ DRIVER MODE: Message from server: STATUS
  @ DRIVER MODE: Message from server: POSDATA
  @ DRIVER MODE: Reading and sharing positions
  @ DRIVER MODE: Received positions
     NEW-OLD atomic charge density approx. for the potential

[...]

     Adding external electric field

     Computed dipole along edir(3) :
        Dipole                0.7848 Ry au,          1.9949 Debye
        Dipole field          0.0015 Ry au,

        Potential amp.       -0.1373 Ry
        Total length         46.3494 bohr

  @ DRIVER MODE: BEEF-vdw

[...]

     negative rho (up, down):  1.911E-02 0.000E+00

     negative rho (up, down):  1.911E-02 0.000E+00
 BEEFens 2000 ensemble energies
             -0.345102523370332E+02
             -0.202251325631160E+01
             -0.711193209585416E+01
              0.239583955071195E+02
             -0.118620236869029E+02
             -0.917154794989986E+01
             -0.239282953368653E+02
             -0.500587530146481E+02
             -0.213693831553062E+02
             -0.225138534484123E+02
             -0.209233906766576E+02
              0.424329730386899E+01
              0.198666369312157E+01
             -0.105304691619207E+01
              0.171630003600669E+01
              0.263849450281186E+02
             -0.101546083173298E+02
             -0.717799718528903E+01
              0.117024042193806E+02
             -0.616325792424403E+02
              0.309117298707174E+02
             -0.132776949456305E+02
             -0.238926559037666E+01
             -0.557143448010282E+01
             -0.982226764111147E+00
             -0.210922645837066E+01
              0.477870064638966E+02
             -0.149875210023375E+02
             -0.398355676773667E+01
             -0.302410118900996E+02
              0.390774989290372E+02
             -0.432426307580053E+01
             -0.212624772305711E+02
              0.111737920732424E+02
             -0.205028635232699E+01
              0.129658304518791E+02
             -0.541547622787874E+00
              0.272355299935140E+01
              0.188559541420522E+02
             -0.543824565484334E+02
              0.302991103874097E+02
              0.809466740891855E+01
             -0.623668994886481E+01
             -0.173964545297325E+02
              0.686844121091428E+01
             -0.109064535442540E+02
              0.247772298509186E+02
              0.198036042898788E+02
             -0.127662337819111E+02
             -0.163062309471476E+02
             -0.172446711562953E+02
             -0.206964342141606E+02
              0.105032504630252E+02
             -0.269477392415312E+02
              0.825426883016689E+01
              0.344528776300599E+02
              0.397218302521169E+02
              0.185034921970474E+02
              0.824392042132932E+01
              0.172542224505821E+02
[...]
             -0.406197631156651E+02
              0.276974348988517E+01
             -0.146216661708470E+01
             -0.565989078261850E+01
              0.519417826693598E-01
             -0.361646296479838E+02
             -0.698692215923003E+01
              0.488303444643597E+01
              0.738343305093547E+01
              0.270969370163861E+02
             -0.236974299405856E+02
              0.308979120311824E+02
             -0.221270316515153E+02
              0.142195159723617E+02
              0.223949768174081E+02

 BEEF-vdW xc energy contributions
           1 :   -407.446518227103
           2 :    355.069775781649
           3 :   -270.472562253004
           4 :    182.082009979867
           5 :   -112.623983065341
           6 :    71.1496599369093
           7 :   -53.9159980589790
           8 :    50.8653361919276
           9 :   -52.5671352186799
          10 :    53.8141735559813
          11 :   -53.4025680169657
          12 :    51.8923697251528
          13 :   -49.6975988088934
          14 :    46.5691060237731
          15 :   -42.1671319361527
          16 :    36.7201664876814
          17 :   -31.1443504262441
          18 :    26.5945625523301
          19 :   -23.8749631178877
          20 :    23.1054523594626
          21 :   -23.8052534556851
          22 :    25.2270831999649
          23 :   -26.6819614533489
          24 :    27.6768719053730
          25 :   -27.8947145106293
          26 :    27.1442050336296
          27 :   -25.3860171497822
          28 :    22.8165338173386
          29 :   -19.9059143757394
          30 :    17.2883890930906
          31 :   -47.8107226587795
          32 :   -32.4686393141658
  @ DRIVER MODE: Message from server: STATUS
  @ DRIVER MODE: Message from server: GETFORCE
  @ DRIVER MODE: Returning v,forces,stress,ensemble
  @ DRIVE MODE: Returning Ensemble Energies

     Writing config to output data dir ./calc.save/
  @ DRIVER MODE: Message from server: EXIT
  @ DRIVE MODE: Exiting

     General routines

     Parallel routines

   This run was terminated on:   0:53: 9  12Oct2021

   JOB DONE.