     Program PWSCF v.6.7GPU starts on 29Sep2021 at 16:15:41

     R & G space division:  proc/nbgrp/npool/nimage =       8
     Reading input from /storage/home/hcoda1/3/ntian30/research/carbon/CxH_vib/pristine/ads_slab/CH2N2_c/out_0003/pw.inp
Warning: card &CELL ignored
Warning: card   CELL_DYNAMICS='IPI', ignored
Warning: card / ignored

     Current dimensions of program PWSCF are:
     Max number of different atomic species (ntypx) = 10
     Max number of k-points (npk) =  40000
     Max angular momentum in pseudopotentials (lmaxx) =  3
     Presently no symmetry can be used with electric field

     Message from routine cell_base_init:
     DEPRECATED: use true lattice parameter, not A to a.u. conversion factor

     IMPORTANT: XC functional enforced from input :
     Exchange-correlation= BEEF-VDW
                           (   1   4  43  14   2   0   0)
     Any further DFT definition will be discarded
     Please, verify this is what you really want

  @ DRIVER MODE: Connecting to
 qe_1139763_3025227.sched-torque.pace.gatech.educ6z8qc5c_scratch
  using UNIX socket
  @ DRIVER MODE: Message from server: STATUS
  @ DRIVER MODE: Message from server: INIT
  @ DRIVER MODE: Receiving replica           0          -1
  @ DRIVER MODE: Receiving encoded integer          25
  @ DRIVER MODE:  SCF:  T  FORCE:  T  STRESS:  F  VC:  F  ENSEMBLE:  F
  @ DRIVER MODE:  SCF:  T  FORCE:  T  STRESS:  F  VC:  F  ENSEMBLE:  F

     Using Slab Decomposition

     bravais-lattice index     =            0
     lattice parameter (alat)  =       1.8897  a.u.
     unit-cell volume          =    6658.9804 (a.u.)^3
     number of atoms/cell      =           53
     number of atomic types    =            5
     number of electrons       =       400.00
     number of Kohn-Sham states=          210
     kinetic-energy cutoff     =      29.3995  Ry
     charge density cutoff     =     293.9946  Ry
     scf convergence threshold =      7.3E-08
     mixing beta               =       0.0500
     number of iterations used =            8  plain     mixing
     Exchange-correlation= BEEF-VDW
                           (   1   4  43  14   2   0   0)

     celldm(1)=   1.889726  celldm(2)=   0.000000  celldm(3)=   0.000000
     celldm(4)=   0.000000  celldm(5)=   0.000000  celldm(6)=   0.000000

     crystal axes: (cart. coord. in units of alat)
               a(1) = (   6.579727   0.000000   0.000000 )
               a(2) = (  -0.000775   5.961596   0.000000 )
               a(3) = (   0.000000   0.000000  25.155947 )

     reciprocal axes: (cart. coord. in units 2 pi/alat)
               b(1) = (  0.151982  0.000020  0.000000 )
               b(2) = (  0.000000  0.167740  0.000000 )
               b(3) = (  0.000000  0.000000  0.039752 )

     PseudoPot. # 1 for Ti read from file:
     /storage/coda1/p-amedford6/0/shared/rich_project_chbe-medford/medford-share/data/pseudos_module/espresso/nninc/pbe/van/Ti.UPF
     MD5 check sum: 8e4df49b7f0d34bbd5052bf3f5ea0213
     Pseudo is Ultrasoft, Zval = 12.0
     Generated by new atomic code, or converted to UPF format
     Using radial grid of  851 points,  6 beta functions with:
                l(1) =   0
                l(2) =   0
                l(3) =   1
                l(4) =   1
                l(5) =   2
                l(6) =   2
     Q(r) pseudized with  8 coefficients,  rinner =    1.000   1.000   1.000
                                                       1.000   1.000

     PseudoPot. # 2 for O  read from file:
     /storage/coda1/p-amedford6/0/shared/rich_project_chbe-medford/medford-share/data/pseudos_module/espresso/nninc/pbe/van/O.UPF
     MD5 check sum: 78c19812648e8988a0fe644b0f25305e
     Pseudo is Ultrasoft, Zval =  6.0
     Generated by new atomic code, or converted to UPF format
     Using radial grid of  737 points,  4 beta functions with:
                l(1) =   0
                l(2) =   0
                l(3) =   1
                l(4) =   1
     Q(r) pseudized with  8 coefficients,  rinner =    0.800   0.800   0.800

     PseudoPot. # 3 for N  read from file:
     /storage/coda1/p-amedford6/0/shared/rich_project_chbe-medford/medford-share/data/pseudos_module/espresso/nninc/pbe/van/N.UPF
     MD5 check sum: 90d10febe142ad51ac9d5be1deb811c4
     Pseudo is Ultrasoft, Zval =  5.0
     Generated by new atomic code, or converted to UPF format
     Using radial grid of  729 points,  4 beta functions with:
                l(1) =   0
                l(2) =   0
                l(3) =   1
                l(4) =   1
     Q(r) pseudized with  8 coefficients,  rinner =    0.800   0.800   0.800

     PseudoPot. # 4 for C  read from file:
     /storage/coda1/p-amedford6/0/shared/rich_project_chbe-medford/medford-share/data/pseudos_module/espresso/nninc/pbe/van/C.UPF
     MD5 check sum: 1a69bf6b8db32088f5b2163dbdb77a27
     Pseudo is Ultrasoft, Zval =  4.0
     Generated by new atomic code, or converted to UPF format
     Using radial grid of  721 points,  4 beta functions with:
                l(1) =   0
                l(2) =   0
                l(3) =   1
                l(4) =   1
     Q(r) pseudized with  8 coefficients,  rinner =    0.800   0.800   0.800

     PseudoPot. # 5 for H  read from file:
     /storage/coda1/p-amedford6/0/shared/rich_project_chbe-medford/medford-share/data/pseudos_module/espresso/nninc/pbe/van/H.UPF
     MD5 check sum: b5ee9d7bfd3a09ee7748110bda690ff7
     Pseudo is Ultrasoft, Zval =  1.0
     Generated by new atomic code, or converted to UPF format
     Using radial grid of  615 points,  1 beta functions with:
                l(1) =   0
     Q(r) pseudized with  8 coefficients,  rinner =    0.800

     atomic species   valence    mass     pseudopotential
        Ti1           12.00    47.86700     Ti( 1.00)
        O1             6.00    15.99900     O ( 1.00)
        N1             5.00    14.00700     N ( 1.00)
        C1             4.00    12.01100     C ( 1.00)
        H1             1.00     1.00800     H ( 1.00)

     No symmetry found

   Cartesian axes

     site n.     atom                  positions (alat units)
         1           Ti1 tau(   1) = (   0.0004258   2.9801865   6.0000000  )
         2           Ti1 tau(   2) = (   3.2906075   1.4906267   6.0002472  )
         3           O1  tau(   3) = (   0.0006271   0.0005054   7.9858123  )
         4           O1  tau(   4) = (   3.2906025   0.0005020   7.3038282  )
         5           O1  tau(   5) = (   4.5942328   1.4918067   9.2879030  )
         6           O1  tau(   6) = (   1.9868534   1.4903216   9.2879459  )
         7           Ti1 tau(   7) = (   3.2785950   2.8620264   9.1674676  )
         8           Ti1 tau(   8) = (   6.5781813   1.4341531   9.3833155  )
         9           O1  tau(   9) = (   3.3145900   5.9487502  11.3480437  )
        10           O1  tau(  10) = (   0.0063384   5.9489964  10.5610107  )
        11           O1  tau(  11) = (   1.3034973   1.4807819  12.6446922  )
        12           O1  tau(  12) = (   5.3015769   1.4818569  12.6358846  )
        13           Ti1 tau(  13) = (   0.1076100   2.9713955  12.8282313  )
        14           Ti1 tau(  14) = (   3.4293281   1.4717859  12.4936833  )
        15           O1  tau(  15) = (   0.0296261   0.0013950  14.6649934  )
        16           O1  tau(  16) = (   3.3139734   5.9559375  13.9452938  )
        17           O1  tau(  17) = (   4.5568938   1.4842850  16.0642655  )
        18           O1  tau(  18) = (   2.0675170   1.4827017  16.0617013  )
        19           Ti1 tau(  19) = (   3.3081901   2.9629817  15.7008690  )
        20           Ti1 tau(  20) = (   0.0097687   1.4520379  16.1724920  )
        21           O1  tau(  21) = (   3.2904802   0.0005063   4.7018136  )
        22           O1  tau(  22) = (   0.0191552   5.9343797  17.2479478  )
        23           O1  tau(  23) = (   1.3043587   1.4918075   6.0039043  )
        24           O1  tau(  24) = (   5.2767064   1.4903225   6.0039473  )
        25           Ti1 tau(  25) = (   0.0000382   5.9609847   6.0000000  )
        26           Ti1 tau(  26) = (   3.2902200   4.4714249   6.0002472  )
        27           O1  tau(  27) = (   0.0002396   2.9813036   7.9858123  )
        28           O1  tau(  28) = (   3.2902150   2.9813002   7.3038282  )
        29           O1  tau(  29) = (   4.5938453   4.4726049   9.2879030  )
        30           O1  tau(  30) = (   1.9864658   4.4711199   9.2879459  )
        31           Ti1 tau(  31) = (   3.2981115   5.8424800   9.1654069  )
        32           Ti1 tau(  32) = (   0.0061885   4.4171606   9.3817948  )
        33           O1  tau(  33) = (   3.3160899   2.9715062  11.3475872  )
        34           O1  tau(  34) = (   0.0081518   2.9687805  10.5628331  )
        35           O1  tau(  35) = (   1.3040072   4.4662140  12.6497434  )
        36           O1  tau(  36) = (   5.3008443   4.4652654  12.6404979  )
        37           Ti1 tau(  37) = (   0.1012718   5.9536009  12.8334903  )
        38           Ti1 tau(  38) = (   3.4286588   4.4602296  12.4928226  )
        39           O1  tau(  39) = (   0.0319021   2.9714116  14.6601935  )
        40           O1  tau(  40) = (   3.3101560   2.9646938  13.9065487  )
        41           O1  tau(  41) = (   4.5621106   4.4348364  16.0307704  )
        42           O1  tau(  42) = (   2.0631145   4.4362735  16.0340239  )
        43           Ti1 tau(  43) = (   3.3022073   5.9430436  15.7660435  )
        44           Ti1 tau(  44) = (   0.0096536   4.4281594  16.1671579  )
        45           O1  tau(  45) = (   3.2900926   2.9813045   4.7018136  )
        46           O1  tau(  46) = (   0.0201356   2.9582321  17.2481609  )
        47           O1  tau(  47) = (   1.3039711   4.4726057   6.0039043  )
        48           O1  tau(  48) = (   5.2763189   4.4711207   6.0039473  )
        49           N1  tau(  49) = (   3.1912726   0.0901446  19.4138715  )
        50           N1  tau(  50) = (   3.2720412   5.7295159  18.3236336  )
        51           C1  tau(  51) = (   3.0989320   0.4433392  20.6510207  )
        52           H1  tau(  52) = (   2.1138422   0.5496673  21.0731464  )
        53           H1  tau(  53) = (   4.0116933   0.5939059  21.2009644  )

     number of k points=    10  Fermi-Dirac smearing, width (Ry)=  0.0073
                       cart. coord. in units 2pi/alat
        k(    1) = (   0.0000000   0.0000000   0.0000000), wk =   0.1250000
        k(    2) = (   0.0000000   0.0419351   0.0000000), wk =   0.2500000
        k(    3) = (   0.0000000  -0.0838702   0.0000000), wk =   0.1250000
        k(    4) = (   0.0379955   0.0000049   0.0000000), wk =   0.2500000
        k(    5) = (   0.0379955   0.0419400   0.0000000), wk =   0.2500000
        k(    6) = (   0.0379955  -0.0838652   0.0000000), wk =   0.2500000
        k(    7) = (   0.0379955  -0.0419301   0.0000000), wk =   0.2500000
        k(    8) = (  -0.0759910  -0.0000099   0.0000000), wk =   0.1250000
        k(    9) = (  -0.0759910   0.0419252   0.0000000), wk =   0.2500000
        k(   10) = (  -0.0759910  -0.0838800   0.0000000), wk =   0.1250000

     Initial potential from superposition of free atoms

     starting charge  383.99917, renormalised to  400.00000

     negative rho (up, down):  1.243E-02 0.000E+00

     %%%%%%%%%%%%%%%%%%%%%%%%%%%%%%%%%%%%%%%%%%%%%%%%%%%%%%%%%%%%%%%%%%%%%%%%
     %                                                                      %
     % You are using vdW-DF, which was implemented by the Thonhauser group. %
     % Please cite the following two papers that made this development      %
     % possible and the two reviews that describe the various versions:     %
     %                                                                      %
     %   T. Thonhauser et al., PRL 115, 136402 (2015).                      %
     %   T. Thonhauser et al., PRB 76, 125112 (2007).                       %
     %   K. Berland et al., Rep. Prog. Phys. 78, 066501 (2015).             %
     %   D.C. Langreth et al., J. Phys.: Condens. Matter 21, 084203 (2009). %
     %                                                                      %
     %                                                                      %
     % If you are calculating the stress with vdW-DF, please also cite:     %
     %                                                                      %
     %   R. Sabatini et al., J. Phys.: Condens. Matter 24, 424209 (2012).   %
     %                                                                      %
     %%%%%%%%%%%%%%%%%%%%%%%%%%%%%%%%%%%%%%%%%%%%%%%%%%%%%%%%%%%%%%%%%%%%%%%%

     Adding external electric field

     Computed dipole along edir(3) :
        Dipole              -11.0071 Ry au,        -27.9773 Debye
        Dipole field         -0.0208 Ry au,

        Potential amp.        1.9255 Ry
        Total length         46.3494 bohr

     Starting wfcs are  302 atomic wfcs
  @ DRIVER MODE: Message from server: STATUS
  @ DRIVER MODE: Message from server: POSDATA
  @ DRIVER MODE: Reading and sharing cell
  @ DRIVER MODE: Reading and sharing positions
  @ DRIVER MODE: Received positions

     Self-consistent Calculation

     iteration #  1     ecut=    29.40 Ry     beta= 0.05
     Davidson diagonalization with overlap
     c_bands:  1 eigenvalues not converged
     c_bands:  1 eigenvalues not converged
     c_bands:  1 eigenvalues not converged
     c_bands:  2 eigenvalues not converged
     c_bands:  2 eigenvalues not converged
     c_bands:  2 eigenvalues not converged
     c_bands:  2 eigenvalues not converged
     c_bands:  4 eigenvalues not converged
     c_bands:  2 eigenvalues not converged
     ethr =  1.00E-05,  avg # of iterations = 20.0

[...]

     total energy              =   -2516.87805749 Ry
     estimated scf accuracy    <    5070.55551177 Ry

     iteration #  2     ecut=    29.40 Ry     beta= 0.05
     Davidson diagonalization with overlap
     ethr =  1.00E-02,  avg # of iterations = 22.0

[...]

     iteration # 44     ecut=    29.40 Ry     beta= 0.05
     Davidson diagonalization with overlap
     c_bands:  1 eigenvalues not converged
     c_bands:  1 eigenvalues not converged
     ethr =  4.94E-08,  avg # of iterations =  9.5

[...]

     total energy              =   -2970.32640870 Ry
     estimated scf accuracy    <       0.00000010 Ry

     iteration # 66     ecut=    29.40 Ry     beta= 0.05
     Davidson diagonalization with overlap
     ethr =  2.52E-11,  avg # of iterations =  4.3

     negative rho (up, down):  1.352E-02 0.000E+00

     Adding external electric field

     Computed dipole along edir(3) :
        Dipole                0.8926 Ry au,          2.2688 Debye
        Dipole field          0.0017 Ry au,

        Potential amp.       -0.1561 Ry
        Total length         46.3494 bohr

     End of self-consistent calculation

          k = 0.0000 0.0000 0.0000 ( 18029 PWs)   bands (ev):

   -55.9952 -55.9615 -55.6761 -55.6403 -55.6062 -55.4874 -55.3980 -55.3736
   -55.3631 -55.3396 -55.2878 -55.2528 -55.2454 -55.2083 -54.7792 -54.7452
   -32.4227 -32.2419 -32.2148 -32.2139 -32.1870 -32.0958 -32.0496 -32.0359
   -31.9795 -31.9005 -31.8938 -31.8834 -31.8696 -31.8535 -31.8432 -31.8347
   -31.8242 -31.8009 -31.7912 -31.7581 -31.6767 -31.6481 -31.6395 -31.6333
   -31.6276 -31.6200 -31.5908 -31.5822 -31.5667 -31.5326 -31.5319 -31.5105
   -31.5022 -31.4905 -31.4689 -31.4685 -31.4668 -31.4508 -31.4444 -31.4213
   -31.3896 -31.3162 -31.1790 -31.1055 -31.0817 -30.9974 -30.9125 -30.8005
   -20.8833 -16.3351 -16.1565 -15.9307 -15.7872 -15.7104 -15.5736 -15.3621
   -15.3488 -15.2747 -15.2414 -15.2227 -15.1576 -15.1502 -15.1223 -15.1138
   -15.0880 -15.0616 -15.0274 -15.0111 -14.9982 -14.9569 -14.9065 -14.8689
   -14.7898 -14.7325 -14.6366 -14.6123 -14.5838 -14.5096 -14.4763 -14.1794
   -13.2724 -13.1587  -6.7870  -5.8151  -4.7554  -4.4388  -3.7446  -3.6740
    -3.5342  -3.5316  -3.4032  -3.1456  -3.0482  -2.8329  -2.8177  -2.7666
    -2.7259  -2.7080  -2.6692  -2.6083  -2.5051  -2.4880  -2.4588  -2.4338
    -2.4137  -2.4086  -2.3965  -2.3369  -2.3159  -2.2300  -2.2241  -2.2189
    -2.1800  -2.0476  -2.0014  -1.9553  -1.9480  -1.9175  -1.8365  -1.8236
    -1.8071  -1.7641  -1.6723  -1.6382  -1.5086  -1.4080  -1.4034  -1.3616
    -1.3033  -1.2537  -1.0576  -1.0177  -1.0058  -0.9836  -0.9753  -0.9603
    -0.8871  -0.8264  -0.6992  -0.5943  -0.5733  -0.5387  -0.5195  -0.5140
    -0.4844  -0.4198  -0.4102  -0.3875  -0.3466  -0.2137  -0.0705  -0.0405
    -0.0109   0.0130   0.0313   0.1036   0.1125   0.1582   0.1895   0.2362
     0.2447   0.2845   0.3041   0.3278   0.4118   0.4421   0.4948   0.5258
     0.5488   0.5699   0.6098   0.7770   0.8474   0.9618   0.9818   1.0565
     1.1934   1.2145   1.2491   1.4611   1.5067   1.6342   1.8371   1.9128
     3.2749   3.4600   3.6650   3.7484   3.7771   3.8674   3.9429   3.9957
     4.0489   4.1498

[...]

          k = 0.0380-0.0419 0.0000 ( 17876 PWs)   bands (ev):

[...]

          k =-0.0760-0.0000 0.0000 ( 17886 PWs)   bands (ev):

[...]

          k =-0.0760-0.0839 0.0000 ( 17948 PWs)   bands (ev):

   -55.9793 -55.9773 -55.6596 -55.6567 -55.6035 -55.4899 -55.3829 -55.3782
   -55.3571 -55.3558 -55.2711 -55.2695 -55.2291 -55.2245 -54.7622 -54.7621
   -32.2410 -32.2393 -32.2288 -32.2262 -32.1406 -32.1388 -32.0241 -32.0135
   -31.9362 -31.9246 -31.8954 -31.8705 -31.8612 -31.8577 -31.8277 -31.8015
   -31.7887 -31.7045 -31.7003 -31.6897 -31.6873 -31.6866 -31.6186 -31.6174
   -31.6101 -31.6065 -31.6058 -31.6019 -31.5942 -31.5932 -31.5665 -31.5651
   -31.5558 -31.5503 -31.4856 -31.4846 -31.4795 -31.4777 -31.4647 -31.4605
   -31.4483 -31.4447 -31.0946 -31.0946 -30.9932 -30.9931 -30.9551 -30.9550
   -20.8831 -15.7998 -15.7299 -15.5523 -15.5248 -15.4633 -15.4617 -15.4401
   -15.4274 -15.3731 -15.3718 -15.2398 -15.2299 -15.2238 -15.2177 -15.1562
   -15.1512 -15.1475 -15.1434 -15.0935 -15.0884 -14.9559 -14.9527 -14.8591
   -14.8535 -14.8140 -14.8062 -14.7522 -14.7418 -14.6554 -14.6467 -14.1790
   -13.2612 -13.2609  -6.7840  -5.8168  -4.7622  -4.4375  -3.0987  -2.9807
    -2.8000  -2.7755  -2.7461  -2.6197  -2.6149  -2.5942  -2.5892  -2.5311
    -2.4918  -2.4750  -2.4705  -2.4391  -2.4348  -2.3785  -2.3733  -2.3584
    -2.3490  -2.3435  -2.3387  -2.3317  -2.3241  -2.2442  -2.2372  -2.2223
    -2.2196  -2.1510  -2.1449  -2.1152  -2.1050  -1.8848  -1.8837  -1.8289
    -1.8184  -1.7025  -1.6981  -1.6799  -1.6775  -1.6190  -1.5932  -1.3734
    -1.3658  -1.3124  -1.2934  -1.2413  -1.2377  -1.1148  -1.0897  -0.9814
    -0.9416  -0.9354  -0.9281  -0.7977  -0.7865  -0.7780  -0.7618  -0.7531
    -0.7452  -0.6507  -0.5924  -0.5479  -0.5386  -0.5069  -0.4975  -0.4756
    -0.4285  -0.2879  -0.2844  -0.2791  -0.2697  -0.1339  -0.1319  -0.0706
    -0.0657   0.1735   0.1863   0.3001   0.3028   0.5591   0.5653   0.5918
     0.6069   0.7339   0.7469   0.7555   0.7894   0.8992   0.9036   0.9095
     0.9192   1.0109   1.0152   1.6209   1.6362   1.6368   1.6916   1.6922
     3.7895   3.7993   3.8207   3.8222   3.8483   3.8653   3.8944   3.9028
     4.1527   4.1734

     the Fermi energy is     2.6488 ev

!    total energy              =   -2970.32644738 Ry
     estimated scf accuracy    <       0.00000004 Ry
     smearing contrib. (-TS)   =      -0.00010080 Ry
     internal energy E=F+TS    =   -2970.32634658 Ry

     The total energy is F=E-TS. E is the sum of the following terms:
     one-electron contribution =  -23420.53220500 Ry
     hartree contribution      =   11802.02352944 Ry
     xc contribution           =    -491.46395990 Ry
     ewald contribution        =    9139.64478531 Ry
     electric field correction =       0.00150357 Ry

     convergence has been achieved in  66 iterations

     Forces acting on atoms (cartesian axes, Ry/au):

     atom    1 type  1   force =     0.00002153   -0.00004993    0.14944975
     atom    2 type  1   force =    -0.00005671   -0.00023647   -0.16928584
     atom    3 type  2   force =     0.00007924    0.00240868   -0.05963863
     atom    4 type  2   force =     0.00006118   -0.00153802    0.04012901
     atom    5 type  2   force =    -0.02179073   -0.00035970    0.00379060
     atom    6 type  2   force =     0.02139402    0.00006183    0.00420626
     atom    7 type  1   force =     0.00135372    0.00037330    0.00016387
     atom    8 type  1   force =    -0.00053531    0.00124987   -0.00036966
     atom    9 type  2   force =    -0.00066883    0.00013002   -0.00017247
     atom   10 type  2   force =    -0.00008349   -0.00039145    0.00060184
     atom   11 type  2   force =    -0.00080209    0.00025366   -0.00018338
     atom   12 type  2   force =    -0.00076387   -0.00004510   -0.00023218
     atom   13 type  1   force =     0.00050302    0.00010672   -0.00066699
     atom   14 type  1   force =    -0.00026050    0.00001842    0.00037794
     atom   15 type  2   force =    -0.00023581   -0.00038112    0.00032463
     atom   16 type  2   force =    -0.00007219   -0.00003772   -0.00040171
     atom   17 type  2   force =     0.00059642   -0.00036728   -0.00018619
     atom   18 type  2   force =     0.00029279   -0.00024728    0.00019244
     atom   19 type  1   force =    -0.00069694    0.00056339   -0.00013680
     atom   20 type  1   force =     0.00094569    0.00025054   -0.00043694
     atom   21 type  2   force =    -0.00000039   -0.00004996    0.10224017
     atom   22 type  2   force =     0.00022810   -0.00039107    0.00028268
     atom   23 type  2   force =    -0.07492826    0.00010105   -0.03478783
     atom   24 type  2   force =     0.07479839    0.00051384   -0.03482392
     atom   25 type  1   force =     0.00007234   -0.00001800    0.14885636
     atom   26 type  1   force =    -0.00000544   -0.00105696   -0.16929018
     atom   27 type  2   force =     0.00012705    0.00253802   -0.05989495
     atom   28 type  2   force =    -0.00032980   -0.00147211    0.04030080
     atom   29 type  2   force =    -0.02033415    0.00063500    0.00353198
     atom   30 type  2   force =     0.02286185   -0.00006342    0.00404300
     atom   31 type  1   force =     0.00101351    0.00067854   -0.00010788
     atom   32 type  1   force =    -0.00082311   -0.00145167   -0.00019408
     atom   33 type  2   force =    -0.00055057   -0.00039699   -0.00029790
     atom   34 type  2   force =    -0.00014509   -0.00005537   -0.00012468
     atom   35 type  2   force =    -0.00110713   -0.00079122   -0.00018893
     atom   36 type  2   force =    -0.00057730   -0.00044999   -0.00022803
     atom   37 type  1   force =     0.00071326   -0.00078352    0.00012322
     atom   38 type  1   force =    -0.00036996   -0.00016460    0.00060718
     atom   39 type  2   force =    -0.00040130   -0.00041346    0.00030145
     atom   40 type  2   force =    -0.00022646   -0.00041630    0.00001949
     atom   41 type  2   force =     0.00051775   -0.00036774    0.00017217
     atom   42 type  2   force =     0.00014293   -0.00041280   -0.00020722
     atom   43 type  1   force =    -0.00066624   -0.00110132    0.00011873
     atom   44 type  1   force =     0.00093385   -0.00000136   -0.00027629
     atom   45 type  2   force =     0.00000811   -0.00007207    0.10220748
     atom   46 type  2   force =     0.00013514   -0.00008512   -0.00039310
     atom   47 type  2   force =    -0.07492075    0.00029456   -0.03475552
     atom   48 type  2   force =     0.07480317    0.00076520   -0.03485570
     atom   49 type  3   force =    -0.00141603    0.00882740    0.01564927
     atom   50 type  3   force =     0.00108941   -0.00523013   -0.00961499
     atom   51 type  4   force =    -0.00059392   -0.00185588   -0.00360010
     atom   52 type  5   force =     0.00123863    0.00018273   -0.00144460
     atom   53 type  5   force =    -0.00056874    0.00080237   -0.00089363

     Total force =     0.403476     Total SCF correction =     0.000492
  @ DRIVER MODE: Message from server: STATUS
  @ DRIVER MODE: Message from server: GETFORCE
  @ DRIVER MODE: Returning v,forces,stress,ensemble

     Writing output data file ./calc.save/
  @ DRIVER MODE: Message from server: EXIT
  @ DRIVE MODE: Exiting

     General routines

     Parallel routines

   This run was terminated on:  16:39: 9  29Sep2021

   JOB DONE.