     Program PWSCF v.6.7GPU starts on 18Oct2021 at 15: 9:17

     R & G space division:  proc/nbgrp/npool/nimage =       8
     Reading input from /storage/home/hcoda1/3/ntian30/research/carbon/CxH_vib/Thiel_calc/ads_slab/NH3_perslab/out_0008/pw.inp
Warning: card &CELL ignored
Warning: card   CELL_DYNAMICS='IPI', ignored
Warning: card / ignored

     Current dimensions of program PWSCF are:
     Max number of different atomic species (ntypx) = 10
     Max number of k-points (npk) =  40000
     Max angular momentum in pseudopotentials (lmaxx) =  3
     Presently no symmetry can be used with electric field

     Message from routine cell_base_init:
     DEPRECATED: use true lattice parameter, not A to a.u. conversion factor

     IMPORTANT: XC functional enforced from input :
     Exchange-correlation= BEEF-VDW
                           (   1   4  43  14   2   0   0)
     Any further DFT definition will be discarded
     Please, verify this is what you really want

  @ DRIVER MODE: Connecting to
 qe_1139763_3255128.sched-torque.pace.gatech.edu_zskokpu_scratch
  using UNIX socket
  @ DRIVER MODE: Message from server: STATUS
  @ DRIVER MODE: Message from server: INIT
  @ DRIVER MODE: Receiving replica           0          -1
  @ DRIVER MODE: Receiving encoded integer          25
  @ DRIVER MODE:  SCF:  T  FORCE:  T  STRESS:  F  VC:  F  ENSEMBLE:  F
  @ DRIVER MODE:  SCF:  T  FORCE:  T  STRESS:  F  VC:  F  ENSEMBLE:  F

     Using Slab Decomposition

     bravais-lattice index     =            0
     lattice parameter (alat)  =       1.8897  a.u.
     unit-cell volume          =    9988.4706 (a.u.)^3
     number of atoms/cell      =           57
     number of atomic types    =            4
     number of electrons       =       434.00
     number of Kohn-Sham states=          227
     kinetic-energy cutoff     =      29.3995  Ry
     charge density cutoff     =     293.9946  Ry
     scf convergence threshold =      7.3E-08
     mixing beta               =       0.0500
     number of iterations used =            8  plain     mixing
     Exchange-correlation= BEEF-VDW
                           (   1   4  43  14   2   0   0)

     celldm(1)=   1.889726  celldm(2)=   0.000000  celldm(3)=   0.000000
     celldm(4)=   0.000000  celldm(5)=   0.000000  celldm(6)=   0.000000

     crystal axes: (cart. coord. in units of alat)
               a(1) = (   6.579727   0.000000   0.000000 )
               a(2) = (  -0.001163   8.942395   0.000000 )
               a(3) = (   0.000000   0.000000  25.155947 )

     reciprocal axes: (cart. coord. in units 2 pi/alat)
               b(1) = (  0.151982  0.000020  0.000000 )
               b(2) = (  0.000000  0.111827  0.000000 )
               b(3) = (  0.000000  0.000000  0.039752 )

     PseudoPot. # 1 for O  read from file:
     /storage/coda1/p-amedford6/0/shared/rich_project_chbe-medford/medford-share/data/pseudos_module/espresso/nninc/pbe/van/O.UPF
     MD5 check sum: 78c19812648e8988a0fe644b0f25305e
     Pseudo is Ultrasoft, Zval =  6.0
     Generated by new atomic code, or converted to UPF format
     Using radial grid of  737 points,  4 beta functions with:
                l(1) =   0
                l(2) =   0
                l(3) =   1
                l(4) =   1
     Q(r) pseudized with  8 coefficients,  rinner =    0.800   0.800   0.800

     PseudoPot. # 2 for Ti read from file:
     /storage/coda1/p-amedford6/0/shared/rich_project_chbe-medford/medford-share/data/pseudos_module/espresso/nninc/pbe/van/Ti.UPF
     MD5 check sum: 8e4df49b7f0d34bbd5052bf3f5ea0213
     Pseudo is Ultrasoft, Zval = 12.0
     Generated by new atomic code, or converted to UPF format
     Using radial grid of  851 points,  6 beta functions with:
                l(1) =   0
                l(2) =   0
                l(3) =   1
                l(4) =   1
                l(5) =   2
                l(6) =   2
     Q(r) pseudized with  8 coefficients,  rinner =    1.000   1.000   1.000
                                                       1.000   1.000

     PseudoPot. # 3 for N  read from file:
     /storage/coda1/p-amedford6/0/shared/rich_project_chbe-medford/medford-share/data/pseudos_module/espresso/nninc/pbe/van/N.UPF
     MD5 check sum: 90d10febe142ad51ac9d5be1deb811c4
     Pseudo is Ultrasoft, Zval =  5.0
     Generated by new atomic code, or converted to UPF format
     Using radial grid of  729 points,  4 beta functions with:
                l(1) =   0
                l(2) =   0
                l(3) =   1
                l(4) =   1
     Q(r) pseudized with  8 coefficients,  rinner =    0.800   0.800   0.800

     PseudoPot. # 4 for H  read from file:
     /storage/coda1/p-amedford6/0/shared/rich_project_chbe-medford/medford-share/data/pseudos_module/espresso/nninc/pbe/van/H.UPF
     MD5 check sum: b5ee9d7bfd3a09ee7748110bda690ff7
     Pseudo is Ultrasoft, Zval =  1.0
     Generated by new atomic code, or converted to UPF format
     Using radial grid of  615 points,  1 beta functions with:
                l(1) =   0
     Q(r) pseudized with  8 coefficients,  rinner =    0.800

     atomic species   valence    mass     pseudopotential
        O1             6.00    15.99900     O ( 1.00)
        Ti1           12.00    47.86700     Ti( 1.00)
        N1             5.00    14.00700     N ( 1.00)
        H1             1.00     1.00800     H ( 1.00)

     No symmetry found

   Cartesian axes

     site n.     atom                  positions (alat units)
         1           O1  tau(   1) = (   0.0007354   0.0005023  10.5931620  )
         2           O1  tau(   2) = (   3.2904414   0.0112058  13.8964882  )
         3           O1  tau(   3) = (   0.0005401   0.0771385  17.1949530  )
         4           O1  tau(   4) = (   0.0006271   0.0005054   7.9858123  )
         5           O1  tau(   5) = (   3.2895838   8.9314717  11.1944372  )
         6           O1  tau(   6) = (   0.0004542   0.0037726  14.5839567  )
         7           O1  tau(   7) = (   1.9868534   1.4903216   9.2879459  )
         8           O1  tau(   8) = (   5.2378633   1.6121790  12.5812404  )
         9           O1  tau(   9) = (   2.0187564   1.5175485  16.0920123  )
        10           Ti1 tau(  10) = (   0.0007404   1.4906270   9.2895810  )
        11           Ti1 tau(  11) = (   3.2908292   1.3533612  12.4825321  )
        12           Ti1 tau(  12) = (   6.5791587   1.3318727  15.7218970  )
        13           O1  tau(  13) = (   4.5942328   1.4918067   9.2879030  )
        14           O1  tau(  14) = (   1.3429762   1.6114357  12.5808800  )
        15           O1  tau(  15) = (   4.5614660   1.5177748  16.0924020  )
        16           Ti1 tau(  16) = (   3.2902859   2.9801868   9.2893338  )
        17           Ti1 tau(  17) = (   0.0008758   2.8334547  12.4616519  )
        18           Ti1 tau(  18) = (   3.2892168   3.0031368  15.7199352  )
        19           O1  tau(  19) = (   0.0003479   2.9813005  10.5931620  )
        20           O1  tau(  20) = (   3.2898890   2.9669551  13.9060418  )
        21           O1  tau(  21) = (   0.0002396   2.9813036   7.9858123  )
        22           O1  tau(  22) = (   3.2903741   2.9784362  11.1973051  )
        23           O1  tau(  23) = (   0.0002543   2.9904732  14.7865853  )
        24           O1  tau(  24) = (   1.9864658   4.4711199   9.2879459  )
        25           O1  tau(  25) = (   5.2421976   4.5796938  12.5913975  )
        26           O1  tau(  26) = (   1.9868962   4.3874993  16.0752682  )
        27           Ti1 tau(  27) = (   0.0003529   4.4714252   9.2895810  )
        28           Ti1 tau(  28) = (   3.2909855   4.3334338  12.5384581  )
        29           Ti1 tau(  29) = (  -0.0001346   4.7016419  15.7431722  )
        30           O1  tau(  30) = (   4.5938453   4.4726049   9.2879030  )
        31           O1  tau(  31) = (   1.3385138   4.5792087  12.5910896  )
        32           O1  tau(  32) = (   4.5924143   4.3878248  16.0749966  )
        33           Ti1 tau(  33) = (   3.2898983   5.9609850   9.2893338  )
        34           Ti1 tau(  34) = (   0.0009896   5.8105845  12.4545566  )
        35           Ti1 tau(  35) = (   3.2904027   6.0159751  15.8417138  )
        36           O1  tau(  36) = (  -0.0000397   5.9620987  10.5931620  )
        37           O1  tau(  37) = (   3.2899583   5.9542551  13.9530320  )
        38           O1  tau(  38) = (  -0.0003598   5.9221528  17.2055630  )
        39           O1  tau(  39) = (  -0.0001480   5.9621018   7.9858123  )
        40           O1  tau(  40) = (   3.2900585   5.9465535  11.2077716  )
        41           O1  tau(  41) = (   0.0000491   6.0342996  14.6037136  )
        42           O1  tau(  42) = (   1.9860782   7.4519181   9.2879459  )
        43           O1  tau(  43) = (   5.2346004   7.5551364  12.5649479  )
        44           O1  tau(  44) = (   2.0242992   7.4812189  16.0368393  )
        45           Ti1 tau(  45) = (  -0.0000347   7.4522234   9.2895810  )
        46           Ti1 tau(  46) = (   3.2903849   7.2707884  12.5514019  )
        47           Ti1 tau(  47) = (  -0.0000376   7.4906229  16.2622595  )
        48           O1  tau(  48) = (   4.5934577   7.4534031   9.2879030  )
        49           O1  tau(  49) = (   1.3450914   7.5544588  12.5647554  )
        50           O1  tau(  50) = (   4.5547502   7.4813962  16.0367022  )
        51           Ti1 tau(  51) = (   3.2895107   8.9417832   9.2893338  )
        52           Ti1 tau(  52) = (   0.0003618   8.7732999  12.4519576  )
        53           Ti1 tau(  53) = (   3.2901532   0.0195992  15.7030453  )
        54           N1  tau(  54) = (   3.2894534   5.9569964  18.1695816  )
        55           H1  tau(  55) = (   3.2994156   5.0059420  18.5212279  )
        56           H1  tau(  56) = (   2.4599617   6.4194056  18.5308046  )
        57           H1  tau(  57) = (   4.1186270   6.4195692  18.5314737  )

     number of k points=    10  Fermi-Dirac smearing, width (Ry)=  0.0073
                       cart. coord. in units 2pi/alat
        k(    1) = (   0.0000000   0.0000000   0.0000000), wk =   0.1250000
        k(    2) = (   0.0000000   0.0279567   0.0000000), wk =   0.2500000
        k(    3) = (   0.0000000  -0.0559134   0.0000000), wk =   0.1250000
        k(    4) = (   0.0379955   0.0000049   0.0000000), wk =   0.2500000
        k(    5) = (   0.0379955   0.0279617   0.0000000), wk =   0.2500000
        k(    6) = (   0.0379955  -0.0559085   0.0000000), wk =   0.2500000
        k(    7) = (   0.0379955  -0.0279518   0.0000000), wk =   0.2500000
        k(    8) = (  -0.0759910  -0.0000099   0.0000000), wk =   0.1250000
        k(    9) = (  -0.0759910   0.0279468   0.0000000), wk =   0.2500000
        k(   10) = (  -0.0759910  -0.0559233   0.0000000), wk =   0.1250000

     Initial potential from superposition of free atoms

     starting charge  415.99912, renormalised to  434.00000

     negative rho (up, down):  3.900E-02 0.000E+00

     %%%%%%%%%%%%%%%%%%%%%%%%%%%%%%%%%%%%%%%%%%%%%%%%%%%%%%%%%%%%%%%%%%%%%%%%
     %                                                                      %
     % You are using vdW-DF, which was implemented by the Thonhauser group. %
     % Please cite the following two papers that made this development      %
     % possible and the two reviews that describe the various versions:     %
     %                                                                      %
     %   T. Thonhauser et al., PRL 115, 136402 (2015).                      %
     %   T. Thonhauser et al., PRB 76, 125112 (2007).                       %
     %   K. Berland et al., Rep. Prog. Phys. 78, 066501 (2015).             %
     %   D.C. Langreth et al., J. Phys.: Condens. Matter 21, 084203 (2009). %
     %                                                                      %
     %                                                                      %
     % If you are calculating the stress with vdW-DF, please also cite:     %
     %                                                                      %
     %   R. Sabatini et al., J. Phys.: Condens. Matter 24, 424209 (2012).   %
     %                                                                      %
     %%%%%%%%%%%%%%%%%%%%%%%%%%%%%%%%%%%%%%%%%%%%%%%%%%%%%%%%%%%%%%%%%%%%%%%%

     Adding external electric field

     Computed dipole along edir(3) :
        Dipole               -2.9258 Ry au,         -7.4367 Debye
        Dipole field         -0.0037 Ry au,

        Potential amp.        0.3412 Ry
        Total length         46.3494 bohr

     Starting wfcs are  327 atomic wfcs
  @ DRIVER MODE: Message from server: STATUS
  @ DRIVER MODE: Message from server: POSDATA
  @ DRIVER MODE: Reading and sharing cell
  @ DRIVER MODE: Reading and sharing positions
  @ DRIVER MODE: Received positions

     Self-consistent Calculation

     iteration #  1     ecut=    29.40 Ry     beta= 0.05
     Davidson diagonalization with overlap
     c_bands:  4 eigenvalues not converged
     c_bands:  3 eigenvalues not converged
     c_bands:  4 eigenvalues not converged
     c_bands:  2 eigenvalues not converged
     c_bands:  2 eigenvalues not converged
     c_bands:  1 eigenvalues not converged
     c_bands:  2 eigenvalues not converged
     c_bands:  1 eigenvalues not converged
     c_bands:  1 eigenvalues not converged
     c_bands:  4 eigenvalues not converged
     ethr =  1.00E-05,  avg # of iterations = 22.0

[...]

     total energy              =   -3273.66893074 Ry
     estimated scf accuracy    <      14.21451963 Ry

     iteration #  2     ecut=    29.40 Ry     beta= 0.05
     Davidson diagonalization with overlap
     ethr =  3.28E-03,  avg # of iterations =  1.0

[...]

     iteration # 56     ecut=    29.40 Ry     beta= 0.05
     Davidson diagonalization with overlap
     c_bands:  1 eigenvalues not converged
     ethr =  1.74E-10,  avg # of iterations = 11.2

[...]

     total energy              =   -3272.09868291 Ry
     estimated scf accuracy    <       0.00000009 Ry

     iteration # 62     ecut=    29.40 Ry     beta= 0.05
     Davidson diagonalization with overlap
     ethr =  2.01E-11,  avg # of iterations =  8.0

     negative rho (up, down):  3.686E-02 0.000E+00

     Adding external electric field

     Computed dipole along edir(3) :
        Dipole                1.4006 Ry au,          3.5601 Debye
        Dipole field          0.0018 Ry au,

        Potential amp.       -0.1633 Ry
        Total length         46.3494 bohr

     End of self-consistent calculation

          k = 0.0000 0.0000 0.0000 ( 26871 PWs)   bands (ev):

   -57.9212 -57.9025 -57.8790 -57.8723 -57.8393 -57.7386 -57.7363 -57.7090
   -57.6943 -57.6871 -57.6549 -57.6196 -57.4805 -57.4640 -57.3993 -56.9347
   -56.9099 -56.9082 -34.2872 -34.2851 -34.2799 -34.2405 -34.2303 -34.2122
   -34.2091 -34.1747 -34.1665 -34.1546 -34.1472 -34.1352 -34.1210 -34.1012
   -34.0923 -34.0786 -34.0695 -34.0251 -34.0213 -34.0181 -34.0055 -34.0013
   -33.9956 -33.9938 -33.9803 -33.9514 -33.9257 -33.9220 -33.9214 -33.9209
   -33.9049 -33.9004 -33.8920 -33.8784 -33.8755 -33.8651 -33.8607 -33.8449
   -33.8320 -33.7575 -33.6921 -33.6726 -33.6663 -33.6535 -33.5284 -33.2489
   -33.2483 -33.2465 -33.2319 -33.2305 -33.1614 -33.0980 -33.0960 -32.9612
   -18.7192 -18.3389 -18.1779 -18.1230 -18.0949 -18.0093 -17.9641 -17.9232
   -17.7352 -17.6948 -17.6744 -17.6537 -17.6294 -17.6009 -17.5900 -17.5774
   -17.5549 -17.5459 -17.5443 -17.5184 -17.5072 -17.4321 -17.3792 -17.3527
   -17.3507 -17.3356 -17.3350 -17.3245 -17.2326 -17.1505 -17.0297 -16.9163
   -16.8302 -15.4009 -15.3433 -15.3405  -7.7423  -7.6825  -6.0466  -5.8224
    -5.8098  -5.7023  -5.3361  -5.2705  -5.2545  -5.2480  -5.1887  -5.1711
    -5.1478  -5.1240  -5.0905  -5.0293  -5.0104  -5.0046  -4.9506  -4.8858
    -4.8636  -4.8389  -4.7851  -4.7527  -4.7322  -4.7142  -4.6841  -4.6576
    -4.6101  -4.5915  -4.5507  -4.5410  -4.4637  -4.4289  -4.2896  -4.2345
    -4.2222  -4.1661  -4.1526  -4.1417  -4.0825  -4.0576  -4.0279  -4.0005
    -3.9591  -3.9539  -3.8724  -3.8128  -3.6938  -3.6394  -3.6198  -3.6042
    -3.5204  -3.5068  -3.4569  -3.3268  -3.3219  -3.2497  -3.2266  -3.1834
    -3.1403  -3.0816  -3.0012  -2.9687  -2.9193  -2.8980  -2.8375  -2.7870
    -2.7449  -2.7193  -2.6712  -2.6665  -2.6119  -2.5705  -2.5691  -2.5370
    -2.5103  -2.4647  -2.4562  -2.3966  -2.3606  -2.3165  -2.2536  -2.2409
    -2.2110  -2.1872  -2.1334  -2.1027  -2.0660  -2.0547  -2.0385  -1.9290
    -1.7610  -1.7580  -1.7529  -1.7406  -1.6359  -1.6067  -1.5050  -1.3328
    -1.1307  -0.9770  -0.6881  -0.6397  -0.6382  -0.3719  -0.3697  -0.2395
     1.1088   1.2978   1.3262   1.5238   1.5455   1.5922   1.6844   1.7035
     1.7655   1.8548   1.8628

[...]

          k = 0.0380-0.0280 0.0000 ( 26873 PWs)   bands (ev):

[...]

          k =-0.0760-0.0000 0.0000 ( 26902 PWs)   bands (ev):

[...]

          k =-0.0760-0.0559 0.0000 ( 26868 PWs)   bands (ev):

   -57.9210 -57.8965 -57.8905 -57.8667 -57.8396 -57.7378 -57.7347 -57.7137
   -57.6914 -57.6863 -57.6570 -57.6187 -57.4788 -57.4661 -57.3989 -56.9270
   -56.9252 -56.9006 -34.3759 -34.3325 -34.2574 -34.2331 -34.2313 -34.2230
   -34.2189 -34.1778 -34.1655 -34.1280 -34.1185 -34.0937 -34.0874 -34.0615
   -34.0595 -34.0454 -34.0403 -34.0312 -34.0221 -34.0200 -33.9869 -33.9807
   -33.9773 -33.9748 -33.9573 -33.9562 -33.9503 -33.9501 -33.9436 -33.9292
   -33.9189 -33.9160 -33.9145 -33.9135 -33.8846 -33.8830 -33.8672 -33.8607
   -33.8352 -33.7078 -33.6983 -33.6772 -33.6643 -33.6530 -33.5668 -33.3393
   -33.2476 -33.2463 -33.2226 -33.1411 -33.1390 -33.0754 -33.0591 -33.0571
   -18.3997 -18.3326 -18.0665 -18.0248 -18.0072 -18.0055 -17.9415 -17.9071
   -17.8323 -17.8158 -17.7320 -17.6838 -17.6640 -17.6610 -17.6378 -17.6036
   -17.6022 -17.5885 -17.5794 -17.5427 -17.5364 -17.5230 -17.4980 -17.3984
   -17.3467 -17.3125 -17.2738 -17.2656 -17.2273 -17.1235 -17.0633 -17.0576
   -16.7217 -15.3992 -15.3963 -15.2798  -7.7307  -7.6759  -5.6540  -5.6451
    -5.5892  -5.5211  -5.3391  -5.2143  -5.1900  -5.1864  -5.1065  -5.0714
    -5.0474  -5.0405  -5.0331  -5.0180  -5.0057  -4.9912  -4.9338  -4.8972
    -4.8396  -4.8225  -4.8176  -4.8093  -4.7816  -4.7563  -4.6170  -4.6157
    -4.5580  -4.5387  -4.4499  -4.4453  -4.4013  -4.3983  -4.3565  -4.3092
    -4.2700  -4.2600  -4.0670  -4.0424  -3.9972  -3.9873  -3.9820  -3.9297
    -3.8853  -3.7753  -3.6830  -3.6031  -3.5658  -3.5399  -3.5313  -3.5188
    -3.4854  -3.4427  -3.3908  -3.3779  -3.3636  -3.3451  -3.3200  -3.2650
    -3.1830  -3.1196  -3.0868  -3.0771  -3.0479  -3.0288  -3.0176  -3.0106
    -2.9435  -2.9420  -2.8772  -2.8488  -2.8085  -2.7883  -2.7544  -2.7224
    -2.6559  -2.6393  -2.6124  -2.4773  -2.4525  -2.4466  -2.4284  -2.3989
    -2.3015  -2.1759  -2.1577  -2.1308  -1.9833  -1.9469  -1.9430  -1.9257
    -1.8626  -1.7965  -1.6785  -1.6703  -1.5519  -1.5104  -1.4815  -1.4713
    -1.4610  -1.2577  -0.8502  -0.5724  -0.5554  -0.5294  -0.3715  -0.3694
     1.2441   1.3366   1.3704   1.4024   1.4454   1.4530   1.4673   1.5200
     1.5846   1.6195   1.8040

     the Fermi energy is     1.1860 ev

!    total energy              =   -3272.09871426 Ry
     estimated scf accuracy    <       0.00000006 Ry
     smearing contrib. (-TS)   =      -0.03416628 Ry
     internal energy E=F+TS    =   -3272.06454798 Ry

     The total energy is F=E-TS. E is the sum of the following terms:
     one-electron contribution =  -34227.87089190 Ry
     hartree contribution      =   17175.09137730 Ry
     xc contribution           =    -536.09662771 Ry
     ewald contribution        =   14316.80912625 Ry
     electric field correction =       0.00246808 Ry

     convergence has been achieved in  62 iterations

     Forces acting on atoms (cartesian axes, Ry/au):

     atom    1 type  1   force =     0.00003623    0.00678382    0.05074244
     atom    2 type  1   force =     0.00000681    0.00016910   -0.00009027
     atom    3 type  1   force =     0.00000482    0.00095198    0.00019651
     atom    4 type  1   force =     0.00005878    0.00003792    0.10707946
     atom    5 type  1   force =    -0.00000456   -0.00021425    0.00739804
     atom    6 type  1   force =    -0.00001156   -0.00257435    0.00290700
     atom    7 type  1   force =     0.06680094   -0.00010644   -0.02921424
     atom    8 type  1   force =     0.00531316   -0.02806378    0.00305463
     atom    9 type  1   force =     0.00871204   -0.01018494   -0.00352401
     atom   10 type  2   force =    -0.00005672   -0.00259664   -0.18470616
     atom   11 type  2   force =    -0.00000991    0.02119878   -0.00782302
     atom   12 type  2   force =     0.00006347    0.00854182    0.00650925
     atom   13 type  1   force =    -0.06689930   -0.00056112   -0.02919961
     atom   14 type  1   force =    -0.00534231   -0.02801124    0.00306969
     atom   15 type  1   force =    -0.00876114   -0.01018736   -0.00355685
     atom   16 type  2   force =     0.00011717    0.00035248    0.06939823
     atom   17 type  2   force =    -0.00001116    0.03412948    0.00274116
     atom   18 type  2   force =    -0.00002195   -0.00325460   -0.00527682
     atom   19 type  1   force =     0.00003145    0.00400941    0.06216810
     atom   20 type  1   force =     0.00001358    0.00065899   -0.00575013
     atom   21 type  1   force =     0.00005832    0.00057407    0.10773416
     atom   22 type  1   force =     0.00000420   -0.00106385    0.00864117
     atom   23 type  1   force =    -0.00002117    0.00173171    0.00487679
     atom   24 type  1   force =     0.06726872    0.00040412   -0.02917147
     atom   25 type  1   force =     0.00510588   -0.03016136    0.00337709
     atom   26 type  1   force =     0.01020564    0.01539430   -0.00074222
     atom   27 type  2   force =    -0.00005999   -0.00058221   -0.18586904
     atom   28 type  2   force =    -0.00001597    0.02136738   -0.00694991
     atom   29 type  2   force =     0.00006376   -0.01796362   -0.00052176
     atom   30 type  1   force =    -0.06736521   -0.00005026   -0.02915761
     atom   31 type  1   force =    -0.00514671   -0.03009858    0.00338648
     atom   32 type  1   force =    -0.01020256    0.01538946   -0.00064153
     atom   33 type  2   force =     0.00010830   -0.00104223    0.07140914
     atom   34 type  2   force =     0.00000358    0.03676240    0.00393804
     atom   35 type  2   force =    -0.00001959   -0.02101792    0.01017495
     atom   36 type  1   force =     0.00004187    0.00352735    0.05350390
     atom   37 type  1   force =     0.00000285    0.00213996   -0.00344701
     atom   38 type  1   force =    -0.00001891    0.00361993    0.00115324
     atom   39 type  1   force =     0.00005706   -0.00014607    0.10730241
     atom   40 type  1   force =     0.00000145   -0.00048662    0.00804533
     atom   41 type  1   force =    -0.00000460    0.00234078    0.00211819
     atom   42 type  1   force =     0.06751792   -0.00106139   -0.02898991
     atom   43 type  1   force =     0.00379300   -0.02773910    0.00195389
     atom   44 type  1   force =     0.01109121    0.00344821    0.00296013
     atom   45 type  2   force =    -0.00004672   -0.00029833   -0.18503419
     atom   46 type  2   force =     0.00000758    0.01828946   -0.00605161
     atom   47 type  2   force =    -0.00002713   -0.00313507   -0.01512184
     atom   48 type  1   force =    -0.06760956   -0.00150670   -0.02897911
     atom   49 type  1   force =    -0.00385622   -0.02768954    0.00196893
     atom   50 type  1   force =    -0.01107436    0.00347001    0.00287917
     atom   51 type  2   force =     0.00012453   -0.00224116    0.07049704
     atom   52 type  2   force =    -0.00003353    0.03272772    0.00638638
     atom   53 type  2   force =     0.00002614    0.01442458    0.00236993
     atom   54 type  3   force =     0.00226578    0.00072021   -0.00043795
     atom   55 type  4   force =    -0.00207507   -0.00057158   -0.00018301
     atom   56 type  4   force =    -0.00008215   -0.00147292    0.00074639
     atom   57 type  4   force =    -0.00012820    0.00091781   -0.00024796

     Total force =     0.455293     Total SCF correction =     0.000830
  @ DRIVER MODE: Message from server: STATUS
  @ DRIVER MODE: Message from server: GETFORCE
  @ DRIVER MODE: Returning v,forces,stress,ensemble

     Writing output data file ./calc.save/
  @ DRIVER MODE: Message from server: EXIT
  @ DRIVE MODE: Exiting

     General routines

     Parallel routines

   This run was terminated on:  15:40:29  18Oct2021

   JOB DONE.