     Program PWSCF v.6.7GPU starts on 26Sep2021 at 12:43:17

     R & G space division:  proc/nbgrp/npool/nimage =       8
     Reading input from /storage/home/hcoda1/3/ntian30/research/carbon/CxH_vib/H2O_calc/ads_slab/CH3N2OHHO_l/out_0045/pw.inp
Warning: card &CELL ignored
Warning: card   CELL_DYNAMICS='IPI', ignored
Warning: card / ignored

     Current dimensions of program PWSCF are:
     Max number of different atomic species (ntypx) = 10
     Max number of k-points (npk) =  40000
     Max angular momentum in pseudopotentials (lmaxx) =  3
     Presently no symmetry can be used with electric field

     Message from routine cell_base_init:
     DEPRECATED: use true lattice parameter, not A to a.u. conversion factor

     IMPORTANT: XC functional enforced from input :
     Exchange-correlation= BEEF-VDW
                           (   1   4  43  14   2   0   0)
     Any further DFT definition will be discarded
     Please, verify this is what you really want

  @ DRIVER MODE: Connecting to
 qe_1139763_2971669.sched-torque.pace.gatech.eduwvbt3zw9_scratch
  using UNIX socket
  @ DRIVER MODE: Message from server: STATUS
  @ DRIVER MODE: Message from server: INIT
  @ DRIVER MODE: Receiving replica           0          -1
  @ DRIVER MODE: Receiving encoded integer          25
  @ DRIVER MODE:  SCF:  T  FORCE:  T  STRESS:  F  VC:  F  ENSEMBLE:  F
  @ DRIVER MODE:  SCF:  T  FORCE:  T  STRESS:  F  VC:  F  ENSEMBLE:  F

     Using Slab Decomposition

     bravais-lattice index     =            0
     lattice parameter (alat)  =       1.8897  a.u.
     unit-cell volume          =    6658.9804 (a.u.)^3
     number of atoms/cell      =           57
     number of atomic types    =            5
     number of electrons       =       409.00
     number of Kohn-Sham states=          214
     kinetic-energy cutoff     =      29.3995  Ry
     charge density cutoff     =     293.9946  Ry
     scf convergence threshold =      7.3E-08
     mixing beta               =       0.0500
     number of iterations used =            8  plain     mixing
     Exchange-correlation= BEEF-VDW
                           (   1   4  43  14   2   0   0)

     celldm(1)=   1.889726  celldm(2)=   0.000000  celldm(3)=   0.000000
     celldm(4)=   0.000000  celldm(5)=   0.000000  celldm(6)=   0.000000

     crystal axes: (cart. coord. in units of alat)
               a(1) = (   6.579727   0.000000   0.000000 )
               a(2) = (  -0.000775   5.961596   0.000000 )
               a(3) = (   0.000000   0.000000  25.155947 )

     reciprocal axes: (cart. coord. in units 2 pi/alat)
               b(1) = (  0.151982  0.000020  0.000000 )
               b(2) = (  0.000000  0.167740  0.000000 )
               b(3) = (  0.000000  0.000000  0.039752 )

     PseudoPot. # 1 for Ti read from file:
     /storage/coda1/p-amedford6/0/shared/rich_project_chbe-medford/medford-share/data/pseudos_module/espresso/nninc/pbe/van/Ti.UPF
     MD5 check sum: 8e4df49b7f0d34bbd5052bf3f5ea0213
     Pseudo is Ultrasoft, Zval = 12.0
     Generated by new atomic code, or converted to UPF format
     Using radial grid of  851 points,  6 beta functions with:
                l(1) =   0
                l(2) =   0
                l(3) =   1
                l(4) =   1
                l(5) =   2
                l(6) =   2
     Q(r) pseudized with  8 coefficients,  rinner =    1.000   1.000   1.000
                                                       1.000   1.000

     PseudoPot. # 2 for O  read from file:
     /storage/coda1/p-amedford6/0/shared/rich_project_chbe-medford/medford-share/data/pseudos_module/espresso/nninc/pbe/van/O.UPF
     MD5 check sum: 78c19812648e8988a0fe644b0f25305e
     Pseudo is Ultrasoft, Zval =  6.0
     Generated by new atomic code, or converted to UPF format
     Using radial grid of  737 points,  4 beta functions with:
                l(1) =   0
                l(2) =   0
                l(3) =   1
                l(4) =   1
     Q(r) pseudized with  8 coefficients,  rinner =    0.800   0.800   0.800

     PseudoPot. # 3 for N  read from file:
     /storage/coda1/p-amedford6/0/shared/rich_project_chbe-medford/medford-share/data/pseudos_module/espresso/nninc/pbe/van/N.UPF
     MD5 check sum: 90d10febe142ad51ac9d5be1deb811c4
     Pseudo is Ultrasoft, Zval =  5.0
     Generated by new atomic code, or converted to UPF format
     Using radial grid of  729 points,  4 beta functions with:
                l(1) =   0
                l(2) =   0
                l(3) =   1
                l(4) =   1
     Q(r) pseudized with  8 coefficients,  rinner =    0.800   0.800   0.800

     PseudoPot. # 4 for C  read from file:
     /storage/coda1/p-amedford6/0/shared/rich_project_chbe-medford/medford-share/data/pseudos_module/espresso/nninc/pbe/van/C.UPF
     MD5 check sum: 1a69bf6b8db32088f5b2163dbdb77a27
     Pseudo is Ultrasoft, Zval =  4.0
     Generated by new atomic code, or converted to UPF format
     Using radial grid of  721 points,  4 beta functions with:
                l(1) =   0
                l(2) =   0
                l(3) =   1
                l(4) =   1
     Q(r) pseudized with  8 coefficients,  rinner =    0.800   0.800   0.800

     PseudoPot. # 5 for H  read from file:
     /storage/coda1/p-amedford6/0/shared/rich_project_chbe-medford/medford-share/data/pseudos_module/espresso/nninc/pbe/van/H.UPF
     MD5 check sum: b5ee9d7bfd3a09ee7748110bda690ff7
     Pseudo is Ultrasoft, Zval =  1.0
     Generated by new atomic code, or converted to UPF format
     Using radial grid of  615 points,  1 beta functions with:
                l(1) =   0
     Q(r) pseudized with  8 coefficients,  rinner =    0.800

     atomic species   valence    mass     pseudopotential
        Ti1           12.00    47.86700     Ti( 1.00)
        O1             6.00    15.99900     O ( 1.00)
        N1             5.00    14.00700     N ( 1.00)
        C1             4.00    12.01100     C ( 1.00)
        H1             1.00     1.00800     H ( 1.00)

     No symmetry found

   Cartesian axes

     site n.     atom                  positions (alat units)
         1           Ti1 tau(   1) = (   0.0004258   2.9801865   6.0000000  )
         2           Ti1 tau(   2) = (   3.2906075   1.4906267   6.0002472  )
         3           O1  tau(   3) = (   0.0006271   0.0005054   7.9858123  )
         4           O1  tau(   4) = (   3.2906025   0.0005020   7.3038282  )
         5           O1  tau(   5) = (   4.5942328   1.4918067   9.2879030  )
         6           O1  tau(   6) = (   1.9868534   1.4903216   9.2879459  )
         7           Ti1 tau(   7) = (   3.2907910   2.8959150   9.1758416  )
         8           Ti1 tau(   8) = (   0.0015273   1.4827037   9.2680791  )
         9           O1  tau(   9) = (   3.2779673   5.9607700  11.3423085  )
        10           O1  tau(  10) = (   0.0116148   5.9584955  10.6183126  )
        11           O1  tau(  11) = (   1.2787083   1.4818767  12.6451794  )
        12           O1  tau(  12) = (   5.2707140   1.4872516  12.6060838  )
        13           Ti1 tau(  13) = (   0.0520196   2.9452147  12.6012095  )
        14           Ti1 tau(  14) = (   3.3669591   1.4706787  12.5087448  )
        15           O1  tau(  15) = (   6.5166736   5.9505275  14.6414754  )
        16           O1  tau(  16) = (   3.3002175   0.0041348  13.9548274  )
        17           O1  tau(  17) = (   4.5235890   1.5203341  16.0633414  )
        18           O1  tau(  18) = (   1.9992342   1.5602939  15.9747780  )
        19           Ti1 tau(  19) = (   3.2541499   3.0080313  15.6961896  )
        20           Ti1 tau(  20) = (   6.5591015   1.5323982  15.7823192  )
        21           O1  tau(  21) = (   3.2904802   0.0005063   4.7018136  )
        22           O1  tau(  22) = (   0.0960927   0.0099221  17.2178370  )
        23           O1  tau(  23) = (   1.3043587   1.4918075   6.0039043  )
        24           O1  tau(  24) = (   5.2767064   1.4903225   6.0039473  )
        25           Ti1 tau(  25) = (   0.0000382   5.9609847   6.0000000  )
        26           Ti1 tau(  26) = (   3.2902200   4.4714249   6.0002472  )
        27           O1  tau(  27) = (   0.0002396   2.9813036   7.9858123  )
        28           O1  tau(  28) = (   3.2902150   2.9813002   7.3038282  )
        29           O1  tau(  29) = (   4.5938453   4.4726049   9.2879030  )
        30           O1  tau(  30) = (   1.9864658   4.4711199   9.2879459  )
        31           Ti1 tau(  31) = (   3.2891106   5.8743827   9.1763621  )
        32           Ti1 tau(  32) = (   0.0006254   4.4649316   9.2693709  )
        33           O1  tau(  33) = (   3.2807211   2.9768430  11.3440791  )
        34           O1  tau(  34) = (   0.0092240   2.9805883  10.6323155  )
        35           O1  tau(  35) = (   1.2789702   4.4681595  12.6395138  )
        36           O1  tau(  36) = (   5.2737968   4.4775610  12.6008310  )
        37           Ti1 tau(  37) = (   0.0460201   5.9176504  12.5434570  )
        38           Ti1 tau(  38) = (   3.3658678   4.4646095  12.4976877  )
        39           O1  tau(  39) = (   6.5297297   2.9761478  14.6509524  )
        40           O1  tau(  40) = (   3.3085871   2.9961499  13.9017917  )
        41           O1  tau(  41) = (   4.5138497   4.4896837  16.1272785  )
        42           O1  tau(  42) = (   1.9961282   4.4344792  16.0060688  )
        43           Ti1 tau(  43) = (   3.3116018   0.0224549  15.7990204  )
        44           Ti1 tau(  44) = (   6.5775847   4.6577750  16.0638065  )
        45           O1  tau(  45) = (   3.2900926   2.9813045   4.7018136  )
        46           O1  tau(  46) = (   1.3039711   4.4726057   6.0039043  )
        47           O1  tau(  47) = (   5.2763189   4.4711207   6.0039473  )
        48           N1  tau(  48) = (   6.5065777   2.6139801  18.6303060  )
        49           N1  tau(  49) = (   6.5364102   2.8728423  17.4370429  )
        50           C1  tau(  50) = (   6.4341180   3.7235584  19.6105657  )
        51           H1  tau(  51) = (   6.3066687   4.7022679  19.1488110  )
        52           H1  tau(  52) = (   5.6164842   3.4805663  20.2913871  )
        53           H1  tau(  53) = (   0.7823074   3.6964598  20.1845303  )
        54           O1  tau(  54) = (   3.0314481   5.0835218  18.9911038  )
        55           H1  tau(  55) = (   1.7414717   0.1944793  18.0242669  )
        56           O1  tau(  56) = (   2.7372941   0.2572207  18.0778760  )
        57           H1  tau(  57) = (   3.9343361   5.3466317  19.2487757  )

     number of k points=    10  Fermi-Dirac smearing, width (Ry)=  0.0073
                       cart. coord. in units 2pi/alat
        k(    1) = (   0.0000000   0.0000000   0.0000000), wk =   0.1250000
        k(    2) = (   0.0000000   0.0419351   0.0000000), wk =   0.2500000
        k(    3) = (   0.0000000  -0.0838702   0.0000000), wk =   0.1250000
        k(    4) = (   0.0379955   0.0000049   0.0000000), wk =   0.2500000
        k(    5) = (   0.0379955   0.0419400   0.0000000), wk =   0.2500000
        k(    6) = (   0.0379955  -0.0838652   0.0000000), wk =   0.2500000
        k(    7) = (   0.0379955  -0.0419301   0.0000000), wk =   0.2500000
        k(    8) = (  -0.0759910  -0.0000099   0.0000000), wk =   0.1250000
        k(    9) = (  -0.0759910   0.0419252   0.0000000), wk =   0.2500000
        k(   10) = (  -0.0759910  -0.0838800   0.0000000), wk =   0.1250000

     Initial potential from superposition of free atoms

     starting charge  392.99914, renormalised to  409.00000

     negative rho (up, down):  1.422E-02 0.000E+00

     %%%%%%%%%%%%%%%%%%%%%%%%%%%%%%%%%%%%%%%%%%%%%%%%%%%%%%%%%%%%%%%%%%%%%%%%
     %                                                                      %
     % You are using vdW-DF, which was implemented by the Thonhauser group. %
     % Please cite the following two papers that made this development      %
     % possible and the two reviews that describe the various versions:     %
     %                                                                      %
     %   T. Thonhauser et al., PRL 115, 136402 (2015).                      %
     %   T. Thonhauser et al., PRB 76, 125112 (2007).                       %
     %   K. Berland et al., Rep. Prog. Phys. 78, 066501 (2015).             %
     %   D.C. Langreth et al., J. Phys.: Condens. Matter 21, 084203 (2009). %
     %                                                                      %
     %                                                                      %
     % If you are calculating the stress with vdW-DF, please also cite:     %
     %                                                                      %
     %   R. Sabatini et al., J. Phys.: Condens. Matter 24, 424209 (2012).   %
     %                                                                      %
     %%%%%%%%%%%%%%%%%%%%%%%%%%%%%%%%%%%%%%%%%%%%%%%%%%%%%%%%%%%%%%%%%%%%%%%%

     Adding external electric field

     Computed dipole along edir(3) :
        Dipole              -16.7505 Ry au,        -42.5754 Debye
        Dipole field         -0.0316 Ry au,

        Potential amp.        2.9302 Ry
        Total length         46.3494 bohr

     Starting wfcs are  309 atomic wfcs
  @ DRIVER MODE: Message from server: STATUS
  @ DRIVER MODE: Message from server: POSDATA
  @ DRIVER MODE: Reading and sharing cell
  @ DRIVER MODE: Reading and sharing positions
  @ DRIVER MODE: Received positions

     Self-consistent Calculation

     iteration #  1     ecut=    29.40 Ry     beta= 0.05
     Davidson diagonalization with overlap
     c_bands:  5 eigenvalues not converged
     c_bands:  5 eigenvalues not converged
     c_bands:  3 eigenvalues not converged
     c_bands:  1 eigenvalues not converged
     c_bands:  4 eigenvalues not converged
     c_bands:  2 eigenvalues not converged
     c_bands:  5 eigenvalues not converged
     ethr =  1.00E-05,  avg # of iterations = 26.6

[...]

     total energy              =   -2110.46584735 Ry
     estimated scf accuracy    <   10326.53522652 Ry

     iteration #  2     ecut=    29.40 Ry     beta= 0.05
     Davidson diagonalization with overlap
     ethr =  1.00E-02,  avg # of iterations = 31.8

[...]

     iteration # 83     ecut=    29.40 Ry     beta= 0.05
     Davidson diagonalization with overlap
     ethr =  2.84E-11,  avg # of iterations = 12.9

[...]

     total energy              =   -3006.13724892 Ry
     estimated scf accuracy    <       0.00000007 Ry

     iteration # 84     ecut=    29.40 Ry     beta= 0.05
     Davidson diagonalization with overlap
     c_bands:  1 eigenvalues not converged
     ethr =  1.81E-11,  avg # of iterations = 11.5

     negative rho (up, down):  1.470E-02 0.000E+00

     Adding external electric field

     Computed dipole along edir(3) :
        Dipole                0.8074 Ry au,          2.0521 Debye
        Dipole field          0.0015 Ry au,

        Potential amp.       -0.1412 Ry
        Total length         46.3494 bohr

     End of self-consistent calculation

          k = 0.0000 0.0000 0.0000 ( 18029 PWs)   bands (ev):

   -55.6052 -55.5712 -55.5633 -55.5347 -55.5270 -55.4415 -55.4199 -55.4045
   -55.3860 -55.3839 -55.3668 -55.3502 -54.9888 -54.9188 -54.5860 -54.5519
   -32.1040 -32.0883 -31.9494 -31.9413 -31.9183 -31.8979 -31.8738 -31.8605
   -31.8492 -31.7949 -31.7800 -31.7645 -31.7576 -31.7410 -31.7298 -31.7193
   -31.7102 -31.7019 -31.6901 -31.6632 -31.6625 -31.6426 -31.6109 -31.6095
   -31.6001 -31.5956 -31.5932 -31.5826 -31.5647 -31.5603 -31.5545 -31.5494
   -31.5389 -31.5372 -31.5277 -31.5159 -31.4960 -31.2667 -31.2104 -31.1793
   -31.1256 -31.1030 -30.9932 -30.9045 -30.8821 -30.8099 -30.7234 -30.6124
   -20.7408 -18.2972 -16.3056 -16.0794 -15.8948 -15.7658 -15.7110 -15.5502
   -15.4954 -15.4102 -15.3397 -15.2030 -15.1506 -15.1418 -15.1362 -15.1172
   -15.1114 -15.0512 -15.0401 -15.0385 -15.0273 -14.9997 -14.9608 -14.9474
   -14.9426 -14.8597 -14.7664 -14.7435 -14.7232 -14.7201 -14.6623 -14.2771
   -13.0879 -12.9714 -11.2806  -6.8138  -5.7349  -5.3738  -4.1825  -3.8045
    -3.7708  -3.6729  -3.5504  -3.5114  -3.4320  -3.3853  -3.2311  -3.0798
    -3.0242  -2.8521  -2.7834  -2.7561  -2.7124  -2.6288  -2.5217  -2.4683
    -2.4131  -2.4091  -2.3952  -2.3791  -2.3620  -2.3453  -2.2386  -2.2192
    -2.1671  -2.1463  -2.1202  -1.9851  -1.9573  -1.9300  -1.9187  -1.8922
    -1.8786  -1.8648  -1.8379  -1.8193  -1.7816  -1.7556  -1.6244  -1.5831
    -1.5409  -1.4500  -1.3893  -1.3317  -1.2337  -1.2014  -1.1328  -1.0625
    -1.0567  -1.0368  -1.0035  -0.9954  -0.8690  -0.7647  -0.7545  -0.6810
    -0.6197  -0.5700  -0.5285  -0.4632  -0.3797  -0.3622  -0.3544  -0.3340
    -0.2820  -0.2584  -0.0983  -0.0596  -0.0114   0.0138   0.0709   0.1041
     0.1471   0.1870   0.2271   0.2770   0.3111   0.3443   0.3628   0.3771
     0.3925   0.4237   0.4444   0.6099   0.6454   0.6687   0.7300   0.7590
     0.8472   0.9021   0.9671   1.0501   1.1581   1.3637   1.4366   1.5276
     1.6285   2.0080   2.0538   2.8302   3.5239   3.6159   3.6568   3.6871
     3.7686   3.7802   3.9819   4.0035   4.0332   4.1083

[...]

          k = 0.0380-0.0419 0.0000 ( 17876 PWs)   bands (ev):

[...]

          k =-0.0760-0.0000 0.0000 ( 17886 PWs)   bands (ev):

[...]

          k =-0.0760-0.0839 0.0000 ( 17948 PWs)   bands (ev):

   -55.5886 -55.5877 -55.5481 -55.5420 -55.5328 -55.4297 -55.4163 -55.4031
   -55.4021 -55.3685 -55.3685 -55.3659 -54.9849 -54.9226 -54.5690 -54.5688
   -31.9182 -31.9039 -31.9032 -31.9009 -31.8838 -31.8828 -31.8269 -31.8183
   -31.8058 -31.7861 -31.7776 -31.7539 -31.7492 -31.7231 -31.7174 -31.7168
   -31.7083 -31.7078 -31.7076 -31.7061 -31.7038 -31.7017 -31.6753 -31.6467
   -31.6329 -31.6290 -31.6203 -31.6040 -31.6030 -31.5980 -31.5928 -31.5838
   -31.5808 -31.5732 -31.5726 -31.5707 -31.4179 -31.2684 -31.2491 -31.1874
   -31.1644 -31.1268 -30.8949 -30.8947 -30.8060 -30.8059 -30.7667 -30.7666
   -20.7402 -18.2932 -15.7428 -15.6931 -15.6299 -15.5644 -15.5293 -15.4592
   -15.4158 -15.3734 -15.3218 -15.2837 -15.2746 -15.2155 -15.1946 -15.1622
   -15.1527 -15.1233 -15.1135 -15.1114 -15.0579 -15.0520 -15.0460 -15.0390
   -15.0328 -14.9740 -14.9341 -14.9261 -14.9211 -14.8228 -14.7006 -14.4458
   -13.0732 -13.0731 -11.2789  -6.8367  -5.7320  -5.3505  -4.1110  -3.8057
    -3.7563  -3.1121  -3.0216  -2.8279  -2.7972  -2.7149  -2.7108  -2.6679
    -2.5458  -2.5128  -2.4668  -2.4487  -2.4276  -2.4189  -2.4132  -2.3933
    -2.3871  -2.3687  -2.3401  -2.3193  -2.2867  -2.2741  -2.2612  -2.2531
    -2.2387  -2.2158  -2.2136  -2.1652  -2.1450  -2.1268  -2.0631  -2.0300
    -1.8438  -1.7947  -1.7497  -1.7428  -1.7218  -1.6915  -1.6751  -1.6584
    -1.6118  -1.5919  -1.5141  -1.4687  -1.3297  -1.3103  -1.2940  -1.2740
    -1.2072  -1.1493  -1.0991  -1.0132  -1.0079  -0.9590  -0.8660  -0.8068
    -0.7987  -0.7673  -0.7118  -0.7022  -0.6619  -0.5684  -0.5627  -0.5448
    -0.5389  -0.4633  -0.4190  -0.3565  -0.3484  -0.3285  -0.2977  -0.2696
    -0.2363  -0.1976  -0.1015  -0.0682   0.0253   0.1309   0.2074   0.3430
     0.4619   0.4744   0.5595   0.5835   0.6845   0.6963   0.7085   0.7495
     0.7856   0.8097   0.9298   0.9438   0.9673   0.9960   1.0813   1.8000
     1.8009   1.8735   1.8737   2.8198   3.7652   3.8793   3.9111   3.9218
     4.0069   4.0438   4.0629   4.0648   4.1294   4.2019

     the Fermi energy is     3.5266 ev

!    total energy              =   -3006.13726408 Ry
     estimated scf accuracy    <       0.00000005 Ry
     smearing contrib. (-TS)   =      -0.02167184 Ry
     internal energy E=F+TS    =   -3006.11559225 Ry

     The total energy is F=E-TS. E is the sum of the following terms:
     one-electron contribution =  -23513.94755741 Ry
     hartree contribution      =   11854.94744896 Ry
     xc contribution           =    -501.16773701 Ry
     ewald contribution        =    9154.05102311 Ry
     electric field correction =       0.00123010 Ry

     convergence has been achieved in  84 iterations

     Forces acting on atoms (cartesian axes, Ry/au):

     atom    1 type  1   force =     0.00021042   -0.00031666    0.09612152
     atom    2 type  1   force =    -0.00013020   -0.00051038   -0.17562026
     atom    3 type  2   force =    -0.00002987   -0.00015441   -0.02418543
     atom    4 type  2   force =     0.00000587   -0.00155496    0.05346775
     atom    5 type  2   force =    -0.01166104   -0.00076006    0.00385709
     atom    6 type  2   force =     0.01285010   -0.00002571    0.00197206
     atom    7 type  1   force =    -0.00132063    0.00026302   -0.00661432
     atom    8 type  1   force =     0.00073969    0.00794626    0.02426194
     atom    9 type  2   force =     0.00000755    0.00002948    0.00002842
     atom   10 type  2   force =    -0.00082520    0.00166893   -0.01688258
     atom   11 type  2   force =    -0.00001680    0.00003376    0.00000234
     atom   12 type  2   force =    -0.00000741    0.00001619   -0.00000152
     atom   13 type  1   force =     0.00000983   -0.00000602    0.00001411
     atom   14 type  1   force =     0.00000146    0.00003694    0.00001142
     atom   15 type  2   force =    -0.00001370   -0.00000618    0.00001045
     atom   16 type  2   force =    -0.00000888   -0.00004172   -0.00006945
     atom   17 type  2   force =     0.00000105   -0.00002028    0.00004636
     atom   18 type  2   force =    -0.00001434   -0.00000729   -0.00009267
     atom   19 type  1   force =     0.00003304   -0.00017171   -0.00000023
     atom   20 type  1   force =     0.00011779    0.00004676    0.00001076
     atom   21 type  2   force =     0.00005835   -0.00004833    0.10325124
     atom   22 type  2   force =     0.00004801   -0.00020930    0.00003097
     atom   23 type  2   force =    -0.07146508   -0.00011938   -0.02771542
     atom   24 type  2   force =     0.07136861    0.00028846   -0.02772324
     atom   25 type  1   force =    -0.00003305   -0.00028776    0.09575501
     atom   26 type  1   force =    -0.00023153   -0.00034291   -0.17588194
     atom   27 type  2   force =     0.00004841   -0.00017621   -0.02323231
     atom   28 type  2   force =     0.00007146   -0.00125897    0.05307392
     atom   29 type  2   force =    -0.01201009    0.00042279    0.00403312
     atom   30 type  2   force =     0.01309493    0.00076663    0.00212143
     atom   31 type  1   force =    -0.00118254    0.00400379   -0.00991304
     atom   32 type  1   force =     0.00067921   -0.01005227    0.02473879
     atom   33 type  2   force =     0.00001513   -0.00001040    0.00001754
     atom   34 type  2   force =    -0.00024955    0.00012454   -0.02258353
     atom   35 type  2   force =    -0.00000277   -0.00000486   -0.00001249
     atom   36 type  2   force =    -0.00001121    0.00001911   -0.00001918
     atom   37 type  1   force =    -0.00000189   -0.00004615    0.00001014
     atom   38 type  1   force =     0.00001532    0.00008106    0.00004909
     atom   39 type  2   force =    -0.00005731   -0.00001036   -0.00001951
     atom   40 type  2   force =    -0.00000355   -0.00003448   -0.00001716
     atom   41 type  2   force =     0.00003257   -0.00000552   -0.00002512
     atom   42 type  2   force =    -0.00004348    0.00003389    0.00004247
     atom   43 type  1   force =     0.00010743    0.00008450   -0.00013338
     atom   44 type  1   force =    -0.00004110   -0.00008324   -0.00009551
     atom   45 type  2   force =     0.00004337   -0.00009014    0.10325513
     atom   46 type  2   force =    -0.07147675   -0.00008424   -0.02773464
     atom   47 type  2   force =     0.07139021    0.00035989   -0.02772920
     atom   48 type  3   force =     0.00000829   -0.00003479    0.00012186
     atom   49 type  3   force =     0.00001567    0.00001605   -0.00011844
     atom   50 type  4   force =     0.00001406    0.00005019   -0.00003621
     atom   51 type  5   force =    -0.00002811   -0.00004700    0.00006397
     atom   52 type  5   force =     0.00003307    0.00001122    0.00003041
     atom   53 type  5   force =    -0.00008965    0.00000513   -0.00000955
     atom   54 type  2   force =     0.00235166   -0.00026056   -0.00095021
     atom   55 type  5   force =     0.00063794    0.00189132   -0.00099541
     atom   56 type  2   force =    -0.00336084   -0.00126293    0.00182326
     atom   57 type  5   force =     0.00030607   -0.00015468    0.00018938

     Total force =     0.367159     Total SCF correction =     0.000719
  @ DRIVER MODE: Message from server: STATUS
  @ DRIVER MODE: Message from server: GETFORCE
  @ DRIVER MODE: Returning v,forces,stress,ensemble

     Writing output data file ./calc.save/
  @ DRIVER MODE: Message from server: EXIT
  @ DRIVE MODE: Exiting

     General routines

     Parallel routines

   This run was terminated on:  13:15:27  26Sep2021

   JOB DONE.