     Program PWSCF v.6.7GPU starts on 14Sep2021 at 17: 7:15

     R & G space division:  proc/nbgrp/npool/nimage =      10
     Reading input from /storage/home/hcoda1/3/ntian30/research/carbon/CxH_vib/CH2_calc/ads_slab/CH2OHN2_a/out_0010/pw.inp
Warning: card &CELL ignored
Warning: card   CELL_DYNAMICS='IPI', ignored
Warning: card / ignored

     Current dimensions of program PWSCF are:
     Max number of different atomic species (ntypx) = 10
     Max number of k-points (npk) =  40000
     Max angular momentum in pseudopotentials (lmaxx) =  3
     Presently no symmetry can be used with electric field

     Message from routine cell_base_init:
     DEPRECATED: use true lattice parameter, not A to a.u. conversion factor

     IMPORTANT: XC functional enforced from input :
     Exchange-correlation= BEEF-VDW
                           (   1   4  43  14   2   0   0)
     Any further DFT definition will be discarded
     Please, verify this is what you really want

  @ DRIVER MODE: Connecting to
 qe_1139763_2840440.sched-torque.pace.gatech.edup9u2t8aj_scratch
  using UNIX socket
  @ DRIVER MODE: Message from server: STATUS
  @ DRIVER MODE: Message from server: INIT
  @ DRIVER MODE: Receiving replica           0          -1
  @ DRIVER MODE: Receiving encoded integer          25
  @ DRIVER MODE:  SCF:  T  FORCE:  T  STRESS:  F  VC:  F  ENSEMBLE:  F
  @ DRIVER MODE:  SCF:  T  FORCE:  T  STRESS:  F  VC:  F  ENSEMBLE:  F

     Using Slab Decomposition

     bravais-lattice index     =            0
     lattice parameter (alat)  =       1.8897  a.u.
     unit-cell volume          =    6658.9804 (a.u.)^3
     number of atoms/cell      =           54
     number of atomic types    =            5
     number of electrons       =       401.00
     number of Kohn-Sham states=          210
     kinetic-energy cutoff     =      29.3995  Ry
     charge density cutoff     =     293.9946  Ry
     scf convergence threshold =      7.3E-08
     mixing beta               =       0.0500
     number of iterations used =            8  plain     mixing
     Exchange-correlation= BEEF-VDW
                           (   1   4  43  14   2   0   0)

     celldm(1)=   1.889726  celldm(2)=   0.000000  celldm(3)=   0.000000
     celldm(4)=   0.000000  celldm(5)=   0.000000  celldm(6)=   0.000000

     crystal axes: (cart. coord. in units of alat)
               a(1) = (   6.579727   0.000000   0.000000 )
               a(2) = (  -0.000775   5.961596   0.000000 )
               a(3) = (   0.000000   0.000000  25.155947 )

     reciprocal axes: (cart. coord. in units 2 pi/alat)
               b(1) = (  0.151982  0.000020  0.000000 )
               b(2) = (  0.000000  0.167740  0.000000 )
               b(3) = (  0.000000  0.000000  0.039752 )

     PseudoPot. # 1 for C  read from file:
     /storage/coda1/p-amedford6/0/shared/rich_project_chbe-medford/medford-share/data/pseudos_module/espresso/nninc/pbe/van/C.UPF
     MD5 check sum: 1a69bf6b8db32088f5b2163dbdb77a27
     Pseudo is Ultrasoft, Zval =  4.0
     Generated by new atomic code, or converted to UPF format
     Using radial grid of  721 points,  4 beta functions with:
                l(1) =   0
                l(2) =   0
                l(3) =   1
                l(4) =   1
     Q(r) pseudized with  8 coefficients,  rinner =    0.800   0.800   0.800

     PseudoPot. # 2 for H  read from file:
     /storage/coda1/p-amedford6/0/shared/rich_project_chbe-medford/medford-share/data/pseudos_module/espresso/nninc/pbe/van/H.UPF
     MD5 check sum: b5ee9d7bfd3a09ee7748110bda690ff7
     Pseudo is Ultrasoft, Zval =  1.0
     Generated by new atomic code, or converted to UPF format
     Using radial grid of  615 points,  1 beta functions with:
                l(1) =   0
     Q(r) pseudized with  8 coefficients,  rinner =    0.800

     PseudoPot. # 3 for O  read from file:
     /storage/coda1/p-amedford6/0/shared/rich_project_chbe-medford/medford-share/data/pseudos_module/espresso/nninc/pbe/van/O.UPF
     MD5 check sum: 78c19812648e8988a0fe644b0f25305e
     Pseudo is Ultrasoft, Zval =  6.0
     Generated by new atomic code, or converted to UPF format
     Using radial grid of  737 points,  4 beta functions with:
                l(1) =   0
                l(2) =   0
                l(3) =   1
                l(4) =   1
     Q(r) pseudized with  8 coefficients,  rinner =    0.800   0.800   0.800

     PseudoPot. # 4 for Ti read from file:
     /storage/coda1/p-amedford6/0/shared/rich_project_chbe-medford/medford-share/data/pseudos_module/espresso/nninc/pbe/van/Ti.UPF
     MD5 check sum: 8e4df49b7f0d34bbd5052bf3f5ea0213
     Pseudo is Ultrasoft, Zval = 12.0
     Generated by new atomic code, or converted to UPF format
     Using radial grid of  851 points,  6 beta functions with:
                l(1) =   0
                l(2) =   0
                l(3) =   1
                l(4) =   1
                l(5) =   2
                l(6) =   2
     Q(r) pseudized with  8 coefficients,  rinner =    1.000   1.000   1.000
                                                       1.000   1.000

     PseudoPot. # 5 for N  read from file:
     /storage/coda1/p-amedford6/0/shared/rich_project_chbe-medford/medford-share/data/pseudos_module/espresso/nninc/pbe/van/N.UPF
     MD5 check sum: 90d10febe142ad51ac9d5be1deb811c4
     Pseudo is Ultrasoft, Zval =  5.0
     Generated by new atomic code, or converted to UPF format
     Using radial grid of  729 points,  4 beta functions with:
                l(1) =   0
                l(2) =   0
                l(3) =   1
                l(4) =   1
     Q(r) pseudized with  8 coefficients,  rinner =    0.800   0.800   0.800

     atomic species   valence    mass     pseudopotential
        C1             4.00    12.01100     C ( 1.00)
        H1             1.00     1.00800     H ( 1.00)
        O1             6.00    15.99900     O ( 1.00)
        Ti1           12.00    47.86700     Ti( 1.00)
        N1             5.00    14.00700     N ( 1.00)

     No symmetry found

   Cartesian axes

     site n.     atom                  positions (alat units)
         1           C1  tau(   1) = (   5.1764158   1.5385028  19.8564928  )
         2           H1  tau(   2) = (   4.2418317   1.4168958  19.3325039  )
         3           H1  tau(   3) = (   6.1328006   2.9100337  18.2018079  )
         4           H1  tau(   4) = (   6.0297582   0.9181690  19.6386741  )
         5           O1  tau(   5) = (   0.0006271   0.0005054   7.9858123  )
         6           O1  tau(   6) = (   3.2906025   0.0005020   7.3038282  )
         7           O1  tau(   7) = (   4.5942328   1.4918067   9.2879030  )
         8           O1  tau(   8) = (   1.9868534   1.4903216   9.2879459  )
         9           O1  tau(   9) = (   3.2696825   0.0177092  11.3460806  )
        10           O1  tau(  10) = (   6.5743896   0.0111799  10.6115589  )
        11           O1  tau(  11) = (   1.2770957   1.5070501  12.6511825  )
        12           O1  tau(  12) = (   5.2749141   1.5057152  12.6378801  )
        13           O1  tau(  13) = (   6.5263050   0.0247340  14.7317399  )
        14           O1  tau(  14) = (   3.2747511   0.0213673  13.9312909  )
        15           O1  tau(  15) = (   4.4933390   1.5239927  16.1070736  )
        16           O1  tau(  16) = (   2.0026543   1.5217075  16.0711130  )
        17           O1  tau(  17) = (   3.2904802   0.0005063   4.7018136  )
        18           O1  tau(  18) = (   6.5469758   0.0421337  17.2556835  )
        19           O1  tau(  19) = (   1.3043587   1.4918075   6.0039043  )
        20           O1  tau(  20) = (   5.2767064   1.4903225   6.0039473  )
        21           O1  tau(  21) = (   0.0002396   2.9813036   7.9858123  )
        22           O1  tau(  22) = (   3.2902150   2.9813002   7.3038282  )
        23           O1  tau(  23) = (   4.5938453   4.4726049   9.2879030  )
        24           O1  tau(  24) = (   1.9864658   4.4711199   9.2879459  )
        25           O1  tau(  25) = (   3.2722311   3.0011533  11.3472759  )
        26           O1  tau(  26) = (   6.5787409   2.9955660  10.5677177  )
        27           O1  tau(  27) = (   1.2755865   4.4883074  12.6550720  )
        28           O1  tau(  28) = (   5.2773609   4.4903743  12.6413705  )
        29           O1  tau(  29) = (   6.5451067   2.9841024  14.7029789  )
        30           O1  tau(  30) = (   3.2773495   3.0062142  13.9304278  )
        31           O1  tau(  31) = (   4.4941242   4.5002890  16.1165364  )
        32           O1  tau(  32) = (   2.0016379   4.5015838  16.0818063  )
        33           O1  tau(  33) = (   3.2900926   2.9813045   4.7018136  )
        34           O1  tau(  34) = (   1.3039711   4.4726057   6.0039043  )
        35           O1  tau(  35) = (   5.2763189   4.4711207   6.0039473  )
        36           O1  tau(  36) = (   6.5536212   3.0044252  17.3297899  )
        37           Ti1 tau(  37) = (   0.0004258   2.9801865   6.0000000  )
        38           Ti1 tau(  38) = (   3.2906075   1.4906267   6.0002472  )
        39           Ti1 tau(  39) = (   3.3348906   3.0327224   9.1579215  )
        40           Ti1 tau(  40) = (   0.0203972   1.6099837   9.3624797  )
        41           Ti1 tau(  41) = (   6.5380572   3.0081639  12.8251979  )
        42           Ti1 tau(  42) = (   3.2225065   1.5141752  12.4854623  )
        43           Ti1 tau(  43) = (   3.2525775   3.0161725  15.7233172  )
        44           Ti1 tau(  44) = (   6.5465844   1.4469101  15.9770741  )
        45           Ti1 tau(  45) = (   0.0000382   5.9609847   6.0000000  )
        46           Ti1 tau(  46) = (   3.2902200   4.4714249   6.0002472  )
        47           Ti1 tau(  47) = (   3.2831171   0.0558662   9.1532617  )
        48           Ti1 tau(  48) = (   0.0294011   4.5318189   9.2743274  )
        49           Ti1 tau(  49) = (   6.5160019   0.0323579  12.5245727  )
        50           Ti1 tau(  50) = (   3.2207252   4.4944464  12.4919313  )
        51           Ti1 tau(  51) = (   3.2545639   0.0336594  15.7221480  )
        52           Ti1 tau(  52) = (   6.5427997   4.6104004  16.1309301  )
        53           N1  tau(  53) = (   5.0796009   2.6163306  22.0446247  )
        54           N1  tau(  54) = (   5.1188049   2.0915644  21.0330699  )

     number of k points=    10  Fermi-Dirac smearing, width (Ry)=  0.0073
                       cart. coord. in units 2pi/alat
        k(    1) = (   0.0000000   0.0000000   0.0000000), wk =   0.1250000
        k(    2) = (   0.0000000   0.0419351   0.0000000), wk =   0.2500000
        k(    3) = (   0.0000000  -0.0838702   0.0000000), wk =   0.1250000
        k(    4) = (   0.0379955   0.0000049   0.0000000), wk =   0.2500000
        k(    5) = (   0.0379955   0.0419400   0.0000000), wk =   0.2500000
        k(    6) = (   0.0379955  -0.0838652   0.0000000), wk =   0.2500000
        k(    7) = (   0.0379955  -0.0419301   0.0000000), wk =   0.2500000
        k(    8) = (  -0.0759910  -0.0000099   0.0000000), wk =   0.1250000
        k(    9) = (  -0.0759910   0.0419252   0.0000000), wk =   0.2500000
        k(   10) = (  -0.0759910  -0.0838800   0.0000000), wk =   0.1250000

     Initial potential from superposition of free atoms

     starting charge  384.99916, renormalised to  401.00000

     negative rho (up, down):  1.197E-02 0.000E+00

     %%%%%%%%%%%%%%%%%%%%%%%%%%%%%%%%%%%%%%%%%%%%%%%%%%%%%%%%%%%%%%%%%%%%%%%%
     %                                                                      %
     % You are using vdW-DF, which was implemented by the Thonhauser group. %
     % Please cite the following two papers that made this development      %
     % possible and the two reviews that describe the various versions:     %
     %                                                                      %
     %   T. Thonhauser et al., PRL 115, 136402 (2015).                      %
     %   T. Thonhauser et al., PRB 76, 125112 (2007).                       %
     %   K. Berland et al., Rep. Prog. Phys. 78, 066501 (2015).             %
     %   D.C. Langreth et al., J. Phys.: Condens. Matter 21, 084203 (2009). %
     %                                                                      %
     %                                                                      %
     % If you are calculating the stress with vdW-DF, please also cite:     %
     %                                                                      %
     %   R. Sabatini et al., J. Phys.: Condens. Matter 24, 424209 (2012).   %
     %                                                                      %
     %%%%%%%%%%%%%%%%%%%%%%%%%%%%%%%%%%%%%%%%%%%%%%%%%%%%%%%%%%%%%%%%%%%%%%%%

     Adding external electric field

     Computed dipole along edir(3) :
        Dipole              -14.0962 Ry au,        -35.8290 Debye
        Dipole field         -0.0266 Ry au,

        Potential amp.        2.4659 Ry
        Total length         46.3494 bohr

     Starting wfcs are  303 atomic wfcs
  @ DRIVER MODE: Message from server: STATUS
  @ DRIVER MODE: Message from server: POSDATA
  @ DRIVER MODE: Reading and sharing cell
  @ DRIVER MODE: Reading and sharing positions
  @ DRIVER MODE: Received positions

     Self-consistent Calculation

     iteration #  1     ecut=    29.40 Ry     beta= 0.05
     Davidson diagonalization with overlap
     c_bands:  5 eigenvalues not converged
     c_bands:  2 eigenvalues not converged
     c_bands:  5 eigenvalues not converged
     c_bands:  2 eigenvalues not converged
     c_bands:  4 eigenvalues not converged
     c_bands:  4 eigenvalues not converged
     c_bands:  4 eigenvalues not converged
     c_bands:  4 eigenvalues not converged
     c_bands:  5 eigenvalues not converged
     ethr =  1.00E-05,  avg # of iterations = 22.0

[...]

     total energy              =   -2410.43193157 Ry
     estimated scf accuracy    <    6378.94691729 Ry

     iteration #  2     ecut=    29.40 Ry     beta= 0.05
     Davidson diagonalization with overlap
     ethr =  1.00E-02,  avg # of iterations = 23.7

[...]

     iteration # 49     ecut=    29.40 Ry     beta= 0.05
     Davidson diagonalization with overlap
     c_bands:  1 eigenvalues not converged
     ethr =  3.49E-08,  avg # of iterations = 10.9

[...]

     total energy              =   -2971.53800249 Ry
     estimated scf accuracy    <       0.00000007 Ry

     iteration # 65     ecut=    29.40 Ry     beta= 0.05
     Davidson diagonalization with overlap
     ethr =  1.85E-11,  avg # of iterations =  9.0

     negative rho (up, down):  1.326E-02 0.000E+00

     Adding external electric field

     Computed dipole along edir(3) :
        Dipole                0.4409 Ry au,          1.1206 Debye
        Dipole field          0.0008 Ry au,

        Potential amp.       -0.0771 Ry
        Total length         46.3494 bohr

     End of self-consistent calculation

          k = 0.0000 0.0000 0.0000 ( 18029 PWs)   bands (ev):

   -55.7652 -55.7522 -55.7280 -55.7151 -55.6726 -55.6511 -55.6258 -55.5924
   -55.5895 -55.5801 -55.5379 -55.5148 -55.4812 -55.4146 -54.7756 -54.7415
   -32.3160 -32.2323 -32.1989 -32.1132 -32.0841 -32.0664 -32.0570 -32.0333
   -31.9945 -31.9902 -31.9755 -31.9677 -31.9622 -31.9326 -31.9254 -31.9220
   -31.9177 -31.8959 -31.8881 -31.8604 -31.8544 -31.8308 -31.8302 -31.8241
   -31.8071 -31.8007 -31.7828 -31.7784 -31.7713 -31.7688 -31.7616 -31.7537
   -31.7422 -31.7390 -31.7344 -31.6953 -31.6942 -31.6597 -31.6368 -31.6209
   -31.6034 -31.6005 -31.1853 -31.0885 -31.0661 -31.0020 -30.9160 -30.8047
   -20.7427 -17.0000 -16.5005 -16.2063 -16.0398 -15.9123 -15.8840 -15.7828
   -15.5919 -15.4575 -15.4404 -15.3661 -15.3318 -15.3250 -15.2943 -15.2842
   -15.2782 -15.2680 -15.2209 -15.1951 -15.1811 -15.1657 -15.1395 -15.0877
   -15.0403 -14.9687 -14.9208 -14.8810 -14.8613 -14.7622 -14.7434 -13.9456
   -13.2762 -13.1580  -6.5488  -5.5898  -4.9827  -4.5201  -3.8642  -3.6879
    -3.6707  -3.6522  -3.5689  -3.5137  -3.3263  -3.3097  -3.0101  -2.9348
    -2.9049  -2.9011  -2.8865  -2.7085  -2.6484  -2.6002  -2.5904  -2.5742
    -2.5722  -2.5486  -2.5286  -2.5182  -2.4896  -2.4698  -2.4613  -2.3224
    -2.2953  -2.1775  -2.1582  -2.1467  -2.0870  -2.0643  -2.0306  -2.0101
    -2.0044  -1.9871  -1.9651  -1.9303  -1.8453  -1.8206  -1.6965  -1.5909
    -1.5537  -1.4608  -1.3122  -1.2438  -1.2219  -1.1919  -1.1641  -1.1483
    -1.1018  -1.0768  -1.0254  -0.9616  -0.9569  -0.8526  -0.7795  -0.7419
    -0.6641  -0.6439  -0.6265  -0.5058  -0.4878  -0.4758  -0.3024  -0.2443
    -0.2314  -0.2203  -0.0993  -0.0561  -0.0223  -0.0087   0.0207   0.0508
     0.0969   0.1394   0.1973   0.2226   0.2346   0.2417   0.2641   0.2917
     0.4006   0.4226   0.4413   0.5518   0.5709   0.7602   0.7681   0.8851
     0.9853   1.1529   1.2489   1.3201   1.4199   1.7203   1.8377   1.8981
     3.4246   3.4563   3.4871   3.5046   3.5756   3.6988   3.8050   3.8634
     3.8835   3.9049

[...]

          k = 0.0380-0.0419 0.0000 ( 17876 PWs)   bands (ev):

[...]

          k =-0.0760-0.0000 0.0000 ( 17886 PWs)   bands (ev):

[...]

          k =-0.0760-0.0839 0.0000 ( 17948 PWs)   bands (ev):

   -55.7541 -55.7390 -55.7376 -55.7295 -55.6691 -55.6463 -55.6138 -55.6015
   -55.5973 -55.5833 -55.5351 -55.4988 -55.4972 -55.4170 -54.7591 -54.7580
   -32.1208 -32.1144 -32.0989 -32.0563 -32.0462 -32.0406 -32.0233 -32.0222
   -32.0151 -31.9790 -31.9552 -31.9458 -31.9438 -31.9102 -31.9054 -31.8966
   -31.8859 -31.8806 -31.8803 -31.8705 -31.8692 -31.8598 -31.8544 -31.8476
   -31.8443 -31.8224 -31.8177 -31.8135 -31.8061 -31.8057 -31.8022 -31.7833
   -31.7767 -31.7580 -31.7554 -31.7493 -31.7333 -31.7170 -31.7040 -31.6969
   -31.6452 -31.6099 -31.0794 -31.0781 -30.9987 -30.9978 -30.9595 -30.9585
   -20.7425 -16.9345 -15.9423 -15.9343 -15.6921 -15.6851 -15.6809 -15.6102
   -15.5275 -15.5029 -15.4840 -15.4785 -15.4297 -15.4154 -15.4054 -15.3416
   -15.3041 -15.2976 -15.2665 -15.2605 -15.2107 -15.2074 -15.1646 -15.1391
   -15.1200 -15.1146 -15.0905 -15.0865 -15.0478 -14.9861 -14.9175 -13.9455
   -13.2605 -13.2581  -6.5430  -5.5922  -4.9210  -4.5188  -3.5133  -3.2343
    -3.2237  -2.9582  -2.9090  -2.8957  -2.8151  -2.7535  -2.6860  -2.6457
    -2.6188  -2.6092  -2.6007  -2.5870  -2.5834  -2.5688  -2.5651  -2.5443
    -2.5288  -2.5167  -2.4629  -2.4344  -2.4128  -2.3931  -2.3841  -2.3755
    -2.3379  -2.3199  -2.3080  -2.2921  -2.2878  -2.2067  -2.0617  -2.0176
    -1.9195  -1.9004  -1.8902  -1.8484  -1.8265  -1.8097  -1.7950  -1.7451
    -1.7291  -1.5625  -1.4919  -1.4746  -1.4564  -1.4269  -1.3673  -1.2811
    -1.2470  -1.1716  -1.1707  -1.1259  -1.0654  -0.9905  -0.9680  -0.9294
    -0.8695  -0.8325  -0.7740  -0.7431  -0.7228  -0.7120  -0.6622  -0.6061
    -0.5677  -0.5069  -0.4804  -0.4181  -0.3804  -0.3417  -0.2823  -0.2587
    -0.2224  -0.1139  -0.0068   0.1295   0.1916   0.2678   0.2848   0.3037
     0.3291   0.4452   0.4777   0.5054   0.5473   0.6339   0.6908   0.7582
     0.7783   0.8062   0.8622   1.6094   1.6106   1.6998   1.7105   1.7237
     3.6219   3.6582   3.6769   3.7248   3.8835   3.8881   3.9065   3.9144
     3.9664   4.0463

     the Fermi energy is     3.3906 ev

!    total energy              =   -2971.53803771 Ry
     estimated scf accuracy    <       0.00000003 Ry
     smearing contrib. (-TS)   =      -0.02329608 Ry
     internal energy E=F+TS    =   -2971.51474163 Ry

     The total energy is F=E-TS. E is the sum of the following terms:
     one-electron contribution =  -22751.45543650 Ry
     hartree contribution      =   11466.80128616 Ry
     xc contribution           =    -492.33145800 Ry
     ewald contribution        =    8805.47049992 Ry
     electric field correction =       0.00036679 Ry

     convergence has been achieved in  65 iterations

     Forces acting on atoms (cartesian axes, Ry/au):

     atom    1 type  1   force =    -0.00064165    0.00095889    0.00073921
     atom    2 type  2   force =    -0.00046386    0.00082886   -0.00061037
     atom    3 type  2   force =    -0.00145056   -0.00070647   -0.00051588
     atom    4 type  2   force =     0.00081636   -0.00050158   -0.00026245
     atom    5 type  3   force =     0.00033766   -0.00680804   -0.03340584
     atom    6 type  3   force =    -0.00002483    0.00055664    0.04531084
     atom    7 type  3   force =    -0.02046955    0.00053300    0.00454197
     atom    8 type  3   force =     0.01815095   -0.00159844    0.00416584
     atom    9 type  3   force =     0.00012974    0.00072798   -0.00008912
     atom   10 type  3   force =    -0.00005234    0.00045666    0.00020447
     atom   11 type  3   force =    -0.00003262   -0.00021605   -0.00029857
     atom   12 type  3   force =    -0.00015109    0.00047862   -0.00015633
     atom   13 type  3   force =     0.00030009    0.00016497   -0.00019199
     atom   14 type  3   force =     0.00035718    0.00060330   -0.00005749
     atom   15 type  3   force =    -0.00022614   -0.00013723    0.00033561
     atom   16 type  3   force =     0.00026407   -0.00010418    0.00007769
     atom   17 type  3   force =     0.00003276    0.00006265    0.10414698
     atom   18 type  3   force =    -0.00011997    0.00011007    0.00060383
     atom   19 type  3   force =    -0.06902363    0.00070864   -0.02968499
     atom   20 type  3   force =     0.06878836    0.00126995   -0.02968375
     atom   21 type  3   force =     0.00038188    0.00381459   -0.02832887
     atom   22 type  3   force =     0.00085388    0.00084293    0.04700411
     atom   23 type  3   force =    -0.01801307    0.00140520    0.00373344
     atom   24 type  3   force =     0.01770014    0.00226744    0.00327018
     atom   25 type  3   force =    -0.00015935   -0.00092087    0.00004595
     atom   26 type  3   force =     0.00016822   -0.00028103    0.00043178
     atom   27 type  3   force =     0.00006131   -0.00039549    0.00025344
     atom   28 type  3   force =     0.00055476   -0.00001651    0.00059957
     atom   29 type  3   force =     0.00008837   -0.00089369    0.00010171
     atom   30 type  3   force =    -0.00019653   -0.00074399    0.00038231
     atom   31 type  3   force =    -0.00036412   -0.00010547    0.00004543
     atom   32 type  3   force =    -0.00005872   -0.00020479   -0.00035801
     atom   33 type  3   force =     0.00004050    0.00003792    0.10421978
     atom   34 type  3   force =    -0.06860404   -0.00136139   -0.02972756
     atom   35 type  3   force =     0.06847806   -0.00098626   -0.02970540
     atom   36 type  3   force =     0.00111692    0.00052857    0.00012694
     atom   37 type  4   force =    -0.00002018   -0.00159378    0.10640515
     atom   38 type  4   force =    -0.00015703    0.00074388   -0.17959531
     atom   39 type  4   force =    -0.00040493    0.00011099   -0.00011366
     atom   40 type  4   force =    -0.00000585    0.00008702   -0.00030507
     atom   41 type  4   force =    -0.00006465    0.00702174   -0.00060333
     atom   42 type  4   force =     0.00000834    0.00004102   -0.00010262
     atom   43 type  4   force =    -0.00014951   -0.00015922   -0.00049176
     atom   44 type  4   force =     0.00056138    0.00048427   -0.00026895
     atom   45 type  4   force =    -0.00000349    0.00122033    0.11837731
     atom   46 type  4   force =    -0.00000585   -0.00033665   -0.17985792
     atom   47 type  4   force =     0.00035111    0.00000792   -0.00024565
     atom   48 type  4   force =    -0.00003588    0.00029075   -0.00013141
     atom   49 type  4   force =     0.00071928   -0.00658528   -0.00007773
     atom   50 type  4   force =    -0.00001257    0.00012722   -0.00044605
     atom   51 type  4   force =     0.00039776   -0.00082356   -0.00014639
     atom   52 type  4   force =     0.00085229   -0.00101003    0.00035400
     atom   53 type  5   force =     0.00067649    0.00130336    0.00004367
     atom   54 type  5   force =    -0.00127581   -0.00130538   -0.00005870

     Total force =     0.376694     Total SCF correction =     0.000319
  @ DRIVER MODE: Message from server: STATUS
  @ DRIVER MODE: Message from server: GETFORCE
  @ DRIVER MODE: Returning v,forces,stress,ensemble

     Writing output data file ./calc.save/
  @ DRIVER MODE: Message from server: EXIT
  @ DRIVE MODE: Exiting

     General routines

     Parallel routines

   This run was terminated on:  17:26:18  14Sep2021

   JOB DONE.