     Program PWSCF v.6.7GPU starts on 16Sep2021 at 11:18: 8

     R & G space division:  proc/nbgrp/npool/nimage =      10
     Reading input from /storage/home/hcoda1/3/ntian30/research/carbon/CxH_vib/H2O_calc/ads_slab/CH3NNH3H2O_a/out_0056/pw.inp
Warning: card &CELL ignored
Warning: card   CELL_DYNAMICS='IPI', ignored
Warning: card / ignored

     Current dimensions of program PWSCF are:
     Max number of different atomic species (ntypx) = 10
     Max number of k-points (npk) =  40000
     Max angular momentum in pseudopotentials (lmaxx) =  3
     Presently no symmetry can be used with electric field

     Message from routine cell_base_init:
     DEPRECATED: use true lattice parameter, not A to a.u. conversion factor

     IMPORTANT: XC functional enforced from input :
     Exchange-correlation= BEEF-VDW
                           (   1   4  43  14   2   0   0)
     Any further DFT definition will be discarded
     Please, verify this is what you really want

  @ DRIVER MODE: Connecting to
 qe_1139763_2852621.sched-torque.pace.gatech.edu68uxo9kf_scratch
  using UNIX socket
  @ DRIVER MODE: Message from server: STATUS
  @ DRIVER MODE: Message from server: INIT
  @ DRIVER MODE: Receiving replica           0          -1
  @ DRIVER MODE: Receiving encoded integer          25
  @ DRIVER MODE:  SCF:  T  FORCE:  T  STRESS:  F  VC:  F  ENSEMBLE:  F
  @ DRIVER MODE:  SCF:  T  FORCE:  T  STRESS:  F  VC:  F  ENSEMBLE:  F

     Using Slab Decomposition

     bravais-lattice index     =            0
     lattice parameter (alat)  =       1.8897  a.u.
     unit-cell volume          =    6658.9804 (a.u.)^3
     number of atoms/cell      =           59
     number of atomic types    =            5
     number of electrons       =       406.00
     number of Kohn-Sham states=          213
     kinetic-energy cutoff     =      29.3995  Ry
     charge density cutoff     =     293.9946  Ry
     scf convergence threshold =      7.3E-08
     mixing beta               =       0.0500
     number of iterations used =            8  plain     mixing
     Exchange-correlation= BEEF-VDW
                           (   1   4  43  14   2   0   0)

     celldm(1)=   1.889726  celldm(2)=   0.000000  celldm(3)=   0.000000
     celldm(4)=   0.000000  celldm(5)=   0.000000  celldm(6)=   0.000000

     crystal axes: (cart. coord. in units of alat)
               a(1) = (   6.579727   0.000000   0.000000 )
               a(2) = (  -0.000775   5.961596   0.000000 )
               a(3) = (   0.000000   0.000000  25.155947 )

     reciprocal axes: (cart. coord. in units 2 pi/alat)
               b(1) = (  0.151982  0.000020  0.000000 )
               b(2) = (  0.000000  0.167740  0.000000 )
               b(3) = (  0.000000  0.000000  0.039752 )

     PseudoPot. # 1 for Ti read from file:
     /storage/coda1/p-amedford6/0/shared/rich_project_chbe-medford/medford-share/data/pseudos_module/espresso/nninc/pbe/van/Ti.UPF
     MD5 check sum: 8e4df49b7f0d34bbd5052bf3f5ea0213
     Pseudo is Ultrasoft, Zval = 12.0
     Generated by new atomic code, or converted to UPF format
     Using radial grid of  851 points,  6 beta functions with:
                l(1) =   0
                l(2) =   0
                l(3) =   1
                l(4) =   1
                l(5) =   2
                l(6) =   2
     Q(r) pseudized with  8 coefficients,  rinner =    1.000   1.000   1.000
                                                       1.000   1.000

     PseudoPot. # 2 for O  read from file:
     /storage/coda1/p-amedford6/0/shared/rich_project_chbe-medford/medford-share/data/pseudos_module/espresso/nninc/pbe/van/O.UPF
     MD5 check sum: 78c19812648e8988a0fe644b0f25305e
     Pseudo is Ultrasoft, Zval =  6.0
     Generated by new atomic code, or converted to UPF format
     Using radial grid of  737 points,  4 beta functions with:
                l(1) =   0
                l(2) =   0
                l(3) =   1
                l(4) =   1
     Q(r) pseudized with  8 coefficients,  rinner =    0.800   0.800   0.800

     PseudoPot. # 3 for N  read from file:
     /storage/coda1/p-amedford6/0/shared/rich_project_chbe-medford/medford-share/data/pseudos_module/espresso/nninc/pbe/van/N.UPF
     MD5 check sum: 90d10febe142ad51ac9d5be1deb811c4
     Pseudo is Ultrasoft, Zval =  5.0
     Generated by new atomic code, or converted to UPF format
     Using radial grid of  729 points,  4 beta functions with:
                l(1) =   0
                l(2) =   0
                l(3) =   1
                l(4) =   1
     Q(r) pseudized with  8 coefficients,  rinner =    0.800   0.800   0.800

     PseudoPot. # 4 for C  read from file:
     /storage/coda1/p-amedford6/0/shared/rich_project_chbe-medford/medford-share/data/pseudos_module/espresso/nninc/pbe/van/C.UPF
     MD5 check sum: 1a69bf6b8db32088f5b2163dbdb77a27
     Pseudo is Ultrasoft, Zval =  4.0
     Generated by new atomic code, or converted to UPF format
     Using radial grid of  721 points,  4 beta functions with:
                l(1) =   0
                l(2) =   0
                l(3) =   1
                l(4) =   1
     Q(r) pseudized with  8 coefficients,  rinner =    0.800   0.800   0.800

     PseudoPot. # 5 for H  read from file:
     /storage/coda1/p-amedford6/0/shared/rich_project_chbe-medford/medford-share/data/pseudos_module/espresso/nninc/pbe/van/H.UPF
     MD5 check sum: b5ee9d7bfd3a09ee7748110bda690ff7
     Pseudo is Ultrasoft, Zval =  1.0
     Generated by new atomic code, or converted to UPF format
     Using radial grid of  615 points,  1 beta functions with:
                l(1) =   0
     Q(r) pseudized with  8 coefficients,  rinner =    0.800

     atomic species   valence    mass     pseudopotential
        Ti1           12.00    47.86700     Ti( 1.00)
        O1             6.00    15.99900     O ( 1.00)
        N1             5.00    14.00700     N ( 1.00)
        C1             4.00    12.01100     C ( 1.00)
        H1             1.00     1.00800     H ( 1.00)

     No symmetry found

   Cartesian axes

     site n.     atom                  positions (alat units)
         1           Ti1 tau(   1) = (   0.0004258   2.9801865   6.0000000  )
         2           Ti1 tau(   2) = (   3.2906075   1.4906267   6.0002472  )
         3           O1  tau(   3) = (   0.0006271   0.0005054   7.9858123  )
         4           O1  tau(   4) = (   3.2906025   0.0005020   7.3038282  )
         5           O1  tau(   5) = (   4.5942328   1.4918067   9.2879030  )
         6           O1  tau(   6) = (   1.9868534   1.4903216   9.2879459  )
         7           Ti1 tau(   7) = (   3.2907910   2.8959150   9.1758416  )
         8           Ti1 tau(   8) = (   0.0015273   1.4827037   9.2680791  )
         9           O1  tau(   9) = (   3.2954490   0.0159868  11.2922163  )
        10           O1  tau(  10) = (   0.0116148   5.9584955  10.6183126  )
        11           O1  tau(  11) = (   1.3242731   1.5050266  12.6143764  )
        12           O1  tau(  12) = (   5.3073597   1.5103589  12.6267567  )
        13           Ti1 tau(  13) = (   6.4831477   3.0011104  12.7364612  )
        14           Ti1 tau(  14) = (   3.1751638   1.4975352  12.4748964  )
        15           O1  tau(  15) = (   0.0212859   5.9607631  14.5987152  )
        16           O1  tau(  16) = (   3.3058086   0.0238703  13.8910224  )
        17           O1  tau(  17) = (   4.5539421   1.5574750  15.9960573  )
        18           O1  tau(  18) = (   2.0731809   1.5597727  15.9888445  )
        19           Ti1 tau(  19) = (   3.3176354   3.0289328  15.6523405  )
        20           Ti1 tau(  20) = (   0.0198791   1.6227889  16.0606591  )
        21           O1  tau(  21) = (   3.2904802   0.0005063   4.7018136  )
        22           O1  tau(  22) = (   0.0290054   0.0533443  17.2129705  )
        23           O1  tau(  23) = (   1.3043587   1.4918075   6.0039043  )
        24           O1  tau(  24) = (   5.2767064   1.4903225   6.0039473  )
        25           Ti1 tau(  25) = (   0.0000382   5.9609847   6.0000000  )
        26           Ti1 tau(  26) = (   3.2902200   4.4714249   6.0002472  )
        27           O1  tau(  27) = (   0.0002396   2.9813036   7.9858123  )
        28           O1  tau(  28) = (   3.2902150   2.9813002   7.3038282  )
        29           O1  tau(  29) = (   4.5938453   4.4726049   9.2879030  )
        30           O1  tau(  30) = (   1.9864658   4.4711199   9.2879459  )
        31           Ti1 tau(  31) = (   3.2891106   5.8743827   9.1763621  )
        32           Ti1 tau(  32) = (   0.0006254   4.4649316   9.2693709  )
        33           O1  tau(  33) = (   3.2918316   2.9938763  11.2915017  )
        34           O1  tau(  34) = (   0.0092240   2.9805883  10.6323155  )
        35           O1  tau(  35) = (   1.3226278   4.4784642  12.6110361  )
        36           O1  tau(  36) = (   5.3078083   4.4770455  12.6250823  )
        37           Ti1 tau(  37) = (   6.5141033   0.0190828  12.7620745  )
        38           Ti1 tau(  38) = (   3.1722404   4.4939287  12.4712879  )
        39           O1  tau(  39) = (   0.0035410   2.9850241  14.6487316  )
        40           O1  tau(  40) = (   3.3118331   3.0109266  13.8519036  )
        41           O1  tau(  41) = (   4.5522870   4.5059159  16.0259181  )
        42           O1  tau(  42) = (   2.0778134   4.5048723  16.0185459  )
        43           Ti1 tau(  43) = (   3.3116469   0.0596163  15.7453941  )
        44           Ti1 tau(  44) = (   0.0183239   4.5967015  16.1059876  )
        45           O1  tau(  45) = (   3.2900926   2.9813045   4.7018136  )
        46           O1  tau(  46) = (   1.3039711   4.4726057   6.0039043  )
        47           O1  tau(  47) = (   5.2763189   4.4711207   6.0039473  )
        48           N1  tau(  48) = (   0.0600715   3.0265251  17.3188267  )
        49           N1  tau(  49) = (   6.2826239   2.5295367  22.6224490  )
        50           C1  tau(  50) = (   0.2859397   3.0149959  18.7399364  )
        51           H1  tau(  51) = (   0.1411154   4.0060466  19.1894648  )
        52           H1  tau(  52) = (   6.1913215   2.3105648  19.2421896  )
        53           H1  tau(  53) = (   1.3125146   2.6868920  18.9691123  )
        54           H1  tau(  54) = (   6.1000088   3.2491606  23.3142794  )
        55           H1  tau(  55) = (   0.1456284   1.7586669  23.1118534  )
        56           H1  tau(  56) = (   0.3974265   2.9048463  21.9856970  )
        57           O1  tau(  57) = (   3.3008421   0.1144680  18.1630233  )
        58           H1  tau(  58) = (   4.0679411   5.5688996  18.4486002  )
        59           H1  tau(  59) = (   2.5060966   5.5711546  18.4327789  )

     number of k points=    10  Fermi-Dirac smearing, width (Ry)=  0.0073
                       cart. coord. in units 2pi/alat
        k(    1) = (   0.0000000   0.0000000   0.0000000), wk =   0.1250000
        k(    2) = (   0.0000000   0.0419351   0.0000000), wk =   0.2500000
        k(    3) = (   0.0000000  -0.0838702   0.0000000), wk =   0.1250000
        k(    4) = (   0.0379955   0.0000049   0.0000000), wk =   0.2500000
        k(    5) = (   0.0379955   0.0419400   0.0000000), wk =   0.2500000
        k(    6) = (   0.0379955  -0.0838652   0.0000000), wk =   0.2500000
        k(    7) = (   0.0379955  -0.0419301   0.0000000), wk =   0.2500000
        k(    8) = (  -0.0759910  -0.0000099   0.0000000), wk =   0.1250000
        k(    9) = (  -0.0759910   0.0419252   0.0000000), wk =   0.2500000
        k(   10) = (  -0.0759910  -0.0838800   0.0000000), wk =   0.1250000

     Initial potential from superposition of free atoms

     starting charge  389.99912, renormalised to  406.00000

     negative rho (up, down):  6.916E-03 0.000E+00

     %%%%%%%%%%%%%%%%%%%%%%%%%%%%%%%%%%%%%%%%%%%%%%%%%%%%%%%%%%%%%%%%%%%%%%%%
     %                                                                      %
     % You are using vdW-DF, which was implemented by the Thonhauser group. %
     % Please cite the following two papers that made this development      %
     % possible and the two reviews that describe the various versions:     %
     %                                                                      %
     %   T. Thonhauser et al., PRL 115, 136402 (2015).                      %
     %   T. Thonhauser et al., PRB 76, 125112 (2007).                       %
     %   K. Berland et al., Rep. Prog. Phys. 78, 066501 (2015).             %
     %   D.C. Langreth et al., J. Phys.: Condens. Matter 21, 084203 (2009). %
     %                                                                      %
     %                                                                      %
     % If you are calculating the stress with vdW-DF, please also cite:     %
     %                                                                      %
     %   R. Sabatini et al., J. Phys.: Condens. Matter 24, 424209 (2012).   %
     %                                                                      %
     %%%%%%%%%%%%%%%%%%%%%%%%%%%%%%%%%%%%%%%%%%%%%%%%%%%%%%%%%%%%%%%%%%%%%%%%

     Adding external electric field

     Computed dipole along edir(3) :
        Dipole              -16.2336 Ry au,        -41.2616 Debye
        Dipole field         -0.0306 Ry au,

        Potential amp.        2.8398 Ry
        Total length         46.3494 bohr

     Starting wfcs are  308 atomic wfcs
  @ DRIVER MODE: Message from server: STATUS
  @ DRIVER MODE: Message from server: POSDATA
  @ DRIVER MODE: Reading and sharing cell
  @ DRIVER MODE: Reading and sharing positions
  @ DRIVER MODE: Received positions

     Self-consistent Calculation

     iteration #  1     ecut=    29.40 Ry     beta= 0.05
     Davidson diagonalization with overlap
     c_bands:  2 eigenvalues not converged
     c_bands:  3 eigenvalues not converged
     c_bands:  5 eigenvalues not converged
     c_bands:  3 eigenvalues not converged
     c_bands:  4 eigenvalues not converged
     c_bands:  3 eigenvalues not converged
     c_bands:  1 eigenvalues not converged
     c_bands:  5 eigenvalues not converged
     c_bands:  3 eigenvalues not converged
     ethr =  1.00E-05,  avg # of iterations = 20.6

[...]

     total energy              =   -2253.49845119 Ry
     estimated scf accuracy    <    8262.67103829 Ry

     iteration #  2     ecut=    29.40 Ry     beta= 0.05
     Davidson diagonalization with overlap
     ethr =  1.00E-02,  avg # of iterations = 26.3

[...]

     iteration # 44     ecut=    29.40 Ry     beta= 0.05
     Davidson diagonalization with overlap
     c_bands:  1 eigenvalues not converged
     ethr =  1.55E-06,  avg # of iterations =  9.1

[...]

     total energy              =   -2977.74419017 Ry
     estimated scf accuracy    <       0.00000011 Ry

     iteration # 81     ecut=    29.40 Ry     beta= 0.05
     Davidson diagonalization with overlap
     ethr =  2.59E-11,  avg # of iterations =  5.0

     negative rho (up, down):  8.782E-03 0.000E+00

     Adding external electric field

     Computed dipole along edir(3) :
        Dipole                0.7641 Ry au,          1.9420 Debye
        Dipole field          0.0014 Ry au,

        Potential amp.       -0.1337 Ry
        Total length         46.3494 bohr

     End of self-consistent calculation

          k = 0.0000 0.0000 0.0000 ( 18029 PWs)   bands (ev):

   -56.2619 -56.2283 -55.3790 -55.3450 -55.3368 -55.3019 -55.1541 -55.1188
   -55.0321 -54.9118 -54.8933 -54.8920 -54.8779 -54.8069 -54.3908 -54.3413
   -32.6887 -32.5363 -32.5082 -32.4383 -32.3473 -32.3148 -31.8468 -31.8191
   -31.6895 -31.6448 -31.5960 -31.5781 -31.5479 -31.5389 -31.5098 -31.5048
   -31.4863 -31.4799 -31.4577 -31.4433 -31.4301 -31.3807 -31.3705 -31.3318
   -31.3193 -31.3027 -31.2938 -31.2804 -31.2564 -31.2554 -31.2513 -31.2271
   -31.1322 -31.1217 -31.0818 -31.0712 -31.0439 -31.0386 -31.0297 -31.0111
   -30.9804 -30.9277 -30.9055 -30.6344 -30.6122 -30.5812 -30.5604 -30.4515
   -18.4465 -16.4176 -15.9515 -15.7081 -15.6185 -15.5354 -15.4965 -15.4525
   -15.3004 -15.2330 -15.2103 -15.2100 -15.1393 -14.9911 -14.9439 -14.8460
   -14.7522 -14.6174 -14.6004 -14.5671 -14.5491 -14.5165 -14.5093 -14.4577
   -14.2943 -14.2586 -14.2105 -14.1474 -14.0621 -14.0406 -13.8371 -13.4099
   -13.3002 -12.6438  -7.4500  -6.2351  -4.1066  -4.0861  -3.9850  -3.4512
    -3.1819  -3.1542  -3.0257  -3.0210  -2.9757  -2.8356  -2.8277  -2.7543
    -2.7305  -2.6934  -2.6170  -2.5843  -2.5349  -2.4455  -2.4329  -2.4129
    -2.3995  -2.3838  -2.2622  -2.2207  -2.1686  -2.0648  -1.9567  -1.9136
    -1.8865  -1.8428  -1.8047  -1.7575  -1.7454  -1.7305  -1.7239  -1.6127
    -1.4985  -1.4656  -1.4507  -1.4046  -1.3863  -1.3775  -1.3557  -1.2705
    -1.1608  -1.0673  -1.0000  -0.9878  -0.9203  -0.9124  -0.8532  -0.7374
    -0.6766  -0.6722  -0.6559  -0.5525  -0.5259  -0.4546  -0.3915  -0.3337
    -0.2790  -0.2162  -0.1661  -0.1434  -0.1306  -0.0317   0.0399   0.0634
     0.1145   0.1239   0.1328   0.1536   0.2501   0.2860   0.3598   0.4041
     0.4404   0.4851   0.5678   0.6181   0.6857   0.7355   0.7584   0.8199
     0.8734   0.9290   1.0242   1.0725   1.0785   1.0870   1.1101   1.1702
     1.1840   1.2602   1.3433   1.3586   1.4310   1.4994   1.6602   1.6993
     1.9492   2.0206   2.6471   3.0153   3.1766   3.4718   3.6616   3.7990
     3.9945   4.0050   4.0121   4.2380   4.2617

[...]

          k = 0.0380-0.0419 0.0000 ( 17876 PWs)   bands (ev):

[...]

          k =-0.0760-0.0000 0.0000 ( 17886 PWs)   bands (ev):

[...]

          k =-0.0760-0.0839 0.0000 ( 17948 PWs)   bands (ev):

   -56.2453 -56.2448 -55.3640 -55.3596 -55.3243 -55.3146 -55.1375 -55.1353
   -55.0298 -54.8948 -54.8946 -54.8941 -54.8896 -54.8105 -54.3837 -54.3483
   -32.5222 -32.5218 -32.5057 -32.5054 -32.3915 -32.3910 -31.6705 -31.6646
   -31.6549 -31.6474 -31.5711 -31.5560 -31.5540 -31.5497 -31.5435 -31.5419
   -31.5362 -31.5275 -31.4956 -31.4791 -31.3831 -31.3810 -31.3473 -31.3416
   -31.3223 -31.2861 -31.2479 -31.2402 -31.2400 -31.2393 -31.2148 -31.1929
   -31.1499 -31.1196 -31.1194 -31.1158 -31.0931 -31.0804 -31.0803 -31.0655
   -31.0487 -31.0133 -30.7662 -30.7036 -30.6100 -30.5857 -30.5683 -30.5221
   -18.4456 -15.7682 -15.7662 -15.7311 -15.7303 -15.4634 -15.4601 -15.3667
   -15.3614 -15.2269 -15.1100 -15.0084 -14.9956 -14.9601 -14.9330 -14.8210
   -14.8001 -14.7911 -14.7809 -14.6692 -14.6491 -14.6039 -14.5927 -14.5764
   -14.5665 -14.2724 -14.2593 -14.1563 -14.1325 -14.0398 -13.9902 -13.4040
   -13.4036 -12.6624  -7.4436  -6.2276  -4.1166  -4.0879  -2.8647  -2.8576
    -2.8212  -2.8031  -2.8023  -2.7441  -2.6379  -2.5984  -2.5964  -2.5951
    -2.5141  -2.4466  -2.4387  -2.3673  -2.3344  -2.3151  -2.2570  -2.2462
    -2.1809  -2.1546  -2.1464  -2.1298  -2.1063  -2.1050  -2.0090  -1.9463
    -1.8944  -1.8910  -1.8237  -1.8054  -1.7415  -1.7208  -1.7092  -1.6775
    -1.6359  -1.6130  -1.5814  -1.5474  -1.5065  -1.4468  -1.2802  -1.2712
    -1.2618  -1.2402  -1.1150  -1.1083  -1.0770  -1.0469  -1.0411  -0.9673
    -0.9175  -0.8824  -0.8249  -0.7415  -0.7191  -0.6170  -0.5661  -0.5199
    -0.4638  -0.3575  -0.3401  -0.3293  -0.3204  -0.2899  -0.2236  -0.1934
    -0.1791  -0.0582  -0.0384   0.0138   0.0355   0.0920   0.1180   0.1826
     0.2098   0.2810   0.2931   0.3322   0.4060   0.4872   0.5215   0.5697
     0.5744   0.8505   0.9243   1.0544   1.0633   1.1223   1.1810   1.2522
     1.3122   1.3441   1.3712   1.4944   1.4986   1.5080   1.5084   1.5798
     1.5849   1.9269   2.5243   3.5912   3.5915   3.6580   3.6587   3.9794
     3.9856   4.0926   4.1029   4.2637   4.2787

     the Fermi energy is     2.8432 ev

!    total energy              =   -2977.74420374 Ry
     estimated scf accuracy    <       0.00000005 Ry
     smearing contrib. (-TS)   =      -0.00445468 Ry
     internal energy E=F+TS    =   -2977.73974906 Ry

     The total energy is F=E-TS. E is the sum of the following terms:
     one-electron contribution =  -22875.94710814 Ry
     hartree contribution      =   11535.68698380 Ry
     xc contribution           =    -496.32674109 Ry
     ewald contribution        =    8858.84601470 Ry
     electric field correction =       0.00110168 Ry

     convergence has been achieved in  81 iterations

     Forces acting on atoms (cartesian axes, Ry/au):

     atom    1 type  1   force =    -0.00003258   -0.00046522    0.12449824
     atom    2 type  1   force =    -0.00008974   -0.00047053   -0.15981485
     atom    3 type  2   force =     0.00019123   -0.00024412   -0.06791270
     atom    4 type  2   force =    -0.00000656   -0.00011846    0.02622482
     atom    5 type  2   force =    -0.01447993    0.00182095   -0.00990507
     atom    6 type  2   force =     0.01625926    0.00224429   -0.01024868
     atom    7 type  1   force =     0.00070709   -0.00387840    0.02890324
     atom    8 type  1   force =    -0.00034220   -0.00439915    0.10954825
     atom    9 type  2   force =     0.00023276   -0.00029203   -0.00051592
     atom   10 type  2   force =    -0.00231292    0.00256402   -0.07335332
     atom   11 type  2   force =    -0.00001893   -0.00033338   -0.00000489
     atom   12 type  2   force =    -0.00016154   -0.00082384    0.00001838
     atom   13 type  1   force =     0.00106607   -0.00040247    0.00012343
     atom   14 type  1   force =    -0.00064778    0.00064584   -0.00010792
     atom   15 type  2   force =    -0.00027944   -0.00039753   -0.00073858
     atom   16 type  2   force =    -0.00001812   -0.00011146    0.00067396
     atom   17 type  2   force =     0.00019248   -0.00076932   -0.00041583
     atom   18 type  2   force =     0.00053287   -0.00066833    0.00033284
     atom   19 type  1   force =    -0.00094650   -0.00009070   -0.00097957
     atom   20 type  1   force =     0.00069803   -0.00013779   -0.00046410
     atom   21 type  2   force =     0.00004638   -0.00003715    0.09943067
     atom   22 type  2   force =     0.00015302   -0.00024171   -0.00037904
     atom   23 type  2   force =    -0.07968489   -0.00005410   -0.03250131
     atom   24 type  2   force =     0.07952667    0.00038498   -0.03255055
     atom   25 type  1   force =    -0.00000290   -0.00057644    0.12415240
     atom   26 type  1   force =    -0.00008760   -0.00063650   -0.15996659
     atom   27 type  2   force =     0.00030071   -0.00036259   -0.06696692
     atom   28 type  2   force =    -0.00002090    0.00015098    0.02513601
     atom   29 type  2   force =    -0.01510372    0.00192663   -0.00984267
     atom   30 type  2   force =     0.01677992    0.00242672   -0.01015496
     atom   31 type  1   force =     0.00073491   -0.00075942    0.02408220
     atom   32 type  1   force =    -0.00027151    0.00204625    0.11016474
     atom   33 type  2   force =     0.00007175    0.00029314    0.00058817
     atom   34 type  2   force =    -0.00193547    0.00199993   -0.07166724
     atom   35 type  2   force =    -0.00001381    0.00034238   -0.00001712
     atom   36 type  2   force =    -0.00054066    0.00060986   -0.00005850
     atom   37 type  1   force =     0.00120619    0.00043103    0.00030666
     atom   38 type  1   force =    -0.00054479   -0.00088422   -0.00022698
     atom   39 type  2   force =    -0.00024671   -0.00013727    0.00088875
     atom   40 type  2   force =     0.00016294   -0.00012784    0.00025308
     atom   41 type  2   force =     0.00105907    0.00001579   -0.00001203
     atom   42 type  2   force =    -0.00047992   -0.00009699    0.00071595
     atom   43 type  1   force =    -0.00121633    0.00001112   -0.00028999
     atom   44 type  1   force =     0.00078823   -0.00013841   -0.00040033
     atom   45 type  2   force =     0.00002204   -0.00004786    0.09943408
     atom   46 type  2   force =    -0.07969867    0.00000008   -0.03251534
     atom   47 type  2   force =     0.07954907    0.00043448   -0.03253913
     atom   48 type  3   force =    -0.00085099   -0.00077318   -0.00042518
     atom   49 type  3   force =    -0.00033881   -0.00048472    0.00131431
     atom   50 type  4   force =    -0.00027122   -0.00011356    0.00004149
     atom   51 type  5   force =    -0.00020971    0.00037948    0.00028098
     atom   52 type  5   force =    -0.00006606   -0.00053199    0.00072490
     atom   53 type  5   force =     0.00052683   -0.00014156    0.00021054
     atom   54 type  5   force =     0.00006491   -0.00023271   -0.00059339
     atom   55 type  5   force =     0.00003089    0.00031462   -0.00029327
     atom   56 type  5   force =     0.00028795    0.00036399   -0.00182071
     atom   57 type  2   force =    -0.02428091    0.00002290   -0.00086642
     atom   58 type  5   force =     0.01235489   -0.00753203    0.00461674
     atom   59 type  5   force =     0.01165570    0.00808351   -0.00411568

     Total force =     0.424762     Total SCF correction =     0.000569
  @ DRIVER MODE: Message from server: STATUS
  @ DRIVER MODE: Message from server: GETFORCE
  @ DRIVER MODE: Returning v,forces,stress,ensemble

     Writing output data file ./calc.save/
  @ DRIVER MODE: Message from server: EXIT
  @ DRIVE MODE: Exiting

     General routines

     Parallel routines

   This run was terminated on:  11:39:43  16Sep2021

   JOB DONE.