     Program PWSCF v.6.7GPU starts on 19Oct2021 at  1: 7: 4

     R & G space division:  proc/nbgrp/npool/nimage =       8
     Reading input from /storage/home/hcoda1/3/ntian30/research/carbon/CxH_vib/Thiel_calc/ads_slab/NH2HNH_perslab/out_0029/pw.inp
Warning: card &CELL ignored
Warning: card   CELL_DYNAMICS='IPI', ignored
Warning: card / ignored

     Current dimensions of program PWSCF are:
     Max number of different atomic species (ntypx) = 10
     Max number of k-points (npk) =  40000
     Max angular momentum in pseudopotentials (lmaxx) =  3
     Presently no symmetry can be used with electric field

     Message from routine cell_base_init:
     DEPRECATED: use true lattice parameter, not A to a.u. conversion factor

     IMPORTANT: XC functional enforced from input :
     Exchange-correlation= BEEF-VDW
                           (   1   4  43  14   2   0   0)
     Any further DFT definition will be discarded
     Please, verify this is what you really want

  @ DRIVER MODE: Connecting to
 qe_1139763_3255135.sched-torque.pace.gatech.eduop5h93vb_scratch
  using UNIX socket
  @ DRIVER MODE: Message from server: STATUS
  @ DRIVER MODE: Message from server: INIT
  @ DRIVER MODE: Receiving replica           0          -1
  @ DRIVER MODE: Receiving encoded integer          25
  @ DRIVER MODE:  SCF:  T  FORCE:  T  STRESS:  F  VC:  F  ENSEMBLE:  F
  @ DRIVER MODE:  SCF:  T  FORCE:  T  STRESS:  F  VC:  F  ENSEMBLE:  F

     Using Slab Decomposition

     bravais-lattice index     =            0
     lattice parameter (alat)  =       1.8897  a.u.
     unit-cell volume          =    9988.4706 (a.u.)^3
     number of atoms/cell      =           59
     number of atomic types    =            4
     number of electrons       =       440.00
     number of Kohn-Sham states=          230
     kinetic-energy cutoff     =      29.3995  Ry
     charge density cutoff     =     293.9946  Ry
     scf convergence threshold =      7.3E-08
     mixing beta               =       0.0500
     number of iterations used =            8  plain     mixing
     Exchange-correlation= BEEF-VDW
                           (   1   4  43  14   2   0   0)

     celldm(1)=   1.889726  celldm(2)=   0.000000  celldm(3)=   0.000000
     celldm(4)=   0.000000  celldm(5)=   0.000000  celldm(6)=   0.000000

     crystal axes: (cart. coord. in units of alat)
               a(1) = (   6.579727   0.000000   0.000000 )
               a(2) = (  -0.001163   8.942395   0.000000 )
               a(3) = (   0.000000   0.000000  25.155947 )

     reciprocal axes: (cart. coord. in units 2 pi/alat)
               b(1) = (  0.151982  0.000020  0.000000 )
               b(2) = (  0.000000  0.111827  0.000000 )
               b(3) = (  0.000000  0.000000  0.039752 )

     PseudoPot. # 1 for O  read from file:
     /storage/coda1/p-amedford6/0/shared/rich_project_chbe-medford/medford-share/data/pseudos_module/espresso/nninc/pbe/van/O.UPF
     MD5 check sum: 78c19812648e8988a0fe644b0f25305e
     Pseudo is Ultrasoft, Zval =  6.0
     Generated by new atomic code, or converted to UPF format
     Using radial grid of  737 points,  4 beta functions with:
                l(1) =   0
                l(2) =   0
                l(3) =   1
                l(4) =   1
     Q(r) pseudized with  8 coefficients,  rinner =    0.800   0.800   0.800

     PseudoPot. # 2 for Ti read from file:
     /storage/coda1/p-amedford6/0/shared/rich_project_chbe-medford/medford-share/data/pseudos_module/espresso/nninc/pbe/van/Ti.UPF
     MD5 check sum: 8e4df49b7f0d34bbd5052bf3f5ea0213
     Pseudo is Ultrasoft, Zval = 12.0
     Generated by new atomic code, or converted to UPF format
     Using radial grid of  851 points,  6 beta functions with:
                l(1) =   0
                l(2) =   0
                l(3) =   1
                l(4) =   1
                l(5) =   2
                l(6) =   2
     Q(r) pseudized with  8 coefficients,  rinner =    1.000   1.000   1.000
                                                       1.000   1.000

     PseudoPot. # 3 for H  read from file:
     /storage/coda1/p-amedford6/0/shared/rich_project_chbe-medford/medford-share/data/pseudos_module/espresso/nninc/pbe/van/H.UPF
     MD5 check sum: b5ee9d7bfd3a09ee7748110bda690ff7
     Pseudo is Ultrasoft, Zval =  1.0
     Generated by new atomic code, or converted to UPF format
     Using radial grid of  615 points,  1 beta functions with:
                l(1) =   0
     Q(r) pseudized with  8 coefficients,  rinner =    0.800

     PseudoPot. # 4 for N  read from file:
     /storage/coda1/p-amedford6/0/shared/rich_project_chbe-medford/medford-share/data/pseudos_module/espresso/nninc/pbe/van/N.UPF
     MD5 check sum: 90d10febe142ad51ac9d5be1deb811c4
     Pseudo is Ultrasoft, Zval =  5.0
     Generated by new atomic code, or converted to UPF format
     Using radial grid of  729 points,  4 beta functions with:
                l(1) =   0
                l(2) =   0
                l(3) =   1
                l(4) =   1
     Q(r) pseudized with  8 coefficients,  rinner =    0.800   0.800   0.800

     atomic species   valence    mass     pseudopotential
        O1             6.00    15.99900     O ( 1.00)
        Ti1           12.00    47.86700     Ti( 1.00)
        H1             1.00     1.00800     H ( 1.00)
        N1             5.00    14.00700     N ( 1.00)

     No symmetry found

   Cartesian axes

     site n.     atom                  positions (alat units)
         1           O1  tau(   1) = (   0.0007354   0.0005023  10.5931620  )
         2           O1  tau(   2) = (   3.2891522   8.9193323  13.7813865  )
         3           O1  tau(   3) = (  -0.0003195   8.9357148  17.1597790  )
         4           O1  tau(   4) = (   0.0006271   0.0005054   7.9858123  )
         5           O1  tau(   5) = (   3.2896276   8.9330874  11.1456747  )
         6           O1  tau(   6) = (   0.0000757   8.8957392  14.5326415  )
         7           O1  tau(   7) = (   1.9868534   1.4903216   9.2879459  )
         8           O1  tau(   8) = (   5.2085136   1.5567490  12.5272226  )
         9           O1  tau(   9) = (   2.0368910   1.4086519  15.9478609  )
        10           Ti1 tau(  10) = (   0.0007404   1.4906270   9.2895810  )
        11           Ti1 tau(  11) = (   3.2920048   1.2896434  12.4335303  )
        12           Ti1 tau(  12) = (   0.0003947   1.7483972  15.9485354  )
        13           O1  tau(  13) = (   4.5942328   1.4918067   9.2879030  )
        14           O1  tau(  14) = (   1.3734151   1.5562871  12.5269411  )
        15           O1  tau(  15) = (   4.5446063   1.4075665  15.9467422  )
        16           Ti1 tau(  16) = (   3.2902859   2.9801868   9.2893338  )
        17           Ti1 tau(  17) = (   0.0022843   2.7629733  12.5422407  )
        18           Ti1 tau(  18) = (   3.2887740   3.1097933  15.6402895  )
        19           O1  tau(  19) = (   0.0003479   2.9813005  10.5931620  )
        20           O1  tau(  20) = (   3.2903674   2.9527630  13.7969158  )
        21           O1  tau(  21) = (   0.0002396   2.9813036   7.9858123  )
        22           O1  tau(  22) = (   3.2906228   2.9775883  11.1663003  )
        23           O1  tau(  23) = (   0.0006598   2.9368866  14.5305733  )
        24           O1  tau(  24) = (   1.9864658   4.4711199   9.2879459  )
        25           O1  tau(  25) = (   5.2231876   4.5386380  12.5467233  )
        26           O1  tau(  26) = (   2.0248981   4.3679406  15.9930346  )
        27           Ti1 tau(  27) = (   0.0003529   4.4714252   9.2895810  )
        28           Ti1 tau(  28) = (   3.2918124   4.3135021  12.5344809  )
        29           Ti1 tau(  29) = (   6.5788423   4.6929592  16.0739603  )
        30           O1  tau(  30) = (   4.5938453   4.4726049   9.2879030  )
        31           O1  tau(  31) = (   1.3570704   4.5373869  12.5465102  )
        32           O1  tau(  32) = (   4.5538814   4.3671241  15.9936543  )
        33           Ti1 tau(  33) = (   3.2898983   5.9609850   9.2893338  )
        34           Ti1 tau(  34) = (   0.0013264   5.7428985  12.5110789  )
        35           Ti1 tau(  35) = (   3.2898306   6.0937744  16.2866611  )
        36           O1  tau(  36) = (  -0.0000397   5.9620987  10.5931620  )
        37           O1  tau(  37) = (   3.2897329   5.8964334  13.7986068  )
        38           O1  tau(  38) = (  -0.0007474   6.0119579  17.1634496  )
        39           O1  tau(  39) = (  -0.0001480   5.9621018   7.9858123  )
        40           O1  tau(  40) = (   3.2898370   5.9388437  11.1687384  )
        41           O1  tau(  41) = (  -0.0001539   5.9931028  14.5676369  )
        42           O1  tau(  42) = (   1.9860782   7.4519181   9.2879459  )
        43           O1  tau(  43) = (   5.2258842   7.5046952  12.5406166  )
        44           O1  tau(  44) = (   2.0242945   7.4351242  16.0034066  )
        45           Ti1 tau(  45) = (  -0.0000347   7.4522234   9.2895810  )
        46           Ti1 tau(  46) = (   3.2896699   7.1866417  12.6007890  )
        47           Ti1 tau(  47) = (   0.0000787   7.5542351  15.7482610  )
        48           O1  tau(  48) = (   4.5934577   7.4534031   9.2879030  )
        49           O1  tau(  49) = (   1.3527639   7.5038087  12.5404143  )
        50           O1  tau(  50) = (   4.5545665   7.4356877  16.0029592  )
        51           Ti1 tau(  51) = (   3.2895107   8.9417832   9.2893338  )
        52           Ti1 tau(  52) = (  -0.0005703   8.7121504  12.4856418  )
        53           Ti1 tau(  53) = (   3.2909615   0.1005107  15.6284087  )
        54           H1  tau(  54) = (   6.5785809   3.1351568  18.2688824  )
        55           H1  tau(  55) = (   6.5783155   8.7923607  18.1116139  )
        56           N1  tau(  56) = (  -0.0001347   2.9716693  17.2674093  )
        57           N1  tau(  57) = (   3.2897564   5.9921341  18.1800631  )
        58           H1  tau(  58) = (   3.2887465   5.1266479  18.6945293  )
        59           H1  tau(  59) = (   3.2892443   6.7858760  18.8071070  )

     number of k points=    10  Fermi-Dirac smearing, width (Ry)=  0.0073
                       cart. coord. in units 2pi/alat
        k(    1) = (   0.0000000   0.0000000   0.0000000), wk =   0.1250000
        k(    2) = (   0.0000000   0.0279567   0.0000000), wk =   0.2500000
        k(    3) = (   0.0000000  -0.0559134   0.0000000), wk =   0.1250000
        k(    4) = (   0.0379955   0.0000049   0.0000000), wk =   0.2500000
        k(    5) = (   0.0379955   0.0279617   0.0000000), wk =   0.2500000
        k(    6) = (   0.0379955  -0.0559085   0.0000000), wk =   0.2500000
        k(    7) = (   0.0379955  -0.0279518   0.0000000), wk =   0.2500000
        k(    8) = (  -0.0759910  -0.0000099   0.0000000), wk =   0.1250000
        k(    9) = (  -0.0759910   0.0279468   0.0000000), wk =   0.2500000
        k(   10) = (  -0.0759910  -0.0559233   0.0000000), wk =   0.1250000

     Initial potential from superposition of free atoms

     starting charge  421.99910, renormalised to  440.00000

     negative rho (up, down):  3.702E-02 0.000E+00

     %%%%%%%%%%%%%%%%%%%%%%%%%%%%%%%%%%%%%%%%%%%%%%%%%%%%%%%%%%%%%%%%%%%%%%%%
     %                                                                      %
     % You are using vdW-DF, which was implemented by the Thonhauser group. %
     % Please cite the following two papers that made this development      %
     % possible and the two reviews that describe the various versions:     %
     %                                                                      %
     %   T. Thonhauser et al., PRL 115, 136402 (2015).                      %
     %   T. Thonhauser et al., PRB 76, 125112 (2007).                       %
     %   K. Berland et al., Rep. Prog. Phys. 78, 066501 (2015).             %
     %   D.C. Langreth et al., J. Phys.: Condens. Matter 21, 084203 (2009). %
     %                                                                      %
     %                                                                      %
     % If you are calculating the stress with vdW-DF, please also cite:     %
     %                                                                      %
     %   R. Sabatini et al., J. Phys.: Condens. Matter 24, 424209 (2012).   %
     %                                                                      %
     %%%%%%%%%%%%%%%%%%%%%%%%%%%%%%%%%%%%%%%%%%%%%%%%%%%%%%%%%%%%%%%%%%%%%%%%

     Adding external electric field

     Computed dipole along edir(3) :
        Dipole               -3.9416 Ry au,        -10.0186 Debye
        Dipole field         -0.0050 Ry au,

        Potential amp.        0.4597 Ry
        Total length         46.3494 bohr

     Starting wfcs are  332 atomic wfcs
  @ DRIVER MODE: Message from server: STATUS
  @ DRIVER MODE: Message from server: POSDATA
  @ DRIVER MODE: Reading and sharing cell
  @ DRIVER MODE: Reading and sharing positions
  @ DRIVER MODE: Received positions

     Self-consistent Calculation

     iteration #  1     ecut=    29.40 Ry     beta= 0.05
     Davidson diagonalization with overlap
     c_bands:  1 eigenvalues not converged
     c_bands:  2 eigenvalues not converged
     c_bands:  4 eigenvalues not converged
     c_bands:  3 eigenvalues not converged
     c_bands:  2 eigenvalues not converged
     c_bands:  4 eigenvalues not converged
     c_bands:  3 eigenvalues not converged
     c_bands:  2 eigenvalues not converged
     ethr =  1.00E-05,  avg # of iterations = 19.2

[...]

     total energy              =   -3294.67446902 Ry
     estimated scf accuracy    <      19.61970655 Ry

     iteration #  2     ecut=    29.40 Ry     beta= 0.05
     Davidson diagonalization with overlap
     ethr =  4.46E-03,  avg # of iterations =  1.0

[...]

     iteration # 32     ecut=    29.40 Ry     beta= 0.05
     Davidson diagonalization with overlap
     c_bands:  1 eigenvalues not converged
     ethr =  1.86E-06,  avg # of iterations = 11.4

[...]

     total energy              =   -3293.29232316 Ry
     estimated scf accuracy    <       0.00000009 Ry

     iteration # 71     ecut=    29.40 Ry     beta= 0.05
     Davidson diagonalization with overlap
     ethr =  2.13E-11,  avg # of iterations =  5.0

     negative rho (up, down):  3.603E-02 0.000E+00

     Adding external electric field

     Computed dipole along edir(3) :
        Dipole                1.2916 Ry au,          3.2828 Debye
        Dipole field          0.0016 Ry au,

        Potential amp.       -0.1506 Ry
        Total length         46.3494 bohr

     End of self-consistent calculation

          k = 0.0000 0.0000 0.0000 ( 26871 PWs)   bands (ev):

   -58.2976 -58.2737 -58.2699 -58.2104 -58.1620 -57.7940 -57.7740 -57.7578
   -57.6225 -57.5925 -57.5719 -57.5116 -57.4892 -56.8998 -56.8780 -56.8521
   -56.8430 -56.8372 -34.6887 -34.6617 -34.6315 -34.6197 -34.6142 -34.6091
   -34.5462 -34.4828 -34.4728 -34.4101 -34.4061 -34.4032 -34.3893 -34.3590
   -34.3343 -34.1967 -34.1504 -34.1455 -34.1250 -34.0968 -34.0832 -34.0787
   -34.0580 -34.0211 -34.0095 -33.9637 -33.9195 -33.8748 -33.8602 -33.8510
   -33.8344 -33.8276 -33.7807 -33.7577 -33.7486 -33.7437 -33.6970 -33.6889
   -33.6774 -33.3613 -33.2227 -33.2128 -33.2027 -33.1884 -33.1815 -33.1752
   -33.1633 -33.1181 -33.0857 -33.0802 -33.0272 -33.0259 -33.0089 -32.8857
   -18.9131 -18.8273 -18.3721 -18.2966 -18.1750 -18.1198 -18.1135 -18.0482
   -17.9453 -17.7242 -17.6838 -17.6751 -17.6468 -17.5392 -17.5311 -17.5277
   -17.4936 -17.4867 -17.4743 -17.3862 -17.3280 -17.3146 -17.3091 -17.3089
   -17.2001 -17.1756 -17.1236 -17.0576 -17.0455 -16.9496 -16.7651 -16.4319
   -15.3539 -15.3132 -15.3035 -15.1746 -13.6010  -6.9791  -6.6669  -6.1795
    -5.9859  -5.7758  -5.6376  -5.5227  -5.4697  -5.3773  -5.3112  -5.2863
    -5.2689  -5.2288  -5.1949  -5.1682  -5.0654  -5.0555  -4.9743  -4.9200
    -4.8744  -4.8281  -4.7860  -4.7396  -4.7374  -4.6978  -4.6289  -4.6183
    -4.5835  -4.5361  -4.5071  -4.4990  -4.4438  -4.4152  -4.3937  -4.2746
    -4.2599  -4.1924  -4.1803  -4.1730  -4.0685  -4.0616  -4.0182  -3.9815
    -3.9809  -3.9618  -3.9096  -3.8318  -3.8025  -3.6444  -3.6204  -3.6122
    -3.5185  -3.3815  -3.3677  -3.3234  -3.2041  -3.1369  -3.1129  -3.0776
    -3.0575  -3.0401  -3.0165  -3.0054  -2.9721  -2.8775  -2.8765  -2.8153
    -2.8133  -2.7982  -2.7766  -2.7709  -2.7314  -2.6588  -2.5998  -2.5871
    -2.5659  -2.5483  -2.4618  -2.4473  -2.3565  -2.3410  -2.2851  -2.2428
    -2.2368  -2.1712  -2.0964  -2.0887  -2.0245  -2.0002  -1.8264  -1.8013
    -1.7236  -1.7182  -1.6517  -1.6248  -1.6020  -1.5497  -1.4252  -1.3939
    -1.2985  -1.1868  -1.0227  -0.7827  -0.5936  -0.5707  -0.5615  -0.5294
    -0.4359  -0.3828  -0.3669  -0.2718   0.9806   1.1267   1.2796   1.3013
     1.4949   1.6046   1.6172   1.6723   1.7510   1.8496

[...]

          k = 0.0380-0.0280 0.0000 ( 26873 PWs)   bands (ev):

[...]

          k =-0.0760-0.0000 0.0000 ( 26902 PWs)   bands (ev):

[...]

          k =-0.0760-0.0559 0.0000 ( 26868 PWs)   bands (ev):

   -58.2909 -58.2869 -58.2633 -58.2102 -58.1621 -57.7939 -57.7735 -57.7582
   -57.6209 -57.5958 -57.5701 -57.5114 -57.4893 -56.8999 -56.8751 -56.8580
   -56.8429 -56.8341 -34.7140 -34.7102 -34.6639 -34.6394 -34.6064 -34.4982
   -34.4834 -34.4493 -34.4462 -34.4336 -34.4271 -34.4072 -34.3851 -34.3818
   -34.3610 -34.2317 -34.1729 -34.1678 -34.1397 -34.1224 -34.0790 -34.0032
   -33.9992 -33.9990 -33.9650 -33.9280 -33.9211 -33.9070 -33.8990 -33.8741
   -33.8661 -33.8504 -33.7756 -33.7672 -33.7397 -33.7131 -33.7124 -33.6950
   -33.6871 -33.3369 -33.2643 -33.2237 -33.2191 -33.2084 -33.1853 -33.1773
   -33.1250 -33.0811 -33.0726 -33.0537 -33.0312 -32.9967 -32.9902 -32.9732
   -18.8915 -18.6222 -18.4748 -18.2387 -18.1386 -17.9748 -17.8919 -17.8792
   -17.8613 -17.8604 -17.7613 -17.7503 -17.6992 -17.6745 -17.6315 -17.6219
   -17.6096 -17.5726 -17.5663 -17.4530 -17.3622 -17.3533 -17.2579 -17.2430
   -17.2157 -17.1541 -17.1359 -17.0464 -17.0270 -16.9543 -16.7731 -16.4166
   -15.3649 -15.3532 -15.2427 -15.1753 -13.5980  -6.9512  -6.6679  -5.9502
    -5.7553  -5.7210  -5.6704  -5.3500  -5.3126  -5.2281  -5.2025  -5.1635
    -5.1382  -5.1241  -5.0940  -5.0827  -5.0074  -4.9707  -4.9616  -4.9578
    -4.9147  -4.8958  -4.8474  -4.8263  -4.7765  -4.7555  -4.7476  -4.7132
    -4.6694  -4.6504  -4.5762  -4.5709  -4.4975  -4.4580  -4.3191  -4.2351
    -4.2102  -4.1807  -4.0839  -4.0652  -4.0374  -3.9371  -3.9257  -3.9051
    -3.7774  -3.7396  -3.6333  -3.6174  -3.5683  -3.5452  -3.5174  -3.4898
    -3.4254  -3.3833  -3.3672  -3.3616  -3.3281  -3.2597  -3.2295  -3.2131
    -3.1808  -3.1633  -3.1530  -3.1422  -3.0761  -3.0591  -3.0295  -2.9899
    -2.9286  -2.9045  -2.8496  -2.8484  -2.7867  -2.7477  -2.6933  -2.6872
    -2.6152  -2.5930  -2.5865  -2.5789  -2.4784  -2.4524  -2.4445  -2.3032
    -2.1646  -2.1133  -2.0704  -1.9669  -1.9090  -1.9052  -1.8814  -1.8133
    -1.7886  -1.7052  -1.6507  -1.6271  -1.6199  -1.5943  -1.3754  -1.3454
    -1.3337  -1.2906  -1.2266  -1.1323  -0.8129  -0.5945  -0.5802  -0.5000
    -0.4770  -0.4240  -0.4027  -0.3882   1.0297   1.2047   1.2763   1.3696
     1.3703   1.4028   1.4526   1.6185   1.6518   1.7055

     the Fermi energy is     0.3875 ev

!    total energy              =   -3293.29233551 Ry
     estimated scf accuracy    <       0.00000005 Ry
     smearing contrib. (-TS)   =      -0.00047742 Ry
     internal energy E=F+TS    =   -3293.29185809 Ry

     The total energy is F=E-TS. E is the sum of the following terms:
     one-electron contribution =  -34639.47771966 Ry
     hartree contribution      =   17384.01815007 Ry
     xc contribution           =    -542.09094433 Ry
     ewald contribution        =   14504.25655716 Ry
     electric field correction =       0.00209866 Ry

     convergence has been achieved in  71 iterations

     Forces acting on atoms (cartesian axes, Ry/au):

     atom    1 type  1   force =     0.00000885    0.00245261    0.04674730
     atom    2 type  1   force =     0.00000810   -0.00340898   -0.00287096
     atom    3 type  1   force =    -0.00001018    0.00325508   -0.00097785
     atom    4 type  1   force =     0.00005085   -0.00098057    0.10171651
     atom    5 type  1   force =    -0.00000915   -0.00070924    0.00562966
     atom    6 type  1   force =    -0.00001365    0.00366856    0.00081527
     atom    7 type  1   force =     0.07819591    0.00086168   -0.03540533
     atom    8 type  1   force =     0.00833586   -0.02588036    0.00018275
     atom    9 type  1   force =     0.00849419    0.02070430    0.00127770
     atom   10 type  2   force =    -0.00006190    0.00867548   -0.15837252
     atom   11 type  2   force =    -0.00003784    0.02308289   -0.00230433
     atom   12 type  2   force =     0.00005467   -0.02563692   -0.00430672
     atom   13 type  1   force =    -0.07828904    0.00040499   -0.03539383
     atom   14 type  1   force =    -0.00838237   -0.02579336    0.00019016
     atom   15 type  1   force =    -0.00844553    0.02081343    0.00131024
     atom   16 type  2   force =     0.00012808    0.00086772    0.07318624
     atom   17 type  2   force =     0.00006183    0.03072337    0.00239221
     atom   18 type  2   force =    -0.00006038   -0.02697517    0.00058300
     atom   19 type  1   force =     0.00004060    0.00299681    0.05012750
     atom   20 type  1   force =    -0.00002132   -0.00127089   -0.00140756
     atom   21 type  1   force =     0.00005132   -0.00064624    0.10019812
     atom   22 type  1   force =    -0.00001607   -0.00179821    0.00545641
     atom   23 type  1   force =    -0.00002117    0.00237182    0.00381441
     atom   24 type  1   force =     0.07914624    0.00064598   -0.03605944
     atom   25 type  1   force =     0.00924680   -0.02948842    0.00062370
     atom   26 type  1   force =     0.00850377    0.02155959    0.00327870
     atom   27 type  2   force =    -0.00006811   -0.00814013   -0.15492621
     atom   28 type  2   force =    -0.00000763    0.02632005   -0.00223342
     atom   29 type  2   force =     0.00004295   -0.02437518   -0.00337217
     atom   30 type  1   force =    -0.07923579    0.00023682   -0.03605441
     atom   31 type  1   force =    -0.00925300   -0.02941867    0.00063001
     atom   32 type  1   force =    -0.00845872    0.02163657    0.00330668
     atom   33 type  2   force =     0.00013258   -0.00256057    0.07887328
     atom   34 type  2   force =     0.00004727    0.03585283    0.00273907
     atom   35 type  2   force =    -0.00006815   -0.02885333    0.00288937
     atom   36 type  1   force =     0.00004219    0.00307296    0.05241316
     atom   37 type  1   force =    -0.00000373   -0.00188440   -0.00291063
     atom   38 type  1   force =    -0.00002114    0.00198162    0.00081574
     atom   39 type  1   force =     0.00004701    0.00287178    0.10111793
     atom   40 type  1   force =    -0.00000948   -0.00170532    0.00618466
     atom   41 type  1   force =    -0.00002769    0.00299053    0.00388917
     atom   42 type  1   force =     0.07825652    0.00076471   -0.03488117
     atom   43 type  1   force =     0.00661490   -0.02304202   -0.00020259
     atom   44 type  1   force =     0.01114472    0.02214809   -0.00717694
     atom   45 type  2   force =    -0.00006211   -0.00550435   -0.16464608
     atom   46 type  2   force =    -0.00007802    0.01955740    0.00102540
     atom   47 type  2   force =     0.00002670   -0.01853954    0.00736978
     atom   48 type  1   force =    -0.07835265    0.00031497   -0.03486355
     atom   49 type  1   force =    -0.00665583   -0.02300857   -0.00019931
     atom   50 type  1   force =    -0.01111293    0.02213128   -0.00713191
     atom   51 type  2   force =     0.00012562   -0.00436321    0.06097054
     atom   52 type  2   force =     0.00012348    0.02964307    0.00359133
     atom   53 type  2   force =    -0.00007312   -0.02506240    0.00092912
     atom   54 type  3   force =    -0.00000644    0.00076772   -0.00012452
     atom   55 type  3   force =    -0.00001698   -0.00009761    0.00014213
     atom   56 type  4   force =    -0.00002327    0.00702650    0.00058222
     atom   57 type  4   force =     0.00000260    0.00691174   -0.00523717
     atom   58 type  3   force =    -0.00001433   -0.00684136    0.00545599
     atom   59 type  3   force =    -0.00001589   -0.00132793    0.00060319

     Total force =     0.437475     Total SCF correction =     0.000360
  @ DRIVER MODE: Message from server: STATUS
  @ DRIVER MODE: Message from server: GETFORCE
  @ DRIVER MODE: Returning v,forces,stress,ensemble

     Writing output data file ./calc.save/
  @ DRIVER MODE: Message from server: EXIT
  @ DRIVE MODE: Exiting

     General routines

     Parallel routines

   This run was terminated on:   1:40:34  19Oct2021

   JOB DONE.