     Program PWSCF v.6.7GPU starts on 23Sep2021 at 11:35:31

     R & G space division:  proc/nbgrp/npool/nimage =       8
     Reading input from /storage/home/hcoda1/3/ntian30/research/carbon/CxH_vib/H2O_calc/ads_slab/CH3NHNH2HO_a/out_0002/pw.inp
Warning: card &CELL ignored
Warning: card   CELL_DYNAMICS='IPI', ignored
Warning: card / ignored

     Current dimensions of program PWSCF are:
     Max number of different atomic species (ntypx) = 10
     Max number of k-points (npk) =  40000
     Max angular momentum in pseudopotentials (lmaxx) =  3
     Presently no symmetry can be used with electric field

     Message from routine cell_base_init:
     DEPRECATED: use true lattice parameter, not A to a.u. conversion factor

     IMPORTANT: XC functional enforced from input :
     Exchange-correlation= BEEF-VDW
                           (   1   4  43  14   2   0   0)
     Any further DFT definition will be discarded
     Please, verify this is what you really want

  @ DRIVER MODE: Connecting to
 qe_1139763_2947307.sched-torque.pace.gatech.edu6iepn_i4_scratch
  using UNIX socket
  @ DRIVER MODE: Message from server: STATUS
  @ DRIVER MODE: Message from server: INIT
  @ DRIVER MODE: Receiving replica           0          -1
  @ DRIVER MODE: Receiving encoded integer          25
  @ DRIVER MODE:  SCF:  T  FORCE:  T  STRESS:  F  VC:  F  ENSEMBLE:  F
  @ DRIVER MODE:  SCF:  T  FORCE:  T  STRESS:  F  VC:  F  ENSEMBLE:  F

     Using Slab Decomposition

     bravais-lattice index     =            0
     lattice parameter (alat)  =       1.8897  a.u.
     unit-cell volume          =    6658.9804 (a.u.)^3
     number of atoms/cell      =           58
     number of atomic types    =            5
     number of electrons       =       405.00
     number of Kohn-Sham states=          212
     kinetic-energy cutoff     =      29.3995  Ry
     charge density cutoff     =     293.9946  Ry
     scf convergence threshold =      7.3E-08
     mixing beta               =       0.0500
     number of iterations used =            8  plain     mixing
     Exchange-correlation= BEEF-VDW
                           (   1   4  43  14   2   0   0)

     celldm(1)=   1.889726  celldm(2)=   0.000000  celldm(3)=   0.000000
     celldm(4)=   0.000000  celldm(5)=   0.000000  celldm(6)=   0.000000

     crystal axes: (cart. coord. in units of alat)
               a(1) = (   6.579727   0.000000   0.000000 )
               a(2) = (  -0.000775   5.961596   0.000000 )
               a(3) = (   0.000000   0.000000  25.155947 )

     reciprocal axes: (cart. coord. in units 2 pi/alat)
               b(1) = (  0.151982  0.000020  0.000000 )
               b(2) = (  0.000000  0.167740  0.000000 )
               b(3) = (  0.000000  0.000000  0.039752 )

     PseudoPot. # 1 for Ti read from file:
     /storage/coda1/p-amedford6/0/shared/rich_project_chbe-medford/medford-share/data/pseudos_module/espresso/nninc/pbe/van/Ti.UPF
     MD5 check sum: 8e4df49b7f0d34bbd5052bf3f5ea0213
     Pseudo is Ultrasoft, Zval = 12.0
     Generated by new atomic code, or converted to UPF format
     Using radial grid of  851 points,  6 beta functions with:
                l(1) =   0
                l(2) =   0
                l(3) =   1
                l(4) =   1
                l(5) =   2
                l(6) =   2
     Q(r) pseudized with  8 coefficients,  rinner =    1.000   1.000   1.000
                                                       1.000   1.000

     PseudoPot. # 2 for O  read from file:
     /storage/coda1/p-amedford6/0/shared/rich_project_chbe-medford/medford-share/data/pseudos_module/espresso/nninc/pbe/van/O.UPF
     MD5 check sum: 78c19812648e8988a0fe644b0f25305e
     Pseudo is Ultrasoft, Zval =  6.0
     Generated by new atomic code, or converted to UPF format
     Using radial grid of  737 points,  4 beta functions with:
                l(1) =   0
                l(2) =   0
                l(3) =   1
                l(4) =   1
     Q(r) pseudized with  8 coefficients,  rinner =    0.800   0.800   0.800

     PseudoPot. # 3 for N  read from file:
     /storage/coda1/p-amedford6/0/shared/rich_project_chbe-medford/medford-share/data/pseudos_module/espresso/nninc/pbe/van/N.UPF
     MD5 check sum: 90d10febe142ad51ac9d5be1deb811c4
     Pseudo is Ultrasoft, Zval =  5.0
     Generated by new atomic code, or converted to UPF format
     Using radial grid of  729 points,  4 beta functions with:
                l(1) =   0
                l(2) =   0
                l(3) =   1
                l(4) =   1
     Q(r) pseudized with  8 coefficients,  rinner =    0.800   0.800   0.800

     PseudoPot. # 4 for C  read from file:
     /storage/coda1/p-amedford6/0/shared/rich_project_chbe-medford/medford-share/data/pseudos_module/espresso/nninc/pbe/van/C.UPF
     MD5 check sum: 1a69bf6b8db32088f5b2163dbdb77a27
     Pseudo is Ultrasoft, Zval =  4.0
     Generated by new atomic code, or converted to UPF format
     Using radial grid of  721 points,  4 beta functions with:
                l(1) =   0
                l(2) =   0
                l(3) =   1
                l(4) =   1
     Q(r) pseudized with  8 coefficients,  rinner =    0.800   0.800   0.800

     PseudoPot. # 5 for H  read from file:
     /storage/coda1/p-amedford6/0/shared/rich_project_chbe-medford/medford-share/data/pseudos_module/espresso/nninc/pbe/van/H.UPF
     MD5 check sum: b5ee9d7bfd3a09ee7748110bda690ff7
     Pseudo is Ultrasoft, Zval =  1.0
     Generated by new atomic code, or converted to UPF format
     Using radial grid of  615 points,  1 beta functions with:
                l(1) =   0
     Q(r) pseudized with  8 coefficients,  rinner =    0.800

     atomic species   valence    mass     pseudopotential
        Ti1           12.00    47.86700     Ti( 1.00)
        O1             6.00    15.99900     O ( 1.00)
        N1             5.00    14.00700     N ( 1.00)
        C1             4.00    12.01100     C ( 1.00)
        H1             1.00     1.00800     H ( 1.00)

     No symmetry found

   Cartesian axes

     site n.     atom                  positions (alat units)
         1           Ti1 tau(   1) = (   0.0004258   2.9801865   6.0000000  )
         2           Ti1 tau(   2) = (   3.2906075   1.4906267   6.0002472  )
         3           O1  tau(   3) = (   0.0006271   0.0005054   7.9858123  )
         4           O1  tau(   4) = (   3.2906025   0.0005020   7.3038282  )
         5           O1  tau(   5) = (   4.5942328   1.4918067   9.2879030  )
         6           O1  tau(   6) = (   1.9868534   1.4903216   9.2879459  )
         7           Ti1 tau(   7) = (   3.2907910   2.8959150   9.1758416  )
         8           Ti1 tau(   8) = (   0.0015273   1.4827037   9.2680791  )
         9           O1  tau(   9) = (   3.3003128   0.0493987  11.3625472  )
        10           O1  tau(  10) = (   0.0116148   5.9584955  10.6183126  )
        11           O1  tau(  11) = (   1.2863924   1.5188706  12.6959087  )
        12           O1  tau(  12) = (   5.3173592   1.5183023  12.6957539  )
        13           Ti1 tau(  13) = (   0.0130489   2.9571150  12.5182267  )
        14           Ti1 tau(  14) = (   3.3124343   1.5987737  12.4587140  )
        15           O1  tau(  15) = (   0.0455642   5.8537743  14.6515032  )
        16           O1  tau(  16) = (   3.3135256   5.8999501  14.0036581  )
        17           O1  tau(  17) = (   4.5824137   1.5787328  16.0473457  )
        18           O1  tau(  18) = (   2.0456054   1.5356268  16.0652349  )
        19           Ti1 tau(  19) = (   3.2855744   2.9948502  15.7047272  )
        20           Ti1 tau(  20) = (   0.0729980   1.3194477  15.7501807  )
        21           O1  tau(  21) = (   3.2904802   0.0005063   4.7018136  )
        22           O1  tau(  22) = (   6.5643345   0.1786488  17.1561759  )
        23           O1  tau(  23) = (   1.3043587   1.4918075   6.0039043  )
        24           O1  tau(  24) = (   5.2767064   1.4903225   6.0039473  )
        25           Ti1 tau(  25) = (   0.0000382   5.9609847   6.0000000  )
        26           Ti1 tau(  26) = (   3.2902200   4.4714249   6.0002472  )
        27           O1  tau(  27) = (   0.0002396   2.9813036   7.9858123  )
        28           O1  tau(  28) = (   3.2902150   2.9813002   7.3038282  )
        29           O1  tau(  29) = (   4.5938453   4.4726049   9.2879030  )
        30           O1  tau(  30) = (   1.9864658   4.4711199   9.2879459  )
        31           Ti1 tau(  31) = (   3.2891106   5.8743827   9.1763621  )
        32           Ti1 tau(  32) = (   0.0006254   4.4649316   9.2693709  )
        33           O1  tau(  33) = (   3.3044115   2.9646987  11.3227374  )
        34           O1  tau(  34) = (   0.0092240   2.9805883  10.6323155  )
        35           O1  tau(  35) = (   1.2889249   4.4812606  12.6373974  )
        36           O1  tau(  36) = (   5.3198440   4.4849614  12.6453916  )
        37           Ti1 tau(  37) = (   0.0274371   5.9167426  12.5032498  )
        38           Ti1 tau(  38) = (   3.3124303   4.6827448  12.7121475  )
        39           O1  tau(  39) = (   0.0064664   3.0605765  14.9143048  )
        40           O1  tau(  40) = (   3.2921723   3.0190953  13.9337278  )
        41           O1  tau(  41) = (   4.5343043   4.4484976  16.2223827  )
        42           O1  tau(  42) = (   2.0055671   4.4324605  16.2273083  )
        43           Ti1 tau(  43) = (   3.3963104   0.0511244  16.3072024  )
        44           Ti1 tau(  44) = (   0.1011521   4.5293608  16.0606835  )
        45           O1  tau(  45) = (   3.2900926   2.9813045   4.7018136  )
        46           O1  tau(  46) = (   1.3039711   4.4726057   6.0039043  )
        47           O1  tau(  47) = (   5.2763189   4.4711207   6.0039473  )
        48           N1  tau(  48) = (   0.7899224   3.1460235  19.0808133  )
        49           N1  tau(  49) = (   6.3029119   3.3142126  18.0946246  )
        50           C1  tau(  50) = (   0.9829876   4.3811599  19.8296872  )
        51           H1  tau(  51) = (   0.0599524   4.7630682  20.2995108  )
        52           H1  tau(  52) = (   1.7087173   4.1728717  20.6153690  )
        53           H1  tau(  53) = (   1.3778604   5.1510331  19.1745456  )
        54           H1  tau(  54) = (   0.4845774   2.4057476  19.7140978  )
        55           H1  tau(  55) = (   5.5451363   3.8924421  18.4761980  )
        56           H1  tau(  56) = (   5.8791802   2.3931312  17.9634808  )
        57           O1  tau(  57) = (   3.3895457   0.1916509  18.1699706  )
        58           H1  tau(  58) = (   3.8128180   5.4341384  18.6581559  )

     number of k points=    10  Fermi-Dirac smearing, width (Ry)=  0.0073
                       cart. coord. in units 2pi/alat
        k(    1) = (   0.0000000   0.0000000   0.0000000), wk =   0.1250000
        k(    2) = (   0.0000000   0.0419351   0.0000000), wk =   0.2500000
        k(    3) = (   0.0000000  -0.0838702   0.0000000), wk =   0.1250000
        k(    4) = (   0.0379955   0.0000049   0.0000000), wk =   0.2500000
        k(    5) = (   0.0379955   0.0419400   0.0000000), wk =   0.2500000
        k(    6) = (   0.0379955  -0.0838652   0.0000000), wk =   0.2500000
        k(    7) = (   0.0379955  -0.0419301   0.0000000), wk =   0.2500000
        k(    8) = (  -0.0759910  -0.0000099   0.0000000), wk =   0.1250000
        k(    9) = (  -0.0759910   0.0419252   0.0000000), wk =   0.2500000
        k(   10) = (  -0.0759910  -0.0838800   0.0000000), wk =   0.1250000

     Initial potential from superposition of free atoms

     starting charge  388.99913, renormalised to  405.00000

     negative rho (up, down):  1.368E-02 0.000E+00

     %%%%%%%%%%%%%%%%%%%%%%%%%%%%%%%%%%%%%%%%%%%%%%%%%%%%%%%%%%%%%%%%%%%%%%%%
     %                                                                      %
     % You are using vdW-DF, which was implemented by the Thonhauser group. %
     % Please cite the following two papers that made this development      %
     % possible and the two reviews that describe the various versions:     %
     %                                                                      %
     %   T. Thonhauser et al., PRL 115, 136402 (2015).                      %
     %   T. Thonhauser et al., PRB 76, 125112 (2007).                       %
     %   K. Berland et al., Rep. Prog. Phys. 78, 066501 (2015).             %
     %   D.C. Langreth et al., J. Phys.: Condens. Matter 21, 084203 (2009). %
     %                                                                      %
     %                                                                      %
     % If you are calculating the stress with vdW-DF, please also cite:     %
     %                                                                      %
     %   R. Sabatini et al., J. Phys.: Condens. Matter 24, 424209 (2012).   %
     %                                                                      %
     %%%%%%%%%%%%%%%%%%%%%%%%%%%%%%%%%%%%%%%%%%%%%%%%%%%%%%%%%%%%%%%%%%%%%%%%

     Adding external electric field

     Computed dipole along edir(3) :
        Dipole              -14.8124 Ry au,        -37.6493 Debye
        Dipole field         -0.0280 Ry au,

        Potential amp.        2.5912 Ry
        Total length         46.3494 bohr

     Starting wfcs are  307 atomic wfcs
  @ DRIVER MODE: Message from server: STATUS
  @ DRIVER MODE: Message from server: POSDATA
  @ DRIVER MODE: Reading and sharing cell
  @ DRIVER MODE: Reading and sharing positions
  @ DRIVER MODE: Received positions

     Self-consistent Calculation

     iteration #  1     ecut=    29.40 Ry     beta= 0.05
     Davidson diagonalization with overlap
     c_bands:  4 eigenvalues not converged
     c_bands:  4 eigenvalues not converged
     c_bands:  5 eigenvalues not converged
     c_bands:  2 eigenvalues not converged
     c_bands:  3 eigenvalues not converged
     c_bands:  4 eigenvalues not converged
     c_bands:  2 eigenvalues not converged
     ethr =  1.00E-05,  avg # of iterations = 22.9

[...]

     total energy              =   -2203.00897371 Ry
     estimated scf accuracy    <    8803.84002878 Ry

[...]

     iteration #  3     ecut=    29.40 Ry     beta= 0.05
     Davidson diagonalization with overlap
     ethr =  1.00E-02,  avg # of iterations = 16.2

[...]

     iteration # 48     ecut=    29.40 Ry     beta= 0.05
     Davidson diagonalization with overlap
     c_bands:  1 eigenvalues not converged
     ethr =  1.75E-07,  avg # of iterations = 13.7

[...]

     total energy              =   -2976.46393725 Ry
     estimated scf accuracy    <       0.00000023 Ry

     iteration # 68     ecut=    29.40 Ry     beta= 0.05
     Davidson diagonalization with overlap
     ethr =  4.03E-11,  avg # of iterations =  8.2

     negative rho (up, down):  1.441E-02 0.000E+00

     Adding external electric field

     Computed dipole along edir(3) :
        Dipole                1.2266 Ry au,          3.1178 Debye
        Dipole field          0.0023 Ry au,

        Potential amp.       -0.2146 Ry
        Total length         46.3494 bohr

     End of self-consistent calculation

          k = 0.0000 0.0000 0.0000 ( 18029 PWs)   bands (ev):

   -55.4438 -55.3560 -55.3219 -55.2174 -55.2141 -55.1867 -55.1843 -55.1766
   -55.1527 -55.1296 -55.0865 -54.9845 -54.9361 -54.8927 -54.3310 -54.2970
   -31.8412 -31.7901 -31.7210 -31.7034 -31.6895 -31.6744 -31.6537 -31.6468
   -31.6157 -31.6022 -31.5958 -31.5085 -31.4934 -31.4862 -31.4665 -31.4631
   -31.4589 -31.4499 -31.4494 -31.4195 -31.4134 -31.3915 -31.3848 -31.3748
   -31.3697 -31.3540 -31.3528 -31.3211 -31.3204 -31.3141 -31.3133 -31.3076
   -31.2993 -31.2813 -31.2573 -31.2390 -31.1735 -31.1518 -31.1400 -31.1319
   -31.1110 -31.1018 -30.7370 -30.6506 -30.6282 -30.5545 -30.4681 -30.3564
   -17.6916 -16.3672 -16.0101 -15.8462 -15.6314 -15.5387 -15.5117 -15.3129
   -15.2179 -15.1597 -14.9581 -14.9310 -14.8938 -14.8805 -14.8720 -14.8510
   -14.8472 -14.7958 -14.7804 -14.7704 -14.7669 -14.7365 -14.7095 -14.6701
   -14.6104 -14.5968 -14.4944 -14.4388 -14.3990 -14.1576 -14.1373 -13.1920
   -12.8297 -12.7133  -9.4337  -6.4100  -5.7149  -4.2875  -3.9338  -3.3682
    -3.2668  -3.2552  -3.1986  -3.1312  -2.9712  -2.8833  -2.7808  -2.7417
    -2.6066  -2.5949  -2.4914  -2.4426  -2.3694  -2.3235  -2.2821  -2.2470
    -2.2192  -2.1636  -2.1416  -2.1156  -2.1042  -2.0316  -2.0130  -1.9232
    -1.8907  -1.8771  -1.7591  -1.7246  -1.6896  -1.6764  -1.6679  -1.6571
    -1.6161  -1.6076  -1.5970  -1.5512  -1.4539  -1.4462  -1.4288  -1.3383
    -1.2378  -0.9904  -0.9597  -0.9089  -0.8973  -0.8192  -0.7808  -0.7492
    -0.7162  -0.6451  -0.6352  -0.6092  -0.5478  -0.4725  -0.4184  -0.3706
    -0.3363  -0.2245  -0.1745  -0.1306  -0.0980  -0.0611   0.0018   0.0412
     0.0655   0.1088   0.1964   0.2600   0.2870   0.3039   0.3541   0.3960
     0.4338   0.4742   0.5461   0.5686   0.5787   0.6179   0.6265   0.6475
     0.7429   0.7614   0.8209   0.8480   0.9361   0.9670   1.0112   1.1792
     1.2493   1.3085   1.3787   1.4490   1.6408   1.6953   1.7205   1.8892
     2.2626   2.3080   3.7278   3.8753   3.8915   3.9693   3.9862   4.0504
     4.2167   4.2760   4.4141   4.4241

[...]

          k = 0.0380-0.0419 0.0000 ( 17876 PWs)   bands (ev):

[...]

          k =-0.0760-0.0000 0.0000 ( 17886 PWs)   bands (ev):

[...]

          k =-0.0760-0.0839 0.0000 ( 17948 PWs)   bands (ev):

   -55.4430 -55.3390 -55.3387 -55.2161 -55.2025 -55.1883 -55.1849 -55.1709
   -55.1681 -55.1215 -55.0947 -54.9814 -54.9371 -54.8957 -54.3139 -54.3139
   -31.7288 -31.6685 -31.6565 -31.6564 -31.6551 -31.6411 -31.6325 -31.6321
   -31.5747 -31.5299 -31.5086 -31.4978 -31.4924 -31.4871 -31.4646 -31.4589
   -31.4583 -31.4552 -31.4489 -31.4362 -31.4296 -31.4267 -31.4150 -31.3891
   -31.3842 -31.3825 -31.3752 -31.3674 -31.3488 -31.3435 -31.3401 -31.3398
   -31.3368 -31.3168 -31.3152 -31.2505 -31.2335 -31.2058 -31.1777 -31.1540
   -31.1479 -31.1066 -30.6409 -30.6409 -30.5501 -30.5497 -30.5114 -30.5112
   -17.6874 -16.3573 -15.5906 -15.4456 -15.3375 -15.3271 -15.2031 -15.1359
   -15.1262 -15.0924 -15.0697 -15.0478 -15.0291 -15.0142 -14.9592 -14.9197
   -14.8883 -14.8609 -14.8564 -14.8134 -14.8036 -14.7922 -14.7744 -14.7629
   -14.7075 -14.6716 -14.6620 -14.6031 -14.4641 -14.4435 -14.2877 -13.1934
   -12.8153 -12.8151  -9.4527  -6.3940  -5.7215  -4.2729  -3.9230  -2.9556
    -2.8000  -2.6571  -2.5997  -2.5619  -2.4482  -2.4235  -2.3662  -2.3153
    -2.2914  -2.2699  -2.2168  -2.2076  -2.1620  -2.1459  -2.1214  -2.1066
    -2.0904  -2.0839  -2.0560  -2.0403  -2.0300  -2.0165  -1.9899  -1.9787
    -1.9605  -1.9319  -1.9117  -1.9026  -1.8688  -1.8265  -1.7647  -1.6525
    -1.5787  -1.5662  -1.5259  -1.5014  -1.4852  -1.4441  -1.4316  -1.3904
    -1.3729  -1.3069  -1.1489  -1.1224  -1.1090  -0.9670  -0.9597  -0.9308
    -0.8567  -0.8150  -0.7931  -0.7349  -0.7045  -0.6619  -0.5881  -0.5448
    -0.4906  -0.4245  -0.3244  -0.3171  -0.3011  -0.2811  -0.2648  -0.2569
    -0.2237  -0.1865  -0.1135  -0.0670  -0.0584  -0.0524  -0.0012   0.0785
     0.1297   0.2442   0.3902   0.3946   0.4616   0.4624   0.6622   0.6713
     0.7479   0.7830   0.8174   0.8447   0.9384   0.9563   0.9941   1.0768
     1.1405   1.1700   1.1909   1.1957   1.2485   1.4204   2.0576   2.0654
     2.1283   2.1284   3.9690   4.2020   4.2423   4.2554   4.2738   4.3003
     4.3138   4.3279   4.3951   4.4255

     the Fermi energy is     3.7651 ev

!    total energy              =   -2976.46397788 Ry
     estimated scf accuracy    <       0.00000004 Ry
     smearing contrib. (-TS)   =      -0.01955393 Ry
     internal energy E=F+TS    =   -2976.44442395 Ry

     The total energy is F=E-TS. E is the sum of the following terms:
     one-electron contribution =  -23037.11318667 Ry
     hartree contribution      =   11616.28785535 Ry
     xc contribution           =    -495.71853772 Ry
     ewald contribution        =    8940.09660562 Ry
     electric field correction =       0.00283947 Ry

     convergence has been achieved in  68 iterations

     Forces acting on atoms (cartesian axes, Ry/au):

     atom    1 type  1   force =     0.00015954   -0.00022748    0.09414522
     atom    2 type  1   force =    -0.00009886    0.00017670   -0.17536832
     atom    3 type  2   force =     0.00005300   -0.00049681   -0.02103587
     atom    4 type  2   force =    -0.00002655   -0.00093899    0.05425333
     atom    5 type  2   force =    -0.00489118   -0.00216307    0.00106737
     atom    6 type  2   force =     0.00671318   -0.00138858    0.00108267
     atom    7 type  1   force =     0.00005909    0.00331600    0.00867258
     atom    8 type  1   force =    -0.00010581    0.00120446    0.00273409
     atom    9 type  2   force =    -0.00022079   -0.00030213   -0.00060581
     atom   10 type  2   force =    -0.00112267    0.00428741   -0.01026236
     atom   11 type  2   force =    -0.00007832   -0.00055602   -0.00010636
     atom   12 type  2   force =     0.00061924   -0.00031903   -0.00026784
     atom   13 type  1   force =    -0.00143859    0.00019965   -0.00056070
     atom   14 type  1   force =     0.00071055    0.00017274   -0.00046101
     atom   15 type  2   force =     0.00012503   -0.00003216    0.00003536
     atom   16 type  2   force =    -0.00009273   -0.00069354   -0.00029101
     atom   17 type  2   force =    -0.00044626    0.00067432    0.00006139
     atom   18 type  2   force =    -0.00074749    0.00029041   -0.00024404
     atom   19 type  1   force =     0.00039168   -0.00094511    0.00059973
     atom   20 type  1   force =    -0.00069637   -0.00002867    0.00055546
     atom   21 type  2   force =     0.00003655   -0.00001034    0.10321403
     atom   22 type  2   force =    -0.00011100    0.00000545    0.00045720
     atom   23 type  2   force =    -0.07199560   -0.00020060   -0.02725715
     atom   24 type  2   force =     0.07187075    0.00025643   -0.02732757
     atom   25 type  1   force =     0.00007488   -0.00016801    0.09388068
     atom   26 type  1   force =    -0.00011873   -0.00136792   -0.17550078
     atom   27 type  2   force =     0.00010881   -0.00005564   -0.01984765
     atom   28 type  2   force =     0.00006390   -0.00105333    0.04980298
     atom   29 type  2   force =    -0.00747303    0.00209179    0.00338979
     atom   30 type  2   force =     0.00907547    0.00223274    0.00330797
     atom   31 type  1   force =     0.00019088    0.00151501    0.00007413
     atom   32 type  1   force =    -0.00008740   -0.00226225    0.00303344
     atom   33 type  2   force =    -0.00017764   -0.00030840   -0.00003845
     atom   34 type  2   force =    -0.00117196   -0.00218632   -0.00966136
     atom   35 type  2   force =     0.00063797    0.00005579   -0.00022466
     atom   36 type  2   force =     0.00037381    0.00011628   -0.00035226
     atom   37 type  1   force =    -0.00097047    0.00024951    0.00036666
     atom   38 type  1   force =     0.00097194   -0.00024557    0.00020890
     atom   39 type  2   force =    -0.00017054   -0.00052924    0.00006701
     atom   40 type  2   force =    -0.00019885   -0.00019184   -0.00017247
     atom   41 type  2   force =     0.00023054   -0.00030951   -0.00008916
     atom   42 type  2   force =    -0.00066031    0.00009115   -0.00014587
     atom   43 type  1   force =     0.00019486    0.00095825    0.00042069
     atom   44 type  1   force =    -0.00042682    0.00078373    0.00019452
     atom   45 type  2   force =     0.00002467    0.00003218    0.10302945
     atom   46 type  2   force =    -0.07194740   -0.00008167   -0.02721070
     atom   47 type  2   force =     0.07183585    0.00035124   -0.02729496
     atom   48 type  3   force =    -0.01015421   -0.00483641   -0.00256643
     atom   49 type  3   force =     0.00356781   -0.00044823    0.00007407
     atom   50 type  4   force =     0.00220197    0.00127552    0.00142091
     atom   51 type  5   force =    -0.00122196   -0.00104969    0.00009111
     atom   52 type  5   force =     0.00075519    0.00065760    0.00081999
     atom   53 type  5   force =    -0.00020538    0.00096126   -0.00020923
     atom   54 type  5   force =     0.00323520    0.00261633   -0.00182335
     atom   55 type  5   force =     0.00173310   -0.00074570    0.00093237
     atom   56 type  5   force =     0.00114812   -0.00021721    0.00052718
     atom   57 type  2   force =     0.00073428   -0.00117946    0.00018220
     atom   58 type  5   force =    -0.00084096    0.00096700    0.00022288

     Total force =     0.362235     Total SCF correction =     0.000470
  @ DRIVER MODE: Message from server: STATUS
  @ DRIVER MODE: Message from server: GETFORCE
  @ DRIVER MODE: Returning v,forces,stress,ensemble

     Writing output data file ./calc.save/
  @ DRIVER MODE: Message from server: EXIT
  @ DRIVE MODE: Exiting

     General routines

     Parallel routines

   This run was terminated on:  12: 1:15  23Sep2021

   JOB DONE.