     Program PWSCF v.6.7GPU starts on 18Oct2021 at 15:46:15

     R & G space division:  proc/nbgrp/npool/nimage =       8
     Reading input from /storage/home/hcoda1/3/ntian30/research/carbon/CxH_vib/Thiel_calc/ads_slab/NH2HNH_perslab/out_0009/pw.inp
Warning: card &CELL ignored
Warning: card   CELL_DYNAMICS='IPI', ignored
Warning: card / ignored

     Current dimensions of program PWSCF are:
     Max number of different atomic species (ntypx) = 10
     Max number of k-points (npk) =  40000
     Max angular momentum in pseudopotentials (lmaxx) =  3
     Presently no symmetry can be used with electric field

     Message from routine cell_base_init:
     DEPRECATED: use true lattice parameter, not A to a.u. conversion factor

     IMPORTANT: XC functional enforced from input :
     Exchange-correlation= BEEF-VDW
                           (   1   4  43  14   2   0   0)
     Any further DFT definition will be discarded
     Please, verify this is what you really want

  @ DRIVER MODE: Connecting to
 qe_1139763_3255135.sched-torque.pace.gatech.edu5i9lwbv5_scratch
  using UNIX socket
  @ DRIVER MODE: Message from server: STATUS
  @ DRIVER MODE: Message from server: INIT
  @ DRIVER MODE: Receiving replica           0          -1
  @ DRIVER MODE: Receiving encoded integer          25
  @ DRIVER MODE:  SCF:  T  FORCE:  T  STRESS:  F  VC:  F  ENSEMBLE:  F
  @ DRIVER MODE:  SCF:  T  FORCE:  T  STRESS:  F  VC:  F  ENSEMBLE:  F

     Using Slab Decomposition

     bravais-lattice index     =            0
     lattice parameter (alat)  =       1.8897  a.u.
     unit-cell volume          =    9988.4706 (a.u.)^3
     number of atoms/cell      =           59
     number of atomic types    =            4
     number of electrons       =       440.00
     number of Kohn-Sham states=          230
     kinetic-energy cutoff     =      29.3995  Ry
     charge density cutoff     =     293.9946  Ry
     scf convergence threshold =      7.3E-08
     mixing beta               =       0.0500
     number of iterations used =            8  plain     mixing
     Exchange-correlation= BEEF-VDW
                           (   1   4  43  14   2   0   0)

     celldm(1)=   1.889726  celldm(2)=   0.000000  celldm(3)=   0.000000
     celldm(4)=   0.000000  celldm(5)=   0.000000  celldm(6)=   0.000000

     crystal axes: (cart. coord. in units of alat)
               a(1) = (   6.579727   0.000000   0.000000 )
               a(2) = (  -0.001163   8.942395   0.000000 )
               a(3) = (   0.000000   0.000000  25.155947 )

     reciprocal axes: (cart. coord. in units 2 pi/alat)
               b(1) = (  0.151982  0.000020  0.000000 )
               b(2) = (  0.000000  0.111827  0.000000 )
               b(3) = (  0.000000  0.000000  0.039752 )

     PseudoPot. # 1 for O  read from file:
     /storage/coda1/p-amedford6/0/shared/rich_project_chbe-medford/medford-share/data/pseudos_module/espresso/nninc/pbe/van/O.UPF
     MD5 check sum: 78c19812648e8988a0fe644b0f25305e
     Pseudo is Ultrasoft, Zval =  6.0
     Generated by new atomic code, or converted to UPF format
     Using radial grid of  737 points,  4 beta functions with:
                l(1) =   0
                l(2) =   0
                l(3) =   1
                l(4) =   1
     Q(r) pseudized with  8 coefficients,  rinner =    0.800   0.800   0.800

     PseudoPot. # 2 for Ti read from file:
     /storage/coda1/p-amedford6/0/shared/rich_project_chbe-medford/medford-share/data/pseudos_module/espresso/nninc/pbe/van/Ti.UPF
     MD5 check sum: 8e4df49b7f0d34bbd5052bf3f5ea0213
     Pseudo is Ultrasoft, Zval = 12.0
     Generated by new atomic code, or converted to UPF format
     Using radial grid of  851 points,  6 beta functions with:
                l(1) =   0
                l(2) =   0
                l(3) =   1
                l(4) =   1
                l(5) =   2
                l(6) =   2
     Q(r) pseudized with  8 coefficients,  rinner =    1.000   1.000   1.000
                                                       1.000   1.000

     PseudoPot. # 3 for H  read from file:
     /storage/coda1/p-amedford6/0/shared/rich_project_chbe-medford/medford-share/data/pseudos_module/espresso/nninc/pbe/van/H.UPF
     MD5 check sum: b5ee9d7bfd3a09ee7748110bda690ff7
     Pseudo is Ultrasoft, Zval =  1.0
     Generated by new atomic code, or converted to UPF format
     Using radial grid of  615 points,  1 beta functions with:
                l(1) =   0
     Q(r) pseudized with  8 coefficients,  rinner =    0.800

     PseudoPot. # 4 for N  read from file:
     /storage/coda1/p-amedford6/0/shared/rich_project_chbe-medford/medford-share/data/pseudos_module/espresso/nninc/pbe/van/N.UPF
     MD5 check sum: 90d10febe142ad51ac9d5be1deb811c4
     Pseudo is Ultrasoft, Zval =  5.0
     Generated by new atomic code, or converted to UPF format
     Using radial grid of  729 points,  4 beta functions with:
                l(1) =   0
                l(2) =   0
                l(3) =   1
                l(4) =   1
     Q(r) pseudized with  8 coefficients,  rinner =    0.800   0.800   0.800

     atomic species   valence    mass     pseudopotential
        O1             6.00    15.99900     O ( 1.00)
        Ti1           12.00    47.86700     Ti( 1.00)
        H1             1.00     1.00800     H ( 1.00)
        N1             5.00    14.00700     N ( 1.00)

     No symmetry found

   Cartesian axes

     site n.     atom                  positions (alat units)
         1           O1  tau(   1) = (   0.0007354   0.0005023  10.5931620  )
         2           O1  tau(   2) = (   3.2891522   8.9193323  13.7813865  )
         3           O1  tau(   3) = (  -0.0003195   8.9357148  17.1597790  )
         4           O1  tau(   4) = (   0.0006271   0.0005054   7.9858123  )
         5           O1  tau(   5) = (   3.2896276   8.9330874  11.1456747  )
         6           O1  tau(   6) = (   0.0000757   8.8957392  14.5326415  )
         7           O1  tau(   7) = (   1.9868534   1.4903216   9.2879459  )
         8           O1  tau(   8) = (   5.2085136   1.5567490  12.5272226  )
         9           O1  tau(   9) = (   2.0368910   1.4086519  15.9478609  )
        10           Ti1 tau(  10) = (   0.0007404   1.4906270   9.2895810  )
        11           Ti1 tau(  11) = (   3.2920048   1.2896434  12.4335303  )
        12           Ti1 tau(  12) = (   0.0003947   1.7483972  15.9485354  )
        13           O1  tau(  13) = (   4.5942328   1.4918067   9.2879030  )
        14           O1  tau(  14) = (   1.3734151   1.5562871  12.5269411  )
        15           O1  tau(  15) = (   4.5446063   1.4075665  15.9467422  )
        16           Ti1 tau(  16) = (   3.2902859   2.9801868   9.2893338  )
        17           Ti1 tau(  17) = (   0.0022843   2.7629733  12.5422407  )
        18           Ti1 tau(  18) = (   3.2887740   3.1097933  15.6402895  )
        19           O1  tau(  19) = (   0.0003479   2.9813005  10.5931620  )
        20           O1  tau(  20) = (   3.2903674   2.9527630  13.7969158  )
        21           O1  tau(  21) = (   0.0002396   2.9813036   7.9858123  )
        22           O1  tau(  22) = (   3.2906228   2.9775883  11.1663003  )
        23           O1  tau(  23) = (   0.0006598   2.9368866  14.5305733  )
        24           O1  tau(  24) = (   1.9864658   4.4711199   9.2879459  )
        25           O1  tau(  25) = (   5.2231876   4.5386380  12.5467233  )
        26           O1  tau(  26) = (   2.0248981   4.3679406  15.9930346  )
        27           Ti1 tau(  27) = (   0.0003529   4.4714252   9.2895810  )
        28           Ti1 tau(  28) = (   3.2918124   4.3135021  12.5344809  )
        29           Ti1 tau(  29) = (   6.5788423   4.6929592  16.0739603  )
        30           O1  tau(  30) = (   4.5938453   4.4726049   9.2879030  )
        31           O1  tau(  31) = (   1.3570704   4.5373869  12.5465102  )
        32           O1  tau(  32) = (   4.5538814   4.3671241  15.9936543  )
        33           Ti1 tau(  33) = (   3.2898983   5.9609850   9.2893338  )
        34           Ti1 tau(  34) = (   0.0013264   5.7428985  12.5110789  )
        35           Ti1 tau(  35) = (   3.2898306   6.0937744  16.2866611  )
        36           O1  tau(  36) = (  -0.0000397   5.9620987  10.5931620  )
        37           O1  tau(  37) = (   3.2897329   5.8964334  13.7986068  )
        38           O1  tau(  38) = (  -0.0007474   6.0119579  17.1634496  )
        39           O1  tau(  39) = (  -0.0001480   5.9621018   7.9858123  )
        40           O1  tau(  40) = (   3.2898370   5.9388437  11.1687384  )
        41           O1  tau(  41) = (  -0.0001539   5.9931028  14.5676369  )
        42           O1  tau(  42) = (   1.9860782   7.4519181   9.2879459  )
        43           O1  tau(  43) = (   5.2258842   7.5046952  12.5406166  )
        44           O1  tau(  44) = (   2.0242945   7.4351242  16.0034066  )
        45           Ti1 tau(  45) = (  -0.0000347   7.4522234   9.2895810  )
        46           Ti1 tau(  46) = (   3.2896699   7.1866417  12.6007890  )
        47           Ti1 tau(  47) = (   0.0000787   7.5542351  15.7482610  )
        48           O1  tau(  48) = (   4.5934577   7.4534031   9.2879030  )
        49           O1  tau(  49) = (   1.3527639   7.5038087  12.5404143  )
        50           O1  tau(  50) = (   4.5545665   7.4356877  16.0029592  )
        51           Ti1 tau(  51) = (   3.2895107   8.9417832   9.2893338  )
        52           Ti1 tau(  52) = (  -0.0005703   8.7121504  12.4856418  )
        53           Ti1 tau(  53) = (   3.2909615   0.1005107  15.6284087  )
        54           H1  tau(  54) = (   6.5785809   3.1351568  18.2688824  )
        55           H1  tau(  55) = (   6.5783155   8.7823607  18.1116139  )
        56           N1  tau(  56) = (  -0.0001347   2.9716693  17.2674093  )
        57           N1  tau(  57) = (   3.2897564   5.9921341  18.1800631  )
        58           H1  tau(  58) = (   3.2887465   5.1266479  18.7045293  )
        59           H1  tau(  59) = (   3.2892443   6.7858760  18.8071070  )

     number of k points=    10  Fermi-Dirac smearing, width (Ry)=  0.0073
                       cart. coord. in units 2pi/alat
        k(    1) = (   0.0000000   0.0000000   0.0000000), wk =   0.1250000
        k(    2) = (   0.0000000   0.0279567   0.0000000), wk =   0.2500000
        k(    3) = (   0.0000000  -0.0559134   0.0000000), wk =   0.1250000
        k(    4) = (   0.0379955   0.0000049   0.0000000), wk =   0.2500000
        k(    5) = (   0.0379955   0.0279617   0.0000000), wk =   0.2500000
        k(    6) = (   0.0379955  -0.0559085   0.0000000), wk =   0.2500000
        k(    7) = (   0.0379955  -0.0279518   0.0000000), wk =   0.2500000
        k(    8) = (  -0.0759910  -0.0000099   0.0000000), wk =   0.1250000
        k(    9) = (  -0.0759910   0.0279468   0.0000000), wk =   0.2500000
        k(   10) = (  -0.0759910  -0.0559233   0.0000000), wk =   0.1250000

     Initial potential from superposition of free atoms

     starting charge  421.99910, renormalised to  440.00000

     negative rho (up, down):  3.702E-02 0.000E+00

     %%%%%%%%%%%%%%%%%%%%%%%%%%%%%%%%%%%%%%%%%%%%%%%%%%%%%%%%%%%%%%%%%%%%%%%%
     %                                                                      %
     % You are using vdW-DF, which was implemented by the Thonhauser group. %
     % Please cite the following two papers that made this development      %
     % possible and the two reviews that describe the various versions:     %
     %                                                                      %
     %   T. Thonhauser et al., PRL 115, 136402 (2015).                      %
     %   T. Thonhauser et al., PRB 76, 125112 (2007).                       %
     %   K. Berland et al., Rep. Prog. Phys. 78, 066501 (2015).             %
     %   D.C. Langreth et al., J. Phys.: Condens. Matter 21, 084203 (2009). %
     %                                                                      %
     %                                                                      %
     % If you are calculating the stress with vdW-DF, please also cite:     %
     %                                                                      %
     %   R. Sabatini et al., J. Phys.: Condens. Matter 24, 424209 (2012).   %
     %                                                                      %
     %%%%%%%%%%%%%%%%%%%%%%%%%%%%%%%%%%%%%%%%%%%%%%%%%%%%%%%%%%%%%%%%%%%%%%%%

     Adding external electric field

     Computed dipole along edir(3) :
        Dipole               -3.9424 Ry au,        -10.0206 Debye
        Dipole field         -0.0050 Ry au,

        Potential amp.        0.4598 Ry
        Total length         46.3494 bohr

     Starting wfcs are  332 atomic wfcs
  @ DRIVER MODE: Message from server: STATUS
  @ DRIVER MODE: Message from server: POSDATA
  @ DRIVER MODE: Reading and sharing cell
  @ DRIVER MODE: Reading and sharing positions
  @ DRIVER MODE: Received positions

     Self-consistent Calculation

     iteration #  1     ecut=    29.40 Ry     beta= 0.05
     Davidson diagonalization with overlap
     c_bands:  1 eigenvalues not converged
     c_bands:  2 eigenvalues not converged
     c_bands:  4 eigenvalues not converged
     c_bands:  2 eigenvalues not converged
     c_bands:  2 eigenvalues not converged
     c_bands:  2 eigenvalues not converged
     c_bands:  4 eigenvalues not converged
     c_bands:  3 eigenvalues not converged
     c_bands:  2 eigenvalues not converged
     ethr =  1.00E-05,  avg # of iterations = 19.2

[...]

     total energy              =   -3294.67537500 Ry
     estimated scf accuracy    <      19.62524069 Ry

     iteration #  2     ecut=    29.40 Ry     beta= 0.05
     Davidson diagonalization with overlap
     ethr =  4.46E-03,  avg # of iterations =  1.0

[...]

     iteration # 35     ecut=    29.40 Ry     beta= 0.05
     Davidson diagonalization with overlap
     c_bands:  1 eigenvalues not converged
     ethr =  5.09E-07,  avg # of iterations =  7.8

[...]

     total energy              =   -3293.29235040 Ry
     estimated scf accuracy    <       0.00000030 Ry

     iteration # 63     ecut=    29.40 Ry     beta= 0.05
     Davidson diagonalization with overlap
     ethr =  3.17E-11,  avg # of iterations =  5.0

     negative rho (up, down):  3.602E-02 0.000E+00

     Adding external electric field

     Computed dipole along edir(3) :
        Dipole                1.2950 Ry au,          3.2916 Debye
        Dipole field          0.0016 Ry au,

        Potential amp.       -0.1510 Ry
        Total length         46.3494 bohr

     End of self-consistent calculation

          k = 0.0000 0.0000 0.0000 ( 26871 PWs)   bands (ev):

   -58.2973 -58.2734 -58.2696 -58.2101 -58.1617 -57.7939 -57.7735 -57.7574
   -57.6224 -57.5922 -57.5718 -57.5134 -57.4874 -56.8997 -56.8777 -56.8518
   -56.8432 -56.8368 -34.6884 -34.6614 -34.6312 -34.6195 -34.6139 -34.6088
   -34.5459 -34.4826 -34.4725 -34.4098 -34.4058 -34.4029 -34.3890 -34.3587
   -34.3340 -34.1962 -34.1501 -34.1452 -34.1249 -34.0966 -34.0831 -34.0786
   -34.0579 -34.0210 -34.0090 -33.9633 -33.9194 -33.8746 -33.8586 -33.8508
   -33.8351 -33.8274 -33.7804 -33.7576 -33.7485 -33.7433 -33.6958 -33.6910
   -33.6772 -33.3614 -33.2224 -33.2130 -33.2024 -33.1880 -33.1812 -33.1749
   -33.1630 -33.1179 -33.0854 -33.0802 -33.0270 -33.0257 -33.0085 -32.8854
   -18.9051 -18.8256 -18.3717 -18.2962 -18.1746 -18.1194 -18.1131 -18.0474
   -17.9449 -17.7238 -17.6835 -17.6748 -17.6465 -17.5389 -17.5308 -17.5272
   -17.4932 -17.4863 -17.4740 -17.3859 -17.3271 -17.3145 -17.3088 -17.3086
   -17.1998 -17.1752 -17.1230 -17.0571 -17.0453 -16.9489 -16.7650 -16.4323
   -15.3537 -15.3130 -15.3033 -15.1574 -13.5997  -6.9719  -6.6274  -6.1791
    -5.9856  -5.7754  -5.6368  -5.5223  -5.4693  -5.3769  -5.3108  -5.2860
    -5.2686  -5.2283  -5.1944  -5.1679  -5.0651  -5.0552  -4.9741  -4.9197
    -4.8741  -4.8279  -4.7856  -4.7392  -4.7367  -4.6972  -4.6284  -4.6178
    -4.5831  -4.5357  -4.5068  -4.4987  -4.4434  -4.4148  -4.3939  -4.2740
    -4.2596  -4.1918  -4.1804  -4.1730  -4.0669  -4.0612  -4.0179  -3.9870
    -3.9811  -3.9609  -3.9111  -3.8314  -3.8035  -3.6441  -3.6213  -3.6119
    -3.5203  -3.3811  -3.3676  -3.3241  -3.2034  -3.1366  -3.1125  -3.0771
    -3.0570  -3.0398  -3.0164  -3.0052  -2.9713  -2.8774  -2.8762  -2.8149
    -2.8123  -2.7979  -2.7764  -2.7705  -2.7311  -2.6586  -2.5993  -2.5865
    -2.5655  -2.5478  -2.4613  -2.4470  -2.3561  -2.3411  -2.2848  -2.2424
    -2.2378  -2.1708  -2.0959  -2.0883  -2.0241  -1.9996  -1.8257  -1.8006
    -1.7234  -1.7179  -1.6513  -1.6243  -1.6016  -1.5494  -1.4243  -1.3936
    -1.2981  -1.1852  -1.0222  -0.7824  -0.5921  -0.5705  -0.5613  -0.5291
    -0.4349  -0.3825  -0.3666  -0.2715   0.9809   1.1269   1.2799   1.3015
     1.4953   1.6049   1.6174   1.6726   1.7515   1.8497

[...]

          k = 0.0380-0.0280 0.0000 ( 26873 PWs)   bands (ev):

[...]

          k =-0.0760-0.0000 0.0000 ( 26902 PWs)   bands (ev):

[...]

          k =-0.0760-0.0559 0.0000 ( 26868 PWs)   bands (ev):

   -58.2906 -58.2866 -58.2630 -58.2099 -58.1618 -57.7939 -57.7731 -57.7578
   -57.6208 -57.5956 -57.5699 -57.5132 -57.4875 -56.8997 -56.8748 -56.8577
   -56.8431 -56.8338 -34.7137 -34.7099 -34.6636 -34.6391 -34.6061 -34.4979
   -34.4831 -34.4490 -34.4459 -34.4334 -34.4268 -34.4069 -34.3849 -34.3815
   -34.3607 -34.2315 -34.1728 -34.1677 -34.1394 -34.1220 -34.0789 -34.0028
   -33.9990 -33.9988 -33.9647 -33.9279 -33.9210 -33.9068 -33.8988 -33.8751
   -33.8645 -33.8503 -33.7752 -33.7671 -33.7395 -33.7136 -33.7116 -33.6939
   -33.6891 -33.3370 -33.2640 -33.2234 -33.2193 -33.2081 -33.1850 -33.1771
   -33.1248 -33.0812 -33.0723 -33.0534 -33.0311 -32.9964 -32.9899 -32.9729
   -18.8820 -18.6218 -18.4744 -18.2384 -18.1382 -17.9744 -17.8915 -17.8788
   -17.8609 -17.8601 -17.7610 -17.7499 -17.6988 -17.6739 -17.6312 -17.6216
   -17.6092 -17.5721 -17.5660 -17.4524 -17.3620 -17.3526 -17.2576 -17.2427
   -17.2155 -17.1537 -17.1355 -17.0462 -17.0265 -16.9537 -16.7730 -16.4170
   -15.3647 -15.3530 -15.2425 -15.1581 -13.5966  -6.9438  -6.6285  -5.9498
    -5.7550  -5.7206  -5.6700  -5.3496  -5.3123  -5.2272  -5.2021  -5.1632
    -5.1377  -5.1238  -5.0936  -5.0823  -5.0072  -4.9704  -4.9612  -4.9574
    -4.9144  -4.8953  -4.8467  -4.8258  -4.7762  -4.7553  -4.7473  -4.7130
    -4.6689  -4.6503  -4.5758  -4.5706  -4.4966  -4.4578  -4.3189  -4.2350
    -4.2098  -4.1803  -4.0832  -4.0700  -4.0369  -3.9412  -3.9252  -3.9047
    -3.7770  -3.7423  -3.6328  -3.6169  -3.5679  -3.5449  -3.5170  -3.4893
    -3.4250  -3.3823  -3.3665  -3.3619  -3.3278  -3.2593  -3.2292  -3.2125
    -3.1807  -3.1630  -3.1527  -3.1419  -3.0756  -3.0589  -3.0287  -2.9903
    -2.9282  -2.9048  -2.8492  -2.8483  -2.7868  -2.7471  -2.6930  -2.6868
    -2.6147  -2.5926  -2.5864  -2.5784  -2.4781  -2.4523  -2.4442  -2.3022
    -2.1645  -2.1131  -2.0700  -1.9667  -1.9089  -1.9048  -1.8808  -1.8129
    -1.7879  -1.7042  -1.6504  -1.6267  -1.6193  -1.5941  -1.3751  -1.3451
    -1.3333  -1.2903  -1.2263  -1.1310  -0.8127  -0.5930  -0.5791  -0.4997
    -0.4768  -0.4238  -0.4024  -0.3879   1.0300   1.2050   1.2766   1.3698
     1.3705   1.4031   1.4528   1.6189   1.6522   1.7058

     the Fermi energy is     0.3878 ev

!    total energy              =   -3293.29237841 Ry
     estimated scf accuracy    <       0.00000007 Ry
     smearing contrib. (-TS)   =      -0.00047766 Ry
     internal energy E=F+TS    =   -3293.29190075 Ry

     The total energy is F=E-TS. E is the sum of the following terms:
     one-electron contribution =  -34638.96351760 Ry
     hartree contribution      =   17383.77727246 Ry
     xc contribution           =    -542.08512104 Ry
     ewald contribution        =   14503.97735549 Ry
     electric field correction =       0.00210994 Ry

     convergence has been achieved in  63 iterations

     Forces acting on atoms (cartesian axes, Ry/au):

     atom    1 type  1   force =     0.00000887    0.00245640    0.04674106
     atom    2 type  1   force =     0.00000798   -0.00342131   -0.00288273
     atom    3 type  1   force =    -0.00001326    0.00220779    0.00213841
     atom    4 type  1   force =     0.00005112   -0.00097961    0.10169212
     atom    5 type  1   force =    -0.00000946   -0.00071597    0.00562780
     atom    6 type  1   force =    -0.00001323    0.00367965    0.00085721
     atom    7 type  1   force =     0.07818760    0.00086236   -0.03540111
     atom    8 type  1   force =     0.00833705   -0.02587736    0.00018358
     atom    9 type  1   force =     0.00848416    0.02067802    0.00126783
     atom   10 type  2   force =    -0.00006277    0.00867515   -0.15837976
     atom   11 type  2   force =    -0.00003659    0.02308995   -0.00230794
     atom   12 type  2   force =     0.00005224   -0.02553397   -0.00413045
     atom   13 type  1   force =    -0.07828090    0.00040578   -0.03538944
     atom   14 type  1   force =    -0.00838316   -0.02579041    0.00019157
     atom   15 type  1   force =    -0.00843627    0.02078770    0.00130011
     atom   16 type  2   force =     0.00012956    0.00086908    0.07317904
     atom   17 type  2   force =     0.00006063    0.03072714    0.00237213
     atom   18 type  2   force =    -0.00006150   -0.02690127    0.00069016
     atom   19 type  1   force =     0.00004037    0.00299574    0.05012729
     atom   20 type  1   force =    -0.00002106   -0.00127135   -0.00144940
     atom   21 type  1   force =     0.00005178   -0.00064748    0.10017232
     atom   22 type  1   force =    -0.00001615   -0.00180253    0.00545752
     atom   23 type  1   force =    -0.00002096    0.00235194    0.00390170
     atom   24 type  1   force =     0.07914002    0.00064748   -0.03605393
     atom   25 type  1   force =     0.00923527   -0.02949668    0.00062389
     atom   26 type  1   force =     0.00848681    0.02157868    0.00323475
     atom   27 type  2   force =    -0.00006835   -0.00813256   -0.15492620
     atom   28 type  2   force =    -0.00000874    0.02628751   -0.00224081
     atom   29 type  2   force =     0.00004337   -0.02444966   -0.00342080
     atom   30 type  1   force =    -0.07922952    0.00023806   -0.03604982
     atom   31 type  1   force =    -0.00924196   -0.02942741    0.00062984
     atom   32 type  1   force =    -0.00844168    0.02165549    0.00326256
     atom   33 type  2   force =     0.00013222   -0.00255770    0.07886374
     atom   34 type  2   force =     0.00004942    0.03584884    0.00278040
     atom   35 type  2   force =    -0.00006894   -0.02920311    0.00296892
     atom   36 type  1   force =     0.00004180    0.00307353    0.05239325
     atom   37 type  1   force =    -0.00000364   -0.00187075   -0.00284116
     atom   38 type  1   force =    -0.00002106    0.00211236    0.00089535
     atom   39 type  1   force =     0.00004723    0.00287283    0.10109388
     atom   40 type  1   force =    -0.00000926   -0.00170782    0.00619280
     atom   41 type  1   force =    -0.00002764    0.00286071    0.00382180
     atom   42 type  1   force =     0.07825025    0.00076482   -0.03487749
     atom   43 type  1   force =     0.00660608   -0.02304312   -0.00020227
     atom   44 type  1   force =     0.01116917    0.02211322   -0.00712843
     atom   45 type  2   force =    -0.00006143   -0.00551180   -0.16465064
     atom   46 type  2   force =    -0.00007780    0.01958019    0.00099873
     atom   47 type  2   force =     0.00002677   -0.01844391    0.00704287
     atom   48 type  1   force =    -0.07834625    0.00031558   -0.03485972
     atom   49 type  1   force =    -0.00664677   -0.02300965   -0.00019845
     atom   50 type  1   force =    -0.01113742    0.02209705   -0.00708396
     atom   51 type  2   force =     0.00012696   -0.00436842    0.06096004
     atom   52 type  2   force =     0.00012409    0.02964850    0.00359229
     atom   53 type  2   force =    -0.00007382   -0.02498101    0.00095451
     atom   54 type  3   force =    -0.00000658    0.00071940   -0.00012622
     atom   55 type  3   force =    -0.00001390    0.00082929   -0.00280269
     atom   56 type  4   force =    -0.00002325    0.00709269    0.00045655
     atom   57 type  4   force =    -0.00000681   -0.00046299    0.00055848
     atom   58 type  3   force =    -0.00000545   -0.00012542   -0.00005270
     atom   59 type  3   force =    -0.00001521   -0.00038968    0.00023165

     Total force =     0.437275     Total SCF correction =     0.000899
  @ DRIVER MODE: Message from server: STATUS
  @ DRIVER MODE: Message from server: GETFORCE
  @ DRIVER MODE: Returning v,forces,stress,ensemble

     Writing output data file ./calc.save/
  @ DRIVER MODE: Message from server: EXIT
  @ DRIVE MODE: Exiting

     General routines

     Parallel routines

   This run was terminated on:  16:16: 8  18Oct2021

   JOB DONE.