     Program PWSCF v.6.7GPU starts on 28Sep2021 at  0:37: 2

     R & G space division:  proc/nbgrp/npool/nimage =       8
     Reading input from /storage/home/hcoda1/3/ntian30/research/carbon/CxH_vib/H2O_calc/ads_slab/CH3OHN2H2O_a/out_0017/pw.inp
Warning: card &CELL ignored
Warning: card   CELL_DYNAMICS='IPI', ignored
Warning: card / ignored

     Current dimensions of program PWSCF are:
     Max number of different atomic species (ntypx) = 10
     Max number of k-points (npk) =  40000
     Max angular momentum in pseudopotentials (lmaxx) =  3
     Presently no symmetry can be used with electric field

     Message from routine cell_base_init:
     DEPRECATED: use true lattice parameter, not A to a.u. conversion factor

     IMPORTANT: XC functional enforced from input :
     Exchange-correlation= BEEF-VDW
                           (   1   4  43  14   2   0   0)
     Any further DFT definition will be discarded
     Please, verify this is what you really want

  @ DRIVER MODE: Connecting to
 qe_1139763_3000313.sched-torque.pace.gatech.eduf0os1tnu_scratch
  using UNIX socket
  @ DRIVER MODE: Message from server: STATUS
  @ DRIVER MODE: Message from server: INIT
  @ DRIVER MODE: Receiving replica           0          -1
  @ DRIVER MODE: Receiving encoded integer          25
  @ DRIVER MODE:  SCF:  T  FORCE:  T  STRESS:  F  VC:  F  ENSEMBLE:  F
  @ DRIVER MODE:  SCF:  T  FORCE:  T  STRESS:  F  VC:  F  ENSEMBLE:  F

     Using Slab Decomposition

     bravais-lattice index     =            0
     lattice parameter (alat)  =       1.8897  a.u.
     unit-cell volume          =    6658.9804 (a.u.)^3
     number of atoms/cell      =           58
     number of atomic types    =            5
     number of electrons       =       410.00
     number of Kohn-Sham states=          215
     kinetic-energy cutoff     =      29.3995  Ry
     charge density cutoff     =     293.9946  Ry
     scf convergence threshold =      7.3E-08
     mixing beta               =       0.0500
     number of iterations used =            8  plain     mixing
     Exchange-correlation= BEEF-VDW
                           (   1   4  43  14   2   0   0)

     celldm(1)=   1.889726  celldm(2)=   0.000000  celldm(3)=   0.000000
     celldm(4)=   0.000000  celldm(5)=   0.000000  celldm(6)=   0.000000

     crystal axes: (cart. coord. in units of alat)
               a(1) = (   6.579727   0.000000   0.000000 )
               a(2) = (  -0.000775   5.961596   0.000000 )
               a(3) = (   0.000000   0.000000  25.155947 )

     reciprocal axes: (cart. coord. in units 2 pi/alat)
               b(1) = (  0.151982  0.000020  0.000000 )
               b(2) = (  0.000000  0.167740  0.000000 )
               b(3) = (  0.000000  0.000000  0.039752 )

     PseudoPot. # 1 for Ti read from file:
     /storage/coda1/p-amedford6/0/shared/rich_project_chbe-medford/medford-share/data/pseudos_module/espresso/nninc/pbe/van/Ti.UPF
     MD5 check sum: 8e4df49b7f0d34bbd5052bf3f5ea0213
     Pseudo is Ultrasoft, Zval = 12.0
     Generated by new atomic code, or converted to UPF format
     Using radial grid of  851 points,  6 beta functions with:
                l(1) =   0
                l(2) =   0
                l(3) =   1
                l(4) =   1
                l(5) =   2
                l(6) =   2
     Q(r) pseudized with  8 coefficients,  rinner =    1.000   1.000   1.000
                                                       1.000   1.000

     PseudoPot. # 2 for O  read from file:
     /storage/coda1/p-amedford6/0/shared/rich_project_chbe-medford/medford-share/data/pseudos_module/espresso/nninc/pbe/van/O.UPF
     MD5 check sum: 78c19812648e8988a0fe644b0f25305e
     Pseudo is Ultrasoft, Zval =  6.0
     Generated by new atomic code, or converted to UPF format
     Using radial grid of  737 points,  4 beta functions with:
                l(1) =   0
                l(2) =   0
                l(3) =   1
                l(4) =   1
     Q(r) pseudized with  8 coefficients,  rinner =    0.800   0.800   0.800

     PseudoPot. # 3 for C  read from file:
     /storage/coda1/p-amedford6/0/shared/rich_project_chbe-medford/medford-share/data/pseudos_module/espresso/nninc/pbe/van/C.UPF
     MD5 check sum: 1a69bf6b8db32088f5b2163dbdb77a27
     Pseudo is Ultrasoft, Zval =  4.0
     Generated by new atomic code, or converted to UPF format
     Using radial grid of  721 points,  4 beta functions with:
                l(1) =   0
                l(2) =   0
                l(3) =   1
                l(4) =   1
     Q(r) pseudized with  8 coefficients,  rinner =    0.800   0.800   0.800

     PseudoPot. # 4 for H  read from file:
     /storage/coda1/p-amedford6/0/shared/rich_project_chbe-medford/medford-share/data/pseudos_module/espresso/nninc/pbe/van/H.UPF
     MD5 check sum: b5ee9d7bfd3a09ee7748110bda690ff7
     Pseudo is Ultrasoft, Zval =  1.0
     Generated by new atomic code, or converted to UPF format
     Using radial grid of  615 points,  1 beta functions with:
                l(1) =   0
     Q(r) pseudized with  8 coefficients,  rinner =    0.800

     PseudoPot. # 5 for N  read from file:
     /storage/coda1/p-amedford6/0/shared/rich_project_chbe-medford/medford-share/data/pseudos_module/espresso/nninc/pbe/van/N.UPF
     MD5 check sum: 90d10febe142ad51ac9d5be1deb811c4
     Pseudo is Ultrasoft, Zval =  5.0
     Generated by new atomic code, or converted to UPF format
     Using radial grid of  729 points,  4 beta functions with:
                l(1) =   0
                l(2) =   0
                l(3) =   1
                l(4) =   1
     Q(r) pseudized with  8 coefficients,  rinner =    0.800   0.800   0.800

     atomic species   valence    mass     pseudopotential
        Ti1           12.00    47.86700     Ti( 1.00)
        O1             6.00    15.99900     O ( 1.00)
        C1             4.00    12.01100     C ( 1.00)
        H1             1.00     1.00800     H ( 1.00)
        N1             5.00    14.00700     N ( 1.00)

     No symmetry found

   Cartesian axes

     site n.     atom                  positions (alat units)
         1           Ti1 tau(   1) = (   0.0004258   2.9801865   6.0000000  )
         2           Ti1 tau(   2) = (   3.2906075   1.4906267   6.0002472  )
         3           O1  tau(   3) = (   0.0006271   0.0005054   7.9858123  )
         4           O1  tau(   4) = (   3.2906025   0.0005020   7.3038282  )
         5           O1  tau(   5) = (   4.5942328   1.4918067   9.2879030  )
         6           O1  tau(   6) = (   1.9868534   1.4903216   9.2879459  )
         7           Ti1 tau(   7) = (   3.3250738   2.9918783   9.1599549  )
         8           Ti1 tau(   8) = (   0.0412716   1.4903975   9.2658274  )
         9           O1  tau(   9) = (   3.2852344   0.0116916  11.3753809  )
        10           O1  tau(  10) = (   6.5701620   0.0027176  10.6052010  )
        11           O1  tau(  11) = (   1.2758103   1.4969824  12.6410148  )
        12           O1  tau(  12) = (   5.2796941   1.4985041  12.6691897  )
        13           Ti1 tau(  13) = (   6.5531116   2.9870417  12.5348353  )
        14           Ti1 tau(  14) = (   3.2504356   1.4995581  12.5215122  )
        15           O1  tau(  15) = (   0.0383206   0.0046779  14.6787597  )
        16           O1  tau(  16) = (   3.2537876   0.0095675  14.0320577  )
        17           O1  tau(  17) = (   4.5855444   1.5609978  16.0639115  )
        18           O1  tau(  18) = (   2.0343745   1.5440679  16.2001998  )
        19           Ti1 tau(  19) = (   3.3058624   3.0043567  15.7064231  )
        20           Ti1 tau(  20) = (   6.5549511   1.4266458  15.8675638  )
        21           O1  tau(  21) = (   3.2904802   0.0005063   4.7018136  )
        22           O1  tau(  22) = (   6.4974171   0.0126247  17.2237355  )
        23           O1  tau(  23) = (   1.3043587   1.4918075   6.0039043  )
        24           O1  tau(  24) = (   5.2767064   1.4903225   6.0039473  )
        25           Ti1 tau(  25) = (   0.0000382   5.9609847   6.0000000  )
        26           Ti1 tau(  26) = (   3.2902200   4.4714249   6.0002472  )
        27           O1  tau(  27) = (   0.0002396   2.9813036   7.9858123  )
        28           O1  tau(  28) = (   3.2902150   2.9813002   7.3038282  )
        29           O1  tau(  29) = (   4.5938453   4.4726049   9.2879030  )
        30           O1  tau(  30) = (   1.9864658   4.4711199   9.2879459  )
        31           Ti1 tau(  31) = (   3.3194574   0.0113313   9.1541029  )
        32           Ti1 tau(  32) = (   0.0414074   4.4589881   9.2683624  )
        33           O1  tau(  33) = (   3.2821265   2.9896323  11.3676027  )
        34           O1  tau(  34) = (   6.5712111   2.9825298  10.6251173  )
        35           O1  tau(  35) = (   1.2751242   4.4805681  12.6359318  )
        36           O1  tau(  36) = (   5.2791817   4.4782367  12.6627471  )
        37           Ti1 tau(  37) = (   6.5506445   0.0032150  12.4806913  )
        38           Ti1 tau(  38) = (   3.2507345   4.4881811  12.5195668  )
        39           O1  tau(  39) = (   0.0469291   2.9928743  14.8464778  )
        40           O1  tau(  40) = (   3.2514374   2.9975957  13.9281162  )
        41           O1  tau(  41) = (   4.5866068   4.4203933  16.0984022  )
        42           O1  tau(  42) = (   2.0418857   4.4579080  16.2200674  )
        43           Ti1 tau(  43) = (   3.2648600   0.0292614  15.8571223  )
        44           Ti1 tau(  44) = (   6.5763064   4.6169283  15.9626260  )
        45           O1  tau(  45) = (   3.2900926   2.9813045   4.7018136  )
        46           O1  tau(  46) = (   1.3039711   4.4726057   6.0039043  )
        47           O1  tau(  47) = (   5.2763189   4.4711207   6.0039473  )
        48           C1  tau(  48) = (   6.0301898   2.9050411  18.9351799  )
        49           O1  tau(  49) = (   0.1575529   2.9516393  17.6723866  )
        50           H1  tau(  50) = (   4.9714676   2.8818909  18.6891823  )
        51           H1  tau(  51) = (   1.1132637   2.8218831  17.8130049  )
        52           H1  tau(  52) = (   6.2985093   1.9952365  19.4696065  )
        53           H1  tau(  53) = (   6.2732381   3.7939772  19.5169533  )
        54           N1  tau(  54) = (   4.8840950   3.1052494  22.6850861  )
        55           N1  tau(  55) = (   4.2680757   3.3403818  21.7970487  )
        56           O1  tau(  56) = (   3.8772584   0.1141246  18.3039653  )
        57           H1  tau(  57) = (   4.8407149   0.0692883  18.0716375  )
        58           H1  tau(  58) = (   3.6680196   5.2122673  18.6877519  )

     number of k points=    10  Fermi-Dirac smearing, width (Ry)=  0.0073
                       cart. coord. in units 2pi/alat
        k(    1) = (   0.0000000   0.0000000   0.0000000), wk =   0.1250000
        k(    2) = (   0.0000000   0.0419351   0.0000000), wk =   0.2500000
        k(    3) = (   0.0000000  -0.0838702   0.0000000), wk =   0.1250000
        k(    4) = (   0.0379955   0.0000049   0.0000000), wk =   0.2500000
        k(    5) = (   0.0379955   0.0419400   0.0000000), wk =   0.2500000
        k(    6) = (   0.0379955  -0.0838652   0.0000000), wk =   0.2500000
        k(    7) = (   0.0379955  -0.0419301   0.0000000), wk =   0.2500000
        k(    8) = (  -0.0759910  -0.0000099   0.0000000), wk =   0.1250000
        k(    9) = (  -0.0759910   0.0419252   0.0000000), wk =   0.2500000
        k(   10) = (  -0.0759910  -0.0838800   0.0000000), wk =   0.1250000

     Initial potential from superposition of free atoms

     starting charge  393.99913, renormalised to  410.00000

     negative rho (up, down):  9.554E-03 0.000E+00

     %%%%%%%%%%%%%%%%%%%%%%%%%%%%%%%%%%%%%%%%%%%%%%%%%%%%%%%%%%%%%%%%%%%%%%%%
     %                                                                      %
     % You are using vdW-DF, which was implemented by the Thonhauser group. %
     % Please cite the following two papers that made this development      %
     % possible and the two reviews that describe the various versions:     %
     %                                                                      %
     %   T. Thonhauser et al., PRL 115, 136402 (2015).                      %
     %   T. Thonhauser et al., PRB 76, 125112 (2007).                       %
     %   K. Berland et al., Rep. Prog. Phys. 78, 066501 (2015).             %
     %   D.C. Langreth et al., J. Phys.: Condens. Matter 21, 084203 (2009). %
     %                                                                      %
     %                                                                      %
     % If you are calculating the stress with vdW-DF, please also cite:     %
     %                                                                      %
     %   R. Sabatini et al., J. Phys.: Condens. Matter 24, 424209 (2012).   %
     %                                                                      %
     %%%%%%%%%%%%%%%%%%%%%%%%%%%%%%%%%%%%%%%%%%%%%%%%%%%%%%%%%%%%%%%%%%%%%%%%

     Adding external electric field

     Computed dipole along edir(3) :
        Dipole              -20.0776 Ry au,        -51.0322 Debye
        Dipole field         -0.0379 Ry au,

        Potential amp.        3.5123 Ry
        Total length         46.3494 bohr

     Starting wfcs are  310 atomic wfcs
  @ DRIVER MODE: Message from server: STATUS
  @ DRIVER MODE: Message from server: POSDATA
  @ DRIVER MODE: Reading and sharing cell
  @ DRIVER MODE: Reading and sharing positions
  @ DRIVER MODE: Received positions

     Self-consistent Calculation

     iteration #  1     ecut=    29.40 Ry     beta= 0.05
     Davidson diagonalization with overlap
     c_bands:  1 eigenvalues not converged
     c_bands:  1 eigenvalues not converged
     c_bands:  5 eigenvalues not converged
     c_bands:  1 eigenvalues not converged
     c_bands:  4 eigenvalues not converged
     c_bands:  3 eigenvalues not converged
     ethr =  1.00E-05,  avg # of iterations = 32.1

[...]

     total energy              =   -2098.61867556 Ry
     estimated scf accuracy    <   10668.22723188 Ry

     iteration #  2     ecut=    29.40 Ry     beta= 0.05
     Davidson diagonalization with overlap
     ethr =  1.00E-02,  avg # of iterations = 30.5

[...]

     iteration # 73     ecut=    29.40 Ry     beta= 0.05
     Davidson diagonalization with overlap
     ethr =  1.17E-08,  avg # of iterations =  9.2

[...]

     total energy              =   -3007.66318447 Ry
     estimated scf accuracy    <       0.00000009 Ry

     iteration # 89     ecut=    29.40 Ry     beta= 0.05
     Davidson diagonalization with overlap
     c_bands:  2 eigenvalues not converged
     c_bands:  1 eigenvalues not converged
     ethr =  2.11E-11,  avg # of iterations = 10.8

     negative rho (up, down):  1.050E-02 0.000E+00

     Adding external electric field

     Computed dipole along edir(3) :
        Dipole                1.2322 Ry au,          3.1320 Debye
        Dipole field          0.0023 Ry au,

        Potential amp.       -0.2156 Ry
        Total length         46.3494 bohr

     End of self-consistent calculation

          k = 0.0000 0.0000 0.0000 ( 18029 PWs)   bands (ev):

   -54.9345 -54.9109 -54.8985 -54.8765 -54.8614 -54.8559 -54.8291 -54.8094
   -54.7814 -54.7785 -54.7441 -54.7239 -54.6925 -54.6900 -53.9987 -53.9646
   -31.5003 -31.4743 -31.4067 -31.3136 -31.2541 -31.2488 -31.2366 -31.2350
   -31.1996 -31.1648 -31.1556 -31.1536 -31.1491 -31.1260 -31.1193 -31.1133
   -31.0969 -31.0782 -31.0725 -31.0708 -31.0641 -31.0561 -31.0332 -31.0276
   -31.0269 -31.0211 -31.0063 -31.0041 -31.0028 -30.9672 -30.9499 -30.9301
   -30.9287 -30.9276 -30.9191 -30.9181 -30.9082 -30.8777 -30.8639 -30.8595
   -30.8549 -30.8356 -30.4107 -30.3083 -30.2868 -30.2269 -30.1405 -30.0295
   -21.6256 -19.8071 -18.2743 -15.7678 -15.5217 -15.3824 -15.2851 -15.1614
   -15.0312 -14.9573 -14.8369 -14.7651 -14.6714 -14.6578 -14.6395 -14.6179
   -14.5849 -14.5589 -14.5019 -14.4969 -14.4422 -14.4388 -14.4280 -14.4173
   -14.3844 -14.3687 -14.3382 -14.3288 -14.1664 -14.1007 -14.0410 -13.8970
   -12.4994 -12.3801 -10.8171  -6.8757  -6.5540  -6.0322  -4.8491  -4.7825
    -4.7205  -4.6323  -3.5477  -3.1011  -2.9499  -2.9137  -2.8925  -2.8707
    -2.7462  -2.6550  -2.6260  -2.4661  -2.3720  -2.2369  -2.2094  -2.1772
    -2.1391  -2.0709  -2.0153  -1.9285  -1.8987  -1.8585  -1.8386  -1.8147
    -1.7999  -1.7732  -1.7429  -1.6708  -1.6330  -1.5485  -1.5320  -1.4444
    -1.3918  -1.3834  -1.3403  -1.2773  -1.2741  -1.2635  -1.2232  -1.2096
    -1.2013  -1.1910  -1.1845  -1.0234  -0.9782  -0.9443  -0.8210  -0.7107
    -0.6184  -0.6088  -0.5052  -0.4917  -0.4289  -0.4243  -0.3846  -0.3451
    -0.2829  -0.1865  -0.1284  -0.0820  -0.0690   0.0416   0.1074   0.1220
     0.1834   0.2586   0.2738   0.2953   0.3246   0.4116   0.4795   0.5213
     0.5558   0.6207   0.6304   0.6777   0.7068   0.7477   0.8334   0.8872
     0.8907   0.9778   0.9949   1.0082   1.0335   1.0391   1.1373   1.1712
     1.2155   1.2434   1.3947   1.4299   1.6210   1.6565   1.9167   2.0152
     2.0270   2.1883   2.6129   2.6674   4.1552   4.2233   4.2599   4.2671
     4.2817   4.3612   4.6434   4.6512   4.6636   4.6755   4.6834

[...]

          k = 0.0380-0.0419 0.0000 ( 17876 PWs)   bands (ev):

[...]

          k =-0.0760-0.0000 0.0000 ( 17886 PWs)   bands (ev):

[...]

          k =-0.0760-0.0839 0.0000 ( 17948 PWs)   bands (ev):

   -54.9174 -54.9154 -54.8955 -54.8917 -54.8565 -54.8513 -54.8219 -54.8170
   -54.7887 -54.7635 -54.7588 -54.7084 -54.7056 -54.6941 -53.9816 -53.9815
   -31.3870 -31.3092 -31.2990 -31.2234 -31.2198 -31.1971 -31.1898 -31.1885
   -31.1813 -31.1585 -31.1438 -31.1419 -31.1342 -31.1282 -31.1092 -31.0952
   -31.0795 -31.0776 -31.0691 -31.0677 -31.0659 -31.0649 -31.0592 -31.0537
   -31.0291 -31.0235 -31.0197 -31.0143 -31.0142 -31.0114 -31.0107 -31.0102
   -31.0099 -30.9810 -30.9727 -30.9615 -30.9604 -30.9334 -30.9310 -30.8953
   -30.8920 -30.8774 -30.2993 -30.2993 -30.2235 -30.2231 -30.1838 -30.1836
   -21.6255 -19.8035 -18.2733 -15.3428 -15.2295 -15.0635 -14.9552 -14.9453
   -14.9167 -14.8578 -14.8147 -14.7834 -14.7434 -14.7329 -14.7037 -14.6858
   -14.6804 -14.6228 -14.5388 -14.5332 -14.5194 -14.4841 -14.4569 -14.4429
   -14.4410 -14.4267 -14.3896 -14.3878 -14.3685 -14.3574 -14.3010 -14.2088
   -12.4814 -12.4809 -10.8198  -6.8748  -6.5563  -6.0346  -4.8469  -4.7894
    -4.7132  -4.6205  -3.5394  -2.7660  -2.5379  -2.4969  -2.4240  -2.2578
    -2.1785  -2.1575  -2.0817  -2.0577  -2.0225  -1.9441  -1.9404  -1.9063
    -1.8665  -1.8417  -1.8360  -1.8178  -1.7995  -1.7665  -1.7458  -1.7245
    -1.7110  -1.6958  -1.6491  -1.6403  -1.6045  -1.6009  -1.5862  -1.5745
    -1.5552  -1.5445  -1.4639  -1.4356  -1.3947  -1.3092  -1.2924  -1.1627
    -1.1572  -1.1112  -1.0748  -1.0365  -1.0174  -0.9959  -0.9714  -0.9407
    -0.9090  -0.7368  -0.7158  -0.6729  -0.6216  -0.6157  -0.5426  -0.5269
    -0.4725  -0.4402  -0.3507  -0.3097  -0.2700  -0.1614  -0.1346  -0.1222
     0.0160   0.0218   0.0671   0.0686   0.1108   0.1493   0.1616   0.1688
     0.2437   0.2761   0.3125   0.3385   0.3622   0.5402   0.5765   0.6352
     0.7248   0.7429   0.9214   0.9515   0.9954   1.0763   1.1378   1.1916
     1.2139   1.3221   1.3297   1.3531   1.4447   1.4932   1.4944   1.5243
     2.3783   2.3812   2.4819   2.4847   4.2796   4.4105   4.4168   4.4967
     4.5705   4.6632   4.6664   4.6781   4.7080   4.7187   4.7206

     the Fermi energy is     4.2114 ev

!    total energy              =   -3007.66318924 Ry
     estimated scf accuracy    <       0.00000006 Ry
     smearing contrib. (-TS)   =      -0.03683642 Ry
     internal energy E=F+TS    =   -3007.62635282 Ry

     The total energy is F=E-TS. E is the sum of the following terms:
     one-electron contribution =  -22339.54332618 Ry
     hartree contribution      =   11271.56579770 Ry
     xc contribution           =    -502.07961572 Ry
     ewald contribution        =    8562.42792606 Ry
     electric field correction =       0.00286531 Ry

     convergence has been achieved in  89 iterations

     Forces acting on atoms (cartesian axes, Ry/au):

     atom    1 type  1   force =    -0.00026950   -0.00000992    0.09251645
     atom    2 type  1   force =    -0.00012897    0.00114311   -0.18322927
     atom    3 type  2   force =     0.00055359   -0.00040219   -0.02389730
     atom    4 type  2   force =     0.00079638    0.00021132    0.05084065
     atom    5 type  2   force =    -0.01546347   -0.00014243    0.00437660
     atom    6 type  2   force =     0.01417239   -0.00033145    0.00506041
     atom    7 type  1   force =    -0.00011225    0.00020597    0.00005236
     atom    8 type  1   force =    -0.00007251    0.00012287    0.00000818
     atom    9 type  2   force =     0.00007539    0.00004478    0.00012278
     atom   10 type  2   force =    -0.00000044    0.00001797   -0.00004479
     atom   11 type  2   force =     0.00017781    0.00002319   -0.00013290
     atom   12 type  2   force =     0.00003270    0.00004246   -0.00005663
     atom   13 type  1   force =     0.00017113    0.00011669   -0.00002425
     atom   14 type  1   force =     0.00026872    0.00016264   -0.00010812
     atom   15 type  2   force =     0.00027516    0.00039302   -0.00000369
     atom   16 type  2   force =     0.00015754   -0.00001730    0.00019404
     atom   17 type  2   force =     0.00001200    0.00014659    0.00013962
     atom   18 type  2   force =     0.00021730   -0.00000139    0.00026077
     atom   19 type  1   force =     0.00003451   -0.00014148    0.00002856
     atom   20 type  1   force =     0.00022286   -0.00010053   -0.00018288
     atom   21 type  2   force =     0.00002856    0.00001566    0.10488493
     atom   22 type  2   force =    -0.00024427   -0.00002140    0.00013329
     atom   23 type  2   force =    -0.06801798   -0.00010993   -0.02683662
     atom   24 type  2   force =     0.06788017    0.00034609   -0.02687727
     atom   25 type  1   force =    -0.00011938   -0.00002882    0.09596501
     atom   26 type  1   force =    -0.00010818   -0.00143870   -0.18314537
     atom   27 type  2   force =     0.00050267   -0.00019490   -0.02268464
     atom   28 type  2   force =     0.00086435    0.00017940    0.05123162
     atom   29 type  2   force =    -0.01538179    0.00050272    0.00454916
     atom   30 type  2   force =     0.01412910    0.00078269    0.00524841
     atom   31 type  1   force =    -0.00009864    0.00005556   -0.00001453
     atom   32 type  1   force =    -0.00007553    0.00020558   -0.00003837
     atom   33 type  2   force =     0.00012520   -0.00002804    0.00017777
     atom   34 type  2   force =     0.00000377    0.00007285    0.00000268
     atom   35 type  2   force =     0.00013666   -0.00001258   -0.00003047
     atom   36 type  2   force =     0.00007572   -0.00001300    0.00009463
     atom   37 type  1   force =     0.00016203    0.00006751   -0.00010421
     atom   38 type  1   force =     0.00015389   -0.00003036    0.00004315
     atom   39 type  2   force =     0.00016539   -0.00008536   -0.00019410
     atom   40 type  2   force =     0.00002551   -0.00018112    0.00003853
     atom   41 type  2   force =     0.00021027   -0.00000938    0.00005387
     atom   42 type  2   force =    -0.00003265    0.00002717    0.00011065
     atom   43 type  1   force =    -0.00006994   -0.00018676    0.00114112
     atom   44 type  1   force =     0.00009246    0.00014867    0.00033945
     atom   45 type  2   force =     0.00003387    0.00001963    0.10481199
     atom   46 type  2   force =    -0.06802740   -0.00051407   -0.02682668
     atom   47 type  2   force =     0.06788645   -0.00009194   -0.02690409
     atom   48 type  3   force =    -0.00300210   -0.00012973   -0.00265477
     atom   49 type  2   force =     0.00122699   -0.00013714    0.00009257
     atom   50 type  4   force =     0.00224718   -0.00035920    0.00285257
     atom   51 type  4   force =     0.00019007   -0.00008704   -0.00011657
     atom   52 type  4   force =    -0.00021999   -0.00042938   -0.00000384
     atom   53 type  4   force =    -0.00046261    0.00022128   -0.00025445
     atom   54 type  5   force =    -0.00083257    0.00000146   -0.00094856
     atom   55 type  5   force =     0.00026632   -0.00003967    0.00008046
     atom   56 type  2   force =     0.00128675    0.00056940   -0.00082055
     atom   57 type  4   force =    -0.00101606   -0.00044753    0.00024033
     atom   58 type  4   force =    -0.00110464   -0.00012351    0.00044231

     Total force =     0.368157     Total SCF correction =     0.000443
  @ DRIVER MODE: Message from server: STATUS
  @ DRIVER MODE: Message from server: GETFORCE
  @ DRIVER MODE: Returning v,forces,stress,ensemble

     Writing output data file ./calc.save/
  @ DRIVER MODE: Message from server: EXIT
  @ DRIVE MODE: Exiting

     General routines

     Parallel routines

   This run was terminated on:   1: 7:34  28Sep2021

   JOB DONE.