     Program PWSCF v.6.7GPU starts on 23Sep2021 at 18:50: 8

     R & G space division:  proc/nbgrp/npool/nimage =       8
     Reading input from /storage/home/hcoda1/3/ntian30/research/carbon/CxH_vib/H2O_calc/ads_slab/CH3N2HHO_a/out_0051/pw.inp
Warning: card &CELL ignored
Warning: card   CELL_DYNAMICS='IPI', ignored
Warning: card / ignored

     Current dimensions of program PWSCF are:
     Max number of different atomic species (ntypx) = 10
     Max number of k-points (npk) =  40000
     Max angular momentum in pseudopotentials (lmaxx) =  3
     Presently no symmetry can be used with electric field

     Message from routine cell_base_init:
     DEPRECATED: use true lattice parameter, not A to a.u. conversion factor

     IMPORTANT: XC functional enforced from input :
     Exchange-correlation= BEEF-VDW
                           (   1   4  43  14   2   0   0)
     Any further DFT definition will be discarded
     Please, verify this is what you really want

  @ DRIVER MODE: Connecting to
 qe_1139763_2941009.sched-torque.pace.gatech.edux0og4zr1_scratch
  using UNIX socket
  @ DRIVER MODE: Message from server: STATUS
  @ DRIVER MODE: Message from server: INIT
  @ DRIVER MODE: Receiving replica           0          -1
  @ DRIVER MODE: Receiving encoded integer          25
  @ DRIVER MODE:  SCF:  T  FORCE:  T  STRESS:  F  VC:  F  ENSEMBLE:  F
  @ DRIVER MODE:  SCF:  T  FORCE:  T  STRESS:  F  VC:  F  ENSEMBLE:  F

     Using Slab Decomposition

     bravais-lattice index     =            0
     lattice parameter (alat)  =       1.8897  a.u.
     unit-cell volume          =    6658.9804 (a.u.)^3
     number of atoms/cell      =           56
     number of atomic types    =            5
     number of electrons       =       403.00
     number of Kohn-Sham states=          211
     kinetic-energy cutoff     =      29.3995  Ry
     charge density cutoff     =     293.9946  Ry
     scf convergence threshold =      7.3E-08
     mixing beta               =       0.0500
     number of iterations used =            8  plain     mixing
     Exchange-correlation= BEEF-VDW
                           (   1   4  43  14   2   0   0)

     celldm(1)=   1.889726  celldm(2)=   0.000000  celldm(3)=   0.000000
     celldm(4)=   0.000000  celldm(5)=   0.000000  celldm(6)=   0.000000

     crystal axes: (cart. coord. in units of alat)
               a(1) = (   6.579727   0.000000   0.000000 )
               a(2) = (  -0.000775   5.961596   0.000000 )
               a(3) = (   0.000000   0.000000  25.155947 )

     reciprocal axes: (cart. coord. in units 2 pi/alat)
               b(1) = (  0.151982  0.000020  0.000000 )
               b(2) = (  0.000000  0.167740  0.000000 )
               b(3) = (  0.000000  0.000000  0.039752 )

     PseudoPot. # 1 for Ti read from file:
     /storage/coda1/p-amedford6/0/shared/rich_project_chbe-medford/medford-share/data/pseudos_module/espresso/nninc/pbe/van/Ti.UPF
     MD5 check sum: 8e4df49b7f0d34bbd5052bf3f5ea0213
     Pseudo is Ultrasoft, Zval = 12.0
     Generated by new atomic code, or converted to UPF format
     Using radial grid of  851 points,  6 beta functions with:
                l(1) =   0
                l(2) =   0
                l(3) =   1
                l(4) =   1
                l(5) =   2
                l(6) =   2
     Q(r) pseudized with  8 coefficients,  rinner =    1.000   1.000   1.000
                                                       1.000   1.000

     PseudoPot. # 2 for O  read from file:
     /storage/coda1/p-amedford6/0/shared/rich_project_chbe-medford/medford-share/data/pseudos_module/espresso/nninc/pbe/van/O.UPF
     MD5 check sum: 78c19812648e8988a0fe644b0f25305e
     Pseudo is Ultrasoft, Zval =  6.0
     Generated by new atomic code, or converted to UPF format
     Using radial grid of  737 points,  4 beta functions with:
                l(1) =   0
                l(2) =   0
                l(3) =   1
                l(4) =   1
     Q(r) pseudized with  8 coefficients,  rinner =    0.800   0.800   0.800

     PseudoPot. # 3 for N  read from file:
     /storage/coda1/p-amedford6/0/shared/rich_project_chbe-medford/medford-share/data/pseudos_module/espresso/nninc/pbe/van/N.UPF
     MD5 check sum: 90d10febe142ad51ac9d5be1deb811c4
     Pseudo is Ultrasoft, Zval =  5.0
     Generated by new atomic code, or converted to UPF format
     Using radial grid of  729 points,  4 beta functions with:
                l(1) =   0
                l(2) =   0
                l(3) =   1
                l(4) =   1
     Q(r) pseudized with  8 coefficients,  rinner =    0.800   0.800   0.800

     PseudoPot. # 4 for C  read from file:
     /storage/coda1/p-amedford6/0/shared/rich_project_chbe-medford/medford-share/data/pseudos_module/espresso/nninc/pbe/van/C.UPF
     MD5 check sum: 1a69bf6b8db32088f5b2163dbdb77a27
     Pseudo is Ultrasoft, Zval =  4.0
     Generated by new atomic code, or converted to UPF format
     Using radial grid of  721 points,  4 beta functions with:
                l(1) =   0
                l(2) =   0
                l(3) =   1
                l(4) =   1
     Q(r) pseudized with  8 coefficients,  rinner =    0.800   0.800   0.800

     PseudoPot. # 5 for H  read from file:
     /storage/coda1/p-amedford6/0/shared/rich_project_chbe-medford/medford-share/data/pseudos_module/espresso/nninc/pbe/van/H.UPF
     MD5 check sum: b5ee9d7bfd3a09ee7748110bda690ff7
     Pseudo is Ultrasoft, Zval =  1.0
     Generated by new atomic code, or converted to UPF format
     Using radial grid of  615 points,  1 beta functions with:
                l(1) =   0
     Q(r) pseudized with  8 coefficients,  rinner =    0.800

     atomic species   valence    mass     pseudopotential
        Ti1           12.00    47.86700     Ti( 1.00)
        O1             6.00    15.99900     O ( 1.00)
        N1             5.00    14.00700     N ( 1.00)
        C1             4.00    12.01100     C ( 1.00)
        H1             1.00     1.00800     H ( 1.00)

     No symmetry found

   Cartesian axes

     site n.     atom                  positions (alat units)
         1           Ti1 tau(   1) = (   0.0004258   2.9801865   6.0000000  )
         2           Ti1 tau(   2) = (   3.2906075   1.4906267   6.0002472  )
         3           O1  tau(   3) = (   0.0006271   0.0005054   7.9858123  )
         4           O1  tau(   4) = (   3.2906025   0.0005020   7.3038282  )
         5           O1  tau(   5) = (   4.5942328   1.4918067   9.2879030  )
         6           O1  tau(   6) = (   1.9868534   1.4903216   9.2879459  )
         7           Ti1 tau(   7) = (   3.2907910   2.8959150   9.1758416  )
         8           Ti1 tau(   8) = (   0.0015273   1.4827037   9.2680791  )
         9           O1  tau(   9) = (   3.2827749   5.9542966  11.3123607  )
        10           O1  tau(  10) = (   0.0116148   5.9584955  10.6183126  )
        11           O1  tau(  11) = (   1.2790800   1.4852124  12.6463597  )
        12           O1  tau(  12) = (   5.2943908   1.4901875  12.6352807  )
        13           Ti1 tau(  13) = (   6.5507123   3.1127926  12.6266869  )
        14           Ti1 tau(  14) = (   3.2873181   1.3120036  12.6863921  )
        15           O1  tau(  15) = (   6.5656690   0.0172326  14.6855350  )
        16           O1  tau(  16) = (   3.2842416   0.0515509  13.9244022  )
        17           O1  tau(  17) = (   4.5437539   1.5966601  16.0680646  )
        18           O1  tau(  18) = (   2.0303991   1.5956099  16.0781401  )
        19           Ti1 tau(  19) = (   3.2961159   3.0594788  15.6697774  )
        20           Ti1 tau(  20) = (   6.5318457   1.5630605  15.7780207  )
        21           O1  tau(  21) = (   3.2904802   0.0005063   4.7018136  )
        22           O1  tau(  22) = (   6.5726385   0.0820865  17.2550913  )
        23           O1  tau(  23) = (   1.3043587   1.4918075   6.0039043  )
        24           O1  tau(  24) = (   5.2767064   1.4903225   6.0039473  )
        25           Ti1 tau(  25) = (   0.0000382   5.9609847   6.0000000  )
        26           Ti1 tau(  26) = (   3.2902200   4.4714249   6.0002472  )
        27           O1  tau(  27) = (   0.0002396   2.9813036   7.9858123  )
        28           O1  tau(  28) = (   3.2902150   2.9813002   7.3038282  )
        29           O1  tau(  29) = (   4.5938453   4.4726049   9.2879030  )
        30           O1  tau(  30) = (   1.9864658   4.4711199   9.2879459  )
        31           Ti1 tau(  31) = (   3.2891106   5.8743827   9.1763621  )
        32           Ti1 tau(  32) = (   0.0006254   4.4649316   9.2693709  )
        33           O1  tau(  33) = (   3.2807365   3.0201584  11.2787527  )
        34           O1  tau(  34) = (   0.0092240   2.9805883  10.6323155  )
        35           O1  tau(  35) = (   1.2751182   4.4744369  12.6357194  )
        36           O1  tau(  36) = (   5.2842299   4.4734050  12.6250694  )
        37           Ti1 tau(  37) = (   0.0094520   0.1224552  12.5707632  )
        38           Ti1 tau(  38) = (   3.2670701   4.4034752  12.4162930  )
        39           O1  tau(  39) = (   6.5622168   3.0106679  14.6773207  )
        40           O1  tau(  40) = (   3.2891587   3.0115246  13.8909557  )
        41           O1  tau(  41) = (   4.5321968   4.4927823  16.1577793  )
        42           O1  tau(  42) = (   2.0250423   4.4919485  16.1304878  )
        43           Ti1 tau(  43) = (   3.2250977   0.0853664  16.3312049  )
        44           Ti1 tau(  44) = (   6.5532039   4.7053171  16.1332850  )
        45           O1  tau(  45) = (   3.2900926   2.9813045   4.7018136  )
        46           O1  tau(  46) = (   1.3039711   4.4726057   6.0039043  )
        47           O1  tau(  47) = (   5.2763189   4.4711207   6.0039473  )
        48           N1  tau(  48) = (   0.0650423   2.5931692  18.6004617  )
        49           N1  tau(  49) = (   0.0051179   2.9528117  17.3995676  )
        50           C1  tau(  50) = (   0.1360749   3.5155665  19.7334966  )
        51           H1  tau(  51) = (   6.1082608   4.3937080  19.5213757  )
        52           H1  tau(  52) = (   6.3628389   3.0028702  20.6266755  )
        53           H1  tau(  53) = (   1.1699357   3.8405576  19.8861820  )
        54           H1  tau(  54) = (   0.1060244   1.5775976  18.7788705  )
        55           O1  tau(  55) = (   3.2396048   0.1449850  18.2004881  )
        56           H1  tau(  56) = (   3.4111690   5.2554565  18.6466900  )

     number of k points=    10  Fermi-Dirac smearing, width (Ry)=  0.0073
                       cart. coord. in units 2pi/alat
        k(    1) = (   0.0000000   0.0000000   0.0000000), wk =   0.1250000
        k(    2) = (   0.0000000   0.0419351   0.0000000), wk =   0.2500000
        k(    3) = (   0.0000000  -0.0838702   0.0000000), wk =   0.1250000
        k(    4) = (   0.0379955   0.0000049   0.0000000), wk =   0.2500000
        k(    5) = (   0.0379955   0.0419400   0.0000000), wk =   0.2500000
        k(    6) = (   0.0379955  -0.0838652   0.0000000), wk =   0.2500000
        k(    7) = (   0.0379955  -0.0419301   0.0000000), wk =   0.2500000
        k(    8) = (  -0.0759910  -0.0000099   0.0000000), wk =   0.1250000
        k(    9) = (  -0.0759910   0.0419252   0.0000000), wk =   0.2500000
        k(   10) = (  -0.0759910  -0.0838800   0.0000000), wk =   0.1250000

     Initial potential from superposition of free atoms

     starting charge  386.99914, renormalised to  403.00000

     negative rho (up, down):  1.430E-02 0.000E+00

     %%%%%%%%%%%%%%%%%%%%%%%%%%%%%%%%%%%%%%%%%%%%%%%%%%%%%%%%%%%%%%%%%%%%%%%%
     %                                                                      %
     % You are using vdW-DF, which was implemented by the Thonhauser group. %
     % Please cite the following two papers that made this development      %
     % possible and the two reviews that describe the various versions:     %
     %                                                                      %
     %   T. Thonhauser et al., PRL 115, 136402 (2015).                      %
     %   T. Thonhauser et al., PRB 76, 125112 (2007).                       %
     %   K. Berland et al., Rep. Prog. Phys. 78, 066501 (2015).             %
     %   D.C. Langreth et al., J. Phys.: Condens. Matter 21, 084203 (2009). %
     %                                                                      %
     %                                                                      %
     % If you are calculating the stress with vdW-DF, please also cite:     %
     %                                                                      %
     %   R. Sabatini et al., J. Phys.: Condens. Matter 24, 424209 (2012).   %
     %                                                                      %
     %%%%%%%%%%%%%%%%%%%%%%%%%%%%%%%%%%%%%%%%%%%%%%%%%%%%%%%%%%%%%%%%%%%%%%%%

     Adding external electric field

     Computed dipole along edir(3) :
        Dipole              -12.7219 Ry au,        -32.3358 Debye
        Dipole field         -0.0240 Ry au,

        Potential amp.        2.2255 Ry
        Total length         46.3494 bohr

     Starting wfcs are  305 atomic wfcs
  @ DRIVER MODE: Message from server: STATUS
  @ DRIVER MODE: Message from server: POSDATA
  @ DRIVER MODE: Reading and sharing cell
  @ DRIVER MODE: Reading and sharing positions
  @ DRIVER MODE: Received positions

     Self-consistent Calculation

     iteration #  1     ecut=    29.40 Ry     beta= 0.05
     Davidson diagonalization with overlap
     c_bands:  5 eigenvalues not converged
     c_bands:  4 eigenvalues not converged
     c_bands:  3 eigenvalues not converged
     c_bands:  4 eigenvalues not converged
     c_bands:  5 eigenvalues not converged
     c_bands:  4 eigenvalues not converged
     c_bands:  1 eigenvalues not converged
     c_bands:  4 eigenvalues not converged
     ethr =  1.00E-05,  avg # of iterations = 25.4

[...]

     total energy              =   -2361.22685251 Ry
     estimated scf accuracy    <    6936.17489854 Ry

     iteration #  2     ecut=    29.40 Ry     beta= 0.05
     Davidson diagonalization with overlap
     ethr =  1.00E-02,  avg # of iterations = 24.0

[...]

     iteration # 48     ecut=    29.40 Ry     beta= 0.05
     Davidson diagonalization with overlap
     c_bands:  1 eigenvalues not converged
     ethr =  2.00E-06,  avg # of iterations =  8.6

[...]

     total energy              =   -2973.99517607 Ry
     estimated scf accuracy    <       0.00000014 Ry

     iteration # 73     ecut=    29.40 Ry     beta= 0.05
     Davidson diagonalization with overlap
     ethr =  2.94E-11,  avg # of iterations =  6.6

     negative rho (up, down):  1.502E-02 0.000E+00

     Adding external electric field

     Computed dipole along edir(3) :
        Dipole                1.1947 Ry au,          3.0367 Debye
        Dipole field          0.0023 Ry au,

        Potential amp.       -0.2090 Ry
        Total length         46.3494 bohr

     End of self-consistent calculation

          k = 0.0000 0.0000 0.0000 ( 18029 PWs)   bands (ev):

   -55.7008 -55.6669 -55.3864 -55.3525 -55.2755 -55.1695 -55.1145 -55.0366
   -54.9905 -54.9582 -54.8300 -54.7362 -54.6952 -54.6244 -54.5279 -54.4939
   -32.1608 -31.9950 -31.9712 -31.8620 -31.8558 -31.7842 -31.7626 -31.6517
   -31.6054 -31.6047 -31.5936 -31.5398 -31.5371 -31.5181 -31.4971 -31.4904
   -31.4865 -31.3952 -31.3867 -31.3707 -31.3352 -31.3162 -31.3055 -31.2947
   -31.2748 -31.2711 -31.2375 -31.1997 -31.1758 -31.1747 -31.1649 -31.1471
   -31.0970 -31.0300 -30.9915 -30.9523 -30.9502 -30.9272 -30.9204 -30.9062
   -30.8956 -30.8575 -30.8383 -30.8346 -30.8342 -30.7455 -30.6603 -30.5484
   -19.0753 -16.1780 -16.0572 -15.7655 -15.5942 -15.3875 -15.3586 -15.2642
   -15.1614 -15.1441 -15.0408 -14.9758 -14.8910 -14.8218 -14.8020 -14.7539
   -14.7239 -14.6956 -14.6810 -14.6715 -14.6331 -14.6015 -14.5845 -14.5088
   -14.4638 -14.4457 -14.4180 -14.3529 -14.2570 -13.9911 -13.9280 -13.0257
   -12.9123 -12.5777  -9.3442  -6.2110  -4.7724  -4.7211  -3.7514  -3.5363
    -3.4420  -3.3307  -3.1221  -3.0727  -2.8940  -2.7739  -2.7533  -2.5331
    -2.5055  -2.3938  -2.3786  -2.3322  -2.3254  -2.2915  -2.2251  -2.1968
    -2.1248  -2.0646  -2.0376  -2.0038  -1.9512  -1.8957  -1.8905  -1.8767
    -1.8195  -1.7516  -1.7234  -1.7145  -1.6704  -1.6067  -1.5982  -1.5815
    -1.5624  -1.5411  -1.3982  -1.2917  -1.2308  -1.1923  -1.1427  -1.0864
    -1.0339  -1.0201  -0.9190  -0.8400  -0.7985  -0.6809  -0.6531  -0.6130
    -0.5282  -0.5040  -0.4606  -0.4418  -0.4010  -0.3936  -0.2891  -0.2716
    -0.2372  -0.1947  -0.0758  -0.0275  -0.0193   0.0620   0.1211   0.2012
     0.2427   0.2585   0.2831   0.3689   0.3973   0.4143   0.4219   0.4953
     0.5140   0.5625   0.6159   0.6987   0.7109   0.7510   0.7851   0.7982
     0.9285   0.9363   1.0258   1.0500   1.0609   1.1253   1.2196   1.2792
     1.3908   1.4052   1.4973   1.4977   1.5179   1.7164   1.8911   2.0495
     2.0898   3.5006   3.6199   3.6822   3.7197   3.9305   3.9421   4.2056
     4.2802   4.2833   4.3733

[...]

          k = 0.0380-0.0419 0.0000 ( 17876 PWs)   bands (ev):

[...]

          k =-0.0760-0.0000 0.0000 ( 17886 PWs)   bands (ev):

[...]

          k =-0.0760-0.0839 0.0000 ( 17948 PWs)   bands (ev):

   -55.6840 -55.6835 -55.3720 -55.3668 -55.2749 -55.1637 -55.1202 -55.0288
   -54.9980 -54.9587 -54.8280 -54.7339 -54.6972 -54.6266 -54.5114 -54.5103
   -31.9809 -31.9805 -31.9763 -31.9761 -31.8076 -31.8070 -31.6902 -31.6847
   -31.5701 -31.5661 -31.5647 -31.5585 -31.5523 -31.4911 -31.4809 -31.4678
   -31.4348 -31.3857 -31.3839 -31.3612 -31.3463 -31.3461 -31.3342 -31.3341
   -31.2576 -31.2438 -31.2373 -31.2331 -31.2056 -31.1942 -31.1648 -31.1559
   -31.0891 -31.0397 -31.0352 -30.9919 -30.9587 -30.9538 -30.9529 -30.9112
   -30.8730 -30.8474 -30.8467 -30.8374 -30.7418 -30.7405 -30.7034 -30.7026
   -19.0720 -16.1698 -15.4720 -15.4618 -15.3177 -15.3084 -15.2301 -15.1411
   -15.1229 -15.0939 -15.0452 -15.0231 -14.9416 -14.8853 -14.8656 -14.8404
   -14.8214 -14.8073 -14.7498 -14.7466 -14.7312 -14.7174 -14.6513 -14.6130
   -14.5827 -14.5762 -14.4681 -14.3885 -14.3043 -14.1552 -14.0646 -13.0152
   -13.0147 -12.5781  -9.3508  -6.2037  -4.7624  -4.7215  -3.7444  -3.4140
    -2.6505  -2.6074  -2.5161  -2.4381  -2.4324  -2.3842  -2.3835  -2.3020
    -2.2493  -2.1914  -2.1673  -2.1589  -2.1586  -2.1273  -2.1182  -2.0640
    -2.0591  -2.0414  -2.0385  -1.9820  -1.9571  -1.9427  -1.8909  -1.8356
    -1.7849  -1.7482  -1.7264  -1.6861  -1.6677  -1.6647  -1.5794  -1.5652
    -1.5378  -1.5102  -1.4654  -1.4344  -1.3790  -1.3579  -1.3015  -1.1741
    -1.1026  -1.0174  -0.9116  -0.8905  -0.8576  -0.8240  -0.8117  -0.7884
    -0.7560  -0.6406  -0.6305  -0.5807  -0.5490  -0.5211  -0.5035  -0.4756
    -0.4532  -0.3513  -0.3091  -0.2803  -0.2403  -0.2063  -0.1783  -0.1451
    -0.0931  -0.0543  -0.0443  -0.0129   0.0209   0.0354   0.1884   0.2675
     0.4010   0.4294   0.5193   0.5658   0.5986   0.6273   0.6572   0.7745
     0.8221   0.8447   0.8813   0.9029   1.0018   1.0984   1.1188   1.1870
     1.2217   1.3265   1.3574   1.4452   1.4970   1.8793   1.8871   1.9080
     1.9085   3.3778   4.0456   4.0485   4.0602   4.0734   4.2387   4.2414
     4.3423   4.3664   4.5048

     the Fermi energy is     3.4571 ev

!    total energy              =   -2973.99519638 Ry
     estimated scf accuracy    <       0.00000005 Ry
     smearing contrib. (-TS)   =      -0.01688886 Ry
     internal energy E=F+TS    =   -2973.97830752 Ry

     The total energy is F=E-TS. E is the sum of the following terms:
     one-electron contribution =  -23437.76063016 Ry
     hartree contribution      =   11816.33376758 Ry
     xc contribution           =    -493.94802738 Ry
     ewald contribution        =    9141.39388878 Ry
     electric field correction =       0.00269365 Ry

     convergence has been achieved in  73 iterations

     Forces acting on atoms (cartesian axes, Ry/au):

     atom    1 type  1   force =     0.00012056   -0.00023606    0.10268505
     atom    2 type  1   force =    -0.00011647    0.00008888   -0.16807423
     atom    3 type  2   force =    -0.00000873    0.00045889   -0.03241451
     atom    4 type  2   force =     0.00002782   -0.00097123    0.04009246
     atom    5 type  2   force =    -0.00543178   -0.00191290   -0.00432790
     atom    6 type  2   force =     0.00666633   -0.00135759   -0.00592716
     atom    7 type  1   force =    -0.00053750   -0.00531068    0.03007071
     atom    8 type  1   force =     0.00069587    0.00860925    0.04852929
     atom    9 type  2   force =     0.00012394   -0.00131387   -0.00108827
     atom   10 type  2   force =    -0.00253564    0.00301433   -0.03416051
     atom   11 type  2   force =    -0.00038953   -0.00008414   -0.00023923
     atom   12 type  2   force =     0.00048845   -0.00036709   -0.00012009
     atom   13 type  1   force =     0.00022839   -0.00161923    0.00020021
     atom   14 type  1   force =     0.00017280   -0.00079358    0.00072374
     atom   15 type  2   force =     0.00008806    0.00004900   -0.00028945
     atom   16 type  2   force =    -0.00013035    0.00005207    0.00167756
     atom   17 type  2   force =    -0.00103185   -0.00055201    0.00042875
     atom   18 type  2   force =     0.00064277   -0.00105776    0.00056815
     atom   19 type  1   force =     0.00061100   -0.00094830   -0.00076677
     atom   20 type  1   force =    -0.00077376   -0.00039199   -0.00021336
     atom   21 type  2   force =     0.00004776    0.00012341    0.10111539
     atom   22 type  2   force =    -0.00009594    0.00052413    0.00030678
     atom   23 type  2   force =    -0.07542331   -0.00012000   -0.02930887
     atom   24 type  2   force =     0.07533591    0.00030213   -0.02932651
     atom   25 type  1   force =     0.00013813   -0.00023284    0.10280940
     atom   26 type  1   force =    -0.00004266   -0.00130301   -0.16848304
     atom   27 type  2   force =     0.00011858    0.00017418   -0.03118626
     atom   28 type  2   force =    -0.00000919    0.00072279    0.03581300
     atom   29 type  2   force =    -0.00426076    0.00378580   -0.00625667
     atom   30 type  2   force =     0.00528475    0.00442302   -0.00778166
     atom   31 type  1   force =    -0.00054161    0.00495507    0.01595971
     atom   32 type  1   force =     0.00077122   -0.01041488    0.04921760
     atom   33 type  2   force =     0.00002761   -0.00090892   -0.00139901
     atom   34 type  2   force =    -0.00240585    0.00222338   -0.04432889
     atom   35 type  2   force =     0.00054789    0.00020243   -0.00014654
     atom   36 type  2   force =    -0.00017705    0.00023416   -0.00007657
     atom   37 type  1   force =     0.00026544    0.00038095   -0.00045033
     atom   38 type  1   force =     0.00041759    0.00140768    0.00105514
     atom   39 type  2   force =     0.00036572    0.00045308    0.00009054
     atom   40 type  2   force =     0.00005791    0.00015268    0.00047727
     atom   41 type  2   force =    -0.00088945   -0.00032312    0.00007991
     atom   42 type  2   force =     0.00041866    0.00018898    0.00032190
     atom   43 type  1   force =     0.00030043    0.00016721   -0.00155711
     atom   44 type  1   force =    -0.00066806   -0.00015546   -0.00090425
     atom   45 type  2   force =     0.00007084   -0.00001998    0.10091612
     atom   46 type  2   force =    -0.07547958   -0.00005048   -0.02932721
     atom   47 type  2   force =     0.07539146    0.00038321   -0.02932289
     atom   48 type  3   force =    -0.00066575   -0.00005610    0.00077705
     atom   49 type  3   force =     0.00035334   -0.00064946   -0.00122583
     atom   50 type  4   force =     0.00119129    0.00121721    0.00052756
     atom   51 type  5   force =     0.00014112   -0.00074732   -0.00134833
     atom   52 type  5   force =    -0.00019054   -0.00055018   -0.00047686
     atom   53 type  5   force =    -0.00012059   -0.00053097   -0.00099299
     atom   54 type  5   force =    -0.00005809   -0.00065373   -0.00135782
     atom   55 type  2   force =     0.00255841   -0.01392018    0.00672263
     atom   56 type  5   force =    -0.00168596    0.01325915   -0.00828678

     Total force =     0.373415     Total SCF correction =     0.000585
  @ DRIVER MODE: Message from server: STATUS
  @ DRIVER MODE: Message from server: GETFORCE
  @ DRIVER MODE: Returning v,forces,stress,ensemble

     Writing output data file ./calc.save/
  @ DRIVER MODE: Message from server: EXIT
  @ DRIVE MODE: Exiting

     General routines

     Parallel routines

   This run was terminated on:  19:18:29  23Sep2021

   JOB DONE.