     Program PWSCF v.6.7GPU starts on 24Aug2021 at 14:15:46

     R & G space division:  proc/nbgrp/npool/nimage =      72
     Reading input from /storage/home/hcoda1/3/ntian30/research/carbon/CH2_vib/ads_slab/CH2NHH_a/out_0012/pw.inp
Warning: card &CELL ignored
Warning: card   CELL_DYNAMICS='IPI', ignored
Warning: card / ignored

     Current dimensions of program PWSCF are:
     Max number of different atomic species (ntypx) = 10
     Max number of k-points (npk) =  40000
     Max angular momentum in pseudopotentials (lmaxx) =  3
     Presently no symmetry can be used with electric field

     Message from routine cell_base_init:
     DEPRECATED: use true lattice parameter, not A to a.u. conversion factor

     IMPORTANT: XC functional enforced from input :
     Exchange-correlation= BEEF-VDW
                           (   1   4  43  14   2   0   0)
     Any further DFT definition will be discarded
     Please, verify this is what you really want

  @ DRIVER MODE: Connecting to
 qe_1139763_2641439.sched-torque.pace.gatech.edu7c0kkp39_scratch
  using UNIX socket
  @ DRIVER MODE: Message from server: STATUS
  @ DRIVER MODE: Message from server: INIT
  @ DRIVER MODE: Receiving replica           0          -1
  @ DRIVER MODE: Receiving encoded integer          25
  @ DRIVER MODE:  SCF:  T  FORCE:  T  STRESS:  F  VC:  F  ENSEMBLE:  F
  @ DRIVER MODE:  SCF:  T  FORCE:  T  STRESS:  F  VC:  F  ENSEMBLE:  F

     Using Slab Decomposition

     bravais-lattice index     =            0
     lattice parameter (alat)  =       1.8897  a.u.
     unit-cell volume          =    6658.9804 (a.u.)^3
     number of atoms/cell      =           53
     number of atomic types    =            5
     number of electrons       =       391.00
     number of Kohn-Sham states=          205
     kinetic-energy cutoff     =      29.3995  Ry
     charge density cutoff     =     293.9946  Ry
     scf convergence threshold =      7.3E-08
     mixing beta               =       0.0500
     number of iterations used =            8  plain     mixing
     Exchange-correlation= BEEF-VDW
                           (   1   4  43  14   2   0   0)

     celldm(1)=   1.889726  celldm(2)=   0.000000  celldm(3)=   0.000000
     celldm(4)=   0.000000  celldm(5)=   0.000000  celldm(6)=   0.000000

     crystal axes: (cart. coord. in units of alat)
               a(1) = (   6.579727   0.000000   0.000000 )
               a(2) = (  -0.000775   5.961596   0.000000 )
               a(3) = (   0.000000   0.000000  25.155947 )

     reciprocal axes: (cart. coord. in units 2 pi/alat)
               b(1) = (  0.151982  0.000020  0.000000 )
               b(2) = (  0.000000  0.167740  0.000000 )
               b(3) = (  0.000000  0.000000  0.039752 )

     PseudoPot. # 1 for Ti read from file:
     /storage/coda1/p-amedford6/0/shared/rich_project_chbe-medford/medford-share/data/pseudos_module/espresso/nninc/pbe/van/Ti.UPF
     MD5 check sum: 8e4df49b7f0d34bbd5052bf3f5ea0213
     Pseudo is Ultrasoft, Zval = 12.0
     Generated by new atomic code, or converted to UPF format
     Using radial grid of  851 points,  6 beta functions with:
                l(1) =   0
                l(2) =   0
                l(3) =   1
                l(4) =   1
                l(5) =   2
                l(6) =   2
     Q(r) pseudized with  8 coefficients,  rinner =    1.000   1.000   1.000
                                                       1.000   1.000

     PseudoPot. # 2 for O  read from file:
     /storage/coda1/p-amedford6/0/shared/rich_project_chbe-medford/medford-share/data/pseudos_module/espresso/nninc/pbe/van/O.UPF
     MD5 check sum: 78c19812648e8988a0fe644b0f25305e
     Pseudo is Ultrasoft, Zval =  6.0
     Generated by new atomic code, or converted to UPF format
     Using radial grid of  737 points,  4 beta functions with:
                l(1) =   0
                l(2) =   0
                l(3) =   1
                l(4) =   1
     Q(r) pseudized with  8 coefficients,  rinner =    0.800   0.800   0.800

     PseudoPot. # 3 for N  read from file:
     /storage/coda1/p-amedford6/0/shared/rich_project_chbe-medford/medford-share/data/pseudos_module/espresso/nninc/pbe/van/N.UPF
     MD5 check sum: 90d10febe142ad51ac9d5be1deb811c4
     Pseudo is Ultrasoft, Zval =  5.0
     Generated by new atomic code, or converted to UPF format
     Using radial grid of  729 points,  4 beta functions with:
                l(1) =   0
                l(2) =   0
                l(3) =   1
                l(4) =   1
     Q(r) pseudized with  8 coefficients,  rinner =    0.800   0.800   0.800

     PseudoPot. # 4 for C  read from file:
     /storage/coda1/p-amedford6/0/shared/rich_project_chbe-medford/medford-share/data/pseudos_module/espresso/nninc/pbe/van/C.UPF
     MD5 check sum: 1a69bf6b8db32088f5b2163dbdb77a27
     Pseudo is Ultrasoft, Zval =  4.0
     Generated by new atomic code, or converted to UPF format
     Using radial grid of  721 points,  4 beta functions with:
                l(1) =   0
                l(2) =   0
                l(3) =   1
                l(4) =   1
     Q(r) pseudized with  8 coefficients,  rinner =    0.800   0.800   0.800

     PseudoPot. # 5 for H  read from file:
     /storage/coda1/p-amedford6/0/shared/rich_project_chbe-medford/medford-share/data/pseudos_module/espresso/nninc/pbe/van/H.UPF
     MD5 check sum: b5ee9d7bfd3a09ee7748110bda690ff7
     Pseudo is Ultrasoft, Zval =  1.0
     Generated by new atomic code, or converted to UPF format
     Using radial grid of  615 points,  1 beta functions with:
                l(1) =   0
     Q(r) pseudized with  8 coefficients,  rinner =    0.800

     atomic species   valence    mass     pseudopotential
        Ti1           12.00    47.86700     Ti( 1.00)
        O1             6.00    15.99900     O ( 1.00)
        N1             5.00    14.00700     N ( 1.00)
        C1             4.00    12.01100     C ( 1.00)
        H1             1.00     1.00800     H ( 1.00)

     No symmetry found

   Cartesian axes

     site n.     atom                  positions (alat units)
         1           Ti1 tau(   1) = (   0.0004258   2.9801865   6.0000000  )
         2           Ti1 tau(   2) = (   3.2906075   1.4906267   6.0002472  )
         3           O1  tau(   3) = (   0.0006271   0.0005054   7.9858123  )
         4           O1  tau(   4) = (   3.2906025   0.0005020   7.3038282  )
         5           O1  tau(   5) = (   4.5942328   1.4918067   9.2879030  )
         6           O1  tau(   6) = (   1.9868534   1.4903216   9.2879459  )
         7           Ti1 tau(   7) = (   3.2907910   2.8959150   9.1758416  )
         8           Ti1 tau(   8) = (   0.0015273   1.4827037   9.2680791  )
         9           O1  tau(   9) = (   3.2941312   5.9515177  11.3840049  )
        10           O1  tau(  10) = (   0.0116148   5.9584955  10.6183126  )
        11           O1  tau(  11) = (   1.2915503   1.4777401  12.6967708  )
        12           O1  tau(  12) = (   5.3002239   1.4803738  12.6794006  )
        13           Ti1 tau(  13) = (   0.0161863   2.9610389  12.5056540  )
        14           Ti1 tau(  14) = (   3.3199580   1.4690355  12.5397617  )
        15           O1  tau(  15) = (   6.5577523   5.8663973  14.6994336  )
        16           O1  tau(  16) = (   3.3105950   5.9380289  14.0083265  )
        17           O1  tau(  17) = (   4.5355139   1.5078041  16.1868020  )
        18           O1  tau(  18) = (   2.0231344   1.4922588  16.1350940  )
        19           Ti1 tau(  19) = (   3.2781988   2.9761027  15.7713632  )
        20           Ti1 tau(  20) = (   0.0162001   1.2772015  15.8797579  )
        21           O1  tau(  21) = (   3.2904802   0.0005063   4.7018136  )
        22           O1  tau(  22) = (   6.5682446   0.1140876  17.2519115  )
        23           O1  tau(  23) = (   1.3043587   1.4918075   6.0039043  )
        24           O1  tau(  24) = (   5.2767064   1.4903225   6.0039473  )
        25           Ti1 tau(  25) = (   0.0000382   5.9609847   6.0000000  )
        26           Ti1 tau(  26) = (   3.2902200   4.4714249   6.0002472  )
        27           O1  tau(  27) = (   0.0002396   2.9813036   7.9858123  )
        28           O1  tau(  28) = (   3.2902150   2.9813002   7.3038282  )
        29           O1  tau(  29) = (   4.5938453   4.4726049   9.2879030  )
        30           O1  tau(  30) = (   1.9864658   4.4711199   9.2879459  )
        31           Ti1 tau(  31) = (   3.2891106   5.8743827   9.1763621  )
        32           Ti1 tau(  32) = (   0.0006254   4.4649316   9.2693709  )
        33           O1  tau(  33) = (   3.2958891   2.9587481  11.3780895  )
        34           O1  tau(  34) = (   0.0092240   2.9805883  10.6323155  )
        35           O1  tau(  35) = (   1.2947421   4.4484190  12.6652604  )
        36           O1  tau(  36) = (   5.2996063   4.4466420  12.6515021  )
        37           Ti1 tau(  37) = (   0.0283143   5.9336383  12.5061025  )
        38           Ti1 tau(  38) = (   3.3214233   4.4478814  12.5310514  )
        39           O1  tau(  39) = (   6.5589476   3.0029366  14.9874712  )
        40           O1  tau(  40) = (   3.3011147   2.9794859  13.9794371  )
        41           O1  tau(  41) = (   4.5155863   4.4560770  16.2359875  )
        42           O1  tau(  42) = (   2.0187475   4.4548860  16.2131175  )
        43           Ti1 tau(  43) = (   3.3138217   5.9556645  15.8088081  )
        44           Ti1 tau(  44) = (   0.0451788   4.5003401  16.0524233  )
        45           O1  tau(  45) = (   3.2900926   2.9813045   4.7018136  )
        46           O1  tau(  46) = (   1.3039711   4.4726057   6.0039043  )
        47           O1  tau(  47) = (   5.2763189   4.4711207   6.0039473  )
        48           N1  tau(  48) = (   6.2013940   3.4221407  18.2524812  )
        49           C1  tau(  49) = (   0.6861764   3.1362451  19.1085974  )
        50           H1  tau(  50) = (   1.2250757   3.9700495  19.5149693  )
        51           H1  tau(  51) = (   1.1126790   2.1486344  19.0481404  )
        52           H1  tau(  52) = (   5.7034377   4.2789310  18.4761913  )
        53           H1  tau(  53) = (   5.5430662   2.6552022  18.1284619  )

     number of k points=    10  Fermi-Dirac smearing, width (Ry)=  0.0073
                       cart. coord. in units 2pi/alat
        k(    1) = (   0.0000000   0.0000000   0.0000000), wk =   0.1250000
        k(    2) = (   0.0000000   0.0419351   0.0000000), wk =   0.2500000
        k(    3) = (   0.0000000  -0.0838702   0.0000000), wk =   0.1250000
        k(    4) = (   0.0379955   0.0000049   0.0000000), wk =   0.2500000
        k(    5) = (   0.0379955   0.0419400   0.0000000), wk =   0.2500000
        k(    6) = (   0.0379955  -0.0838652   0.0000000), wk =   0.2500000
        k(    7) = (   0.0379955  -0.0419301   0.0000000), wk =   0.2500000
        k(    8) = (  -0.0759910  -0.0000099   0.0000000), wk =   0.1250000
        k(    9) = (  -0.0759910   0.0419252   0.0000000), wk =   0.2500000
        k(   10) = (  -0.0759910  -0.0838800   0.0000000), wk =   0.1250000

     Initial potential from superposition of free atoms

     starting charge  374.99916, renormalised to  391.00000

     negative rho (up, down):  1.684E-02 0.000E+00

     %%%%%%%%%%%%%%%%%%%%%%%%%%%%%%%%%%%%%%%%%%%%%%%%%%%%%%%%%%%%%%%%%%%%%%%%
     %                                                                      %
     % You are using vdW-DF, which was implemented by the Thonhauser group. %
     % Please cite the following two papers that made this development      %
     % possible and the two reviews that describe the various versions:     %
     %                                                                      %
     %   T. Thonhauser et al., PRL 115, 136402 (2015).                      %
     %   T. Thonhauser et al., PRB 76, 125112 (2007).                       %
     %   K. Berland et al., Rep. Prog. Phys. 78, 066501 (2015).             %
     %   D.C. Langreth et al., J. Phys.: Condens. Matter 21, 084203 (2009). %
     %                                                                      %
     %                                                                      %
     % If you are calculating the stress with vdW-DF, please also cite:     %
     %                                                                      %
     %   R. Sabatini et al., J. Phys.: Condens. Matter 24, 424209 (2012).   %
     %                                                                      %
     %%%%%%%%%%%%%%%%%%%%%%%%%%%%%%%%%%%%%%%%%%%%%%%%%%%%%%%%%%%%%%%%%%%%%%%%

     Adding external electric field

     Computed dipole along edir(3) :
        Dipole               -6.9353 Ry au,        -17.6279 Debye
        Dipole field         -0.0131 Ry au,

        Potential amp.        1.2132 Ry
        Total length         46.3494 bohr

     Starting wfcs are  296 atomic wfcs
  @ DRIVER MODE: Message from server: STATUS
  @ DRIVER MODE: Message from server: POSDATA
  @ DRIVER MODE: Reading and sharing cell
  @ DRIVER MODE: Reading and sharing positions
  @ DRIVER MODE: Received positions

     Self-consistent Calculation

     iteration #  1     ecut=    29.40 Ry     beta= 0.05
     Davidson diagonalization with overlap
     c_bands:  1 eigenvalues not converged
     ethr =  1.00E-05,  avg # of iterations = 15.4

[...]

     total energy              =   -2713.45173522 Ry
     estimated scf accuracy    <    2282.72855590 Ry

[...]

     iteration #  3     ecut=    29.40 Ry     beta= 0.05
     Davidson diagonalization with overlap
     ethr =  1.00E-02,  avg # of iterations = 15.7

[...]

     iteration # 55     ecut=    29.40 Ry     beta= 0.05
     Davidson diagonalization with overlap
     ethr =  3.10E-10,  avg # of iterations =  3.3

[...]

     total energy              =   -2920.25684103 Ry
     estimated scf accuracy    <       0.00000017 Ry

     iteration # 59     ecut=    29.40 Ry     beta= 0.05
     Davidson diagonalization with overlap
     c_bands:  1 eigenvalues not converged
     ethr =  4.34E-11,  avg # of iterations = 10.3

     negative rho (up, down):  1.609E-02 0.000E+00

     Adding external electric field

     Computed dipole along edir(3) :
        Dipole                0.8778 Ry au,          2.2312 Debye
        Dipole field          0.0017 Ry au,

        Potential amp.       -0.1536 Ry
        Total length         46.3494 bohr

     End of self-consistent calculation

          k = 0.0000 0.0000 0.0000 ( 18029 PWs)   bands (ev):

   -55.7320 -55.6961 -55.6840 -55.6499 -55.6214 -55.6122 -55.5778 -55.5563
   -55.5489 -55.5218 -55.5155 -55.4818 -55.4761 -55.3124 -54.7157 -54.6817
   -32.2974 -32.1770 -32.1002 -32.0666 -32.0529 -32.0453 -32.0419 -32.0215
   -31.9728 -31.9668 -31.9438 -31.9382 -31.9288 -31.9011 -31.8856 -31.8836
   -31.8708 -31.8597 -31.8517 -31.8365 -31.8308 -31.7984 -31.7908 -31.7869
   -31.7586 -31.7544 -31.7444 -31.7411 -31.7351 -31.7311 -31.7149 -31.7131
   -31.7047 -31.7019 -31.6814 -31.6696 -31.6675 -31.6529 -31.6434 -31.6270
   -31.5332 -31.4808 -31.1252 -31.0307 -31.0087 -30.9416 -30.8548 -30.7439
   -16.6294 -16.5295 -16.2811 -16.1196 -16.0276 -15.9317 -15.7998 -15.7725
   -15.6564 -15.5799 -15.4380 -15.4059 -15.3911 -15.3702 -15.3517 -15.3386
   -15.2796 -15.2737 -15.2537 -15.2283 -15.2249 -15.1781 -15.1733 -15.1328
   -15.1089 -15.0539 -14.9781 -14.8939 -14.8211 -14.4949 -13.2184 -13.1009
    -9.5041  -6.8246  -4.8874  -3.8963  -3.7530  -3.6814  -3.6338  -3.6258
    -3.4842  -3.3100  -3.1659  -3.1463  -3.0949  -3.0046  -2.9368  -2.9231
    -2.8983  -2.7534  -2.7401  -2.6838  -2.6587  -2.5814  -2.5792  -2.5369
    -2.5179  -2.4820  -2.4778  -2.4492  -2.3044  -2.2995  -2.2523  -2.1993
    -2.1399  -2.1382  -2.0831  -2.0641  -2.0227  -2.0135  -2.0023  -1.9603
    -1.9565  -1.9228  -1.8259  -1.7575  -1.6300  -1.5935  -1.4494  -1.3732
    -1.3254  -1.3051  -1.2240  -1.2161  -1.1556  -1.1114  -1.1111  -1.0709
    -0.9592  -0.8761  -0.8246  -0.7673  -0.7321  -0.7168  -0.6320  -0.5338
    -0.5117  -0.4991  -0.4615  -0.3625  -0.3382  -0.2758  -0.2131  -0.2010
    -0.1879  -0.1006  -0.0651   0.0070   0.0584   0.0784   0.1543   0.1769
     0.1999   0.2058   0.2370   0.2520   0.3252   0.3433   0.3679   0.4555
     0.5766   0.8200   0.8773   0.8883   1.2061   1.2113   1.3070   1.4901
     1.8834   1.9317   3.3606   3.3781   3.4425   3.5107   3.5145   3.5773
     3.6015   3.8480   3.8672   3.8753   3.8930

[...]

          k = 0.0380-0.0419 0.0000 ( 17876 PWs)   bands (ev):

[...]

          k =-0.0760-0.0000 0.0000 ( 17886 PWs)   bands (ev):

[...]

          k =-0.0760-0.0839 0.0000 ( 17948 PWs)   bands (ev):

   -55.7154 -55.7125 -55.6670 -55.6667 -55.6171 -55.5958 -55.5943 -55.5530
   -55.5408 -55.5369 -55.4990 -55.4984 -55.4740 -55.3144 -54.6988 -54.6985
   -32.1030 -32.1005 -32.0096 -31.9922 -31.9920 -31.9889 -31.9786 -31.9581
   -31.9581 -31.9418 -31.9352 -31.9282 -31.9238 -31.8844 -31.8760 -31.8730
   -31.8687 -31.8640 -31.8596 -31.8547 -31.8414 -31.8218 -31.8102 -31.8093
   -31.7909 -31.7870 -31.7867 -31.7863 -31.7737 -31.7698 -31.7534 -31.7513
   -31.7495 -31.7400 -31.7319 -31.7292 -31.6954 -31.6792 -31.6789 -31.6613
   -31.5724 -31.5353 -31.0214 -31.0212 -30.9378 -30.9376 -30.8983 -30.8982
   -16.5833 -16.0469 -15.9554 -15.9174 -15.7697 -15.7320 -15.6966 -15.6842
   -15.5615 -15.5348 -15.5088 -15.4890 -15.4524 -15.4375 -15.4304 -15.3810
   -15.3510 -15.3318 -15.3261 -15.3141 -15.2513 -15.2434 -15.2395 -15.2325
   -15.1831 -15.1795 -15.0885 -15.0855 -15.0711 -14.7796 -13.2024 -13.2024
    -9.5056  -6.8069  -4.8679  -3.2243  -3.1971  -3.1703  -3.1405  -2.9877
    -2.9185  -2.8984  -2.8839  -2.7991  -2.7635  -2.7436  -2.7027  -2.6887
    -2.6402  -2.6124  -2.5845  -2.5702  -2.5655  -2.5494  -2.5285  -2.4932
    -2.4641  -2.4627  -2.4522  -2.4108  -2.3843  -2.3706  -2.3365  -2.3268
    -2.3190  -2.2904  -2.2289  -2.1214  -2.1002  -2.0645  -1.9711  -1.9412
    -1.9363  -1.8560  -1.8257  -1.7677  -1.7643  -1.7519  -1.6038  -1.5237
    -1.4815  -1.4789  -1.4563  -1.3291  -1.3203  -1.2352  -1.2130  -1.2024
    -1.1084  -1.0894  -1.0525  -1.0267  -0.9447  -0.9188  -0.8529  -0.7650
    -0.7280  -0.7206  -0.6898  -0.6869  -0.6376  -0.6261  -0.5449  -0.5029
    -0.4667  -0.4565  -0.4150  -0.2292  -0.2134  -0.1698  -0.0419   0.0060
     0.1369   0.1544   0.2195   0.2955   0.3277   0.3809   0.4172   0.5631
     0.5727   0.6083   0.6496   0.6591   0.7185   0.7276   1.6631   1.6638
     1.7516   1.7518   3.3831   3.6092   3.6166   3.6549   3.6778   3.8308
     3.8814   3.9201   3.9450   3.9500   3.9666

     the Fermi energy is     3.4287 ev

!    total energy              =   -2920.25689244 Ry
     estimated scf accuracy    <       0.00000006 Ry
     smearing contrib. (-TS)   =      -0.04299302 Ry
     internal energy E=F+TS    =   -2920.21389942 Ry

     The total energy is F=E-TS. E is the sum of the following terms:
     one-electron contribution =  -24041.95425565 Ry
     hartree contribution      =   12107.02108615 Ry
     xc contribution           =    -480.85302645 Ry
     ewald contribution        =    9495.57084241 Ry
     electric field correction =       0.00145411 Ry

     convergence has been achieved in  59 iterations

     Forces acting on atoms (cartesian axes, Ry/au):

     atom    1 type  1   force =     0.00008648   -0.00016672    0.09322501
     atom    2 type  1   force =    -0.00019206   -0.00024712   -0.17847498
     atom    3 type  2   force =     0.00003833   -0.00036632   -0.02005949
     atom    4 type  2   force =    -0.00002203   -0.00199568    0.05916047
     atom    5 type  2   force =    -0.01040937   -0.00113934    0.00789607
     atom    6 type  2   force =     0.01196726   -0.00051989    0.00731936
     atom    7 type  1   force =    -0.00042070    0.00230710   -0.01385644
     atom    8 type  1   force =     0.00003487   -0.00144906   -0.00478282
     atom    9 type  2   force =     0.00000397   -0.00028374   -0.00034291
     atom   10 type  2   force =    -0.00082968    0.00066231    0.00148549
     atom   11 type  2   force =     0.00009713   -0.00003786    0.00023012
     atom   12 type  2   force =    -0.00007216    0.00008779    0.00031782
     atom   13 type  1   force =    -0.00057881    0.00062195   -0.00005510
     atom   14 type  1   force =     0.00025946    0.00022098    0.00010890
     atom   15 type  2   force =    -0.00014484    0.00049348    0.00030165
     atom   16 type  2   force =    -0.00016942   -0.00006807   -0.00015114
     atom   17 type  2   force =    -0.00028862   -0.00011810   -0.00020671
     atom   18 type  2   force =    -0.00010669   -0.00014745   -0.00053586
     atom   19 type  1   force =     0.00000239   -0.00002014    0.00009891
     atom   20 type  1   force =    -0.00008027   -0.00008835    0.00036456
     atom   21 type  2   force =     0.00001193   -0.00001380    0.10399264
     atom   22 type  2   force =     0.00003002    0.00049513    0.00021710
     atom   23 type  2   force =    -0.07038864   -0.00010507   -0.02690991
     atom   24 type  2   force =     0.07020558    0.00032590   -0.02696661
     atom   25 type  1   force =    -0.00001575   -0.00012778    0.09258993
     atom   26 type  1   force =    -0.00017219   -0.00038544   -0.17852495
     atom   27 type  2   force =     0.00009596   -0.00026991   -0.01914273
     atom   28 type  2   force =     0.00002809   -0.00176284    0.05848412
     atom   29 type  2   force =    -0.01089954   -0.00132956    0.00842909
     atom   30 type  2   force =     0.01235463   -0.00099030    0.00777666
     atom   31 type  1   force =    -0.00022795    0.00600343   -0.01473409
     atom   32 type  1   force =     0.00005321    0.00099115   -0.00537527
     atom   33 type  2   force =    -0.00030686    0.00024043    0.00015391
     atom   34 type  2   force =    -0.00022516   -0.00291290    0.00006674
     atom   35 type  2   force =     0.00059570    0.00021992   -0.00005728
     atom   36 type  2   force =    -0.00064908    0.00017783   -0.00028675
     atom   37 type  1   force =    -0.00056318   -0.00046130   -0.00003859
     atom   38 type  1   force =     0.00017433   -0.00050181    0.00013307
     atom   39 type  2   force =     0.00003400   -0.00012334    0.00023890
     atom   40 type  2   force =    -0.00001396    0.00046039   -0.00059591
     atom   41 type  2   force =    -0.00013453    0.00053690   -0.00038080
     atom   42 type  2   force =     0.00001087    0.00054354   -0.00019282
     atom   43 type  1   force =    -0.00003203    0.00038822   -0.00046402
     atom   44 type  1   force =    -0.00049685   -0.00039992    0.00080986
     atom   45 type  2   force =     0.00000159   -0.00002753    0.10396011
     atom   46 type  2   force =    -0.07036684   -0.00005363   -0.02687482
     atom   47 type  2   force =     0.07019998    0.00037544   -0.02692578
     atom   48 type  3   force =     0.00430367   -0.00046603    0.00398049
     atom   49 type  4   force =    -0.00734957   -0.00427121   -0.00911459
     atom   50 type  5   force =     0.00317442    0.00363606    0.00186332
     atom   51 type  5   force =     0.00031728    0.00136469    0.00113165
     atom   52 type  5   force =     0.00035158   -0.00049866    0.00026826
     atom   53 type  5   force =     0.00072403    0.00119622    0.00044614

     Total force =     0.366730     Total SCF correction =     0.000457
  @ DRIVER MODE: Message from server: STATUS
  @ DRIVER MODE: Message from server: GETFORCE
  @ DRIVER MODE: Returning v,forces,stress,ensemble

     Writing output data file ./calc.save/
  @ DRIVER MODE: Message from server: EXIT
  @ DRIVE MODE: Exiting

     General routines

     Parallel routines

   This run was terminated on:  14:31: 7  24Aug2021

   JOB DONE.