     Program PWSCF v.6.7GPU starts on 29Sep2021 at  2:35:54

     R & G space division:  proc/nbgrp/npool/nimage =       8
     Reading input from /storage/home/hcoda1/3/ntian30/research/carbon/CxH_vib/H2O_calc/ads_slab/CH3OHN2H2O_a/out_0065/pw.inp
Warning: card &CELL ignored
Warning: card   CELL_DYNAMICS='IPI', ignored
Warning: card / ignored

     Current dimensions of program PWSCF are:
     Max number of different atomic species (ntypx) = 10
     Max number of k-points (npk) =  40000
     Max angular momentum in pseudopotentials (lmaxx) =  3
     Presently no symmetry can be used with electric field

     Message from routine cell_base_init:
     DEPRECATED: use true lattice parameter, not A to a.u. conversion factor

     IMPORTANT: XC functional enforced from input :
     Exchange-correlation= BEEF-VDW
                           (   1   4  43  14   2   0   0)
     Any further DFT definition will be discarded
     Please, verify this is what you really want

  @ DRIVER MODE: Connecting to
 qe_1139763_3000313.sched-torque.pace.gatech.eduwvc7062l_scratch
  using UNIX socket
  @ DRIVER MODE: Message from server: STATUS
  @ DRIVER MODE: Message from server: INIT
  @ DRIVER MODE: Receiving replica           0          -1
  @ DRIVER MODE: Receiving encoded integer          25
  @ DRIVER MODE:  SCF:  T  FORCE:  T  STRESS:  F  VC:  F  ENSEMBLE:  F
  @ DRIVER MODE:  SCF:  T  FORCE:  T  STRESS:  F  VC:  F  ENSEMBLE:  F

     Using Slab Decomposition

     bravais-lattice index     =            0
     lattice parameter (alat)  =       1.8897  a.u.
     unit-cell volume          =    6658.9804 (a.u.)^3
     number of atoms/cell      =           58
     number of atomic types    =            5
     number of electrons       =       410.00
     number of Kohn-Sham states=          215
     kinetic-energy cutoff     =      29.3995  Ry
     charge density cutoff     =     293.9946  Ry
     scf convergence threshold =      7.3E-08
     mixing beta               =       0.0500
     number of iterations used =            8  plain     mixing
     Exchange-correlation= BEEF-VDW
                           (   1   4  43  14   2   0   0)

     celldm(1)=   1.889726  celldm(2)=   0.000000  celldm(3)=   0.000000
     celldm(4)=   0.000000  celldm(5)=   0.000000  celldm(6)=   0.000000

     crystal axes: (cart. coord. in units of alat)
               a(1) = (   6.579727   0.000000   0.000000 )
               a(2) = (  -0.000775   5.961596   0.000000 )
               a(3) = (   0.000000   0.000000  25.155947 )

     reciprocal axes: (cart. coord. in units 2 pi/alat)
               b(1) = (  0.151982  0.000020  0.000000 )
               b(2) = (  0.000000  0.167740  0.000000 )
               b(3) = (  0.000000  0.000000  0.039752 )

     PseudoPot. # 1 for Ti read from file:
     /storage/coda1/p-amedford6/0/shared/rich_project_chbe-medford/medford-share/data/pseudos_module/espresso/nninc/pbe/van/Ti.UPF
     MD5 check sum: 8e4df49b7f0d34bbd5052bf3f5ea0213
     Pseudo is Ultrasoft, Zval = 12.0
     Generated by new atomic code, or converted to UPF format
     Using radial grid of  851 points,  6 beta functions with:
                l(1) =   0
                l(2) =   0
                l(3) =   1
                l(4) =   1
                l(5) =   2
                l(6) =   2
     Q(r) pseudized with  8 coefficients,  rinner =    1.000   1.000   1.000
                                                       1.000   1.000

     PseudoPot. # 2 for O  read from file:
     /storage/coda1/p-amedford6/0/shared/rich_project_chbe-medford/medford-share/data/pseudos_module/espresso/nninc/pbe/van/O.UPF
     MD5 check sum: 78c19812648e8988a0fe644b0f25305e
     Pseudo is Ultrasoft, Zval =  6.0
     Generated by new atomic code, or converted to UPF format
     Using radial grid of  737 points,  4 beta functions with:
                l(1) =   0
                l(2) =   0
                l(3) =   1
                l(4) =   1
     Q(r) pseudized with  8 coefficients,  rinner =    0.800   0.800   0.800

     PseudoPot. # 3 for C  read from file:
     /storage/coda1/p-amedford6/0/shared/rich_project_chbe-medford/medford-share/data/pseudos_module/espresso/nninc/pbe/van/C.UPF
     MD5 check sum: 1a69bf6b8db32088f5b2163dbdb77a27
     Pseudo is Ultrasoft, Zval =  4.0
     Generated by new atomic code, or converted to UPF format
     Using radial grid of  721 points,  4 beta functions with:
                l(1) =   0
                l(2) =   0
                l(3) =   1
                l(4) =   1
     Q(r) pseudized with  8 coefficients,  rinner =    0.800   0.800   0.800

     PseudoPot. # 4 for H  read from file:
     /storage/coda1/p-amedford6/0/shared/rich_project_chbe-medford/medford-share/data/pseudos_module/espresso/nninc/pbe/van/H.UPF
     MD5 check sum: b5ee9d7bfd3a09ee7748110bda690ff7
     Pseudo is Ultrasoft, Zval =  1.0
     Generated by new atomic code, or converted to UPF format
     Using radial grid of  615 points,  1 beta functions with:
                l(1) =   0
     Q(r) pseudized with  8 coefficients,  rinner =    0.800

     PseudoPot. # 5 for N  read from file:
     /storage/coda1/p-amedford6/0/shared/rich_project_chbe-medford/medford-share/data/pseudos_module/espresso/nninc/pbe/van/N.UPF
     MD5 check sum: 90d10febe142ad51ac9d5be1deb811c4
     Pseudo is Ultrasoft, Zval =  5.0
     Generated by new atomic code, or converted to UPF format
     Using radial grid of  729 points,  4 beta functions with:
                l(1) =   0
                l(2) =   0
                l(3) =   1
                l(4) =   1
     Q(r) pseudized with  8 coefficients,  rinner =    0.800   0.800   0.800

     atomic species   valence    mass     pseudopotential
        Ti1           12.00    47.86700     Ti( 1.00)
        O1             6.00    15.99900     O ( 1.00)
        C1             4.00    12.01100     C ( 1.00)
        H1             1.00     1.00800     H ( 1.00)
        N1             5.00    14.00700     N ( 1.00)

     No symmetry found

   Cartesian axes

     site n.     atom                  positions (alat units)
         1           Ti1 tau(   1) = (   0.0004258   2.9801865   6.0000000  )
         2           Ti1 tau(   2) = (   3.2906075   1.4906267   6.0002472  )
         3           O1  tau(   3) = (   0.0006271   0.0005054   7.9858123  )
         4           O1  tau(   4) = (   3.2906025   0.0005020   7.3038282  )
         5           O1  tau(   5) = (   4.5942328   1.4918067   9.2879030  )
         6           O1  tau(   6) = (   1.9868534   1.4903216   9.2879459  )
         7           Ti1 tau(   7) = (   3.3250738   2.9918783   9.1599549  )
         8           Ti1 tau(   8) = (   0.0412716   1.4903975   9.2658274  )
         9           O1  tau(   9) = (   3.2852344   0.0116916  11.3753809  )
        10           O1  tau(  10) = (   6.5701620   0.0027176  10.6052010  )
        11           O1  tau(  11) = (   1.2758103   1.4969824  12.6410148  )
        12           O1  tau(  12) = (   5.2796941   1.4985041  12.6691897  )
        13           Ti1 tau(  13) = (   6.5531116   2.9870417  12.5348353  )
        14           Ti1 tau(  14) = (   3.2504356   1.4995581  12.5215122  )
        15           O1  tau(  15) = (   0.0383206   0.0046779  14.6787597  )
        16           O1  tau(  16) = (   3.2537876   0.0095675  14.0320577  )
        17           O1  tau(  17) = (   4.5855444   1.5609978  16.0639115  )
        18           O1  tau(  18) = (   2.0343745   1.5440679  16.2001998  )
        19           Ti1 tau(  19) = (   3.3058624   3.0043567  15.7064231  )
        20           Ti1 tau(  20) = (   6.5549511   1.4266458  15.8675638  )
        21           O1  tau(  21) = (   3.2904802   0.0005063   4.7018136  )
        22           O1  tau(  22) = (   6.4974171   0.0126247  17.2237355  )
        23           O1  tau(  23) = (   1.3043587   1.4918075   6.0039043  )
        24           O1  tau(  24) = (   5.2767064   1.4903225   6.0039473  )
        25           Ti1 tau(  25) = (   0.0000382   5.9609847   6.0000000  )
        26           Ti1 tau(  26) = (   3.2902200   4.4714249   6.0002472  )
        27           O1  tau(  27) = (   0.0002396   2.9813036   7.9858123  )
        28           O1  tau(  28) = (   3.2902150   2.9813002   7.3038282  )
        29           O1  tau(  29) = (   4.5938453   4.4726049   9.2879030  )
        30           O1  tau(  30) = (   1.9864658   4.4711199   9.2879459  )
        31           Ti1 tau(  31) = (   3.3194574   0.0113313   9.1541029  )
        32           Ti1 tau(  32) = (   0.0414074   4.4589881   9.2683624  )
        33           O1  tau(  33) = (   3.2821265   2.9896323  11.3676027  )
        34           O1  tau(  34) = (   6.5712111   2.9825298  10.6251173  )
        35           O1  tau(  35) = (   1.2751242   4.4805681  12.6359318  )
        36           O1  tau(  36) = (   5.2791817   4.4782367  12.6627471  )
        37           Ti1 tau(  37) = (   6.5506445   0.0032150  12.4806913  )
        38           Ti1 tau(  38) = (   3.2507345   4.4881811  12.5195668  )
        39           O1  tau(  39) = (   0.0469291   2.9928743  14.8464778  )
        40           O1  tau(  40) = (   3.2514374   2.9975957  13.9281162  )
        41           O1  tau(  41) = (   4.5866068   4.4203933  16.0984022  )
        42           O1  tau(  42) = (   2.0418857   4.4579080  16.2200674  )
        43           Ti1 tau(  43) = (   3.2648600   0.0292614  15.8571223  )
        44           Ti1 tau(  44) = (   6.5763064   4.6169283  15.9626260  )
        45           O1  tau(  45) = (   3.2900926   2.9813045   4.7018136  )
        46           O1  tau(  46) = (   1.3039711   4.4726057   6.0039043  )
        47           O1  tau(  47) = (   5.2763189   4.4711207   6.0039473  )
        48           C1  tau(  48) = (   6.0301898   2.9050411  18.9351799  )
        49           O1  tau(  49) = (   0.1575529   2.9516393  17.6723866  )
        50           H1  tau(  50) = (   4.9714676   2.8818909  18.6991823  )
        51           H1  tau(  51) = (   1.1132637   2.8218831  17.8130049  )
        52           H1  tau(  52) = (   6.2985093   1.9952365  19.4696065  )
        53           H1  tau(  53) = (   6.2732381   3.7939772  19.5169533  )
        54           N1  tau(  54) = (   4.8840950   3.1052494  22.6850861  )
        55           N1  tau(  55) = (   4.2680757   3.3403818  21.7970487  )
        56           O1  tau(  56) = (   3.8772584   0.1141246  18.3039653  )
        57           H1  tau(  57) = (   4.8407149   0.0692883  18.0716375  )
        58           H1  tau(  58) = (   3.6680196   5.2122673  18.6777519  )

     number of k points=    10  Fermi-Dirac smearing, width (Ry)=  0.0073
                       cart. coord. in units 2pi/alat
        k(    1) = (   0.0000000   0.0000000   0.0000000), wk =   0.1250000
        k(    2) = (   0.0000000   0.0419351   0.0000000), wk =   0.2500000
        k(    3) = (   0.0000000  -0.0838702   0.0000000), wk =   0.1250000
        k(    4) = (   0.0379955   0.0000049   0.0000000), wk =   0.2500000
        k(    5) = (   0.0379955   0.0419400   0.0000000), wk =   0.2500000
        k(    6) = (   0.0379955  -0.0838652   0.0000000), wk =   0.2500000
        k(    7) = (   0.0379955  -0.0419301   0.0000000), wk =   0.2500000
        k(    8) = (  -0.0759910  -0.0000099   0.0000000), wk =   0.1250000
        k(    9) = (  -0.0759910   0.0419252   0.0000000), wk =   0.2500000
        k(   10) = (  -0.0759910  -0.0838800   0.0000000), wk =   0.1250000

     Initial potential from superposition of free atoms

     starting charge  393.99913, renormalised to  410.00000

     negative rho (up, down):  9.555E-03 0.000E+00

     %%%%%%%%%%%%%%%%%%%%%%%%%%%%%%%%%%%%%%%%%%%%%%%%%%%%%%%%%%%%%%%%%%%%%%%%
     %                                                                      %
     % You are using vdW-DF, which was implemented by the Thonhauser group. %
     % Please cite the following two papers that made this development      %
     % possible and the two reviews that describe the various versions:     %
     %                                                                      %
     %   T. Thonhauser et al., PRL 115, 136402 (2015).                      %
     %   T. Thonhauser et al., PRB 76, 125112 (2007).                       %
     %   K. Berland et al., Rep. Prog. Phys. 78, 066501 (2015).             %
     %   D.C. Langreth et al., J. Phys.: Condens. Matter 21, 084203 (2009). %
     %                                                                      %
     %                                                                      %
     % If you are calculating the stress with vdW-DF, please also cite:     %
     %                                                                      %
     %   R. Sabatini et al., J. Phys.: Condens. Matter 24, 424209 (2012).   %
     %                                                                      %
     %%%%%%%%%%%%%%%%%%%%%%%%%%%%%%%%%%%%%%%%%%%%%%%%%%%%%%%%%%%%%%%%%%%%%%%%

     Adding external electric field

     Computed dipole along edir(3) :
        Dipole              -20.0776 Ry au,        -51.0322 Debye
        Dipole field         -0.0379 Ry au,

        Potential amp.        3.5123 Ry
        Total length         46.3494 bohr

     Starting wfcs are  310 atomic wfcs
  @ DRIVER MODE: Message from server: STATUS
  @ DRIVER MODE: Message from server: POSDATA
  @ DRIVER MODE: Reading and sharing cell
  @ DRIVER MODE: Reading and sharing positions
  @ DRIVER MODE: Received positions

     Self-consistent Calculation

     iteration #  1     ecut=    29.40 Ry     beta= 0.05
     Davidson diagonalization with overlap
     c_bands:  1 eigenvalues not converged
     c_bands:  1 eigenvalues not converged
     c_bands:  5 eigenvalues not converged
     c_bands:  1 eigenvalues not converged
     c_bands:  4 eigenvalues not converged
     c_bands:  3 eigenvalues not converged
     ethr =  1.00E-05,  avg # of iterations = 32.1

[...]

     total energy              =   -2098.59800834 Ry
     estimated scf accuracy    <   10668.24323845 Ry

     iteration #  2     ecut=    29.40 Ry     beta= 0.05
     Davidson diagonalization with overlap
     ethr =  1.00E-02,  avg # of iterations = 30.6

[...]

     iteration # 87     ecut=    29.40 Ry     beta= 0.05
     Davidson diagonalization with overlap
     ethr =  6.63E-11,  avg # of iterations =  1.4

[...]

     total energy              =   -3007.66317611 Ry
     estimated scf accuracy    <       0.00000011 Ry

     iteration # 91     ecut=    29.40 Ry     beta= 0.05
     Davidson diagonalization with overlap
     c_bands:  2 eigenvalues not converged
     c_bands:  2 eigenvalues not converged
     c_bands:  1 eigenvalues not converged
     c_bands:  1 eigenvalues not converged
     ethr =  2.70E-11,  avg # of iterations = 15.3

     negative rho (up, down):  1.051E-02 0.000E+00

     Adding external electric field

     Computed dipole along edir(3) :
        Dipole                1.2315 Ry au,          3.1302 Debye
        Dipole field          0.0023 Ry au,

        Potential amp.       -0.2154 Ry
        Total length         46.3494 bohr

     End of self-consistent calculation

          k = 0.0000 0.0000 0.0000 ( 18029 PWs)   bands (ev):

   -54.9360 -54.9120 -54.9000 -54.8777 -54.8629 -54.8573 -54.8304 -54.8110
   -54.7829 -54.7805 -54.7460 -54.7252 -54.6939 -54.6913 -54.0005 -53.9664
   -31.5018 -31.4758 -31.4077 -31.3150 -31.2561 -31.2502 -31.2381 -31.2362
   -31.2007 -31.1663 -31.1571 -31.1548 -31.1506 -31.1275 -31.1207 -31.1147
   -31.0984 -31.0797 -31.0739 -31.0722 -31.0654 -31.0578 -31.0350 -31.0286
   -31.0283 -31.0225 -31.0077 -31.0055 -31.0046 -30.9685 -30.9515 -30.9315
   -30.9299 -30.9290 -30.9210 -30.9196 -30.9097 -30.8796 -30.8653 -30.8608
   -30.8563 -30.8368 -30.4124 -30.3101 -30.2885 -30.2286 -30.1423 -30.0312
   -21.6241 -19.8089 -18.2993 -15.7693 -15.5232 -15.3839 -15.2866 -15.1629
   -15.0327 -14.9588 -14.8384 -14.7664 -14.6727 -14.6594 -14.6411 -14.6199
   -14.5866 -14.5604 -14.5035 -14.4983 -14.4437 -14.4402 -14.4297 -14.4188
   -14.3859 -14.3705 -14.3395 -14.3304 -14.1679 -14.1022 -14.0426 -13.8985
   -12.5009 -12.3816 -10.8231  -6.8743  -6.5544  -6.0462  -4.8548  -4.7815
    -4.7263  -4.6320  -3.5462  -3.1025  -2.9514  -2.9158  -2.8937  -2.8722
    -2.7466  -2.6573  -2.6276  -2.4680  -2.3734  -2.2382  -2.2107  -2.1787
    -2.1404  -2.0724  -2.0167  -1.9300  -1.9002  -1.8599  -1.8404  -1.8164
    -1.8014  -1.7752  -1.7445  -1.6725  -1.6344  -1.5499  -1.5334  -1.4458
    -1.3933  -1.3852  -1.3417  -1.2788  -1.2754  -1.2649  -1.2253  -1.2111
    -1.2028  -1.1928  -1.1860  -1.0284  -0.9796  -0.9459  -0.8227  -0.7124
    -0.6204  -0.6104  -0.5066  -0.4931  -0.4305  -0.4258  -0.3862  -0.3467
    -0.2845  -0.1880  -0.1299  -0.0836  -0.0705   0.0401   0.1060   0.1208
     0.1809   0.2571   0.2723   0.2938   0.3227   0.4101   0.4780   0.5197
     0.5541   0.6192   0.6289   0.6763   0.7053   0.7460   0.8319   0.8856
     0.8891   0.9762   0.9934   1.0067   1.0321   1.0377   1.1358   1.1696
     1.2139   1.2420   1.3931   1.4284   1.6194   1.6550   1.9151   2.0136
     2.0255   2.1867   2.6114   2.6659   4.1539   4.2219   4.2583   4.2656
     4.2803   4.3599   4.6422   4.6527   4.6622   4.6740   4.6820

[...]

          k = 0.0380-0.0419 0.0000 ( 17876 PWs)   bands (ev):

[...]

          k =-0.0760-0.0000 0.0000 ( 17886 PWs)   bands (ev):

[...]

          k =-0.0760-0.0839 0.0000 ( 17948 PWs)   bands (ev):

   -54.9189 -54.9169 -54.8965 -54.8930 -54.8579 -54.8528 -54.8231 -54.8185
   -54.7902 -54.7655 -54.7606 -54.7096 -54.7069 -54.6956 -53.9834 -53.9833
   -31.3885 -31.3107 -31.3004 -31.2244 -31.2209 -31.1986 -31.1913 -31.1895
   -31.1826 -31.1599 -31.1452 -31.1434 -31.1357 -31.1297 -31.1108 -31.0967
   -31.0814 -31.0794 -31.0703 -31.0691 -31.0673 -31.0663 -31.0607 -31.0551
   -31.0304 -31.0254 -31.0209 -31.0157 -31.0155 -31.0128 -31.0120 -31.0117
   -31.0116 -30.9826 -30.9742 -30.9635 -30.9622 -30.9349 -30.9325 -30.8965
   -30.8933 -30.8789 -30.3011 -30.3011 -30.2252 -30.2249 -30.1855 -30.1853
   -21.6240 -19.8053 -18.2983 -15.3442 -15.2309 -15.0650 -14.9565 -14.9468
   -14.9183 -14.8591 -14.8162 -14.7851 -14.7450 -14.7347 -14.7053 -14.6873
   -14.6820 -14.6244 -14.5403 -14.5346 -14.5209 -14.4855 -14.4585 -14.4445
   -14.4425 -14.4281 -14.3912 -14.3893 -14.3702 -14.3591 -14.3025 -14.2103
   -12.4829 -12.4823 -10.8258  -6.8734  -6.5566  -6.0486  -4.8520  -4.7883
    -4.7203  -4.6199  -3.5379  -2.7660  -2.5399  -2.4984  -2.4256  -2.2601
    -2.1798  -2.1590  -2.0832  -2.0592  -2.0240  -1.9455  -1.9417  -1.9080
    -1.8678  -1.8434  -1.8376  -1.8193  -1.8008  -1.7681  -1.7474  -1.7262
    -1.7125  -1.6972  -1.6508  -1.6419  -1.6060  -1.6025  -1.5878  -1.5759
    -1.5567  -1.5459  -1.4656  -1.4374  -1.3978  -1.3107  -1.2939  -1.1643
    -1.1589  -1.1128  -1.0763  -1.0383  -1.0188  -0.9991  -0.9728  -0.9427
    -0.9105  -0.7385  -0.7175  -0.6745  -0.6230  -0.6175  -0.5444  -0.5285
    -0.4740  -0.4420  -0.3523  -0.3115  -0.2715  -0.1631  -0.1360  -0.1238
     0.0148   0.0202   0.0656   0.0672   0.1099   0.1478   0.1591   0.1673
     0.2420   0.2746   0.3110   0.3370   0.3606   0.5387   0.5749   0.6337
     0.7233   0.7414   0.9196   0.9501   0.9938   1.0748   1.1363   1.1901
     1.2123   1.3205   1.3283   1.3516   1.4432   1.4915   1.4928   1.5228
     2.3767   2.3797   2.4805   2.4832   4.2781   4.4091   4.4153   4.4953
     4.5690   4.6617   4.6676   4.6771   4.7067   4.7167   4.7216

     the Fermi energy is     4.2100 ev

!    total energy              =   -3007.66317941 Ry
     estimated scf accuracy    <       0.00000004 Ry
     smearing contrib. (-TS)   =      -0.03683218 Ry
     internal energy E=F+TS    =   -3007.62634724 Ry

     The total energy is F=E-TS. E is the sum of the following terms:
     one-electron contribution =  -22339.58794889 Ry
     hartree contribution      =   11271.57952914 Ry
     xc contribution           =    -502.08483299 Ry
     ewald contribution        =    8562.46404334 Ry
     electric field correction =       0.00286216 Ry

     convergence has been achieved in  91 iterations

     Forces acting on atoms (cartesian axes, Ry/au):

     atom    1 type  1   force =    -0.00027807   -0.00001144    0.09251860
     atom    2 type  1   force =    -0.00013394    0.00113873   -0.18324315
     atom    3 type  2   force =     0.00054821   -0.00040214   -0.02389528
     atom    4 type  2   force =     0.00079792    0.00021161    0.05086640
     atom    5 type  2   force =    -0.01549487   -0.00014286    0.00436961
     atom    6 type  2   force =     0.01421512   -0.00032789    0.00505301
     atom    7 type  1   force =    -0.00011218    0.00020568    0.00006119
     atom    8 type  1   force =    -0.00007696    0.00017377   -0.00000025
     atom    9 type  2   force =     0.00007385    0.00004165    0.00010602
     atom   10 type  2   force =    -0.00000007    0.00001861   -0.00006308
     atom   11 type  2   force =     0.00017582    0.00001431   -0.00013492
     atom   12 type  2   force =     0.00003613    0.00003174   -0.00005917
     atom   13 type  1   force =     0.00016981    0.00011458   -0.00003529
     atom   14 type  1   force =     0.00027102    0.00016173   -0.00010264
     atom   15 type  2   force =     0.00027833    0.00038107    0.00000902
     atom   16 type  2   force =     0.00015469   -0.00002608    0.00018723
     atom   17 type  2   force =     0.00003663    0.00019877    0.00005635
     atom   18 type  2   force =     0.00018846    0.00001736    0.00028926
     atom   19 type  1   force =     0.00009407   -0.00027303    0.00002313
     atom   20 type  1   force =     0.00014924   -0.00007658   -0.00016950
     atom   21 type  2   force =     0.00002962    0.00001569    0.10487125
     atom   22 type  2   force =    -0.00023841   -0.00004886    0.00011806
     atom   23 type  2   force =    -0.06802182   -0.00011595   -0.02684422
     atom   24 type  2   force =     0.06788668    0.00033884   -0.02688653
     atom   25 type  1   force =    -0.00012076   -0.00002621    0.09596739
     atom   26 type  1   force =    -0.00010839   -0.00143605   -0.18315555
     atom   27 type  2   force =     0.00049973   -0.00019523   -0.02270062
     atom   28 type  2   force =     0.00086369    0.00017993    0.05125957
     atom   29 type  2   force =    -0.01541077    0.00050452    0.00454084
     atom   30 type  2   force =     0.01416816    0.00078113    0.00524119
     atom   31 type  1   force =    -0.00010331    0.00005895   -0.00000347
     atom   32 type  1   force =    -0.00007619    0.00015346   -0.00004476
     atom   33 type  2   force =     0.00012532   -0.00002656    0.00015029
     atom   34 type  2   force =    -0.00000140    0.00007326    0.00002667
     atom   35 type  2   force =     0.00013712   -0.00000193   -0.00003141
     atom   36 type  2   force =     0.00007338   -0.00000366    0.00009397
     atom   37 type  1   force =     0.00016211    0.00006740   -0.00010219
     atom   38 type  1   force =     0.00015528   -0.00002923    0.00004312
     atom   39 type  2   force =     0.00017249   -0.00006388   -0.00019456
     atom   40 type  2   force =     0.00002299   -0.00017534    0.00004294
     atom   41 type  2   force =     0.00017088    0.00003497    0.00017228
     atom   42 type  2   force =    -0.00001549    0.00003857    0.00023159
     atom   43 type  1   force =    -0.00000895    0.00003671    0.00100349
     atom   44 type  1   force =     0.00008472    0.00014145    0.00033925
     atom   45 type  2   force =     0.00003418    0.00002024    0.10480224
     atom   46 type  2   force =    -0.06803550   -0.00050458   -0.02683395
     atom   47 type  2   force =     0.06789358   -0.00008511   -0.02691259
     atom   48 type  3   force =    -0.00010465   -0.00006861   -0.00020835
     atom   49 type  2   force =    -0.00027068   -0.00011632    0.00006129
     atom   50 type  4   force =    -0.00010180   -0.00041870    0.00009025
     atom   51 type  4   force =     0.00009075   -0.00013313    0.00008441
     atom   52 type  4   force =     0.00029773   -0.00036323    0.00006120
     atom   53 type  4   force =     0.00008128    0.00016017   -0.00018830
     atom   54 type  5   force =    -0.00092169    0.00003900   -0.00107327
     atom   55 type  5   force =     0.00036016   -0.00008675    0.00019319
     atom   56 type  2   force =     0.00333078    0.00698505   -0.00393669
     atom   57 type  4   force =    -0.00104583   -0.00004205    0.00006742
     atom   58 type  4   force =    -0.00314818   -0.00713754    0.00381801

     Total force =     0.368341     Total SCF correction =     0.000419
  @ DRIVER MODE: Message from server: STATUS
  @ DRIVER MODE: Message from server: GETFORCE
  @ DRIVER MODE: Returning v,forces,stress,ensemble

     Writing output data file ./calc.save/
  @ DRIVER MODE: Message from server: EXIT
  @ DRIVE MODE: Exiting

     General routines

     Parallel routines

   This run was terminated on:   3: 7:10  29Sep2021

   JOB DONE.