     Program PWSCF v.6.7GPU starts on 10Sep2021 at  7:26:32

     R & G space division:  proc/nbgrp/npool/nimage =      10
     Reading input from /storage/home/hcoda1/3/ntian30/research/carbon/CxH_vib/CH3_calc/ads_slab/CH3N2H2O_g/out_0032/pw.inp
Warning: card &CELL ignored
Warning: card   CELL_DYNAMICS='IPI', ignored
Warning: card / ignored

     Current dimensions of program PWSCF are:
     Max number of different atomic species (ntypx) = 10
     Max number of k-points (npk) =  40000
     Max angular momentum in pseudopotentials (lmaxx) =  3
     Presently no symmetry can be used with electric field

     Message from routine cell_base_init:
     DEPRECATED: use true lattice parameter, not A to a.u. conversion factor

     IMPORTANT: XC functional enforced from input :
     Exchange-correlation= BEEF-VDW
                           (   1   4  43  14   2   0   0)
     Any further DFT definition will be discarded
     Please, verify this is what you really want

  @ DRIVER MODE: Connecting to
 qe_1139763_2779714.sched-torque.pace.gatech.edu7tsj7vk6_scratch
  using UNIX socket
  @ DRIVER MODE: Message from server: STATUS
  @ DRIVER MODE: Message from server: INIT
  @ DRIVER MODE: Receiving replica           0          -1
  @ DRIVER MODE: Receiving encoded integer          25
  @ DRIVER MODE:  SCF:  T  FORCE:  T  STRESS:  F  VC:  F  ENSEMBLE:  F
  @ DRIVER MODE:  SCF:  T  FORCE:  T  STRESS:  F  VC:  F  ENSEMBLE:  F

     Using Slab Decomposition

     bravais-lattice index     =            0
     lattice parameter (alat)  =       1.8897  a.u.
     unit-cell volume          =    6658.9804 (a.u.)^3
     number of atoms/cell      =           56
     number of atomic types    =            5
     number of electrons       =       403.00
     number of Kohn-Sham states=          211
     kinetic-energy cutoff     =      29.3995  Ry
     charge density cutoff     =     293.9946  Ry
     scf convergence threshold =      7.3E-08
     mixing beta               =       0.0500
     number of iterations used =            8  plain     mixing
     Exchange-correlation= BEEF-VDW
                           (   1   4  43  14   2   0   0)

     celldm(1)=   1.889726  celldm(2)=   0.000000  celldm(3)=   0.000000
     celldm(4)=   0.000000  celldm(5)=   0.000000  celldm(6)=   0.000000

     crystal axes: (cart. coord. in units of alat)
               a(1) = (   6.579727   0.000000   0.000000 )
               a(2) = (  -0.000775   5.961596   0.000000 )
               a(3) = (   0.000000   0.000000  25.155947 )

     reciprocal axes: (cart. coord. in units 2 pi/alat)
               b(1) = (  0.151982  0.000020  0.000000 )
               b(2) = (  0.000000  0.167740  0.000000 )
               b(3) = (  0.000000  0.000000  0.039752 )

     PseudoPot. # 1 for Ti read from file:
     /storage/coda1/p-amedford6/0/shared/rich_project_chbe-medford/medford-share/data/pseudos_module/espresso/nninc/pbe/van/Ti.UPF
     MD5 check sum: 8e4df49b7f0d34bbd5052bf3f5ea0213
     Pseudo is Ultrasoft, Zval = 12.0
     Generated by new atomic code, or converted to UPF format
     Using radial grid of  851 points,  6 beta functions with:
                l(1) =   0
                l(2) =   0
                l(3) =   1
                l(4) =   1
                l(5) =   2
                l(6) =   2
     Q(r) pseudized with  8 coefficients,  rinner =    1.000   1.000   1.000
                                                       1.000   1.000

     PseudoPot. # 2 for O  read from file:
     /storage/coda1/p-amedford6/0/shared/rich_project_chbe-medford/medford-share/data/pseudos_module/espresso/nninc/pbe/van/O.UPF
     MD5 check sum: 78c19812648e8988a0fe644b0f25305e
     Pseudo is Ultrasoft, Zval =  6.0
     Generated by new atomic code, or converted to UPF format
     Using radial grid of  737 points,  4 beta functions with:
                l(1) =   0
                l(2) =   0
                l(3) =   1
                l(4) =   1
     Q(r) pseudized with  8 coefficients,  rinner =    0.800   0.800   0.800

     PseudoPot. # 3 for N  read from file:
     /storage/coda1/p-amedford6/0/shared/rich_project_chbe-medford/medford-share/data/pseudos_module/espresso/nninc/pbe/van/N.UPF
     MD5 check sum: 90d10febe142ad51ac9d5be1deb811c4
     Pseudo is Ultrasoft, Zval =  5.0
     Generated by new atomic code, or converted to UPF format
     Using radial grid of  729 points,  4 beta functions with:
                l(1) =   0
                l(2) =   0
                l(3) =   1
                l(4) =   1
     Q(r) pseudized with  8 coefficients,  rinner =    0.800   0.800   0.800

     PseudoPot. # 4 for C  read from file:
     /storage/coda1/p-amedford6/0/shared/rich_project_chbe-medford/medford-share/data/pseudos_module/espresso/nninc/pbe/van/C.UPF
     MD5 check sum: 1a69bf6b8db32088f5b2163dbdb77a27
     Pseudo is Ultrasoft, Zval =  4.0
     Generated by new atomic code, or converted to UPF format
     Using radial grid of  721 points,  4 beta functions with:
                l(1) =   0
                l(2) =   0
                l(3) =   1
                l(4) =   1
     Q(r) pseudized with  8 coefficients,  rinner =    0.800   0.800   0.800

     PseudoPot. # 5 for H  read from file:
     /storage/coda1/p-amedford6/0/shared/rich_project_chbe-medford/medford-share/data/pseudos_module/espresso/nninc/pbe/van/H.UPF
     MD5 check sum: b5ee9d7bfd3a09ee7748110bda690ff7
     Pseudo is Ultrasoft, Zval =  1.0
     Generated by new atomic code, or converted to UPF format
     Using radial grid of  615 points,  1 beta functions with:
                l(1) =   0
     Q(r) pseudized with  8 coefficients,  rinner =    0.800

     atomic species   valence    mass     pseudopotential
        Ti1           12.00    47.86700     Ti( 1.00)
        O1             6.00    15.99900     O ( 1.00)
        N1             5.00    14.00700     N ( 1.00)
        C1             4.00    12.01100     C ( 1.00)
        H1             1.00     1.00800     H ( 1.00)

     No symmetry found

   Cartesian axes

     site n.     atom                  positions (alat units)
         1           Ti1 tau(   1) = (   0.0004258   2.9801865   6.0000000  )
         2           Ti1 tau(   2) = (   3.2906075   1.4906267   6.0002472  )
         3           O1  tau(   3) = (   0.0006271   0.0005054   7.9858123  )
         4           O1  tau(   4) = (   3.2906025   0.0005020   7.3038282  )
         5           O1  tau(   5) = (   4.5942328   1.4918067   9.2879030  )
         6           O1  tau(   6) = (   1.9868534   1.4903216   9.2879459  )
         7           Ti1 tau(   7) = (   3.2907910   2.8959150   9.1758416  )
         8           Ti1 tau(   8) = (   0.0015273   1.4827037   9.2680791  )
         9           O1  tau(   9) = (   3.3002115   5.9463602  11.3460011  )
        10           O1  tau(  10) = (   0.0116148   5.9584955  10.6183126  )
        11           O1  tau(  11) = (   1.3192008   1.4768417  12.6238339  )
        12           O1  tau(  12) = (   5.3062067   1.4698383  12.6193417  )
        13           Ti1 tau(  13) = (   6.5330844   2.9444840  12.6148558  )
        14           Ti1 tau(  14) = (   3.2222230   1.4676475  12.5013840  )
        15           O1  tau(  15) = (   0.0064324   5.9471174  14.6352917  )
        16           O1  tau(  16) = (   3.3028336   5.9445487  13.9678148  )
        17           O1  tau(  17) = (   4.5628415   1.5226527  16.0793330  )
        18           O1  tau(  18) = (   2.0474444   1.5206590  16.0184434  )
        19           Ti1 tau(  19) = (   3.3141275   2.9607752  15.6908890  )
        20           Ti1 tau(  20) = (   6.5660065   1.5097775  15.7997320  )
        21           O1  tau(  21) = (   3.2904802   0.0005063   4.7018136  )
        22           O1  tau(  22) = (   0.0269361   0.0086655  17.1987262  )
        23           O1  tau(  23) = (   1.3043587   1.4918075   6.0039043  )
        24           O1  tau(  24) = (   5.2767064   1.4903225   6.0039473  )
        25           Ti1 tau(  25) = (   0.0000382   5.9609847   6.0000000  )
        26           Ti1 tau(  26) = (   3.2902200   4.4714249   6.0002472  )
        27           O1  tau(  27) = (   0.0002396   2.9813036   7.9858123  )
        28           O1  tau(  28) = (   3.2902150   2.9813002   7.3038282  )
        29           O1  tau(  29) = (   4.5938453   4.4726049   9.2879030  )
        30           O1  tau(  30) = (   1.9864658   4.4711199   9.2879459  )
        31           Ti1 tau(  31) = (   3.2891106   5.8743827   9.1763621  )
        32           Ti1 tau(  32) = (   0.0006254   4.4649316   9.2693709  )
        33           O1  tau(  33) = (   3.2944391   2.9688829  11.3444728  )
        34           O1  tau(  34) = (   0.0092240   2.9805883  10.6323155  )
        35           O1  tau(  35) = (   1.3142520   4.4635248  12.6275686  )
        36           O1  tau(  36) = (   5.3078217   4.4601700  12.6226734  )
        37           Ti1 tau(  37) = (   6.5374036   5.9186568  12.5467527  )
        38           Ti1 tau(  38) = (   3.2213306   4.4595164  12.5065882  )
        39           O1  tau(  39) = (   6.5756885   2.9534048  14.6511233  )
        40           O1  tau(  40) = (   3.3206316   2.9687378  13.8980937  )
        41           O1  tau(  41) = (   4.5543359   4.4428353  16.0905846  )
        42           O1  tau(  42) = (   2.0427057   4.4323087  16.0570365  )
        43           Ti1 tau(  43) = (   3.2570595   5.9269474  15.8069103  )
        44           Ti1 tau(  44) = (   6.5609319   4.6488967  16.0725391  )
        45           O1  tau(  45) = (   3.2900926   2.9813045   4.7018136  )
        46           O1  tau(  46) = (   1.3039711   4.4726057   6.0039043  )
        47           O1  tau(  47) = (   5.2763189   4.4711207   6.0039473  )
        48           N1  tau(  48) = (   0.2492319   2.6641403  18.6309932  )
        49           N1  tau(  49) = (   0.0782707   2.8835230  17.4382120  )
        50           C1  tau(  50) = (   0.2622466   3.8234900  19.5663878  )
        51           H1  tau(  51) = (   6.1755609   4.6233469  19.2444151  )
        52           H1  tau(  52) = (   6.5754044   3.4477461  20.5519103  )
        53           H1  tau(  53) = (   1.2957956   4.2073973  19.6006198  )
        54           O1  tau(  54) = (   3.1761146   0.0362278  18.2233714  )
        55           H1  tau(  55) = (   3.9097821   0.6076051  18.5038283  )
        56           H1  tau(  56) = (   2.3516031   0.5117379  18.4309238  )

     number of k points=    10  Fermi-Dirac smearing, width (Ry)=  0.0073
                       cart. coord. in units 2pi/alat
        k(    1) = (   0.0000000   0.0000000   0.0000000), wk =   0.1250000
        k(    2) = (   0.0000000   0.0419351   0.0000000), wk =   0.2500000
        k(    3) = (   0.0000000  -0.0838702   0.0000000), wk =   0.1250000
        k(    4) = (   0.0379955   0.0000049   0.0000000), wk =   0.2500000
        k(    5) = (   0.0379955   0.0419400   0.0000000), wk =   0.2500000
        k(    6) = (   0.0379955  -0.0838652   0.0000000), wk =   0.2500000
        k(    7) = (   0.0379955  -0.0419301   0.0000000), wk =   0.2500000
        k(    8) = (  -0.0759910  -0.0000099   0.0000000), wk =   0.1250000
        k(    9) = (  -0.0759910   0.0419252   0.0000000), wk =   0.2500000
        k(   10) = (  -0.0759910  -0.0838800   0.0000000), wk =   0.1250000

     Initial potential from superposition of free atoms

     starting charge  386.99914, renormalised to  403.00000

     negative rho (up, down):  1.449E-02 0.000E+00

     %%%%%%%%%%%%%%%%%%%%%%%%%%%%%%%%%%%%%%%%%%%%%%%%%%%%%%%%%%%%%%%%%%%%%%%%
     %                                                                      %
     % You are using vdW-DF, which was implemented by the Thonhauser group. %
     % Please cite the following two papers that made this development      %
     % possible and the two reviews that describe the various versions:     %
     %                                                                      %
     %   T. Thonhauser et al., PRL 115, 136402 (2015).                      %
     %   T. Thonhauser et al., PRB 76, 125112 (2007).                       %
     %   K. Berland et al., Rep. Prog. Phys. 78, 066501 (2015).             %
     %   D.C. Langreth et al., J. Phys.: Condens. Matter 21, 084203 (2009). %
     %                                                                      %
     %                                                                      %
     % If you are calculating the stress with vdW-DF, please also cite:     %
     %                                                                      %
     %   R. Sabatini et al., J. Phys.: Condens. Matter 24, 424209 (2012).   %
     %                                                                      %
     %%%%%%%%%%%%%%%%%%%%%%%%%%%%%%%%%%%%%%%%%%%%%%%%%%%%%%%%%%%%%%%%%%%%%%%%

     Adding external electric field

     Computed dipole along edir(3) :
        Dipole              -13.2089 Ry au,        -33.5737 Debye
        Dipole field         -0.0249 Ry au,

        Potential amp.        2.3107 Ry
        Total length         46.3494 bohr

     Starting wfcs are  305 atomic wfcs
  @ DRIVER MODE: Message from server: STATUS
  @ DRIVER MODE: Message from server: POSDATA
  @ DRIVER MODE: Reading and sharing cell
  @ DRIVER MODE: Reading and sharing positions
  @ DRIVER MODE: Received positions

     Self-consistent Calculation

     iteration #  1     ecut=    29.40 Ry     beta= 0.05
     Davidson diagonalization with overlap
     c_bands:  4 eigenvalues not converged
     c_bands:  2 eigenvalues not converged
     c_bands:  2 eigenvalues not converged
     c_bands:  5 eigenvalues not converged
     c_bands:  1 eigenvalues not converged
     c_bands:  1 eigenvalues not converged
     c_bands:  4 eigenvalues not converged
     c_bands:  1 eigenvalues not converged
     c_bands:  1 eigenvalues not converged
     ethr =  1.00E-05,  avg # of iterations = 28.0

[...]

     total energy              =   -2367.59162208 Ry
     estimated scf accuracy    <    6916.05630818 Ry

     iteration #  2     ecut=    29.40 Ry     beta= 0.05
     Davidson diagonalization with overlap
     ethr =  1.00E-02,  avg # of iterations = 23.4

[...]

     iteration # 63     ecut=    29.40 Ry     beta= 0.05
     Davidson diagonalization with overlap
     ethr =  5.48E-11,  avg # of iterations =  9.2

[...]

     total energy              =   -2974.00262623 Ry
     estimated scf accuracy    <       0.00000016 Ry

     iteration # 65     ecut=    29.40 Ry     beta= 0.05
     Davidson diagonalization with overlap
     c_bands:  1 eigenvalues not converged
     ethr =  2.35E-11,  avg # of iterations = 12.8

     negative rho (up, down):  1.476E-02 0.000E+00

     Adding external electric field

     Computed dipole along edir(3) :
        Dipole                0.8891 Ry au,          2.2597 Debye
        Dipole field          0.0017 Ry au,

        Potential amp.       -0.1555 Ry
        Total length         46.3494 bohr

     End of self-consistent calculation

          k = 0.0000 0.0000 0.0000 ( 18029 PWs)   bands (ev):

   -55.6191 -55.5851 -55.5774 -55.5607 -55.5407 -55.4474 -55.4293 -55.4083
   -55.3954 -55.3944 -55.3658 -55.3607 -55.0034 -54.8631 -54.5979 -54.5639
   -32.1195 -32.1015 -31.9621 -31.9448 -31.9280 -31.9120 -31.8839 -31.8782
   -31.8621 -31.8086 -31.8023 -31.7843 -31.7714 -31.7557 -31.7395 -31.7306
   -31.7234 -31.7107 -31.7048 -31.6763 -31.6677 -31.6503 -31.6217 -31.6176
   -31.6017 -31.5990 -31.5985 -31.5934 -31.5693 -31.5644 -31.5616 -31.5566
   -31.5471 -31.5423 -31.5359 -31.5092 -31.5061 -31.2734 -31.1991 -31.1234
   -31.1063 -31.0721 -31.0051 -30.9165 -30.8941 -30.8218 -30.7353 -30.6243
   -18.8645 -18.3059 -16.3110 -16.0826 -15.8529 -15.7652 -15.7165 -15.5169
   -15.4150 -15.3427 -15.2200 -15.1573 -15.1453 -15.1311 -15.1123 -15.1101
   -15.0579 -15.0509 -15.0468 -15.0391 -15.0058 -14.9654 -14.9504 -14.9399
   -14.8460 -14.7726 -14.7554 -14.7316 -14.6861 -14.6697 -14.1966 -13.1002
   -12.9838 -11.2436  -6.8611  -6.6388  -4.1971  -3.8264  -3.7985  -3.6837
    -3.5562  -3.5231  -3.4414  -3.3675  -3.2313  -3.1988  -3.0368  -2.8466
    -2.7859  -2.7599  -2.7069  -2.6403  -2.5266  -2.4673  -2.4228  -2.4158
    -2.3984  -2.3899  -2.3671  -2.3545  -2.2529  -2.2315  -2.1521  -2.1485
    -2.0974  -1.9804  -1.9657  -1.9313  -1.9182  -1.8950  -1.8726  -1.8526
    -1.8422  -1.8182  -1.7673  -1.6969  -1.6316  -1.5947  -1.5054  -1.4392
    -1.3967  -1.3497  -1.2291  -1.1357  -1.1015  -1.0604  -1.0528  -1.0397
    -1.0110  -0.9932  -0.8803  -0.7663  -0.7494  -0.6839  -0.6241  -0.5430
    -0.5164  -0.4367  -0.3827  -0.3643  -0.3608  -0.3150  -0.2850  -0.2261
    -0.0924  -0.0408  -0.0070   0.0022   0.0613   0.1047   0.1333   0.2208
     0.2270   0.2723   0.3103   0.3429   0.3560   0.3712   0.3897   0.4192
     0.4339   0.6255   0.6616   0.7007   0.7384   0.7812   0.9196   0.9439
     1.0420   1.1513   1.3505   1.4242   1.5292   1.6164   1.9958   2.0416
     2.7446   3.5161   3.6031   3.6481   3.6771   3.7608   3.7750   3.9709
     3.9868   4.0252   4.0947

[...]

          k = 0.0380-0.0419 0.0000 ( 17876 PWs)   bands (ev):

[...]

          k =-0.0760-0.0000 0.0000 ( 17886 PWs)   bands (ev):

[...]

          k =-0.0760-0.0839 0.0000 ( 17948 PWs)   bands (ev):

   -55.6024 -55.6016 -55.5631 -55.5591 -55.5547 -55.4371 -55.4187 -55.4129
   -55.4110 -55.3793 -55.3761 -55.3672 -55.0014 -54.8649 -54.5810 -54.5807
   -31.9331 -31.9170 -31.9169 -31.9165 -31.8978 -31.8970 -31.8476 -31.8415
   -31.8203 -31.7949 -31.7828 -31.7738 -31.7698 -31.7316 -31.7268 -31.7254
   -31.7220 -31.7212 -31.7186 -31.7162 -31.7137 -31.7078 -31.6715 -31.6543
   -31.6357 -31.6315 -31.6241 -31.6122 -31.6118 -31.6089 -31.6033 -31.5939
   -31.5905 -31.5796 -31.5787 -31.5701 -31.4203 -31.2753 -31.2150 -31.1624
   -31.1246 -31.0986 -30.9069 -30.9067 -30.8180 -30.8178 -30.7786 -30.7785
   -18.8634 -18.3022 -15.7694 -15.6590 -15.5685 -15.5343 -15.4768 -15.4077
   -15.3998 -15.3131 -15.2972 -15.2941 -15.2283 -15.2077 -15.1703 -15.1635
   -15.1408 -15.1250 -15.1184 -15.0689 -15.0570 -15.0541 -15.0473 -15.0424
   -14.9663 -14.9358 -14.9320 -14.9230 -14.7953 -14.6708 -14.3682 -13.0857
   -13.0854 -11.2412  -6.8891  -6.6152  -4.1227  -3.8589  -3.7613  -3.2157
    -3.0519  -2.8385  -2.8196  -2.7237  -2.7118  -2.6772  -2.5464  -2.5056
    -2.4647  -2.4484  -2.4294  -2.4280  -2.4107  -2.4051  -2.3833  -2.3567
    -2.3338  -2.3139  -2.2850  -2.2815  -2.2686  -2.2555  -2.2322  -2.2202
    -2.2038  -2.1731  -2.1473  -2.1313  -2.0642  -1.9924  -1.8319  -1.7935
    -1.7545  -1.7482  -1.7312  -1.7005  -1.6849  -1.6671  -1.6184  -1.5818
    -1.5004  -1.3556  -1.3375  -1.3138  -1.2926  -1.2822  -1.2101  -1.1018
    -1.0828  -1.0116  -1.0032  -0.8968  -0.8888  -0.8035  -0.7952  -0.7847
    -0.7101  -0.6833  -0.6682  -0.5795  -0.5774  -0.5534  -0.5041  -0.4767
    -0.4122  -0.3699  -0.3393  -0.3359  -0.2899  -0.2677  -0.2237  -0.1568
    -0.1038  -0.0676   0.0288   0.1331   0.2336   0.3491   0.4640   0.4780
     0.5601   0.5935   0.6783   0.6941   0.7024   0.7747   0.7796   0.8783
     0.9230   0.9375   0.9781   1.1007   1.7875   1.7889   1.8611   1.8614
     2.7692   3.7334   3.8534   3.8956   3.9134   3.9876   4.0303   4.0498
     4.0523   4.0863   4.1930

     the Fermi energy is     3.5148 ev

!    total energy              =   -2974.00266147 Ry
     estimated scf accuracy    <       0.00000005 Ry
     smearing contrib. (-TS)   =      -0.02182528 Ry
     internal energy E=F+TS    =   -2973.98083619 Ry

     The total energy is F=E-TS. E is the sum of the following terms:
     one-electron contribution =  -23847.91055644 Ry
     hartree contribution      =   12018.36921459 Ry
     xc contribution           =    -494.02242427 Ry
     ewald contribution        =    9349.58143830 Ry
     electric field correction =       0.00149162 Ry

     convergence has been achieved in  65 iterations

     Forces acting on atoms (cartesian axes, Ry/au):

     atom    1 type  1   force =     0.00003548   -0.00024116    0.09649558
     atom    2 type  1   force =     0.00005309   -0.00043703   -0.17544060
     atom    3 type  2   force =     0.00011512   -0.00009538   -0.02475821
     atom    4 type  2   force =     0.00004207   -0.00157687    0.05349574
     atom    5 type  2   force =    -0.01197827   -0.00100428    0.00308395
     atom    6 type  2   force =     0.01372084   -0.00064547    0.00292239
     atom    7 type  1   force =     0.00074715    0.00068939   -0.00681971
     atom    8 type  1   force =     0.00021737    0.00948276    0.02715021
     atom    9 type  2   force =    -0.00014752   -0.00006609   -0.00005658
     atom   10 type  2   force =    -0.00204833    0.00048670   -0.01819799
     atom   11 type  2   force =    -0.00058139    0.00032926    0.00012054
     atom   12 type  2   force =     0.00069617    0.00012924    0.00031110
     atom   13 type  1   force =    -0.00015549   -0.00008659   -0.00014508
     atom   14 type  1   force =    -0.00041491   -0.00015029    0.00026923
     atom   15 type  2   force =     0.00003046   -0.00059787    0.00068569
     atom   16 type  2   force =    -0.00026251   -0.00007426   -0.00036377
     atom   17 type  2   force =    -0.00024217    0.00017751   -0.00030626
     atom   18 type  2   force =     0.00000935    0.00019814   -0.00030065
     atom   19 type  1   force =    -0.00031381    0.00017307   -0.00006625
     atom   20 type  1   force =    -0.00046142   -0.00000452    0.00034633
     atom   21 type  2   force =     0.00008506    0.00001656    0.10328434
     atom   22 type  2   force =     0.00012724    0.00041676    0.00002092
     atom   23 type  2   force =    -0.07146207   -0.00009395   -0.02774501
     atom   24 type  2   force =     0.07142074    0.00035967   -0.02781589
     atom   25 type  1   force =     0.00017546   -0.00033839    0.09616855
     atom   26 type  1   force =     0.00000943   -0.00037597   -0.17577292
     atom   27 type  2   force =     0.00021036   -0.00020584   -0.02374470
     atom   28 type  2   force =     0.00002577   -0.00128239    0.05296029
     atom   29 type  2   force =    -0.01221875    0.00024197    0.00291418
     atom   30 type  2   force =     0.01388128    0.00082214    0.00273335
     atom   31 type  1   force =     0.00041721    0.00343768   -0.00984459
     atom   32 type  1   force =     0.00036434   -0.01130400    0.02755600
     atom   33 type  2   force =     0.00010039    0.00015035    0.00000040
     atom   34 type  2   force =    -0.00188226   -0.00045056   -0.02415053
     atom   35 type  2   force =     0.00040729    0.00003235   -0.00027115
     atom   36 type  2   force =    -0.00028531   -0.00006045    0.00007737
     atom   37 type  1   force =    -0.00030547   -0.00014123    0.00009290
     atom   38 type  1   force =    -0.00080394    0.00013626   -0.00048404
     atom   39 type  2   force =     0.00009442   -0.00031382   -0.00022720
     atom   40 type  2   force =     0.00019692    0.00034730    0.00045949
     atom   41 type  2   force =     0.00022810    0.00010546   -0.00033131
     atom   42 type  2   force =    -0.00042806   -0.00008169   -0.00034726
     atom   43 type  1   force =     0.00031859    0.00079160    0.00030501
     atom   44 type  1   force =    -0.00009763    0.00109253   -0.00068540
     atom   45 type  2   force =     0.00008379   -0.00002680    0.10328004
     atom   46 type  2   force =    -0.07146736   -0.00001997   -0.02775633
     atom   47 type  2   force =     0.07142454    0.00040713   -0.02781347
     atom   48 type  3   force =    -0.00041388    0.00013240   -0.00133468
     atom   49 type  3   force =    -0.00014512   -0.00038887    0.00121253
     atom   50 type  4   force =     0.00993728    0.00338461    0.00048200
     atom   51 type  5   force =     0.00171761   -0.00043262   -0.00032534
     atom   52 type  5   force =     0.00013798    0.00018112   -0.00013178
     atom   53 type  5   force =    -0.01061599   -0.00397305   -0.00004187
     atom   54 type  2   force =     0.00017964    0.00054236   -0.00079856
     atom   55 type  5   force =    -0.00007196   -0.00007505   -0.00004264
     atom   56 type  5   force =    -0.00040690    0.00028015   -0.00030833

     Total force =     0.368349     Total SCF correction =     0.000681
  @ DRIVER MODE: Message from server: STATUS
  @ DRIVER MODE: Message from server: GETFORCE
  @ DRIVER MODE: Returning v,forces,stress,ensemble

     Writing output data file ./calc.save/
  @ DRIVER MODE: Message from server: EXIT
  @ DRIVE MODE: Exiting

     General routines

     Parallel routines

   This run was terminated on:   7:49:48  10Sep2021

   JOB DONE.