     Program PWSCF v.6.7GPU starts on 23Sep2021 at 17:32:38

     R & G space division:  proc/nbgrp/npool/nimage =       8
     Reading input from /storage/home/hcoda1/3/ntian30/research/carbon/CxH_vib/H2O_calc/ads_slab/CH2NNHHHHO_a/out_0015/pw.inp
Warning: card &CELL ignored
Warning: card   CELL_DYNAMICS='IPI', ignored
Warning: card / ignored

     Current dimensions of program PWSCF are:
     Max number of different atomic species (ntypx) = 10
     Max number of k-points (npk) =  40000
     Max angular momentum in pseudopotentials (lmaxx) =  3
     Presently no symmetry can be used with electric field

     Message from routine cell_base_init:
     DEPRECATED: use true lattice parameter, not A to a.u. conversion factor

     IMPORTANT: XC functional enforced from input :
     Exchange-correlation= BEEF-VDW
                           (   1   4  43  14   2   0   0)
     Any further DFT definition will be discarded
     Please, verify this is what you really want

  @ DRIVER MODE: Connecting to
 qe_1139763_2947316.sched-torque.pace.gatech.eduy2bro_ml_scratch
  using UNIX socket
  @ DRIVER MODE: Message from server: STATUS
  @ DRIVER MODE: Message from server: INIT
  @ DRIVER MODE: Receiving replica           0          -1
  @ DRIVER MODE: Receiving encoded integer          25
  @ DRIVER MODE:  SCF:  T  FORCE:  T  STRESS:  F  VC:  F  ENSEMBLE:  F
  @ DRIVER MODE:  SCF:  T  FORCE:  T  STRESS:  F  VC:  F  ENSEMBLE:  F

     Using Slab Decomposition

     bravais-lattice index     =            0
     lattice parameter (alat)  =       1.8897  a.u.
     unit-cell volume          =    6658.9804 (a.u.)^3
     number of atoms/cell      =           57
     number of atomic types    =            5
     number of electrons       =       404.00
     number of Kohn-Sham states=          212
     kinetic-energy cutoff     =      29.3995  Ry
     charge density cutoff     =     293.9946  Ry
     scf convergence threshold =      7.3E-08
     mixing beta               =       0.0500
     number of iterations used =            8  plain     mixing
     Exchange-correlation= BEEF-VDW
                           (   1   4  43  14   2   0   0)

     celldm(1)=   1.889726  celldm(2)=   0.000000  celldm(3)=   0.000000
     celldm(4)=   0.000000  celldm(5)=   0.000000  celldm(6)=   0.000000

     crystal axes: (cart. coord. in units of alat)
               a(1) = (   6.579727   0.000000   0.000000 )
               a(2) = (  -0.000775   5.961596   0.000000 )
               a(3) = (   0.000000   0.000000  25.155947 )

     reciprocal axes: (cart. coord. in units 2 pi/alat)
               b(1) = (  0.151982  0.000020  0.000000 )
               b(2) = (  0.000000  0.167740  0.000000 )
               b(3) = (  0.000000  0.000000  0.039752 )

     PseudoPot. # 1 for Ti read from file:
     /storage/coda1/p-amedford6/0/shared/rich_project_chbe-medford/medford-share/data/pseudos_module/espresso/nninc/pbe/van/Ti.UPF
     MD5 check sum: 8e4df49b7f0d34bbd5052bf3f5ea0213
     Pseudo is Ultrasoft, Zval = 12.0
     Generated by new atomic code, or converted to UPF format
     Using radial grid of  851 points,  6 beta functions with:
                l(1) =   0
                l(2) =   0
                l(3) =   1
                l(4) =   1
                l(5) =   2
                l(6) =   2
     Q(r) pseudized with  8 coefficients,  rinner =    1.000   1.000   1.000
                                                       1.000   1.000

     PseudoPot. # 2 for O  read from file:
     /storage/coda1/p-amedford6/0/shared/rich_project_chbe-medford/medford-share/data/pseudos_module/espresso/nninc/pbe/van/O.UPF
     MD5 check sum: 78c19812648e8988a0fe644b0f25305e
     Pseudo is Ultrasoft, Zval =  6.0
     Generated by new atomic code, or converted to UPF format
     Using radial grid of  737 points,  4 beta functions with:
                l(1) =   0
                l(2) =   0
                l(3) =   1
                l(4) =   1
     Q(r) pseudized with  8 coefficients,  rinner =    0.800   0.800   0.800

     PseudoPot. # 3 for N  read from file:
     /storage/coda1/p-amedford6/0/shared/rich_project_chbe-medford/medford-share/data/pseudos_module/espresso/nninc/pbe/van/N.UPF
     MD5 check sum: 90d10febe142ad51ac9d5be1deb811c4
     Pseudo is Ultrasoft, Zval =  5.0
     Generated by new atomic code, or converted to UPF format
     Using radial grid of  729 points,  4 beta functions with:
                l(1) =   0
                l(2) =   0
                l(3) =   1
                l(4) =   1
     Q(r) pseudized with  8 coefficients,  rinner =    0.800   0.800   0.800

     PseudoPot. # 4 for C  read from file:
     /storage/coda1/p-amedford6/0/shared/rich_project_chbe-medford/medford-share/data/pseudos_module/espresso/nninc/pbe/van/C.UPF
     MD5 check sum: 1a69bf6b8db32088f5b2163dbdb77a27
     Pseudo is Ultrasoft, Zval =  4.0
     Generated by new atomic code, or converted to UPF format
     Using radial grid of  721 points,  4 beta functions with:
                l(1) =   0
                l(2) =   0
                l(3) =   1
                l(4) =   1
     Q(r) pseudized with  8 coefficients,  rinner =    0.800   0.800   0.800

     PseudoPot. # 5 for H  read from file:
     /storage/coda1/p-amedford6/0/shared/rich_project_chbe-medford/medford-share/data/pseudos_module/espresso/nninc/pbe/van/H.UPF
     MD5 check sum: b5ee9d7bfd3a09ee7748110bda690ff7
     Pseudo is Ultrasoft, Zval =  1.0
     Generated by new atomic code, or converted to UPF format
     Using radial grid of  615 points,  1 beta functions with:
                l(1) =   0
     Q(r) pseudized with  8 coefficients,  rinner =    0.800

     atomic species   valence    mass     pseudopotential
        Ti1           12.00    47.86700     Ti( 1.00)
        O1             6.00    15.99900     O ( 1.00)
        N1             5.00    14.00700     N ( 1.00)
        C1             4.00    12.01100     C ( 1.00)
        H1             1.00     1.00800     H ( 1.00)

     No symmetry found

   Cartesian axes

     site n.     atom                  positions (alat units)
         1           Ti1 tau(   1) = (   0.0004258   2.9801865   6.0000000  )
         2           Ti1 tau(   2) = (   3.2906075   1.4906267   6.0002472  )
         3           O1  tau(   3) = (   0.0006271   0.0005054   7.9858123  )
         4           O1  tau(   4) = (   3.2906025   0.0005020   7.3038282  )
         5           O1  tau(   5) = (   4.5942328   1.4918067   9.2879030  )
         6           O1  tau(   6) = (   1.9868534   1.4903216   9.2879459  )
         7           Ti1 tau(   7) = (   3.2907910   2.8959150   9.1758416  )
         8           Ti1 tau(   8) = (   0.0015273   1.4827037   9.2680791  )
         9           O1  tau(   9) = (   3.3027076   5.9092304  11.3732431  )
        10           O1  tau(  10) = (   0.0116148   5.9584955  10.6183126  )
        11           O1  tau(  11) = (   1.2953868   1.4751764  12.6403503  )
        12           O1  tau(  12) = (   5.3168701   1.4807623  12.6366210  )
        13           Ti1 tau(  13) = (   0.0172323   2.9996225  12.5311828  )
        14           Ti1 tau(  14) = (   3.3257086   1.2755711  12.7138078  )
        15           O1  tau(  15) = (   6.5733368   0.1082846  14.6600873  )
        16           O1  tau(  16) = (   3.3238075   0.0838359  14.0473399  )
        17           O1  tau(  17) = (   4.5575128   1.5393005  16.2317518  )
        18           O1  tau(  18) = (   2.0302387   1.4963625  16.2670071  )
        19           Ti1 tau(  19) = (   3.2366114   2.9448900  15.6849520  )
        20           Ti1 tau(  20) = (   6.5300729   1.3987400  16.1165465  )
        21           O1  tau(  21) = (   3.2904802   0.0005063   4.7018136  )
        22           O1  tau(  22) = (   0.0022030   5.7760056  17.1861099  )
        23           O1  tau(  23) = (   1.3043587   1.4918075   6.0039043  )
        24           O1  tau(  24) = (   5.2767064   1.4903225   6.0039473  )
        25           Ti1 tau(  25) = (   0.0000382   5.9609847   6.0000000  )
        26           Ti1 tau(  26) = (   3.2902200   4.4714249   6.0002472  )
        27           O1  tau(  27) = (   0.0002396   2.9813036   7.9858123  )
        28           O1  tau(  28) = (   3.2902150   2.9813002   7.3038282  )
        29           O1  tau(  29) = (   4.5938453   4.4726049   9.2879030  )
        30           O1  tau(  30) = (   1.9864658   4.4711199   9.2879459  )
        31           Ti1 tau(  31) = (   3.2891106   5.8743827   9.1763621  )
        32           Ti1 tau(  32) = (   0.0006254   4.4649316   9.2693709  )
        33           O1  tau(  33) = (   3.3012885   2.9833904  11.3212188  )
        34           O1  tau(  34) = (   0.0092240   2.9805883  10.6323155  )
        35           O1  tau(  35) = (   1.2895456   4.4501540  12.7025460  )
        36           O1  tau(  36) = (   5.3143371   4.4382646  12.6927937  )
        37           Ti1 tau(  37) = (   0.0343555   0.0433052  12.5107970  )
        38           Ti1 tau(  38) = (   3.3217552   4.3482123  12.4486840  )
        39           O1  tau(  39) = (   0.0141661   2.9064423  14.8877341  )
        40           O1  tau(  40) = (   3.2920978   2.9424077  13.9176102  )
        41           O1  tau(  41) = (   4.5506947   4.3398720  16.1100615  )
        42           O1  tau(  42) = (   2.0210198   4.4131678  16.0160425  )
        43           Ti1 tau(  43) = (   3.3132698   5.9358869  16.2610495  )
        44           Ti1 tau(  44) = (   0.0826266   4.5979890  15.7080129  )
        45           O1  tau(  45) = (   3.2900926   2.9813045   4.7018136  )
        46           O1  tau(  46) = (   1.3039711   4.4726057   6.0039043  )
        47           O1  tau(  47) = (   5.2763189   4.4711207   6.0039473  )
        48           N1  tau(  48) = (   6.5643472   2.7424576  18.0625816  )
        49           C1  tau(  49) = (   0.8744728   2.5686873  19.0232366  )
        50           H1  tau(  50) = (   0.8543601   3.1264980  19.9465443  )
        51           H1  tau(  51) = (   1.6733950   1.8773151  18.8242213  )
        52           N1  tau(  52) = (   5.5366205   3.6779994  18.4753393  )
        53           H1  tau(  53) = (   5.9486539   4.6347284  18.5635686  )
        54           H1  tau(  54) = (   4.8775701   3.8234783  17.6645784  )
        55           H1  tau(  55) = (   5.0440791   3.3775604  19.3232938  )
        56           O1  tau(  56) = (   3.4091604   5.6710612  18.1544331  )
        57           H1  tau(  57) = (   3.1368125   0.4262250  18.7404830  )

     number of k points=    10  Fermi-Dirac smearing, width (Ry)=  0.0073
                       cart. coord. in units 2pi/alat
        k(    1) = (   0.0000000   0.0000000   0.0000000), wk =   0.1250000
        k(    2) = (   0.0000000   0.0419351   0.0000000), wk =   0.2500000
        k(    3) = (   0.0000000  -0.0838702   0.0000000), wk =   0.1250000
        k(    4) = (   0.0379955   0.0000049   0.0000000), wk =   0.2500000
        k(    5) = (   0.0379955   0.0419400   0.0000000), wk =   0.2500000
        k(    6) = (   0.0379955  -0.0838652   0.0000000), wk =   0.2500000
        k(    7) = (   0.0379955  -0.0419301   0.0000000), wk =   0.2500000
        k(    8) = (  -0.0759910  -0.0000099   0.0000000), wk =   0.1250000
        k(    9) = (  -0.0759910   0.0419252   0.0000000), wk =   0.2500000
        k(   10) = (  -0.0759910  -0.0838800   0.0000000), wk =   0.1250000

     Initial potential from superposition of free atoms

     starting charge  387.99913, renormalised to  404.00000

     negative rho (up, down):  1.546E-02 0.000E+00

     %%%%%%%%%%%%%%%%%%%%%%%%%%%%%%%%%%%%%%%%%%%%%%%%%%%%%%%%%%%%%%%%%%%%%%%%
     %                                                                      %
     % You are using vdW-DF, which was implemented by the Thonhauser group. %
     % Please cite the following two papers that made this development      %
     % possible and the two reviews that describe the various versions:     %
     %                                                                      %
     %   T. Thonhauser et al., PRL 115, 136402 (2015).                      %
     %   T. Thonhauser et al., PRB 76, 125112 (2007).                       %
     %   K. Berland et al., Rep. Prog. Phys. 78, 066501 (2015).             %
     %   D.C. Langreth et al., J. Phys.: Condens. Matter 21, 084203 (2009). %
     %                                                                      %
     %                                                                      %
     % If you are calculating the stress with vdW-DF, please also cite:     %
     %                                                                      %
     %   R. Sabatini et al., J. Phys.: Condens. Matter 24, 424209 (2012).   %
     %                                                                      %
     %%%%%%%%%%%%%%%%%%%%%%%%%%%%%%%%%%%%%%%%%%%%%%%%%%%%%%%%%%%%%%%%%%%%%%%%

     Adding external electric field

     Computed dipole along edir(3) :
        Dipole              -13.5862 Ry au,        -34.5326 Debye
        Dipole field         -0.0256 Ry au,

        Potential amp.        2.3767 Ry
        Total length         46.3494 bohr

     Starting wfcs are  306 atomic wfcs
  @ DRIVER MODE: Message from server: STATUS
  @ DRIVER MODE: Message from server: POSDATA
  @ DRIVER MODE: Reading and sharing cell
  @ DRIVER MODE: Reading and sharing positions
  @ DRIVER MODE: Received positions

     Self-consistent Calculation

     iteration #  1     ecut=    29.40 Ry     beta= 0.05
     Davidson diagonalization with overlap
     c_bands:  4 eigenvalues not converged
     c_bands:  1 eigenvalues not converged
     c_bands:  1 eigenvalues not converged
     c_bands:  1 eigenvalues not converged
     c_bands:  2 eigenvalues not converged
     c_bands:  4 eigenvalues not converged
     c_bands:  5 eigenvalues not converged
     c_bands:  2 eigenvalues not converged
     ethr =  1.00E-05,  avg # of iterations = 29.7

[...]

     total energy              =   -2247.83945785 Ry
     estimated scf accuracy    <    8242.58517591 Ry

     iteration #  2     ecut=    29.40 Ry     beta= 0.05
     Davidson diagonalization with overlap
     ethr =  1.00E-02,  avg # of iterations = 24.4

[...]

     iteration # 40     ecut=    29.40 Ry     beta= 0.05
     Davidson diagonalization with overlap
     c_bands:  1 eigenvalues not converged
     c_bands:  1 eigenvalues not converged
     c_bands:  2 eigenvalues not converged
     c_bands:  1 eigenvalues not converged
     ethr =  2.76E-06,  avg # of iterations = 18.6

[...]

     total energy              =   -2975.12436374 Ry
     estimated scf accuracy    <       0.00000013 Ry

     iteration # 60     ecut=    29.40 Ry     beta= 0.05
     Davidson diagonalization with overlap
     ethr =  3.11E-11,  avg # of iterations =  7.4

     negative rho (up, down):  1.380E-02 0.000E+00

     Adding external electric field

     Computed dipole along edir(3) :
        Dipole                1.3776 Ry au,          3.5014 Debye
        Dipole field          0.0026 Ry au,

        Potential amp.       -0.2410 Ry
        Total length         46.3494 bohr

     End of self-consistent calculation

          k = 0.0000 0.0000 0.0000 ( 18029 PWs)   bands (ev):

   -55.3845 -55.2450 -55.2109 -55.1197 -55.0844 -55.0788 -55.0743 -55.0403
   -55.0341 -54.9858 -54.9584 -54.9220 -54.8697 -54.7410 -54.2254 -54.1913
   -31.7305 -31.7138 -31.6118 -31.6041 -31.5829 -31.5762 -31.5359 -31.5278
   -31.5177 -31.4909 -31.4483 -31.4438 -31.3975 -31.3698 -31.3683 -31.3581
   -31.3524 -31.3113 -31.3024 -31.3007 -31.2836 -31.2727 -31.2684 -31.2632
   -31.2613 -31.2223 -31.2185 -31.2179 -31.2142 -31.2016 -31.1925 -31.1870
   -31.1799 -31.1472 -31.1401 -31.1094 -31.1015 -31.0860 -31.0796 -31.0756
   -31.0021 -30.9085 -30.6318 -30.5445 -30.5221 -30.4492 -30.3627 -30.2510
   -19.1874 -16.3129 -15.9240 -15.7679 -15.5869 -15.4482 -15.4077 -15.1842
   -15.1286 -15.0418 -15.0216 -14.9037 -14.7869 -14.7863 -14.7656 -14.7588
   -14.7435 -14.6980 -14.6927 -14.6899 -14.6711 -14.6496 -14.6289 -14.6189
   -14.5813 -14.5399 -14.3891 -14.3683 -14.3494 -14.3060 -14.1691 -14.0020
   -12.7247 -12.6082  -9.1991  -7.6886  -6.8940  -6.1558  -4.3078  -3.6049
    -3.2723  -3.1748  -3.1520  -3.1419  -3.0087  -2.8382  -2.6431  -2.5812
    -2.5189  -2.4040  -2.3755  -2.2796  -2.2572  -2.2168  -2.1609  -2.1381
    -2.1103  -2.0559  -2.0427  -2.0345  -1.9444  -1.9247  -1.8232  -1.8011
    -1.7684  -1.7095  -1.6855  -1.6160  -1.5843  -1.5619  -1.5599  -1.5519
    -1.5290  -1.5152  -1.4930  -1.4400  -1.4096  -1.3467  -1.2818  -1.2057
    -1.1329  -0.9088  -0.8621  -0.8430  -0.7891  -0.7504  -0.6876  -0.6636
    -0.6431  -0.6308  -0.5623  -0.4517  -0.4036  -0.3633  -0.3078  -0.2832
    -0.2523  -0.1456  -0.0687  -0.0506  -0.0051   0.0344   0.0599   0.1250
     0.1604   0.2019   0.2705   0.2841   0.3615   0.4009   0.4244   0.4714
     0.5109   0.5746   0.6197   0.6692   0.6763   0.7057   0.7236   0.7549
     0.8407   0.8578   0.8996   0.9333   0.9943   1.0486   1.0733   1.2471
     1.3717   1.4069   1.4761   1.7429   1.8005   1.8166   1.9913   2.3687
     2.4143   3.8412   3.9814   3.9921   4.0001   4.0690   4.1228   4.1452
     4.3273   4.3668   4.4847   4.5226

[...]

          k = 0.0380-0.0419 0.0000 ( 17876 PWs)   bands (ev):

[...]

          k =-0.0760-0.0000 0.0000 ( 17886 PWs)   bands (ev):

[...]

          k =-0.0760-0.0839 0.0000 ( 17948 PWs)   bands (ev):

   -55.3838 -55.2280 -55.2278 -55.1051 -55.0988 -55.0793 -55.0575 -55.0566
   -55.0273 -54.9927 -54.9572 -54.9163 -54.8753 -54.7421 -54.2087 -54.2079
   -31.6532 -31.5946 -31.5858 -31.5459 -31.5457 -31.5215 -31.5211 -31.5009
   -31.4392 -31.4139 -31.3929 -31.3806 -31.3776 -31.3740 -31.3661 -31.3480
   -31.3473 -31.3432 -31.3407 -31.3300 -31.3264 -31.3079 -31.3005 -31.2797
   -31.2666 -31.2592 -31.2530 -31.2434 -31.2344 -31.2325 -31.2294 -31.2221
   -31.2140 -31.2089 -31.1823 -31.1455 -31.1191 -31.1058 -31.0932 -31.0820
   -31.0038 -30.9807 -30.5351 -30.5345 -30.4452 -30.4440 -30.4063 -30.4057
   -19.1836 -16.2997 -15.4556 -15.4083 -15.2214 -15.2181 -15.1926 -15.1297
   -15.0912 -15.0396 -15.0231 -14.9873 -14.9488 -14.9323 -14.9075 -14.8360
   -14.7924 -14.7661 -14.7547 -14.7185 -14.7025 -14.7018 -14.6701 -14.6477
   -14.6377 -14.5714 -14.5590 -14.4928 -14.4359 -14.4114 -14.2822 -14.2397
   -12.7103 -12.7098  -9.1870  -7.6999  -6.8795  -6.1646  -4.3378  -3.5933
    -2.6455  -2.6415  -2.4428  -2.4102  -2.3445  -2.2739  -2.2400  -2.2199
    -2.1730  -2.1659  -2.1263  -2.1040  -2.0674  -2.0390  -2.0317  -2.0143
    -1.9976  -1.9749  -1.9530  -1.9358  -1.9300  -1.9005  -1.8794  -1.8690
    -1.8264  -1.8191  -1.7945  -1.7762  -1.7416  -1.6797  -1.6175  -1.4997
    -1.4593  -1.4318  -1.4105  -1.3962  -1.3683  -1.3318  -1.3162  -1.3032
    -1.2727  -1.2596  -1.1515  -1.0032  -0.9915  -0.8967  -0.8625  -0.8576
    -0.7519  -0.7195  -0.6860  -0.6604  -0.6086  -0.5674  -0.4666  -0.4549
    -0.4132  -0.3453  -0.2483  -0.2383  -0.2227  -0.1939  -0.1706  -0.1641
    -0.1059  -0.0679  -0.0314   0.0202   0.0404   0.0628   0.0949   0.1888
     0.2186   0.3321   0.4555   0.4931   0.5183   0.5491   0.6830   0.7368
     0.7817   0.8555   0.9187   0.9388   1.0420   1.0604   1.0919   1.1468
     1.2177   1.2675   1.2837   1.3117   1.3246   2.1615   2.1696   2.2345
     2.2349   3.7982   4.0039   4.2555   4.3288   4.3502   4.3796   4.4018
     4.4343   4.4600   4.5034   4.5188

     the Fermi energy is     3.8769 ev

!    total energy              =   -2975.12442557 Ry
     estimated scf accuracy    <       0.00000007 Ry
     smearing contrib. (-TS)   =      -0.03103341 Ry
     internal energy E=F+TS    =   -2975.09339217 Ry

     The total energy is F=E-TS. E is the sum of the following terms:
     one-electron contribution =  -23510.31342152 Ry
     hartree contribution      =   11853.46827553 Ry
     xc contribution           =    -494.86163408 Ry
     ewald contribution        =    9176.60980670 Ry
     electric field correction =       0.00358120 Ry

     convergence has been achieved in  60 iterations

     Forces acting on atoms (cartesian axes, Ry/au):

     atom    1 type  1   force =     0.00013881   -0.00021157    0.09453190
     atom    2 type  1   force =    -0.00007189    0.00039891   -0.17560841
     atom    3 type  2   force =     0.00003591   -0.00002931   -0.02143024
     atom    4 type  2   force =     0.00000429   -0.00223697    0.05509655
     atom    5 type  2   force =    -0.00785103   -0.00313578    0.00368243
     atom    6 type  2   force =     0.00957500   -0.00256352    0.00357340
     atom    7 type  1   force =     0.00002762   -0.00297744    0.00576217
     atom    8 type  1   force =    -0.00022615    0.00256565    0.00563663
     atom    9 type  2   force =    -0.00035298   -0.00026889    0.00000854
     atom   10 type  2   force =    -0.00116079   -0.00257034   -0.00857054
     atom   11 type  2   force =    -0.00071500   -0.00069513   -0.00016073
     atom   12 type  2   force =     0.00031630   -0.00070430   -0.00007385
     atom   13 type  1   force =     0.00008194    0.00005639    0.00040813
     atom   14 type  1   force =    -0.00015114   -0.00034170    0.00016374
     atom   15 type  2   force =     0.00012704   -0.00046529    0.00009063
     atom   16 type  2   force =     0.00006172   -0.00072597   -0.00028930
     atom   17 type  2   force =     0.00012118    0.00032107   -0.00027396
     atom   18 type  2   force =    -0.00047150    0.00032087   -0.00045147
     atom   19 type  1   force =     0.00030998    0.00029706   -0.00007176
     atom   20 type  1   force =     0.00024685   -0.00045365   -0.00010620
     atom   21 type  2   force =     0.00005572    0.00002441    0.10327197
     atom   22 type  2   force =    -0.00002990    0.00083286   -0.00072424
     atom   23 type  2   force =    -0.07176380   -0.00020042   -0.02723459
     atom   24 type  2   force =     0.07159999    0.00023897   -0.02730018
     atom   25 type  1   force =     0.00006620   -0.00033708    0.09392991
     atom   26 type  1   force =    -0.00016441   -0.00123362   -0.17588645
     atom   27 type  2   force =     0.00013853   -0.00024469   -0.02015537
     atom   28 type  2   force =     0.00003562   -0.00056223    0.05062097
     atom   29 type  2   force =    -0.00680397    0.00147811    0.00204428
     atom   30 type  2   force =     0.00850275    0.00183507    0.00195867
     atom   31 type  1   force =     0.00014749    0.00701488   -0.00370636
     atom   32 type  1   force =    -0.00028167   -0.00258038    0.00510205
     atom   33 type  2   force =    -0.00000471    0.00031179   -0.00014089
     atom   34 type  2   force =    -0.00012070    0.00278969   -0.00829863
     atom   35 type  2   force =     0.00024844    0.00067032   -0.00031057
     atom   36 type  2   force =    -0.00100616    0.00054738   -0.00045670
     atom   37 type  1   force =     0.00013239   -0.00045547    0.00010549
     atom   38 type  1   force =    -0.00015510   -0.00009496   -0.00008858
     atom   39 type  2   force =    -0.00009735   -0.00002477    0.00017292
     atom   40 type  2   force =    -0.00046829    0.00013531   -0.00005211
     atom   41 type  2   force =     0.00000980    0.00028665   -0.00026027
     atom   42 type  2   force =     0.00039278    0.00027932    0.00025012
     atom   43 type  1   force =     0.00027398    0.00064972    0.00004901
     atom   44 type  1   force =    -0.00007346   -0.00030165   -0.00003297
     atom   45 type  2   force =     0.00001556   -0.00011196    0.10303389
     atom   46 type  2   force =    -0.07182550   -0.00004366   -0.02729174
     atom   47 type  2   force =     0.07166729    0.00035189   -0.02733083
     atom   48 type  3   force =     0.00052009    0.00046328   -0.00065788
     atom   49 type  4   force =     0.00114336   -0.00421652   -0.00542093
     atom   50 type  5   force =    -0.00060870    0.00375671    0.00469535
     atom   51 type  5   force =    -0.00131087    0.00013215   -0.00081836
     atom   52 type  3   force =     0.00008826   -0.00005805   -0.00065061
     atom   53 type  5   force =    -0.00068628    0.00048474   -0.00050353
     atom   54 type  5   force =     0.00031236    0.00021873    0.00084945
     atom   55 type  5   force =     0.00026471    0.00025076    0.00008685
     atom   56 type  2   force =     0.00041874    0.00142078    0.00028506
     atom   57 type  5   force =    -0.00067933   -0.00028813   -0.00105191

     Total force =     0.362771     Total SCF correction =     0.000911
  @ DRIVER MODE: Message from server: STATUS
  @ DRIVER MODE: Message from server: GETFORCE
  @ DRIVER MODE: Returning v,forces,stress,ensemble

     Writing output data file ./calc.save/
  @ DRIVER MODE: Message from server: EXIT
  @ DRIVE MODE: Exiting

     General routines

     Parallel routines

   This run was terminated on:  17:54:25  23Sep2021

   JOB DONE.