     Program PWSCF v.6.7GPU starts on 23Sep2021 at  0:35: 8

     R & G space division:  proc/nbgrp/npool/nimage =      10
     Reading input from /storage/home/hcoda1/3/ntian30/research/carbon/CxH_vib/H2O_calc/ads_slab/CHNHNH2H2O_b/out_0024/pw.inp
Warning: card &CELL ignored
Warning: card   CELL_DYNAMICS='IPI', ignored
Warning: card / ignored

     Current dimensions of program PWSCF are:
     Max number of different atomic species (ntypx) = 10
     Max number of k-points (npk) =  40000
     Max angular momentum in pseudopotentials (lmaxx) =  3
     Presently no symmetry can be used with electric field

     Message from routine cell_base_init:
     DEPRECATED: use true lattice parameter, not A to a.u. conversion factor

     IMPORTANT: XC functional enforced from input :
     Exchange-correlation= BEEF-VDW
                           (   1   4  43  14   2   0   0)
     Any further DFT definition will be discarded
     Please, verify this is what you really want

  @ DRIVER MODE: Connecting to
 qe_1139763_2937312.sched-torque.pace.gatech.edudvo726dt_scratch
  using UNIX socket
  @ DRIVER MODE: Message from server: STATUS
  @ DRIVER MODE: Message from server: INIT
  @ DRIVER MODE: Receiving replica           0          -1
  @ DRIVER MODE: Receiving encoded integer          25
  @ DRIVER MODE:  SCF:  T  FORCE:  T  STRESS:  F  VC:  F  ENSEMBLE:  F
  @ DRIVER MODE:  SCF:  T  FORCE:  T  STRESS:  F  VC:  F  ENSEMBLE:  F

     Using Slab Decomposition

     bravais-lattice index     =            0
     lattice parameter (alat)  =       1.8897  a.u.
     unit-cell volume          =    6658.9804 (a.u.)^3
     number of atoms/cell      =           57
     number of atomic types    =            5
     number of electrons       =       404.00
     number of Kohn-Sham states=          212
     kinetic-energy cutoff     =      29.3995  Ry
     charge density cutoff     =     293.9946  Ry
     scf convergence threshold =      7.3E-08
     mixing beta               =       0.0500
     number of iterations used =            8  plain     mixing
     Exchange-correlation= BEEF-VDW
                           (   1   4  43  14   2   0   0)

     celldm(1)=   1.889726  celldm(2)=   0.000000  celldm(3)=   0.000000
     celldm(4)=   0.000000  celldm(5)=   0.000000  celldm(6)=   0.000000

     crystal axes: (cart. coord. in units of alat)
               a(1) = (   6.579727   0.000000   0.000000 )
               a(2) = (  -0.000775   5.961596   0.000000 )
               a(3) = (   0.000000   0.000000  25.155947 )

     reciprocal axes: (cart. coord. in units 2 pi/alat)
               b(1) = (  0.151982  0.000020  0.000000 )
               b(2) = (  0.000000  0.167740  0.000000 )
               b(3) = (  0.000000  0.000000  0.039752 )

     PseudoPot. # 1 for Ti read from file:
     /storage/coda1/p-amedford6/0/shared/rich_project_chbe-medford/medford-share/data/pseudos_module/espresso/nninc/pbe/van/Ti.UPF
     MD5 check sum: 8e4df49b7f0d34bbd5052bf3f5ea0213
     Pseudo is Ultrasoft, Zval = 12.0
     Generated by new atomic code, or converted to UPF format
     Using radial grid of  851 points,  6 beta functions with:
                l(1) =   0
                l(2) =   0
                l(3) =   1
                l(4) =   1
                l(5) =   2
                l(6) =   2
     Q(r) pseudized with  8 coefficients,  rinner =    1.000   1.000   1.000
                                                       1.000   1.000

     PseudoPot. # 2 for O  read from file:
     /storage/coda1/p-amedford6/0/shared/rich_project_chbe-medford/medford-share/data/pseudos_module/espresso/nninc/pbe/van/O.UPF
     MD5 check sum: 78c19812648e8988a0fe644b0f25305e
     Pseudo is Ultrasoft, Zval =  6.0
     Generated by new atomic code, or converted to UPF format
     Using radial grid of  737 points,  4 beta functions with:
                l(1) =   0
                l(2) =   0
                l(3) =   1
                l(4) =   1
     Q(r) pseudized with  8 coefficients,  rinner =    0.800   0.800   0.800

     PseudoPot. # 3 for N  read from file:
     /storage/coda1/p-amedford6/0/shared/rich_project_chbe-medford/medford-share/data/pseudos_module/espresso/nninc/pbe/van/N.UPF
     MD5 check sum: 90d10febe142ad51ac9d5be1deb811c4
     Pseudo is Ultrasoft, Zval =  5.0
     Generated by new atomic code, or converted to UPF format
     Using radial grid of  729 points,  4 beta functions with:
                l(1) =   0
                l(2) =   0
                l(3) =   1
                l(4) =   1
     Q(r) pseudized with  8 coefficients,  rinner =    0.800   0.800   0.800

     PseudoPot. # 4 for C  read from file:
     /storage/coda1/p-amedford6/0/shared/rich_project_chbe-medford/medford-share/data/pseudos_module/espresso/nninc/pbe/van/C.UPF
     MD5 check sum: 1a69bf6b8db32088f5b2163dbdb77a27
     Pseudo is Ultrasoft, Zval =  4.0
     Generated by new atomic code, or converted to UPF format
     Using radial grid of  721 points,  4 beta functions with:
                l(1) =   0
                l(2) =   0
                l(3) =   1
                l(4) =   1
     Q(r) pseudized with  8 coefficients,  rinner =    0.800   0.800   0.800

     PseudoPot. # 5 for H  read from file:
     /storage/coda1/p-amedford6/0/shared/rich_project_chbe-medford/medford-share/data/pseudos_module/espresso/nninc/pbe/van/H.UPF
     MD5 check sum: b5ee9d7bfd3a09ee7748110bda690ff7
     Pseudo is Ultrasoft, Zval =  1.0
     Generated by new atomic code, or converted to UPF format
     Using radial grid of  615 points,  1 beta functions with:
                l(1) =   0
     Q(r) pseudized with  8 coefficients,  rinner =    0.800

     atomic species   valence    mass     pseudopotential
        Ti1           12.00    47.86700     Ti( 1.00)
        O1             6.00    15.99900     O ( 1.00)
        N1             5.00    14.00700     N ( 1.00)
        C1             4.00    12.01100     C ( 1.00)
        H1             1.00     1.00800     H ( 1.00)

     No symmetry found

   Cartesian axes

     site n.     atom                  positions (alat units)
         1           Ti1 tau(   1) = (   0.0004258   2.9801865   6.0000000  )
         2           Ti1 tau(   2) = (   3.2906075   1.4906267   6.0002472  )
         3           O1  tau(   3) = (   0.0006271   0.0005054   7.9858123  )
         4           O1  tau(   4) = (   3.2906025   0.0005020   7.3038282  )
         5           O1  tau(   5) = (   4.5942328   1.4918067   9.2879030  )
         6           O1  tau(   6) = (   1.9868534   1.4903216   9.2879459  )
         7           Ti1 tau(   7) = (   3.2907910   2.8959150   9.1758416  )
         8           Ti1 tau(   8) = (   0.0015273   1.4827037   9.2680791  )
         9           O1  tau(   9) = (   3.3066417   5.9496923  11.3845403  )
        10           O1  tau(  10) = (   0.0116148   5.9584955  10.6183126  )
        11           O1  tau(  11) = (   1.3010148   1.4986442  12.6442229  )
        12           O1  tau(  12) = (   5.3085967   1.5001388  12.6592367  )
        13           Ti1 tau(  13) = (   0.0282779   2.9853959  12.5065338  )
        14           Ti1 tau(  14) = (   3.3279724   1.4707331  12.5413945  )
        15           O1  tau(  15) = (   0.0378505   0.0859181  14.6860672  )
        16           O1  tau(  16) = (   3.3018867   0.0259462  14.0338077  )
        17           O1  tau(  17) = (   4.5998927   1.5484098  16.1661054  )
        18           O1  tau(  18) = (   2.0454451   1.5021798  16.2221046  )
        19           Ti1 tau(  19) = (   3.3206312   2.9825829  15.7321521  )
        20           Ti1 tau(  20) = (   0.0140791   1.4435866  15.9983415  )
        21           O1  tau(  21) = (   3.2904802   0.0005063   4.7018136  )
        22           O1  tau(  22) = (   6.5273045   5.8164216  17.2577718  )
        23           O1  tau(  23) = (   1.3043587   1.4918075   6.0039043  )
        24           O1  tau(  24) = (   5.2767064   1.4903225   6.0039473  )
        25           Ti1 tau(  25) = (   0.0000382   5.9609847   6.0000000  )
        26           Ti1 tau(  26) = (   3.2902200   4.4714249   6.0002472  )
        27           O1  tau(  27) = (   0.0002396   2.9813036   7.9858123  )
        28           O1  tau(  28) = (   3.2902150   2.9813002   7.3038282  )
        29           O1  tau(  29) = (   4.5938453   4.4726049   9.2879030  )
        30           O1  tau(  30) = (   1.9864658   4.4711199   9.2879459  )
        31           Ti1 tau(  31) = (   3.2891106   5.8743827   9.1763621  )
        32           Ti1 tau(  32) = (   0.0006254   4.4649316   9.2693709  )
        33           O1  tau(  33) = (   3.3068470   2.9864458  11.3814114  )
        34           O1  tau(  34) = (   0.0092240   2.9805883  10.6323155  )
        35           O1  tau(  35) = (   1.2982948   4.4740332  12.6840172  )
        36           O1  tau(  36) = (   5.3097620   4.4704985  12.6972095  )
        37           Ti1 tau(  37) = (   0.0348817   0.0130325  12.4954113  )
        38           Ti1 tau(  38) = (   3.3270268   4.4633798  12.5435021  )
        39           O1  tau(  39) = (   0.0563025   2.9439880  14.9425960  )
        40           O1  tau(  40) = (   3.2900316   2.9661073  13.9503945  )
        41           O1  tau(  41) = (   4.5967999   4.4093095  16.0633277  )
        42           O1  tau(  42) = (   2.0412097   4.4536800  16.1303113  )
        43           Ti1 tau(  43) = (   3.2964201   5.9600488  15.8742613  )
        44           Ti1 tau(  44) = (   0.0241369   4.6516137  15.8518307  )
        45           O1  tau(  45) = (   3.2900926   2.9813045   4.7018136  )
        46           O1  tau(  46) = (   1.3039711   4.4726057   6.0039043  )
        47           O1  tau(  47) = (   5.2763189   4.4711207   6.0039473  )
        48           N1  tau(  48) = (   1.4509408   2.7109095  18.7602185  )
        49           N1  tau(  49) = (   0.0917387   2.5303350  18.2207845  )
        50           C1  tau(  50) = (   1.9503960   3.7723240  19.2784661  )
        51           H1  tau(  51) = (   1.1612915   4.5273475  19.4252495  )
        52           H1  tau(  52) = (   2.0208952   1.9183395  18.4664618  )
        53           H1  tau(  53) = (   6.1377449   3.3539424  18.4987646  )
        54           H1  tau(  54) = (   6.2616785   1.7135167  18.6767212  )
        55           O1  tau(  55) = (   3.7012217   5.9496235  18.2853534  )
        56           H1  tau(  56) = (   4.6684668   5.8470116  18.1670174  )
        57           H1  tau(  57) = (   3.3852657   5.1278045  18.7338684  )

     number of k points=    10  Fermi-Dirac smearing, width (Ry)=  0.0073
                       cart. coord. in units 2pi/alat
        k(    1) = (   0.0000000   0.0000000   0.0000000), wk =   0.1250000
        k(    2) = (   0.0000000   0.0419351   0.0000000), wk =   0.2500000
        k(    3) = (   0.0000000  -0.0838702   0.0000000), wk =   0.1250000
        k(    4) = (   0.0379955   0.0000049   0.0000000), wk =   0.2500000
        k(    5) = (   0.0379955   0.0419400   0.0000000), wk =   0.2500000
        k(    6) = (   0.0379955  -0.0838652   0.0000000), wk =   0.2500000
        k(    7) = (   0.0379955  -0.0419301   0.0000000), wk =   0.2500000
        k(    8) = (  -0.0759910  -0.0000099   0.0000000), wk =   0.1250000
        k(    9) = (  -0.0759910   0.0419252   0.0000000), wk =   0.2500000
        k(   10) = (  -0.0759910  -0.0838800   0.0000000), wk =   0.1250000

     Initial potential from superposition of free atoms

     starting charge  387.99913, renormalised to  404.00000

     negative rho (up, down):  1.597E-02 0.000E+00

     %%%%%%%%%%%%%%%%%%%%%%%%%%%%%%%%%%%%%%%%%%%%%%%%%%%%%%%%%%%%%%%%%%%%%%%%
     %                                                                      %
     % You are using vdW-DF, which was implemented by the Thonhauser group. %
     % Please cite the following two papers that made this development      %
     % possible and the two reviews that describe the various versions:     %
     %                                                                      %
     %   T. Thonhauser et al., PRL 115, 136402 (2015).                      %
     %   T. Thonhauser et al., PRB 76, 125112 (2007).                       %
     %   K. Berland et al., Rep. Prog. Phys. 78, 066501 (2015).             %
     %   D.C. Langreth et al., J. Phys.: Condens. Matter 21, 084203 (2009). %
     %                                                                      %
     %                                                                      %
     % If you are calculating the stress with vdW-DF, please also cite:     %
     %                                                                      %
     %   R. Sabatini et al., J. Phys.: Condens. Matter 24, 424209 (2012).   %
     %                                                                      %
     %%%%%%%%%%%%%%%%%%%%%%%%%%%%%%%%%%%%%%%%%%%%%%%%%%%%%%%%%%%%%%%%%%%%%%%%

     Adding external electric field

     Computed dipole along edir(3) :
        Dipole              -14.3593 Ry au,        -36.4977 Debye
        Dipole field         -0.0271 Ry au,

        Potential amp.        2.5119 Ry
        Total length         46.3494 bohr

     Starting wfcs are  306 atomic wfcs
  @ DRIVER MODE: Message from server: STATUS
  @ DRIVER MODE: Message from server: POSDATA
  @ DRIVER MODE: Reading and sharing cell
  @ DRIVER MODE: Reading and sharing positions
  @ DRIVER MODE: Received positions

     Self-consistent Calculation

     iteration #  1     ecut=    29.40 Ry     beta= 0.05
     Davidson diagonalization with overlap
     c_bands:  3 eigenvalues not converged
     c_bands:  4 eigenvalues not converged
     c_bands:  4 eigenvalues not converged
     c_bands:  4 eigenvalues not converged
     c_bands:  5 eigenvalues not converged
     c_bands:  3 eigenvalues not converged
     c_bands:  2 eigenvalues not converged
     c_bands:  4 eigenvalues not converged
     ethr =  1.00E-05,  avg # of iterations = 21.9

[...]

     total energy              =   -2220.99825418 Ry
     estimated scf accuracy    <    8586.79695963 Ry

     iteration #  2     ecut=    29.40 Ry     beta= 0.05
     Davidson diagonalization with overlap
     ethr =  1.00E-02,  avg # of iterations = 27.7

[...]

     iteration # 73     ecut=    29.40 Ry     beta= 0.05
     Davidson diagonalization with overlap
     c_bands:  1 eigenvalues not converged
     ethr =  4.15E-10,  avg # of iterations = 13.4

[...]

     total energy              =   -2975.10528226 Ry
     estimated scf accuracy    <       0.00000021 Ry

     iteration # 81     ecut=    29.40 Ry     beta= 0.05
     Davidson diagonalization with overlap
     ethr =  5.15E-11,  avg # of iterations =  8.0

     negative rho (up, down):  1.578E-02 0.000E+00

     Adding external electric field

     Computed dipole along edir(3) :
        Dipole                1.0261 Ry au,          2.6081 Debye
        Dipole field          0.0019 Ry au,

        Potential amp.       -0.1795 Ry
        Total length         46.3494 bohr

     End of self-consistent calculation

          k = 0.0000 0.0000 0.0000 ( 18029 PWs)   bands (ev):

   -55.3836 -55.3478 -55.3438 -55.3096 -55.3065 -55.3008 -55.2655 -55.2302
   -55.2151 -55.1803 -55.1735 -55.1583 -55.1398 -55.1105 -54.3751 -54.3410
   -31.9426 -31.8785 -31.8365 -31.7551 -31.7064 -31.7037 -31.6794 -31.6766
   -31.6324 -31.5966 -31.5896 -31.5883 -31.5813 -31.5778 -31.5597 -31.5576
   -31.5329 -31.5249 -31.5220 -31.5106 -31.4964 -31.4897 -31.4710 -31.4660
   -31.4579 -31.4448 -31.4440 -31.4154 -31.4010 -31.3971 -31.3941 -31.3719
   -31.3680 -31.3640 -31.3604 -31.3392 -31.3282 -31.3162 -31.3012 -31.3012
   -31.2909 -31.2846 -30.7845 -30.6900 -30.6680 -30.6009 -30.5141 -30.4032
   -18.8796 -18.4542 -16.2184 -15.9711 -15.8350 -15.7304 -15.5932 -15.4950
   -15.3859 -15.2726 -15.2495 -15.1555 -15.0815 -15.0773 -15.0402 -15.0146
   -14.9521 -14.9307 -14.9069 -14.9009 -14.8864 -14.8762 -14.8397 -14.8287
   -14.7958 -14.7848 -14.7675 -14.6477 -14.6249 -14.5502 -14.4797 -14.3422
   -12.8774 -12.7599  -9.8319  -6.9987  -6.3763  -6.0850  -4.4271  -3.7348
    -3.5422  -3.4086  -3.3303  -3.3017  -3.2840  -3.1524  -3.0594  -2.9005
    -2.8616  -2.8053  -2.6720  -2.5961  -2.5898  -2.5018  -2.4294  -2.4060
    -2.3730  -2.2639  -2.2576  -2.2079  -2.1905  -2.1673  -2.1581  -2.1113
    -2.0654  -2.0383  -1.9532  -1.8516  -1.8079  -1.7881  -1.7517  -1.7291
    -1.7244  -1.6807  -1.6745  -1.6507  -1.6120  -1.5877  -1.5423  -1.4302
    -1.3889  -1.2300  -1.1926  -1.0384  -1.0179  -0.9786  -0.9583  -0.9218
    -0.8918  -0.8755  -0.8604  -0.7706  -0.7123  -0.6459  -0.5820  -0.4910
    -0.4806  -0.4066  -0.3810  -0.3158  -0.2281  -0.1836  -0.1740  -0.1493
    -0.1459  -0.0322   0.0127   0.0729   0.0916   0.1490   0.1649   0.1870
     0.2570   0.3106   0.3800   0.4108   0.4898   0.5080   0.5432   0.5523
     0.5847   0.5951   0.6714   0.6862   0.7143   0.8171   0.9146   1.0083
     1.2181   1.2201   1.2566   1.5526   1.5547   1.6480   1.8313   2.2243
     2.2727   3.7063   3.7848   3.8343   3.8517   3.8563   3.9411   4.1958
     4.2101   4.2227   4.2290   4.2698

[...]

          k = 0.0380-0.0419 0.0000 ( 17876 PWs)   bands (ev):

[...]

          k =-0.0760-0.0000 0.0000 ( 17886 PWs)   bands (ev):

[...]

          k =-0.0760-0.0839 0.0000 ( 17948 PWs)   bands (ev):

   -55.3667 -55.3644 -55.3267 -55.3265 -55.3036 -55.2998 -55.2518 -55.2438
   -55.2008 -55.1942 -55.1601 -55.1576 -55.1558 -55.1122 -54.3580 -54.3580
   -31.7932 -31.7550 -31.7409 -31.6517 -31.6515 -31.6370 -31.6250 -31.6178
   -31.6176 -31.5968 -31.5918 -31.5885 -31.5657 -31.5579 -31.5461 -31.5321
   -31.5289 -31.5264 -31.5224 -31.5144 -31.5097 -31.5076 -31.5067 -31.4988
   -31.4670 -31.4655 -31.4465 -31.4463 -31.4458 -31.4410 -31.4382 -31.4337
   -31.4244 -31.4129 -31.4072 -31.3905 -31.3886 -31.3786 -31.3376 -31.3364
   -31.3359 -31.3169 -30.6806 -30.6806 -30.5971 -30.5969 -30.5575 -30.5575
   -18.8737 -18.4566 -15.8379 -15.6513 -15.4999 -15.4281 -15.4078 -15.3246
   -15.2691 -15.2659 -15.1928 -15.1748 -15.1624 -15.1408 -15.1311 -15.0838
   -15.0467 -15.0100 -14.9913 -14.9686 -14.9254 -14.9029 -14.9012 -14.8944
   -14.8867 -14.8462 -14.8412 -14.8379 -14.7462 -14.7442 -14.7066 -14.5582
   -12.8614 -12.8614  -9.8412  -6.9874  -6.3515  -6.0611  -4.4405  -3.6635
    -3.0217  -2.9094  -2.8987  -2.6699  -2.6515  -2.5905  -2.5780  -2.4900
    -2.4743  -2.4137  -2.3901  -2.3400  -2.3171  -2.2792  -2.2654  -2.2437
    -2.2226  -2.2089  -2.1823  -2.1663  -2.1493  -2.1297  -2.1186  -2.1073
    -2.0520  -2.0463  -2.0375  -2.0122  -1.9891  -1.9530  -1.9430  -1.9268
    -1.7713  -1.7556  -1.7341  -1.5987  -1.5944  -1.5605  -1.5202  -1.4926
    -1.4347  -1.4262  -1.3979  -1.3392  -1.1454  -1.1350  -1.1228  -1.1049
    -1.0338  -0.9782  -0.9644  -0.9464  -0.8928  -0.8147  -0.7808  -0.7284
    -0.6394  -0.5873  -0.5778  -0.5520  -0.4308  -0.4079  -0.3653  -0.3473
    -0.3311  -0.2967  -0.2951  -0.2375  -0.1850  -0.1496  -0.1266  -0.1124
    -0.0754   0.0795   0.1315   0.1478   0.2623   0.2914   0.4695   0.5124
     0.5341   0.6390   0.7224   0.7505   0.7648   0.8908   0.9126   0.9148
     0.9831   1.0053   1.0654   1.0712   1.2135   2.0040   2.0053   2.0925
     2.0927   3.8314   3.9542   3.9985   4.0343   4.1103   4.1630   4.2200
     4.2791   4.2907   4.2941   4.3610

     the Fermi energy is     3.7683 ev

!    total energy              =   -2975.10529305 Ry
     estimated scf accuracy    <       0.00000002 Ry
     smearing contrib. (-TS)   =      -0.03671921 Ry
     internal energy E=F+TS    =   -2975.06857384 Ry

     The total energy is F=E-TS. E is the sum of the following terms:
     one-electron contribution =  -23505.00392962 Ry
     hartree contribution      =   11848.53207493 Ry
     xc contribution           =    -494.91692845 Ry
     ewald contribution        =    9176.31822239 Ry
     electric field correction =       0.00198692 Ry

     convergence has been achieved in  81 iterations

     Forces acting on atoms (cartesian axes, Ry/au):

     atom    1 type  1   force =     0.00003170   -0.00025207    0.09309339
     atom    2 type  1   force =    -0.00018971   -0.00032571   -0.17838402
     atom    3 type  2   force =     0.00006116   -0.00017008   -0.02025567
     atom    4 type  2   force =     0.00001682   -0.00203698    0.05923911
     atom    5 type  2   force =    -0.01033875   -0.00110015    0.00808549
     atom    6 type  2   force =     0.01218138   -0.00054513    0.00816440
     atom    7 type  1   force =     0.00015149    0.00328571   -0.01113168
     atom    8 type  1   force =    -0.00030101    0.00053307   -0.00562498
     atom    9 type  2   force =     0.00004223    0.00017887   -0.00014700
     atom   10 type  2   force =    -0.00146471   -0.00003618   -0.00171739
     atom   11 type  2   force =     0.00037850   -0.00003634   -0.00005834
     atom   12 type  2   force =    -0.00009862    0.00010560   -0.00008821
     atom   13 type  1   force =    -0.00009053   -0.00017022   -0.00021563
     atom   14 type  1   force =    -0.00021393   -0.00036445    0.00037037
     atom   15 type  2   force =     0.00006731   -0.00046761    0.00008083
     atom   16 type  2   force =     0.00022036    0.00009341    0.00024725
     atom   17 type  2   force =     0.00036348   -0.00016208    0.00019392
     atom   18 type  2   force =    -0.00005077   -0.00014283   -0.00014292
     atom   19 type  1   force =    -0.00029219   -0.00044673    0.00001306
     atom   20 type  1   force =     0.00013741    0.00025519    0.00053058
     atom   21 type  2   force =    -0.00000471   -0.00007716    0.10402374
     atom   22 type  2   force =    -0.00009969   -0.00004368   -0.00011903
     atom   23 type  2   force =    -0.07035170   -0.00016371   -0.02683673
     atom   24 type  2   force =     0.07022013    0.00028207   -0.02691567
     atom   25 type  1   force =     0.00002529   -0.00015250    0.09275754
     atom   26 type  1   force =    -0.00015879   -0.00039123   -0.17833241
     atom   27 type  2   force =     0.00011090   -0.00030786   -0.01919412
     atom   28 type  2   force =     0.00004650   -0.00163276    0.05839178
     atom   29 type  2   force =    -0.01028786   -0.00064090    0.00729046
     atom   30 type  2   force =     0.01202339   -0.00030790    0.00742513
     atom   31 type  1   force =     0.00007621    0.00515018   -0.01467387
     atom   32 type  1   force =    -0.00013813   -0.00052163   -0.00596738
     atom   33 type  2   force =     0.00012863   -0.00039529   -0.00023693
     atom   34 type  2   force =    -0.00078709    0.00260770   -0.00103423
     atom   35 type  2   force =    -0.00007527   -0.00011375   -0.00012034
     atom   36 type  2   force =     0.00023966    0.00000486   -0.00014697
     atom   37 type  1   force =    -0.00043631    0.00007877    0.00004617
     atom   38 type  1   force =    -0.00003153   -0.00024152   -0.00021448
     atom   39 type  2   force =    -0.00030595   -0.00020961   -0.00016250
     atom   40 type  2   force =    -0.00013384   -0.00006108   -0.00004442
     atom   41 type  2   force =    -0.00014415   -0.00015609    0.00037896
     atom   42 type  2   force =    -0.00005839   -0.00025393    0.00013132
     atom   43 type  1   force =    -0.00000590   -0.00030810    0.00010666
     atom   44 type  1   force =     0.00001433   -0.00001765    0.00020524
     atom   45 type  2   force =     0.00001064   -0.00010827    0.10398592
     atom   46 type  2   force =    -0.07037808   -0.00011521   -0.02686290
     atom   47 type  2   force =     0.07022402    0.00032107   -0.02692132
     atom   48 type  3   force =    -0.00014280    0.00159202    0.00031734
     atom   49 type  3   force =    -0.00099068   -0.00092581    0.00062219
     atom   50 type  4   force =    -0.00006803    0.00165802    0.00209136
     atom   51 type  5   force =     0.00080916   -0.00193332   -0.00174667
     atom   52 type  5   force =     0.00006480   -0.00073542   -0.00069448
     atom   53 type  5   force =    -0.00006813    0.00007040    0.00002593
     atom   54 type  5   force =     0.00015236    0.00050660   -0.00008544
     atom   55 type  2   force =     0.00013730   -0.00008405    0.00058532
     atom   56 type  5   force =     0.00024274   -0.00036541   -0.00042870
     atom   57 type  5   force =    -0.00047064   -0.00020316    0.00010100

     Total force =     0.366223     Total SCF correction =     0.000310
  @ DRIVER MODE: Message from server: STATUS
  @ DRIVER MODE: Message from server: GETFORCE
  @ DRIVER MODE: Returning v,forces,stress,ensemble

     Writing output data file ./calc.save/
  @ DRIVER MODE: Message from server: EXIT
  @ DRIVE MODE: Exiting

     General routines

     Parallel routines

   This run was terminated on:   0:57:51  23Sep2021

   JOB DONE.