     Program PWSCF v.6.7GPU starts on 23Sep2021 at 21:27: 3

     R & G space division:  proc/nbgrp/npool/nimage =       8
     Reading input from /storage/home/hcoda1/3/ntian30/research/carbon/CxH_vib/H2O_calc/ads_slab/CH2NHNH2HO_a/out_0024/pw.inp
Warning: card &CELL ignored
Warning: card   CELL_DYNAMICS='IPI', ignored
Warning: card / ignored

     Current dimensions of program PWSCF are:
     Max number of different atomic species (ntypx) = 10
     Max number of k-points (npk) =  40000
     Max angular momentum in pseudopotentials (lmaxx) =  3
     Presently no symmetry can be used with electric field

     Message from routine cell_base_init:
     DEPRECATED: use true lattice parameter, not A to a.u. conversion factor

     IMPORTANT: XC functional enforced from input :
     Exchange-correlation= BEEF-VDW
                           (   1   4  43  14   2   0   0)
     Any further DFT definition will be discarded
     Please, verify this is what you really want

  @ DRIVER MODE: Connecting to
 qe_1139763_2947313.sched-torque.pace.gatech.eduorvr4n7i_scratch
  using UNIX socket
  @ DRIVER MODE: Message from server: STATUS
  @ DRIVER MODE: Message from server: INIT
  @ DRIVER MODE: Receiving replica           0          -1
  @ DRIVER MODE: Receiving encoded integer          25
  @ DRIVER MODE:  SCF:  T  FORCE:  T  STRESS:  F  VC:  F  ENSEMBLE:  F
  @ DRIVER MODE:  SCF:  T  FORCE:  T  STRESS:  F  VC:  F  ENSEMBLE:  F

     Using Slab Decomposition

     bravais-lattice index     =            0
     lattice parameter (alat)  =       1.8897  a.u.
     unit-cell volume          =    6658.9804 (a.u.)^3
     number of atoms/cell      =           57
     number of atomic types    =            5
     number of electrons       =       404.00
     number of Kohn-Sham states=          212
     kinetic-energy cutoff     =      29.3995  Ry
     charge density cutoff     =     293.9946  Ry
     scf convergence threshold =      7.3E-08
     mixing beta               =       0.0500
     number of iterations used =            8  plain     mixing
     Exchange-correlation= BEEF-VDW
                           (   1   4  43  14   2   0   0)

     celldm(1)=   1.889726  celldm(2)=   0.000000  celldm(3)=   0.000000
     celldm(4)=   0.000000  celldm(5)=   0.000000  celldm(6)=   0.000000

     crystal axes: (cart. coord. in units of alat)
               a(1) = (   6.579727   0.000000   0.000000 )
               a(2) = (  -0.000775   5.961596   0.000000 )
               a(3) = (   0.000000   0.000000  25.155947 )

     reciprocal axes: (cart. coord. in units 2 pi/alat)
               b(1) = (  0.151982  0.000020  0.000000 )
               b(2) = (  0.000000  0.167740  0.000000 )
               b(3) = (  0.000000  0.000000  0.039752 )

     PseudoPot. # 1 for Ti read from file:
     /storage/coda1/p-amedford6/0/shared/rich_project_chbe-medford/medford-share/data/pseudos_module/espresso/nninc/pbe/van/Ti.UPF
     MD5 check sum: 8e4df49b7f0d34bbd5052bf3f5ea0213
     Pseudo is Ultrasoft, Zval = 12.0
     Generated by new atomic code, or converted to UPF format
     Using radial grid of  851 points,  6 beta functions with:
                l(1) =   0
                l(2) =   0
                l(3) =   1
                l(4) =   1
                l(5) =   2
                l(6) =   2
     Q(r) pseudized with  8 coefficients,  rinner =    1.000   1.000   1.000
                                                       1.000   1.000

     PseudoPot. # 2 for O  read from file:
     /storage/coda1/p-amedford6/0/shared/rich_project_chbe-medford/medford-share/data/pseudos_module/espresso/nninc/pbe/van/O.UPF
     MD5 check sum: 78c19812648e8988a0fe644b0f25305e
     Pseudo is Ultrasoft, Zval =  6.0
     Generated by new atomic code, or converted to UPF format
     Using radial grid of  737 points,  4 beta functions with:
                l(1) =   0
                l(2) =   0
                l(3) =   1
                l(4) =   1
     Q(r) pseudized with  8 coefficients,  rinner =    0.800   0.800   0.800

     PseudoPot. # 3 for N  read from file:
     /storage/coda1/p-amedford6/0/shared/rich_project_chbe-medford/medford-share/data/pseudos_module/espresso/nninc/pbe/van/N.UPF
     MD5 check sum: 90d10febe142ad51ac9d5be1deb811c4
     Pseudo is Ultrasoft, Zval =  5.0
     Generated by new atomic code, or converted to UPF format
     Using radial grid of  729 points,  4 beta functions with:
                l(1) =   0
                l(2) =   0
                l(3) =   1
                l(4) =   1
     Q(r) pseudized with  8 coefficients,  rinner =    0.800   0.800   0.800

     PseudoPot. # 4 for C  read from file:
     /storage/coda1/p-amedford6/0/shared/rich_project_chbe-medford/medford-share/data/pseudos_module/espresso/nninc/pbe/van/C.UPF
     MD5 check sum: 1a69bf6b8db32088f5b2163dbdb77a27
     Pseudo is Ultrasoft, Zval =  4.0
     Generated by new atomic code, or converted to UPF format
     Using radial grid of  721 points,  4 beta functions with:
                l(1) =   0
                l(2) =   0
                l(3) =   1
                l(4) =   1
     Q(r) pseudized with  8 coefficients,  rinner =    0.800   0.800   0.800

     PseudoPot. # 5 for H  read from file:
     /storage/coda1/p-amedford6/0/shared/rich_project_chbe-medford/medford-share/data/pseudos_module/espresso/nninc/pbe/van/H.UPF
     MD5 check sum: b5ee9d7bfd3a09ee7748110bda690ff7
     Pseudo is Ultrasoft, Zval =  1.0
     Generated by new atomic code, or converted to UPF format
     Using radial grid of  615 points,  1 beta functions with:
                l(1) =   0
     Q(r) pseudized with  8 coefficients,  rinner =    0.800

     atomic species   valence    mass     pseudopotential
        Ti1           12.00    47.86700     Ti( 1.00)
        O1             6.00    15.99900     O ( 1.00)
        N1             5.00    14.00700     N ( 1.00)
        C1             4.00    12.01100     C ( 1.00)
        H1             1.00     1.00800     H ( 1.00)

     No symmetry found

   Cartesian axes

     site n.     atom                  positions (alat units)
         1           Ti1 tau(   1) = (   0.0004258   2.9801865   6.0000000  )
         2           Ti1 tau(   2) = (   3.2906075   1.4906267   6.0002472  )
         3           O1  tau(   3) = (   0.0006271   0.0005054   7.9858123  )
         4           O1  tau(   4) = (   3.2906025   0.0005020   7.3038282  )
         5           O1  tau(   5) = (   4.5942328   1.4918067   9.2879030  )
         6           O1  tau(   6) = (   1.9868534   1.4903216   9.2879459  )
         7           Ti1 tau(   7) = (   3.2907910   2.8959150   9.1758416  )
         8           Ti1 tau(   8) = (   0.0015273   1.4827037   9.2680791  )
         9           O1  tau(   9) = (   3.2769995   5.9424463  11.3879711  )
        10           O1  tau(  10) = (   0.0116148   5.9584955  10.6183126  )
        11           O1  tau(  11) = (   1.2559300   1.4809235  12.6914295  )
        12           O1  tau(  12) = (   5.2914439   1.4888754  12.6824943  )
        13           Ti1 tau(  13) = (   6.5693074   2.9549812  12.5071532  )
        14           Ti1 tau(  14) = (   3.2720578   1.2926143  12.7373905  )
        15           O1  tau(  15) = (   6.5263330   5.9075480  14.6758232  )
        16           O1  tau(  16) = (   3.2750150   0.0724425  14.0538047  )
        17           O1  tau(  17) = (   4.5404297   1.6145126  16.1214498  )
        18           O1  tau(  18) = (   1.9612862   1.5681812  16.1371236  )
        19           Ti1 tau(  19) = (   3.2615978   3.0295928  15.7214328  )
        20           Ti1 tau(  20) = (   6.4910920   1.3289874  15.8500745  )
        21           O1  tau(  21) = (   3.2904802   0.0005063   4.7018136  )
        22           O1  tau(  22) = (   6.5149858   0.1606772  17.2625446  )
        23           O1  tau(  23) = (   1.3043587   1.4918075   6.0039043  )
        24           O1  tau(  24) = (   5.2767064   1.4903225   6.0039473  )
        25           Ti1 tau(  25) = (   0.0000382   5.9609847   6.0000000  )
        26           Ti1 tau(  26) = (   3.2902200   4.4714249   6.0002472  )
        27           O1  tau(  27) = (   0.0002396   2.9813036   7.9858123  )
        28           O1  tau(  28) = (   3.2902150   2.9813002   7.3038282  )
        29           O1  tau(  29) = (   4.5938453   4.4726049   9.2879030  )
        30           O1  tau(  30) = (   1.9864658   4.4711199   9.2879459  )
        31           Ti1 tau(  31) = (   3.2891106   5.8743827   9.1763621  )
        32           Ti1 tau(  32) = (   0.0006254   4.4649316   9.2693709  )
        33           O1  tau(  33) = (   3.2749377   2.9871965  11.3337082  )
        34           O1  tau(  34) = (   0.0092240   2.9805883  10.6323155  )
        35           O1  tau(  35) = (   1.2597673   4.4587344  12.6634223  )
        36           O1  tau(  36) = (   5.2866262   4.4511231  12.6493885  )
        37           Ti1 tau(  37) = (   6.5604603   5.9292220  12.4937940  )
        38           Ti1 tau(  38) = (   3.2724722   4.3622713  12.4512132  )
        39           O1  tau(  39) = (   6.5737517   3.0258615  14.9025115  )
        40           O1  tau(  40) = (   3.2593133   3.0063273  13.9441864  )
        41           O1  tau(  41) = (   4.5441350   4.4310557  16.1689449  )
        42           O1  tau(  42) = (   1.9655774   4.4762250  16.2070539  )
        43           Ti1 tau(  43) = (   3.1776431   0.0563557  16.2565842  )
        44           Ti1 tau(  44) = (   6.5216753   4.5226504  15.9439936  )
        45           O1  tau(  45) = (   3.2900926   2.9813045   4.7018136  )
        46           O1  tau(  46) = (   1.3039711   4.4726057   6.0039043  )
        47           O1  tau(  47) = (   5.2763189   4.4711207   6.0039473  )
        48           N1  tau(  48) = (   0.8157702   2.5297039  18.7633901  )
        49           N1  tau(  49) = (   6.4302604   3.3580032  18.1334362  )
        50           C1  tau(  50) = (   1.9549655   3.0231469  19.2293773  )
        51           H1  tau(  51) = (   2.0901252   4.0892486  19.3354668  )
        52           H1  tau(  52) = (   2.7239663   2.3052050  19.4587972  )
        53           H1  tau(  53) = (   0.7490178   1.5515861  18.4517582  )
        54           H1  tau(  54) = (   6.4535031   4.2829477  18.5696568  )
        55           H1  tau(  55) = (   5.5068980   2.9516776  18.2836589  )
        56           O1  tau(  56) = (   3.3967406   0.0908776  18.1493316  )
        57           H1  tau(  57) = (   4.3453859   0.1513423  18.3540861  )

     number of k points=    10  Fermi-Dirac smearing, width (Ry)=  0.0073
                       cart. coord. in units 2pi/alat
        k(    1) = (   0.0000000   0.0000000   0.0000000), wk =   0.1250000
        k(    2) = (   0.0000000   0.0419351   0.0000000), wk =   0.2500000
        k(    3) = (   0.0000000  -0.0838702   0.0000000), wk =   0.1250000
        k(    4) = (   0.0379955   0.0000049   0.0000000), wk =   0.2500000
        k(    5) = (   0.0379955   0.0419400   0.0000000), wk =   0.2500000
        k(    6) = (   0.0379955  -0.0838652   0.0000000), wk =   0.2500000
        k(    7) = (   0.0379955  -0.0419301   0.0000000), wk =   0.2500000
        k(    8) = (  -0.0759910  -0.0000099   0.0000000), wk =   0.1250000
        k(    9) = (  -0.0759910   0.0419252   0.0000000), wk =   0.2500000
        k(   10) = (  -0.0759910  -0.0838800   0.0000000), wk =   0.1250000

     Initial potential from superposition of free atoms

     starting charge  387.99913, renormalised to  404.00000

     negative rho (up, down):  1.608E-02 0.000E+00

     %%%%%%%%%%%%%%%%%%%%%%%%%%%%%%%%%%%%%%%%%%%%%%%%%%%%%%%%%%%%%%%%%%%%%%%%
     %                                                                      %
     % You are using vdW-DF, which was implemented by the Thonhauser group. %
     % Please cite the following two papers that made this development      %
     % possible and the two reviews that describe the various versions:     %
     %                                                                      %
     %   T. Thonhauser et al., PRL 115, 136402 (2015).                      %
     %   T. Thonhauser et al., PRB 76, 125112 (2007).                       %
     %   K. Berland et al., Rep. Prog. Phys. 78, 066501 (2015).             %
     %   D.C. Langreth et al., J. Phys.: Condens. Matter 21, 084203 (2009). %
     %                                                                      %
     %                                                                      %
     % If you are calculating the stress with vdW-DF, please also cite:     %
     %                                                                      %
     %   R. Sabatini et al., J. Phys.: Condens. Matter 24, 424209 (2012).   %
     %                                                                      %
     %%%%%%%%%%%%%%%%%%%%%%%%%%%%%%%%%%%%%%%%%%%%%%%%%%%%%%%%%%%%%%%%%%%%%%%%

     Adding external electric field

     Computed dipole along edir(3) :
        Dipole              -13.8436 Ry au,        -35.1870 Debye
        Dipole field         -0.0261 Ry au,

        Potential amp.        2.4217 Ry
        Total length         46.3494 bohr

     Starting wfcs are  306 atomic wfcs
  @ DRIVER MODE: Message from server: STATUS
  @ DRIVER MODE: Message from server: POSDATA
  @ DRIVER MODE: Reading and sharing cell
  @ DRIVER MODE: Reading and sharing positions
  @ DRIVER MODE: Received positions

     Self-consistent Calculation

     iteration #  1     ecut=    29.40 Ry     beta= 0.05
     Davidson diagonalization with overlap
     c_bands:  1 eigenvalues not converged
     c_bands:  2 eigenvalues not converged
     c_bands:  1 eigenvalues not converged
     c_bands:  1 eigenvalues not converged
     c_bands:  1 eigenvalues not converged
     c_bands:  2 eigenvalues not converged
     c_bands:  5 eigenvalues not converged
     c_bands:  3 eigenvalues not converged
     ethr =  1.00E-05,  avg # of iterations = 32.8

[...]

     total energy              =   -2231.90112791 Ry
     estimated scf accuracy    <    8426.14608082 Ry

     iteration #  2     ecut=    29.40 Ry     beta= 0.05
     Davidson diagonalization with overlap
     ethr =  1.00E-02,  avg # of iterations = 27.8

[...]

     iteration # 88     ecut=    29.40 Ry     beta= 0.05
     Davidson diagonalization with overlap
     c_bands:  1 eigenvalues not converged
     ethr =  4.07E-10,  avg # of iterations = 15.4

[...]

     total energy              =   -2975.15013002 Ry
     estimated scf accuracy    <       0.00000010 Ry

     iteration # 94     ecut=    29.40 Ry     beta= 0.05
     Davidson diagonalization with overlap
     ethr =  2.00E-11,  avg # of iterations =  5.0

     negative rho (up, down):  1.524E-02 0.000E+00

     Adding external electric field

     Computed dipole along edir(3) :
        Dipole                1.1823 Ry au,          3.0051 Debye
        Dipole field          0.0022 Ry au,

        Potential amp.       -0.2068 Ry
        Total length         46.3494 bohr

     End of self-consistent calculation

          k = 0.0000 0.0000 0.0000 ( 18029 PWs)   bands (ev):

   -55.4159 -55.3338 -55.2997 -55.2291 -55.1910 -55.1797 -55.1651 -55.1642
   -55.1491 -55.1296 -55.1012 -55.0301 -55.0219 -54.9958 -54.3281 -54.2941
   -31.8217 -31.7713 -31.7426 -31.7150 -31.6681 -31.6678 -31.6327 -31.6235
   -31.6198 -31.6078 -31.5791 -31.5413 -31.5038 -31.4866 -31.4709 -31.4633
   -31.4461 -31.4434 -31.4423 -31.4077 -31.3912 -31.3800 -31.3741 -31.3707
   -31.3658 -31.3598 -31.3564 -31.3344 -31.3289 -31.3257 -31.3255 -31.3020
   -31.2939 -31.2901 -31.2781 -31.2538 -31.2355 -31.2321 -31.2099 -31.1997
   -31.1961 -31.1930 -30.7352 -30.6462 -30.6239 -30.5524 -30.4659 -30.3543
   -19.3727 -16.2686 -16.0489 -15.8834 -15.6680 -15.6218 -15.5316 -15.3694
   -15.2572 -15.1869 -15.0779 -15.0022 -14.9282 -14.8939 -14.8848 -14.8712
   -14.8659 -14.8148 -14.8060 -14.7921 -14.7817 -14.7714 -14.7637 -14.7303
   -14.6962 -14.6479 -14.6087 -14.4928 -14.4543 -14.4178 -14.2943 -14.2747
   -12.8273 -12.7105 -10.1858  -7.8196  -6.5638  -5.3902  -4.1925  -3.7993
    -3.6601  -3.3918  -3.2833  -3.2518  -3.1876  -3.1568  -2.9023  -2.8029
    -2.7841  -2.6477  -2.5290  -2.4823  -2.4218  -2.3512  -2.3198  -2.2967
    -2.2715  -2.2150  -2.1514  -2.1376  -2.1236  -2.0474  -2.0430  -1.9683
    -1.9195  -1.9068  -1.8019  -1.7290  -1.6980  -1.6849  -1.6733  -1.6567
    -1.6318  -1.6248  -1.6011  -1.5390  -1.4733  -1.4642  -1.3989  -1.3727
    -1.1013  -1.0362  -0.9713  -0.9417  -0.8651  -0.8255  -0.8091  -0.7855
    -0.7423  -0.7391  -0.7174  -0.6571  -0.5589  -0.5042  -0.4732  -0.4545
    -0.4018  -0.2884  -0.2684  -0.1573  -0.1285  -0.1214  -0.0824  -0.0343
     0.0072   0.0464   0.1089   0.1785   0.2287   0.2795   0.3119   0.3377
     0.3783   0.4138   0.4737   0.5512   0.5751   0.6196   0.6497   0.6699
     0.6794   0.7363   0.7532   0.8409   0.9218   0.9332   1.0321   1.0631
     1.1129   1.2979   1.3349   1.6339   1.6804   1.6981   1.8866   2.2678
     2.3143   3.7333   3.8579   3.8878   3.8980   3.9367   3.9702   4.0257
     4.2208   4.2319   4.3438   4.4605

[...]

          k = 0.0380-0.0419 0.0000 ( 17876 PWs)   bands (ev):

[...]

          k =-0.0760-0.0000 0.0000 ( 17886 PWs)   bands (ev):

[...]

          k =-0.0760-0.0839 0.0000 ( 17948 PWs)   bands (ev):

   -55.4150 -55.3169 -55.3163 -55.2178 -55.2021 -55.1773 -55.1660 -55.1466
   -55.1463 -55.1428 -55.1081 -55.0240 -55.0188 -55.0070 -54.3115 -54.3106
   -31.6835 -31.6737 -31.6554 -31.6371 -31.6367 -31.6204 -31.6091 -31.6086
   -31.5677 -31.5368 -31.5210 -31.4960 -31.4866 -31.4783 -31.4667 -31.4539
   -31.4524 -31.4469 -31.4438 -31.4367 -31.4362 -31.4266 -31.4111 -31.4029
   -31.3990 -31.3811 -31.3673 -31.3669 -31.3608 -31.3583 -31.3531 -31.3433
   -31.3288 -31.3248 -31.3236 -31.3200 -31.2851 -31.2846 -31.2459 -31.2389
   -31.2139 -31.2055 -30.6369 -30.6362 -30.5485 -30.5473 -30.5095 -30.5088
   -19.3682 -16.2394 -15.7535 -15.4851 -15.3601 -15.3482 -15.2269 -15.2103
   -15.1479 -15.1398 -15.1102 -15.0974 -15.0867 -15.0423 -15.0134 -14.9303
   -14.9147 -14.8739 -14.8705 -14.8247 -14.8224 -14.8208 -14.7990 -14.7774
   -14.7715 -14.7465 -14.7211 -14.6834 -14.6700 -14.5329 -14.4395 -14.3977
   -12.8124 -12.8119 -10.1569  -7.7858  -6.5561  -5.4734  -4.1513  -3.8165
    -3.6208  -2.8408  -2.6980  -2.5966  -2.4866  -2.4545  -2.4059  -2.3567
    -2.3432  -2.3116  -2.2394  -2.2114  -2.1962  -2.1603  -2.1589  -2.1359
    -2.1262  -2.1065  -2.0780  -2.0582  -2.0485  -2.0419  -2.0151  -1.9993
    -1.9852  -1.9599  -1.9320  -1.9111  -1.8978  -1.8900  -1.8392  -1.7338
    -1.6454  -1.5665  -1.5301  -1.5044  -1.4918  -1.4456  -1.4322  -1.4203
    -1.3851  -1.3616  -1.2267  -1.2049  -1.0666  -1.0120  -0.9780  -0.9320
    -0.8782  -0.8696  -0.8523  -0.8127  -0.7732  -0.6409  -0.6095  -0.5747
    -0.5070  -0.4437  -0.3565  -0.3424  -0.3181  -0.3010  -0.2654  -0.2460
    -0.2319  -0.2019  -0.1725  -0.0943  -0.0603  -0.0482  -0.0293   0.0696
     0.1692   0.2088   0.2727   0.3421   0.3837   0.4088   0.4377   0.6226
     0.6520   0.7955   0.8041   0.8085   0.9539   0.9542   1.0028   1.0516
     1.0814   1.1236   1.1527   1.1673   1.2023   2.0569   2.0653   2.1345
     2.1346   3.7699   3.9356   4.1587   4.1811   4.2395   4.2509   4.2816
     4.3073   4.3365   4.3770   4.3967

     the Fermi energy is     3.7832 ev

!    total energy              =   -2975.15013319 Ry
     estimated scf accuracy    <       0.00000004 Ry
     smearing contrib. (-TS)   =      -0.03328241 Ry
     internal energy E=F+TS    =   -2975.11685078 Ry

     The total energy is F=E-TS. E is the sum of the following terms:
     one-electron contribution =  -23379.33181655 Ry
     hartree contribution      =   11786.92080902 Ry
     xc contribution           =    -494.90194464 Ry
     ewald contribution        =    9112.19346354 Ry
     electric field correction =       0.00263785 Ry

     convergence has been achieved in  94 iterations

     Forces acting on atoms (cartesian axes, Ry/au):

     atom    1 type  1   force =     0.00028133   -0.00019963    0.09346018
     atom    2 type  1   force =    -0.00005659    0.00053121   -0.17633271
     atom    3 type  2   force =     0.00004312   -0.00029634   -0.02070472
     atom    4 type  2   force =     0.00001639   -0.00222373    0.05687757
     atom    5 type  2   force =    -0.00785408   -0.00263407    0.00513160
     atom    6 type  2   force =     0.00891863   -0.00211730    0.00325163
     atom    7 type  1   force =    -0.00077978   -0.00333907    0.00575465
     atom    8 type  1   force =     0.00086269    0.00107567   -0.00173815
     atom    9 type  2   force =    -0.00018713    0.00015011    0.00005466
     atom   10 type  2   force =    -0.00341860    0.00105671   -0.00643615
     atom   11 type  2   force =     0.00018513   -0.00013741    0.00031266
     atom   12 type  2   force =    -0.00012033   -0.00023197    0.00003485
     atom   13 type  1   force =     0.00000361   -0.00005598   -0.00020451
     atom   14 type  1   force =     0.00053453   -0.00038020   -0.00024554
     atom   15 type  2   force =    -0.00003090   -0.00098706   -0.00046490
     atom   16 type  2   force =     0.00021165    0.00063086    0.00083734
     atom   17 type  2   force =    -0.00129259    0.00035388   -0.00042049
     atom   18 type  2   force =     0.00134802   -0.00001202   -0.00073011
     atom   19 type  1   force =     0.00004760    0.00061782    0.00004319
     atom   20 type  1   force =     0.00053079    0.00022081   -0.00056015
     atom   21 type  2   force =     0.00011564    0.00005278    0.10358235
     atom   22 type  2   force =     0.00010350    0.00012450    0.00064487
     atom   23 type  2   force =    -0.07136499   -0.00017070   -0.02698650
     atom   24 type  2   force =     0.07135857    0.00027702   -0.02701797
     atom   25 type  1   force =     0.00007413   -0.00017691    0.09323384
     atom   26 type  1   force =     0.00008325   -0.00125953   -0.17653317
     atom   27 type  2   force =     0.00007648   -0.00015076   -0.01947494
     atom   28 type  2   force =     0.00001748   -0.00060093    0.05224148
     atom   29 type  2   force =    -0.00742374    0.00176900    0.00489356
     atom   30 type  2   force =     0.00835194    0.00235319    0.00299632
     atom   31 type  1   force =    -0.00097945    0.00885411   -0.00436812
     atom   32 type  1   force =     0.00094346   -0.00222217   -0.00239847
     atom   33 type  2   force =    -0.00022471   -0.00134847   -0.00064673
     atom   34 type  2   force =    -0.00214426   -0.00210298   -0.00763829
     atom   35 type  2   force =    -0.00001666    0.00016621    0.00026687
     atom   36 type  2   force =     0.00017625    0.00016099    0.00020617
     atom   37 type  1   force =     0.00002860   -0.00031093    0.00014571
     atom   38 type  1   force =     0.00035416    0.00047143    0.00018713
     atom   39 type  2   force =    -0.00000474    0.00075263   -0.00018547
     atom   40 type  2   force =     0.00021292   -0.00016170    0.00039418
     atom   41 type  2   force =    -0.00046883   -0.00012662    0.00016835
     atom   42 type  2   force =     0.00084089   -0.00024162    0.00001792
     atom   43 type  1   force =     0.00036084   -0.00068408   -0.00005684
     atom   44 type  1   force =     0.00008995    0.00090646    0.00026242
     atom   45 type  2   force =     0.00010119   -0.00008933    0.10333315
     atom   46 type  2   force =    -0.07140517   -0.00003362   -0.02702165
     atom   47 type  2   force =     0.07138070    0.00038149   -0.02705388
     atom   48 type  3   force =    -0.00068717    0.00036194    0.00001559
     atom   49 type  3   force =     0.00026341    0.00064431    0.00040424
     atom   50 type  4   force =     0.00113852    0.00111881    0.00093717
     atom   51 type  5   force =    -0.00021153   -0.00208572   -0.00124363
     atom   52 type  5   force =    -0.00014870   -0.00007627   -0.00020305
     atom   53 type  5   force =     0.00000812    0.00055227   -0.00012825
     atom   54 type  5   force =    -0.00015766    0.00023278   -0.00039467
     atom   55 type  5   force =    -0.00000330    0.00039723    0.00050968
     atom   56 type  2   force =     0.00077511    0.00091351   -0.00022143
     atom   57 type  5   force =    -0.00085768   -0.00067061   -0.00078886

     Total force =     0.363096     Total SCF correction =     0.000652
  @ DRIVER MODE: Message from server: STATUS
  @ DRIVER MODE: Message from server: GETFORCE
  @ DRIVER MODE: Returning v,forces,stress,ensemble

     Writing output data file ./calc.save/
  @ DRIVER MODE: Message from server: EXIT
  @ DRIVE MODE: Exiting

     General routines

     Parallel routines

   This run was terminated on:  21:59:21  23Sep2021

   JOB DONE.