     Program PWSCF v.6.7GPU starts on 12Oct2021 at 17:20:42

     R & G space division:  proc/nbgrp/npool/nimage =       8
     Reading input from /storage/home/hcoda1/3/ntian30/research/carbon/ACS_vib/ads_slab/HNNH2/out_0025/pw.inp
Warning: card &CELL ignored
Warning: card   CELL_DYNAMICS='IPI', ignored
Warning: card / ignored

     Current dimensions of program PWSCF are:
     Max number of different atomic species (ntypx) = 10
     Max number of k-points (npk) =  40000
     Max angular momentum in pseudopotentials (lmaxx) =  3
     Presently no symmetry can be used with electric field

     Message from routine cell_base_init:
     DEPRECATED: use true lattice parameter, not A to a.u. conversion factor

     IMPORTANT: XC functional enforced from input :
     Exchange-correlation= BEEF-VDW
                           (   1   4  43  14   2   0   0)
     Any further DFT definition will be discarded
     Please, verify this is what you really want

  @ DRIVER MODE: Connecting to
 qe_1139763_3181312.sched-torque.pace.gatech.edu795n1s3y_scratch
  using UNIX socket
  @ DRIVER MODE: Message from server: STATUS
  @ DRIVER MODE: Message from server: INIT
  @ DRIVER MODE: Receiving replica           0          -1
  @ DRIVER MODE: Receiving encoded integer          25
  @ DRIVER MODE:  SCF:  T  FORCE:  T  STRESS:  F  VC:  F  ENSEMBLE:  F
  @ DRIVER MODE:  SCF:  T  FORCE:  T  STRESS:  F  VC:  F  ENSEMBLE:  F

     Using Slab Decomposition

     bravais-lattice index     =            0
     lattice parameter (alat)  =       1.8897  a.u.
     unit-cell volume          =    6658.9804 (a.u.)^3
     number of atoms/cell      =           52
     number of atomic types    =            4
     number of electrons       =       391.00
     number of Kohn-Sham states=          205
     kinetic-energy cutoff     =      29.3995  Ry
     charge density cutoff     =     293.9946  Ry
     scf convergence threshold =      7.3E-08
     mixing beta               =       0.0500
     number of iterations used =            8  plain     mixing
     Exchange-correlation= BEEF-VDW
                           (   1   4  43  14   2   0   0)

     celldm(1)=   1.889726  celldm(2)=   0.000000  celldm(3)=   0.000000
     celldm(4)=   0.000000  celldm(5)=   0.000000  celldm(6)=   0.000000

     crystal axes: (cart. coord. in units of alat)
               a(1) = (   6.579727   0.000000   0.000000 )
               a(2) = (  -0.000775   5.961596   0.000000 )
               a(3) = (   0.000000   0.000000  25.155947 )

     reciprocal axes: (cart. coord. in units 2 pi/alat)
               b(1) = (  0.151982  0.000020  0.000000 )
               b(2) = (  0.000000  0.167740  0.000000 )
               b(3) = (  0.000000  0.000000  0.039752 )

     PseudoPot. # 1 for Ti read from file:
     /storage/coda1/p-amedford6/0/shared/rich_project_chbe-medford/medford-share/data/pseudos_module/espresso/nninc/pbe/van/Ti.UPF
     MD5 check sum: 8e4df49b7f0d34bbd5052bf3f5ea0213
     Pseudo is Ultrasoft, Zval = 12.0
     Generated by new atomic code, or converted to UPF format
     Using radial grid of  851 points,  6 beta functions with:
                l(1) =   0
                l(2) =   0
                l(3) =   1
                l(4) =   1
                l(5) =   2
                l(6) =   2
     Q(r) pseudized with  8 coefficients,  rinner =    1.000   1.000   1.000
                                                       1.000   1.000

     PseudoPot. # 2 for O  read from file:
     /storage/coda1/p-amedford6/0/shared/rich_project_chbe-medford/medford-share/data/pseudos_module/espresso/nninc/pbe/van/O.UPF
     MD5 check sum: 78c19812648e8988a0fe644b0f25305e
     Pseudo is Ultrasoft, Zval =  6.0
     Generated by new atomic code, or converted to UPF format
     Using radial grid of  737 points,  4 beta functions with:
                l(1) =   0
                l(2) =   0
                l(3) =   1
                l(4) =   1
     Q(r) pseudized with  8 coefficients,  rinner =    0.800   0.800   0.800

     PseudoPot. # 3 for H  read from file:
     /storage/coda1/p-amedford6/0/shared/rich_project_chbe-medford/medford-share/data/pseudos_module/espresso/nninc/pbe/van/H.UPF
     MD5 check sum: b5ee9d7bfd3a09ee7748110bda690ff7
     Pseudo is Ultrasoft, Zval =  1.0
     Generated by new atomic code, or converted to UPF format
     Using radial grid of  615 points,  1 beta functions with:
                l(1) =   0
     Q(r) pseudized with  8 coefficients,  rinner =    0.800

     PseudoPot. # 4 for N  read from file:
     /storage/coda1/p-amedford6/0/shared/rich_project_chbe-medford/medford-share/data/pseudos_module/espresso/nninc/pbe/van/N.UPF
     MD5 check sum: 90d10febe142ad51ac9d5be1deb811c4
     Pseudo is Ultrasoft, Zval =  5.0
     Generated by new atomic code, or converted to UPF format
     Using radial grid of  729 points,  4 beta functions with:
                l(1) =   0
                l(2) =   0
                l(3) =   1
                l(4) =   1
     Q(r) pseudized with  8 coefficients,  rinner =    0.800   0.800   0.800

     atomic species   valence    mass     pseudopotential
        Ti1           12.00    47.86700     Ti( 1.00)
        O1             6.00    15.99900     O ( 1.00)
        H1             1.00     1.00800     H ( 1.00)
        N1             5.00    14.00700     N ( 1.00)

     No symmetry found

   Cartesian axes

     site n.     atom                  positions (alat units)
         1           Ti1 tau(   1) = (   0.0004258   2.9801865   6.0000000  )
         2           Ti1 tau(   2) = (   3.2906075   1.4906267   6.0002472  )
         3           O1  tau(   3) = (   0.0006271   0.0005054   7.9858123  )
         4           O1  tau(   4) = (   3.2906025   0.0005020   7.3038282  )
         5           O1  tau(   5) = (   4.5942328   1.4918067   9.2879030  )
         6           O1  tau(   6) = (   1.9868534   1.4903216   9.2879459  )
         7           Ti1 tau(   7) = (   3.2908112   2.9011704   9.1816539  )
         8           Ti1 tau(   8) = (   0.0015097   1.3932332   9.2931702  )
         9           O1  tau(   9) = (   3.2819087   5.9526348  11.3504271  )
        10           O1  tau(  10) = (   6.5772260   5.9545827  10.6088576  )
        11           O1  tau(  11) = (   1.2874804   1.4832564  12.6509691  )
        12           O1  tau(  12) = (   5.2781146   1.4858874  12.6440994  )
        13           Ti1 tau(  13) = (   6.5585775   2.9503744  12.8030734  )
        14           Ti1 tau(  14) = (   3.2696126   1.4733128  12.4944632  )
        15           O1  tau(  15) = (   6.5513721   5.9458199  14.6768215  )
        16           O1  tau(  16) = (   3.2879482   5.9481552  13.9547078  )
        17           O1  tau(  17) = (   4.5181657   1.4884665  16.1124167  )
        18           O1  tau(  18) = (   2.0188244   1.4835402  16.0984261  )
        19           Ti1 tau(  19) = (   3.2766105   2.9578040  15.7125626  )
        20           Ti1 tau(  20) = (   0.0270592   1.3580474  16.0627221  )
        21           O1  tau(  21) = (   3.2904802   0.0005063   4.7018136  )
        22           O1  tau(  22) = (   0.0072818   5.9434210  17.2237418  )
        23           O1  tau(  23) = (   1.3043587   1.4918075   6.0039043  )
        24           O1  tau(  24) = (   5.2767064   1.4903225   6.0039473  )
        25           Ti1 tau(  25) = (   0.0000382   5.9609847   6.0000000  )
        26           Ti1 tau(  26) = (   3.2902200   4.4714249   6.0002472  )
        27           O1  tau(  27) = (   0.0002396   2.9813036   7.9858123  )
        28           O1  tau(  28) = (   3.2902150   2.9813002   7.3038282  )
        29           O1  tau(  29) = (   4.5938453   4.4726049   9.2879030  )
        30           O1  tau(  30) = (   1.9864658   4.4711199   9.2879459  )
        31           Ti1 tau(  31) = (   3.2900885   5.8829342   9.1674613  )
        32           Ti1 tau(  32) = (   0.0009626   4.3321112   9.3579051  )
        33           O1  tau(  33) = (   3.2805539   2.9674959  11.3464436  )
        34           O1  tau(  34) = (   6.5791951   2.9642230  10.5753725  )
        35           O1  tau(  35) = (   1.2880645   4.4660911  12.6414962  )
        36           O1  tau(  36) = (   5.2770833   4.4616490  12.6331305  )
        37           Ti1 tau(  37) = (   6.5652171   5.9330851  12.5680926  )
        38           Ti1 tau(  38) = (   3.2703904   4.4534766  12.4879229  )
        39           O1  tau(  39) = (   6.5642693   2.9891374  14.6930774  )
        40           O1  tau(  40) = (   3.2814391   2.9717942  13.9260038  )
        41           O1  tau(  41) = (   4.5200678   4.4336085  16.1105754  )
        42           O1  tau(  42) = (   2.0169658   4.4359636  16.1171003  )
        43           Ti1 tau(  43) = (   3.3139371   5.9425984  15.7429620  )
        44           Ti1 tau(  44) = (   0.0173840   4.5100783  16.0001754  )
        45           O1  tau(  45) = (   3.2900926   2.9813045   4.7018136  )
        46           O1  tau(  46) = (   1.3039711   4.4726057   6.0039043  )
        47           O1  tau(  47) = (   5.2763189   4.4711207   6.0039473  )
        48           H1  tau(  48) = (   5.5810648   2.9993886  17.8866560  )
        49           N1  tau(  49) = (   6.5184219   2.9788514  17.4915934  )
        50           N1  tau(  50) = (   0.8269126   2.9775512  18.6276789  )
        51           H1  tau(  51) = (   1.2125983   2.0437984  18.7562651  )
        52           H1  tau(  52) = (   1.5863704   3.6133177  18.4401992  )

     number of k points=    10  Fermi-Dirac smearing, width (Ry)=  0.0073
                       cart. coord. in units 2pi/alat
        k(    1) = (   0.0000000   0.0000000   0.0000000), wk =   0.1250000
        k(    2) = (   0.0000000   0.0419351   0.0000000), wk =   0.2500000
        k(    3) = (   0.0000000  -0.0838702   0.0000000), wk =   0.1250000
        k(    4) = (   0.0379955   0.0000049   0.0000000), wk =   0.2500000
        k(    5) = (   0.0379955   0.0419400   0.0000000), wk =   0.2500000
        k(    6) = (   0.0379955  -0.0838652   0.0000000), wk =   0.2500000
        k(    7) = (   0.0379955  -0.0419301   0.0000000), wk =   0.2500000
        k(    8) = (  -0.0759910  -0.0000099   0.0000000), wk =   0.1250000
        k(    9) = (  -0.0759910   0.0419252   0.0000000), wk =   0.2500000
        k(   10) = (  -0.0759910  -0.0838800   0.0000000), wk =   0.1250000

     Initial potential from superposition of free atoms

     starting charge  374.99920, renormalised to  391.00000

     negative rho (up, down):  1.966E-02 0.000E+00

     %%%%%%%%%%%%%%%%%%%%%%%%%%%%%%%%%%%%%%%%%%%%%%%%%%%%%%%%%%%%%%%%%%%%%%%%
     %                                                                      %
     % You are using vdW-DF, which was implemented by the Thonhauser group. %
     % Please cite the following two papers that made this development      %
     % possible and the two reviews that describe the various versions:     %
     %                                                                      %
     %   T. Thonhauser et al., PRL 115, 136402 (2015).                      %
     %   T. Thonhauser et al., PRB 76, 125112 (2007).                       %
     %   K. Berland et al., Rep. Prog. Phys. 78, 066501 (2015).             %
     %   D.C. Langreth et al., J. Phys.: Condens. Matter 21, 084203 (2009). %
     %                                                                      %
     %                                                                      %
     % If you are calculating the stress with vdW-DF, please also cite:     %
     %                                                                      %
     %   R. Sabatini et al., J. Phys.: Condens. Matter 24, 424209 (2012).   %
     %                                                                      %
     %%%%%%%%%%%%%%%%%%%%%%%%%%%%%%%%%%%%%%%%%%%%%%%%%%%%%%%%%%%%%%%%%%%%%%%%

     Adding external electric field

     Computed dipole along edir(3) :
        Dipole               -5.4650 Ry au,        -13.8907 Debye
        Dipole field         -0.0103 Ry au,

        Potential amp.        0.9560 Ry
        Total length         46.3494 bohr

     Starting wfcs are  295 atomic wfcs
  @ DRIVER MODE: Message from server: STATUS
  @ DRIVER MODE: Message from server: POSDATA
  @ DRIVER MODE: Reading and sharing cell
  @ DRIVER MODE: Reading and sharing positions
  @ DRIVER MODE: Received positions

     Self-consistent Calculation

     iteration #  1     ecut=    29.40 Ry     beta= 0.05
     Davidson diagonalization with overlap
     c_bands:  4 eigenvalues not converged
     c_bands:  1 eigenvalues not converged
     c_bands:  3 eigenvalues not converged
     c_bands:  3 eigenvalues not converged
     c_bands:  4 eigenvalues not converged
     c_bands:  2 eigenvalues not converged
     c_bands:  1 eigenvalues not converged
     c_bands:  1 eigenvalues not converged
     c_bands:  3 eigenvalues not converged
     ethr =  1.00E-05,  avg # of iterations = 19.9

[...]

     total energy              =   -2794.93873785 Ry
     estimated scf accuracy    <    1457.43961571 Ry

     iteration #  2     ecut=    29.40 Ry     beta= 0.05
     Davidson diagonalization with overlap
     ethr =  1.00E-02,  avg # of iterations = 16.8

[...]

     iteration # 61     ecut=    29.40 Ry     beta= 0.05
     Davidson diagonalization with overlap
     c_bands:  2 eigenvalues not converged
     c_bands:  2 eigenvalues not converged
     c_bands:  1 eigenvalues not converged
     c_bands:  1 eigenvalues not converged
     c_bands:  3 eigenvalues not converged
     ethr =  6.68E-11,  avg # of iterations = 18.8

[...]

     total energy              =   -2927.71118442 Ry
     estimated scf accuracy    <       0.00000010 Ry

     iteration # 63     ecut=    29.40 Ry     beta= 0.05
     Davidson diagonalization with overlap
     ethr =  2.60E-11,  avg # of iterations = 10.0

     negative rho (up, down):  1.937E-02 0.000E+00

     Adding external electric field

     Computed dipole along edir(3) :
        Dipole                0.4585 Ry au,          1.1655 Debye
        Dipole field          0.0009 Ry au,

        Potential amp.       -0.0802 Ry
        Total length         46.3494 bohr

     End of self-consistent calculation

          k = 0.0000 0.0000 0.0000 ( 18029 PWs)   bands (ev):

   -56.1401 -56.1246 -56.1042 -56.0884 -56.0420 -56.0081 -55.9682 -55.9438
   -55.8940 -55.8810 -55.8670 -55.8309 -55.7607 -55.7555 -55.0768 -55.0428
   -32.6961 -32.5999 -32.4815 -32.4695 -32.4591 -32.4272 -32.4013 -32.3835
   -32.3734 -32.3527 -32.3473 -32.3438 -32.3302 -32.3060 -32.3022 -32.2815
   -32.2755 -32.2543 -32.2230 -32.2112 -32.2080 -32.1901 -32.1587 -32.1528
   -32.1514 -32.1314 -32.1296 -32.1059 -32.0989 -32.0943 -32.0940 -32.0733
   -32.0725 -32.0390 -32.0168 -32.0154 -31.9794 -31.9760 -31.9671 -31.9545
   -31.9403 -31.8973 -31.4840 -31.3954 -31.3726 -31.3002 -31.2138 -31.1032
   -16.9034 -16.6727 -16.5258 -16.3749 -16.2647 -16.2411 -16.1841 -15.9058
   -15.8387 -15.7772 -15.7591 -15.7376 -15.7265 -15.6631 -15.6620 -15.6281
   -15.5839 -15.5493 -15.5385 -15.5091 -15.5017 -15.4529 -15.4276 -15.3977
   -15.3631 -15.2792 -15.2248 -15.1538 -15.1173 -15.0781 -13.5805 -13.4644
   -11.2879  -5.2964  -4.6086  -4.2487  -4.1335  -4.0485  -3.9973  -3.9303
    -3.7820  -3.7241  -3.5878  -3.3390  -3.3014  -3.2870  -3.2575  -3.2200
    -3.0323  -2.9827  -2.9465  -2.9246  -2.9187  -2.9117  -2.8739  -2.8417
    -2.8341  -2.8314  -2.7148  -2.6440  -2.5563  -2.5476  -2.4761  -2.4382
    -2.4139  -2.4104  -2.3697  -2.3467  -2.3258  -2.3078  -2.2815  -2.1799
    -2.1544  -2.0719  -1.9829  -1.8978  -1.7758  -1.7128  -1.7010  -1.5734
    -1.5140  -1.5115  -1.4778  -1.4564  -1.4166  -1.3389  -1.3016  -1.2537
    -1.1749  -1.1307  -1.0622  -1.0328  -1.0173  -0.9762  -0.9018  -0.8531
    -0.8462  -0.8351  -0.6299  -0.6021  -0.5926  -0.5783  -0.4601  -0.3788
    -0.3614  -0.3316  -0.3150  -0.3023  -0.2487  -0.1579  -0.1290  -0.1171
    -0.0977  -0.0120   0.0580   0.0654   0.0988   0.1871   0.2104   0.3269
     0.3916   0.5673   0.6032   0.7217   0.8640   0.9430   0.9769   1.1371
     1.5233   1.5618   1.5740   3.0568   3.0745   3.1118   3.1326   3.2690
     3.3788   3.3828   3.4811   3.5019   3.5542

[...]

          k = 0.0380-0.0419 0.0000 ( 17876 PWs)   bands (ev):

[...]

          k =-0.0760-0.0000 0.0000 ( 17886 PWs)   bands (ev):

[...]

          k =-0.0760-0.0839 0.0000 ( 17948 PWs)   bands (ev):

   -56.1279 -56.1162 -56.1072 -56.1056 -56.0377 -56.0036 -55.9723 -55.9482
   -55.8919 -55.8781 -55.8559 -55.8423 -55.7628 -55.7579 -55.0600 -55.0594
   -32.4999 -32.4964 -32.4330 -32.4234 -32.4162 -32.4103 -32.4002 -32.3985
   -32.3372 -32.3366 -32.3331 -32.3036 -32.3015 -32.2853 -32.2706 -32.2569
   -32.2489 -32.2475 -32.2345 -32.2324 -32.2198 -32.2084 -32.1939 -32.1837
   -32.1757 -32.1671 -32.1641 -32.1588 -32.1420 -32.1072 -32.0867 -32.0849
   -32.0837 -32.0656 -32.0651 -32.0590 -32.0480 -32.0211 -32.0178 -31.9907
   -31.9484 -31.9467 -31.3857 -31.3850 -31.2972 -31.2965 -31.2574 -31.2566
   -16.5532 -16.3590 -16.3127 -16.0810 -16.0656 -16.0229 -15.9455 -15.8927
   -15.8876 -15.8630 -15.8554 -15.7955 -15.7851 -15.7729 -15.7449 -15.6479
   -15.6462 -15.6345 -15.6157 -15.5541 -15.5386 -15.5042 -15.4736 -15.4644
   -15.4376 -15.4098 -15.3796 -15.3576 -15.2967 -15.2792 -13.5666 -13.5658
   -11.2960  -5.2946  -4.5683  -3.6967  -3.6466  -3.5981  -3.2939  -3.2761
    -3.2474  -3.1326  -3.0647  -3.0386  -3.0058  -2.9770  -2.9413  -2.9299
    -2.9149  -2.9106  -2.9024  -2.8996  -2.8681  -2.8382  -2.8222  -2.7760
    -2.7482  -2.7397  -2.7233  -2.7070  -2.7024  -2.6527  -2.6489  -2.6440
    -2.6354  -2.5184  -2.3854  -2.3683  -2.3303  -2.2115  -2.1879  -2.1818
    -2.1522  -2.1412  -2.1355  -2.0787  -1.9743  -1.8690  -1.8200  -1.7992
    -1.7754  -1.7135  -1.5970  -1.5457  -1.5353  -1.5042  -1.4424  -1.4222
    -1.3713  -1.3655  -1.2604  -1.2336  -1.2100  -1.1357  -1.0744  -1.0567
    -1.0346  -0.9749  -0.9278  -0.9072  -0.9011  -0.8533  -0.7528  -0.7439
    -0.6954  -0.6848  -0.6323  -0.6268  -0.5738  -0.4450  -0.2046  -0.1663
    -0.0938  -0.0712   0.0204   0.0525   0.0797   0.1745   0.2030   0.3045
     0.3449   0.4397   0.4466   0.4622   0.5048   0.6709   1.3078   1.3104
     1.3842   1.3905   1.5646   3.2131   3.2505   3.2752   3.3390   3.5194
     3.5430   3.5439   3.5584   3.5909   3.6675

     the Fermi energy is     3.0151 ev

!    total energy              =   -2927.71121575 Ry
     estimated scf accuracy    <       0.00000003 Ry
     smearing contrib. (-TS)   =      -0.02327357 Ry
     internal energy E=F+TS    =   -2927.68794218 Ry

     The total energy is F=E-TS. E is the sum of the following terms:
     one-electron contribution =  -24559.90242353 Ry
     hartree contribution      =   12363.14223997 Ry
     xc contribution           =    -481.65912864 Ry
     ewald contribution        =    9750.73097322 Ry
     electric field correction =       0.00039680 Ry

     convergence has been achieved in  63 iterations

     Forces acting on atoms (cartesian axes, Ry/au):

     atom    1 type  1   force =     0.00026277    0.00111677    0.11027918
     atom    2 type  1   force =     0.00006089    0.00172257   -0.17426378
     atom    3 type  2   force =     0.00010646    0.00666192   -0.03420650
     atom    4 type  2   force =     0.00001351   -0.00085820    0.05078533
     atom    5 type  2   force =    -0.01745218   -0.00134413    0.00575206
     atom    6 type  2   force =     0.01690314   -0.00101435    0.00537906
     atom    7 type  1   force =     0.00006973    0.00260648   -0.01784409
     atom    8 type  1   force =    -0.00001981    0.00012323    0.00034325
     atom    9 type  2   force =    -0.00001418    0.00009179   -0.00041706
     atom   10 type  2   force =     0.00000147   -0.00051181   -0.00008162
     atom   11 type  2   force =     0.00010035   -0.00024958   -0.00006136
     atom   12 type  2   force =    -0.00009924   -0.00036005   -0.00022233
     atom   13 type  1   force =    -0.00038204   -0.00034481    0.00005389
     atom   14 type  1   force =    -0.00075649    0.00007588   -0.00011652
     atom   15 type  2   force =    -0.00011001   -0.00026999    0.00066145
     atom   16 type  2   force =     0.00011132   -0.00015174   -0.00030013
     atom   17 type  2   force =     0.00010621   -0.00027856    0.00049830
     atom   18 type  2   force =     0.00095654   -0.00048507    0.00050642
     atom   19 type  1   force =    -0.00002229    0.00038799    0.00008670
     atom   20 type  1   force =    -0.00017880   -0.00076355    0.00107773
     atom   21 type  2   force =     0.00009644    0.00006330    0.10315251
     atom   22 type  2   force =     0.00010245    0.00048604   -0.00144835
     atom   23 type  2   force =    -0.07113062    0.00062274   -0.03028192
     atom   24 type  2   force =     0.07109460    0.00103891   -0.03029055
     atom   25 type  1   force =     0.00005412   -0.00109691    0.11743072
     atom   26 type  1   force =     0.00004360   -0.00255905   -0.17410813
     atom   27 type  2   force =     0.00006901   -0.00281709   -0.02991788
     atom   28 type  2   force =     0.00002429   -0.00148591    0.05394803
     atom   29 type  2   force =    -0.01860868    0.00057056    0.00665250
     atom   30 type  2   force =     0.01808789    0.00124267    0.00629516
     atom   31 type  1   force =     0.00039800   -0.00272123   -0.01222826
     atom   32 type  1   force =     0.00000060    0.00038543    0.00071778
     atom   33 type  2   force =     0.00002280   -0.00009057   -0.00046843
     atom   34 type  2   force =     0.00006803    0.00031454    0.00039768
     atom   35 type  2   force =     0.00001163    0.00005640   -0.00029412
     atom   36 type  2   force =     0.00006111    0.00000940   -0.00032831
     atom   37 type  1   force =    -0.00050361   -0.00042793    0.00098641
     atom   38 type  1   force =    -0.00070294    0.00003839   -0.00013715
     atom   39 type  2   force =    -0.00013872   -0.00063656   -0.00040026
     atom   40 type  2   force =     0.00001153   -0.00009646   -0.00061382
     atom   41 type  2   force =    -0.00027845    0.00018214    0.00043618
     atom   42 type  2   force =     0.00078703    0.00035988    0.00009029
     atom   43 type  1   force =     0.00031741   -0.00019890   -0.00002491
     atom   44 type  1   force =     0.00045744    0.00054383    0.00056000
     atom   45 type  2   force =     0.00007992    0.00013883    0.10307680
     atom   46 type  2   force =    -0.07142464   -0.00054756   -0.03021794
     atom   47 type  2   force =     0.07139089   -0.00010749   -0.03026917
     atom   48 type  3   force =     0.00043074    0.00016502   -0.00039754
     atom   49 type  4   force =    -0.00077126   -0.00030649    0.00048113
     atom   50 type  4   force =    -0.00940707   -0.00794323    0.00049056
     atom   51 type  3   force =     0.00021027    0.00111417   -0.00032125
     atom   52 type  3   force =     0.00948886    0.00754835   -0.00087774

     Total force =     0.376446     Total SCF correction =     0.000504
  @ DRIVER MODE: Message from server: STATUS
  @ DRIVER MODE: Message from server: GETFORCE
  @ DRIVER MODE: Returning v,forces,stress,ensemble

     Writing output data file ./calc.save/
  @ DRIVER MODE: Message from server: EXIT
  @ DRIVE MODE: Exiting

     General routines

     Parallel routines

   This run was terminated on:  17:40:42  12Oct2021

   JOB DONE.