     Program PWSCF v.6.7GPU starts on 26Sep2021 at 11:51:32

     R & G space division:  proc/nbgrp/npool/nimage =       8
     Reading input from /storage/home/hcoda1/3/ntian30/research/carbon/CxH_vib/H2O_calc/ads_slab/CH3ON2H2O_a/out_0042/pw.inp
Warning: card &CELL ignored
Warning: card   CELL_DYNAMICS='IPI', ignored
Warning: card / ignored

     Current dimensions of program PWSCF are:
     Max number of different atomic species (ntypx) = 10
     Max number of k-points (npk) =  40000
     Max angular momentum in pseudopotentials (lmaxx) =  3
     Presently no symmetry can be used with electric field

     Message from routine cell_base_init:
     DEPRECATED: use true lattice parameter, not A to a.u. conversion factor

     IMPORTANT: XC functional enforced from input :
     Exchange-correlation= BEEF-VDW
                           (   1   4  43  14   2   0   0)
     Any further DFT definition will be discarded
     Please, verify this is what you really want

  @ DRIVER MODE: Connecting to
 qe_1139763_2971672.sched-torque.pace.gatech.edu80hbo3f6_scratch
  using UNIX socket
  @ DRIVER MODE: Message from server: STATUS
  @ DRIVER MODE: Message from server: INIT
  @ DRIVER MODE: Receiving replica           0          -1
  @ DRIVER MODE: Receiving encoded integer          25
  @ DRIVER MODE:  SCF:  T  FORCE:  T  STRESS:  F  VC:  F  ENSEMBLE:  F
  @ DRIVER MODE:  SCF:  T  FORCE:  T  STRESS:  F  VC:  F  ENSEMBLE:  F

     Using Slab Decomposition

     bravais-lattice index     =            0
     lattice parameter (alat)  =       1.8897  a.u.
     unit-cell volume          =    6658.9804 (a.u.)^3
     number of atoms/cell      =           57
     number of atomic types    =            5
     number of electrons       =       409.00
     number of Kohn-Sham states=          214
     kinetic-energy cutoff     =      29.3995  Ry
     charge density cutoff     =     293.9946  Ry
     scf convergence threshold =      7.3E-08
     mixing beta               =       0.0500
     number of iterations used =            8  plain     mixing
     Exchange-correlation= BEEF-VDW
                           (   1   4  43  14   2   0   0)

     celldm(1)=   1.889726  celldm(2)=   0.000000  celldm(3)=   0.000000
     celldm(4)=   0.000000  celldm(5)=   0.000000  celldm(6)=   0.000000

     crystal axes: (cart. coord. in units of alat)
               a(1) = (   6.579727   0.000000   0.000000 )
               a(2) = (  -0.000775   5.961596   0.000000 )
               a(3) = (   0.000000   0.000000  25.155947 )

     reciprocal axes: (cart. coord. in units 2 pi/alat)
               b(1) = (  0.151982  0.000020  0.000000 )
               b(2) = (  0.000000  0.167740  0.000000 )
               b(3) = (  0.000000  0.000000  0.039752 )

     PseudoPot. # 1 for Ti read from file:
     /storage/coda1/p-amedford6/0/shared/rich_project_chbe-medford/medford-share/data/pseudos_module/espresso/nninc/pbe/van/Ti.UPF
     MD5 check sum: 8e4df49b7f0d34bbd5052bf3f5ea0213
     Pseudo is Ultrasoft, Zval = 12.0
     Generated by new atomic code, or converted to UPF format
     Using radial grid of  851 points,  6 beta functions with:
                l(1) =   0
                l(2) =   0
                l(3) =   1
                l(4) =   1
                l(5) =   2
                l(6) =   2
     Q(r) pseudized with  8 coefficients,  rinner =    1.000   1.000   1.000
                                                       1.000   1.000

     PseudoPot. # 2 for O  read from file:
     /storage/coda1/p-amedford6/0/shared/rich_project_chbe-medford/medford-share/data/pseudos_module/espresso/nninc/pbe/van/O.UPF
     MD5 check sum: 78c19812648e8988a0fe644b0f25305e
     Pseudo is Ultrasoft, Zval =  6.0
     Generated by new atomic code, or converted to UPF format
     Using radial grid of  737 points,  4 beta functions with:
                l(1) =   0
                l(2) =   0
                l(3) =   1
                l(4) =   1
     Q(r) pseudized with  8 coefficients,  rinner =    0.800   0.800   0.800

     PseudoPot. # 3 for C  read from file:
     /storage/coda1/p-amedford6/0/shared/rich_project_chbe-medford/medford-share/data/pseudos_module/espresso/nninc/pbe/van/C.UPF
     MD5 check sum: 1a69bf6b8db32088f5b2163dbdb77a27
     Pseudo is Ultrasoft, Zval =  4.0
     Generated by new atomic code, or converted to UPF format
     Using radial grid of  721 points,  4 beta functions with:
                l(1) =   0
                l(2) =   0
                l(3) =   1
                l(4) =   1
     Q(r) pseudized with  8 coefficients,  rinner =    0.800   0.800   0.800

     PseudoPot. # 4 for H  read from file:
     /storage/coda1/p-amedford6/0/shared/rich_project_chbe-medford/medford-share/data/pseudos_module/espresso/nninc/pbe/van/H.UPF
     MD5 check sum: b5ee9d7bfd3a09ee7748110bda690ff7
     Pseudo is Ultrasoft, Zval =  1.0
     Generated by new atomic code, or converted to UPF format
     Using radial grid of  615 points,  1 beta functions with:
                l(1) =   0
     Q(r) pseudized with  8 coefficients,  rinner =    0.800

     PseudoPot. # 5 for N  read from file:
     /storage/coda1/p-amedford6/0/shared/rich_project_chbe-medford/medford-share/data/pseudos_module/espresso/nninc/pbe/van/N.UPF
     MD5 check sum: 90d10febe142ad51ac9d5be1deb811c4
     Pseudo is Ultrasoft, Zval =  5.0
     Generated by new atomic code, or converted to UPF format
     Using radial grid of  729 points,  4 beta functions with:
                l(1) =   0
                l(2) =   0
                l(3) =   1
                l(4) =   1
     Q(r) pseudized with  8 coefficients,  rinner =    0.800   0.800   0.800

     atomic species   valence    mass     pseudopotential
        Ti1           12.00    47.86700     Ti( 1.00)
        O1             6.00    15.99900     O ( 1.00)
        C1             4.00    12.01100     C ( 1.00)
        H1             1.00     1.00800     H ( 1.00)
        N1             5.00    14.00700     N ( 1.00)

     No symmetry found

   Cartesian axes

     site n.     atom                  positions (alat units)
         1           Ti1 tau(   1) = (   0.0004258   2.9801865   6.0000000  )
         2           Ti1 tau(   2) = (   3.2906075   1.4906267   6.0002472  )
         3           O1  tau(   3) = (   0.0006271   0.0005054   7.9858123  )
         4           O1  tau(   4) = (   3.2906025   0.0005020   7.3038282  )
         5           O1  tau(   5) = (   4.5942328   1.4918067   9.2879030  )
         6           O1  tau(   6) = (   1.9868534   1.4903216   9.2879459  )
         7           Ti1 tau(   7) = (   3.3113259   3.0354369   9.1618307  )
         8           Ti1 tau(   8) = (   0.0141821   1.6139659   9.3625064  )
         9           O1  tau(   9) = (   3.2964399   0.0287090  11.3517035  )
        10           O1  tau(  10) = (   0.0046459   0.0167322  10.6079620  )
        11           O1  tau(  11) = (   1.2916403   1.5142126  12.6509924  )
        12           O1  tau(  12) = (   5.2954765   1.5212855  12.6445515  )
        13           Ti1 tau(  13) = (   0.0303381   3.0181167  12.7741416  )
        14           Ti1 tau(  14) = (   3.3376880   1.5190318  12.5019279  )
        15           O1  tau(  15) = (   6.5702980   0.0162101  14.7136675  )
        16           O1  tau(  16) = (   3.3118210   0.0215951  13.9605728  )
        17           O1  tau(  17) = (   4.5586303   1.5408398  16.0643691  )
        18           O1  tau(  18) = (   2.0376984   1.5397913  16.0346728  )
        19           Ti1 tau(  19) = (   3.2806018   3.0126274  15.6982083  )
        20           Ti1 tau(  20) = (   0.0204579   1.3876160  16.0921805  )
        21           O1  tau(  21) = (   3.2904802   0.0005063   4.7018136  )
        22           O1  tau(  22) = (   0.0362274   0.0182013  17.2505027  )
        23           O1  tau(  23) = (   1.3043587   1.4918075   6.0039043  )
        24           O1  tau(  24) = (   5.2767064   1.4903225   6.0039473  )
        25           Ti1 tau(  25) = (   0.0000382   5.9609847   6.0000000  )
        26           Ti1 tau(  26) = (   3.2902200   4.4714249   6.0002472  )
        27           O1  tau(  27) = (   0.0002396   2.9813036   7.9858123  )
        28           O1  tau(  28) = (   3.2902150   2.9813002   7.3038282  )
        29           O1  tau(  29) = (   4.5938453   4.4726049   9.2879030  )
        30           O1  tau(  30) = (   1.9864658   4.4711199   9.2879459  )
        31           Ti1 tau(  31) = (   3.2918133   0.0584897   9.1554610  )
        32           Ti1 tau(  32) = (   0.0176696   4.5429683   9.2683582  )
        33           O1  tau(  33) = (   3.2944385   3.0046939  11.3531965  )
        34           O1  tau(  34) = (   0.0071923   2.9964285  10.5824339  )
        35           O1  tau(  35) = (   1.2923070   4.5060354  12.6395470  )
        36           O1  tau(  36) = (   5.2930342   4.4972821  12.6335129  )
        37           Ti1 tau(  37) = (   0.0360028   0.0369787  12.5252624  )
        38           Ti1 tau(  38) = (   3.3378333   4.5109478  12.5016189  )
        39           O1  tau(  39) = (   0.0182598   3.0415135  14.6926035  )
        40           O1  tau(  40) = (   3.2973286   3.0139918  13.9115332  )
        41           O1  tau(  41) = (   4.5518717   4.4752506  16.0920674  )
        42           O1  tau(  42) = (   2.0385343   4.4722040  16.0556704  )
        43           Ti1 tau(  43) = (   3.3273276   0.0437280  15.7880462  )
        44           Ti1 tau(  44) = (   0.0148993   4.5306414  15.9319406  )
        45           O1  tau(  45) = (   3.2900926   2.9813045   4.7018136  )
        46           O1  tau(  46) = (   1.3039711   4.4726057   6.0039043  )
        47           O1  tau(  47) = (   5.2763189   4.4711207   6.0039473  )
        48           C1  tau(  48) = (   6.0619278   3.0088867  18.6555636  )
        49           O1  tau(  49) = (   6.5788924   2.9994598  17.3400993  )
        50           H1  tau(  50) = (   4.9713474   2.8828304  18.6515055  )
        51           H1  tau(  51) = (   6.4909130   2.1836263  19.2313859  )
        52           H1  tau(  52) = (   6.3070107   3.9563896  19.1453893  )
        53           N1  tau(  53) = (   5.9950546   3.0301018  22.7159517  )
        54           N1  tau(  54) = (   5.2276613   3.1827328  21.9468001  )
        55           O1  tau(  55) = (   3.1818816   0.0591848  18.2205797  )
        56           H1  tau(  56) = (   3.8437189   5.3938241  18.5518935  )
        57           H1  tau(  57) = (   2.3086839   5.6188137  18.3735615  )

     number of k points=    10  Fermi-Dirac smearing, width (Ry)=  0.0073
                       cart. coord. in units 2pi/alat
        k(    1) = (   0.0000000   0.0000000   0.0000000), wk =   0.1250000
        k(    2) = (   0.0000000   0.0419351   0.0000000), wk =   0.2500000
        k(    3) = (   0.0000000  -0.0838702   0.0000000), wk =   0.1250000
        k(    4) = (   0.0379955   0.0000049   0.0000000), wk =   0.2500000
        k(    5) = (   0.0379955   0.0419400   0.0000000), wk =   0.2500000
        k(    6) = (   0.0379955  -0.0838652   0.0000000), wk =   0.2500000
        k(    7) = (   0.0379955  -0.0419301   0.0000000), wk =   0.2500000
        k(    8) = (  -0.0759910  -0.0000099   0.0000000), wk =   0.1250000
        k(    9) = (  -0.0759910   0.0419252   0.0000000), wk =   0.2500000
        k(   10) = (  -0.0759910  -0.0838800   0.0000000), wk =   0.1250000

     Initial potential from superposition of free atoms

     starting charge  392.99914, renormalised to  409.00000

     negative rho (up, down):  9.743E-03 0.000E+00

     %%%%%%%%%%%%%%%%%%%%%%%%%%%%%%%%%%%%%%%%%%%%%%%%%%%%%%%%%%%%%%%%%%%%%%%%
     %                                                                      %
     % You are using vdW-DF, which was implemented by the Thonhauser group. %
     % Please cite the following two papers that made this development      %
     % possible and the two reviews that describe the various versions:     %
     %                                                                      %
     %   T. Thonhauser et al., PRL 115, 136402 (2015).                      %
     %   T. Thonhauser et al., PRB 76, 125112 (2007).                       %
     %   K. Berland et al., Rep. Prog. Phys. 78, 066501 (2015).             %
     %   D.C. Langreth et al., J. Phys.: Condens. Matter 21, 084203 (2009). %
     %                                                                      %
     %                                                                      %
     % If you are calculating the stress with vdW-DF, please also cite:     %
     %                                                                      %
     %   R. Sabatini et al., J. Phys.: Condens. Matter 24, 424209 (2012).   %
     %                                                                      %
     %%%%%%%%%%%%%%%%%%%%%%%%%%%%%%%%%%%%%%%%%%%%%%%%%%%%%%%%%%%%%%%%%%%%%%%%

     Adding external electric field

     Computed dipole along edir(3) :
        Dipole              -18.5753 Ry au,        -47.2138 Debye
        Dipole field         -0.0351 Ry au,

        Potential amp.        3.2495 Ry
        Total length         46.3494 bohr

     Starting wfcs are  309 atomic wfcs
  @ DRIVER MODE: Message from server: STATUS
  @ DRIVER MODE: Message from server: POSDATA
  @ DRIVER MODE: Reading and sharing cell
  @ DRIVER MODE: Reading and sharing positions
  @ DRIVER MODE: Received positions

     Self-consistent Calculation

     iteration #  1     ecut=    29.40 Ry     beta= 0.05
     Davidson diagonalization with overlap
     c_bands:  3 eigenvalues not converged
     c_bands:  2 eigenvalues not converged
     c_bands:  2 eigenvalues not converged
     c_bands:  5 eigenvalues not converged
     c_bands:  5 eigenvalues not converged
     c_bands:  5 eigenvalues not converged
     c_bands:  1 eigenvalues not converged
     c_bands:  3 eigenvalues not converged
     ethr =  1.00E-05,  avg # of iterations = 28.5

[...]

     total energy              =   -2113.04057631 Ry
     estimated scf accuracy    <   10297.78862501 Ry

     iteration #  2     ecut=    29.40 Ry     beta= 0.05
     Davidson diagonalization with overlap
     ethr =  1.00E-02,  avg # of iterations = 30.0

[...]

     iteration # 59     ecut=    29.40 Ry     beta= 0.05
     Davidson diagonalization with overlap
     c_bands:  1 eigenvalues not converged
     c_bands:  1 eigenvalues not converged
     ethr =  4.03E-09,  avg # of iterations = 17.1

[...]

     total energy              =   -3006.52107034 Ry
     estimated scf accuracy    <       0.00000008 Ry

     iteration # 73     ecut=    29.40 Ry     beta= 0.05
     Davidson diagonalization with overlap
     ethr =  1.88E-11,  avg # of iterations =  9.2

     negative rho (up, down):  1.095E-02 0.000E+00

     Adding external electric field

     Computed dipole along edir(3) :
        Dipole                0.9967 Ry au,          2.5335 Debye
        Dipole field          0.0019 Ry au,

        Potential amp.       -0.1744 Ry
        Total length         46.3494 bohr

     End of self-consistent calculation

          k = 0.0000 0.0000 0.0000 ( 18029 PWs)   bands (ev):

   -55.2860 -55.2514 -55.2500 -55.2150 -55.1923 -55.1768 -55.1691 -55.1335
   -55.0828 -55.0647 -55.0491 -55.0413 -55.0075 -54.9535 -54.2930 -54.2589
   -31.8083 -31.7552 -31.6781 -31.6461 -31.6247 -31.5778 -31.5604 -31.5568
   -31.5207 -31.5156 -31.4788 -31.4652 -31.4587 -31.4497 -31.4457 -31.4327
   -31.4265 -31.3904 -31.3852 -31.3775 -31.3731 -31.3543 -31.3506 -31.3414
   -31.3336 -31.3275 -31.3118 -31.2903 -31.2800 -31.2743 -31.2711 -31.2638
   -31.2608 -31.2451 -31.2324 -31.2223 -31.2206 -31.1859 -31.1709 -31.1505
   -31.1382 -31.1368 -30.7022 -30.6064 -30.5841 -30.5189 -30.4328 -30.3217
   -21.5351 -18.7344 -17.1984 -16.0004 -15.7301 -15.5697 -15.4387 -15.4034
   -15.2164 -15.0949 -14.9621 -14.9379 -14.8843 -14.8569 -14.8224 -14.8119
   -14.8070 -14.7947 -14.7866 -14.7399 -14.7052 -14.6880 -14.6875 -14.6641
   -14.6155 -14.5619 -14.4968 -14.4317 -14.4033 -14.3616 -14.2924 -14.2843
   -12.7936 -12.6756  -9.1234  -6.5519  -6.5273  -4.6198  -4.6098  -3.9173
    -3.7667  -3.4724  -3.3642  -3.2911  -3.2124  -3.1902  -3.1685  -3.0931
    -2.9821  -2.8461  -2.7504  -2.5113  -2.4559  -2.4132  -2.3815  -2.3524
    -2.1958  -2.1709  -2.1023  -2.0912  -2.0825  -2.0718  -2.0448  -2.0156
    -1.9899  -1.9581  -1.8990  -1.8749  -1.8045  -1.6734  -1.6650  -1.6330
    -1.5867  -1.5703  -1.5686  -1.5421  -1.4980  -1.4790  -1.4546  -1.4492
    -1.3522  -1.2599  -1.2170  -1.1228  -1.0432  -0.9704  -0.8476  -0.8090
    -0.7358  -0.7024  -0.6865  -0.6328  -0.5835  -0.5730  -0.5146  -0.4676
    -0.3601  -0.3174  -0.2756  -0.2384  -0.1873  -0.1431  -0.0723  -0.0388
    -0.0065  -0.0020   0.0191   0.2175   0.2288   0.2801   0.2928   0.3899
     0.4424   0.4770   0.4901   0.4993   0.5374   0.6131   0.6685   0.6770
     0.7088   0.7447   0.7640   0.8102   0.8511   0.9034   0.9330   0.9677
     1.0342   1.0747   1.2286   1.3235   1.3671   1.4833   1.6400   1.7313
     1.8053   1.9053   2.3180   2.3754   3.8956   3.9298   3.9564   3.9748
     4.0428   4.1418   4.2585   4.3493   4.3588   4.3893

[...]

          k = 0.0380-0.0419 0.0000 ( 17876 PWs)   bands (ev):

[...]

          k =-0.0760-0.0000 0.0000 ( 17886 PWs)   bands (ev):

[...]

          k =-0.0760-0.0839 0.0000 ( 17948 PWs)   bands (ev):

   -55.2738 -55.2621 -55.2354 -55.2307 -55.1892 -55.1746 -55.1584 -55.1444
   -55.0855 -55.0616 -55.0514 -55.0267 -55.0222 -54.9561 -54.2765 -54.2753
   -31.6202 -31.6037 -31.5781 -31.5760 -31.5660 -31.5646 -31.5471 -31.5141
   -31.5072 -31.4902 -31.4870 -31.4766 -31.4414 -31.4310 -31.4105 -31.4063
   -31.4014 -31.3996 -31.3979 -31.3919 -31.3889 -31.3855 -31.3739 -31.3655
   -31.3593 -31.3507 -31.3499 -31.3482 -31.3429 -31.3173 -31.2914 -31.2785
   -31.2759 -31.2746 -31.2718 -31.2632 -31.2543 -31.2420 -31.2323 -31.2230
   -31.1814 -31.1477 -30.5974 -30.5961 -30.5157 -30.5147 -30.4763 -30.4754
   -21.5350 -18.7334 -17.1680 -15.4685 -15.3594 -15.2304 -15.1659 -15.1431
   -15.1164 -15.0635 -15.0472 -14.9917 -14.9875 -14.9370 -14.9308 -14.8876
   -14.8807 -14.8268 -14.7986 -14.7897 -14.7605 -14.7280 -14.7120 -14.7108
   -14.6710 -14.6493 -14.6409 -14.6105 -14.6032 -14.5411 -14.5039 -14.4708
   -12.7779 -12.7761  -9.1253  -6.5525  -6.5209  -4.6202  -4.6168  -3.8269
    -3.7256  -3.4985  -3.2781  -3.0029  -2.7540  -2.5712  -2.4800  -2.4111
    -2.3580  -2.3401  -2.2305  -2.2059  -2.1760  -2.1413  -2.1190  -2.1082
    -2.0905  -2.0816  -2.0744  -2.0568  -2.0233  -2.0035  -1.9775  -1.9527
    -1.9376  -1.9142  -1.8966  -1.8891  -1.8644  -1.8366  -1.8298  -1.8270
    -1.7640  -1.7241  -1.5659  -1.5208  -1.4997  -1.4098  -1.3903  -1.3738
    -1.3483  -1.3343  -1.3176  -1.1985  -1.1477  -1.1192  -1.0112  -0.9933
    -0.9673  -0.8287  -0.8050  -0.7725  -0.7443  -0.7023  -0.6326  -0.6091
    -0.5537  -0.5408  -0.4395  -0.4023  -0.3775  -0.3642  -0.2682  -0.2461
    -0.2407  -0.2148  -0.1515  -0.1198  -0.0744  -0.0447  -0.0140   0.0106
     0.0565   0.0764   0.1703   0.1906   0.2269   0.2698   0.3637   0.5304
     0.6234   0.7334   0.7595   0.8064   0.8666   0.9090   0.9593   1.0128
     1.0603   1.0673   1.1298   1.1669   1.2518   1.2656   1.2689   1.3374
     2.0926   2.0929   2.1807   2.1898   4.1372   4.1454   4.2026   4.2221
     4.3614   4.3675   4.3810   4.3885   4.4834   4.5411

     the Fermi energy is     3.8656 ev

!    total energy              =   -3006.52108958 Ry
     estimated scf accuracy    <       0.00000002 Ry
     smearing contrib. (-TS)   =      -0.02294529 Ry
     internal energy E=F+TS    =   -3006.49814429 Ry

     The total energy is F=E-TS. E is the sum of the following terms:
     one-electron contribution =  -22562.35442404 Ry
     hartree contribution      =   11380.50918025 Ry
     xc contribution           =    -501.16218591 Ry
     ewald contribution        =    8676.50741052 Ry
     electric field correction =       0.00187488 Ry

     convergence has been achieved in  73 iterations

     Forces acting on atoms (cartesian axes, Ry/au):

     atom    1 type  1   force =    -0.00015442   -0.00167047    0.10542261
     atom    2 type  1   force =    -0.00021849    0.00113576   -0.17915741
     atom    3 type  2   force =     0.00020494   -0.00553715   -0.03234498
     atom    4 type  2   force =     0.00010516    0.00072075    0.04629147
     atom    5 type  2   force =    -0.01804418    0.00052538    0.00423956
     atom    6 type  2   force =     0.01844258   -0.00044707    0.00410941
     atom    7 type  1   force =     0.00007795    0.00019434    0.00005560
     atom    8 type  1   force =     0.00006945    0.00030892   -0.00012074
     atom    9 type  2   force =     0.00017787    0.00035003   -0.00007114
     atom   10 type  2   force =     0.00017092   -0.00000927    0.00003693
     atom   11 type  2   force =     0.00004226   -0.00034666   -0.00037552
     atom   12 type  2   force =    -0.00005586   -0.00052162   -0.00051293
     atom   13 type  1   force =     0.00047093    0.00023632    0.00008478
     atom   14 type  1   force =    -0.00026479   -0.00047961   -0.00042864
     atom   15 type  2   force =     0.00004474   -0.00054594    0.00032865
     atom   16 type  2   force =    -0.00008548    0.00030534   -0.00022992
     atom   17 type  2   force =    -0.00043016   -0.00061637    0.00006427
     atom   18 type  2   force =     0.00004464   -0.00048911    0.00018840
     atom   19 type  1   force =     0.00042164   -0.00027673   -0.00011655
     atom   20 type  1   force =    -0.00009345   -0.00076551   -0.00086073
     atom   21 type  2   force =    -0.00003407    0.00010233    0.10394777
     atom   22 type  2   force =    -0.00001672   -0.00053313    0.00052148
     atom   23 type  2   force =    -0.06943130    0.00051999   -0.02946796
     atom   24 type  2   force =     0.06918770    0.00097803   -0.02952247
     atom   25 type  1   force =    -0.00003316    0.00156994    0.11483870
     atom   26 type  1   force =    -0.00022531   -0.00047822   -0.17916373
     atom   27 type  2   force =     0.00021322    0.00414866   -0.02604407
     atom   28 type  2   force =     0.00042946    0.00093007    0.04807565
     atom   29 type  2   force =    -0.01631704    0.00162652    0.00384922
     atom   30 type  2   force =     0.01737129    0.00217647    0.00362033
     atom   31 type  1   force =    -0.00014665    0.00009797   -0.00023345
     atom   32 type  1   force =     0.00011080   -0.00007271    0.00026399
     atom   33 type  2   force =     0.00028920   -0.00050665    0.00019844
     atom   34 type  2   force =    -0.00004045   -0.00030775   -0.00026814
     atom   35 type  2   force =    -0.00046675   -0.00013101    0.00002095
     atom   36 type  2   force =     0.00054344    0.00002122    0.00001024
     atom   37 type  1   force =     0.00046600   -0.00073270   -0.00005457
     atom   38 type  1   force =    -0.00036836   -0.00002586   -0.00036951
     atom   39 type  2   force =    -0.00041965   -0.00049206   -0.00048160
     atom   40 type  2   force =     0.00035782   -0.00040769   -0.00025554
     atom   41 type  2   force =    -0.00018786   -0.00003211    0.00004829
     atom   42 type  2   force =    -0.00032414   -0.00021671    0.00004093
     atom   43 type  1   force =     0.00026030    0.00010418    0.00135933
     atom   44 type  1   force =     0.00002180   -0.00034064   -0.00079502
     atom   45 type  2   force =    -0.00003592    0.00007998    0.10398334
     atom   46 type  2   force =    -0.06904023   -0.00107022   -0.02952538
     atom   47 type  2   force =     0.06885442   -0.00062602   -0.02960456
     atom   48 type  3   force =    -0.00024571    0.00001218    0.00034842
     atom   49 type  2   force =    -0.00000573    0.00025771   -0.00082835
     atom   50 type  4   force =    -0.00043375   -0.00005749    0.00002898
     atom   51 type  4   force =     0.00029515   -0.00028441    0.00015978
     atom   52 type  4   force =    -0.00004599    0.00037697   -0.00041468
     atom   53 type  5   force =     0.02858790   -0.00607231    0.02860976
     atom   54 type  5   force =    -0.02911057    0.00625518   -0.02901987
     atom   55 type  2   force =     0.00071242   -0.00004857    0.00039369
     atom   56 type  4   force =    -0.00157289    0.00013979   -0.00065895
     atom   57 type  4   force =    -0.00012493    0.00096773   -0.00021459

     Total force =     0.379053     Total SCF correction =     0.000414
  @ DRIVER MODE: Message from server: STATUS
  @ DRIVER MODE: Message from server: GETFORCE
  @ DRIVER MODE: Returning v,forces,stress,ensemble

     Writing output data file ./calc.save/
  @ DRIVER MODE: Message from server: EXIT
  @ DRIVE MODE: Exiting

     General routines

     Parallel routines

   This run was terminated on:  12:21: 8  26Sep2021

   JOB DONE.