     Program PWSCF v.6.7GPU starts on  9Sep2021 at  1:49:28

     R & G space division:  proc/nbgrp/npool/nimage =      10
     Reading input from /storage/home/hcoda1/3/ntian30/research/carbon/CxH_vib/CH3_calc/ads_slab/CH3N2H_a/out_0012/pw.inp
Warning: card &CELL ignored
Warning: card   CELL_DYNAMICS='IPI', ignored
Warning: card / ignored

     Current dimensions of program PWSCF are:
     Max number of different atomic species (ntypx) = 10
     Max number of k-points (npk) =  40000
     Max angular momentum in pseudopotentials (lmaxx) =  3
     Presently no symmetry can be used with electric field

     Message from routine cell_base_init:
     DEPRECATED: use true lattice parameter, not A to a.u. conversion factor

     IMPORTANT: XC functional enforced from input :
     Exchange-correlation= BEEF-VDW
                           (   1   4  43  14   2   0   0)
     Any further DFT definition will be discarded
     Please, verify this is what you really want

  @ DRIVER MODE: Connecting to
 qe_1139763_2767396.sched-torque.pace.gatech.edu36f30vty_scratch
  using UNIX socket
  @ DRIVER MODE: Message from server: STATUS
  @ DRIVER MODE: Message from server: INIT
  @ DRIVER MODE: Receiving replica           0          -1
  @ DRIVER MODE: Receiving encoded integer          25
  @ DRIVER MODE:  SCF:  T  FORCE:  T  STRESS:  F  VC:  F  ENSEMBLE:  F
  @ DRIVER MODE:  SCF:  T  FORCE:  T  STRESS:  F  VC:  F  ENSEMBLE:  F

     Using Slab Decomposition

     bravais-lattice index     =            0
     lattice parameter (alat)  =       1.8897  a.u.
     unit-cell volume          =    6658.9804 (a.u.)^3
     number of atoms/cell      =           54
     number of atomic types    =            5
     number of electrons       =       396.00
     number of Kohn-Sham states=          208
     kinetic-energy cutoff     =      29.3995  Ry
     charge density cutoff     =     293.9946  Ry
     scf convergence threshold =      7.3E-08
     mixing beta               =       0.0500
     number of iterations used =            8  plain     mixing
     Exchange-correlation= BEEF-VDW
                           (   1   4  43  14   2   0   0)

     celldm(1)=   1.889726  celldm(2)=   0.000000  celldm(3)=   0.000000
     celldm(4)=   0.000000  celldm(5)=   0.000000  celldm(6)=   0.000000

     crystal axes: (cart. coord. in units of alat)
               a(1) = (   6.579727   0.000000   0.000000 )
               a(2) = (  -0.000775   5.961596   0.000000 )
               a(3) = (   0.000000   0.000000  25.155947 )

     reciprocal axes: (cart. coord. in units 2 pi/alat)
               b(1) = (  0.151982  0.000020  0.000000 )
               b(2) = (  0.000000  0.167740  0.000000 )
               b(3) = (  0.000000  0.000000  0.039752 )

     PseudoPot. # 1 for Ti read from file:
     /storage/coda1/p-amedford6/0/shared/rich_project_chbe-medford/medford-share/data/pseudos_module/espresso/nninc/pbe/van/Ti.UPF
     MD5 check sum: 8e4df49b7f0d34bbd5052bf3f5ea0213
     Pseudo is Ultrasoft, Zval = 12.0
     Generated by new atomic code, or converted to UPF format
     Using radial grid of  851 points,  6 beta functions with:
                l(1) =   0
                l(2) =   0
                l(3) =   1
                l(4) =   1
                l(5) =   2
                l(6) =   2
     Q(r) pseudized with  8 coefficients,  rinner =    1.000   1.000   1.000
                                                       1.000   1.000

     PseudoPot. # 2 for O  read from file:
     /storage/coda1/p-amedford6/0/shared/rich_project_chbe-medford/medford-share/data/pseudos_module/espresso/nninc/pbe/van/O.UPF
     MD5 check sum: 78c19812648e8988a0fe644b0f25305e
     Pseudo is Ultrasoft, Zval =  6.0
     Generated by new atomic code, or converted to UPF format
     Using radial grid of  737 points,  4 beta functions with:
                l(1) =   0
                l(2) =   0
                l(3) =   1
                l(4) =   1
     Q(r) pseudized with  8 coefficients,  rinner =    0.800   0.800   0.800

     PseudoPot. # 3 for N  read from file:
     /storage/coda1/p-amedford6/0/shared/rich_project_chbe-medford/medford-share/data/pseudos_module/espresso/nninc/pbe/van/N.UPF
     MD5 check sum: 90d10febe142ad51ac9d5be1deb811c4
     Pseudo is Ultrasoft, Zval =  5.0
     Generated by new atomic code, or converted to UPF format
     Using radial grid of  729 points,  4 beta functions with:
                l(1) =   0
                l(2) =   0
                l(3) =   1
                l(4) =   1
     Q(r) pseudized with  8 coefficients,  rinner =    0.800   0.800   0.800

     PseudoPot. # 4 for C  read from file:
     /storage/coda1/p-amedford6/0/shared/rich_project_chbe-medford/medford-share/data/pseudos_module/espresso/nninc/pbe/van/C.UPF
     MD5 check sum: 1a69bf6b8db32088f5b2163dbdb77a27
     Pseudo is Ultrasoft, Zval =  4.0
     Generated by new atomic code, or converted to UPF format
     Using radial grid of  721 points,  4 beta functions with:
                l(1) =   0
                l(2) =   0
                l(3) =   1
                l(4) =   1
     Q(r) pseudized with  8 coefficients,  rinner =    0.800   0.800   0.800

     PseudoPot. # 5 for H  read from file:
     /storage/coda1/p-amedford6/0/shared/rich_project_chbe-medford/medford-share/data/pseudos_module/espresso/nninc/pbe/van/H.UPF
     MD5 check sum: b5ee9d7bfd3a09ee7748110bda690ff7
     Pseudo is Ultrasoft, Zval =  1.0
     Generated by new atomic code, or converted to UPF format
     Using radial grid of  615 points,  1 beta functions with:
                l(1) =   0
     Q(r) pseudized with  8 coefficients,  rinner =    0.800

     atomic species   valence    mass     pseudopotential
        Ti1           12.00    47.86700     Ti( 1.00)
        O1             6.00    15.99900     O ( 1.00)
        N1             5.00    14.00700     N ( 1.00)
        C1             4.00    12.01100     C ( 1.00)
        H1             1.00     1.00800     H ( 1.00)

     No symmetry found

   Cartesian axes

     site n.     atom                  positions (alat units)
         1           Ti1 tau(   1) = (   0.0004258   2.9801865   6.0000000  )
         2           Ti1 tau(   2) = (   3.2906075   1.4906267   6.0002472  )
         3           O1  tau(   3) = (   0.0006271   0.0005054   7.9858123  )
         4           O1  tau(   4) = (   3.2906025   0.0005020   7.3038282  )
         5           O1  tau(   5) = (   4.5942328   1.4918067   9.2879030  )
         6           O1  tau(   6) = (   1.9868534   1.4903216   9.2879459  )
         7           Ti1 tau(   7) = (   3.2907910   2.8959150   9.1758416  )
         8           Ti1 tau(   8) = (   0.0015273   1.4827037   9.2680791  )
         9           O1  tau(   9) = (   3.2896288   0.0042867  11.3205077  )
        10           O1  tau(  10) = (   0.0116148   5.9584955  10.6183126  )
        11           O1  tau(  11) = (   1.2848067   1.4985890  12.6232755  )
        12           O1  tau(  12) = (   5.2688617   1.4893877  12.6055203  )
        13           Ti1 tau(  13) = (   0.0799559   3.0171279  12.6206390  )
        14           Ti1 tau(  14) = (   3.4009582   1.4891986  12.4726338  )
        15           O1  tau(  15) = (   6.5707323   0.0080309  14.6263129  )
        16           O1  tau(  16) = (   3.2902489   0.0120312  13.8979102  )
        17           O1  tau(  17) = (   4.5126121   1.5346005  16.0500440  )
        18           O1  tau(  18) = (   2.0453867   1.5362785  16.0447169  )
        19           Ti1 tau(  19) = (   3.2767562   3.0203775  15.6892921  )
        20           Ti1 tau(  20) = (   6.5596632   1.5778499  15.8310978  )
        21           O1  tau(  21) = (   3.2904802   0.0005063   4.7018136  )
        22           O1  tau(  22) = (   6.5709656   0.0671247  17.2345223  )
        23           O1  tau(  23) = (   1.3043587   1.4918075   6.0039043  )
        24           O1  tau(  24) = (   5.2767064   1.4903225   6.0039473  )
        25           Ti1 tau(  25) = (   0.0000382   5.9609847   6.0000000  )
        26           Ti1 tau(  26) = (   3.2902200   4.4714249   6.0002472  )
        27           O1  tau(  27) = (   0.0002396   2.9813036   7.9858123  )
        28           O1  tau(  28) = (   3.2902150   2.9813002   7.3038282  )
        29           O1  tau(  29) = (   4.5938453   4.4726049   9.2879030  )
        30           O1  tau(  30) = (   1.9864658   4.4711199   9.2879459  )
        31           Ti1 tau(  31) = (   3.2891106   5.8743827   9.1763621  )
        32           Ti1 tau(  32) = (   0.0006254   4.4649316   9.2693709  )
        33           O1  tau(  33) = (   3.2919429   2.9835650  11.3172650  )
        34           O1  tau(  34) = (   0.0092240   2.9805883  10.6323155  )
        35           O1  tau(  35) = (   1.2842535   4.4799506  12.6241420  )
        36           O1  tau(  36) = (   5.2755836   4.4732255  12.6042992  )
        37           Ti1 tau(  37) = (   0.0783641   0.0295629  12.6394962  )
        38           Ti1 tau(  38) = (   3.4022659   4.4693352  12.4708195  )
        39           O1  tau(  39) = (   6.5693815   2.9799975  14.6326336  )
        40           O1  tau(  40) = (   3.2899495   3.0014797  13.8849495  )
        41           O1  tau(  41) = (   4.5062741   4.5069571  16.0893315  )
        42           O1  tau(  42) = (   2.0480812   4.5060041  16.0753496  )
        43           Ti1 tau(  43) = (   3.2742444   0.0367023  15.7020416  )
        44           Ti1 tau(  44) = (   6.5658628   4.6518251  16.1481936  )
        45           O1  tau(  45) = (   3.2900926   2.9813045   4.7018136  )
        46           O1  tau(  46) = (   1.3039711   4.4726057   6.0039043  )
        47           O1  tau(  47) = (   5.2763189   4.4711207   6.0039473  )
        48           N1  tau(  48) = (   6.5201982   2.6597193  18.5868863  )
        49           N1  tau(  49) = (   6.5663212   2.9659568  17.3351533  )
        50           C1  tau(  50) = (   0.1092964   3.6297355  19.6533281  )
        51           H1  tau(  51) = (   6.1365678   4.5355971  19.4091500  )
        52           H1  tau(  52) = (   6.3142024   3.1981282  20.5813133  )
        53           H1  tau(  53) = (   1.1661384   3.8973747  19.7839464  )
        54           H1  tau(  54) = (   6.5756389   1.6632157  18.8047554  )

     number of k points=    10  Fermi-Dirac smearing, width (Ry)=  0.0073
                       cart. coord. in units 2pi/alat
        k(    1) = (   0.0000000   0.0000000   0.0000000), wk =   0.1250000
        k(    2) = (   0.0000000   0.0419351   0.0000000), wk =   0.2500000
        k(    3) = (   0.0000000  -0.0838702   0.0000000), wk =   0.1250000
        k(    4) = (   0.0379955   0.0000049   0.0000000), wk =   0.2500000
        k(    5) = (   0.0379955   0.0419400   0.0000000), wk =   0.2500000
        k(    6) = (   0.0379955  -0.0838652   0.0000000), wk =   0.2500000
        k(    7) = (   0.0379955  -0.0419301   0.0000000), wk =   0.2500000
        k(    8) = (  -0.0759910  -0.0000099   0.0000000), wk =   0.1250000
        k(    9) = (  -0.0759910   0.0419252   0.0000000), wk =   0.2500000
        k(   10) = (  -0.0759910  -0.0838800   0.0000000), wk =   0.1250000

     Initial potential from superposition of free atoms

     starting charge  379.99915, renormalised to  396.00000

     negative rho (up, down):  1.474E-02 0.000E+00

     %%%%%%%%%%%%%%%%%%%%%%%%%%%%%%%%%%%%%%%%%%%%%%%%%%%%%%%%%%%%%%%%%%%%%%%%
     %                                                                      %
     % You are using vdW-DF, which was implemented by the Thonhauser group. %
     % Please cite the following two papers that made this development      %
     % possible and the two reviews that describe the various versions:     %
     %                                                                      %
     %   T. Thonhauser et al., PRL 115, 136402 (2015).                      %
     %   T. Thonhauser et al., PRB 76, 125112 (2007).                       %
     %   K. Berland et al., Rep. Prog. Phys. 78, 066501 (2015).             %
     %   D.C. Langreth et al., J. Phys.: Condens. Matter 21, 084203 (2009). %
     %                                                                      %
     %                                                                      %
     % If you are calculating the stress with vdW-DF, please also cite:     %
     %                                                                      %
     %   R. Sabatini et al., J. Phys.: Condens. Matter 24, 424209 (2012).   %
     %                                                                      %
     %%%%%%%%%%%%%%%%%%%%%%%%%%%%%%%%%%%%%%%%%%%%%%%%%%%%%%%%%%%%%%%%%%%%%%%%

     Adding external electric field

     Computed dipole along edir(3) :
        Dipole               -9.2744 Ry au,        -23.5732 Debye
        Dipole field         -0.0175 Ry au,

        Potential amp.        1.6224 Ry
        Total length         46.3494 bohr

     Starting wfcs are  300 atomic wfcs
  @ DRIVER MODE: Message from server: STATUS
  @ DRIVER MODE: Message from server: POSDATA
  @ DRIVER MODE: Reading and sharing cell
  @ DRIVER MODE: Reading and sharing positions
  @ DRIVER MODE: Received positions

     Self-consistent Calculation

     iteration #  1     ecut=    29.40 Ry     beta= 0.05
     Davidson diagonalization with overlap
     c_bands:  1 eigenvalues not converged
     c_bands:  1 eigenvalues not converged
     c_bands:  1 eigenvalues not converged
     ethr =  1.00E-05,  avg # of iterations = 18.1

[...]

     total energy              =   -2584.14370379 Ry
     estimated scf accuracy    <    3958.98067889 Ry

     iteration #  2     ecut=    29.40 Ry     beta= 0.05
     Davidson diagonalization with overlap
     ethr =  1.00E-02,  avg # of iterations = 22.6

[...]

     iteration # 53     ecut=    29.40 Ry     beta= 0.05
     Davidson diagonalization with overlap
     c_bands:  1 eigenvalues not converged
     ethr =  1.89E-08,  avg # of iterations =  7.5

[...]

     total energy              =   -2940.39752426 Ry
     estimated scf accuracy    <       0.00000013 Ry

     iteration # 73     ecut=    29.40 Ry     beta= 0.05
     Davidson diagonalization with overlap
     ethr =  2.65E-11,  avg # of iterations =  7.0

     negative rho (up, down):  1.566E-02 0.000E+00

     Adding external electric field

     Computed dipole along edir(3) :
        Dipole                1.1468 Ry au,          2.9150 Debye
        Dipole field          0.0022 Ry au,

        Potential amp.       -0.2006 Ry
        Total length         46.3494 bohr

     End of self-consistent calculation

          k = 0.0000 0.0000 0.0000 ( 18029 PWs)   bands (ev):

   -55.6268 -55.5928 -55.5382 -55.5006 -55.3913 -55.3739 -55.3575 -55.3343
   -55.3318 -55.3315 -55.3005 -55.2609 -54.7309 -54.5694 -54.5629 -54.5354
   -32.1015 -32.0821 -31.9211 -31.9082 -31.8835 -31.8477 -31.8336 -31.8239
   -31.7800 -31.7754 -31.7667 -31.7237 -31.7186 -31.7004 -31.6872 -31.6855
   -31.6690 -31.6573 -31.6345 -31.6128 -31.5941 -31.5697 -31.5630 -31.5606
   -31.5357 -31.5333 -31.5267 -31.5206 -31.5150 -31.4980 -31.4931 -31.4879
   -31.4874 -31.4465 -31.4429 -31.3759 -31.2284 -30.9751 -30.9532 -30.9387
   -30.9006 -30.8905 -30.8678 -30.7920 -30.7698 -30.7421 -30.7057 -30.5947
   -18.1457 -16.2666 -16.0359 -15.7605 -15.6673 -15.6378 -15.5177 -15.3814
   -15.2788 -15.1888 -15.1429 -15.0910 -15.0896 -15.0587 -15.0245 -14.9896
   -14.9662 -14.9225 -14.9201 -14.8857 -14.8746 -14.8656 -14.7392 -14.7369
   -14.7063 -14.6120 -14.6016 -14.5430 -14.5078 -14.0918 -13.0717 -12.9560
   -12.0635  -8.9593  -5.7728  -4.4836  -4.2002  -3.6489  -3.5198  -3.4913
    -3.3899  -3.2316  -3.1241  -3.0686  -2.9789  -2.7502  -2.7186  -2.7077
    -2.6883  -2.6323  -2.4299  -2.4029  -2.3777  -2.3334  -2.3258  -2.3225
    -2.3076  -2.2475  -2.1909  -2.1154  -2.0360  -2.0265  -1.9586  -1.9447
    -1.9218  -1.9000  -1.8495  -1.8075  -1.7851  -1.7489  -1.7238  -1.7223
    -1.6899  -1.6055  -1.4973  -1.3636  -1.3356  -1.2927  -1.2479  -1.1821
    -1.0169  -1.0110  -0.9678  -0.9588  -0.9325  -0.8526  -0.8010  -0.7003
    -0.6769  -0.5948  -0.5731  -0.5498  -0.4735  -0.3864  -0.3635  -0.3483
    -0.3387  -0.3234  -0.2720  -0.1670  -0.0577  -0.0335   0.0863   0.0962
     0.1318   0.1797   0.1908   0.2749   0.3150   0.3250   0.3810   0.3827
     0.3914   0.4337   0.4567   0.5124   0.5668   0.6567   0.7295   0.7958
     0.8310   0.9513   1.0234   1.0911   1.1098   1.2434   1.3680   1.3903
     1.4522   1.6432   1.6501   2.0208   2.0651   3.5440   3.5658   3.6588
     3.7008   3.7965   3.8354   3.9823   4.0237   4.0711   4.1847   4.2155

[...]

          k = 0.0380-0.0419 0.0000 ( 17876 PWs)   bands (ev):

[...]

          k =-0.0760-0.0000 0.0000 ( 17886 PWs)   bands (ev):

[...]

          k =-0.0760-0.0839 0.0000 ( 17948 PWs)   bands (ev):

   -55.6099 -55.6096 -55.5251 -55.5135 -55.3743 -55.3741 -55.3649 -55.3404
   -55.3272 -55.3188 -55.3161 -55.2653 -54.7294 -54.5644 -54.5524 -54.5523
   -31.9170 -31.9169 -31.9063 -31.9063 -31.8898 -31.8805 -31.7838 -31.7740
   -31.7501 -31.7373 -31.7307 -31.7302 -31.6864 -31.6835 -31.6802 -31.6732
   -31.6595 -31.6594 -31.6556 -31.6400 -31.5953 -31.5898 -31.5711 -31.5677
   -31.5644 -31.5627 -31.5609 -31.5530 -31.5492 -31.5473 -31.5359 -31.5337
   -31.5308 -31.5174 -31.4918 -31.4633 -31.1378 -30.9752 -30.9397 -30.9269
   -30.8806 -30.8805 -30.7894 -30.7882 -30.7880 -30.7711 -30.7489 -30.7489
   -18.1404 -15.6905 -15.6792 -15.4946 -15.4894 -15.4334 -15.4274 -15.2710
   -15.2701 -15.2563 -15.2477 -15.1197 -15.1160 -15.0945 -15.0881 -15.0465
   -15.0409 -15.0126 -15.0049 -15.0023 -14.9972 -14.9795 -14.9323 -14.8832
   -14.8776 -14.7109 -14.7045 -14.5862 -14.5587 -14.2280 -13.0580 -13.0579
   -12.0641  -8.9692  -5.7642  -4.4249  -4.2029  -2.9988  -2.9803  -2.9685
    -2.6927  -2.6875  -2.6614  -2.6500  -2.4482  -2.4347  -2.4130  -2.4072
    -2.3811  -2.3738  -2.3603  -2.3528  -2.2762  -2.2633  -2.2490  -2.2387
    -2.2208  -2.2139  -2.1997  -2.1908  -2.1810  -2.1467  -2.1210  -2.0879
    -2.0529  -2.0332  -1.9167  -1.8087  -1.7204  -1.7129  -1.6805  -1.6741
    -1.6674  -1.6606  -1.6322  -1.5273  -1.5020  -1.4341  -1.2917  -1.2508
    -1.2414  -1.1924  -1.1042  -1.0263  -0.9582  -0.9499  -0.8945  -0.8511
    -0.8264  -0.7457  -0.7215  -0.7125  -0.6500  -0.6112  -0.5661  -0.5557
    -0.5491  -0.4843  -0.4404  -0.3845  -0.3573  -0.3263  -0.2837  -0.2613
    -0.2005  -0.1696  -0.0978  -0.0927  -0.0440  -0.0358   0.0244   0.1732
     0.2224   0.4802   0.4977   0.5231   0.6444   0.7241   0.7305   0.7525
     0.7818   0.8326   0.8436   0.9800   0.9919   0.9991   1.1644   1.1884
     1.2646   1.8206   1.8208   1.8842   1.8845   3.4483   3.9297   3.9477
     3.9741   3.9895   4.0651   4.0663   4.0727   4.0799   4.2752   4.2930

     the Fermi energy is     3.5214 ev

!    total energy              =   -2940.39753745 Ry
     estimated scf accuracy    <       0.00000003 Ry
     smearing contrib. (-TS)   =      -0.02324752 Ry
     internal energy E=F+TS    =   -2940.37428993 Ry

     The total energy is F=E-TS. E is the sum of the following terms:
     one-electron contribution =  -24107.06085428 Ry
     hartree contribution      =   12144.83212133 Ry
     xc contribution           =    -486.05417475 Ry
     ewald contribution        =    9507.90613575 Ry
     electric field correction =       0.00248201 Ry

     convergence has been achieved in  73 iterations

     Forces acting on atoms (cartesian axes, Ry/au):

     atom    1 type  1   force =     0.00015892   -0.00011364    0.09931663
     atom    2 type  1   force =    -0.00012912   -0.00047195   -0.17362280
     atom    3 type  2   force =    -0.00005018   -0.00000103   -0.02873859
     atom    4 type  2   force =     0.00007326   -0.00125146    0.05002614
     atom    5 type  2   force =    -0.01307067    0.00057342    0.00124986
     atom    6 type  2   force =     0.01462272    0.00138206   -0.00007478
     atom    7 type  1   force =    -0.00144699   -0.00058427   -0.00849985
     atom    8 type  1   force =     0.00087484   -0.00412762    0.04493765
     atom    9 type  2   force =    -0.00002368   -0.00065673   -0.00011900
     atom   10 type  2   force =    -0.00127411    0.00228148   -0.02806566
     atom   11 type  2   force =     0.00018167    0.00062045    0.00011606
     atom   12 type  2   force =     0.00037332    0.00040961    0.00026272
     atom   13 type  1   force =     0.00032694    0.00020692   -0.00156766
     atom   14 type  1   force =    -0.00003550    0.00049231   -0.00005816
     atom   15 type  2   force =     0.00031065    0.00033783    0.00139567
     atom   16 type  2   force =    -0.00041886   -0.00022964    0.00038508
     atom   17 type  2   force =    -0.00049922    0.00034907   -0.00018140
     atom   18 type  2   force =     0.00039793    0.00040089    0.00056979
     atom   19 type  1   force =     0.00020407    0.00005190   -0.00073073
     atom   20 type  1   force =    -0.00045251   -0.00079456    0.00037264
     atom   21 type  2   force =     0.00009051   -0.00007139    0.10276164
     atom   22 type  2   force =     0.00010595    0.00037292    0.00042834
     atom   23 type  2   force =    -0.07213438   -0.00016078   -0.02831974
     atom   24 type  2   force =     0.07213202    0.00029776   -0.02831615
     atom   25 type  1   force =     0.00012370   -0.00019655    0.09861759
     atom   26 type  1   force =    -0.00010710   -0.00046370   -0.17382872
     atom   27 type  2   force =     0.00001195   -0.00002605   -0.02802032
     atom   28 type  2   force =     0.00011490   -0.00100306    0.04947754
     atom   29 type  2   force =    -0.01339035    0.00005043    0.00131247
     atom   30 type  2   force =     0.01484995    0.00041680   -0.00003310
     atom   31 type  1   force =    -0.00139583    0.00251654   -0.00876795
     atom   32 type  1   force =     0.00106316    0.00238416    0.04525813
     atom   33 type  2   force =    -0.00012182    0.00104580    0.00070203
     atom   34 type  2   force =    -0.00069996    0.00121118   -0.03079009
     atom   35 type  2   force =     0.00067720   -0.00050583   -0.00002767
     atom   36 type  2   force =    -0.00151238   -0.00010885    0.00021980
     atom   37 type  1   force =    -0.00023175   -0.00153858   -0.00082799
     atom   38 type  1   force =     0.00071629   -0.00005211    0.00013341
     atom   39 type  2   force =     0.00031424    0.00004082    0.00102907
     atom   40 type  2   force =    -0.00041179    0.00031525    0.00048420
     atom   41 type  2   force =     0.00083544   -0.00080410    0.00030854
     atom   42 type  2   force =    -0.00080414   -0.00091607    0.00078230
     atom   43 type  1   force =     0.00035841   -0.00041738   -0.00109639
     atom   44 type  1   force =    -0.00031469   -0.00111191   -0.00010071
     atom   45 type  2   force =     0.00010904   -0.00006810    0.10278111
     atom   46 type  2   force =    -0.07215783   -0.00009761   -0.02831393
     atom   47 type  2   force =     0.07214250    0.00034428   -0.02829237
     atom   48 type  3   force =     0.00023900   -0.00320796    0.01213533
     atom   49 type  3   force =     0.00012679    0.00303245   -0.01931312
     atom   50 type  4   force =     0.00080697    0.00047191    0.00290044
     atom   51 type  5   force =    -0.00019886   -0.00060835   -0.00006777
     atom   52 type  5   force =     0.00040330    0.00021702   -0.00027944
     atom   53 type  5   force =    -0.00111235    0.00033885   -0.00113424
     atom   54 type  5   force =    -0.00075160   -0.00057281    0.00122415

     Total force =     0.372868     Total SCF correction =     0.000413
  @ DRIVER MODE: Message from server: STATUS
  @ DRIVER MODE: Message from server: GETFORCE
  @ DRIVER MODE: Returning v,forces,stress,ensemble

     Writing output data file ./calc.save/
  @ DRIVER MODE: Message from server: EXIT
  @ DRIVE MODE: Exiting

     General routines

     Parallel routines

   This run was terminated on:   2: 7:23   9Sep2021

   JOB DONE.