     Program PWSCF v.6.7GPU starts on  9Sep2021 at  4:38: 3

     R & G space division:  proc/nbgrp/npool/nimage =      10
     Reading input from /storage/home/hcoda1/3/ntian30/research/carbon/CxH_vib/CH3_calc/ads_slab/CH3NNHHH_a/out_0020/pw.inp
Warning: card &CELL ignored
Warning: card   CELL_DYNAMICS='IPI', ignored
Warning: card / ignored

     Current dimensions of program PWSCF are:
     Max number of different atomic species (ntypx) = 10
     Max number of k-points (npk) =  40000
     Max angular momentum in pseudopotentials (lmaxx) =  3
     Presently no symmetry can be used with electric field

     Message from routine cell_base_init:
     DEPRECATED: use true lattice parameter, not A to a.u. conversion factor

     IMPORTANT: XC functional enforced from input :
     Exchange-correlation= BEEF-VDW
                           (   1   4  43  14   2   0   0)
     Any further DFT definition will be discarded
     Please, verify this is what you really want

  @ DRIVER MODE: Connecting to
 qe_1139763_2767399.sched-torque.pace.gatech.edud1kx3iq__scratch
  using UNIX socket
  @ DRIVER MODE: Message from server: STATUS
  @ DRIVER MODE: Message from server: INIT
  @ DRIVER MODE: Receiving replica           0          -1
  @ DRIVER MODE: Receiving encoded integer          25
  @ DRIVER MODE:  SCF:  T  FORCE:  T  STRESS:  F  VC:  F  ENSEMBLE:  F
  @ DRIVER MODE:  SCF:  T  FORCE:  T  STRESS:  F  VC:  F  ENSEMBLE:  F

     Using Slab Decomposition

     bravais-lattice index     =            0
     lattice parameter (alat)  =       1.8897  a.u.
     unit-cell volume          =    6658.9804 (a.u.)^3
     number of atoms/cell      =           56
     number of atomic types    =            5
     number of electrons       =       398.00
     number of Kohn-Sham states=          209
     kinetic-energy cutoff     =      29.3995  Ry
     charge density cutoff     =     293.9946  Ry
     scf convergence threshold =      7.3E-08
     mixing beta               =       0.0500
     number of iterations used =            8  plain     mixing
     Exchange-correlation= BEEF-VDW
                           (   1   4  43  14   2   0   0)

     celldm(1)=   1.889726  celldm(2)=   0.000000  celldm(3)=   0.000000
     celldm(4)=   0.000000  celldm(5)=   0.000000  celldm(6)=   0.000000

     crystal axes: (cart. coord. in units of alat)
               a(1) = (   6.579727   0.000000   0.000000 )
               a(2) = (  -0.000775   5.961596   0.000000 )
               a(3) = (   0.000000   0.000000  25.155947 )

     reciprocal axes: (cart. coord. in units 2 pi/alat)
               b(1) = (  0.151982  0.000020  0.000000 )
               b(2) = (  0.000000  0.167740  0.000000 )
               b(3) = (  0.000000  0.000000  0.039752 )

     PseudoPot. # 1 for Ti read from file:
     /storage/coda1/p-amedford6/0/shared/rich_project_chbe-medford/medford-share/data/pseudos_module/espresso/nninc/pbe/van/Ti.UPF
     MD5 check sum: 8e4df49b7f0d34bbd5052bf3f5ea0213
     Pseudo is Ultrasoft, Zval = 12.0
     Generated by new atomic code, or converted to UPF format
     Using radial grid of  851 points,  6 beta functions with:
                l(1) =   0
                l(2) =   0
                l(3) =   1
                l(4) =   1
                l(5) =   2
                l(6) =   2
     Q(r) pseudized with  8 coefficients,  rinner =    1.000   1.000   1.000
                                                       1.000   1.000

     PseudoPot. # 2 for O  read from file:
     /storage/coda1/p-amedford6/0/shared/rich_project_chbe-medford/medford-share/data/pseudos_module/espresso/nninc/pbe/van/O.UPF
     MD5 check sum: 78c19812648e8988a0fe644b0f25305e
     Pseudo is Ultrasoft, Zval =  6.0
     Generated by new atomic code, or converted to UPF format
     Using radial grid of  737 points,  4 beta functions with:
                l(1) =   0
                l(2) =   0
                l(3) =   1
                l(4) =   1
     Q(r) pseudized with  8 coefficients,  rinner =    0.800   0.800   0.800

     PseudoPot. # 3 for N  read from file:
     /storage/coda1/p-amedford6/0/shared/rich_project_chbe-medford/medford-share/data/pseudos_module/espresso/nninc/pbe/van/N.UPF
     MD5 check sum: 90d10febe142ad51ac9d5be1deb811c4
     Pseudo is Ultrasoft, Zval =  5.0
     Generated by new atomic code, or converted to UPF format
     Using radial grid of  729 points,  4 beta functions with:
                l(1) =   0
                l(2) =   0
                l(3) =   1
                l(4) =   1
     Q(r) pseudized with  8 coefficients,  rinner =    0.800   0.800   0.800

     PseudoPot. # 4 for C  read from file:
     /storage/coda1/p-amedford6/0/shared/rich_project_chbe-medford/medford-share/data/pseudos_module/espresso/nninc/pbe/van/C.UPF
     MD5 check sum: 1a69bf6b8db32088f5b2163dbdb77a27
     Pseudo is Ultrasoft, Zval =  4.0
     Generated by new atomic code, or converted to UPF format
     Using radial grid of  721 points,  4 beta functions with:
                l(1) =   0
                l(2) =   0
                l(3) =   1
                l(4) =   1
     Q(r) pseudized with  8 coefficients,  rinner =    0.800   0.800   0.800

     PseudoPot. # 5 for H  read from file:
     /storage/coda1/p-amedford6/0/shared/rich_project_chbe-medford/medford-share/data/pseudos_module/espresso/nninc/pbe/van/H.UPF
     MD5 check sum: b5ee9d7bfd3a09ee7748110bda690ff7
     Pseudo is Ultrasoft, Zval =  1.0
     Generated by new atomic code, or converted to UPF format
     Using radial grid of  615 points,  1 beta functions with:
                l(1) =   0
     Q(r) pseudized with  8 coefficients,  rinner =    0.800

     atomic species   valence    mass     pseudopotential
        Ti1           12.00    47.86700     Ti( 1.00)
        O1             6.00    15.99900     O ( 1.00)
        N1             5.00    14.00700     N ( 1.00)
        C1             4.00    12.01100     C ( 1.00)
        H1             1.00     1.00800     H ( 1.00)

     No symmetry found

   Cartesian axes

     site n.     atom                  positions (alat units)
         1           Ti1 tau(   1) = (   0.0004258   2.9801865   6.0000000  )
         2           Ti1 tau(   2) = (   3.2906075   1.4906267   6.0002472  )
         3           O1  tau(   3) = (   0.0006271   0.0005054   7.9858123  )
         4           O1  tau(   4) = (   3.2906025   0.0005020   7.3038282  )
         5           O1  tau(   5) = (   4.5942328   1.4918067   9.2879030  )
         6           O1  tau(   6) = (   1.9868534   1.4903216   9.2879459  )
         7           Ti1 tau(   7) = (   3.2907910   2.8959150   9.1758416  )
         8           Ti1 tau(   8) = (   0.0015273   1.4827037   9.2680791  )
         9           O1  tau(   9) = (   3.3120675   0.0079458  11.3762204  )
        10           O1  tau(  10) = (   0.0116148   5.9584955  10.6183126  )
        11           O1  tau(  11) = (   1.3148726   1.5133626  12.6447579  )
        12           O1  tau(  12) = (   5.3140862   1.5122126  12.6508301  )
        13           Ti1 tau(  13) = (   0.0289753   2.9995974  12.5105963  )
        14           Ti1 tau(  14) = (   3.3300932   1.5144954  12.5190352  )
        15           O1  tau(  15) = (   0.0303621   0.0967028  14.6836000  )
        16           O1  tau(  16) = (   3.3188409   0.0235386  14.0025835  )
        17           O1  tau(  17) = (   4.5661268   1.5053193  16.2317874  )
        18           O1  tau(  18) = (   2.0488868   1.5039614  16.2002260  )
        19           Ti1 tau(  19) = (   3.3211226   2.9745325  15.7560014  )
        20           Ti1 tau(  20) = (   0.0641794   1.4487855  16.0607878  )
        21           O1  tau(  21) = (   3.2904802   0.0005063   4.7018136  )
        22           O1  tau(  22) = (   0.0207051   5.8381987  17.2232637  )
        23           O1  tau(  23) = (   1.3043587   1.4918075   6.0039043  )
        24           O1  tau(  24) = (   5.2767064   1.4903225   6.0039473  )
        25           Ti1 tau(  25) = (   0.0000382   5.9609847   6.0000000  )
        26           Ti1 tau(  26) = (   3.2902200   4.4714249   6.0002472  )
        27           O1  tau(  27) = (   0.0002396   2.9813036   7.9858123  )
        28           O1  tau(  28) = (   3.2902150   2.9813002   7.3038282  )
        29           O1  tau(  29) = (   4.5938453   4.4726049   9.2879030  )
        30           O1  tau(  30) = (   1.9864658   4.4711199   9.2879459  )
        31           Ti1 tau(  31) = (   3.2891106   5.8743827   9.1763621  )
        32           Ti1 tau(  32) = (   0.0006254   4.4649316   9.2693709  )
        33           O1  tau(  33) = (   3.3137607   3.0039157  11.3695003  )
        34           O1  tau(  34) = (   0.0092240   2.9805883  10.6323155  )
        35           O1  tau(  35) = (   1.3103219   4.4840529  12.6837359  )
        36           O1  tau(  36) = (   5.3166572   4.4842854  12.6901167  )
        37           Ti1 tau(  37) = (   0.0376818   0.0300362  12.4998423  )
        38           Ti1 tau(  38) = (   3.3279277   4.4933691  12.5326681  )
        39           O1  tau(  39) = (   0.0236785   2.9473731  14.9547601  )
        40           O1  tau(  40) = (   3.3158584   2.9778716  13.9675922  )
        41           O1  tau(  41) = (   4.5769684   4.4551829  16.1482216  )
        42           O1  tau(  42) = (   2.0574928   4.4544973  16.1629196  )
        43           Ti1 tau(  43) = (   3.3270828   0.0048838  15.7999907  )
        44           Ti1 tau(  44) = (   0.0216784   4.6657176  15.8371636  )
        45           O1  tau(  45) = (   3.2900926   2.9813045   4.7018136  )
        46           O1  tau(  46) = (   1.3039711   4.4726057   6.0039043  )
        47           O1  tau(  47) = (   5.2763189   4.4711207   6.0039473  )
        48           N1  tau(  48) = (   1.0300599   3.1028741  18.8625222  )
        49           N1  tau(  49) = (   6.4529598   2.6395754  18.1308714  )
        50           C1  tau(  50) = (   0.6566364   3.8075245  20.0867497  )
        51           H1  tau(  51) = (   6.5434193   4.6337433  19.9095685  )
        52           H1  tau(  52) = (   0.2127083   3.1054723  20.7945791  )
        53           H1  tau(  53) = (   1.5644534   4.2160081  20.5287796  )
        54           H1  tau(  54) = (   5.6912064   3.3271340  18.1715891  )
        55           H1  tau(  55) = (   6.1153184   1.7991689  18.5966666  )
        56           H1  tau(  56) = (   1.4989484   3.7555826  18.2384742  )

     number of k points=    10  Fermi-Dirac smearing, width (Ry)=  0.0073
                       cart. coord. in units 2pi/alat
        k(    1) = (   0.0000000   0.0000000   0.0000000), wk =   0.1250000
        k(    2) = (   0.0000000   0.0419351   0.0000000), wk =   0.2500000
        k(    3) = (   0.0000000  -0.0838702   0.0000000), wk =   0.1250000
        k(    4) = (   0.0379955   0.0000049   0.0000000), wk =   0.2500000
        k(    5) = (   0.0379955   0.0419400   0.0000000), wk =   0.2500000
        k(    6) = (   0.0379955  -0.0838652   0.0000000), wk =   0.2500000
        k(    7) = (   0.0379955  -0.0419301   0.0000000), wk =   0.2500000
        k(    8) = (  -0.0759910  -0.0000099   0.0000000), wk =   0.1250000
        k(    9) = (  -0.0759910   0.0419252   0.0000000), wk =   0.2500000
        k(   10) = (  -0.0759910  -0.0838800   0.0000000), wk =   0.1250000

     Initial potential from superposition of free atoms

     starting charge  381.99914, renormalised to  398.00000

     negative rho (up, down):  1.340E-02 0.000E+00

     %%%%%%%%%%%%%%%%%%%%%%%%%%%%%%%%%%%%%%%%%%%%%%%%%%%%%%%%%%%%%%%%%%%%%%%%
     %                                                                      %
     % You are using vdW-DF, which was implemented by the Thonhauser group. %
     % Please cite the following two papers that made this development      %
     % possible and the two reviews that describe the various versions:     %
     %                                                                      %
     %   T. Thonhauser et al., PRL 115, 136402 (2015).                      %
     %   T. Thonhauser et al., PRB 76, 125112 (2007).                       %
     %   K. Berland et al., Rep. Prog. Phys. 78, 066501 (2015).             %
     %   D.C. Langreth et al., J. Phys.: Condens. Matter 21, 084203 (2009). %
     %                                                                      %
     %                                                                      %
     % If you are calculating the stress with vdW-DF, please also cite:     %
     %                                                                      %
     %   R. Sabatini et al., J. Phys.: Condens. Matter 24, 424209 (2012).   %
     %                                                                      %
     %%%%%%%%%%%%%%%%%%%%%%%%%%%%%%%%%%%%%%%%%%%%%%%%%%%%%%%%%%%%%%%%%%%%%%%%

     Adding external electric field

     Computed dipole along edir(3) :
        Dipole              -11.7464 Ry au,        -29.8564 Debye
        Dipole field         -0.0222 Ry au,

        Potential amp.        2.0549 Ry
        Total length         46.3494 bohr

     Starting wfcs are  302 atomic wfcs
  @ DRIVER MODE: Message from server: STATUS
  @ DRIVER MODE: Message from server: POSDATA
  @ DRIVER MODE: Reading and sharing cell
  @ DRIVER MODE: Reading and sharing positions
  @ DRIVER MODE: Received positions

     Self-consistent Calculation

     iteration #  1     ecut=    29.40 Ry     beta= 0.05
     Davidson diagonalization with overlap
     c_bands:  1 eigenvalues not converged
     c_bands:  1 eigenvalues not converged
     c_bands:  1 eigenvalues not converged
     c_bands:  3 eigenvalues not converged
     c_bands:  3 eigenvalues not converged
     c_bands:  3 eigenvalues not converged
     c_bands:  4 eigenvalues not converged
     c_bands:  2 eigenvalues not converged
     ethr =  1.00E-05,  avg # of iterations = 21.6

[...]

     total energy              =   -2428.07485303 Ry
     estimated scf accuracy    <    5789.76744413 Ry

     iteration #  2     ecut=    29.40 Ry     beta= 0.05
     Davidson diagonalization with overlap
     ethr =  1.00E-02,  avg # of iterations = 22.0

[...]

     iteration # 56     ecut=    29.40 Ry     beta= 0.05
     Davidson diagonalization with overlap
     c_bands:  1 eigenvalues not converged
     ethr =  5.74E-11,  avg # of iterations =  9.3

[...]

     total energy              =   -2942.85964890 Ry
     estimated scf accuracy    <       0.00000025 Ry

     iteration # 58     ecut=    29.40 Ry     beta= 0.05
     Davidson diagonalization with overlap
     ethr =  5.63E-11,  avg # of iterations = 12.8

     negative rho (up, down):  1.465E-02 0.000E+00

     Adding external electric field

     Computed dipole along edir(3) :
        Dipole                1.2221 Ry au,          3.1064 Debye
        Dipole field          0.0023 Ry au,

        Potential amp.       -0.2138 Ry
        Total length         46.3494 bohr

     End of self-consistent calculation

          k = 0.0000 0.0000 0.0000 ( 18029 PWs)   bands (ev):

   -55.3484 -55.3115 -55.3006 -55.2695 -55.2665 -55.2319 -55.2250 -55.1897
   -55.1689 -55.1451 -55.1344 -55.1323 -55.0987 -55.0265 -54.3306 -54.2965
   -31.9168 -31.8011 -31.7931 -31.7135 -31.6639 -31.6582 -31.6512 -31.6380
   -31.5898 -31.5890 -31.5578 -31.5526 -31.5456 -31.5295 -31.5183 -31.5107
   -31.5036 -31.4882 -31.4857 -31.4660 -31.4531 -31.4451 -31.4181 -31.4144
   -31.4031 -31.4009 -31.3997 -31.3715 -31.3578 -31.3554 -31.3507 -31.3312
   -31.3278 -31.3198 -31.3188 -31.3166 -31.2825 -31.2683 -31.2607 -31.2436
   -31.2328 -31.2083 -30.7400 -30.6457 -30.6236 -30.5563 -30.4695 -30.3586
   -17.7976 -16.1846 -15.9170 -15.7769 -15.6671 -15.5482 -15.4297 -15.4101
   -15.2781 -15.1953 -15.0752 -15.0522 -15.0257 -15.0065 -14.9943 -14.9794
   -14.8939 -14.8880 -14.8704 -14.8432 -14.8368 -14.7942 -14.7868 -14.7471
   -14.7253 -14.7242 -14.5956 -14.5081 -14.4362 -14.2000 -13.1798 -12.8332
   -12.7157  -9.7402  -6.3726  -5.3883  -4.8939  -3.5456  -3.5048  -3.3685
    -3.2792  -3.2632  -3.2414  -3.1053  -2.9518  -2.7820  -2.7698  -2.7518
    -2.6383  -2.5607  -2.5544  -2.5296  -2.3782  -2.3568  -2.3056  -2.2401
    -2.2125  -2.1646  -2.1536  -2.1324  -2.1130  -2.0930  -2.0847  -1.9710
    -1.9200  -1.8272  -1.7715  -1.7439  -1.7085  -1.6807  -1.6655  -1.6382
    -1.6301  -1.5876  -1.5603  -1.5388  -1.4876  -1.3756  -1.2665  -1.2365
    -1.1387  -0.9870  -0.9537  -0.9409  -0.9294  -0.8528  -0.8359  -0.7874
    -0.7351  -0.7268  -0.6960  -0.5852  -0.5266  -0.4616  -0.3951  -0.3834
    -0.3367  -0.2748  -0.1625  -0.1383  -0.1157  -0.0907   0.0032   0.0425
     0.0876   0.1624   0.1816   0.1951   0.3020   0.3096   0.3898   0.4021
     0.4475   0.5340   0.5683   0.5906   0.5944   0.6080   0.6380   0.7051
     0.7293   0.7555   0.8308   0.9545   1.0264   1.1866   1.2497   1.2631
     1.5929   1.5971   1.6922   1.8760   2.2684   2.3167   3.7489   3.8185
     3.8933   3.8999   3.9120   3.9856   4.2229   4.2392   4.2516   4.2578
     4.2925

[...]

          k = 0.0380-0.0419 0.0000 ( 17876 PWs)   bands (ev):

[...]

          k =-0.0760-0.0000 0.0000 ( 17886 PWs)   bands (ev):

[...]

          k =-0.0760-0.0839 0.0000 ( 17948 PWs)   bands (ev):

   -55.3340 -55.3256 -55.2835 -55.2833 -55.2680 -55.2285 -55.2114 -55.2032
   -55.1533 -55.1494 -55.1484 -55.1159 -55.1154 -55.0278 -54.3135 -54.3135
   -31.7239 -31.7212 -31.7176 -31.6336 -31.6082 -31.6081 -31.6055 -31.5750
   -31.5749 -31.5566 -31.5492 -31.5468 -31.5409 -31.5109 -31.5040 -31.4862
   -31.4856 -31.4819 -31.4783 -31.4731 -31.4700 -31.4691 -31.4323 -31.4268
   -31.4251 -31.4203 -31.4163 -31.4047 -31.4033 -31.4030 -31.3960 -31.3869
   -31.3825 -31.3664 -31.3628 -31.3469 -31.3461 -31.3368 -31.2966 -31.2965
   -31.2861 -31.2376 -30.6363 -30.6362 -30.5525 -30.5524 -30.5130 -30.5129
   -17.7929 -15.7080 -15.5960 -15.5498 -15.3767 -15.3545 -15.3318 -15.3170
   -15.1890 -15.1705 -15.1425 -15.1163 -15.0911 -15.0636 -15.0525 -15.0474
   -14.9650 -14.9531 -14.9457 -14.9295 -14.8618 -14.8588 -14.8546 -14.8487
   -14.7979 -14.7954 -14.7145 -14.7015 -14.7000 -14.5024 -13.1808 -12.8173
   -12.8171  -9.7367  -6.3603  -5.3879  -4.8997  -3.4883  -2.8645  -2.8292
    -2.8055  -2.7815  -2.5922  -2.5540  -2.5171  -2.5047  -2.4056  -2.3634
    -2.3456  -2.3385  -2.2680  -2.2645  -2.2338  -2.2038  -2.1828  -2.1657
    -2.1518  -2.1298  -2.1050  -2.0760  -2.0699  -2.0545  -2.0006  -1.9980
    -1.9822  -1.9602  -1.9428  -1.9216  -1.9052  -1.8486  -1.7262  -1.7159
    -1.6618  -1.5556  -1.5511  -1.4708  -1.4656  -1.4217  -1.3936  -1.3817
    -1.3544  -1.1743  -1.1207  -1.0945  -1.0870  -1.0751  -0.9666  -0.9325
    -0.8744  -0.8587  -0.8326  -0.7347  -0.6842  -0.6798  -0.5983  -0.5666
    -0.5276  -0.4860  -0.3848  -0.3552  -0.3353  -0.3063  -0.3029  -0.2494
    -0.2440  -0.1672  -0.1195  -0.0835  -0.0690  -0.0379   0.1616   0.1711
     0.1895   0.3363   0.3590   0.4994   0.5433   0.5852   0.6460   0.6977
     0.7635   0.8042   0.9312   0.9588   0.9597   1.0300   1.0506   1.0567
     1.1080   1.1099   2.0487   2.0493   2.1365   2.1369   3.8919   3.9965
     4.0113   4.0567   4.1666   4.2402   4.2634   4.2905   4.3332   4.3361
     4.4001

     the Fermi energy is     3.8117 ev

!    total energy              =   -2942.85972377 Ry
     estimated scf accuracy    <       0.00000005 Ry
     smearing contrib. (-TS)   =      -0.03701316 Ry
     internal energy E=F+TS    =   -2942.82271062 Ry

     The total energy is F=E-TS. E is the sum of the following terms:
     one-electron contribution =  -23389.52972613 Ry
     hartree contribution      =   11787.30827310 Ry
     xc contribution           =    -487.76101504 Ry
     ewald contribution        =    9147.15693876 Ry
     electric field correction =       0.00281870 Ry

     convergence has been achieved in  58 iterations

     Forces acting on atoms (cartesian axes, Ry/au):

     atom    1 type  1   force =    -0.00000320   -0.00026596    0.09311996
     atom    2 type  1   force =    -0.00014437   -0.00043263   -0.17826480
     atom    3 type  2   force =     0.00007390   -0.00009385   -0.02025235
     atom    4 type  2   force =     0.00001650   -0.00186609    0.05881252
     atom    5 type  2   force =    -0.01020167   -0.00054309    0.00773296
     atom    6 type  2   force =     0.01225331    0.00007705    0.00819474
     atom    7 type  1   force =     0.00038801    0.00328914   -0.01426834
     atom    8 type  1   force =    -0.00045495    0.00042496   -0.00457753
     atom    9 type  2   force =    -0.00002725   -0.00062594   -0.00035228
     atom   10 type  2   force =    -0.00059882    0.00090541   -0.00140897
     atom   11 type  2   force =    -0.00039700   -0.00011891    0.00023279
     atom   12 type  2   force =     0.00008434   -0.00006622    0.00004033
     atom   13 type  1   force =     0.00004601   -0.00032949    0.00018832
     atom   14 type  1   force =    -0.00035431    0.00012910    0.00041970
     atom   15 type  2   force =    -0.00016035    0.00080778    0.00025269
     atom   16 type  2   force =    -0.00008794   -0.00019580    0.00032422
     atom   17 type  2   force =    -0.00045674    0.00003473    0.00040234
     atom   18 type  2   force =     0.00014419   -0.00022817   -0.00010688
     atom   19 type  1   force =     0.00033255    0.00027707    0.00092112
     atom   20 type  1   force =    -0.00063314   -0.00066539    0.00032862
     atom   21 type  2   force =     0.00000403   -0.00010159    0.10396900
     atom   22 type  2   force =    -0.00019170    0.00002174   -0.00055984
     atom   23 type  2   force =    -0.07038351   -0.00023120   -0.02688705
     atom   24 type  2   force =     0.07028060    0.00019815   -0.02696966
     atom   25 type  1   force =     0.00001806   -0.00026881    0.09277409
     atom   26 type  1   force =    -0.00011204   -0.00045262   -0.17828618
     atom   27 type  2   force =     0.00014010   -0.00032504   -0.01926671
     atom   28 type  2   force =     0.00008249   -0.00155029    0.05820505
     atom   29 type  2   force =    -0.01020845   -0.00032824    0.00695515
     atom   30 type  2   force =     0.01215996   -0.00008412    0.00749113
     atom   31 type  1   force =     0.00040122    0.00497217   -0.01540259
     atom   32 type  1   force =    -0.00037996   -0.00030044   -0.00468396
     atom   33 type  2   force =    -0.00021833   -0.00046777    0.00017745
     atom   34 type  2   force =    -0.00014178    0.00364702   -0.00061281
     atom   35 type  2   force =     0.00001952   -0.00056475    0.00031720
     atom   36 type  2   force =    -0.00018197   -0.00053342   -0.00003512
     atom   37 type  1   force =    -0.00026380   -0.00050239    0.00050039
     atom   38 type  1   force =    -0.00018512   -0.00090096    0.00045218
     atom   39 type  2   force =    -0.00047982   -0.00051962    0.00054530
     atom   40 type  2   force =     0.00001821   -0.00047532   -0.00042047
     atom   41 type  2   force =    -0.00081226   -0.00009731   -0.00013346
     atom   42 type  2   force =     0.00031888   -0.00023371   -0.00032912
     atom   43 type  1   force =     0.00005056   -0.00032418   -0.00005700
     atom   44 type  1   force =    -0.00008518   -0.00066161    0.00067200
     atom   45 type  2   force =     0.00001180   -0.00014251    0.10392603
     atom   46 type  2   force =    -0.07042834   -0.00017617   -0.02690027
     atom   47 type  2   force =     0.07029401    0.00026393   -0.02697178
     atom   48 type  3   force =     0.00104304    0.00119788   -0.00060776
     atom   49 type  3   force =     0.00004117    0.00116278   -0.00025754
     atom   50 type  4   force =     0.00349513   -0.00405095    0.00120462
     atom   51 type  5   force =    -0.00632623    0.00483911   -0.00102410
     atom   52 type  5   force =    -0.00004522    0.00027070    0.00025447
     atom   53 type  5   force =     0.00162922   -0.00051931    0.00113966
     atom   54 type  5   force =    -0.00000492   -0.00058923   -0.00046013
     atom   55 type  5   force =     0.00053505   -0.00175080   -0.00033803
     atom   56 type  5   force =     0.00008650   -0.00093484   -0.00011931

     Total force =     0.366303     Total SCF correction =     0.000521
  @ DRIVER MODE: Message from server: STATUS
  @ DRIVER MODE: Message from server: GETFORCE
  @ DRIVER MODE: Returning v,forces,stress,ensemble

     Writing output data file ./calc.save/
  @ DRIVER MODE: Message from server: EXIT
  @ DRIVE MODE: Exiting

     General routines

     Parallel routines

   This run was terminated on:   4:54:53   9Sep2021

   JOB DONE.