     Program PWSCF v.6.7GPU starts on 26Jul2021 at 15: 0:21

     R & G space division:  proc/nbgrp/npool/nimage =      16
     Reading input from /storage/home/hcoda1/3/ntian30/research/carbon/26Jul_spin_polarization/ads_slab/CH3NNH3_a/26Jul_spin_polarization.log/pw.inp
Warning: card &CELL ignored
Warning: card   CELL_DYNAMICS='IPI', ignored
Warning: card / ignored

     Current dimensions of program PWSCF are:
     Max number of different atomic species (ntypx) = 10
     Max number of k-points (npk) =  40000
     Max angular momentum in pseudopotentials (lmaxx) =  3
     Presently no symmetry can be used with electric field

     Message from routine cell_base_init:
     DEPRECATED: use true lattice parameter, not A to a.u. conversion factor

     IMPORTANT: XC functional enforced from input :
     Exchange-correlation= BEEF-VDW
                           (   1   4  43  14   2   0   0)
     Any further DFT definition will be discarded
     Please, verify this is what you really want

  @ DRIVER MODE: Connecting to
 qe_1139763_2431701.sched-torque.pace.gatech.edugo777v1a_scratch
  using UNIX socket
  @ DRIVER MODE: Message from server: STATUS
  @ DRIVER MODE: Message from server: INIT
  @ DRIVER MODE: Receiving replica           0          -1
  @ DRIVER MODE: Receiving encoded integer          25
  @ DRIVER MODE:  SCF:  T  FORCE:  T  STRESS:  F  VC:  F  ENSEMBLE:  F
  @ DRIVER MODE:  SCF:  T  FORCE:  T  STRESS:  F  VC:  F  ENSEMBLE:  F

     Using Slab Decomposition

     bravais-lattice index     =            0
     lattice parameter (alat)  =       1.8897  a.u.
     unit-cell volume          =    6658.9804 (a.u.)^3
     number of atoms/cell      =           56
     number of atomic types    =            5
     number of electrons       =       398.00
     number of Kohn-Sham states=          209
     kinetic-energy cutoff     =      29.3995  Ry
     charge density cutoff     =     293.9946  Ry
     scf convergence threshold =      7.3E-08
     mixing beta               =       0.0500
     number of iterations used =            8  plain     mixing
     Exchange-correlation= BEEF-VDW
                           (   1   4  43  14   2   0   0)

     celldm(1)=   1.889726  celldm(2)=   0.000000  celldm(3)=   0.000000
     celldm(4)=   0.000000  celldm(5)=   0.000000  celldm(6)=   0.000000

     crystal axes: (cart. coord. in units of alat)
               a(1) = (   6.579727   0.000000   0.000000 )
               a(2) = (  -0.000775   5.961596   0.000000 )
               a(3) = (   0.000000   0.000000  25.155947 )

     reciprocal axes: (cart. coord. in units 2 pi/alat)
               b(1) = (  0.151982  0.000020  0.000000 )
               b(2) = (  0.000000  0.167740  0.000000 )
               b(3) = (  0.000000  0.000000  0.039752 )

     PseudoPot. # 1 for Ti read from file:
     /storage/coda1/p-amedford6/0/shared/rich_project_chbe-medford/medford-share/data/pseudos_module/espresso/nninc/pbe/van/Ti.UPF
     MD5 check sum: 8e4df49b7f0d34bbd5052bf3f5ea0213
     Pseudo is Ultrasoft, Zval = 12.0
     Generated by new atomic code, or converted to UPF format
     Using radial grid of  851 points,  6 beta functions with:
                l(1) =   0
                l(2) =   0
                l(3) =   1
                l(4) =   1
                l(5) =   2
                l(6) =   2
     Q(r) pseudized with  8 coefficients,  rinner =    1.000   1.000   1.000
                                                       1.000   1.000

     PseudoPot. # 2 for O  read from file:
     /storage/coda1/p-amedford6/0/shared/rich_project_chbe-medford/medford-share/data/pseudos_module/espresso/nninc/pbe/van/O.UPF
     MD5 check sum: 78c19812648e8988a0fe644b0f25305e
     Pseudo is Ultrasoft, Zval =  6.0
     Generated by new atomic code, or converted to UPF format
     Using radial grid of  737 points,  4 beta functions with:
                l(1) =   0
                l(2) =   0
                l(3) =   1
                l(4) =   1
     Q(r) pseudized with  8 coefficients,  rinner =    0.800   0.800   0.800

     PseudoPot. # 3 for N  read from file:
     /storage/coda1/p-amedford6/0/shared/rich_project_chbe-medford/medford-share/data/pseudos_module/espresso/nninc/pbe/van/N.UPF
     MD5 check sum: 90d10febe142ad51ac9d5be1deb811c4
     Pseudo is Ultrasoft, Zval =  5.0
     Generated by new atomic code, or converted to UPF format
     Using radial grid of  729 points,  4 beta functions with:
                l(1) =   0
                l(2) =   0
                l(3) =   1
                l(4) =   1
     Q(r) pseudized with  8 coefficients,  rinner =    0.800   0.800   0.800

     PseudoPot. # 4 for C  read from file:
     /storage/coda1/p-amedford6/0/shared/rich_project_chbe-medford/medford-share/data/pseudos_module/espresso/nninc/pbe/van/C.UPF
     MD5 check sum: 1a69bf6b8db32088f5b2163dbdb77a27
     Pseudo is Ultrasoft, Zval =  4.0
     Generated by new atomic code, or converted to UPF format
     Using radial grid of  721 points,  4 beta functions with:
                l(1) =   0
                l(2) =   0
                l(3) =   1
                l(4) =   1
     Q(r) pseudized with  8 coefficients,  rinner =    0.800   0.800   0.800

     PseudoPot. # 5 for H  read from file:
     /storage/coda1/p-amedford6/0/shared/rich_project_chbe-medford/medford-share/data/pseudos_module/espresso/nninc/pbe/van/H.UPF
     MD5 check sum: b5ee9d7bfd3a09ee7748110bda690ff7
     Pseudo is Ultrasoft, Zval =  1.0
     Generated by new atomic code, or converted to UPF format
     Using radial grid of  615 points,  1 beta functions with:
                l(1) =   0
     Q(r) pseudized with  8 coefficients,  rinner =    0.800

     atomic species   valence    mass     pseudopotential
        Ti1           12.00    47.86700     Ti( 1.00)
        O1             6.00    15.99900     O ( 1.00)
        N1             5.00    14.00700     N ( 1.00)
        C1             4.00    12.01100     C ( 1.00)
        H1             1.00     1.00800     H ( 1.00)

     Starting magnetic structure
     atomic species   magnetization
        Ti1          0.000
        O1           0.000
        N1           0.040
        C1           0.046
        H1           0.000

     No symmetry found

   Cartesian axes

     site n.     atom                  positions (alat units)
         1           Ti1 tau(   1) = (   0.0004258   2.9801865   6.0000000  )
         2           Ti1 tau(   2) = (   3.2906075   1.4906267   6.0002472  )
         3           O1  tau(   3) = (   0.0006271   0.0005054   7.9858123  )
         4           O1  tau(   4) = (   3.2906025   0.0005020   7.3038282  )
         5           O1  tau(   5) = (   4.5942328   1.4918067   9.2879030  )
         6           O1  tau(   6) = (   1.9868534   1.4903216   9.2879459  )
         7           Ti1 tau(   7) = (   3.2907910   2.8959150   9.1758416  )
         8           Ti1 tau(   8) = (   0.0015273   1.4827037   9.2680791  )
         9           O1  tau(   9) = (   3.3019049   5.9598586  11.2958584  )
        10           O1  tau(  10) = (   0.0116148   5.9584955  10.6183126  )
        11           O1  tau(  11) = (   1.3346742   1.4914638  12.6145280  )
        12           O1  tau(  12) = (   5.3113054   1.4894223  12.6320738  )
        13           Ti1 tau(  13) = (   6.4919192   2.9607050  12.7581921  )
        14           Ti1 tau(  14) = (   3.1808934   1.4809541  12.4628303  )
        15           O1  tau(  15) = (   0.0259758   5.9327586  14.5948705  )
        16           O1  tau(  16) = (   3.3179433   0.0111293  13.8771559  )
        17           O1  tau(  17) = (   4.5450242   1.5254396  16.0425357  )
        18           O1  tau(  18) = (   2.0945915   1.5254857  16.0466093  )
        19           Ti1 tau(  19) = (   3.3175380   3.0118254  15.6854273  )
        20           Ti1 tau(  20) = (   0.0287691   1.6153805  16.0968480  )
        21           O1  tau(  21) = (   3.2904802   0.0005063   4.7018136  )
        22           O1  tau(  22) = (   0.0272082   0.0527987  17.2096484  )
        23           O1  tau(  23) = (   1.3043587   1.4918075   6.0039043  )
        24           O1  tau(  24) = (   5.2767064   1.4903225   6.0039473  )
        25           Ti1 tau(  25) = (   0.0000382   5.9609847   6.0000000  )
        26           Ti1 tau(  26) = (   3.2902200   4.4714249   6.0002472  )
        27           O1  tau(  27) = (   0.0002396   2.9813036   7.9858123  )
        28           O1  tau(  28) = (   3.2902150   2.9813002   7.3038282  )
        29           O1  tau(  29) = (   4.5938453   4.4726049   9.2879030  )
        30           O1  tau(  30) = (   1.9864658   4.4711199   9.2879459  )
        31           Ti1 tau(  31) = (   3.2891106   5.8743827   9.1763621  )
        32           Ti1 tau(  32) = (   0.0006254   4.4649316   9.2693709  )
        33           O1  tau(  33) = (   3.3007599   2.9794320  11.2948048  )
        34           O1  tau(  34) = (   0.0092240   2.9805883  10.6323155  )
        35           O1  tau(  35) = (   1.3367187   4.4652043  12.6121808  )
        36           O1  tau(  36) = (   5.3110114   4.4536366  12.6300246  )
        37           Ti1 tau(  37) = (   6.5175235   5.9394146  12.7678677  )
        38           Ti1 tau(  38) = (   3.1810223   4.4618757  12.4682998  )
        39           O1  tau(  39) = (   0.0141956   2.9656780  14.6533049  )
        40           O1  tau(  40) = (   3.3125561   2.9946134  13.8784269  )
        41           O1  tau(  41) = (   4.5469694   4.5079638  16.0550352  )
        42           O1  tau(  42) = (   2.0896055   4.5089645  16.0567747  )
        43           Ti1 tau(  43) = (   3.3249511   0.0336637  15.6879192  )
        44           Ti1 tau(  44) = (   0.0309337   4.5948497  16.1324869  )
        45           O1  tau(  45) = (   3.2900926   2.9813045   4.7018136  )
        46           O1  tau(  46) = (   1.3039711   4.4726057   6.0039043  )
        47           O1  tau(  47) = (   5.2763189   4.4711207   6.0039473  )
        48           N1  tau(  48) = (   0.0510883   3.0100077  17.3315927  )
        49           C1  tau(  49) = (   0.2149723   3.0659314  18.7643681  )
        50           H1  tau(  50) = (   6.1109748   3.7957518  19.2115106  )
        51           H1  tau(  51) = (   0.0391147   2.0919789  19.2277120  )
        52           H1  tau(  52) = (   1.2341903   3.3897193  19.0223879  )
        53           N1  tau(  53) = (   4.7717085   1.8344328  21.5424420  )
        54           H1  tau(  54) = (   4.4711387   2.7986659  21.4441960  )
        55           H1  tau(  55) = (   4.1840297   1.2822813  20.9257432  )
        56           H1  tau(  56) = (   4.5427024   1.5537098  22.4892962  )

     number of k points=    10  Fermi-Dirac smearing, width (Ry)=  0.0073
                       cart. coord. in units 2pi/alat
        k(    1) = (   0.0000000   0.0000000   0.0000000), wk =   0.0625000
        k(    2) = (   0.0000000   0.0419351   0.0000000), wk =   0.1250000
        k(    3) = (   0.0000000  -0.0838702   0.0000000), wk =   0.0625000
        k(    4) = (   0.0379955   0.0000049   0.0000000), wk =   0.1250000
        k(    5) = (   0.0379955   0.0419400   0.0000000), wk =   0.1250000
[...]
     atom  25 (R=0.735)  charge=  8.0053  magn=  0.0000
     atom  26 (R=0.735)  charge=  8.0011  magn= -0.0000
     atom  27 (R=0.735)  charge=  4.9957  magn= -0.0000
     atom  28 (R=0.735)  charge=  5.0347  magn= -0.0000
     atom  29 (R=0.735)  charge=  4.9989  magn= -0.0000
     atom  30 (R=0.735)  charge=  5.0001  magn=  0.0000
     atom  31 (R=0.735)  charge=  7.9947  magn= -0.0000
     atom  32 (R=0.735)  charge=  7.9826  magn= -0.0000
     atom  33 (R=0.735)  charge=  5.0125  magn= -0.0000
     atom  34 (R=0.735)  charge=  4.9424  magn=  0.0000
     atom  35 (R=0.735)  charge=  5.0006  magn= -0.0000
     atom  36 (R=0.735)  charge=  5.0043  magn=  0.0000
     atom  37 (R=0.735)  charge=  7.9990  magn= -0.0000
     atom  38 (R=0.735)  charge=  8.0004  magn=  0.0000
     atom  39 (R=0.735)  charge=  4.9853  magn=  0.0001
     atom  40 (R=0.735)  charge=  5.0160  magn=  0.0000
     atom  41 (R=0.735)  charge=  4.9884  magn=  0.0001
     atom  42 (R=0.735)  charge=  4.9879  magn=  0.0001
     atom  43 (R=0.735)  charge=  8.0214  magn= -0.0000
     atom  44 (R=0.735)  charge=  8.0216  magn= -0.0002
     atom  45 (R=0.735)  charge=  4.8827  magn=  0.0001
     atom  46 (R=0.735)  charge=  4.9884  magn= -0.0000
     atom  47 (R=0.735)  charge=  4.9885  magn= -0.0000
     atom  48 (R=0.418)  charge=  1.3137  magn=  0.0005
     atom  49 (R=0.451)  charge=  0.8534  magn= -0.0000
     atom  50 (R=0.418)  charge=  0.4371  magn=  0.0000
     atom  51 (R=0.418)  charge=  0.4391  magn=  0.0000
     atom  52 (R=0.418)  charge=  0.4339  magn=  0.0001
     atom  53 (R=0.418)  charge=  1.3298  magn= -0.0000
     atom  54 (R=0.418)  charge=  0.4522  magn=  0.0000
     atom  55 (R=0.418)  charge=  0.4511  magn=  0.0000
     atom  56 (R=0.418)  charge=  0.4538  magn=  0.0000

     End of self-consistent calculation

 ------ SPIN UP ------------

          k = 0.0000 0.0000 0.0000 ( 18029 PWs)   bands (ev):

   -56.6310 -56.5974 -55.7555 -55.7436 -55.7206 -55.7107 -55.6100 -55.5746
   -55.3926 -55.3567 -55.2964 -55.2908 -55.2625 -55.1931 -54.7271 -54.6153
   -33.0588 -32.9057 -32.8775 -32.8067 -32.7157 -32.6848 -32.2262 -32.2200
   -32.1526 -32.0395 -31.9934 -31.9691 -31.9507 -31.9294 -31.8958 -31.8914
   -31.8900 -31.8845 -31.8589 -31.8563 -31.8449 -31.8175 -31.7927 -31.7777
   -31.7647 -31.7462 -31.7369 -31.7122 -31.6886 -31.6347 -31.6233 -31.6106
   -31.5336 -31.5308 -31.5072 -31.4666 -31.4586 -31.4237 -31.4211 -31.3968
   -31.3743 -31.3128 -31.2329 -30.9729 -30.9575 -30.8746 -30.8371 -30.7471
   -16.7959 -16.3638 -16.1332 -15.9939 -15.9283 -15.8721 -15.8293 -15.7037
   -15.6356 -15.6276 -15.5859 -15.5579 -15.4864 -15.3468 -15.2482 -15.1954
   -15.1509 -15.0304 -14.9695 -14.9371 -14.9267 -14.8839 -14.8743 -14.6803
   -14.6574 -14.5636 -14.5425 -14.4216 -14.1870 -13.7948 -13.7026 -13.6847
   -12.8010  -7.4984  -4.3612  -3.8597  -3.7695  -3.7448  -3.6210  -3.5347
    -3.4275  -3.4135  -3.3270  -3.2125  -3.1682  -3.1206  -3.0041  -3.0027
    -2.8546  -2.8098  -2.8069  -2.8045  -2.7555  -2.6963  -2.6728  -2.6409
    -2.6319  -2.6026  -2.4759  -2.3796  -2.3078  -2.2848  -2.2788  -2.2432
    -2.1680  -2.1385  -2.1299  -2.1263  -2.0189  -1.8737  -1.8672  -1.8439
    -1.8021  -1.7969  -1.7542  -1.7411  -1.6233  -1.5328  -1.4303  -1.4140
    -1.3701  -1.3137  -1.3060  -1.2161  -1.1378  -1.0471  -1.0460  -0.9363
    -0.8889  -0.8718  -0.7818  -0.7220  -0.6826  -0.6565  -0.6440  -0.5439
    -0.5213  -0.5112  -0.4271  -0.4153  -0.3663  -0.2773  -0.2545  -0.2457
    -0.1633  -0.1607  -0.0655  -0.0236   0.0164   0.0517   0.1677   0.1849
     0.2832   0.3120   0.3396   0.4524   0.4684   0.5337   0.6083   0.6710
     0.6986   0.7252   0.7544   0.7738   0.8484   0.9603   0.9694   1.0715
     1.1037   1.2779   1.3168   1.3910   1.6026   1.6351   2.3036   2.6436
     2.8030   3.1015   3.2891   3.4021   3.6180   3.6341   3.6391   3.8082
     3.8609

[...]

          k =-0.0760-0.0000 0.0000 ( 17886 PWs)   bands (ev):

[...]

 ------ SPIN DOWN ----------

[...]

          k = 0.0380-0.0419 0.0000 ( 17876 PWs)   bands (ev):

[...]

          k =-0.0760-0.0839 0.0000 ( 17948 PWs)   bands (ev):

   -56.6142 -56.6138 -55.7404 -55.7346 -55.7279 -55.7273 -55.5926 -55.5918
   -55.3789 -55.3705 -55.2876 -55.2795 -55.2794 -55.1963 -54.7247 -54.6188
   -32.8914 -32.8912 -32.8756 -32.8754 -32.7596 -32.7594 -32.0561 -32.0538
   -32.0446 -32.0379 -31.9848 -31.9838 -31.9410 -31.9407 -31.9387 -31.9376
   -31.9298 -31.9269 -31.9247 -31.9231 -31.8452 -31.8432 -31.7941 -31.7912
   -31.7296 -31.7193 -31.6605 -31.6526 -31.6236 -31.6235 -31.6168 -31.5773
   -31.5731 -31.5451 -31.5109 -31.5049 -31.5048 -31.4657 -31.4657 -31.4619
   -31.4386 -31.3991 -31.1133 -30.9931 -30.9576 -30.9270 -30.8404 -30.8032
   -16.1447 -16.1426 -16.1097 -16.1095 -15.8411 -15.8375 -15.7948 -15.7923
   -15.6185 -15.6124 -15.4059 -15.3972 -15.3905 -15.3891 -15.2611 -15.2552
   -15.1897 -15.1793 -15.0900 -15.0809 -15.0244 -15.0179 -14.9754 -14.9544
   -14.6442 -14.6350 -14.5142 -14.4968 -14.3305 -13.7880 -13.7880 -13.7020
   -12.8155  -7.4874  -3.7768  -3.7530  -3.2436  -3.2433  -3.1795  -3.1785
    -3.0571  -3.0531  -2.9742  -2.9735  -2.8755  -2.8742  -2.7601  -2.7316
    -2.7286  -2.7275  -2.7108  -2.6623  -2.5750  -2.5718  -2.5615  -2.5470
    -2.4887  -2.4868  -2.4643  -2.3986  -2.3848  -2.3534  -2.3156  -2.2015
    -2.1912  -2.1793  -2.1474  -2.0841  -2.0770  -2.0641  -2.0216  -1.9890
    -1.9122  -1.8397  -1.8015  -1.6882  -1.6836  -1.6716  -1.6598  -1.5062
    -1.4660  -1.4354  -1.4284  -1.4222  -1.3743  -1.2795  -1.2720  -1.1400
    -1.1383  -1.0642  -0.9826  -0.9614  -0.9330  -0.8044  -0.7603  -0.7259
    -0.7181  -0.6901  -0.6699  -0.6482  -0.6046  -0.4688  -0.4572  -0.4183
    -0.3838  -0.3616  -0.3273  -0.2697  -0.1838  -0.1053  -0.1049  -0.0502
     0.0183   0.0790   0.1661   0.1761   0.1815   0.4625   0.5412   0.6309
     0.7067   0.7728   0.8363   0.8673   0.9226   0.9674   1.1038   1.1070
     1.1264   1.1267   1.1858   1.1895   1.3738   1.6421   2.1970   3.2163
     3.2166   3.2835   3.2840   3.6075   3.6133   3.7216   3.7308   3.8383
     3.8426

     the Fermi energy is     2.4840 ev

!    total energy              =   -2942.90781125 Ry
     estimated scf accuracy    <       0.00000004 Ry
     smearing contrib. (-TS)   =      -0.00487745 Ry
     internal energy E=F+TS    =   -2942.90293380 Ry

     The total energy is F=E-TS. E is the sum of the following terms:
     one-electron contribution =  -23242.39237801 Ry
     hartree contribution      =   11711.40139571 Ry
     xc contribution           =    -487.47201998 Ry
     ewald contribution        =    9075.55973792 Ry
     electric field correction =       0.00033056 Ry

     total magnetization       =     0.00 Bohr mag/cell
     absolute magnetization    =     0.00 Bohr mag/cell

     convergence has been achieved in  76 iterations

     Forces acting on atoms (cartesian axes, Ry/au):

     atom    1 type  1   force =     0.00003751   -0.00040776    0.12405983
     atom    2 type  1   force =    -0.00010533   -0.00057043   -0.16067667
     atom    3 type  2   force =     0.00023492   -0.00026772   -0.06797613
     atom    4 type  2   force =     0.00001273   -0.00029296    0.02759880
     atom    5 type  2   force =    -0.01615571    0.00175554   -0.00935873
     atom    6 type  2   force =     0.01818784    0.00219381   -0.00898133
     atom    7 type  1   force =     0.00115090   -0.00377895    0.02171950
     atom    8 type  1   force =    -0.00057738   -0.00290742    0.11108171
     atom    9 type  2   force =    -0.00018264    0.00030839   -0.00044113
     atom   10 type  2   force =    -0.00196037    0.00129323   -0.07322452
     atom   11 type  2   force =     0.00023613   -0.00010406    0.00017068
     atom   12 type  2   force =    -0.00026427    0.00022696    0.00020681
     atom   13 type  1   force =    -0.00009601    0.00008552   -0.00042798
     atom   14 type  1   force =    -0.00057942    0.00044997    0.00041292
     atom   15 type  2   force =     0.00027420    0.00000069    0.00015633
     atom   16 type  2   force =    -0.00049060   -0.00036719    0.00056219
     atom   17 type  2   force =    -0.00060561    0.00024843    0.00008949
     atom   18 type  2   force =     0.00003324    0.00025246    0.00009417
     atom   19 type  1   force =     0.00038601   -0.00056131   -0.00001509
     atom   20 type  1   force =    -0.00010628    0.00008310    0.00016400
     atom   21 type  2   force =     0.00004875   -0.00000569    0.09972174
     atom   22 type  2   force =     0.00027265   -0.00004290   -0.00037524
     atom   23 type  2   force =    -0.07916814    0.00000205   -0.03244927
     atom   24 type  2   force =     0.07905354    0.00043921   -0.03247219
     atom   25 type  1   force =     0.00001852   -0.00041289    0.12357652
     atom   26 type  1   force =    -0.00010035   -0.00046672   -0.16081279
     atom   27 type  2   force =     0.00032996   -0.00048351   -0.06702770
     atom   28 type  2   force =     0.00002761   -0.00012019    0.02732635
     atom   29 type  2   force =    -0.01663148    0.00127910   -0.00946449
     atom   30 type  2   force =     0.01856096    0.00165691   -0.00909998
     atom   31 type  1   force =     0.00116632   -0.00138390    0.02114897
     atom   32 type  1   force =    -0.00053308    0.00034639    0.11172532
     atom   33 type  2   force =    -0.00016273   -0.00024865    0.00008406
     atom   34 type  2   force =    -0.00132654    0.00066908   -0.07267625
     atom   35 type  2   force =    -0.00077247   -0.00043398   -0.00002342
     atom   36 type  2   force =     0.00010084   -0.00002296    0.00010907
     atom   37 type  1   force =     0.00006259    0.00063670    0.00021147
     atom   38 type  1   force =    -0.00021146    0.00002891   -0.00016484
     atom   39 type  2   force =     0.00013158   -0.00018652    0.00089835
     atom   40 type  2   force =    -0.00018258   -0.00046526    0.00032526
     atom   41 type  2   force =     0.00007355   -0.00009594    0.00006229
     atom   42 type  2   force =     0.00040699    0.00001311    0.00002513
     atom   43 type  1   force =    -0.00022872   -0.00011606    0.00004972
     atom   44 type  1   force =    -0.00026522    0.00049628    0.00008185
     atom   45 type  2   force =     0.00002469   -0.00003076    0.09974859
     atom   46 type  2   force =    -0.07917371    0.00005418   -0.03244996
     atom   47 type  2   force =     0.07905263    0.00047716   -0.03246377
     atom   48 type  3   force =     0.00090386    0.00074474   -0.00134812
     atom   49 type  4   force =     0.00009278   -0.00049892    0.00006020
     atom   50 type  5   force =    -0.00008200    0.00075827    0.00081187
     atom   51 type  5   force =     0.00025677    0.00050660   -0.00011946
     atom   52 type  5   force =    -0.00026921   -0.00024286   -0.00000025
     atom   53 type  3   force =     0.00003826   -0.00087522   -0.00009728
     atom   54 type  5   force =    -0.00002736    0.00021036   -0.00054534
     atom   55 type  5   force =     0.00014860    0.00031838   -0.00082830
     atom   56 type  5   force =    -0.00106624   -0.00014481    0.00123703

     Total force =     0.424393     Total SCF correction =     0.000509
  @ DRIVER MODE: Message from server: STATUS
  @ DRIVER MODE: Message from server: GETFORCE
  @ DRIVER MODE: Returning v,forces,stress,ensemble

     Writing output data file ./calc.save/
  @ DRIVER MODE: Message from server: STATUS
  @ DRIVER MODE: Message from server: INIT
  @ DRIVER MODE: Receiving replica           0           0
  @ DRIVER MODE: Receiving encoded integer           2
  @ DRIVER MODE:  SCF:  T  FORCE:  T  STRESS:  F  VC:  F  ENSEMBLE:  F
  @ DRIVER MODE:  SCF:  F  FORCE:  F  STRESS:  F  VC:  F  ENSEMBLE:  T
  @ DRIVER MODE: Message from server: STATUS
  @ DRIVER MODE: Message from server: POSDATA
  @ DRIVER MODE: Reading and sharing positions
  @ DRIVER MODE: Received positions
     NEW-OLD atomic charge density approx. for the potential

[...]

     Adding external electric field

     Computed dipole along edir(3) :
        Dipole                0.4185 Ry au,          1.0638 Debye
        Dipole field          0.0008 Ry au,

        Potential amp.       -0.0732 Ry
        Total length         46.3494 bohr

     Generating pointlists ...
  @ DRIVER MODE: BEEF-vdw

[...]

     negative rho (up, down):  5.679E-03 5.679E-03

     negative rho (up, down):  5.679E-03 5.679E-03
 BEEFens 2000 ensemble energies
             -0.349996091126187E+02
             -0.201910563850593E+01
             -0.720759544517645E+01
              0.242839714115859E+02
             -0.120248123518942E+02
             -0.929509442748980E+01
             -0.242865497161636E+02
             -0.507912964352892E+02
             -0.216370286845332E+02
             -0.228064631565444E+02
             -0.211672213638320E+02
              0.426294203653373E+01
              0.200300374914693E+01
             -0.106313607144943E+01
              0.174431469580919E+01
              0.267396910044486E+02
             -0.103242277962769E+02
             -0.726812795533468E+01
              0.118795443016353E+02
             -0.624732867454836E+02
              0.313170711271390E+02
             -0.134260321786450E+02
             -0.244178034509135E+01
             -0.564029396314808E+01
             -0.964199406366106E+00
             -0.215448819887240E+01
              0.484749974093998E+02
             -0.151225729847814E+02
             -0.404871197764959E+01
             -0.306556886417393E+02
              0.396238244873374E+02
             -0.437396593978431E+01
             -0.215829137783836E+02
              0.113039104753587E+02
             -0.206385125350465E+01
              0.131675647813713E+02
             -0.544780935835092E+00
              0.272507432047128E+01
              0.191332200439881E+02
             -0.551564177731846E+02
              0.307336264901816E+02
              0.817712549601464E+01
             -0.630448240468914E+01
             -0.176149121069374E+02
              0.696433579761327E+01
             -0.110151098085596E+02
              0.251608451065010E+02
              0.200664209818594E+02
             -0.129293327804725E+02
             -0.165316703720981E+02
             -0.174729180231868E+02
             -0.209822838875107E+02
              0.106812820915995E+02
             -0.273474866375518E+02
              0.836752421830073E+01
              0.349037713369619E+02
              0.402641224800920E+02
              0.187485445193880E+02
              0.838671260387845E+01
              0.174969165376828E+02
[...]
             -0.411886606646875E+02
              0.280647242363466E+01
             -0.144075338398319E+01
             -0.573009239379633E+01
              0.604547545202081E-01
             -0.366631349503008E+02
             -0.706782713975150E+01
              0.499767507817453E+01
              0.748074646489499E+01
              0.274796583270115E+02
             -0.240061989117286E+02
              0.313284718874435E+02
             -0.224304654714196E+02
              0.144224139062388E+02
              0.227146324526666E+02

 BEEF-vdW xc energy contributions
           1 :   -412.879397772403
           2 :    359.488093746772
           3 :   -273.551490735824
           4 :    184.029473475838
           5 :   -113.785271358130
           6 :    71.7909576845195
           7 :   -54.2400825535344
           8 :    51.0160475133763
           9 :   -52.6268298436227
          10 :    53.8012430344565
          11 :   -53.3178835879209
          12 :    51.7471313398634
          13 :   -49.5229760824498
          14 :    46.3895509176832
          15 :   -41.9941879154001
          16 :    36.5579953437311
          17 :   -31.0092087702145
          18 :    26.5050355462091
          19 :   -23.8393091789369
          20 :    23.1067642972505
          21 :   -23.8123473590595
          22 :    25.2069536487972
          23 :   -26.6189642470181
          24 :    27.5701898566863
          25 :   -27.7486639110613
          26 :    26.9582449551149
          27 :   -25.1647585305171
          28 :    22.5684196933660
          29 :   -19.6332917986483
          30 :    16.9784962524823
          31 :   -48.6409179336399
          32 :   -33.0010597370822
  @ DRIVER MODE: Message from server: STATUS
  @ DRIVER MODE: Message from server: GETFORCE
  @ DRIVER MODE: Returning v,forces,stress,ensemble
  @ DRIVE MODE: Returning Ensemble Energies

     Writing output data file ./calc.save/
  @ DRIVER MODE: Message from server: EXIT
  @ DRIVE MODE: Exiting

     General routines

     Parallel routines

   This run was terminated on:  15:35:11  26Jul2021

   JOB DONE.