     Program PWSCF v.6.7GPU starts on  2Aug2021 at 17:22:18

     R & G space division:  proc/nbgrp/npool/nimage =      16
     Reading input from /storage/home/hcoda1/3/ntian30/research/carbon/02Aug_vib_paired/ads_slab/CH3NH3_a/out_0014/pw.inp
Warning: card &CELL ignored
Warning: card   CELL_DYNAMICS='IPI', ignored
Warning: card / ignored

     Current dimensions of program PWSCF are:
     Max number of different atomic species (ntypx) = 10
     Max number of k-points (npk) =  40000
     Max angular momentum in pseudopotentials (lmaxx) =  3
     Presently no symmetry can be used with electric field

     Message from routine cell_base_init:
     DEPRECATED: use true lattice parameter, not A to a.u. conversion factor

     IMPORTANT: XC functional enforced from input :
     Exchange-correlation= BEEF-VDW
                           (   1   4  43  14   2   0   0)
     Any further DFT definition will be discarded
     Please, verify this is what you really want

  @ DRIVER MODE: Connecting to
 qe_1139763_2482539.sched-torque.pace.gatech.eduh_91clrl_scratch
  using UNIX socket
  @ DRIVER MODE: Message from server: STATUS
  @ DRIVER MODE: Message from server: INIT
  @ DRIVER MODE: Receiving replica           0          -1
  @ DRIVER MODE: Receiving encoded integer          25
  @ DRIVER MODE:  SCF:  T  FORCE:  T  STRESS:  F  VC:  F  ENSEMBLE:  F
  @ DRIVER MODE:  SCF:  T  FORCE:  T  STRESS:  F  VC:  F  ENSEMBLE:  F

     Using Slab Decomposition

     bravais-lattice index     =            0
     lattice parameter (alat)  =       1.8897  a.u.
     unit-cell volume          =    6658.9804 (a.u.)^3
     number of atoms/cell      =           55
     number of atomic types    =            5
     number of electrons       =       393.00
     number of Kohn-Sham states=          206
     kinetic-energy cutoff     =      29.3995  Ry
     charge density cutoff     =     293.9946  Ry
     scf convergence threshold =      7.3E-08
     mixing beta               =       0.0500
     number of iterations used =            8  plain     mixing
     Exchange-correlation= BEEF-VDW
                           (   1   4  43  14   2   0   0)

     celldm(1)=   1.889726  celldm(2)=   0.000000  celldm(3)=   0.000000
     celldm(4)=   0.000000  celldm(5)=   0.000000  celldm(6)=   0.000000

     crystal axes: (cart. coord. in units of alat)
               a(1) = (   6.579727   0.000000   0.000000 )
               a(2) = (  -0.000775   5.961596   0.000000 )
               a(3) = (   0.000000   0.000000  25.155947 )

     reciprocal axes: (cart. coord. in units 2 pi/alat)
               b(1) = (  0.151982  0.000020  0.000000 )
               b(2) = (  0.000000  0.167740  0.000000 )
               b(3) = (  0.000000  0.000000  0.039752 )

     PseudoPot. # 1 for Ti read from file:
     /storage/coda1/p-amedford6/0/shared/rich_project_chbe-medford/medford-share/data/pseudos_module/espresso/nninc/pbe/van/Ti.UPF
     MD5 check sum: 8e4df49b7f0d34bbd5052bf3f5ea0213
     Pseudo is Ultrasoft, Zval = 12.0
     Generated by new atomic code, or converted to UPF format
     Using radial grid of  851 points,  6 beta functions with:
                l(1) =   0
                l(2) =   0
                l(3) =   1
                l(4) =   1
                l(5) =   2
                l(6) =   2
     Q(r) pseudized with  8 coefficients,  rinner =    1.000   1.000   1.000
                                                       1.000   1.000

     PseudoPot. # 2 for O  read from file:
     /storage/coda1/p-amedford6/0/shared/rich_project_chbe-medford/medford-share/data/pseudos_module/espresso/nninc/pbe/van/O.UPF
     MD5 check sum: 78c19812648e8988a0fe644b0f25305e
     Pseudo is Ultrasoft, Zval =  6.0
     Generated by new atomic code, or converted to UPF format
     Using radial grid of  737 points,  4 beta functions with:
                l(1) =   0
                l(2) =   0
                l(3) =   1
                l(4) =   1
     Q(r) pseudized with  8 coefficients,  rinner =    0.800   0.800   0.800

     PseudoPot. # 3 for C  read from file:
     /storage/coda1/p-amedford6/0/shared/rich_project_chbe-medford/medford-share/data/pseudos_module/espresso/nninc/pbe/van/C.UPF
     MD5 check sum: 1a69bf6b8db32088f5b2163dbdb77a27
     Pseudo is Ultrasoft, Zval =  4.0
     Generated by new atomic code, or converted to UPF format
     Using radial grid of  721 points,  4 beta functions with:
                l(1) =   0
                l(2) =   0
                l(3) =   1
                l(4) =   1
     Q(r) pseudized with  8 coefficients,  rinner =    0.800   0.800   0.800

     PseudoPot. # 4 for H  read from file:
     /storage/coda1/p-amedford6/0/shared/rich_project_chbe-medford/medford-share/data/pseudos_module/espresso/nninc/pbe/van/H.UPF
     MD5 check sum: b5ee9d7bfd3a09ee7748110bda690ff7
     Pseudo is Ultrasoft, Zval =  1.0
     Generated by new atomic code, or converted to UPF format
     Using radial grid of  615 points,  1 beta functions with:
                l(1) =   0
     Q(r) pseudized with  8 coefficients,  rinner =    0.800

     PseudoPot. # 5 for N  read from file:
     /storage/coda1/p-amedford6/0/shared/rich_project_chbe-medford/medford-share/data/pseudos_module/espresso/nninc/pbe/van/N.UPF
     MD5 check sum: 90d10febe142ad51ac9d5be1deb811c4
     Pseudo is Ultrasoft, Zval =  5.0
     Generated by new atomic code, or converted to UPF format
     Using radial grid of  729 points,  4 beta functions with:
                l(1) =   0
                l(2) =   0
                l(3) =   1
                l(4) =   1
     Q(r) pseudized with  8 coefficients,  rinner =    0.800   0.800   0.800

     atomic species   valence    mass     pseudopotential
        Ti1           12.00    47.86700     Ti( 1.00)
        O1             6.00    15.99900     O ( 1.00)
        C1             4.00    12.01100     C ( 1.00)
        H1             1.00     1.00800     H ( 1.00)
        N1             5.00    14.00700     N ( 1.00)

     No symmetry found

   Cartesian axes

     site n.     atom                  positions (alat units)
         1           Ti1 tau(   1) = (   0.0004258   2.9801865   6.0000000  )
         2           Ti1 tau(   2) = (   3.2906075   1.4906267   6.0002472  )
         3           O1  tau(   3) = (   0.0006271   0.0005054   7.9858123  )
         4           O1  tau(   4) = (   3.2906025   0.0005020   7.3038282  )
         5           O1  tau(   5) = (   4.5942328   1.4918067   9.2879030  )
         6           O1  tau(   6) = (   1.9868534   1.4903216   9.2879459  )
         7           Ti1 tau(   7) = (   3.2907910   2.8959150   9.1758416  )
         8           Ti1 tau(   8) = (   0.0015273   1.4827037   9.2680791  )
         9           O1  tau(   9) = (   3.2981156   0.0012339  11.3300471  )
        10           O1  tau(  10) = (   0.0116148   5.9584955  10.6183126  )
        11           O1  tau(  11) = (   1.3033605   1.5036236  12.6199488  )
        12           O1  tau(  12) = (   5.2811161   1.5074500  12.6162500  )
        13           Ti1 tau(  13) = (   0.0407500   2.9455431  12.6352795  )
        14           Ti1 tau(  14) = (   3.3444429   1.4910927  12.4779025  )
        15           O1  tau(  15) = (   0.0052662   0.0451097  14.6026341  )
        16           O1  tau(  16) = (   3.2946143   0.0124870  13.9210852  )
        17           O1  tau(  17) = (   4.5465206   1.5046604  16.0624161  )
        18           O1  tau(  18) = (   2.0546879   1.5048301  16.0609706  )
        19           Ti1 tau(  19) = (   3.2991624   2.9918142  15.6995589  )
        20           Ti1 tau(  20) = (   6.5707204   1.4025535  15.8059435  )
        21           O1  tau(  21) = (   3.2904802   0.0005063   4.7018136  )
        22           O1  tau(  22) = (   0.0164654   0.0145536  17.1360041  )
        23           O1  tau(  23) = (   1.3043587   1.4918075   6.0039043  )
        24           O1  tau(  24) = (   5.2767064   1.4903225   6.0039473  )
        25           Ti1 tau(  25) = (   0.0000382   5.9609847   6.0000000  )
        26           Ti1 tau(  26) = (   3.2902200   4.4714249   6.0002472  )
        27           O1  tau(  27) = (   0.0002396   2.9813036   7.9858123  )
        28           O1  tau(  28) = (   3.2902150   2.9813002   7.3038282  )
        29           O1  tau(  29) = (   4.5938453   4.4726049   9.2879030  )
        30           O1  tau(  30) = (   1.9864658   4.4711199   9.2879459  )
        31           Ti1 tau(  31) = (   3.2891106   5.8743827   9.1763621  )
        32           Ti1 tau(  32) = (   0.0006254   4.4649316   9.2693709  )
        33           O1  tau(  33) = (   3.2977166   2.9913250  11.3287690  )
        34           O1  tau(  34) = (   0.0092240   2.9805883  10.6323155  )
        35           O1  tau(  35) = (   1.3008534   4.4801743  12.6308489  )
        36           O1  tau(  36) = (   5.2850400   4.4860598  12.6280017  )
        37           Ti1 tau(  37) = (   0.0409916   5.9178611  12.5441859  )
        38           Ti1 tau(  38) = (   3.3442415   4.4710906  12.4862270  )
        39           O1  tau(  39) = (   0.0109228   2.9791018  14.7123696  )
        40           O1  tau(  40) = (   3.2998940   2.9912248  13.9043662  )
        41           O1  tau(  41) = (   4.5474046   4.4713503  16.0779382  )
        42           O1  tau(  42) = (   2.0618872   4.4767818  16.0643778  )
        43           Ti1 tau(  43) = (   3.2722838   0.0128901  15.7174356  )
        44           Ti1 tau(  44) = (   6.5592075   4.4947239  16.1563676  )
        45           O1  tau(  45) = (   3.2900926   2.9813045   4.7018136  )
        46           O1  tau(  46) = (   1.3039711   4.4726057   6.0039043  )
        47           O1  tau(  47) = (   5.2763189   4.4711207   6.0039473  )
        48           C1  tau(  48) = (   0.0359503   3.0870652  17.8341721  )
        49           H1  tau(  49) = (   5.8142062   3.6010452  18.3763092  )
        50           H1  tau(  50) = (   6.4884518   2.0305676  18.0614951  )
        51           H1  tau(  51) = (   0.9863100   3.3782628  18.2908018  )
        52           N1  tau(  52) = (   4.7642638   1.7931862  21.6370373  )
        53           H1  tau(  53) = (   4.5527921   2.7808570  21.5386679  )
        54           H1  tau(  54) = (   4.1042548   1.2952780  21.0483319  )
        55           H1  tau(  55) = (   4.5435699   1.5432347  22.5953497  )

     number of k points=    10  Fermi-Dirac smearing, width (Ry)=  0.0073
                       cart. coord. in units 2pi/alat
        k(    1) = (   0.0000000   0.0000000   0.0000000), wk =   0.1250000
        k(    2) = (   0.0000000   0.0419351   0.0000000), wk =   0.2500000
        k(    3) = (   0.0000000  -0.0838702   0.0000000), wk =   0.1250000
        k(    4) = (   0.0379955   0.0000049   0.0000000), wk =   0.2500000
        k(    5) = (   0.0379955   0.0419400   0.0000000), wk =   0.2500000
        k(    6) = (   0.0379955  -0.0838652   0.0000000), wk =   0.2500000
        k(    7) = (   0.0379955  -0.0419301   0.0000000), wk =   0.2500000
        k(    8) = (  -0.0759910  -0.0000099   0.0000000), wk =   0.1250000
        k(    9) = (  -0.0759910   0.0419252   0.0000000), wk =   0.2500000
        k(   10) = (  -0.0759910  -0.0838800   0.0000000), wk =   0.1250000

     Initial potential from superposition of free atoms

     starting charge  376.99914, renormalised to  393.00000

     negative rho (up, down):  1.000E-02 0.000E+00

     %%%%%%%%%%%%%%%%%%%%%%%%%%%%%%%%%%%%%%%%%%%%%%%%%%%%%%%%%%%%%%%%%%%%%%%%
     %                                                                      %
     % You are using vdW-DF, which was implemented by the Thonhauser group. %
     % Please cite the following two papers that made this development      %
     % possible and the two reviews that describe the various versions:     %
     %                                                                      %
     %   T. Thonhauser et al., PRL 115, 136402 (2015).                      %
     %   T. Thonhauser et al., PRB 76, 125112 (2007).                       %
     %   K. Berland et al., Rep. Prog. Phys. 78, 066501 (2015).             %
     %   D.C. Langreth et al., J. Phys.: Condens. Matter 21, 084203 (2009). %
     %                                                                      %
     %                                                                      %
     % If you are calculating the stress with vdW-DF, please also cite:     %
     %                                                                      %
     %   R. Sabatini et al., J. Phys.: Condens. Matter 24, 424209 (2012).   %
     %                                                                      %
     %%%%%%%%%%%%%%%%%%%%%%%%%%%%%%%%%%%%%%%%%%%%%%%%%%%%%%%%%%%%%%%%%%%%%%%%

     Adding external electric field

     Computed dipole along edir(3) :
        Dipole               -9.0616 Ry au,        -23.0322 Debye
        Dipole field         -0.0171 Ry au,

        Potential amp.        1.5852 Ry
        Total length         46.3494 bohr

     Starting wfcs are  298 atomic wfcs
  @ DRIVER MODE: Message from server: STATUS
  @ DRIVER MODE: Message from server: POSDATA
  @ DRIVER MODE: Reading and sharing cell
  @ DRIVER MODE: Reading and sharing positions
  @ DRIVER MODE: Received positions

     Self-consistent Calculation

     iteration #  1     ecut=    29.40 Ry     beta= 0.05
     Davidson diagonalization with overlap
     c_bands:  1 eigenvalues not converged
     c_bands:  1 eigenvalues not converged
     c_bands:  1 eigenvalues not converged
     ethr =  1.00E-05,  avg # of iterations = 17.8

[...]

     total energy              =   -2692.42927586 Ry
     estimated scf accuracy    <    2566.21488517 Ry

[...]

     iteration #  3     ecut=    29.40 Ry     beta= 0.05
     Davidson diagonalization with overlap
     ethr =  1.00E-02,  avg # of iterations = 17.3

[...]

     iteration # 72     ecut=    29.40 Ry     beta= 0.05
     Davidson diagonalization with overlap
     c_bands:  2 eigenvalues not converged
     ethr =  2.81E-09,  avg # of iterations = 12.7

[...]

     total energy              =   -2922.78956515 Ry
     estimated scf accuracy    <       0.00000008 Ry

     iteration # 84     ecut=    29.40 Ry     beta= 0.05
     Davidson diagonalization with overlap
     ethr =  1.99E-11,  avg # of iterations = 10.1

     negative rho (up, down):  1.131E-02 0.000E+00

     Adding external electric field

     Computed dipole along edir(3) :
        Dipole                0.5514 Ry au,          1.4016 Debye
        Dipole field          0.0010 Ry au,

        Potential amp.       -0.0965 Ry
        Total length         46.3494 bohr

     End of self-consistent calculation

          k = 0.0000 0.0000 0.0000 ( 18029 PWs)   bands (ev):

   -56.0337 -56.0302 -55.9996 -55.9938 -55.9016 -55.8668 -55.8664 -55.8418
   -55.8233 -55.8078 -55.8028 -55.7691 -55.5690 -55.4023 -55.0093 -54.9752
   -32.5886 -32.5156 -32.3611 -32.3550 -32.3411 -32.3402 -32.3268 -32.2935
   -32.2764 -32.2396 -32.2336 -32.2330 -32.2098 -32.1860 -32.1735 -32.1672
   -32.1375 -32.1354 -32.1212 -32.0909 -32.0810 -32.0701 -32.0387 -32.0336
   -32.0293 -32.0278 -32.0133 -32.0119 -32.0052 -31.9801 -31.9795 -31.9770
   -31.9721 -31.9713 -31.9560 -31.9467 -31.9152 -31.8479 -31.7832 -31.6898
   -31.6307 -31.5198 -31.4163 -31.3282 -31.3057 -31.2330 -31.1466 -31.0355
   -16.7685 -16.5050 -16.2731 -16.1825 -16.1327 -16.0462 -15.8687 -15.7521
   -15.7037 -15.6029 -15.5701 -15.5504 -15.5338 -15.5036 -15.4952 -15.4702
   -15.4589 -15.4525 -15.4180 -15.3900 -15.3649 -15.3503 -15.2304 -15.1780
   -15.1619 -15.1308 -15.0828 -15.0665 -14.6122 -13.6557 -13.5122 -13.3958
    -9.0512  -4.1432  -3.9629  -3.9375  -3.8893  -3.8476  -3.7143  -3.6971
    -3.6449  -3.5846  -3.2670  -3.2097  -3.2016  -3.1608  -3.1461  -2.9895
    -2.9246  -2.8505  -2.8340  -2.8283  -2.8030  -2.7977  -2.7930  -2.7504
    -2.7081  -2.6531  -2.6293  -2.5585  -2.5180  -2.4440  -2.3710  -2.3435
    -2.3014  -2.2977  -2.2621  -2.2502  -2.2420  -2.2317  -2.1965  -2.1797
    -2.0015  -1.9483  -1.8847  -1.8167  -1.8028  -1.6383  -1.5315  -1.4845
    -1.4652  -1.4580  -1.4398  -1.4229  -1.3272  -1.2093  -1.1762  -1.1268
    -1.0790  -1.0304  -1.0004  -0.9001  -0.8836  -0.7924  -0.7791  -0.7606
    -0.6501  -0.6243  -0.4913  -0.4701  -0.4638  -0.4039  -0.3883  -0.3154
    -0.2911  -0.2347  -0.1695  -0.1574  -0.0891  -0.0631  -0.0598  -0.0032
     0.0013   0.0466   0.0609   0.1707   0.2266   0.2760   0.3300   0.4361
     0.5163   0.6307   0.6774   0.7368   0.9386   1.0121   1.1216   1.1821
     1.2053   1.4661   1.5835   1.6290   3.1048   3.1899   3.2114   3.2373
     3.3447   3.3696   3.5554   3.5719   3.6063   3.6262

[...]

          k = 0.0380-0.0419 0.0000 ( 17876 PWs)   bands (ev):

[...]

          k =-0.0760-0.0000 0.0000 ( 17886 PWs)   bands (ev):

[...]

          k =-0.0760-0.0839 0.0000 ( 17948 PWs)   bands (ev):

   -56.0172 -56.0160 -56.0148 -56.0090 -55.8867 -55.8816 -55.8580 -55.8318
   -55.8254 -55.8236 -55.7873 -55.7849 -55.5675 -55.4036 -54.9923 -54.9921
   -32.3945 -32.3881 -32.3312 -32.3305 -32.3127 -32.3118 -32.2933 -32.2887
   -32.2223 -32.2213 -32.2183 -32.2075 -32.1672 -32.1662 -32.1469 -32.1425
   -32.1382 -32.1367 -32.1356 -32.1277 -32.1265 -32.1237 -32.0881 -32.0776
   -32.0729 -32.0506 -32.0464 -32.0326 -32.0237 -32.0228 -32.0189 -32.0170
   -32.0018 -32.0004 -31.9963 -31.9902 -31.9257 -31.8308 -31.7854 -31.6926
   -31.6750 -31.5640 -31.3185 -31.3184 -31.2292 -31.2290 -31.1899 -31.1898
   -16.2104 -16.1874 -15.9809 -15.9467 -15.9432 -15.9362 -15.8054 -15.7250
   -15.7245 -15.6987 -15.6378 -15.6264 -15.6044 -15.5658 -15.5416 -15.5391
   -15.5205 -15.5155 -15.4892 -15.4791 -15.4662 -15.4590 -15.3665 -15.3468
   -15.3430 -15.2935 -15.1482 -15.0018 -14.8931 -13.6550 -13.4977 -13.4975
    -9.0656  -3.7166  -3.7079  -3.5066  -3.4753  -3.2328  -3.1946  -3.1814
    -3.1123  -2.9559  -2.9163  -2.8984  -2.8907  -2.8463  -2.8387  -2.8335
    -2.8219  -2.7937  -2.7763  -2.7387  -2.7325  -2.7175  -2.7109  -2.6995
    -2.6823  -2.6523  -2.6437  -2.6166  -2.6082  -2.5883  -2.5711  -2.5438
    -2.5388  -2.4109  -2.2520  -2.2285  -2.1675  -2.1601  -2.1137  -2.1006
    -2.0941  -2.0668  -2.0388  -2.0097  -1.8506  -1.7405  -1.7259  -1.7092
    -1.6405  -1.6126  -1.5283  -1.4373  -1.3961  -1.3785  -1.3104  -1.3065
    -1.2562  -1.2318  -1.2111  -1.1436  -1.0871  -1.0498  -0.9927  -0.9866
    -0.9786  -0.9085  -0.8662  -0.7911  -0.7824  -0.7454  -0.7104  -0.6552
    -0.6200  -0.6097  -0.5195  -0.4872  -0.3749  -0.3262  -0.0679  -0.0203
     0.0335   0.0616   0.1268   0.1848   0.1890   0.2864   0.2901   0.3264
     0.4059   0.4272   0.4982   0.5174   0.5674   0.7292   1.2778   1.3762
     1.3770   1.4486   1.4489   1.4566   3.4026   3.4142   3.4214   3.4660
     3.6113   3.6160   3.6347   3.6363   3.7751   3.7932

     the Fermi energy is     3.1013 ev

!    total energy              =   -2922.78956910 Ry
     estimated scf accuracy    <       0.00000005 Ry
     smearing contrib. (-TS)   =      -0.02169744 Ry
     internal energy E=F+TS    =   -2922.76787166 Ry

     The total energy is F=E-TS. E is the sum of the following terms:
     one-electron contribution =  -23651.34416945 Ry
     hartree contribution      =   11909.87853742 Ry
     xc contribution           =    -482.26428909 Ry
     ewald contribution        =    9300.96147565 Ry
     electric field correction =       0.00057380 Ry

     convergence has been achieved in  84 iterations

     Forces acting on atoms (cartesian axes, Ry/au):

     atom    1 type  1   force =     0.00004940   -0.00022799    0.09685069
     atom    2 type  1   force =    -0.00017550   -0.00056054   -0.17514426
     atom    3 type  2   force =     0.00002200   -0.00005135   -0.02501978
     atom    4 type  2   force =     0.00002777   -0.00140008    0.05266128
     atom    5 type  2   force =    -0.01206499   -0.00051387    0.00330847
     atom    6 type  2   force =     0.01379447    0.00008492    0.00270578
     atom    7 type  1   force =    -0.00058199    0.00056361   -0.01157178
     atom    8 type  1   force =     0.00020375    0.01201403    0.02898715
     atom    9 type  2   force =    -0.00029737    0.00057885    0.00057902
     atom   10 type  2   force =    -0.00153521    0.00252206   -0.01945727
     atom   11 type  2   force =    -0.00018025   -0.00037603   -0.00013804
     atom   12 type  2   force =    -0.00090016    0.00003340   -0.00029391
     atom   13 type  1   force =     0.00054858   -0.00097183    0.00107783
     atom   14 type  1   force =     0.00145248    0.00057511   -0.00068729
     atom   15 type  2   force =    -0.00012617   -0.00107633    0.00040989
     atom   16 type  2   force =    -0.00020823   -0.00020050   -0.00147140
     atom   17 type  2   force =    -0.00065274    0.00075003   -0.00001571
     atom   18 type  2   force =     0.00047734    0.00092838    0.00003685
     atom   19 type  1   force =    -0.00017940   -0.00111756    0.00059244
     atom   20 type  1   force =    -0.00020187    0.00048369   -0.00012025
     atom   21 type  2   force =     0.00004835   -0.00003968    0.10321460
     atom   22 type  2   force =     0.00025517   -0.00029915    0.00095552
     atom   23 type  2   force =    -0.07154068   -0.00014514   -0.02768438
     atom   24 type  2   force =     0.07143201    0.00026648   -0.02771109
     atom   25 type  1   force =     0.00005365   -0.00028118    0.09644274
     atom   26 type  1   force =    -0.00019760   -0.00029333   -0.17537618
     atom   27 type  2   force =     0.00008496   -0.00016788   -0.02380095
     atom   28 type  2   force =     0.00004409   -0.00113933    0.05274247
     atom   29 type  2   force =    -0.01210399    0.00085191    0.00277237
     atom   30 type  2   force =     0.01375054    0.00124087    0.00218961
     atom   31 type  1   force =    -0.00047010    0.00303298   -0.01242691
     atom   32 type  1   force =     0.00018857   -0.01422826    0.02940063
     atom   33 type  2   force =    -0.00023079   -0.00062998    0.00043840
     atom   34 type  2   force =    -0.00098261    0.00176562   -0.02266764
     atom   35 type  2   force =    -0.00067355   -0.00060198   -0.00011789
     atom   36 type  2   force =     0.00003215   -0.00014717   -0.00033218
     atom   37 type  1   force =     0.00065311    0.00026440    0.00054631
     atom   38 type  1   force =     0.00150784    0.00018900   -0.00068560
     atom   39 type  2   force =     0.00006545    0.00014144   -0.00125595
     atom   40 type  2   force =    -0.00034792   -0.00009947    0.00175645
     atom   41 type  2   force =    -0.00076148   -0.00105620   -0.00011096
     atom   42 type  2   force =     0.00031938   -0.00144674    0.00021957
     atom   43 type  1   force =     0.00023088    0.00065983    0.00105996
     atom   44 type  1   force =     0.00054037   -0.00027402    0.00070063
     atom   45 type  2   force =     0.00005774   -0.00009122    0.10316753
     atom   46 type  2   force =    -0.07152679   -0.00011189   -0.02768387
     atom   47 type  2   force =     0.07143341    0.00031681   -0.02771746
     atom   48 type  3   force =     0.00180404    0.00203161   -0.00089889
     atom   49 type  4   force =    -0.00089113   -0.00085860   -0.00034641
     atom   50 type  4   force =    -0.00193197   -0.00187182    0.00127806
     atom   51 type  4   force =    -0.00065976    0.00088765   -0.00042317
     atom   52 type  5   force =    -0.00008887   -0.00018312   -0.00036328
     atom   53 type  4   force =     0.00064549   -0.00004003   -0.00037313
     atom   54 type  4   force =     0.00007130    0.00019721   -0.00011630
     atom   55 type  4   force =    -0.00028320    0.00012239   -0.00008231

     Total force =     0.368352     Total SCF correction =     0.000645
  @ DRIVER MODE: Message from server: STATUS
  @ DRIVER MODE: Message from server: GETFORCE
  @ DRIVER MODE: Returning v,forces,stress,ensemble

     Writing output data file ./calc.save/
  @ DRIVER MODE: Message from server: EXIT
  @ DRIVE MODE: Exiting

     General routines

     Parallel routines

   This run was terminated on:  17:41:40   2Aug2021

   JOB DONE.