     Program PWSCF v.6.7GPU starts on 10Sep2021 at 14:10:15

     R & G space division:  proc/nbgrp/npool/nimage =      10
     Reading input from /storage/home/hcoda1/3/ntian30/research/carbon/CxH_vib/CH_calc/ads_slab/CHO_b/out_0013/pw.inp
Warning: card &CELL ignored
Warning: card   CELL_DYNAMICS='IPI', ignored
Warning: card / ignored

     Current dimensions of program PWSCF are:
     Max number of different atomic species (ntypx) = 10
     Max number of k-points (npk) =  40000
     Max angular momentum in pseudopotentials (lmaxx) =  3
     Presently no symmetry can be used with electric field

     Message from routine cell_base_init:
     DEPRECATED: use true lattice parameter, not A to a.u. conversion factor

     IMPORTANT: XC functional enforced from input :
     Exchange-correlation= BEEF-VDW
                           (   1   4  43  14   2   0   0)
     Any further DFT definition will be discarded
     Please, verify this is what you really want

  @ DRIVER MODE: Connecting to
 qe_1139763_2787519.sched-torque.pace.gatech.edubf5byvxb_scratch
  using UNIX socket
  @ DRIVER MODE: Message from server: STATUS
  @ DRIVER MODE: Message from server: INIT
  @ DRIVER MODE: Receiving replica           0          -1
  @ DRIVER MODE: Receiving encoded integer          25
  @ DRIVER MODE:  SCF:  T  FORCE:  T  STRESS:  F  VC:  F  ENSEMBLE:  F
  @ DRIVER MODE:  SCF:  T  FORCE:  T  STRESS:  F  VC:  F  ENSEMBLE:  F

     Using Slab Decomposition

     bravais-lattice index     =            0
     lattice parameter (alat)  =       1.8897  a.u.
     unit-cell volume          =    6658.9804 (a.u.)^3
     number of atoms/cell      =           50
     number of atomic types    =            4
     number of electrons       =       389.00
     number of Kohn-Sham states=          204
     kinetic-energy cutoff     =      29.3995  Ry
     charge density cutoff     =     293.9946  Ry
     scf convergence threshold =      7.3E-08
     mixing beta               =       0.0500
     number of iterations used =            8  plain     mixing
     Exchange-correlation= BEEF-VDW
                           (   1   4  43  14   2   0   0)

     celldm(1)=   1.889726  celldm(2)=   0.000000  celldm(3)=   0.000000
     celldm(4)=   0.000000  celldm(5)=   0.000000  celldm(6)=   0.000000

     crystal axes: (cart. coord. in units of alat)
               a(1) = (   6.579727   0.000000   0.000000 )
               a(2) = (  -0.000775   5.961596   0.000000 )
               a(3) = (   0.000000   0.000000  25.155947 )

     reciprocal axes: (cart. coord. in units 2 pi/alat)
               b(1) = (  0.151982  0.000020  0.000000 )
               b(2) = (  0.000000  0.167740  0.000000 )
               b(3) = (  0.000000  0.000000  0.039752 )

     PseudoPot. # 1 for C  read from file:
     /storage/coda1/p-amedford6/0/shared/rich_project_chbe-medford/medford-share/data/pseudos_module/espresso/nninc/pbe/van/C.UPF
     MD5 check sum: 1a69bf6b8db32088f5b2163dbdb77a27
     Pseudo is Ultrasoft, Zval =  4.0
     Generated by new atomic code, or converted to UPF format
     Using radial grid of  721 points,  4 beta functions with:
                l(1) =   0
                l(2) =   0
                l(3) =   1
                l(4) =   1
     Q(r) pseudized with  8 coefficients,  rinner =    0.800   0.800   0.800

     PseudoPot. # 2 for H  read from file:
     /storage/coda1/p-amedford6/0/shared/rich_project_chbe-medford/medford-share/data/pseudos_module/espresso/nninc/pbe/van/H.UPF
     MD5 check sum: b5ee9d7bfd3a09ee7748110bda690ff7
     Pseudo is Ultrasoft, Zval =  1.0
     Generated by new atomic code, or converted to UPF format
     Using radial grid of  615 points,  1 beta functions with:
                l(1) =   0
     Q(r) pseudized with  8 coefficients,  rinner =    0.800

     PseudoPot. # 3 for O  read from file:
     /storage/coda1/p-amedford6/0/shared/rich_project_chbe-medford/medford-share/data/pseudos_module/espresso/nninc/pbe/van/O.UPF
     MD5 check sum: 78c19812648e8988a0fe644b0f25305e
     Pseudo is Ultrasoft, Zval =  6.0
     Generated by new atomic code, or converted to UPF format
     Using radial grid of  737 points,  4 beta functions with:
                l(1) =   0
                l(2) =   0
                l(3) =   1
                l(4) =   1
     Q(r) pseudized with  8 coefficients,  rinner =    0.800   0.800   0.800

     PseudoPot. # 4 for Ti read from file:
     /storage/coda1/p-amedford6/0/shared/rich_project_chbe-medford/medford-share/data/pseudos_module/espresso/nninc/pbe/van/Ti.UPF
     MD5 check sum: 8e4df49b7f0d34bbd5052bf3f5ea0213
     Pseudo is Ultrasoft, Zval = 12.0
     Generated by new atomic code, or converted to UPF format
     Using radial grid of  851 points,  6 beta functions with:
                l(1) =   0
                l(2) =   0
                l(3) =   1
                l(4) =   1
                l(5) =   2
                l(6) =   2
     Q(r) pseudized with  8 coefficients,  rinner =    1.000   1.000   1.000
                                                       1.000   1.000

     atomic species   valence    mass     pseudopotential
        C1             4.00    12.01100     C ( 1.00)
        H1             1.00     1.00800     H ( 1.00)
        O1             6.00    15.99900     O ( 1.00)
        Ti1           12.00    47.86700     Ti( 1.00)

     No symmetry found

   Cartesian axes

     site n.     atom                  positions (alat units)
         1           C1  tau(   1) = (   6.3587776   3.0346171  18.6991070  )
         2           H1  tau(   2) = (   6.2922760   4.0827217  19.0929586  )
         3           O1  tau(   3) = (   3.2904802   0.0005063   4.7018136  )
         4           O1  tau(   4) = (   3.2900926   2.9813045   4.7018136  )
         5           O1  tau(   5) = (   1.3043587   1.4918075   6.0039043  )
         6           O1  tau(   6) = (   1.3039711   4.4726057   6.0039043  )
         7           O1  tau(   7) = (   5.2767064   1.4903225   6.0039473  )
         8           O1  tau(   8) = (   5.2763189   4.4711207   6.0039473  )
         9           O1  tau(   9) = (   3.2906025   0.0005020   7.3038282  )
        10           O1  tau(  10) = (   3.2902150   2.9813002   7.3038282  )
        11           O1  tau(  11) = (   0.0006271   0.0005054   7.9858123  )
        12           O1  tau(  12) = (   0.0002396   2.9813036   7.9858123  )
        13           O1  tau(  13) = (   4.5942328   1.4918067   9.2879030  )
        14           O1  tau(  14) = (   4.5938453   4.4726049   9.2879030  )
        15           O1  tau(  15) = (   1.9868534   1.4903216   9.2879459  )
        16           O1  tau(  16) = (   1.9864658   4.4711199   9.2879459  )
        17           O1  tau(  17) = (   0.0089551   0.0090731  10.6060956  )
        18           O1  tau(  18) = (   0.0081065   2.9926185  10.5846179  )
        19           O1  tau(  19) = (   3.3067820   2.9987866  11.3556459  )
        20           O1  tau(  20) = (   3.3065515   0.0102365  11.3568631  )
        21           O1  tau(  21) = (   1.3059347   4.4882002  12.6500237  )
        22           O1  tau(  22) = (   1.3055417   1.5035265  12.6360268  )
        23           O1  tau(  23) = (   5.3051359   4.4887816  12.6540200  )
        24           O1  tau(  24) = (   5.3068170   1.5036142  12.6392087  )
        25           O1  tau(  25) = (   3.3083304   2.9784526  13.9386285  )
        26           O1  tau(  26) = (   3.3091502   0.0178089  13.9621511  )
        27           O1  tau(  27) = (   0.0285945   0.0429851  14.7139334  )
        28           O1  tau(  28) = (   0.0250276   2.9934328  14.7031448  )
        29           O1  tau(  29) = (   4.5637773   4.4621573  16.0705933  )
        30           O1  tau(  30) = (   4.5704664   1.4990971  16.1219853  )
        31           O1  tau(  31) = (   2.0588915   1.5049852  16.1384741  )
        32           O1  tau(  32) = (   2.0574578   4.4569323  16.0734780  )
        33           O1  tau(  33) = (   0.0254153   5.9007630  17.2337123  )
        34           O1  tau(  34) = (   6.5713271   3.0778540  17.4505513  )
        35           Ti1 tau(  35) = (   0.0004258   2.9801865   6.0000000  )
        36           Ti1 tau(  36) = (   0.0000382   5.9609847   6.0000000  )
        37           Ti1 tau(  37) = (   3.2906075   1.4906267   6.0002472  )
        38           Ti1 tau(  38) = (   3.2902200   4.4714249   6.0002472  )
        39           Ti1 tau(  39) = (   3.3074154   0.0512905   9.1535614  )
        40           Ti1 tau(  40) = (   3.3175376   3.0295664   9.1577231  )
        41           Ti1 tau(  41) = (   0.0320011   4.5319281   9.2536552  )
        42           Ti1 tau(  42) = (   0.0291175   1.6124540   9.3624198  )
        43           Ti1 tau(  43) = (   0.0319384   0.0140983  12.5009621  )
        44           Ti1 tau(  44) = (   3.3263618   4.4926927  12.5056541  )
        45           Ti1 tau(  45) = (   3.3260875   1.5134289  12.4961054  )
        46           Ti1 tau(  46) = (   0.0295699   2.9870307  12.7765901  )
        47           Ti1 tau(  47) = (   3.3175271   2.9789158  15.7343353  )
        48           Ti1 tau(  48) = (   3.3259804   0.0027171  15.7579320  )
        49           Ti1 tau(  49) = (   0.0443155   4.5193005  15.8502718  )
        50           Ti1 tau(  50) = (   0.0243648   1.3127704  16.1505034  )

     number of k points=    10  Fermi-Dirac smearing, width (Ry)=  0.0073
                       cart. coord. in units 2pi/alat
        k(    1) = (   0.0000000   0.0000000   0.0000000), wk =   0.1250000
        k(    2) = (   0.0000000   0.0419351   0.0000000), wk =   0.2500000
        k(    3) = (   0.0000000  -0.0838702   0.0000000), wk =   0.1250000
        k(    4) = (   0.0379955   0.0000049   0.0000000), wk =   0.2500000
        k(    5) = (   0.0379955   0.0419400   0.0000000), wk =   0.2500000
        k(    6) = (   0.0379955  -0.0838652   0.0000000), wk =   0.2500000
        k(    7) = (   0.0379955  -0.0419301   0.0000000), wk =   0.2500000
        k(    8) = (  -0.0759910  -0.0000099   0.0000000), wk =   0.1250000
        k(    9) = (  -0.0759910   0.0419252   0.0000000), wk =   0.2500000
        k(   10) = (  -0.0759910  -0.0838800   0.0000000), wk =   0.1250000

     Initial potential from superposition of free atoms

     starting charge  372.99920, renormalised to  389.00000

     negative rho (up, down):  1.916E-02 0.000E+00

     %%%%%%%%%%%%%%%%%%%%%%%%%%%%%%%%%%%%%%%%%%%%%%%%%%%%%%%%%%%%%%%%%%%%%%%%
     %                                                                      %
     % You are using vdW-DF, which was implemented by the Thonhauser group. %
     % Please cite the following two papers that made this development      %
     % possible and the two reviews that describe the various versions:     %
     %                                                                      %
     %   T. Thonhauser et al., PRL 115, 136402 (2015).                      %
     %   T. Thonhauser et al., PRB 76, 125112 (2007).                       %
     %   K. Berland et al., Rep. Prog. Phys. 78, 066501 (2015).             %
     %   D.C. Langreth et al., J. Phys.: Condens. Matter 21, 084203 (2009). %
     %                                                                      %
     %                                                                      %
     % If you are calculating the stress with vdW-DF, please also cite:     %
     %                                                                      %
     %   R. Sabatini et al., J. Phys.: Condens. Matter 24, 424209 (2012).   %
     %                                                                      %
     %%%%%%%%%%%%%%%%%%%%%%%%%%%%%%%%%%%%%%%%%%%%%%%%%%%%%%%%%%%%%%%%%%%%%%%%

     Adding external electric field

     Computed dipole along edir(3) :
        Dipole               -4.4683 Ry au,        -11.3573 Debye
        Dipole field         -0.0084 Ry au,

        Potential amp.        0.7817 Ry
        Total length         46.3494 bohr

     Starting wfcs are  293 atomic wfcs
  @ DRIVER MODE: Message from server: STATUS
  @ DRIVER MODE: Message from server: POSDATA
  @ DRIVER MODE: Reading and sharing cell
  @ DRIVER MODE: Reading and sharing positions
  @ DRIVER MODE: Received positions

     Self-consistent Calculation

     iteration #  1     ecut=    29.40 Ry     beta= 0.05
     Davidson diagonalization with overlap
     c_bands:  4 eigenvalues not converged
     c_bands:  4 eigenvalues not converged
     c_bands:  3 eigenvalues not converged
     c_bands:  2 eigenvalues not converged
     c_bands:  2 eigenvalues not converged
     c_bands:  3 eigenvalues not converged
     c_bands:  3 eigenvalues not converged
     ethr =  1.00E-05,  avg # of iterations = 19.5

[...]

     total energy              =   -2876.62011252 Ry
     estimated scf accuracy    <     598.68909152 Ry

     iteration #  2     ecut=    29.40 Ry     beta= 0.05
     Davidson diagonalization with overlap
     ethr =  1.00E-02,  avg # of iterations = 14.2

[...]

     iteration # 56     ecut=    29.40 Ry     beta= 0.05
     Davidson diagonalization with overlap
     c_bands:  1 eigenvalues not converged
     ethr =  3.51E-11,  avg # of iterations = 13.6

[...]

     total energy              =   -2928.82189530 Ry
     estimated scf accuracy    <       0.00000007 Ry

     iteration # 57     ecut=    29.40 Ry     beta= 0.05
     Davidson diagonalization with overlap
     ethr =  1.90E-11,  avg # of iterations = 10.6

     negative rho (up, down):  1.792E-02 0.000E+00

     Adding external electric field

     Computed dipole along edir(3) :
        Dipole                0.1806 Ry au,          0.4589 Debye
        Dipole field          0.0003 Ry au,

        Potential amp.       -0.0316 Ry
        Total length         46.3494 bohr

     End of self-consistent calculation

          k = 0.0000 0.0000 0.0000 ( 18029 PWs)   bands (ev):

   -56.3094 -56.2966 -56.2727 -56.2598 -56.2063 -56.1988 -56.1651 -56.1474
   -56.0964 -56.0881 -56.0549 -56.0376 -55.9946 -55.9408 -55.3399 -55.3058
   -32.8616 -32.7828 -32.6721 -32.6517 -32.6158 -32.6092 -32.6064 -32.5893
   -32.5669 -32.5446 -32.5385 -32.5136 -32.5124 -32.4753 -32.4675 -32.4438
   -32.4427 -32.4288 -32.4280 -32.4045 -32.3815 -32.3755 -32.3720 -32.3702
   -32.3419 -32.3400 -32.3260 -32.3152 -32.3133 -32.3010 -32.2726 -32.2652
   -32.2628 -32.2588 -32.2322 -32.2130 -32.1934 -32.1818 -32.1766 -32.1671
   -32.1640 -32.1192 -31.7503 -31.6519 -31.6297 -31.5668 -31.4807 -31.3696
   -19.9247 -17.0586 -16.7829 -16.6116 -16.4913 -16.4522 -16.3124 -16.1774
   -16.0564 -15.9928 -15.9499 -15.8971 -15.8858 -15.8781 -15.8558 -15.8455
   -15.8320 -15.8178 -15.7625 -15.7524 -15.7272 -15.7153 -15.7040 -15.6157
   -15.5217 -15.4762 -15.4424 -15.3746 -15.3360 -15.2207 -13.8411 -13.7226
    -8.2405  -5.0143  -4.4142  -4.2487  -4.2130  -4.1921  -4.1388  -3.9243
    -3.8540  -3.6714  -3.5934  -3.4931  -3.4830  -3.4699  -3.4214  -3.4014
    -3.2635  -3.1773  -3.1491  -3.1441  -3.1358  -3.1073  -3.0689  -3.0367
    -3.0341  -3.0091  -2.8556  -2.8026  -2.7572  -2.7263  -2.7005  -2.6219
    -2.6130  -2.5856  -2.5669  -2.5512  -2.5445  -2.5312  -2.4943  -2.4393
    -2.3877  -2.2811  -2.1646  -2.1075  -2.0318  -1.9946  -1.8454  -1.7898
    -1.7523  -1.7253  -1.6774  -1.6411  -1.5789  -1.5602  -1.5238  -1.4686
    -1.3441  -1.3364  -1.2497  -1.1678  -1.1379  -1.0816  -1.0607  -1.0461
    -1.0353  -0.9335  -0.8008  -0.7935  -0.7647  -0.6821  -0.6555  -0.6321
    -0.5665  -0.5323  -0.5220  -0.4641  -0.4604  -0.3862  -0.3723  -0.3288
    -0.3008  -0.2910  -0.1769  -0.1154  -0.1000  -0.0726  -0.0196   0.1498
     0.1697   0.3131   0.4023   0.5846   0.6842   0.7430   0.8528   1.2721
     1.3302   2.5868   2.8574   2.8856   2.9192   2.9874   2.9967   3.1100
     3.2246   3.3013   3.3150   3.3479

[...]

          k = 0.0380-0.0419 0.0000 ( 17876 PWs)   bands (ev):

[...]

          k =-0.0760-0.0000 0.0000 ( 17886 PWs)   bands (ev):

[...]

          k =-0.0760-0.0839 0.0000 ( 17948 PWs)   bands (ev):

   -56.2979 -56.2841 -56.2817 -56.2744 -56.2008 -56.1863 -56.1777 -56.1528
   -56.0924 -56.0742 -56.0697 -56.0348 -55.9975 -55.9435 -55.3234 -55.3222
   -32.6671 -32.6617 -32.6066 -32.5927 -32.5911 -32.5837 -32.5699 -32.5620
   -32.5307 -32.5167 -32.5105 -32.5045 -32.4961 -32.4706 -32.4446 -32.4402
   -32.4278 -32.4230 -32.4217 -32.4135 -32.4129 -32.3982 -32.3954 -32.3932
   -32.3889 -32.3880 -32.3761 -32.3501 -32.3305 -32.3264 -32.3259 -32.2960
   -32.2806 -32.2771 -32.2769 -32.2710 -32.2682 -32.2224 -32.2000 -32.1915
   -32.1673 -32.1653 -31.6432 -31.6416 -31.5637 -31.5627 -31.5243 -31.5232
   -19.9163 -16.4880 -16.4543 -16.3250 -16.2345 -16.2195 -16.2049 -16.1384
   -16.0898 -16.0473 -16.0372 -15.9858 -15.9662 -15.9477 -15.9081 -15.8685
   -15.8454 -15.8325 -15.8280 -15.8036 -15.7758 -15.7731 -15.7291 -15.7085
   -15.6798 -15.6652 -15.6612 -15.5876 -15.5107 -15.3841 -13.8250 -13.8225
    -8.2399  -4.9937  -3.7774  -3.7357  -3.6816  -3.5785  -3.4474  -3.4387
    -3.4055  -3.3104  -3.2723  -3.2220  -3.2054  -3.1722  -3.1632  -3.1569
    -3.1357  -3.1264  -3.1137  -3.0570  -3.0404  -2.9912  -2.9863  -2.9719
    -2.9456  -2.9400  -2.9149  -2.9039  -2.8736  -2.8690  -2.8593  -2.8462
    -2.7205  -2.6666  -2.6299  -2.5604  -2.5003  -2.4759  -2.4394  -2.4084
    -2.3880  -2.3722  -2.3333  -2.1950  -2.1750  -2.0527  -2.0332  -2.0275
    -1.9717  -1.9430  -1.8705  -1.7642  -1.7474  -1.7220  -1.6207  -1.5908
    -1.5588  -1.5416  -1.4639  -1.4312  -1.4013  -1.3295  -1.2851  -1.2753
    -1.2203  -1.2004  -1.1128  -1.0764  -1.0676  -1.0249  -1.0049  -0.9777
    -0.8884  -0.8585  -0.8531  -0.7418  -0.6837  -0.6624  -0.4805  -0.3196
    -0.3103  -0.2569  -0.1874  -0.1171  -0.0587  -0.0432  -0.0370   0.0341
     0.1037   0.1834   0.2024   0.2133   0.2892   1.0424   1.0436   1.1352
     1.1464   2.5325   3.0586   3.0893   3.1208   3.1730   3.3157   3.3266
     3.3418   3.3565   3.3933   3.4793

     the Fermi energy is     2.8398 ev

!    total energy              =   -2928.82194295 Ry
     estimated scf accuracy    <       0.00000004 Ry
     smearing contrib. (-TS)   =      -0.02843431 Ry
     internal energy E=F+TS    =   -2928.79350864 Ry

     The total energy is F=E-TS. E is the sum of the following terms:
     one-electron contribution =  -24687.61827092 Ry
     hartree contribution      =   12423.75205345 Ry
     xc contribution           =    -480.34325579 Ry
     ewald contribution        =    9815.41590309 Ry
     electric field correction =       0.00006152 Ry

     convergence has been achieved in  57 iterations

     Forces acting on atoms (cartesian axes, Ry/au):

     atom    1 type  1   force =     0.00078966    0.00035898    0.00047209
     atom    2 type  2   force =     0.00103460   -0.00015666    0.00040818
     atom    3 type  3   force =    -0.00008719    0.00007931    0.10425411
     atom    4 type  3   force =    -0.00008765    0.00006064    0.10429499
     atom    5 type  3   force =    -0.06888891    0.00071975   -0.02910958
     atom    6 type  3   force =    -0.06839304   -0.00125546   -0.02912913
     atom    7 type  3   force =     0.06854476    0.00120654   -0.02919815
     atom    8 type  3   force =     0.06812392   -0.00084894   -0.02919192
     atom    9 type  3   force =     0.00047718    0.00050389    0.04634216
     atom   10 type  3   force =     0.00061518    0.00081901    0.04783507
     atom   11 type  3   force =     0.00031845   -0.00539509   -0.03209056
     atom   12 type  3   force =     0.00046441    0.00367293   -0.02487835
     atom   13 type  3   force =    -0.01761871    0.00034325    0.00422298
     atom   14 type  3   force =    -0.01681937    0.00155095    0.00302573
     atom   15 type  3   force =     0.01941798   -0.00070288    0.00490058
     atom   16 type  3   force =     0.01811911    0.00107940    0.00350928
     atom   17 type  3   force =     0.00004376   -0.00007753   -0.00032858
     atom   18 type  3   force =    -0.00006871   -0.00025272   -0.00085655
     atom   19 type  3   force =    -0.00014217   -0.00013558    0.00041520
     atom   20 type  3   force =    -0.00023130   -0.00011015    0.00065487
     atom   21 type  3   force =     0.00046318    0.00004236   -0.00006037
     atom   22 type  3   force =     0.00055461   -0.00004864   -0.00029205
     atom   23 type  3   force =    -0.00060938   -0.00000707   -0.00000253
     atom   24 type  3   force =    -0.00056484   -0.00006149   -0.00003936
     atom   25 type  3   force =    -0.00007796   -0.00024102   -0.00007081
     atom   26 type  3   force =    -0.00007805    0.00010852   -0.00034148
     atom   27 type  3   force =    -0.00047469    0.00008352    0.00003334
     atom   28 type  3   force =    -0.00034220    0.00061234    0.00065288
     atom   29 type  3   force =     0.00004796   -0.00001540    0.00023884
     atom   30 type  3   force =     0.00048243   -0.00006405    0.00049088
     atom   31 type  3   force =    -0.00018764   -0.00046112   -0.00004450
     atom   32 type  3   force =     0.00003575    0.00009063    0.00014938
     atom   33 type  3   force =    -0.00103056    0.00132730   -0.00107961
     atom   34 type  3   force =    -0.00110513   -0.00043694   -0.00020221
     atom   35 type  4   force =    -0.00033889   -0.00194455    0.10176885
     atom   36 type  4   force =    -0.00008146    0.00170737    0.11347434
     atom   37 type  4   force =    -0.00035952    0.00063523   -0.18070192
     atom   38 type  4   force =    -0.00020367   -0.00020289   -0.18089927
     atom   39 type  4   force =     0.00054252    0.00008126    0.00068846
     atom   40 type  4   force =     0.00060611    0.00002277    0.00041216
     atom   41 type  4   force =    -0.00069132    0.00095614    0.00116895
     atom   42 type  4   force =    -0.00075134   -0.00159210    0.00047087
     atom   43 type  4   force =    -0.00067179   -0.00035049   -0.00086648
     atom   44 type  4   force =     0.00046861    0.00029259   -0.00050799
     atom   45 type  4   force =     0.00046427   -0.00045097    0.00011696
     atom   46 type  4   force =    -0.00058500    0.00032028    0.00009533
     atom   47 type  4   force =    -0.00237710   -0.00058908   -0.00011237
     atom   48 type  4   force =    -0.00262035    0.00038551   -0.00027751
     atom   49 type  4   force =     0.00070559   -0.00057059    0.00029813
     atom   50 type  4   force =     0.00316793   -0.00108900   -0.00011332

     Total force =     0.374267     Total SCF correction =     0.000463
  @ DRIVER MODE: Message from server: STATUS
  @ DRIVER MODE: Message from server: GETFORCE
  @ DRIVER MODE: Returning v,forces,stress,ensemble

     Writing output data file ./calc.save/
  @ DRIVER MODE: Message from server: EXIT
  @ DRIVE MODE: Exiting

     General routines

     Parallel routines

   This run was terminated on:  14:24:29  10Sep2021

   JOB DONE.