     Program PWSCF v.6.7GPU starts on 19Oct2021 at  1:40:36

     R & G space division:  proc/nbgrp/npool/nimage =       8
     Reading input from /storage/home/hcoda1/3/ntian30/research/carbon/CxH_vib/Thiel_calc/ads_slab/NH2HNH_perslab/out_0030/pw.inp
Warning: card &CELL ignored
Warning: card   CELL_DYNAMICS='IPI', ignored
Warning: card / ignored

     Current dimensions of program PWSCF are:
     Max number of different atomic species (ntypx) = 10
     Max number of k-points (npk) =  40000
     Max angular momentum in pseudopotentials (lmaxx) =  3
     Presently no symmetry can be used with electric field

     Message from routine cell_base_init:
     DEPRECATED: use true lattice parameter, not A to a.u. conversion factor

     IMPORTANT: XC functional enforced from input :
     Exchange-correlation= BEEF-VDW
                           (   1   4  43  14   2   0   0)
     Any further DFT definition will be discarded
     Please, verify this is what you really want

  @ DRIVER MODE: Connecting to
 qe_1139763_3255135.sched-torque.pace.gatech.eduy429q6_h_scratch
  using UNIX socket
  @ DRIVER MODE: Message from server: STATUS
  @ DRIVER MODE: Message from server: INIT
  @ DRIVER MODE: Receiving replica           0          -1
  @ DRIVER MODE: Receiving encoded integer          25
  @ DRIVER MODE:  SCF:  T  FORCE:  T  STRESS:  F  VC:  F  ENSEMBLE:  F
  @ DRIVER MODE:  SCF:  T  FORCE:  T  STRESS:  F  VC:  F  ENSEMBLE:  F

     Using Slab Decomposition

     bravais-lattice index     =            0
     lattice parameter (alat)  =       1.8897  a.u.
     unit-cell volume          =    9988.4706 (a.u.)^3
     number of atoms/cell      =           59
     number of atomic types    =            4
     number of electrons       =       440.00
     number of Kohn-Sham states=          230
     kinetic-energy cutoff     =      29.3995  Ry
     charge density cutoff     =     293.9946  Ry
     scf convergence threshold =      7.3E-08
     mixing beta               =       0.0500
     number of iterations used =            8  plain     mixing
     Exchange-correlation= BEEF-VDW
                           (   1   4  43  14   2   0   0)

     celldm(1)=   1.889726  celldm(2)=   0.000000  celldm(3)=   0.000000
     celldm(4)=   0.000000  celldm(5)=   0.000000  celldm(6)=   0.000000

     crystal axes: (cart. coord. in units of alat)
               a(1) = (   6.579727   0.000000   0.000000 )
               a(2) = (  -0.001163   8.942395   0.000000 )
               a(3) = (   0.000000   0.000000  25.155947 )

     reciprocal axes: (cart. coord. in units 2 pi/alat)
               b(1) = (  0.151982  0.000020  0.000000 )
               b(2) = (  0.000000  0.111827  0.000000 )
               b(3) = (  0.000000  0.000000  0.039752 )

     PseudoPot. # 1 for O  read from file:
     /storage/coda1/p-amedford6/0/shared/rich_project_chbe-medford/medford-share/data/pseudos_module/espresso/nninc/pbe/van/O.UPF
     MD5 check sum: 78c19812648e8988a0fe644b0f25305e
     Pseudo is Ultrasoft, Zval =  6.0
     Generated by new atomic code, or converted to UPF format
     Using radial grid of  737 points,  4 beta functions with:
                l(1) =   0
                l(2) =   0
                l(3) =   1
                l(4) =   1
     Q(r) pseudized with  8 coefficients,  rinner =    0.800   0.800   0.800

     PseudoPot. # 2 for Ti read from file:
     /storage/coda1/p-amedford6/0/shared/rich_project_chbe-medford/medford-share/data/pseudos_module/espresso/nninc/pbe/van/Ti.UPF
     MD5 check sum: 8e4df49b7f0d34bbd5052bf3f5ea0213
     Pseudo is Ultrasoft, Zval = 12.0
     Generated by new atomic code, or converted to UPF format
     Using radial grid of  851 points,  6 beta functions with:
                l(1) =   0
                l(2) =   0
                l(3) =   1
                l(4) =   1
                l(5) =   2
                l(6) =   2
     Q(r) pseudized with  8 coefficients,  rinner =    1.000   1.000   1.000
                                                       1.000   1.000

     PseudoPot. # 3 for H  read from file:
     /storage/coda1/p-amedford6/0/shared/rich_project_chbe-medford/medford-share/data/pseudos_module/espresso/nninc/pbe/van/H.UPF
     MD5 check sum: b5ee9d7bfd3a09ee7748110bda690ff7
     Pseudo is Ultrasoft, Zval =  1.0
     Generated by new atomic code, or converted to UPF format
     Using radial grid of  615 points,  1 beta functions with:
                l(1) =   0
     Q(r) pseudized with  8 coefficients,  rinner =    0.800

     PseudoPot. # 4 for N  read from file:
     /storage/coda1/p-amedford6/0/shared/rich_project_chbe-medford/medford-share/data/pseudos_module/espresso/nninc/pbe/van/N.UPF
     MD5 check sum: 90d10febe142ad51ac9d5be1deb811c4
     Pseudo is Ultrasoft, Zval =  5.0
     Generated by new atomic code, or converted to UPF format
     Using radial grid of  729 points,  4 beta functions with:
                l(1) =   0
                l(2) =   0
                l(3) =   1
                l(4) =   1
     Q(r) pseudized with  8 coefficients,  rinner =    0.800   0.800   0.800

     atomic species   valence    mass     pseudopotential
        O1             6.00    15.99900     O ( 1.00)
        Ti1           12.00    47.86700     Ti( 1.00)
        H1             1.00     1.00800     H ( 1.00)
        N1             5.00    14.00700     N ( 1.00)

     No symmetry found

   Cartesian axes

     site n.     atom                  positions (alat units)
         1           O1  tau(   1) = (   0.0007354   0.0005023  10.5931620  )
         2           O1  tau(   2) = (   3.2891522   8.9193323  13.7813865  )
         3           O1  tau(   3) = (  -0.0003195   8.9357148  17.1597790  )
         4           O1  tau(   4) = (   0.0006271   0.0005054   7.9858123  )
         5           O1  tau(   5) = (   3.2896276   8.9330874  11.1456747  )
         6           O1  tau(   6) = (   0.0000757   8.8957392  14.5326415  )
         7           O1  tau(   7) = (   1.9868534   1.4903216   9.2879459  )
         8           O1  tau(   8) = (   5.2085136   1.5567490  12.5272226  )
         9           O1  tau(   9) = (   2.0368910   1.4086519  15.9478609  )
        10           Ti1 tau(  10) = (   0.0007404   1.4906270   9.2895810  )
        11           Ti1 tau(  11) = (   3.2920048   1.2896434  12.4335303  )
        12           Ti1 tau(  12) = (   0.0003947   1.7483972  15.9485354  )
        13           O1  tau(  13) = (   4.5942328   1.4918067   9.2879030  )
        14           O1  tau(  14) = (   1.3734151   1.5562871  12.5269411  )
        15           O1  tau(  15) = (   4.5446063   1.4075665  15.9467422  )
        16           Ti1 tau(  16) = (   3.2902859   2.9801868   9.2893338  )
        17           Ti1 tau(  17) = (   0.0022843   2.7629733  12.5422407  )
        18           Ti1 tau(  18) = (   3.2887740   3.1097933  15.6402895  )
        19           O1  tau(  19) = (   0.0003479   2.9813005  10.5931620  )
        20           O1  tau(  20) = (   3.2903674   2.9527630  13.7969158  )
        21           O1  tau(  21) = (   0.0002396   2.9813036   7.9858123  )
        22           O1  tau(  22) = (   3.2906228   2.9775883  11.1663003  )
        23           O1  tau(  23) = (   0.0006598   2.9368866  14.5305733  )
        24           O1  tau(  24) = (   1.9864658   4.4711199   9.2879459  )
        25           O1  tau(  25) = (   5.2231876   4.5386380  12.5467233  )
        26           O1  tau(  26) = (   2.0248981   4.3679406  15.9930346  )
        27           Ti1 tau(  27) = (   0.0003529   4.4714252   9.2895810  )
        28           Ti1 tau(  28) = (   3.2918124   4.3135021  12.5344809  )
        29           Ti1 tau(  29) = (   6.5788423   4.6929592  16.0739603  )
        30           O1  tau(  30) = (   4.5938453   4.4726049   9.2879030  )
        31           O1  tau(  31) = (   1.3570704   4.5373869  12.5465102  )
        32           O1  tau(  32) = (   4.5538814   4.3671241  15.9936543  )
        33           Ti1 tau(  33) = (   3.2898983   5.9609850   9.2893338  )
        34           Ti1 tau(  34) = (   0.0013264   5.7428985  12.5110789  )
        35           Ti1 tau(  35) = (   3.2898306   6.0937744  16.2866611  )
        36           O1  tau(  36) = (  -0.0000397   5.9620987  10.5931620  )
        37           O1  tau(  37) = (   3.2897329   5.8964334  13.7986068  )
        38           O1  tau(  38) = (  -0.0007474   6.0119579  17.1634496  )
        39           O1  tau(  39) = (  -0.0001480   5.9621018   7.9858123  )
        40           O1  tau(  40) = (   3.2898370   5.9388437  11.1687384  )
        41           O1  tau(  41) = (  -0.0001539   5.9931028  14.5676369  )
        42           O1  tau(  42) = (   1.9860782   7.4519181   9.2879459  )
        43           O1  tau(  43) = (   5.2258842   7.5046952  12.5406166  )
        44           O1  tau(  44) = (   2.0242945   7.4351242  16.0034066  )
        45           Ti1 tau(  45) = (  -0.0000347   7.4522234   9.2895810  )
        46           Ti1 tau(  46) = (   3.2896699   7.1866417  12.6007890  )
        47           Ti1 tau(  47) = (   0.0000787   7.5542351  15.7482610  )
        48           O1  tau(  48) = (   4.5934577   7.4534031   9.2879030  )
        49           O1  tau(  49) = (   1.3527639   7.5038087  12.5404143  )
        50           O1  tau(  50) = (   4.5545665   7.4356877  16.0029592  )
        51           Ti1 tau(  51) = (   3.2895107   8.9417832   9.2893338  )
        52           Ti1 tau(  52) = (  -0.0005703   8.7121504  12.4856418  )
        53           Ti1 tau(  53) = (   3.2909615   0.1005107  15.6284087  )
        54           H1  tau(  54) = (   6.5785809   3.1351568  18.2688824  )
        55           H1  tau(  55) = (   6.5783155   8.7923607  18.1116139  )
        56           N1  tau(  56) = (  -0.0001347   2.9716693  17.2674093  )
        57           N1  tau(  57) = (   3.2897564   5.9921341  18.1800631  )
        58           H1  tau(  58) = (   3.2887465   5.1266479  18.7145293  )
        59           H1  tau(  59) = (   3.2892443   6.7858760  18.8071070  )

     number of k points=    10  Fermi-Dirac smearing, width (Ry)=  0.0073
                       cart. coord. in units 2pi/alat
        k(    1) = (   0.0000000   0.0000000   0.0000000), wk =   0.1250000
        k(    2) = (   0.0000000   0.0279567   0.0000000), wk =   0.2500000
        k(    3) = (   0.0000000  -0.0559134   0.0000000), wk =   0.1250000
        k(    4) = (   0.0379955   0.0000049   0.0000000), wk =   0.2500000
        k(    5) = (   0.0379955   0.0279617   0.0000000), wk =   0.2500000
        k(    6) = (   0.0379955  -0.0559085   0.0000000), wk =   0.2500000
        k(    7) = (   0.0379955  -0.0279518   0.0000000), wk =   0.2500000
        k(    8) = (  -0.0759910  -0.0000099   0.0000000), wk =   0.1250000
        k(    9) = (  -0.0759910   0.0279468   0.0000000), wk =   0.2500000
        k(   10) = (  -0.0759910  -0.0559233   0.0000000), wk =   0.1250000

     Initial potential from superposition of free atoms

     starting charge  421.99910, renormalised to  440.00000

     negative rho (up, down):  3.701E-02 0.000E+00

     %%%%%%%%%%%%%%%%%%%%%%%%%%%%%%%%%%%%%%%%%%%%%%%%%%%%%%%%%%%%%%%%%%%%%%%%
     %                                                                      %
     % You are using vdW-DF, which was implemented by the Thonhauser group. %
     % Please cite the following two papers that made this development      %
     % possible and the two reviews that describe the various versions:     %
     %                                                                      %
     %   T. Thonhauser et al., PRL 115, 136402 (2015).                      %
     %   T. Thonhauser et al., PRB 76, 125112 (2007).                       %
     %   K. Berland et al., Rep. Prog. Phys. 78, 066501 (2015).             %
     %   D.C. Langreth et al., J. Phys.: Condens. Matter 21, 084203 (2009). %
     %                                                                      %
     %                                                                      %
     % If you are calculating the stress with vdW-DF, please also cite:     %
     %                                                                      %
     %   R. Sabatini et al., J. Phys.: Condens. Matter 24, 424209 (2012).   %
     %                                                                      %
     %%%%%%%%%%%%%%%%%%%%%%%%%%%%%%%%%%%%%%%%%%%%%%%%%%%%%%%%%%%%%%%%%%%%%%%%

     Adding external electric field

     Computed dipole along edir(3) :
        Dipole               -3.9432 Ry au,        -10.0227 Debye
        Dipole field         -0.0050 Ry au,

        Potential amp.        0.4599 Ry
        Total length         46.3494 bohr

     Starting wfcs are  332 atomic wfcs
  @ DRIVER MODE: Message from server: STATUS
  @ DRIVER MODE: Message from server: POSDATA
  @ DRIVER MODE: Reading and sharing cell
  @ DRIVER MODE: Reading and sharing positions
  @ DRIVER MODE: Received positions

     Self-consistent Calculation

     iteration #  1     ecut=    29.40 Ry     beta= 0.05
     Davidson diagonalization with overlap
     c_bands:  1 eigenvalues not converged
     c_bands:  2 eigenvalues not converged
     c_bands:  4 eigenvalues not converged
     c_bands:  3 eigenvalues not converged
     c_bands:  2 eigenvalues not converged
     c_bands:  3 eigenvalues not converged
     c_bands:  5 eigenvalues not converged
     c_bands:  3 eigenvalues not converged
     c_bands:  2 eigenvalues not converged
     ethr =  1.00E-05,  avg # of iterations = 19.2

[...]

     total energy              =   -3294.67659805 Ry
     estimated scf accuracy    <      19.62761808 Ry

     iteration #  2     ecut=    29.40 Ry     beta= 0.05
     Davidson diagonalization with overlap
     ethr =  4.46E-03,  avg # of iterations =  1.0

[...]

     iteration # 30     ecut=    29.40 Ry     beta= 0.05
     Davidson diagonalization with overlap
     c_bands:  1 eigenvalues not converged
     ethr =  3.14E-07,  avg # of iterations =  7.3

[...]

     total energy              =   -3293.29228900 Ry
     estimated scf accuracy    <       0.00000008 Ry

     iteration # 59     ecut=    29.40 Ry     beta= 0.05
     Davidson diagonalization with overlap
     ethr =  1.78E-11,  avg # of iterations =  5.0

     negative rho (up, down):  3.601E-02 0.000E+00

     Adding external electric field

     Computed dipole along edir(3) :
        Dipole                1.2956 Ry au,          3.2930 Debye
        Dipole field          0.0016 Ry au,

        Potential amp.       -0.1511 Ry
        Total length         46.3494 bohr

     End of self-consistent calculation

          k = 0.0000 0.0000 0.0000 ( 26871 PWs)   bands (ev):

   -58.2961 -58.2722 -58.2684 -58.2090 -58.1606 -57.7929 -57.7719 -57.7559
   -57.6210 -57.5910 -57.5705 -57.5139 -57.4876 -56.8978 -56.8768 -56.8509
   -56.8411 -56.8359 -34.6873 -34.6602 -34.6301 -34.6183 -34.6127 -34.6077
   -34.5449 -34.4814 -34.4713 -34.4087 -34.4046 -34.4017 -34.3879 -34.3577
   -34.3328 -34.1946 -34.1488 -34.1440 -34.1237 -34.0953 -34.0821 -34.0774
   -34.0567 -34.0199 -34.0074 -33.9619 -33.9180 -33.8734 -33.8586 -33.8496
   -33.8348 -33.8262 -33.7793 -33.7563 -33.7485 -33.7423 -33.6956 -33.6918
   -33.6773 -33.3594 -33.2215 -33.2109 -33.2015 -33.1871 -33.1803 -33.1731
   -33.1620 -33.1161 -33.0845 -33.0783 -33.0256 -33.0244 -33.0076 -32.8845
   -18.9119 -18.8260 -18.3708 -18.2951 -18.1738 -18.1185 -18.1122 -18.0467
   -17.9440 -17.7230 -17.6826 -17.6738 -17.6456 -17.5379 -17.5299 -17.5260
   -17.4923 -17.4854 -17.4731 -17.3852 -17.3255 -17.3139 -17.3079 -17.3078
   -17.1989 -17.1744 -17.1225 -17.0562 -17.0443 -16.9485 -16.7638 -16.4302
   -15.3526 -15.3120 -15.3023 -15.1391 -13.5996  -6.9778  -6.5868  -6.1781
    -5.9846  -5.7745  -5.6359  -5.5213  -5.4683  -5.3760  -5.3098  -5.2850
    -5.2676  -5.2276  -5.1937  -5.1670  -5.0641  -5.0542  -4.9731  -4.9187
    -4.8731  -4.8270  -4.7847  -4.7382  -4.7357  -4.6966  -4.6275  -4.6168
    -4.5822  -4.5349  -4.5059  -4.4975  -4.4424  -4.4136  -4.3934  -4.2726
    -4.2586  -4.1909  -4.1804  -4.1727  -4.0671  -4.0603  -4.0169  -3.9928
    -3.9800  -3.9606  -3.9116  -3.8302  -3.8028  -3.6431  -3.6213  -3.6109
    -3.5204  -3.3800  -3.3667  -3.3224  -3.2027  -3.1355  -3.1115  -3.0759
    -3.0561  -3.0388  -3.0161  -3.0041  -2.9704  -2.8762  -2.8751  -2.8140
    -2.8114  -2.7969  -2.7746  -2.7696  -2.7301  -2.6575  -2.5982  -2.5856
    -2.5646  -2.5468  -2.4603  -2.4460  -2.3552  -2.3399  -2.2839  -2.2415
    -2.2355  -2.1699  -2.0950  -2.0874  -2.0234  -1.9990  -1.8249  -1.8000
    -1.7224  -1.7170  -1.6504  -1.6235  -1.6005  -1.5484  -1.4235  -1.3926
    -1.2969  -1.1853  -1.0211  -0.7814  -0.5896  -0.5695  -0.5603  -0.5282
    -0.4342  -0.3815  -0.3656  -0.2705   0.9820   1.1280   1.2810   1.3026
     1.4964   1.6060   1.6184   1.6738   1.7524   1.8508

[...]

          k = 0.0380-0.0280 0.0000 ( 26873 PWs)   bands (ev):

[...]

          k =-0.0760-0.0000 0.0000 ( 26902 PWs)   bands (ev):

[...]

          k =-0.0760-0.0559 0.0000 ( 26868 PWs)   bands (ev):

   -58.2895 -58.2854 -58.2618 -58.2088 -58.1607 -57.7928 -57.7715 -57.7564
   -57.6194 -57.5944 -57.5687 -57.5137 -57.4877 -56.8979 -56.8739 -56.8568
   -56.8410 -56.8329 -34.7126 -34.7088 -34.6624 -34.6379 -34.6050 -34.4968
   -34.4820 -34.4478 -34.4447 -34.4322 -34.4257 -34.4059 -34.3837 -34.3803
   -34.3597 -34.2301 -34.1717 -34.1664 -34.1381 -34.1205 -34.0779 -34.0012
   -33.9978 -33.9973 -33.9633 -33.9266 -33.9197 -33.9056 -33.8976 -33.8751
   -33.8645 -33.8491 -33.7742 -33.7657 -33.7383 -33.7136 -33.7118 -33.6936
   -33.6900 -33.3350 -33.2631 -33.2225 -33.2171 -33.2071 -33.1840 -33.1752
   -33.1231 -33.0792 -33.0714 -33.0525 -33.0294 -32.9955 -32.9890 -32.9720
   -18.8903 -18.6209 -18.4735 -18.2375 -18.1372 -17.9736 -17.8907 -17.8779
   -17.8600 -17.8591 -17.7600 -17.7490 -17.6978 -17.6728 -17.6302 -17.6206
   -17.6083 -17.5710 -17.5650 -17.4514 -17.3612 -17.3518 -17.2567 -17.2417
   -17.2146 -17.1530 -17.1344 -17.0452 -17.0260 -16.9531 -16.7717 -16.4150
   -15.3637 -15.3520 -15.2415 -15.1398 -13.5966  -6.9500  -6.5879  -5.9487
    -5.7541  -5.7197  -5.6691  -5.3487  -5.3113  -5.2266  -5.2011  -5.1622
    -5.1366  -5.1228  -5.0927  -5.0814  -5.0062  -4.9693  -4.9602  -4.9565
    -4.9134  -4.8945  -4.8460  -4.8245  -4.7751  -4.7543  -4.7463  -4.7120
    -4.6675  -4.6496  -4.5748  -4.5696  -4.4963  -4.4568  -4.3178  -4.2341
    -4.2087  -4.1793  -4.0826  -4.0744  -4.0361  -3.9443  -3.9244  -3.9038
    -3.7759  -3.7440  -3.6320  -3.6158  -3.5668  -3.5439  -3.5161  -3.4885
    -3.4240  -3.3820  -3.3659  -3.3615  -3.3269  -3.2583  -3.2282  -3.2113
    -3.1802  -3.1620  -3.1517  -3.1409  -3.0746  -3.0581  -3.0282  -2.9887
    -2.9274  -2.9032  -2.8476  -2.8467  -2.7862  -2.7461  -2.6918  -2.6859
    -2.6136  -2.5915  -2.5857  -2.5777  -2.4764  -2.4510  -2.4433  -2.3017
    -2.1632  -2.1119  -2.0687  -1.9656  -1.9076  -1.9041  -1.8802  -1.8120
    -1.7871  -1.7039  -1.6494  -1.6257  -1.6185  -1.5928  -1.3742  -1.3442
    -1.3325  -1.2893  -1.2253  -1.1306  -0.8117  -0.5904  -0.5784  -0.4988
    -0.4758  -0.4227  -0.4014  -0.3869   1.0312   1.2061   1.2777   1.3709
     1.3716   1.4041   1.4538   1.6198   1.6533   1.7873

     the Fermi energy is     0.3889 ev

!    total energy              =   -3293.29233117 Ry
     estimated scf accuracy    <       0.00000003 Ry
     smearing contrib. (-TS)   =      -0.00047751 Ry
     internal energy E=F+TS    =   -3293.29185366 Ry

     The total energy is F=E-TS. E is the sum of the following terms:
     one-electron contribution =  -34638.44684312 Ry
     hartree contribution      =   17383.52687058 Ry
     xc contribution           =    -542.08227537 Ry
     ewald contribution        =   14503.70828255 Ry
     electric field correction =       0.00211170 Ry

     convergence has been achieved in  59 iterations

     Forces acting on atoms (cartesian axes, Ry/au):

     atom    1 type  1   force =     0.00000929    0.00245085    0.04674489
     atom    2 type  1   force =     0.00000794   -0.00342160   -0.00287303
     atom    3 type  1   force =    -0.00000955    0.00323997   -0.00096161
     atom    4 type  1   force =     0.00005090   -0.00098258    0.10170389
     atom    5 type  1   force =    -0.00000951   -0.00071675    0.00563318
     atom    6 type  1   force =    -0.00001307    0.00366261    0.00082268
     atom    7 type  1   force =     0.07820300    0.00086088   -0.03541084
     atom    8 type  1   force =     0.00833850   -0.02588058    0.00018257
     atom    9 type  1   force =     0.00849201    0.02065674    0.00127441
     atom   10 type  2   force =    -0.00006213    0.00867661   -0.15837707
     atom   11 type  2   force =    -0.00003746    0.02309959   -0.00229689
     atom   12 type  2   force =     0.00005365   -0.02561748   -0.00427796
     atom   13 type  1   force =    -0.07829602    0.00040463   -0.03539927
     atom   14 type  1   force =    -0.00838458   -0.02579378    0.00019064
     atom   15 type  1   force =    -0.00844429    0.02076639    0.00130701
     atom   16 type  2   force =     0.00013013    0.00086451    0.07316947
     atom   17 type  2   force =     0.00006028    0.03072613    0.00241155
     atom   18 type  2   force =    -0.00006155   -0.02681430    0.00076826
     atom   19 type  1   force =     0.00003998    0.00299764    0.05011942
     atom   20 type  1   force =    -0.00002102   -0.00126038   -0.00147495
     atom   21 type  1   force =     0.00005176   -0.00064761    0.10018347
     atom   22 type  1   force =    -0.00001582   -0.00179828    0.00546563
     atom   23 type  1   force =    -0.00002084    0.00236629    0.00380535
     atom   24 type  1   force =     0.07915246    0.00064659   -0.03606326
     atom   25 type  1   force =     0.00924569   -0.02947893    0.00062566
     atom   26 type  1   force =     0.00848537    0.02157575    0.00316321
     atom   27 type  2   force =    -0.00006904   -0.00814039   -0.15492793
     atom   28 type  2   force =    -0.00000991    0.02626127   -0.00222714
     atom   29 type  2   force =     0.00004266   -0.02439537   -0.00334140
     atom   30 type  1   force =    -0.07924232    0.00023705   -0.03605982
     atom   31 type  1   force =    -0.00925225   -0.02940999    0.00063164
     atom   32 type  1   force =    -0.00844013    0.02165288    0.00319127
     atom   33 type  2   force =     0.00013317   -0.00255856    0.07885783
     atom   34 type  2   force =     0.00004963    0.03585450    0.00274425
     atom   35 type  2   force =    -0.00006770   -0.02955894    0.00309116
     atom   36 type  1   force =     0.00004150    0.00306957    0.05240744
     atom   37 type  1   force =    -0.00000374   -0.00185784   -0.00278556
     atom   38 type  1   force =    -0.00002131    0.00202390    0.00080323
     atom   39 type  1   force =     0.00004674    0.00287156    0.10110629
     atom   40 type  1   force =    -0.00000950   -0.00169584    0.00621224
     atom   41 type  1   force =    -0.00002751    0.00301950    0.00388401
     atom   42 type  1   force =     0.07826285    0.00076345   -0.03488529
     atom   43 type  1   force =     0.00660928   -0.02303998   -0.00019846
     atom   44 type  1   force =     0.01116801    0.02210646   -0.00714952
     atom   45 type  2   force =    -0.00006181   -0.00551091   -0.16465552
     atom   46 type  2   force =    -0.00007691    0.01959930    0.00099563
     atom   47 type  2   force =     0.00002600   -0.01857586    0.00739092
     atom   48 type  1   force =    -0.07835922    0.00031418   -0.03486771
     atom   49 type  1   force =    -0.00665019   -0.02300699   -0.00019478
     atom   50 type  1   force =    -0.01113732    0.02209073   -0.00710487
     atom   51 type  2   force =     0.00012784   -0.00437052    0.06095987
     atom   52 type  2   force =     0.00012409    0.02965598    0.00358998
     atom   53 type  2   force =    -0.00007320   -0.02494477    0.00094309
     atom   54 type  3   force =    -0.00000667    0.00077173   -0.00014717
     atom   55 type  3   force =    -0.00001724   -0.00009928    0.00013074
     atom   56 type  4   force =    -0.00002326    0.00700447    0.00058286
     atom   57 type  4   force =    -0.00001617   -0.00760873    0.00628467
     atom   58 type  3   force =     0.00000312    0.00636630   -0.00555094
     atom   59 type  3   force =    -0.00001459    0.00052824   -0.00014743

     Total force =     0.437513     Total SCF correction =     0.000315
  @ DRIVER MODE: Message from server: STATUS
  @ DRIVER MODE: Message from server: GETFORCE
  @ DRIVER MODE: Returning v,forces,stress,ensemble

     Writing output data file ./calc.save/
  @ DRIVER MODE: Message from server: EXIT
  @ DRIVE MODE: Exiting

     General routines

     Parallel routines

   This run was terminated on:   2:10:34  19Oct2021

   JOB DONE.