     Program PWSCF v.6.7GPU starts on 15Sep2021 at 17:41:32

     R & G space division:  proc/nbgrp/npool/nimage =      10
     Reading input from /storage/home/hcoda1/3/ntian30/research/carbon/CxH_vib/CH_calc/ads_slab/CHNHNH2_b/out_0026/pw.inp
Warning: card &CELL ignored
Warning: card   CELL_DYNAMICS='IPI', ignored
Warning: card / ignored

     Current dimensions of program PWSCF are:
     Max number of different atomic species (ntypx) = 10
     Max number of k-points (npk) =  40000
     Max angular momentum in pseudopotentials (lmaxx) =  3
     Presently no symmetry can be used with electric field

     Message from routine cell_base_init:
     DEPRECATED: use true lattice parameter, not A to a.u. conversion factor

     IMPORTANT: XC functional enforced from input :
     Exchange-correlation= BEEF-VDW
                           (   1   4  43  14   2   0   0)
     Any further DFT definition will be discarded
     Please, verify this is what you really want

  @ DRIVER MODE: Connecting to
 qe_1139763_2850203.sched-torque.pace.gatech.eduftkr_9rd_scratch
  using UNIX socket
  @ DRIVER MODE: Message from server: STATUS
  @ DRIVER MODE: Message from server: INIT
  @ DRIVER MODE: Receiving replica           0          -1
  @ DRIVER MODE: Receiving encoded integer          25
  @ DRIVER MODE:  SCF:  T  FORCE:  T  STRESS:  F  VC:  F  ENSEMBLE:  F
  @ DRIVER MODE:  SCF:  T  FORCE:  T  STRESS:  F  VC:  F  ENSEMBLE:  F

     Using Slab Decomposition

     bravais-lattice index     =            0
     lattice parameter (alat)  =       1.8897  a.u.
     unit-cell volume          =    6658.9804 (a.u.)^3
     number of atoms/cell      =           54
     number of atomic types    =            5
     number of electrons       =       396.00
     number of Kohn-Sham states=          208
     kinetic-energy cutoff     =      29.3995  Ry
     charge density cutoff     =     293.9946  Ry
     scf convergence threshold =      7.3E-08
     mixing beta               =       0.0500
     number of iterations used =            8  plain     mixing
     Exchange-correlation= BEEF-VDW
                           (   1   4  43  14   2   0   0)

     celldm(1)=   1.889726  celldm(2)=   0.000000  celldm(3)=   0.000000
     celldm(4)=   0.000000  celldm(5)=   0.000000  celldm(6)=   0.000000

     crystal axes: (cart. coord. in units of alat)
               a(1) = (   6.579727   0.000000   0.000000 )
               a(2) = (  -0.000775   5.961596   0.000000 )
               a(3) = (   0.000000   0.000000  25.155947 )

     reciprocal axes: (cart. coord. in units 2 pi/alat)
               b(1) = (  0.151982  0.000020  0.000000 )
               b(2) = (  0.000000  0.167740  0.000000 )
               b(3) = (  0.000000  0.000000  0.039752 )

     PseudoPot. # 1 for Ti read from file:
     /storage/coda1/p-amedford6/0/shared/rich_project_chbe-medford/medford-share/data/pseudos_module/espresso/nninc/pbe/van/Ti.UPF
     MD5 check sum: 8e4df49b7f0d34bbd5052bf3f5ea0213
     Pseudo is Ultrasoft, Zval = 12.0
     Generated by new atomic code, or converted to UPF format
     Using radial grid of  851 points,  6 beta functions with:
                l(1) =   0
                l(2) =   0
                l(3) =   1
                l(4) =   1
                l(5) =   2
                l(6) =   2
     Q(r) pseudized with  8 coefficients,  rinner =    1.000   1.000   1.000
                                                       1.000   1.000

     PseudoPot. # 2 for O  read from file:
     /storage/coda1/p-amedford6/0/shared/rich_project_chbe-medford/medford-share/data/pseudos_module/espresso/nninc/pbe/van/O.UPF
     MD5 check sum: 78c19812648e8988a0fe644b0f25305e
     Pseudo is Ultrasoft, Zval =  6.0
     Generated by new atomic code, or converted to UPF format
     Using radial grid of  737 points,  4 beta functions with:
                l(1) =   0
                l(2) =   0
                l(3) =   1
                l(4) =   1
     Q(r) pseudized with  8 coefficients,  rinner =    0.800   0.800   0.800

     PseudoPot. # 3 for N  read from file:
     /storage/coda1/p-amedford6/0/shared/rich_project_chbe-medford/medford-share/data/pseudos_module/espresso/nninc/pbe/van/N.UPF
     MD5 check sum: 90d10febe142ad51ac9d5be1deb811c4
     Pseudo is Ultrasoft, Zval =  5.0
     Generated by new atomic code, or converted to UPF format
     Using radial grid of  729 points,  4 beta functions with:
                l(1) =   0
                l(2) =   0
                l(3) =   1
                l(4) =   1
     Q(r) pseudized with  8 coefficients,  rinner =    0.800   0.800   0.800

     PseudoPot. # 4 for C  read from file:
     /storage/coda1/p-amedford6/0/shared/rich_project_chbe-medford/medford-share/data/pseudos_module/espresso/nninc/pbe/van/C.UPF
     MD5 check sum: 1a69bf6b8db32088f5b2163dbdb77a27
     Pseudo is Ultrasoft, Zval =  4.0
     Generated by new atomic code, or converted to UPF format
     Using radial grid of  721 points,  4 beta functions with:
                l(1) =   0
                l(2) =   0
                l(3) =   1
                l(4) =   1
     Q(r) pseudized with  8 coefficients,  rinner =    0.800   0.800   0.800

     PseudoPot. # 5 for H  read from file:
     /storage/coda1/p-amedford6/0/shared/rich_project_chbe-medford/medford-share/data/pseudos_module/espresso/nninc/pbe/van/H.UPF
     MD5 check sum: b5ee9d7bfd3a09ee7748110bda690ff7
     Pseudo is Ultrasoft, Zval =  1.0
     Generated by new atomic code, or converted to UPF format
     Using radial grid of  615 points,  1 beta functions with:
                l(1) =   0
     Q(r) pseudized with  8 coefficients,  rinner =    0.800

     atomic species   valence    mass     pseudopotential
        Ti1           12.00    47.86700     Ti( 1.00)
        O1             6.00    15.99900     O ( 1.00)
        N1             5.00    14.00700     N ( 1.00)
        C1             4.00    12.01100     C ( 1.00)
        H1             1.00     1.00800     H ( 1.00)

     No symmetry found

   Cartesian axes

     site n.     atom                  positions (alat units)
         1           Ti1 tau(   1) = (   0.0004258   2.9801865   6.0000000  )
         2           Ti1 tau(   2) = (   3.2906075   1.4906267   6.0002472  )
         3           O1  tau(   3) = (   0.0006271   0.0005054   7.9858123  )
         4           O1  tau(   4) = (   3.2906025   0.0005020   7.3038282  )
         5           O1  tau(   5) = (   4.5942328   1.4918067   9.2879030  )
         6           O1  tau(   6) = (   1.9868534   1.4903216   9.2879459  )
         7           Ti1 tau(   7) = (   3.2907910   2.8959150   9.1758416  )
         8           Ti1 tau(   8) = (   0.0015273   1.4827037   9.2680791  )
         9           O1  tau(   9) = (   3.2793096   0.0109766  11.3808719  )
        10           O1  tau(  10) = (   0.0116148   5.9584955  10.6183126  )
        11           O1  tau(  11) = (   1.2765542   1.4933007  12.7034215  )
        12           O1  tau(  12) = (   5.2857700   1.4936877  12.6893616  )
        13           Ti1 tau(  13) = (   6.5704964   2.9736084  12.5041408  )
        14           Ti1 tau(  14) = (   3.2751742   1.4933391  12.5393049  )
        15           O1  tau(  15) = (   6.5372820   5.8718772  14.6936981  )
        16           O1  tau(  16) = (   3.2837545   5.9462538  13.9991140  )
        17           O1  tau(  17) = (   4.5218413   1.5222141  16.1415557  )
        18           O1  tau(  18) = (   2.0028246   1.5144184  16.0917912  )
        19           Ti1 tau(  19) = (   3.2608137   3.0032599  15.7731319  )
        20           Ti1 tau(  20) = (   6.5347537   1.3176600  15.8357148  )
        21           O1  tau(  21) = (   3.2904802   0.0005063   4.7018136  )
        22           O1  tau(  22) = (   0.0001116   0.1817366  17.2468837  )
        23           O1  tau(  23) = (   1.3043587   1.4918075   6.0039043  )
        24           O1  tau(  24) = (   5.2767064   1.4903225   6.0039473  )
        25           Ti1 tau(  25) = (   0.0000382   5.9609847   6.0000000  )
        26           Ti1 tau(  26) = (   3.2902200   4.4714249   6.0002472  )
        27           O1  tau(  27) = (   0.0002396   2.9813036   7.9858123  )
        28           O1  tau(  28) = (   3.2902150   2.9813002   7.3038282  )
        29           O1  tau(  29) = (   4.5938453   4.4726049   9.2879030  )
        30           O1  tau(  30) = (   1.9864658   4.4711199   9.2879459  )
        31           Ti1 tau(  31) = (   3.2891106   5.8743827   9.1763621  )
        32           Ti1 tau(  32) = (   0.0006254   4.4649316   9.2693709  )
        33           O1  tau(  33) = (   3.2784652   2.9723947  11.3763700  )
        34           O1  tau(  34) = (   0.0092240   2.9805883  10.6323155  )
        35           O1  tau(  35) = (   1.2785823   4.4627939  12.6603399  )
        36           O1  tau(  36) = (   5.2819334   4.4612839  12.6411408  )
        37           Ti1 tau(  37) = (   6.5651122   5.9414744  12.5010122  )
        38           Ti1 tau(  38) = (   3.2748416   4.4711967  12.5285960  )
        39           O1  tau(  39) = (   6.5535135   3.0442902  14.9788272  )
        40           O1  tau(  40) = (   3.2854610   3.0101546  13.9792171  )
        41           O1  tau(  41) = (   4.5276217   4.4805847  16.2446860  )
        42           O1  tau(  42) = (   2.0020726   4.4828838  16.2214318  )
        43           Ti1 tau(  43) = (   3.2599196   0.0196740  15.7976440  )
        44           Ti1 tau(  44) = (   6.5457193   4.5363361  16.0654255  )
        45           O1  tau(  45) = (   3.2900926   2.9813045   4.7018136  )
        46           O1  tau(  46) = (   1.3039711   4.4726057   6.0039043  )
        47           O1  tau(  47) = (   5.2763189   4.4711207   6.0039473  )
        48           N1  tau(  48) = (   1.1367570   2.6896871  18.7516802  )
        49           N1  tau(  49) = (   6.5001796   3.3781512  18.2049158  )
        50           C1  tau(  50) = (   2.1807708   3.2122984  19.2750733  )
        51           H1  tau(  51) = (   2.0427863   4.2979755  19.4033283  )
        52           H1  tau(  52) = (   1.0785778   1.7047639  18.4906217  )
        53           H1  tau(  53) = (   6.4055442   4.2615232  18.7250902  )
        54           H1  tau(  54) = (   5.6874363   2.7987760  18.4315970  )

     number of k points=    10  Fermi-Dirac smearing, width (Ry)=  0.0073
                       cart. coord. in units 2pi/alat
        k(    1) = (   0.0000000   0.0000000   0.0000000), wk =   0.1250000
        k(    2) = (   0.0000000   0.0419351   0.0000000), wk =   0.2500000
        k(    3) = (   0.0000000  -0.0838702   0.0000000), wk =   0.1250000
        k(    4) = (   0.0379955   0.0000049   0.0000000), wk =   0.2500000
        k(    5) = (   0.0379955   0.0419400   0.0000000), wk =   0.2500000
        k(    6) = (   0.0379955  -0.0838652   0.0000000), wk =   0.2500000
        k(    7) = (   0.0379955  -0.0419301   0.0000000), wk =   0.2500000
        k(    8) = (  -0.0759910  -0.0000099   0.0000000), wk =   0.1250000
        k(    9) = (  -0.0759910   0.0419252   0.0000000), wk =   0.2500000
        k(   10) = (  -0.0759910  -0.0838800   0.0000000), wk =   0.1250000

     Initial potential from superposition of free atoms

     starting charge  379.99915, renormalised to  396.00000

     negative rho (up, down):  1.651E-02 0.000E+00

     %%%%%%%%%%%%%%%%%%%%%%%%%%%%%%%%%%%%%%%%%%%%%%%%%%%%%%%%%%%%%%%%%%%%%%%%
     %                                                                      %
     % You are using vdW-DF, which was implemented by the Thonhauser group. %
     % Please cite the following two papers that made this development      %
     % possible and the two reviews that describe the various versions:     %
     %                                                                      %
     %   T. Thonhauser et al., PRL 115, 136402 (2015).                      %
     %   T. Thonhauser et al., PRB 76, 125112 (2007).                       %
     %   K. Berland et al., Rep. Prog. Phys. 78, 066501 (2015).             %
     %   D.C. Langreth et al., J. Phys.: Condens. Matter 21, 084203 (2009). %
     %                                                                      %
     %                                                                      %
     % If you are calculating the stress with vdW-DF, please also cite:     %
     %                                                                      %
     %   R. Sabatini et al., J. Phys.: Condens. Matter 24, 424209 (2012).   %
     %                                                                      %
     %%%%%%%%%%%%%%%%%%%%%%%%%%%%%%%%%%%%%%%%%%%%%%%%%%%%%%%%%%%%%%%%%%%%%%%%

     Adding external electric field

     Computed dipole along edir(3) :
        Dipole               -9.9915 Ry au,        -25.3958 Debye
        Dipole field         -0.0189 Ry au,

        Potential amp.        1.7479 Ry
        Total length         46.3494 bohr

     Starting wfcs are  300 atomic wfcs
  @ DRIVER MODE: Message from server: STATUS
  @ DRIVER MODE: Message from server: POSDATA
  @ DRIVER MODE: Reading and sharing cell
  @ DRIVER MODE: Reading and sharing positions
  @ DRIVER MODE: Received positions

     Self-consistent Calculation

     iteration #  1     ecut=    29.40 Ry     beta= 0.05
     Davidson diagonalization with overlap
     c_bands:  2 eigenvalues not converged
     c_bands:  2 eigenvalues not converged
     c_bands:  3 eigenvalues not converged
     c_bands:  2 eigenvalues not converged
     c_bands:  3 eigenvalues not converged
     c_bands:  1 eigenvalues not converged
     c_bands:  3 eigenvalues not converged
     c_bands:  2 eigenvalues not converged
     c_bands:  1 eigenvalues not converged
     c_bands:  1 eigenvalues not converged
     ethr =  1.00E-05,  avg # of iterations = 20.0

[...]

     total energy              =   -2519.48474966 Ry
     estimated scf accuracy    <    4705.77214260 Ry

     iteration #  2     ecut=    29.40 Ry     beta= 0.05
     Davidson diagonalization with overlap
     ethr =  1.00E-02,  avg # of iterations = 25.6

[...]

     iteration # 63     ecut=    29.40 Ry     beta= 0.05
     Davidson diagonalization with overlap
     c_bands:  1 eigenvalues not converged
     ethr =  9.60E-11,  avg # of iterations = 12.2

[...]

     total energy              =   -2940.25616431 Ry
     estimated scf accuracy    <       0.00000010 Ry

     iteration # 66     ecut=    29.40 Ry     beta= 0.05
     Davidson diagonalization with overlap
     ethr =  2.52E-11,  avg # of iterations = 11.0

     negative rho (up, down):  1.612E-02 0.000E+00

     Adding external electric field

     Computed dipole along edir(3) :
        Dipole                0.8139 Ry au,          2.0686 Debye
        Dipole field          0.0015 Ry au,

        Potential amp.       -0.1424 Ry
        Total length         46.3494 bohr

     End of self-consistent calculation

          k = 0.0000 0.0000 0.0000 ( 18029 PWs)   bands (ev):

   -55.6658 -55.6287 -55.6171 -55.5852 -55.5830 -55.5476 -55.5425 -55.5080
   -55.4891 -55.4785 -55.4547 -55.4484 -55.4147 -55.3308 -54.6492 -54.6151
   -32.2308 -32.1233 -32.1101 -32.0307 -31.9786 -31.9773 -31.9745 -31.9546
   -31.9059 -31.8995 -31.8747 -31.8709 -31.8619 -31.8499 -31.8328 -31.8213
   -31.8192 -31.8104 -31.8026 -31.7851 -31.7698 -31.7664 -31.7315 -31.7313
   -31.7205 -31.7195 -31.7074 -31.6914 -31.6744 -31.6733 -31.6687 -31.6483
   -31.6473 -31.6444 -31.6380 -31.6354 -31.6026 -31.5943 -31.5764 -31.5597
   -31.5388 -31.5265 -31.0586 -30.9641 -30.9421 -30.8749 -30.7881 -30.6773
   -18.4836 -16.4961 -16.2349 -16.0896 -15.9777 -15.8667 -15.7538 -15.7108
   -15.5968 -15.5227 -15.3944 -15.3598 -15.3225 -15.3074 -15.2945 -15.2937
   -15.2133 -15.2075 -15.1884 -15.1644 -15.1617 -15.1180 -15.1068 -15.0663
   -15.0424 -15.0103 -14.9129 -14.8278 -14.7544 -14.5811 -14.4904 -13.1514
   -13.0339  -9.5836  -6.7319  -5.7833  -4.1287  -3.9016  -3.8198  -3.6870
    -3.5817  -3.5592  -3.5016  -3.4217  -3.2479  -3.1119  -3.0599  -2.9546
    -2.8756  -2.8640  -2.8331  -2.7085  -2.6643  -2.6214  -2.5489  -2.5309
    -2.4733  -2.4517  -2.4346  -2.4182  -2.3973  -2.3864  -2.2970  -2.2364
    -2.1372  -2.0876  -2.0689  -2.0201  -2.0056  -1.9790  -1.9563  -1.9472
    -1.8939  -1.8894  -1.8613  -1.8124  -1.6943  -1.5600  -1.5281  -1.4278
    -1.3063  -1.2684  -1.2490  -1.1598  -1.1492  -1.1234  -1.0725  -1.0447
    -1.0081  -0.9288  -0.8768  -0.7861  -0.7450  -0.7397  -0.6751  -0.6555
    -0.5661  -0.4806  -0.4477  -0.4333  -0.4087  -0.2956  -0.2737  -0.2090
    -0.1497  -0.1390  -0.1312  -0.0512  -0.0065   0.0674   0.0997   0.1209
     0.2125   0.2340   0.2642   0.2657   0.2975   0.3181   0.3634   0.4055
     0.4319   0.5192   0.6357   0.8586   0.9438   0.9480   1.2704   1.2783
     1.3739   1.5573   1.6406   1.9503   1.9986   3.4311   3.5026   3.5771
     3.5811   3.5951   3.6670   3.9099   3.9307   3.9378   3.9407   3.9664

[...]

          k = 0.0380-0.0419 0.0000 ( 17876 PWs)   bands (ev):

[...]

          k =-0.0760-0.0000 0.0000 ( 17886 PWs)   bands (ev):

[...]

          k =-0.0760-0.0839 0.0000 ( 17948 PWs)   bands (ev):

   -55.6520 -55.6424 -55.6002 -55.5998 -55.5837 -55.5432 -55.5269 -55.5237
   -55.4829 -55.4732 -55.4702 -55.4319 -55.4313 -55.3320 -54.6322 -54.6319
   -32.0430 -32.0389 -32.0311 -31.9433 -31.9253 -31.9251 -31.9211 -31.8912
   -31.8912 -31.8748 -31.8650 -31.8625 -31.8548 -31.8317 -31.8191 -31.8066
   -31.8057 -31.8020 -31.7987 -31.7909 -31.7894 -31.7857 -31.7458 -31.7433
   -31.7417 -31.7386 -31.7325 -31.7209 -31.7200 -31.7196 -31.7153 -31.7058
   -31.7032 -31.6861 -31.6829 -31.6678 -31.6656 -31.6627 -31.6124 -31.6124
   -31.6035 -31.5435 -30.9549 -30.9546 -30.8712 -30.8710 -30.8316 -30.8314
   -18.4790 -16.0408 -15.8857 -15.8580 -15.7082 -15.6749 -15.6312 -15.6170
   -15.5100 -15.4562 -15.4363 -15.4182 -15.4177 -15.3683 -15.3668 -15.3615
   -15.2893 -15.2703 -15.2675 -15.2417 -15.1863 -15.1797 -15.1731 -15.1680
   -15.1166 -15.1128 -15.0707 -15.0219 -15.0186 -14.8424 -14.5052 -13.1354
   -13.1353  -9.5749  -6.7201  -5.7777  -4.1249  -3.7829  -3.1495  -3.1385
    -3.1186  -2.9234  -2.8547  -2.8248  -2.8214  -2.7285  -2.6877  -2.6500
    -2.6476  -2.5853  -2.5745  -2.5468  -2.5135  -2.5015  -2.4854  -2.4645
    -2.4316  -2.4016  -2.3912  -2.3799  -2.3784  -2.3265  -2.3140  -2.3025
    -2.2696  -2.2495  -2.2306  -2.2197  -2.1505  -2.0504  -2.0332  -1.9498
    -1.8759  -1.8715  -1.7996  -1.7745  -1.7358  -1.7090  -1.7005  -1.6350
    -1.4740  -1.4379  -1.4140  -1.4029  -1.2929  -1.2725  -1.2470  -1.1854
    -1.1728  -1.1515  -1.0241  -0.9887  -0.9756  -0.8913  -0.8809  -0.8006
    -0.7573  -0.6909  -0.6693  -0.6230  -0.6213  -0.5788  -0.5697  -0.4994
    -0.4705  -0.4356  -0.4020  -0.3880  -0.3507  -0.1558  -0.1429  -0.1334
     0.0039   0.0217   0.1855   0.2123   0.2655   0.3622   0.3870   0.4441
     0.4776   0.6193   0.6384   0.6450   0.7074   0.7195   0.7835   0.7949
     1.5360   1.7302   1.7307   1.8185   1.8188   3.5748   3.6867   3.7015
     3.7353   3.8446   3.8706   3.9490   3.9783   4.0157   4.0193   4.0841

     the Fermi energy is     3.4949 ev

!    total energy              =   -2940.25620293 Ry
     estimated scf accuracy    <       0.00000007 Ry
     smearing contrib. (-TS)   =      -0.03710117 Ry
     internal energy E=F+TS    =   -2940.21910176 Ry

     The total energy is F=E-TS. E is the sum of the following terms:
     one-electron contribution =  -23762.71198681 Ry
     hartree contribution      =   11970.25589622 Ry
     xc contribution           =    -485.98515966 Ry
     ewald contribution        =    9338.22089854 Ry
     electric field correction =       0.00124996 Ry

     convergence has been achieved in  66 iterations

     Forces acting on atoms (cartesian axes, Ry/au):

     atom    1 type  1   force =     0.00023017   -0.00025927    0.09313070
     atom    2 type  1   force =    -0.00000370   -0.00049572   -0.17829729
     atom    3 type  2   force =     0.00007936   -0.00041374   -0.02008892
     atom    4 type  2   force =     0.00004105   -0.00192741    0.05909718
     atom    5 type  2   force =    -0.01030037   -0.00073379    0.00828628
     atom    6 type  2   force =     0.01152072   -0.00008226    0.00663232
     atom    7 type  1   force =    -0.00058589    0.00210768   -0.01392113
     atom    8 type  1   force =     0.00069069   -0.00091839   -0.00577253
     atom    9 type  2   force =     0.00007152   -0.00012087    0.00005451
     atom   10 type  2   force =    -0.00259833    0.00235716    0.00052675
     atom   11 type  2   force =    -0.00006074   -0.00005267    0.00007781
     atom   12 type  2   force =     0.00003362    0.00019142   -0.00005485
     atom   13 type  1   force =    -0.00008674    0.00007801    0.00004249
     atom   14 type  1   force =    -0.00010384   -0.00035461   -0.00003756
     atom   15 type  2   force =    -0.00014618    0.00012909    0.00010775
     atom   16 type  2   force =     0.00017264   -0.00003155    0.00020834
     atom   17 type  2   force =    -0.00000623   -0.00002773   -0.00003408
     atom   18 type  2   force =     0.00010823   -0.00012854    0.00027710
     atom   19 type  1   force =     0.00015004   -0.00011583    0.00002046
     atom   20 type  1   force =    -0.00026765    0.00040162   -0.00026922
     atom   21 type  2   force =     0.00013994   -0.00010645    0.10398334
     atom   22 type  2   force =     0.00004062    0.00024467    0.00026316
     atom   23 type  2   force =    -0.07029014   -0.00020600   -0.02689480
     atom   24 type  2   force =     0.07033217    0.00025461   -0.02693069
     atom   25 type  1   force =     0.00023288   -0.00019411    0.09280342
     atom   26 type  1   force =     0.00003062   -0.00045101   -0.17843336
     atom   27 type  2   force =     0.00013076   -0.00023555   -0.01915855
     atom   28 type  2   force =     0.00006925   -0.00174091    0.05853484
     atom   29 type  2   force =    -0.01092558   -0.00101408    0.00904356
     atom   30 type  2   force =     0.01204228   -0.00059552    0.00745923
     atom   31 type  1   force =    -0.00057655    0.00640285   -0.01465887
     atom   32 type  1   force =     0.00074747    0.00031046   -0.00606831
     atom   33 type  2   force =    -0.00008698   -0.00017025    0.00004086
     atom   34 type  2   force =    -0.00184231   -0.00249553   -0.00038331
     atom   35 type  2   force =    -0.00008885    0.00021628   -0.00007897
     atom   36 type  2   force =     0.00012307    0.00009639   -0.00013742
     atom   37 type  1   force =     0.00008531    0.00012454   -0.00000822
     atom   38 type  1   force =     0.00007367   -0.00044248   -0.00001571
     atom   39 type  2   force =     0.00014228    0.00013811   -0.00014013
     atom   40 type  2   force =    -0.00009939   -0.00007506    0.00018145
     atom   41 type  2   force =    -0.00006622    0.00004170    0.00004607
     atom   42 type  2   force =     0.00004879    0.00007384   -0.00003016
     atom   43 type  1   force =     0.00034766   -0.00013714    0.00011446
     atom   44 type  1   force =     0.00022784    0.00000892   -0.00013784
     atom   45 type  2   force =     0.00012866   -0.00011058    0.10394378
     atom   46 type  2   force =    -0.07028703   -0.00010913   -0.02688822
     atom   47 type  2   force =     0.07027554    0.00029922   -0.02690037
     atom   48 type  3   force =    -0.00066364   -0.00028804    0.00101348
     atom   49 type  3   force =    -0.00071117    0.01023398    0.00539439
     atom   50 type  4   force =    -0.00009383    0.00080478    0.00016513
     atom   51 type  5   force =     0.00004451   -0.00099442   -0.00047046
     atom   52 type  5   force =    -0.00005184    0.00128502   -0.00029717
     atom   53 type  5   force =     0.00147387   -0.01202678   -0.00600429
     atom   54 type  5   force =     0.00010797    0.00125503    0.00066354

     Total force =     0.366770     Total SCF correction =     0.000741
  @ DRIVER MODE: Message from server: STATUS
  @ DRIVER MODE: Message from server: GETFORCE
  @ DRIVER MODE: Returning v,forces,stress,ensemble

     Writing output data file ./calc.save/
  @ DRIVER MODE: Message from server: EXIT
  @ DRIVE MODE: Exiting

     General routines

     Parallel routines

   This run was terminated on:  17:59:48  15Sep2021

   JOB DONE.