     Program PWSCF v.6.7GPU starts on 25Aug2021 at  1:33:23

     R & G space division:  proc/nbgrp/npool/nimage =       6
     Reading input from /storage/home/hcoda1/3/ntian30/research/carbon/CH3_vib_end_on/ads_slab/CH3NHNH2_a/out_0016/pw.inp
Warning: card &CELL ignored
Warning: card   CELL_DYNAMICS='IPI', ignored
Warning: card / ignored

     Current dimensions of program PWSCF are:
     Max number of different atomic species (ntypx) = 10
     Max number of k-points (npk) =  40000
     Max angular momentum in pseudopotentials (lmaxx) =  3
     Presently no symmetry can be used with electric field

     Message from routine cell_base_init:
     DEPRECATED: use true lattice parameter, not A to a.u. conversion factor

     IMPORTANT: XC functional enforced from input :
     Exchange-correlation= BEEF-VDW
                           (   1   4  43  14   2   0   0)
     Any further DFT definition will be discarded
     Please, verify this is what you really want

  @ DRIVER MODE: Connecting to
 qe_1139763_2643871.sched-torque.pace.gatech.eduvhf8xqks_scratch
  using UNIX socket
  @ DRIVER MODE: Message from server: STATUS
  @ DRIVER MODE: Message from server: INIT
  @ DRIVER MODE: Receiving replica           0          -1
  @ DRIVER MODE: Receiving encoded integer          25
  @ DRIVER MODE:  SCF:  T  FORCE:  T  STRESS:  F  VC:  F  ENSEMBLE:  F
  @ DRIVER MODE:  SCF:  T  FORCE:  T  STRESS:  F  VC:  F  ENSEMBLE:  F

     Using Slab Decomposition

     bravais-lattice index     =            0
     lattice parameter (alat)  =       1.8897  a.u.
     unit-cell volume          =    6658.9804 (a.u.)^3
     number of atoms/cell      =           56
     number of atomic types    =            5
     number of electrons       =       398.00
     number of Kohn-Sham states=          209
     kinetic-energy cutoff     =      29.3995  Ry
     charge density cutoff     =     293.9946  Ry
     scf convergence threshold =      7.3E-08
     mixing beta               =       0.0500
     number of iterations used =            8  plain     mixing
     Exchange-correlation= BEEF-VDW
                           (   1   4  43  14   2   0   0)

     celldm(1)=   1.889726  celldm(2)=   0.000000  celldm(3)=   0.000000
     celldm(4)=   0.000000  celldm(5)=   0.000000  celldm(6)=   0.000000

     crystal axes: (cart. coord. in units of alat)
               a(1) = (   6.579727   0.000000   0.000000 )
               a(2) = (  -0.000775   5.961596   0.000000 )
               a(3) = (   0.000000   0.000000  25.155947 )

     reciprocal axes: (cart. coord. in units 2 pi/alat)
               b(1) = (  0.151982  0.000020  0.000000 )
               b(2) = (  0.000000  0.167740  0.000000 )
               b(3) = (  0.000000  0.000000  0.039752 )

     PseudoPot. # 1 for Ti read from file:
     /storage/coda1/p-amedford6/0/shared/rich_project_chbe-medford/medford-share/data/pseudos_module/espresso/nninc/pbe/van/Ti.UPF
     MD5 check sum: 8e4df49b7f0d34bbd5052bf3f5ea0213
     Pseudo is Ultrasoft, Zval = 12.0
     Generated by new atomic code, or converted to UPF format
     Using radial grid of  851 points,  6 beta functions with:
                l(1) =   0
                l(2) =   0
                l(3) =   1
                l(4) =   1
                l(5) =   2
                l(6) =   2
     Q(r) pseudized with  8 coefficients,  rinner =    1.000   1.000   1.000
                                                       1.000   1.000

     PseudoPot. # 2 for O  read from file:
     /storage/coda1/p-amedford6/0/shared/rich_project_chbe-medford/medford-share/data/pseudos_module/espresso/nninc/pbe/van/O.UPF
     MD5 check sum: 78c19812648e8988a0fe644b0f25305e
     Pseudo is Ultrasoft, Zval =  6.0
     Generated by new atomic code, or converted to UPF format
     Using radial grid of  737 points,  4 beta functions with:
                l(1) =   0
                l(2) =   0
                l(3) =   1
                l(4) =   1
     Q(r) pseudized with  8 coefficients,  rinner =    0.800   0.800   0.800

     PseudoPot. # 3 for N  read from file:
     /storage/coda1/p-amedford6/0/shared/rich_project_chbe-medford/medford-share/data/pseudos_module/espresso/nninc/pbe/van/N.UPF
     MD5 check sum: 90d10febe142ad51ac9d5be1deb811c4
     Pseudo is Ultrasoft, Zval =  5.0
     Generated by new atomic code, or converted to UPF format
     Using radial grid of  729 points,  4 beta functions with:
                l(1) =   0
                l(2) =   0
                l(3) =   1
                l(4) =   1
     Q(r) pseudized with  8 coefficients,  rinner =    0.800   0.800   0.800

     PseudoPot. # 4 for C  read from file:
     /storage/coda1/p-amedford6/0/shared/rich_project_chbe-medford/medford-share/data/pseudos_module/espresso/nninc/pbe/van/C.UPF
     MD5 check sum: 1a69bf6b8db32088f5b2163dbdb77a27
     Pseudo is Ultrasoft, Zval =  4.0
     Generated by new atomic code, or converted to UPF format
     Using radial grid of  721 points,  4 beta functions with:
                l(1) =   0
                l(2) =   0
                l(3) =   1
                l(4) =   1
     Q(r) pseudized with  8 coefficients,  rinner =    0.800   0.800   0.800

     PseudoPot. # 5 for H  read from file:
     /storage/coda1/p-amedford6/0/shared/rich_project_chbe-medford/medford-share/data/pseudos_module/espresso/nninc/pbe/van/H.UPF
     MD5 check sum: b5ee9d7bfd3a09ee7748110bda690ff7
     Pseudo is Ultrasoft, Zval =  1.0
     Generated by new atomic code, or converted to UPF format
     Using radial grid of  615 points,  1 beta functions with:
                l(1) =   0
     Q(r) pseudized with  8 coefficients,  rinner =    0.800

     atomic species   valence    mass     pseudopotential
        Ti1           12.00    47.86700     Ti( 1.00)
        O1             6.00    15.99900     O ( 1.00)
        N1             5.00    14.00700     N ( 1.00)
        C1             4.00    12.01100     C ( 1.00)
        H1             1.00     1.00800     H ( 1.00)

     No symmetry found

   Cartesian axes

     site n.     atom                  positions (alat units)
         1           Ti1 tau(   1) = (   0.0004258   2.9801865   6.0000000  )
         2           Ti1 tau(   2) = (   3.2906075   1.4906267   6.0002472  )
         3           O1  tau(   3) = (   0.0006271   0.0005054   7.9858123  )
         4           O1  tau(   4) = (   3.2906025   0.0005020   7.3038282  )
         5           O1  tau(   5) = (   4.5942328   1.4918067   9.2879030  )
         6           O1  tau(   6) = (   1.9868534   1.4903216   9.2879459  )
         7           Ti1 tau(   7) = (   3.2907910   2.8959150   9.1758416  )
         8           Ti1 tau(   8) = (   0.0015273   1.4827037   9.2680791  )
         9           O1  tau(   9) = (   3.2714441   0.0289406  11.3813764  )
        10           O1  tau(  10) = (   0.0116148   5.9584955  10.6183126  )
        11           O1  tau(  11) = (   1.2692032   1.5162281  12.7122965  )
        12           O1  tau(  12) = (   5.2779133   1.5159715  12.6811497  )
        13           Ti1 tau(  13) = (   6.5579218   3.0031650  12.5037829  )
        14           Ti1 tau(  14) = (   3.2791490   1.5128154  12.5375672  )
        15           O1  tau(  15) = (   6.5208524   5.8954130  14.6845636  )
        16           O1  tau(  16) = (   3.2849572   0.0099931  14.0031570  )
        17           O1  tau(  17) = (   4.4884262   1.5607690  16.1641467  )
        18           O1  tau(  18) = (   1.9729656   1.5430890  16.0903287  )
        19           Ti1 tau(  19) = (   3.2372663   3.0309179  15.7728032  )
        20           Ti1 tau(  20) = (   6.5553692   1.3539605  15.8053163  )
        21           O1  tau(  21) = (   3.2904802   0.0005063   4.7018136  )
        22           O1  tau(  22) = (   6.5123495   0.2165906  17.2215032  )
        23           O1  tau(  23) = (   1.3043587   1.4918075   6.0039043  )
        24           O1  tau(  24) = (   5.2767064   1.4903225   6.0039473  )
        25           Ti1 tau(  25) = (   0.0000382   5.9609847   6.0000000  )
        26           Ti1 tau(  26) = (   3.2902200   4.4714249   6.0002472  )
        27           O1  tau(  27) = (   0.0002396   2.9813036   7.9858123  )
        28           O1  tau(  28) = (   3.2902150   2.9813002   7.3038282  )
        29           O1  tau(  29) = (   4.5938453   4.4726049   9.2879030  )
        30           O1  tau(  30) = (   1.9864658   4.4711199   9.2879459  )
        31           Ti1 tau(  31) = (   3.2891106   5.8743827   9.1763621  )
        32           Ti1 tau(  32) = (   0.0006254   4.4649316   9.2693709  )
        33           O1  tau(  33) = (   3.2699379   2.9911670  11.3762017  )
        34           O1  tau(  34) = (   0.0092240   2.9805883  10.6323155  )
        35           O1  tau(  35) = (   1.2730946   4.4825978  12.6662957  )
        36           O1  tau(  36) = (   5.2742290   4.4829497  12.6320226  )
        37           Ti1 tau(  37) = (   6.5783117   0.0079037  12.5026730  )
        38           Ti1 tau(  38) = (   3.2784283   4.4905194  12.5286134  )
        39           O1  tau(  39) = (   6.5033290   3.0824797  14.9867588  )
        40           O1  tau(  40) = (   3.2824109   3.0350539  13.9807796  )
        41           O1  tau(  41) = (   4.4804250   4.5097483  16.2808085  )
        42           O1  tau(  42) = (   1.9642025   4.5165872  16.2225063  )
        43           Ti1 tau(  43) = (   3.2609991   0.0502580  15.7998297  )
        44           Ti1 tau(  44) = (   6.5501253   4.5826093  16.0954727  )
        45           O1  tau(  45) = (   3.2900926   2.9813045   4.7018136  )
        46           O1  tau(  46) = (   1.3039711   4.4726057   6.0039043  )
        47           O1  tau(  47) = (   5.2763189   4.4711207   6.0039473  )
        48           N1  tau(  48) = (   0.8845045   3.2634721  19.1145209  )
        49           N1  tau(  49) = (   6.3504243   3.3997271  18.1887592  )
        50           C1  tau(  50) = (   1.2927081   4.5731590  19.6429350  )
        51           H1  tau(  51) = (   0.4658632   5.1229972  20.1056819  )
        52           H1  tau(  52) = (   2.0600825   4.3818216  20.3958833  )
        53           H1  tau(  53) = (   1.7018904   5.1738364  18.8453250  )
        54           H1  tau(  54) = (   0.5628611   2.6866381  19.8888112  )
        55           H1  tau(  55) = (   5.6051421   3.9827062  18.5884547  )
        56           H1  tau(  56) = (   5.9567982   2.4624696  18.0937858  )

     number of k points=    10  Fermi-Dirac smearing, width (Ry)=  0.0073
                       cart. coord. in units 2pi/alat
        k(    1) = (   0.0000000   0.0000000   0.0000000), wk =   0.1250000
        k(    2) = (   0.0000000   0.0419351   0.0000000), wk =   0.2500000
        k(    3) = (   0.0000000  -0.0838702   0.0000000), wk =   0.1250000
        k(    4) = (   0.0379955   0.0000049   0.0000000), wk =   0.2500000
        k(    5) = (   0.0379955   0.0419400   0.0000000), wk =   0.2500000
        k(    6) = (   0.0379955  -0.0838652   0.0000000), wk =   0.2500000
        k(    7) = (   0.0379955  -0.0419301   0.0000000), wk =   0.2500000
        k(    8) = (  -0.0759910  -0.0000099   0.0000000), wk =   0.1250000
        k(    9) = (  -0.0759910   0.0419252   0.0000000), wk =   0.2500000
        k(   10) = (  -0.0759910  -0.0838800   0.0000000), wk =   0.1250000

     Initial potential from superposition of free atoms

     starting charge  381.99914, renormalised to  398.00000

     negative rho (up, down):  1.416E-02 0.000E+00

     %%%%%%%%%%%%%%%%%%%%%%%%%%%%%%%%%%%%%%%%%%%%%%%%%%%%%%%%%%%%%%%%%%%%%%%%
     %                                                                      %
     % You are using vdW-DF, which was implemented by the Thonhauser group. %
     % Please cite the following two papers that made this development      %
     % possible and the two reviews that describe the various versions:     %
     %                                                                      %
     %   T. Thonhauser et al., PRL 115, 136402 (2015).                      %
     %   T. Thonhauser et al., PRB 76, 125112 (2007).                       %
     %   K. Berland et al., Rep. Prog. Phys. 78, 066501 (2015).             %
     %   D.C. Langreth et al., J. Phys.: Condens. Matter 21, 084203 (2009). %
     %                                                                      %
     %                                                                      %
     % If you are calculating the stress with vdW-DF, please also cite:     %
     %                                                                      %
     %   R. Sabatini et al., J. Phys.: Condens. Matter 24, 424209 (2012).   %
     %                                                                      %
     %%%%%%%%%%%%%%%%%%%%%%%%%%%%%%%%%%%%%%%%%%%%%%%%%%%%%%%%%%%%%%%%%%%%%%%%

     Adding external electric field

     Computed dipole along edir(3) :
        Dipole              -11.7171 Ry au,        -29.7818 Debye
        Dipole field         -0.0221 Ry au,

        Potential amp.        2.0497 Ry
        Total length         46.3494 bohr

     Starting wfcs are  302 atomic wfcs
  @ DRIVER MODE: Message from server: STATUS
  @ DRIVER MODE: Message from server: POSDATA
  @ DRIVER MODE: Reading and sharing cell
  @ DRIVER MODE: Reading and sharing positions
  @ DRIVER MODE: Received positions

     Self-consistent Calculation

     iteration #  1     ecut=    29.40 Ry     beta= 0.05
     Davidson diagonalization with overlap
     c_bands:  3 eigenvalues not converged
     c_bands:  1 eigenvalues not converged
     c_bands:  1 eigenvalues not converged
     c_bands:  4 eigenvalues not converged
     c_bands:  1 eigenvalues not converged
     c_bands:  4 eigenvalues not converged
     c_bands:  5 eigenvalues not converged
     c_bands:  2 eigenvalues not converged
     ethr =  1.00E-05,  avg # of iterations = 21.9

[...]

     total energy              =   -2424.51978079 Ry
     estimated scf accuracy    <    5830.75096030 Ry

     iteration #  2     ecut=    29.40 Ry     beta= 0.05
     Davidson diagonalization with overlap
     ethr =  1.00E-02,  avg # of iterations = 22.1

[...]

     iteration # 66     ecut=    29.40 Ry     beta= 0.05
     Davidson diagonalization with overlap
     c_bands:  2 eigenvalues not converged
     ethr =  1.05E-10,  avg # of iterations = 10.7

[...]

     total energy              =   -2942.84371353 Ry
     estimated scf accuracy    <       0.00000010 Ry

     iteration # 70     ecut=    29.40 Ry     beta= 0.05
     Davidson diagonalization with overlap
     ethr =  2.53E-11,  avg # of iterations =  6.1

     negative rho (up, down):  1.513E-02 0.000E+00

     Adding external electric field

     Computed dipole along edir(3) :
        Dipole                1.4986 Ry au,          3.8092 Debye
        Dipole field          0.0028 Ry au,

        Potential amp.       -0.2622 Ry
        Total length         46.3494 bohr

     End of self-consistent calculation

          k = 0.0000 0.0000 0.0000 ( 18029 PWs)   bands (ev):

   -55.2002 -55.1631 -55.1523 -55.1233 -55.1182 -55.0814 -55.0783 -55.0435
   -55.0241 -55.0113 -54.9897 -54.9850 -54.9513 -54.8549 -54.1844 -54.1503
   -31.7665 -31.6502 -31.6452 -31.5664 -31.5134 -31.5125 -31.5096 -31.4911
   -31.4413 -31.4377 -31.4098 -31.4076 -31.3974 -31.3803 -31.3674 -31.3616
   -31.3547 -31.3448 -31.3376 -31.3206 -31.3049 -31.3021 -31.2703 -31.2665
   -31.2559 -31.2549 -31.2365 -31.2267 -31.2095 -31.2088 -31.2045 -31.1838
   -31.1837 -31.1803 -31.1736 -31.1708 -31.1376 -31.1279 -31.1133 -31.0965
   -31.0680 -31.0487 -30.5940 -30.4993 -30.4773 -30.4102 -30.3234 -30.2126
   -17.9335 -16.0337 -15.7713 -15.6260 -15.5139 -15.4025 -15.2831 -15.2523
   -15.1325 -15.0564 -14.9226 -14.8963 -14.8738 -14.8502 -14.8383 -14.8256
   -14.7498 -14.7433 -14.7274 -14.6991 -14.6972 -14.6520 -14.6422 -14.6027
   -14.5778 -14.5566 -14.4521 -14.3638 -14.2898 -14.0735 -13.4020 -12.6872
   -12.5697  -9.7293  -6.5768  -6.0794  -4.5687  -3.3725  -3.2486  -3.2238
    -3.1347  -3.1038  -3.0945  -3.0303  -2.9537  -2.7907  -2.6487  -2.6230
    -2.4914  -2.4164  -2.4002  -2.3756  -2.2460  -2.2108  -2.1597  -2.1205
    -2.0615  -2.0309  -2.0070  -1.9913  -1.9604  -1.9512  -1.9261  -1.8369
    -1.7776  -1.6849  -1.6677  -1.5998  -1.5919  -1.5591  -1.5380  -1.4927
    -1.4824  -1.4329  -1.4256  -1.4129  -1.3930  -1.2650  -1.2215  -1.1118
    -1.0504  -0.9626  -0.8419  -0.8020  -0.7879  -0.6974  -0.6885  -0.6566
    -0.5799  -0.5772  -0.5461  -0.4379  -0.3730  -0.3094  -0.2504  -0.2242
    -0.1908  -0.1136  -0.0229   0.0135   0.0303   0.0532   0.1535   0.1886
     0.2441   0.3110   0.3225   0.3358   0.4151   0.4566   0.5318   0.5683
     0.5859   0.6748   0.7011   0.7291   0.7296   0.7673   0.7817   0.8212
     0.8700   0.8968   0.9832   1.0453   1.1041   1.3485   1.4012   1.4077
     1.7337   1.7417   1.8382   2.0216   2.4146   2.4630   3.8962   3.9651
     4.0408   4.0458   4.0682   4.1321   4.3699   4.3931   4.4020   4.4042
     4.4307

[...]

          k = 0.0380-0.0419 0.0000 ( 17876 PWs)   bands (ev):

[...]

          k =-0.0760-0.0000 0.0000 ( 17886 PWs)   bands (ev):

[...]

          k =-0.0760-0.0839 0.0000 ( 17948 PWs)   bands (ev):

   -55.1864 -55.1766 -55.1354 -55.1349 -55.1219 -55.0771 -55.0639 -55.0579
   -55.0156 -55.0084 -55.0050 -54.9685 -54.9680 -54.8560 -54.1675 -54.1671
   -31.5747 -31.5735 -31.5669 -31.4822 -31.4605 -31.4600 -31.4572 -31.4266
   -31.4264 -31.4110 -31.4002 -31.3986 -31.3899 -31.3641 -31.3548 -31.3419
   -31.3409 -31.3370 -31.3338 -31.3282 -31.3263 -31.3203 -31.2813 -31.2781
   -31.2778 -31.2764 -31.2587 -31.2573 -31.2551 -31.2547 -31.2499 -31.2414
   -31.2382 -31.2216 -31.2180 -31.2023 -31.2015 -31.1985 -31.1491 -31.1488
   -31.1246 -31.0725 -30.4901 -30.4898 -30.4065 -30.4063 -30.3669 -30.3667
   -17.9302 -15.5588 -15.4288 -15.3997 -15.2432 -15.2070 -15.1737 -15.1604
   -15.0394 -15.0022 -14.9776 -14.9682 -14.9504 -14.9102 -14.9044 -14.8975
   -14.8271 -14.8078 -14.8036 -14.7813 -14.7230 -14.7141 -14.7102 -14.7026
   -14.6520 -14.6484 -14.5680 -14.5576 -14.5544 -14.3752 -13.4051 -12.6712
   -12.6711  -9.7455  -6.5606  -6.0795  -4.5479  -3.2140  -2.9992  -2.6911
    -2.6867  -2.6583  -2.4570  -2.3945  -2.3638  -2.3582  -2.2609  -2.2243
    -2.1998  -2.1964  -2.1312  -2.1164  -2.0852  -2.0555  -2.0392  -2.0253
    -2.0096  -1.9953  -1.9701  -1.9326  -1.9245  -1.9161  -1.8840  -1.8628
    -1.8397  -1.8175  -1.8039  -1.7854  -1.7595  -1.7372  -1.6004  -1.5687
    -1.4987  -1.4554  -1.4119  -1.4075  -1.3359  -1.2995  -1.2493  -1.2371
    -1.2200  -1.0806  -1.0223  -0.9712  -0.9510  -0.9401  -0.8114  -0.7969
    -0.7242  -0.7063  -0.6900  -0.6158  -0.5643  -0.5262  -0.5126  -0.4193
    -0.4039  -0.3375  -0.2353  -0.2127  -0.1987  -0.1580  -0.1550  -0.1077
    -0.1007  -0.0166   0.0277   0.0627   0.0736   0.1093   0.3020   0.3181
     0.3281   0.4812   0.4968   0.6386   0.6822   0.7485   0.8075   0.8464
     0.9082   0.9455   1.0565   1.0881   1.1033   1.1109   1.1729   1.1848
     1.2476   1.2584   2.1942   2.1949   2.2829   2.2831   4.0423   4.1495
     4.1572   4.1989   4.3189   4.3489   4.4114   4.4386   4.4805   4.4838
     4.5541

     the Fermi energy is     3.9596 ev

!    total energy              =   -2942.84373565 Ry
     estimated scf accuracy    <       0.00000004 Ry
     smearing contrib. (-TS)   =      -0.03707389 Ry
     internal energy E=F+TS    =   -2942.80666176 Ry

     The total energy is F=E-TS. E is the sum of the following terms:
     one-electron contribution =  -23366.58642863 Ry
     hartree contribution      =   11777.48685758 Ry
     xc contribution           =    -487.74030494 Ry
     ewald contribution        =    9134.02897584 Ry
     electric field correction =       0.00423839 Ry

     convergence has been achieved in  70 iterations

     Forces acting on atoms (cartesian axes, Ry/au):

     atom    1 type  1   force =     0.00017058   -0.00032799    0.09329243
     atom    2 type  1   force =    -0.00005766   -0.00042084   -0.17824931
     atom    3 type  2   force =     0.00002763   -0.00032129   -0.02002396
     atom    4 type  2   force =     0.00002319   -0.00183352    0.05924456
     atom    5 type  2   force =    -0.01046754   -0.00026154    0.00864557
     atom    6 type  2   force =     0.01148515    0.00041068    0.00645874
     atom    7 type  1   force =    -0.00100038    0.00213244   -0.01399662
     atom    8 type  1   force =     0.00081350   -0.00094432   -0.00574410
     atom    9 type  2   force =    -0.00009637    0.00012599   -0.00000168
     atom   10 type  2   force =    -0.00185399    0.00411524    0.00026534
     atom   11 type  2   force =    -0.00006127   -0.00063999    0.00029084
     atom   12 type  2   force =    -0.00001526   -0.00041347    0.00054364
     atom   13 type  1   force =     0.00004443    0.00009543    0.00032414
     atom   14 type  1   force =    -0.00038030   -0.00000521    0.00006744
     atom   15 type  2   force =     0.00052467    0.00024558   -0.00032490
     atom   16 type  2   force =     0.00032065   -0.00035663   -0.00006003
     atom   17 type  2   force =    -0.00059654   -0.00003182   -0.00003476
     atom   18 type  2   force =     0.00054229   -0.00021339    0.00000306
     atom   19 type  1   force =    -0.00001278   -0.00055135    0.00025925
     atom   20 type  1   force =     0.00068730    0.00017139    0.00091342
     atom   21 type  2   force =     0.00012545   -0.00012749    0.10400951
     atom   22 type  2   force =    -0.00039061    0.00017397   -0.00022374
     atom   23 type  2   force =    -0.07026028   -0.00022138   -0.02686359
     atom   24 type  2   force =     0.07025326    0.00021883   -0.02688598
     atom   25 type  1   force =     0.00007972   -0.00032290    0.09259176
     atom   26 type  1   force =    -0.00003975   -0.00059705   -0.17836659
     atom   27 type  2   force =     0.00012984   -0.00016560   -0.01908306
     atom   28 type  2   force =     0.00005121   -0.00163293    0.05860199
     atom   29 type  2   force =    -0.01106599   -0.00055837    0.00932788
     atom   30 type  2   force =     0.01198621   -0.00002296    0.00721635
     atom   31 type  1   force =    -0.00093200    0.00647497   -0.01507239
     atom   32 type  1   force =     0.00086128    0.00101570   -0.00589895
     atom   33 type  2   force =     0.00017328   -0.00057184   -0.00002996
     atom   34 type  2   force =    -0.00185814   -0.00052259   -0.00049237
     atom   35 type  2   force =    -0.00043887    0.00006288   -0.00042860
     atom   36 type  2   force =     0.00034276   -0.00011348    0.00018904
     atom   37 type  1   force =    -0.00051469   -0.00025311    0.00020203
     atom   38 type  1   force =    -0.00004252   -0.00015393   -0.00008814
     atom   39 type  2   force =     0.00029912   -0.00060711   -0.00000586
     atom   40 type  2   force =    -0.00060316   -0.00050775    0.00026392
     atom   41 type  2   force =    -0.00024898   -0.00071346   -0.00070453
     atom   42 type  2   force =     0.00046318   -0.00004793   -0.00005485
     atom   43 type  1   force =     0.00025602   -0.00018493   -0.00024963
     atom   44 type  1   force =     0.00049938   -0.00006290    0.00086373
     atom   45 type  2   force =     0.00013581   -0.00014211    0.10397418
     atom   46 type  2   force =    -0.07025983   -0.00016131   -0.02683671
     atom   47 type  2   force =     0.07023149    0.00026080   -0.02689479
     atom   48 type  3   force =     0.00314758    0.00834292    0.00019254
     atom   49 type  3   force =    -0.00044333   -0.00102002    0.00011438
     atom   50 type  4   force =     0.00092766   -0.01957272    0.00284208
     atom   51 type  5   force =    -0.00377373    0.00503322    0.00219401
     atom   52 type  5   force =    -0.00085188    0.00190912   -0.00137250
     atom   53 type  5   force =     0.00286281    0.00507082   -0.00559257
     atom   54 type  5   force =    -0.00003038   -0.00081381    0.00136693
     atom   55 type  5   force =    -0.00000394   -0.00071447   -0.00035079
     atom   56 type  5   force =    -0.00116530    0.00027354   -0.00032778

     Total force =     0.367113     Total SCF correction =     0.000507
  @ DRIVER MODE: Message from server: STATUS
  @ DRIVER MODE: Message from server: GETFORCE
  @ DRIVER MODE: Returning v,forces,stress,ensemble

     Writing output data file ./calc.save/
  @ DRIVER MODE: Message from server: EXIT
  @ DRIVE MODE: Exiting

     General routines

     Parallel routines

   This run was terminated on:   2: 5:53  25Aug2021

   JOB DONE.