     Program PWSCF v.6.7GPU starts on  2Aug2021 at 17:20:28

     R & G space division:  proc/nbgrp/npool/nimage =      16
     Reading input from /storage/home/hcoda1/3/ntian30/research/carbon/02Aug_vib_paired/ads_slab/CH3N2_b/out_0016/pw.inp
Warning: card &CELL ignored
Warning: card   CELL_DYNAMICS='IPI', ignored
Warning: card / ignored

     Current dimensions of program PWSCF are:
     Max number of different atomic species (ntypx) = 10
     Max number of k-points (npk) =  40000
     Max angular momentum in pseudopotentials (lmaxx) =  3
     Presently no symmetry can be used with electric field

     Message from routine cell_base_init:
     DEPRECATED: use true lattice parameter, not A to a.u. conversion factor

     IMPORTANT: XC functional enforced from input :
     Exchange-correlation= BEEF-VDW
                           (   1   4  43  14   2   0   0)
     Any further DFT definition will be discarded
     Please, verify this is what you really want

  @ DRIVER MODE: Connecting to
 qe_1139763_2482536.sched-torque.pace.gatech.edukd37v63c_scratch
  using UNIX socket
  @ DRIVER MODE: Message from server: STATUS
  @ DRIVER MODE: Message from server: INIT
  @ DRIVER MODE: Receiving replica           0          -1
  @ DRIVER MODE: Receiving encoded integer          25
  @ DRIVER MODE:  SCF:  T  FORCE:  T  STRESS:  F  VC:  F  ENSEMBLE:  F
  @ DRIVER MODE:  SCF:  T  FORCE:  T  STRESS:  F  VC:  F  ENSEMBLE:  F

     Using Slab Decomposition

     bravais-lattice index     =            0
     lattice parameter (alat)  =       1.8897  a.u.
     unit-cell volume          =    6658.9804 (a.u.)^3
     number of atoms/cell      =           53
     number of atomic types    =            5
     number of electrons       =       395.00
     number of Kohn-Sham states=          207
     kinetic-energy cutoff     =      29.3995  Ry
     charge density cutoff     =     293.9946  Ry
     scf convergence threshold =      7.3E-08
     mixing beta               =       0.0500
     number of iterations used =            8  plain     mixing
     Exchange-correlation= BEEF-VDW
                           (   1   4  43  14   2   0   0)

     celldm(1)=   1.889726  celldm(2)=   0.000000  celldm(3)=   0.000000
     celldm(4)=   0.000000  celldm(5)=   0.000000  celldm(6)=   0.000000

     crystal axes: (cart. coord. in units of alat)
               a(1) = (   6.579727   0.000000   0.000000 )
               a(2) = (  -0.000775   5.961596   0.000000 )
               a(3) = (   0.000000   0.000000  25.155947 )

     reciprocal axes: (cart. coord. in units 2 pi/alat)
               b(1) = (  0.151982  0.000020  0.000000 )
               b(2) = (  0.000000  0.167740  0.000000 )
               b(3) = (  0.000000  0.000000  0.039752 )

     PseudoPot. # 1 for Ti read from file:
     /storage/coda1/p-amedford6/0/shared/rich_project_chbe-medford/medford-share/data/pseudos_module/espresso/nninc/pbe/van/Ti.UPF
     MD5 check sum: 8e4df49b7f0d34bbd5052bf3f5ea0213
     Pseudo is Ultrasoft, Zval = 12.0
     Generated by new atomic code, or converted to UPF format
     Using radial grid of  851 points,  6 beta functions with:
                l(1) =   0
                l(2) =   0
                l(3) =   1
                l(4) =   1
                l(5) =   2
                l(6) =   2
     Q(r) pseudized with  8 coefficients,  rinner =    1.000   1.000   1.000
                                                       1.000   1.000

     PseudoPot. # 2 for O  read from file:
     /storage/coda1/p-amedford6/0/shared/rich_project_chbe-medford/medford-share/data/pseudos_module/espresso/nninc/pbe/van/O.UPF
     MD5 check sum: 78c19812648e8988a0fe644b0f25305e
     Pseudo is Ultrasoft, Zval =  6.0
     Generated by new atomic code, or converted to UPF format
     Using radial grid of  737 points,  4 beta functions with:
                l(1) =   0
                l(2) =   0
                l(3) =   1
                l(4) =   1
     Q(r) pseudized with  8 coefficients,  rinner =    0.800   0.800   0.800

     PseudoPot. # 3 for N  read from file:
     /storage/coda1/p-amedford6/0/shared/rich_project_chbe-medford/medford-share/data/pseudos_module/espresso/nninc/pbe/van/N.UPF
     MD5 check sum: 90d10febe142ad51ac9d5be1deb811c4
     Pseudo is Ultrasoft, Zval =  5.0
     Generated by new atomic code, or converted to UPF format
     Using radial grid of  729 points,  4 beta functions with:
                l(1) =   0
                l(2) =   0
                l(3) =   1
                l(4) =   1
     Q(r) pseudized with  8 coefficients,  rinner =    0.800   0.800   0.800

     PseudoPot. # 4 for C  read from file:
     /storage/coda1/p-amedford6/0/shared/rich_project_chbe-medford/medford-share/data/pseudos_module/espresso/nninc/pbe/van/C.UPF
     MD5 check sum: 1a69bf6b8db32088f5b2163dbdb77a27
     Pseudo is Ultrasoft, Zval =  4.0
     Generated by new atomic code, or converted to UPF format
     Using radial grid of  721 points,  4 beta functions with:
                l(1) =   0
                l(2) =   0
                l(3) =   1
                l(4) =   1
     Q(r) pseudized with  8 coefficients,  rinner =    0.800   0.800   0.800

     PseudoPot. # 5 for H  read from file:
     /storage/coda1/p-amedford6/0/shared/rich_project_chbe-medford/medford-share/data/pseudos_module/espresso/nninc/pbe/van/H.UPF
     MD5 check sum: b5ee9d7bfd3a09ee7748110bda690ff7
     Pseudo is Ultrasoft, Zval =  1.0
     Generated by new atomic code, or converted to UPF format
     Using radial grid of  615 points,  1 beta functions with:
                l(1) =   0
     Q(r) pseudized with  8 coefficients,  rinner =    0.800

     atomic species   valence    mass     pseudopotential
        Ti1           12.00    47.86700     Ti( 1.00)
        O1             6.00    15.99900     O ( 1.00)
        N1             5.00    14.00700     N ( 1.00)
        C1             4.00    12.01100     C ( 1.00)
        H1             1.00     1.00800     H ( 1.00)

     No symmetry found

   Cartesian axes

     site n.     atom                  positions (alat units)
         1           Ti1 tau(   1) = (   0.0004258   2.9801865   6.0000000  )
         2           Ti1 tau(   2) = (   3.2906075   1.4906267   6.0002472  )
         3           O1  tau(   3) = (   0.0006271   0.0005054   7.9858123  )
         4           O1  tau(   4) = (   3.2906025   0.0005020   7.3038282  )
         5           O1  tau(   5) = (   4.5942328   1.4918067   9.2879030  )
         6           O1  tau(   6) = (   1.9868534   1.4903216   9.2879459  )
         7           Ti1 tau(   7) = (   3.2907910   2.8959150   9.1758416  )
         8           Ti1 tau(   8) = (   0.0015273   1.4827037   9.2680791  )
         9           O1  tau(   9) = (   3.3037365   0.0094216  11.3222111  )
        10           O1  tau(  10) = (   0.0116148   5.9584955  10.6183126  )
        11           O1  tau(  11) = (   1.3152514   1.5075076  12.6320051  )
        12           O1  tau(  12) = (   5.3186361   1.4995162  12.6508707  )
        13           Ti1 tau(  13) = (   6.5540705   2.9956815  12.5884341  )
        14           Ti1 tau(  14) = (   3.2234832   1.4927074  12.4921739  )
        15           O1  tau(  15) = (   0.0610261   5.9052480  14.6017706  )
        16           O1  tau(  16) = (   3.2936532   0.0132264  13.8830087  )
        17           O1  tau(  17) = (   4.5722397   1.5061520  16.0138922  )
        18           O1  tau(  18) = (   2.0767725   1.5295127  16.0808449  )
        19           Ti1 tau(  19) = (   3.3650854   3.0251465  15.6907462  )
        20           Ti1 tau(  20) = (   0.0387768   1.3037779  15.7216176  )
        21           O1  tau(  21) = (   3.2904802   0.0005063   4.7018136  )
        22           O1  tau(  22) = (   0.0189486   0.1070799  17.1824039  )
        23           O1  tau(  23) = (   1.3043587   1.4918075   6.0039043  )
        24           O1  tau(  24) = (   5.2767064   1.4903225   6.0039473  )
        25           Ti1 tau(  25) = (   0.0000382   5.9609847   6.0000000  )
        26           Ti1 tau(  26) = (   3.2902200   4.4714249   6.0002472  )
        27           O1  tau(  27) = (   0.0002396   2.9813036   7.9858123  )
        28           O1  tau(  28) = (   3.2902150   2.9813002   7.3038282  )
        29           O1  tau(  29) = (   4.5938453   4.4726049   9.2879030  )
        30           O1  tau(  30) = (   1.9864658   4.4711199   9.2879459  )
        31           Ti1 tau(  31) = (   3.2891106   5.8743827   9.1763621  )
        32           Ti1 tau(  32) = (   0.0006254   4.4649316   9.2693709  )
        33           O1  tau(  33) = (   3.3043114   2.9829305  11.3227053  )
        34           O1  tau(  34) = (   0.0092240   2.9805883  10.6323155  )
        35           O1  tau(  35) = (   1.3131995   4.4620516  12.6081187  )
        36           O1  tau(  36) = (   5.3117129   4.4692194  12.6284301  )
        37           Ti1 tau(  37) = (   6.5303063   5.9583428  12.5400172  )
        38           Ti1 tau(  38) = (   3.2255477   4.4746212  12.4748647  )
        39           O1  tau(  39) = (   0.0377805   3.0059521  14.8845374  )
        40           O1  tau(  40) = (   3.3120027   2.9986483  13.8863452  )
        41           O1  tau(  41) = (   4.5434534   4.5277214  16.0148975  )
        42           O1  tau(  42) = (   2.1165747   4.4940517  16.0783766  )
        43           Ti1 tau(  43) = (   3.3042555   0.0241951  15.7004812  )
        44           Ti1 tau(  44) = (   0.0495666   4.4505358  16.3362958  )
        45           O1  tau(  45) = (   3.2900926   2.9813045   4.7018136  )
        46           O1  tau(  46) = (   1.3039711   4.4726057   6.0039043  )
        47           O1  tau(  47) = (   5.2763189   4.4711207   6.0039473  )
        48           N1  tau(  48) = (   0.5348212   3.4288502  18.0689430  )
        49           C1  tau(  49) = (   1.3556880   3.0079929  19.2215664  )
        50           H1  tau(  50) = (   1.4862090   3.9000195  19.8496782  )
        51           H1  tau(  51) = (   0.8469181   2.2141957  19.7647163  )
        52           H1  tau(  52) = (   2.3296892   2.6851793  18.8624704  )
        53           N1  tau(  53) = (   5.9145885   3.2636146  17.9655992  )

     number of k points=    10  Fermi-Dirac smearing, width (Ry)=  0.0073
                       cart. coord. in units 2pi/alat
        k(    1) = (   0.0000000   0.0000000   0.0000000), wk =   0.1250000
        k(    2) = (   0.0000000   0.0419351   0.0000000), wk =   0.2500000
        k(    3) = (   0.0000000  -0.0838702   0.0000000), wk =   0.1250000
        k(    4) = (   0.0379955   0.0000049   0.0000000), wk =   0.2500000
        k(    5) = (   0.0379955   0.0419400   0.0000000), wk =   0.2500000
        k(    6) = (   0.0379955  -0.0838652   0.0000000), wk =   0.2500000
        k(    7) = (   0.0379955  -0.0419301   0.0000000), wk =   0.2500000
        k(    8) = (  -0.0759910  -0.0000099   0.0000000), wk =   0.1250000
        k(    9) = (  -0.0759910   0.0419252   0.0000000), wk =   0.2500000
        k(   10) = (  -0.0759910  -0.0838800   0.0000000), wk =   0.1250000

     Initial potential from superposition of free atoms

     starting charge  378.99916, renormalised to  395.00000

     negative rho (up, down):  1.610E-02 0.000E+00

     %%%%%%%%%%%%%%%%%%%%%%%%%%%%%%%%%%%%%%%%%%%%%%%%%%%%%%%%%%%%%%%%%%%%%%%%
     %                                                                      %
     % You are using vdW-DF, which was implemented by the Thonhauser group. %
     % Please cite the following two papers that made this development      %
     % possible and the two reviews that describe the various versions:     %
     %                                                                      %
     %   T. Thonhauser et al., PRL 115, 136402 (2015).                      %
     %   T. Thonhauser et al., PRB 76, 125112 (2007).                       %
     %   K. Berland et al., Rep. Prog. Phys. 78, 066501 (2015).             %
     %   D.C. Langreth et al., J. Phys.: Condens. Matter 21, 084203 (2009). %
     %                                                                      %
     %                                                                      %
     % If you are calculating the stress with vdW-DF, please also cite:     %
     %                                                                      %
     %   R. Sabatini et al., J. Phys.: Condens. Matter 24, 424209 (2012).   %
     %                                                                      %
     %%%%%%%%%%%%%%%%%%%%%%%%%%%%%%%%%%%%%%%%%%%%%%%%%%%%%%%%%%%%%%%%%%%%%%%%

     Adding external electric field

     Computed dipole along edir(3) :
        Dipole               -8.5786 Ry au,        -21.8047 Debye
        Dipole field         -0.0162 Ry au,

        Potential amp.        1.5007 Ry
        Total length         46.3494 bohr

     Starting wfcs are  299 atomic wfcs
  @ DRIVER MODE: Message from server: STATUS
  @ DRIVER MODE: Message from server: POSDATA
  @ DRIVER MODE: Reading and sharing cell
  @ DRIVER MODE: Reading and sharing positions
  @ DRIVER MODE: Received positions

     Self-consistent Calculation

     iteration #  1     ecut=    29.40 Ry     beta= 0.05
     Davidson diagonalization with overlap
     c_bands:  1 eigenvalues not converged
     c_bands:  2 eigenvalues not converged
     c_bands:  1 eigenvalues not converged
     c_bands:  3 eigenvalues not converged
     c_bands:  1 eigenvalues not converged
     c_bands:  2 eigenvalues not converged
     c_bands:  2 eigenvalues not converged
     c_bands:  2 eigenvalues not converged
     ethr =  1.00E-05,  avg # of iterations = 19.2

[...]

     total energy              =   -2599.36719842 Ry
     estimated scf accuracy    <    3763.68267454 Ry

     iteration #  2     ecut=    29.40 Ry     beta= 0.05
     Davidson diagonalization with overlap
     ethr =  1.00E-02,  avg # of iterations = 22.4

[...]

     iteration # 61     ecut=    29.40 Ry     beta= 0.05
     Davidson diagonalization with overlap
     c_bands:  1 eigenvalues not converged
     ethr =  8.97E-11,  avg # of iterations = 12.4

[...]

     total energy              =   -2939.12533952 Ry
     estimated scf accuracy    <       0.00000036 Ry

     iteration # 62     ecut=    29.40 Ry     beta= 0.05
     Davidson diagonalization with overlap
     ethr =  8.97E-11,  avg # of iterations = 10.4

     negative rho (up, down):  1.616E-02 0.000E+00

     Adding external electric field

     Computed dipole along edir(3) :
        Dipole                0.9105 Ry au,          2.3143 Debye
        Dipole field          0.0017 Ry au,

        Potential amp.       -0.1593 Ry
        Total length         46.3494 bohr

     End of self-consistent calculation

          k = 0.0000 0.0000 0.0000 ( 18029 PWs)   bands (ev):

   -55.7760 -55.7699 -55.7419 -55.7340 -55.6837 -55.6352 -55.5965 -55.5625
   -55.5555 -55.5218 -55.5197 -55.4466 -54.9566 -54.8071 -54.7562 -54.7221
   -32.3188 -32.2600 -32.1749 -32.0960 -32.0681 -32.0564 -32.0474 -32.0211
   -32.0059 -31.9704 -31.9403 -31.9282 -31.9219 -31.9050 -31.8830 -31.8819
   -31.8788 -31.8784 -31.8654 -31.8353 -31.8331 -31.8218 -31.8005 -31.7920
   -31.7888 -31.7826 -31.7813 -31.7555 -31.7412 -31.7363 -31.7257 -31.7106
   -31.7068 -31.6693 -31.6363 -31.5641 -31.4928 -31.3383 -31.1678 -31.1631
   -31.1052 -31.0750 -31.0664 -31.0526 -30.9802 -30.9132 -30.8937 -30.7823
   -19.4382 -16.5175 -16.2527 -15.9673 -15.9156 -15.8413 -15.7479 -15.6249
   -15.5293 -15.4107 -15.3718 -15.3156 -15.3084 -15.2640 -15.2369 -15.2329
   -15.2067 -15.1984 -15.1345 -15.1269 -15.0763 -15.0647 -15.0167 -14.9817
   -14.9702 -14.9150 -14.8462 -14.8050 -14.6859 -14.1603 -13.2576 -13.1412
   -12.3003  -7.2465  -4.9373  -4.7734  -3.8998  -3.7573  -3.7039  -3.6853
    -3.6408  -3.4402  -3.3523  -3.2841  -3.0443  -2.9530  -2.9285  -2.9178
    -2.8686  -2.7109  -2.6606  -2.6046  -2.5887  -2.5625  -2.5404  -2.5324
    -2.4971  -2.4868  -2.4595  -2.4232  -2.3265  -2.2132  -2.1840  -2.1063
    -2.0907  -2.0747  -2.0448  -2.0349  -2.0252  -2.0154  -1.9968  -1.9595
    -1.8951  -1.8521  -1.7870  -1.7026  -1.5609  -1.5389  -1.4610  -1.3854
    -1.3056  -1.2631  -1.2412  -1.2128  -1.1730  -1.0931  -1.0673  -0.9212
    -0.8242  -0.7911  -0.7740  -0.7315  -0.6955  -0.5933  -0.5716  -0.5425
    -0.5334  -0.5057  -0.4318  -0.3754  -0.2436  -0.2129  -0.2089  -0.1712
    -0.1005  -0.0468   0.0068   0.0559   0.0637   0.0995   0.1596   0.1848
     0.1896   0.2324   0.2747   0.3496   0.3758   0.4498   0.4539   0.5180
     0.5617   0.6435   0.7511   0.8732   1.0167   1.1537   1.1981   1.2672
     1.3626   1.4590   1.8373   1.8829   2.1437   3.3374   3.4446   3.4681
     3.4803   3.5870   3.7955   3.8180   3.8672   3.8875   3.8960

[...]

          k = 0.0380-0.0419 0.0000 ( 17876 PWs)   bands (ev):

[...]

          k =-0.0760-0.0000 0.0000 ( 17886 PWs)   bands (ev):

[...]

          k =-0.0760-0.0839 0.0000 ( 17948 PWs)   bands (ev):

   -55.7589 -55.7588 -55.7526 -55.7511 -55.6765 -55.6424 -55.5795 -55.5792
   -55.5389 -55.5385 -55.5152 -55.4509 -54.9552 -54.8083 -54.7392 -54.7390
   -32.1224 -32.1189 -32.0753 -32.0753 -32.0535 -32.0534 -32.0200 -32.0050
   -31.9987 -31.9900 -31.9213 -31.9160 -31.9052 -31.8988 -31.8822 -31.8801
   -31.8795 -31.8781 -31.8778 -31.8725 -31.8542 -31.8516 -31.8502 -31.8138
   -31.7844 -31.7826 -31.7809 -31.7684 -31.7682 -31.7589 -31.7581 -31.7561
   -31.7548 -31.7366 -31.7120 -31.6610 -31.4400 -31.3204 -31.1697 -31.1592
   -31.0835 -31.0655 -31.0652 -30.9760 -30.9758 -30.9370 -30.9369 -30.9161
   -19.4360 -15.9179 -15.9118 -15.7504 -15.7159 -15.6501 -15.6413 -15.5736
   -15.5065 -15.4618 -15.4568 -15.3416 -15.3395 -15.3250 -15.3033 -15.2491
   -15.2328 -15.2314 -15.2280 -15.2203 -15.2085 -15.1810 -15.1504 -15.0998
   -15.0948 -15.0739 -15.0636 -14.9422 -14.5322 -14.4705 -13.2430 -13.2429
   -12.3028  -7.2331  -4.9390  -4.7710  -3.6286  -3.2072  -3.1908  -3.0030
    -2.9196  -2.9083  -2.8930  -2.7399  -2.7282  -2.7116  -2.6538  -2.6443
    -2.6369  -2.6007  -2.5845  -2.5606  -2.5202  -2.5149  -2.4668  -2.4639
    -2.4489  -2.4290  -2.4086  -2.4030  -2.3897  -2.3746  -2.3375  -2.2809
    -2.2429  -2.2158  -2.1875  -2.0910  -2.0303  -1.9945  -1.9273  -1.9188
    -1.8678  -1.8430  -1.8285  -1.7618  -1.6917  -1.6621  -1.5779  -1.4865
    -1.4681  -1.4527  -1.3340  -1.3201  -1.2453  -1.2216  -1.1378  -1.1207
    -1.0811  -0.9704  -0.9470  -0.9158  -0.8810  -0.8371  -0.7735  -0.7366
    -0.7347  -0.6860  -0.6418  -0.5857  -0.5245  -0.5126  -0.4973  -0.4884
    -0.4248  -0.3911  -0.3692  -0.2869  -0.2717  -0.1900  -0.0462  -0.0134
     0.1441   0.1932   0.3022   0.3297   0.4206   0.4422   0.5362   0.5394
     0.5724   0.7014   0.7202   0.7378   0.7539   0.7738   0.7977   0.9367
     1.6314   1.6316   1.7030   1.7030   2.0816   3.6704   3.7075   3.7577
     3.7795   3.8836   3.8885   3.8912   3.8989   4.0203   4.0246

     the Fermi energy is     3.3509 ev

!    total energy              =   -2939.12538171 Ry
     estimated scf accuracy    <       0.00000007 Ry
     smearing contrib. (-TS)   =      -0.02052539 Ry
     internal energy E=F+TS    =   -2939.10485633 Ry

     The total energy is F=E-TS. E is the sum of the following terms:
     one-electron contribution =  -24213.30791093 Ry
     hartree contribution      =   12195.39027243 Ry
     xc contribution           =    -485.19318665 Ry
     ewald contribution        =    9564.00440425 Ry
     electric field correction =       0.00156457 Ry

     convergence has been achieved in  62 iterations

     Forces acting on atoms (cartesian axes, Ry/au):

     atom    1 type  1   force =     0.00011418   -0.00019322    0.09586366
     atom    2 type  1   force =     0.00006364   -0.00061208   -0.17548755
     atom    3 type  2   force =     0.00017700   -0.00019309   -0.02305412
     atom    4 type  2   force =     0.00004020   -0.00128798    0.05261310
     atom    5 type  2   force =    -0.00977052   -0.00031707    0.00253516
     atom    6 type  2   force =     0.01165634    0.00022513    0.00291534
     atom    7 type  1   force =     0.00088597    0.00002214   -0.00989895
     atom    8 type  1   force =    -0.00000117    0.00531793    0.01819808
     atom    9 type  2   force =    -0.00001440   -0.00028756   -0.00011304
     atom   10 type  2   force =    -0.00253700    0.00216614   -0.01349156
     atom   11 type  2   force =    -0.00097814    0.00010404    0.00017507
     atom   12 type  2   force =     0.00038410   -0.00026004    0.00048917
     atom   13 type  1   force =     0.00011265   -0.00008203    0.00051533
     atom   14 type  1   force =    -0.00004565   -0.00017134   -0.00014793
     atom   15 type  2   force =    -0.00059196    0.00020977    0.00043274
     atom   16 type  2   force =    -0.00043421    0.00007761    0.00019400
     atom   17 type  2   force =    -0.00015333   -0.00008777   -0.00033983
     atom   18 type  2   force =     0.00027815    0.00022806    0.00008051
     atom   19 type  1   force =    -0.00060335   -0.00056110    0.00069240
     atom   20 type  1   force =    -0.00028584    0.00038321   -0.00073174
     atom   21 type  2   force =     0.00007356   -0.00006161    0.10321353
     atom   22 type  2   force =     0.00009960   -0.00005818   -0.00039809
     atom   23 type  2   force =    -0.07154356   -0.00019034   -0.02753427
     atom   24 type  2   force =     0.07152030    0.00030811   -0.02759561
     atom   25 type  1   force =     0.00013487   -0.00029181    0.09519533
     atom   26 type  1   force =     0.00008416   -0.00046534   -0.17563342
     atom   27 type  2   force =     0.00015778   -0.00012028   -0.02179717
     atom   28 type  2   force =     0.00008205   -0.00105561    0.05248870
     atom   29 type  2   force =    -0.01015195    0.00023392    0.00291137
     atom   30 type  2   force =     0.01197079    0.00051890    0.00328634
     atom   31 type  1   force =     0.00088612    0.00415729   -0.01177403
     atom   32 type  1   force =     0.00012038   -0.00634157    0.01832959
     atom   33 type  2   force =     0.00016562    0.00041835   -0.00011447
     atom   34 type  2   force =    -0.00308185   -0.00010285   -0.00867521
     atom   35 type  2   force =    -0.00021038    0.00007393    0.00001112
     atom   36 type  2   force =    -0.00004384    0.00028888   -0.00006142
     atom   37 type  1   force =     0.00046435   -0.00094035    0.00019211
     atom   38 type  1   force =    -0.00032905    0.00008463    0.00033886
     atom   39 type  2   force =     0.00011408   -0.00026182    0.00052890
     atom   40 type  2   force =    -0.00008485    0.00026525    0.00015780
     atom   41 type  2   force =     0.00006398   -0.00014470   -0.00019941
     atom   42 type  2   force =    -0.00048469    0.00013301   -0.00041543
     atom   43 type  1   force =     0.00023873    0.00048606    0.00007650
     atom   44 type  1   force =    -0.00020201   -0.00084355   -0.00089999
     atom   45 type  2   force =     0.00007963   -0.00006010    0.10315844
     atom   46 type  2   force =    -0.07155117   -0.00009739   -0.02752807
     atom   47 type  2   force =     0.07153903    0.00025628   -0.02759542
     atom   48 type  3   force =     0.00059445   -0.00102380    0.00051392
     atom   49 type  4   force =     0.00118887    0.00825662    0.00370294
     atom   50 type  5   force =    -0.00057307   -0.00833971   -0.00487451
     atom   51 type  5   force =    -0.00081479    0.00029019    0.00042205
     atom   52 type  5   force =     0.00031460   -0.00053747   -0.00046409
     atom   53 type  3   force =     0.00088162    0.00048433   -0.00040673

     Total force =     0.364974     Total SCF correction =     0.000628
  @ DRIVER MODE: Message from server: STATUS
  @ DRIVER MODE: Message from server: GETFORCE
  @ DRIVER MODE: Returning v,forces,stress,ensemble

     Writing output data file ./calc.save/
  @ DRIVER MODE: Message from server: EXIT
  @ DRIVE MODE: Exiting

     General routines

     Parallel routines

   This run was terminated on:  17:34:56   2Aug2021

   JOB DONE.