     Program PWSCF v.6.7GPU starts on 16Jul2021 at  9:46:52

     R & G space division:  proc/nbgrp/npool/nimage =      16
     Reading input from /storage/home/hcoda1/3/ntian30/research/carbon/15Jul_vib/ads_slab/CH3N2_b/out_0029/pw.inp
Warning: card &CELL ignored
Warning: card   CELL_DYNAMICS='IPI', ignored
Warning: card / ignored

     Current dimensions of program PWSCF are:
     Max number of different atomic species (ntypx) = 10
     Max number of k-points (npk) =  40000
     Max angular momentum in pseudopotentials (lmaxx) =  3
     Presently no symmetry can be used with electric field

     Message from routine cell_base_init:
     DEPRECATED: use true lattice parameter, not A to a.u. conversion factor

     IMPORTANT: XC functional enforced from input :
     Exchange-correlation= BEEF-VDW
                           (   1   4  43  14   2   0   0)
     Any further DFT definition will be discarded
     Please, verify this is what you really want

  @ DRIVER MODE: Connecting to
 qe_1139763_2351645.sched-torque.pace.gatech.eduhqbesp1n_scratch
  using UNIX socket
  @ DRIVER MODE: Message from server: STATUS
  @ DRIVER MODE: Message from server: INIT
  @ DRIVER MODE: Receiving replica           0          -1
  @ DRIVER MODE: Receiving encoded integer          25
  @ DRIVER MODE:  SCF:  T  FORCE:  T  STRESS:  F  VC:  F  ENSEMBLE:  F
  @ DRIVER MODE:  SCF:  T  FORCE:  T  STRESS:  F  VC:  F  ENSEMBLE:  F

     Using Slab Decomposition

     bravais-lattice index     =            0
     lattice parameter (alat)  =       1.8897  a.u.
     unit-cell volume          =    6658.9804 (a.u.)^3
     number of atoms/cell      =           53
     number of atomic types    =            5
     number of electrons       =       395.00
     number of Kohn-Sham states=          207
     kinetic-energy cutoff     =      29.3995  Ry
     charge density cutoff     =     293.9946  Ry
     scf convergence threshold =      7.3E-08
     mixing beta               =       0.0500
     number of iterations used =            8  plain     mixing
     Exchange-correlation= BEEF-VDW
                           (   1   4  43  14   2   0   0)

     celldm(1)=   1.889726  celldm(2)=   0.000000  celldm(3)=   0.000000
     celldm(4)=   0.000000  celldm(5)=   0.000000  celldm(6)=   0.000000

     crystal axes: (cart. coord. in units of alat)
               a(1) = (   6.579727   0.000000   0.000000 )
               a(2) = (  -0.000775   5.961596   0.000000 )
               a(3) = (   0.000000   0.000000  25.155947 )

     reciprocal axes: (cart. coord. in units 2 pi/alat)
               b(1) = (  0.151982  0.000020  0.000000 )
               b(2) = (  0.000000  0.167740  0.000000 )
               b(3) = (  0.000000  0.000000  0.039752 )

     PseudoPot. # 1 for Ti read from file:
     /storage/coda1/p-amedford6/0/shared/rich_project_chbe-medford/medford-share/data/pseudos_module/espresso/nninc/pbe/van/Ti.UPF
     MD5 check sum: 8e4df49b7f0d34bbd5052bf3f5ea0213
     Pseudo is Ultrasoft, Zval = 12.0
     Generated by new atomic code, or converted to UPF format
     Using radial grid of  851 points,  6 beta functions with:
                l(1) =   0
                l(2) =   0
                l(3) =   1
                l(4) =   1
                l(5) =   2
                l(6) =   2
     Q(r) pseudized with  8 coefficients,  rinner =    1.000   1.000   1.000
                                                       1.000   1.000

     PseudoPot. # 2 for O  read from file:
     /storage/coda1/p-amedford6/0/shared/rich_project_chbe-medford/medford-share/data/pseudos_module/espresso/nninc/pbe/van/O.UPF
     MD5 check sum: 78c19812648e8988a0fe644b0f25305e
     Pseudo is Ultrasoft, Zval =  6.0
     Generated by new atomic code, or converted to UPF format
     Using radial grid of  737 points,  4 beta functions with:
                l(1) =   0
                l(2) =   0
                l(3) =   1
                l(4) =   1
     Q(r) pseudized with  8 coefficients,  rinner =    0.800   0.800   0.800

     PseudoPot. # 3 for N  read from file:
     /storage/coda1/p-amedford6/0/shared/rich_project_chbe-medford/medford-share/data/pseudos_module/espresso/nninc/pbe/van/N.UPF
     MD5 check sum: 90d10febe142ad51ac9d5be1deb811c4
     Pseudo is Ultrasoft, Zval =  5.0
     Generated by new atomic code, or converted to UPF format
     Using radial grid of  729 points,  4 beta functions with:
                l(1) =   0
                l(2) =   0
                l(3) =   1
                l(4) =   1
     Q(r) pseudized with  8 coefficients,  rinner =    0.800   0.800   0.800

     PseudoPot. # 4 for C  read from file:
     /storage/coda1/p-amedford6/0/shared/rich_project_chbe-medford/medford-share/data/pseudos_module/espresso/nninc/pbe/van/C.UPF
     MD5 check sum: 1a69bf6b8db32088f5b2163dbdb77a27
     Pseudo is Ultrasoft, Zval =  4.0
     Generated by new atomic code, or converted to UPF format
     Using radial grid of  721 points,  4 beta functions with:
                l(1) =   0
                l(2) =   0
                l(3) =   1
                l(4) =   1
     Q(r) pseudized with  8 coefficients,  rinner =    0.800   0.800   0.800

     PseudoPot. # 5 for H  read from file:
     /storage/coda1/p-amedford6/0/shared/rich_project_chbe-medford/medford-share/data/pseudos_module/espresso/nninc/pbe/van/H.UPF
     MD5 check sum: b5ee9d7bfd3a09ee7748110bda690ff7
     Pseudo is Ultrasoft, Zval =  1.0
     Generated by new atomic code, or converted to UPF format
     Using radial grid of  615 points,  1 beta functions with:
                l(1) =   0
     Q(r) pseudized with  8 coefficients,  rinner =    0.800

     atomic species   valence    mass     pseudopotential
        Ti1           12.00    47.86700     Ti( 1.00)
        O1             6.00    15.99900     O ( 1.00)
        N1             5.00    14.00700     N ( 1.00)
        C1             4.00    12.01100     C ( 1.00)
        H1             1.00     1.00800     H ( 1.00)

     Starting magnetic structure
     atomic species   magnetization
        Ti1          0.000
        O1           0.000
        N1           0.000
        C1           0.025
        H1           0.000

     No symmetry found

   Cartesian axes

     site n.     atom                  positions (alat units)
         1           Ti1 tau(   1) = (   0.0004258   2.9801865   6.0000000  )
         2           Ti1 tau(   2) = (   3.2906075   1.4906267   6.0002472  )
         3           O1  tau(   3) = (   0.0006271   0.0005054   7.9858123  )
         4           O1  tau(   4) = (   3.2906025   0.0005020   7.3038282  )
         5           O1  tau(   5) = (   4.5942328   1.4918067   9.2879030  )
         6           O1  tau(   6) = (   1.9868534   1.4903216   9.2879459  )
         7           Ti1 tau(   7) = (   3.2907910   2.8959150   9.1758416  )
         8           Ti1 tau(   8) = (   0.0015273   1.4827037   9.2680791  )
         9           O1  tau(   9) = (   3.3037365   0.0094216  11.3222111  )
        10           O1  tau(  10) = (   0.0116148   5.9584955  10.6183126  )
        11           O1  tau(  11) = (   1.3152514   1.5075076  12.6320051  )
        12           O1  tau(  12) = (   5.3186361   1.4995162  12.6508707  )
        13           Ti1 tau(  13) = (   6.5540705   2.9956815  12.5884341  )
        14           Ti1 tau(  14) = (   3.2234832   1.4927074  12.4921739  )
        15           O1  tau(  15) = (   0.0610261   5.9052480  14.6017706  )
        16           O1  tau(  16) = (   3.2936532   0.0132264  13.8830087  )
        17           O1  tau(  17) = (   4.5722397   1.5061520  16.0138922  )
        18           O1  tau(  18) = (   2.0767725   1.5295127  16.0808449  )
        19           Ti1 tau(  19) = (   3.3650854   3.0251465  15.6907462  )
        20           Ti1 tau(  20) = (   0.0387768   1.3037779  15.7216176  )
        21           O1  tau(  21) = (   3.2904802   0.0005063   4.7018136  )
        22           O1  tau(  22) = (   0.0189486   0.1070799  17.1824039  )
        23           O1  tau(  23) = (   1.3043587   1.4918075   6.0039043  )
        24           O1  tau(  24) = (   5.2767064   1.4903225   6.0039473  )
        25           Ti1 tau(  25) = (   0.0000382   5.9609847   6.0000000  )
        26           Ti1 tau(  26) = (   3.2902200   4.4714249   6.0002472  )
        27           O1  tau(  27) = (   0.0002396   2.9813036   7.9858123  )
        28           O1  tau(  28) = (   3.2902150   2.9813002   7.3038282  )
        29           O1  tau(  29) = (   4.5938453   4.4726049   9.2879030  )
        30           O1  tau(  30) = (   1.9864658   4.4711199   9.2879459  )
        31           Ti1 tau(  31) = (   3.2891106   5.8743827   9.1763621  )
        32           Ti1 tau(  32) = (   0.0006254   4.4649316   9.2693709  )
        33           O1  tau(  33) = (   3.3043114   2.9829305  11.3227053  )
        34           O1  tau(  34) = (   0.0092240   2.9805883  10.6323155  )
        35           O1  tau(  35) = (   1.3131995   4.4620516  12.6081187  )
        36           O1  tau(  36) = (   5.3117129   4.4692194  12.6284301  )
        37           Ti1 tau(  37) = (   6.5303063   5.9583428  12.5400172  )
        38           Ti1 tau(  38) = (   3.2255477   4.4746212  12.4748647  )
        39           O1  tau(  39) = (   0.0377805   3.0059521  14.8845374  )
        40           O1  tau(  40) = (   3.3120027   2.9986483  13.8863452  )
        41           O1  tau(  41) = (   4.5434534   4.5277214  16.0148975  )
        42           O1  tau(  42) = (   2.1165747   4.4940517  16.0783766  )
        43           Ti1 tau(  43) = (   3.3042555   0.0241951  15.7004812  )
        44           Ti1 tau(  44) = (   0.0495666   4.4505358  16.3362958  )
        45           O1  tau(  45) = (   3.2900926   2.9813045   4.7018136  )
        46           O1  tau(  46) = (   1.3039711   4.4726057   6.0039043  )
        47           O1  tau(  47) = (   5.2763189   4.4711207   6.0039473  )
        48           N1  tau(  48) = (   0.5348212   3.4288502  18.0689430  )
        49           C1  tau(  49) = (   1.3556880   3.0079929  19.2215664  )
        50           H1  tau(  50) = (   1.4862090   3.8900195  19.8496782  )
        51           H1  tau(  51) = (   0.8469181   2.2141957  19.7647163  )
        52           H1  tau(  52) = (   2.3296892   2.6851793  18.8524704  )
        53           N1  tau(  53) = (   5.9145885   3.2636146  17.9655992  )

     number of k points=    10  Fermi-Dirac smearing, width (Ry)=  0.0073
                       cart. coord. in units 2pi/alat
        k(    1) = (   0.0000000   0.0000000   0.0000000), wk =   0.0625000
        k(    2) = (   0.0000000   0.0419351   0.0000000), wk =   0.1250000
        k(    3) = (   0.0000000  -0.0838702   0.0000000), wk =   0.0625000
        k(    4) = (   0.0379955   0.0000049   0.0000000), wk =   0.1250000
        k(    5) = (   0.0379955   0.0419400   0.0000000), wk =   0.1250000
        k(    6) = (   0.0379955  -0.0838652   0.0000000), wk =   0.1250000
        k(    7) = (   0.0379955  -0.0419301   0.0000000), wk =   0.1250000
        k(    8) = (  -0.0759910  -0.0000099   0.0000000), wk =   0.0625000
        k(    9) = (  -0.0759910   0.0419252   0.0000000), wk =   0.1250000
        k(   10) = (  -0.0759910  -0.0838800   0.0000000), wk =   0.0625000

     Initial potential from superposition of free atoms

     starting charge  378.99916, renormalised to  395.00000

     negative rho (up, down):  8.049E-03 8.056E-03

     %%%%%%%%%%%%%%%%%%%%%%%%%%%%%%%%%%%%%%%%%%%%%%%%%%%%%%%%%%%%%%%%%%%%%%%%
     %                                                                      %
     % You are using vdW-DF, which was implemented by the Thonhauser group. %
     % Please cite the following two papers that made this development      %
     % possible and the two reviews that describe the various versions:     %
     %                                                                      %
     %   T. Thonhauser et al., PRL 115, 136402 (2015).                      %
     %   T. Thonhauser et al., PRB 76, 125112 (2007).                       %
     %   K. Berland et al., Rep. Prog. Phys. 78, 066501 (2015).             %
     %   D.C. Langreth et al., J. Phys.: Condens. Matter 21, 084203 (2009). %
     %                                                                      %
     %                                                                      %
     % If you are calculating the stress with vdW-DF, please also cite:     %
     %                                                                      %
     %   R. Sabatini et al., J. Phys.: Condens. Matter 24, 424209 (2012).   %
     %                                                                      %
     %%%%%%%%%%%%%%%%%%%%%%%%%%%%%%%%%%%%%%%%%%%%%%%%%%%%%%%%%%%%%%%%%%%%%%%%

     Adding external electric field

     Computed dipole along edir(3) :
        Dipole               -8.5778 Ry au,        -21.8027 Debye
        Dipole field         -0.0162 Ry au,

        Potential amp.        1.5006 Ry
        Total length         46.3494 bohr

[...]

     Starting wfcs are  299 atomic wfcs
  @ DRIVER MODE: Message from server: STATUS
  @ DRIVER MODE: Message from server: POSDATA
  @ DRIVER MODE: Reading and sharing cell
  @ DRIVER MODE: Reading and sharing positions
  @ DRIVER MODE: Received positions

     Self-consistent Calculation

     iteration #  1     ecut=    29.40 Ry     beta= 0.05
     Davidson diagonalization with overlap
     c_bands:  1 eigenvalues not converged
     c_bands:  1 eigenvalues not converged
     c_bands:  1 eigenvalues not converged
     c_bands:  3 eigenvalues not converged
     c_bands:  1 eigenvalues not converged
     c_bands:  3 eigenvalues not converged
     c_bands:  1 eigenvalues not converged
     c_bands:  2 eigenvalues not converged
     c_bands:  1 eigenvalues not converged
     c_bands:  1 eigenvalues not converged
     c_bands:  1 eigenvalues not converged
     c_bands:  3 eigenvalues not converged
     c_bands:  1 eigenvalues not converged
     c_bands:  3 eigenvalues not converged
     c_bands:  1 eigenvalues not converged
     c_bands:  2 eigenvalues not converged
     ethr =  1.00E-05,  avg # of iterations = 19.2

[...]

     total energy              =   -2599.54730244 Ry
     estimated scf accuracy    <    3761.72574865 Ry

     total magnetization       =     0.00 Bohr mag/cell
     absolute magnetization    =     0.02 Bohr mag/cell

     iteration #  2     ecut=    29.40 Ry     beta= 0.05
     Davidson diagonalization with overlap
     ethr =  1.00E-02,  avg # of iterations = 22.4

[...]

     iteration # 71     ecut=    29.40 Ry     beta= 0.05
     Davidson diagonalization with overlap
     c_bands:  1 eigenvalues not converged
     ethr =  6.55E-11,  avg # of iterations = 13.4

[...]

     total energy              =   -2939.12591513 Ry
     estimated scf accuracy    <       0.00000010 Ry

[...]

     iteration # 74     ecut=    29.40 Ry     beta= 0.05
     Davidson diagonalization with overlap
     ethr =  2.57E-11,  avg # of iterations = 10.8

     negative rho (up, down):  8.120E-03 8.119E-03

[...]

     Adding external electric field

     Computed dipole along edir(3) :
        Dipole                0.9120 Ry au,          2.3181 Debye
        Dipole field          0.0017 Ry au,

        Potential amp.       -0.1595 Ry
        Total length         46.3494 bohr

     Magnetic moment per site  (integrated on atomic sphere of radius R)
     atom   1 (R=0.727)  charge=  7.9485  magn= -0.0074
     atom   2 (R=0.727)  charge=  7.9316  magn= -0.0006
     atom   3 (R=0.727)  charge=  4.9369  magn=  0.0007
     atom   4 (R=0.727)  charge=  4.9738  magn=  0.0002
     atom   5 (R=0.727)  charge=  4.9424  magn=  0.0001
     atom   6 (R=0.727)  charge=  4.9431  magn=  0.0001
     atom   7 (R=0.727)  charge=  7.9299  magn= -0.0004
     atom   8 (R=0.727)  charge=  7.9249  magn= -0.0031
     atom   9 (R=0.727)  charge=  4.9562  magn=  0.0001
     atom  10 (R=0.727)  charge=  4.9398  magn=  0.0003
     atom  11 (R=0.727)  charge=  4.9438  magn=  0.0002
     atom  12 (R=0.727)  charge=  4.9403  magn=  0.0002
     atom  13 (R=0.727)  charge=  7.9199  magn= -0.0009
     atom  14 (R=0.727)  charge=  7.9286  magn= -0.0004
     atom  15 (R=0.727)  charge=  4.9367  magn=  0.0000
     atom  16 (R=0.727)  charge=  4.9585  magn=  0.0001
     atom  17 (R=0.727)  charge=  4.9269  magn=  0.0000
     atom  18 (R=0.727)  charge=  4.9196  magn=  0.0000
     atom  19 (R=0.727)  charge=  7.9516  magn= -0.0001
     atom  20 (R=0.727)  charge=  7.9765  magn= -0.0001
     atom  21 (R=0.727)  charge=  4.8266  magn=  0.0007
     atom  22 (R=0.727)  charge=  4.9097  magn=  0.0000
     atom  23 (R=0.727)  charge=  4.9340  magn=  0.0009
     atom  24 (R=0.727)  charge=  4.9340  magn=  0.0009
     atom  25 (R=0.727)  charge=  7.9485  magn= -0.0074
     atom  26 (R=0.727)  charge=  7.9316  magn= -0.0006
     atom  27 (R=0.727)  charge=  4.9364  magn=  0.0007
     atom  28 (R=0.727)  charge=  4.9740  magn=  0.0002
     atom  29 (R=0.727)  charge=  4.9433  magn=  0.0001
     atom  30 (R=0.727)  charge=  4.9439  magn=  0.0001
     atom  31 (R=0.727)  charge=  7.9304  magn= -0.0004
     atom  32 (R=0.727)  charge=  7.9251  magn= -0.0031
     atom  33 (R=0.727)  charge=  4.9554  magn=  0.0001
     atom  34 (R=0.727)  charge=  4.9242  magn=  0.0003
     atom  35 (R=0.727)  charge=  4.9447  magn=  0.0002
     atom  36 (R=0.727)  charge=  4.9438  magn=  0.0002
     atom  37 (R=0.727)  charge=  7.9230  magn= -0.0008
     atom  38 (R=0.727)  charge=  7.9295  magn= -0.0004
     atom  39 (R=0.727)  charge=  4.9078  magn=  0.0000
     atom  40 (R=0.727)  charge=  4.9610  magn=  0.0001
     atom  41 (R=0.727)  charge=  4.9355  magn=  0.0000
     atom  42 (R=0.727)  charge=  4.9348  magn=  0.0000
     atom  43 (R=0.727)  charge=  7.9537  magn= -0.0001
     atom  44 (R=0.727)  charge=  7.9726  magn= -0.0001
     atom  45 (R=0.727)  charge=  4.8265  magn=  0.0007
     atom  46 (R=0.727)  charge=  4.9340  magn=  0.0009
     atom  47 (R=0.727)  charge=  4.9341  magn=  0.0009
     atom  48 (R=0.501)  charge=  1.9977  magn= -0.0000
     atom  49 (R=0.449)  charge=  0.8494  magn=  0.0000
     atom  50 (R=0.449)  charge=  0.5001  magn= -0.0000
     atom  51 (R=0.449)  charge=  0.5037  magn= -0.0000
     atom  52 (R=0.449)  charge=  0.5026  magn= -0.0000
     atom  53 (R=0.501)  charge=  1.9557  magn=  0.0000

     End of self-consistent calculation

 ------ SPIN UP ------------

          k = 0.0000 0.0000 0.0000 ( 18029 PWs)   bands (ev):

   -55.7689 -55.7684 -55.7343 -55.7329 -55.6820 -55.6338 -55.5931 -55.5591
   -55.5545 -55.5208 -55.5192 -55.4462 -54.9560 -54.8069 -54.7548 -54.7208
   -32.3178 -32.2561 -32.1736 -32.0915 -32.0594 -32.0552 -32.0464 -32.0132
   -32.0045 -31.9696 -31.9392 -31.9206 -31.9192 -31.9039 -31.8809 -31.8778
   -31.8778 -31.8766 -31.8638 -31.8335 -31.8239 -31.8202 -31.7998 -31.7890
   -31.7862 -31.7812 -31.7797 -31.7543 -31.7406 -31.7345 -31.7221 -31.7095
   -31.7032 -31.6682 -31.6357 -31.5634 -31.4921 -31.3377 -31.1671 -31.1617
   -31.1047 -31.0735 -31.0658 -31.0511 -30.9786 -30.9126 -30.8920 -30.7808
   -19.4373 -16.5169 -16.2522 -15.9670 -15.9150 -15.8409 -15.7473 -15.6244
   -15.5290 -15.4101 -15.3713 -15.3156 -15.3078 -15.2634 -15.2363 -15.2323
   -15.2061 -15.1983 -15.1338 -15.1263 -15.0759 -15.0642 -15.0163 -14.9814
   -14.9696 -14.9148 -14.8457 -14.8045 -14.6856 -14.1598 -13.2578 -13.1414
   -12.3065  -7.2483  -4.9305  -4.7850  -3.8990  -3.7565  -3.7050  -3.6842
    -3.6400  -3.4392  -3.3531  -3.2834  -3.0434  -2.9521  -2.9276  -2.9170
    -2.8679  -2.7102  -2.6651  -2.6032  -2.5876  -2.5615  -2.5398  -2.5316
    -2.4963  -2.4861  -2.4589  -2.4263  -2.3260  -2.2124  -2.1830  -2.1054
    -2.0894  -2.0744  -2.0440  -2.0339  -2.0244  -2.0146  -1.9963  -1.9587
    -1.8932  -1.8516  -1.7858  -1.7016  -1.5602  -1.5388  -1.4604  -1.3847
    -1.3049  -1.2624  -1.2405  -1.2120  -1.1721  -1.0927  -1.0666  -0.9205
    -0.8236  -0.7905  -0.7734  -0.7309  -0.6949  -0.5927  -0.5710  -0.5419
    -0.5331  -0.5052  -0.4314  -0.3750  -0.2433  -0.2123  -0.2085  -0.1708
    -0.1000  -0.0461   0.0072   0.0564   0.0643   0.1000   0.1603   0.1853
     0.1900   0.2328   0.2752   0.3501   0.3764   0.4504   0.4544   0.5185
     0.5623   0.6440   0.7514   0.8736   1.0170   1.1541   1.1985   1.2672
     1.3630   1.4592   1.8371   1.8830   2.1444   3.3427   3.4537   3.4703
     3.4838   3.5895   3.8007   3.8194   3.8683   3.8892   3.8973

[...]

          k =-0.0760-0.0000 0.0000 ( 17886 PWs)   bands (ev):

[...]

 ------ SPIN DOWN ----------

[...]

          k = 0.0380-0.0419 0.0000 ( 17876 PWs)   bands (ev):

[...]

          k =-0.0760-0.0839 0.0000 ( 17948 PWs)   bands (ev):

   -55.7651 -55.7649 -55.7525 -55.7510 -55.6767 -55.6427 -55.5819 -55.5815
   -55.5387 -55.5383 -55.5149 -55.4507 -54.9548 -54.8082 -54.7392 -54.7391
   -32.1220 -32.1184 -32.0773 -32.0771 -32.0606 -32.0603 -32.0197 -32.0048
   -31.9985 -31.9898 -31.9211 -31.9160 -31.9072 -31.9010 -31.8858 -31.8857
   -31.8818 -31.8801 -31.8789 -31.8721 -31.8546 -31.8522 -31.8509 -31.8133
   -31.7840 -31.7836 -31.7819 -31.7681 -31.7678 -31.7610 -31.7601 -31.7558
   -31.7546 -31.7361 -31.7116 -31.6606 -31.4395 -31.3200 -31.1691 -31.1588
   -31.0831 -31.0654 -31.0652 -30.9756 -30.9755 -30.9367 -30.9367 -30.9158
   -19.4351 -15.9170 -15.9109 -15.7493 -15.7147 -15.6492 -15.6404 -15.5725
   -15.5054 -15.4605 -15.4554 -15.3405 -15.3384 -15.3237 -15.3023 -15.2482
   -15.2319 -15.2307 -15.2267 -15.2190 -15.2078 -15.1803 -15.1496 -15.0987
   -15.0937 -15.0734 -15.0626 -14.9416 -14.5317 -14.4699 -13.2413 -13.2410
   -12.3090  -7.2352  -4.9316  -4.7826  -3.6311  -3.2064  -3.1900  -3.0026
    -2.9189  -2.9077  -2.8927  -2.7393  -2.7278  -2.7109  -2.6529  -2.6457
    -2.6365  -2.5999  -2.5839  -2.5599  -2.5194  -2.5142  -2.4663  -2.4639
    -2.4485  -2.4331  -2.4081  -2.4028  -2.3891  -2.3743  -2.3368  -2.2806
    -2.2422  -2.2150  -2.1869  -2.0906  -2.0295  -1.9937  -1.9267  -1.9181
    -1.8671  -1.8424  -1.8278  -1.7604  -1.6909  -1.6614  -1.5773  -1.4858
    -1.4674  -1.4520  -1.3333  -1.3194  -1.2447  -1.2209  -1.1370  -1.1200
    -1.0803  -0.9697  -0.9463  -0.9150  -0.8802  -0.8365  -0.7728  -0.7357
    -0.7337  -0.6853  -0.6412  -0.5851  -0.5239  -0.5119  -0.4964  -0.4875
    -0.4242  -0.3905  -0.3686  -0.2862  -0.2710  -0.1892  -0.0455  -0.0127
     0.1448   0.1940   0.3029   0.3306   0.4214   0.4431   0.5376   0.5408
     0.5729   0.7022   0.7211   0.7387   0.7548   0.7745   0.7985   0.9375
     1.6328   1.6330   1.7045   1.7046   2.0824   3.6702   3.7073   3.7574
     3.7787   3.8801   3.8861   3.8890   3.8962   4.0185   4.0191

     the Fermi energy is     3.3517 ev

!    total energy              =   -2939.12593003 Ry
     estimated scf accuracy    <       0.00000006 Ry
     smearing contrib. (-TS)   =      -0.02051999 Ry
     internal energy E=F+TS    =   -2939.10541004 Ry

     The total energy is F=E-TS. E is the sum of the following terms:
     one-electron contribution =  -24213.83489635 Ry
     hartree contribution      =   12195.66618810 Ry
     xc contribution           =    -485.19806090 Ry
     ewald contribution        =    9564.25978953 Ry
     electric field correction =       0.00156958 Ry

     total magnetization       =    -0.03 Bohr mag/cell
     absolute magnetization    =     0.05 Bohr mag/cell

     convergence has been achieved in  74 iterations

     Forces acting on atoms (cartesian axes, Ry/au):

     atom    1 type  1   force =     0.00009077   -0.00020998    0.09580816
     atom    2 type  1   force =     0.00007606   -0.00062407   -0.17550108
     atom    3 type  2   force =     0.00017906   -0.00019574   -0.02304814
     atom    4 type  2   force =     0.00004086   -0.00128591    0.05263548
     atom    5 type  2   force =    -0.00977737   -0.00031619    0.00253939
     atom    6 type  2   force =     0.01165712    0.00022512    0.00292267
     atom    7 type  1   force =     0.00088223   -0.00000235   -0.00989422
     atom    8 type  1   force =     0.00000741    0.00530518    0.01816213
     atom    9 type  2   force =    -0.00001683   -0.00029197   -0.00010151
     atom   10 type  2   force =    -0.00253829    0.00215966   -0.01348314
     atom   11 type  2   force =    -0.00097411    0.00011046    0.00017812
     atom   12 type  2   force =     0.00039636   -0.00025395    0.00049178
     atom   13 type  1   force =     0.00010244   -0.00008077    0.00053991
     atom   14 type  1   force =    -0.00004233   -0.00013974   -0.00016336
     atom   15 type  2   force =    -0.00059347    0.00023313    0.00043187
     atom   16 type  2   force =    -0.00043756    0.00007875    0.00020051
     atom   17 type  2   force =    -0.00017692   -0.00009211   -0.00032830
     atom   18 type  2   force =     0.00029961    0.00023309    0.00008104
     atom   19 type  1   force =    -0.00055311   -0.00054576    0.00064807
     atom   20 type  1   force =    -0.00027172    0.00040766   -0.00074992
     atom   21 type  2   force =     0.00006847   -0.00006003    0.10321595
     atom   22 type  2   force =     0.00009365   -0.00004356   -0.00040201
     atom   23 type  2   force =    -0.07156099   -0.00019034   -0.02753804
     atom   24 type  2   force =     0.07153970    0.00031263   -0.02759748
     atom   25 type  1   force =     0.00011838   -0.00027926    0.09519377
     atom   26 type  1   force =     0.00008759   -0.00049369   -0.17565289
     atom   27 type  2   force =     0.00016050   -0.00011922   -0.02179687
     atom   28 type  2   force =     0.00008088   -0.00106106    0.05250553
     atom   29 type  2   force =    -0.01015616    0.00023314    0.00291699
     atom   30 type  2   force =     0.01197276    0.00051891    0.00329615
     atom   31 type  1   force =     0.00088641    0.00414175   -0.01176742
     atom   32 type  1   force =     0.00013631   -0.00633854    0.01830224
     atom   33 type  2   force =     0.00016044    0.00041880   -0.00009530
     atom   34 type  2   force =    -0.00308395   -0.00010402   -0.00866569
     atom   35 type  2   force =    -0.00021077    0.00006703    0.00001373
     atom   36 type  2   force =    -0.00002853    0.00027811   -0.00006227
     atom   37 type  1   force =     0.00043726   -0.00094932    0.00018776
     atom   38 type  1   force =    -0.00032521    0.00009954    0.00034545
     atom   39 type  2   force =     0.00011748   -0.00026983    0.00052276
     atom   40 type  2   force =    -0.00008392    0.00026731    0.00016857
     atom   41 type  2   force =     0.00001072   -0.00014047   -0.00019503
     atom   42 type  2   force =    -0.00043464    0.00012878   -0.00041948
     atom   43 type  1   force =     0.00027171    0.00050358    0.00011989
     atom   44 type  1   force =    -0.00022183   -0.00087680   -0.00094690
     atom   45 type  2   force =     0.00007569   -0.00006038    0.10319037
     atom   46 type  2   force =    -0.07157378   -0.00009527   -0.02753090
     atom   47 type  2   force =     0.07155757    0.00025517   -0.02759376
     atom   48 type  3   force =    -0.00049079   -0.00029036    0.00106689
     atom   49 type  4   force =     0.00366989   -0.00077410   -0.00362281
     atom   50 type  5   force =     0.00097346    0.00005139   -0.00028756
     atom   51 type  5   force =    -0.00038665   -0.00049503   -0.00024988
     atom   52 type  5   force =    -0.00302273    0.00018411    0.00258493
     atom   53 type  3   force =     0.00081089    0.00046655   -0.00057615

     Total force =     0.364818     Total SCF correction =     0.000415
  @ DRIVER MODE: Message from server: STATUS
  @ DRIVER MODE: Message from server: GETFORCE
  @ DRIVER MODE: Returning v,forces,stress,ensemble

     Writing output data file ./calc.save/
  @ DRIVER MODE: Message from server: EXIT
  @ DRIVE MODE: Exiting

     General routines

     Parallel routines

   This run was terminated on:  10:19:37  16Jul2021

   JOB DONE.