     Program PWSCF v.6.7GPU starts on 22Sep2021 at 19:25:22

     R & G space division:  proc/nbgrp/npool/nimage =      10
     Reading input from /storage/home/hcoda1/3/ntian30/research/carbon/CxH_vib/H2O_calc/ads_slab/CHON2HO_d/out_0009/pw.inp
Warning: card &CELL ignored
Warning: card   CELL_DYNAMICS='IPI', ignored
Warning: card / ignored

     Current dimensions of program PWSCF are:
     Max number of different atomic species (ntypx) = 10
     Max number of k-points (npk) =  40000
     Max angular momentum in pseudopotentials (lmaxx) =  3
     Presently no symmetry can be used with electric field

     Message from routine cell_base_init:
     DEPRECATED: use true lattice parameter, not A to a.u. conversion factor

     IMPORTANT: XC functional enforced from input :
     Exchange-correlation= BEEF-VDW
                           (   1   4  43  14   2   0   0)
     Any further DFT definition will be discarded
     Please, verify this is what you really want

  @ DRIVER MODE: Connecting to
 qe_1139763_2937317.sched-torque.pace.gatech.edu1wf99xfa_scratch
  using UNIX socket
  @ DRIVER MODE: Message from server: STATUS
  @ DRIVER MODE: Message from server: INIT
  @ DRIVER MODE: Receiving replica           0          -1
  @ DRIVER MODE: Receiving encoded integer          25
  @ DRIVER MODE:  SCF:  T  FORCE:  T  STRESS:  F  VC:  F  ENSEMBLE:  F
  @ DRIVER MODE:  SCF:  T  FORCE:  T  STRESS:  F  VC:  F  ENSEMBLE:  F

     Using Slab Decomposition

     bravais-lattice index     =            0
     lattice parameter (alat)  =       1.8897  a.u.
     unit-cell volume          =    6658.9804 (a.u.)^3
     number of atoms/cell      =           54
     number of atomic types    =            5
     number of electrons       =       406.00
     number of Kohn-Sham states=          213
     kinetic-energy cutoff     =      29.3995  Ry
     charge density cutoff     =     293.9946  Ry
     scf convergence threshold =      7.3E-08
     mixing beta               =       0.0500
     number of iterations used =            8  plain     mixing
     Exchange-correlation= BEEF-VDW
                           (   1   4  43  14   2   0   0)

     celldm(1)=   1.889726  celldm(2)=   0.000000  celldm(3)=   0.000000
     celldm(4)=   0.000000  celldm(5)=   0.000000  celldm(6)=   0.000000

     crystal axes: (cart. coord. in units of alat)
               a(1) = (   6.579727   0.000000   0.000000 )
               a(2) = (  -0.000775   5.961596   0.000000 )
               a(3) = (   0.000000   0.000000  25.155947 )

     reciprocal axes: (cart. coord. in units 2 pi/alat)
               b(1) = (  0.151982  0.000020  0.000000 )
               b(2) = (  0.000000  0.167740  0.000000 )
               b(3) = (  0.000000  0.000000  0.039752 )

     PseudoPot. # 1 for O  read from file:
     /storage/coda1/p-amedford6/0/shared/rich_project_chbe-medford/medford-share/data/pseudos_module/espresso/nninc/pbe/van/O.UPF
     MD5 check sum: 78c19812648e8988a0fe644b0f25305e
     Pseudo is Ultrasoft, Zval =  6.0
     Generated by new atomic code, or converted to UPF format
     Using radial grid of  737 points,  4 beta functions with:
                l(1) =   0
                l(2) =   0
                l(3) =   1
                l(4) =   1
     Q(r) pseudized with  8 coefficients,  rinner =    0.800   0.800   0.800

     PseudoPot. # 2 for Ti read from file:
     /storage/coda1/p-amedford6/0/shared/rich_project_chbe-medford/medford-share/data/pseudos_module/espresso/nninc/pbe/van/Ti.UPF
     MD5 check sum: 8e4df49b7f0d34bbd5052bf3f5ea0213
     Pseudo is Ultrasoft, Zval = 12.0
     Generated by new atomic code, or converted to UPF format
     Using radial grid of  851 points,  6 beta functions with:
                l(1) =   0
                l(2) =   0
                l(3) =   1
                l(4) =   1
                l(5) =   2
                l(6) =   2
     Q(r) pseudized with  8 coefficients,  rinner =    1.000   1.000   1.000
                                                       1.000   1.000

     PseudoPot. # 3 for C  read from file:
     /storage/coda1/p-amedford6/0/shared/rich_project_chbe-medford/medford-share/data/pseudos_module/espresso/nninc/pbe/van/C.UPF
     MD5 check sum: 1a69bf6b8db32088f5b2163dbdb77a27
     Pseudo is Ultrasoft, Zval =  4.0
     Generated by new atomic code, or converted to UPF format
     Using radial grid of  721 points,  4 beta functions with:
                l(1) =   0
                l(2) =   0
                l(3) =   1
                l(4) =   1
     Q(r) pseudized with  8 coefficients,  rinner =    0.800   0.800   0.800

     PseudoPot. # 4 for H  read from file:
     /storage/coda1/p-amedford6/0/shared/rich_project_chbe-medford/medford-share/data/pseudos_module/espresso/nninc/pbe/van/H.UPF
     MD5 check sum: b5ee9d7bfd3a09ee7748110bda690ff7
     Pseudo is Ultrasoft, Zval =  1.0
     Generated by new atomic code, or converted to UPF format
     Using radial grid of  615 points,  1 beta functions with:
                l(1) =   0
     Q(r) pseudized with  8 coefficients,  rinner =    0.800

     PseudoPot. # 5 for N  read from file:
     /storage/coda1/p-amedford6/0/shared/rich_project_chbe-medford/medford-share/data/pseudos_module/espresso/nninc/pbe/van/N.UPF
     MD5 check sum: 90d10febe142ad51ac9d5be1deb811c4
     Pseudo is Ultrasoft, Zval =  5.0
     Generated by new atomic code, or converted to UPF format
     Using radial grid of  729 points,  4 beta functions with:
                l(1) =   0
                l(2) =   0
                l(3) =   1
                l(4) =   1
     Q(r) pseudized with  8 coefficients,  rinner =    0.800   0.800   0.800

     atomic species   valence    mass     pseudopotential
        O1             6.00    15.99900     O ( 1.00)
        Ti1           12.00    47.86700     Ti( 1.00)
        C1             4.00    12.01100     C ( 1.00)
        H1             1.00     1.00800     H ( 1.00)
        N1             5.00    14.00700     N ( 1.00)

     No symmetry found

   Cartesian axes

     site n.     atom                  positions (alat units)
         1           O1  tau(   1) = (   3.2904802   0.0005063   4.7018136  )
         2           O1  tau(   2) = (   3.2900926   2.9813045   4.7018136  )
         3           Ti1 tau(   3) = (   0.0004258   2.9801865   6.0000000  )
         4           Ti1 tau(   4) = (   0.0000382   5.9609847   6.0000000  )
         5           Ti1 tau(   5) = (   3.2906075   1.4906267   6.0002472  )
         6           Ti1 tau(   6) = (   3.2902200   4.4714249   6.0002472  )
         7           O1  tau(   7) = (   1.3043587   1.4918075   6.0039043  )
         8           O1  tau(   8) = (   1.3039711   4.4726057   6.0039043  )
         9           O1  tau(   9) = (   5.2767064   1.4903225   6.0039473  )
        10           O1  tau(  10) = (   5.2763189   4.4711207   6.0039473  )
        11           O1  tau(  11) = (   3.2906025   0.0005020   7.3038282  )
        12           O1  tau(  12) = (   3.2902150   2.9813002   7.3038282  )
        13           O1  tau(  13) = (   0.0006271   0.0005054   7.9858123  )
        14           O1  tau(  14) = (   0.0002396   2.9813036   7.9858123  )
        15           Ti1 tau(  15) = (   3.2350752   0.0608747   9.1773017  )
        16           Ti1 tau(  16) = (   3.2297482   3.0449837   9.2258248  )
        17           Ti1 tau(  17) = (   6.5035314   4.4790947   9.3419400  )
        18           O1  tau(  18) = (   4.5942328   1.4918067   9.2879030  )
        19           O1  tau(  19) = (   4.5938453   4.4726049   9.2879030  )
        20           O1  tau(  20) = (   1.9868534   1.4903216   9.2879459  )
        21           O1  tau(  21) = (   1.9864658   4.4711199   9.2879459  )
        22           Ti1 tau(  22) = (   6.5047199   1.5482117   9.3251357  )
        23           O1  tau(  23) = (   6.5709586   2.9893791  10.5365161  )
        24           O1  tau(  24) = (   6.5791863   0.0068326  10.5847705  )
        25           O1  tau(  25) = (   3.2737170   2.9471243  11.2864913  )
        26           O1  tau(  26) = (   3.2757665   0.0160177  11.3056520  )
        27           Ti1 tau(  27) = (   3.3024496   1.5456137  12.4328335  )
        28           Ti1 tau(  28) = (   0.0381823   0.0558990  12.5328616  )
        29           Ti1 tau(  29) = (   3.2867454   4.6490159  12.6676011  )
        30           O1  tau(  30) = (   1.2579511   1.4933188  12.6274103  )
        31           O1  tau(  31) = (   5.2930440   1.4968169  12.6131059  )
        32           O1  tau(  32) = (   1.2503383   4.4760527  12.6363980  )
        33           O1  tau(  33) = (   5.2887019   4.4660859  12.6249461  )
        34           Ti1 tau(  34) = (   6.5320965   3.0346479  12.8073368  )
        35           O1  tau(  35) = (   3.2762579   2.9735537  13.8874883  )
        36           O1  tau(  36) = (   3.2793791   5.9387796  13.8789893  )
        37           O1  tau(  37) = (   6.5412754   2.9812497  14.6926498  )
        38           O1  tau(  38) = (   6.5531526   0.0082392  14.6823945  )
        39           Ti1 tau(  39) = (   3.2668636   2.9663550  15.6683660  )
        40           Ti1 tau(  40) = (   3.2982107   5.9440960  16.3508785  )
        41           Ti1 tau(  41) = (   0.0141158   4.5598071  15.9269461  )
        42           O1  tau(  42) = (   4.5124726   4.4172202  16.0573870  )
        43           O1  tau(  43) = (   1.9821766   4.4208814  16.0404589  )
        44           O1  tau(  44) = (   4.4954461   1.5000296  16.1066544  )
        45           O1  tau(  45) = (   1.9782815   1.5221889  16.0619205  )
        46           Ti1 tau(  46) = (   0.0269324   1.3869748  16.0447141  )
        47           O1  tau(  47) = (   6.5379229   5.9414530  17.1901000  )
        48           O1  tau(  48) = (   6.5175113   2.9840192  17.3772383  )
        49           C1  tau(  49) = (   5.9742390   3.1668082  18.5865123  )
        50           H1  tau(  50) = (   5.8341806   4.1706531  18.9840957  )
        51           N1  tau(  51) = (   5.5886240   2.1683037  19.3003467  )
        52           N1  tau(  52) = (   5.2398892   1.2394158  19.8970451  )
        53           O1  tau(  53) = (   3.2183551   5.8834210  18.1446619  )
        54           H1  tau(  54) = (   3.7026433   0.4006729  18.8445816  )

     number of k points=    10  Fermi-Dirac smearing, width (Ry)=  0.0073
                       cart. coord. in units 2pi/alat
        k(    1) = (   0.0000000   0.0000000   0.0000000), wk =   0.1250000
        k(    2) = (   0.0000000   0.0419351   0.0000000), wk =   0.2500000
        k(    3) = (   0.0000000  -0.0838702   0.0000000), wk =   0.1250000
        k(    4) = (   0.0379955   0.0000049   0.0000000), wk =   0.2500000
        k(    5) = (   0.0379955   0.0419400   0.0000000), wk =   0.2500000
        k(    6) = (   0.0379955  -0.0838652   0.0000000), wk =   0.2500000
        k(    7) = (   0.0379955  -0.0419301   0.0000000), wk =   0.2500000
        k(    8) = (  -0.0759910  -0.0000099   0.0000000), wk =   0.1250000
        k(    9) = (  -0.0759910   0.0419252   0.0000000), wk =   0.2500000
        k(   10) = (  -0.0759910  -0.0838800   0.0000000), wk =   0.1250000

     Initial potential from superposition of free atoms

     starting charge  389.99917, renormalised to  406.00000

     negative rho (up, down):  1.659E-02 0.000E+00

     %%%%%%%%%%%%%%%%%%%%%%%%%%%%%%%%%%%%%%%%%%%%%%%%%%%%%%%%%%%%%%%%%%%%%%%%
     %                                                                      %
     % You are using vdW-DF, which was implemented by the Thonhauser group. %
     % Please cite the following two papers that made this development      %
     % possible and the two reviews that describe the various versions:     %
     %                                                                      %
     %   T. Thonhauser et al., PRL 115, 136402 (2015).                      %
     %   T. Thonhauser et al., PRB 76, 125112 (2007).                       %
     %   K. Berland et al., Rep. Prog. Phys. 78, 066501 (2015).             %
     %   D.C. Langreth et al., J. Phys.: Condens. Matter 21, 084203 (2009). %
     %                                                                      %
     %                                                                      %
     % If you are calculating the stress with vdW-DF, please also cite:     %
     %                                                                      %
     %   R. Sabatini et al., J. Phys.: Condens. Matter 24, 424209 (2012).   %
     %                                                                      %
     %%%%%%%%%%%%%%%%%%%%%%%%%%%%%%%%%%%%%%%%%%%%%%%%%%%%%%%%%%%%%%%%%%%%%%%%

     Adding external electric field

     Computed dipole along edir(3) :
        Dipole              -13.7787 Ry au,        -35.0219 Debye
        Dipole field         -0.0260 Ry au,

        Potential amp.        2.4104 Ry
        Total length         46.3494 bohr

     Starting wfcs are  306 atomic wfcs
  @ DRIVER MODE: Message from server: STATUS
  @ DRIVER MODE: Message from server: POSDATA
  @ DRIVER MODE: Reading and sharing cell
  @ DRIVER MODE: Reading and sharing positions
  @ DRIVER MODE: Received positions

     Self-consistent Calculation

     iteration #  1     ecut=    29.40 Ry     beta= 0.05
     Davidson diagonalization with overlap
     c_bands:  1 eigenvalues not converged
     c_bands:  1 eigenvalues not converged
     c_bands:  5 eigenvalues not converged
     c_bands:  5 eigenvalues not converged
     ethr =  1.00E-05,  avg # of iterations = 30.9

[...]

     total energy              =   -2308.85193138 Ry
     estimated scf accuracy    <    7885.45443437 Ry

     iteration #  2     ecut=    29.40 Ry     beta= 0.05
     Davidson diagonalization with overlap
     ethr =  1.00E-02,  avg # of iterations = 25.2

[...]

     iteration # 41     ecut=    29.40 Ry     beta= 0.05
     Davidson diagonalization with overlap
     c_bands:  1 eigenvalues not converged
     ethr =  1.98E-07,  avg # of iterations =  6.0

[...]

     total energy              =   -3002.64609719 Ry
     estimated scf accuracy    <       0.00000008 Ry

     iteration # 59     ecut=    29.40 Ry     beta= 0.05
     Davidson diagonalization with overlap
     ethr =  1.85E-11,  avg # of iterations =  6.0

     negative rho (up, down):  1.647E-02 0.000E+00

     Adding external electric field

     Computed dipole along edir(3) :
        Dipole                0.4101 Ry au,          1.0422 Debye
        Dipole field          0.0008 Ry au,

        Potential amp.       -0.0717 Ry
        Total length         46.3494 bohr

     End of self-consistent calculation

          k = 0.0000 0.0000 0.0000 ( 18029 PWs)   bands (ev):

   -56.2553 -56.1987 -55.7678 -55.7117 -55.7094 -55.6932 -55.6618 -55.6541
   -55.6246 -55.6155 -55.5747 -55.5568 -55.4925 -55.3216 -54.9059 -54.8719
   -32.6704 -32.5314 -32.4660 -32.4255 -32.3271 -32.2950 -32.2491 -32.2203
   -32.2044 -32.1023 -32.0680 -32.0088 -32.0049 -31.9975 -31.9846 -31.9647
   -31.9559 -31.9523 -31.9318 -31.9228 -31.8716 -31.8674 -31.8635 -31.8601
   -31.8576 -31.8401 -31.8377 -31.8190 -31.8172 -31.8130 -31.8057 -31.7751
   -31.7733 -31.7727 -31.7463 -31.7343 -31.7279 -31.7224 -31.6942 -31.5814
   -31.5400 -31.5317 -31.3025 -31.2438 -31.2196 -31.1190 -31.0337 -30.9225
   -20.5564 -18.6942 -16.5051 -16.4680 -16.3117 -16.1061 -15.9464 -15.8739
   -15.6825 -15.5946 -15.5354 -15.5056 -15.4732 -15.3919 -15.3573 -15.3053
   -15.2602 -15.2454 -15.2212 -15.2048 -15.1927 -15.1909 -15.1876 -15.1578
   -15.1164 -15.0187 -14.9510 -14.9137 -14.8945 -14.8847 -14.8443 -14.5357
   -13.6128 -13.4081 -13.2986  -6.9065  -5.9059  -4.9335  -4.3735  -3.9636
    -3.7887  -3.6961  -3.6282  -3.5660  -3.5315  -3.3421  -3.2847  -3.1516
    -3.0294  -2.9481  -2.8753  -2.8582  -2.8340  -2.7958  -2.7374  -2.7020
    -2.6720  -2.6417  -2.5843  -2.5442  -2.5153  -2.4848  -2.4713  -2.4343
    -2.4158  -2.4108  -2.2700  -2.2234  -2.1807  -2.1746  -2.1486  -2.1281
    -2.1065  -2.0723  -2.0598  -2.0092  -1.9304  -1.8438  -1.8295  -1.7471
    -1.7129  -1.5387  -1.4774  -1.4023  -1.3717  -1.2042  -1.1792  -1.1717
    -1.1493  -1.1293  -1.0061  -0.9739  -0.9378  -0.9268  -0.8911  -0.8693
    -0.8444  -0.7381  -0.6734  -0.6333  -0.6188  -0.5533  -0.4564  -0.3848
    -0.3564  -0.3241  -0.2917  -0.1875  -0.1565  -0.1149  -0.1074  -0.0458
    -0.0121   0.0107   0.0677   0.0946   0.1485   0.1634   0.1828   0.2222
     0.2319   0.2782   0.3465   0.4103   0.5072   0.5274   0.5526   0.5895
     0.6699   0.7444   0.8249   1.0065   1.1119   1.1520   1.3163   1.3621
     1.6625   1.7102   2.5244   3.0352   3.1873   3.4504   3.5025   3.5380
     3.5795   3.6346   3.7651   3.8757   3.9320

[...]

          k = 0.0380-0.0419 0.0000 ( 17876 PWs)   bands (ev):

[...]

          k =-0.0760-0.0000 0.0000 ( 17886 PWs)   bands (ev):

[...]

          k =-0.0760-0.0839 0.0000 ( 17948 PWs)   bands (ev):

   -56.2498 -56.2041 -55.7652 -55.7103 -55.7017 -55.6889 -55.6692 -55.6565
   -55.6290 -55.6064 -55.5838 -55.5578 -55.4909 -55.3231 -54.8891 -54.8886
   -32.5278 -32.5059 -32.4685 -32.4670 -32.3937 -32.3558 -32.1528 -32.0697
   -32.0605 -32.0233 -32.0140 -31.9817 -31.9812 -31.9772 -31.9545 -31.9489
   -31.9399 -31.9343 -31.9330 -31.9241 -31.9108 -31.9077 -31.8830 -31.8792
   -31.8764 -31.8701 -31.8697 -31.8631 -31.8457 -31.8404 -31.8255 -31.8228
   -31.8194 -31.8094 -31.8015 -31.7772 -31.7611 -31.7270 -31.6979 -31.6555
   -31.5802 -31.5343 -31.2327 -31.2325 -31.1180 -31.1159 -31.0758 -31.0747
   -20.5550 -18.6826 -16.4827 -15.8345 -15.8246 -15.7927 -15.7526 -15.7053
   -15.6915 -15.6239 -15.6147 -15.5867 -15.5066 -15.4432 -15.3892 -15.3655
   -15.3622 -15.3395 -15.3113 -15.2713 -15.2496 -15.2406 -15.2306 -15.1752
   -15.1535 -15.1509 -15.1247 -15.1040 -15.0791 -15.0366 -14.8997 -14.6939
   -13.6200 -13.4031 -13.4011  -6.8789  -5.9217  -4.9326  -4.3615  -3.5994
    -3.2695  -3.0902  -3.0631  -2.9821  -2.9262  -2.8281  -2.8082  -2.7898
    -2.7748  -2.7606  -2.7362  -2.7066  -2.6576  -2.6290  -2.5946  -2.5834
    -2.5759  -2.5560  -2.5479  -2.5168  -2.5007  -2.4829  -2.4645  -2.4466
    -2.4322  -2.4183  -2.3470  -2.3147  -2.2796  -2.1148  -2.1023  -2.0995
    -2.0736  -2.0558  -2.0460  -1.9842  -1.9226  -1.9136  -1.8624  -1.8460
    -1.7665  -1.7026  -1.5302  -1.5013  -1.4755  -1.3987  -1.3403  -1.3081
    -1.2845  -1.2506  -1.2179  -1.2084  -1.1657  -1.1145  -1.0358  -1.0133
    -0.9634  -0.9554  -0.9461  -0.8628  -0.7913  -0.7754  -0.7301  -0.7114
    -0.6870  -0.6491  -0.5947  -0.5610  -0.5476  -0.5345  -0.4376  -0.3870
    -0.3331  -0.2313  -0.1943  -0.1350  -0.0240   0.0599   0.0721   0.1696
     0.2114   0.3102   0.3488   0.4020   0.4402   0.4671   0.4970   0.6139
     0.6328   0.6789   0.7567   0.7738   0.8020   0.8521   1.5008   1.5081
     1.5187   1.5202   2.4444   3.5575   3.5854   3.6038   3.6427   3.8405
     3.8711   3.8884   3.9180   3.9352   3.9904

     the Fermi energy is     2.8370 ev

!    total energy              =   -3002.64615734 Ry
     estimated scf accuracy    <       0.00000006 Ry
     smearing contrib. (-TS)   =      -0.00424978 Ry
     internal energy E=F+TS    =   -3002.64190756 Ry

     The total energy is F=E-TS. E is the sum of the following terms:
     one-electron contribution =  -23370.39898021 Ry
     hartree contribution      =   11779.02280665 Ry
     xc contribution           =    -498.79571410 Ry
     ewald contribution        =    9087.52966279 Ry
     electric field correction =       0.00031731 Ry

     convergence has been achieved in  59 iterations

     Forces acting on atoms (cartesian axes, Ry/au):

     atom    1 type  1   force =     0.00016450    0.00010227    0.09954980
     atom    2 type  1   force =     0.00014693    0.00020964    0.09905816
     atom    3 type  2   force =     0.00018854    0.00034743    0.12391729
     atom    4 type  2   force =     0.00044440    0.00004407    0.13849180
     atom    5 type  2   force =    -0.00009821    0.00965590   -0.15994648
     atom    6 type  2   force =     0.00009353   -0.00873436   -0.15973266
     atom    7 type  1   force =    -0.07909706    0.00146265   -0.03322979
     atom    8 type  1   force =    -0.07912959   -0.00181882   -0.03326964
     atom    9 type  1   force =     0.07905618    0.00179213   -0.03331116
     atom   10 type  1   force =     0.07908636   -0.00147258   -0.03328965
     atom   11 type  1   force =    -0.00114227    0.00062746    0.04292185
     atom   12 type  1   force =    -0.00114973    0.00003668    0.04557314
     atom   13 type  1   force =    -0.00039751   -0.00173918   -0.05064648
     atom   14 type  1   force =    -0.00086058    0.00123462   -0.04785486
     atom   15 type  2   force =    -0.00034638   -0.00005473    0.00008795
     atom   16 type  2   force =    -0.00033192    0.00005335   -0.00017968
     atom   17 type  2   force =     0.00022218   -0.00039534   -0.00017520
     atom   18 type  1   force =    -0.01155011   -0.00689818   -0.00024378
     atom   19 type  1   force =    -0.01367685    0.00098264    0.00210999
     atom   20 type  1   force =     0.01285082   -0.00248611   -0.00226294
     atom   21 type  1   force =     0.01410540    0.00576759    0.00036246
     atom   22 type  2   force =     0.00031872    0.00005012    0.00024074
     atom   23 type  1   force =    -0.00009959   -0.00009095   -0.00007414
     atom   24 type  1   force =    -0.00025678   -0.00000318    0.00034936
     atom   25 type  1   force =     0.00023552    0.00032632   -0.00018877
     atom   26 type  1   force =     0.00035393    0.00012566   -0.00035503
     atom   27 type  2   force =    -0.00031694   -0.00043099    0.00037092
     atom   28 type  2   force =     0.00051371   -0.00031064   -0.00002395
     atom   29 type  2   force =    -0.00016240    0.00023523    0.00021933
     atom   30 type  1   force =    -0.00031801   -0.00035332   -0.00025788
     atom   31 type  1   force =     0.00048363   -0.00004312    0.00011713
     atom   32 type  1   force =    -0.00029301    0.00039682   -0.00001457
     atom   33 type  1   force =     0.00023107    0.00034118    0.00008979
     atom   34 type  2   force =     0.00041157    0.00017645   -0.00029452
     atom   35 type  1   force =     0.00005887   -0.00011714   -0.00048283
     atom   36 type  1   force =     0.00008037   -0.00003389    0.00025191
     atom   37 type  1   force =    -0.00000200   -0.00020963    0.00055830
     atom   38 type  1   force =     0.00003861    0.00033135   -0.00012230
     atom   39 type  2   force =     0.00002114    0.00039218    0.00040339
     atom   40 type  2   force =    -0.00014471   -0.00025891   -0.00010661
     atom   41 type  2   force =    -0.00030183    0.00049873    0.00007473
     atom   42 type  1   force =     0.00025942    0.00012516   -0.00011154
     atom   43 type  1   force =    -0.00047288    0.00008856   -0.00013861
     atom   44 type  1   force =     0.00048615    0.00003966    0.00050017
     atom   45 type  1   force =    -0.00070674    0.00004382    0.00038258
     atom   46 type  2   force =     0.00001877    0.00013683   -0.00023320
     atom   47 type  1   force =    -0.00001083    0.00028879    0.00006237
     atom   48 type  1   force =     0.00125673   -0.00299921   -0.00269189
     atom   49 type  3   force =     0.00186113    0.02713971   -0.00109812
     atom   50 type  4   force =     0.00111904   -0.01031473   -0.00289533
     atom   51 type  5   force =    -0.00309069   -0.01222343    0.00504452
     atom   52 type  5   force =    -0.00060750   -0.00200396    0.00182463
     atom   53 type  1   force =     0.00039940    0.00034987    0.00031646
     atom   54 type  4   force =     0.00005749   -0.00041047    0.00035282

     Total force =     0.381612     Total SCF correction =     0.000713
  @ DRIVER MODE: Message from server: STATUS
  @ DRIVER MODE: Message from server: GETFORCE
  @ DRIVER MODE: Returning v,forces,stress,ensemble

     Writing output data file ./calc.save/
  @ DRIVER MODE: Message from server: EXIT
  @ DRIVE MODE: Exiting

     General routines

     Parallel routines

   This run was terminated on:  19:42:18  22Sep2021

   JOB DONE.