     Program PWSCF v.6.7GPU starts on 22Sep2021 at 20:23: 1

     R & G space division:  proc/nbgrp/npool/nimage =      10
     Reading input from /storage/home/hcoda1/3/ntian30/research/carbon/CxH_vib/H2O_calc/ads_slab/CHON2HO_d/out_0012/pw.inp
Warning: card &CELL ignored
Warning: card   CELL_DYNAMICS='IPI', ignored
Warning: card / ignored

     Current dimensions of program PWSCF are:
     Max number of different atomic species (ntypx) = 10
     Max number of k-points (npk) =  40000
     Max angular momentum in pseudopotentials (lmaxx) =  3
     Presently no symmetry can be used with electric field

     Message from routine cell_base_init:
     DEPRECATED: use true lattice parameter, not A to a.u. conversion factor

     IMPORTANT: XC functional enforced from input :
     Exchange-correlation= BEEF-VDW
                           (   1   4  43  14   2   0   0)
     Any further DFT definition will be discarded
     Please, verify this is what you really want

  @ DRIVER MODE: Connecting to
 qe_1139763_2937317.sched-torque.pace.gatech.edugorrjo_j_scratch
  using UNIX socket
  @ DRIVER MODE: Message from server: STATUS
  @ DRIVER MODE: Message from server: INIT
  @ DRIVER MODE: Receiving replica           0          -1
  @ DRIVER MODE: Receiving encoded integer          25
  @ DRIVER MODE:  SCF:  T  FORCE:  T  STRESS:  F  VC:  F  ENSEMBLE:  F
  @ DRIVER MODE:  SCF:  T  FORCE:  T  STRESS:  F  VC:  F  ENSEMBLE:  F

     Using Slab Decomposition

     bravais-lattice index     =            0
     lattice parameter (alat)  =       1.8897  a.u.
     unit-cell volume          =    6658.9804 (a.u.)^3
     number of atoms/cell      =           54
     number of atomic types    =            5
     number of electrons       =       406.00
     number of Kohn-Sham states=          213
     kinetic-energy cutoff     =      29.3995  Ry
     charge density cutoff     =     293.9946  Ry
     scf convergence threshold =      7.3E-08
     mixing beta               =       0.0500
     number of iterations used =            8  plain     mixing
     Exchange-correlation= BEEF-VDW
                           (   1   4  43  14   2   0   0)

     celldm(1)=   1.889726  celldm(2)=   0.000000  celldm(3)=   0.000000
     celldm(4)=   0.000000  celldm(5)=   0.000000  celldm(6)=   0.000000

     crystal axes: (cart. coord. in units of alat)
               a(1) = (   6.579727   0.000000   0.000000 )
               a(2) = (  -0.000775   5.961596   0.000000 )
               a(3) = (   0.000000   0.000000  25.155947 )

     reciprocal axes: (cart. coord. in units 2 pi/alat)
               b(1) = (  0.151982  0.000020  0.000000 )
               b(2) = (  0.000000  0.167740  0.000000 )
               b(3) = (  0.000000  0.000000  0.039752 )

     PseudoPot. # 1 for O  read from file:
     /storage/coda1/p-amedford6/0/shared/rich_project_chbe-medford/medford-share/data/pseudos_module/espresso/nninc/pbe/van/O.UPF
     MD5 check sum: 78c19812648e8988a0fe644b0f25305e
     Pseudo is Ultrasoft, Zval =  6.0
     Generated by new atomic code, or converted to UPF format
     Using radial grid of  737 points,  4 beta functions with:
                l(1) =   0
                l(2) =   0
                l(3) =   1
                l(4) =   1
     Q(r) pseudized with  8 coefficients,  rinner =    0.800   0.800   0.800

     PseudoPot. # 2 for Ti read from file:
     /storage/coda1/p-amedford6/0/shared/rich_project_chbe-medford/medford-share/data/pseudos_module/espresso/nninc/pbe/van/Ti.UPF
     MD5 check sum: 8e4df49b7f0d34bbd5052bf3f5ea0213
     Pseudo is Ultrasoft, Zval = 12.0
     Generated by new atomic code, or converted to UPF format
     Using radial grid of  851 points,  6 beta functions with:
                l(1) =   0
                l(2) =   0
                l(3) =   1
                l(4) =   1
                l(5) =   2
                l(6) =   2
     Q(r) pseudized with  8 coefficients,  rinner =    1.000   1.000   1.000
                                                       1.000   1.000

     PseudoPot. # 3 for C  read from file:
     /storage/coda1/p-amedford6/0/shared/rich_project_chbe-medford/medford-share/data/pseudos_module/espresso/nninc/pbe/van/C.UPF
     MD5 check sum: 1a69bf6b8db32088f5b2163dbdb77a27
     Pseudo is Ultrasoft, Zval =  4.0
     Generated by new atomic code, or converted to UPF format
     Using radial grid of  721 points,  4 beta functions with:
                l(1) =   0
                l(2) =   0
                l(3) =   1
                l(4) =   1
     Q(r) pseudized with  8 coefficients,  rinner =    0.800   0.800   0.800

     PseudoPot. # 4 for H  read from file:
     /storage/coda1/p-amedford6/0/shared/rich_project_chbe-medford/medford-share/data/pseudos_module/espresso/nninc/pbe/van/H.UPF
     MD5 check sum: b5ee9d7bfd3a09ee7748110bda690ff7
     Pseudo is Ultrasoft, Zval =  1.0
     Generated by new atomic code, or converted to UPF format
     Using radial grid of  615 points,  1 beta functions with:
                l(1) =   0
     Q(r) pseudized with  8 coefficients,  rinner =    0.800

     PseudoPot. # 5 for N  read from file:
     /storage/coda1/p-amedford6/0/shared/rich_project_chbe-medford/medford-share/data/pseudos_module/espresso/nninc/pbe/van/N.UPF
     MD5 check sum: 90d10febe142ad51ac9d5be1deb811c4
     Pseudo is Ultrasoft, Zval =  5.0
     Generated by new atomic code, or converted to UPF format
     Using radial grid of  729 points,  4 beta functions with:
                l(1) =   0
                l(2) =   0
                l(3) =   1
                l(4) =   1
     Q(r) pseudized with  8 coefficients,  rinner =    0.800   0.800   0.800

     atomic species   valence    mass     pseudopotential
        O1             6.00    15.99900     O ( 1.00)
        Ti1           12.00    47.86700     Ti( 1.00)
        C1             4.00    12.01100     C ( 1.00)
        H1             1.00     1.00800     H ( 1.00)
        N1             5.00    14.00700     N ( 1.00)

     No symmetry found

   Cartesian axes

     site n.     atom                  positions (alat units)
         1           O1  tau(   1) = (   3.2904802   0.0005063   4.7018136  )
         2           O1  tau(   2) = (   3.2900926   2.9813045   4.7018136  )
         3           Ti1 tau(   3) = (   0.0004258   2.9801865   6.0000000  )
         4           Ti1 tau(   4) = (   0.0000382   5.9609847   6.0000000  )
         5           Ti1 tau(   5) = (   3.2906075   1.4906267   6.0002472  )
         6           Ti1 tau(   6) = (   3.2902200   4.4714249   6.0002472  )
         7           O1  tau(   7) = (   1.3043587   1.4918075   6.0039043  )
         8           O1  tau(   8) = (   1.3039711   4.4726057   6.0039043  )
         9           O1  tau(   9) = (   5.2767064   1.4903225   6.0039473  )
        10           O1  tau(  10) = (   5.2763189   4.4711207   6.0039473  )
        11           O1  tau(  11) = (   3.2906025   0.0005020   7.3038282  )
        12           O1  tau(  12) = (   3.2902150   2.9813002   7.3038282  )
        13           O1  tau(  13) = (   0.0006271   0.0005054   7.9858123  )
        14           O1  tau(  14) = (   0.0002396   2.9813036   7.9858123  )
        15           Ti1 tau(  15) = (   3.2350752   0.0608747   9.1773017  )
        16           Ti1 tau(  16) = (   3.2297482   3.0449837   9.2258248  )
        17           Ti1 tau(  17) = (   6.5035314   4.4790947   9.3419400  )
        18           O1  tau(  18) = (   4.5942328   1.4918067   9.2879030  )
        19           O1  tau(  19) = (   4.5938453   4.4726049   9.2879030  )
        20           O1  tau(  20) = (   1.9868534   1.4903216   9.2879459  )
        21           O1  tau(  21) = (   1.9864658   4.4711199   9.2879459  )
        22           Ti1 tau(  22) = (   6.5047199   1.5482117   9.3251357  )
        23           O1  tau(  23) = (   6.5709586   2.9893791  10.5365161  )
        24           O1  tau(  24) = (   6.5791863   0.0068326  10.5847705  )
        25           O1  tau(  25) = (   3.2737170   2.9471243  11.2864913  )
        26           O1  tau(  26) = (   3.2757665   0.0160177  11.3056520  )
        27           Ti1 tau(  27) = (   3.3024496   1.5456137  12.4328335  )
        28           Ti1 tau(  28) = (   0.0381823   0.0558990  12.5328616  )
        29           Ti1 tau(  29) = (   3.2867454   4.6490159  12.6676011  )
        30           O1  tau(  30) = (   1.2579511   1.4933188  12.6274103  )
        31           O1  tau(  31) = (   5.2930440   1.4968169  12.6131059  )
        32           O1  tau(  32) = (   1.2503383   4.4760527  12.6363980  )
        33           O1  tau(  33) = (   5.2887019   4.4660859  12.6249461  )
        34           Ti1 tau(  34) = (   6.5320965   3.0346479  12.8073368  )
        35           O1  tau(  35) = (   3.2762579   2.9735537  13.8874883  )
        36           O1  tau(  36) = (   3.2793791   5.9387796  13.8789893  )
        37           O1  tau(  37) = (   6.5412754   2.9812497  14.6926498  )
        38           O1  tau(  38) = (   6.5531526   0.0082392  14.6823945  )
        39           Ti1 tau(  39) = (   3.2668636   2.9663550  15.6683660  )
        40           Ti1 tau(  40) = (   3.2982107   5.9440960  16.3508785  )
        41           Ti1 tau(  41) = (   0.0141158   4.5598071  15.9269461  )
        42           O1  tau(  42) = (   4.5124726   4.4172202  16.0573870  )
        43           O1  tau(  43) = (   1.9821766   4.4208814  16.0404589  )
        44           O1  tau(  44) = (   4.4954461   1.5000296  16.1066544  )
        45           O1  tau(  45) = (   1.9782815   1.5221889  16.0619205  )
        46           Ti1 tau(  46) = (   0.0269324   1.3869748  16.0447141  )
        47           O1  tau(  47) = (   6.5379229   5.9414530  17.1901000  )
        48           O1  tau(  48) = (   6.5175113   2.9840192  17.3772383  )
        49           C1  tau(  49) = (   5.9742390   3.1768082  18.5965123  )
        50           H1  tau(  50) = (   5.8341806   4.1706531  18.9840957  )
        51           N1  tau(  51) = (   5.5886240   2.1683037  19.3003467  )
        52           N1  tau(  52) = (   5.2398892   1.2394158  19.8970451  )
        53           O1  tau(  53) = (   3.2183551   5.8834210  18.1446619  )
        54           H1  tau(  54) = (   3.7026433   0.4006729  18.8445816  )

     number of k points=    10  Fermi-Dirac smearing, width (Ry)=  0.0073
                       cart. coord. in units 2pi/alat
        k(    1) = (   0.0000000   0.0000000   0.0000000), wk =   0.1250000
        k(    2) = (   0.0000000   0.0419351   0.0000000), wk =   0.2500000
        k(    3) = (   0.0000000  -0.0838702   0.0000000), wk =   0.1250000
        k(    4) = (   0.0379955   0.0000049   0.0000000), wk =   0.2500000
        k(    5) = (   0.0379955   0.0419400   0.0000000), wk =   0.2500000
        k(    6) = (   0.0379955  -0.0838652   0.0000000), wk =   0.2500000
        k(    7) = (   0.0379955  -0.0419301   0.0000000), wk =   0.2500000
        k(    8) = (  -0.0759910  -0.0000099   0.0000000), wk =   0.1250000
        k(    9) = (  -0.0759910   0.0419252   0.0000000), wk =   0.2500000
        k(   10) = (  -0.0759910  -0.0838800   0.0000000), wk =   0.1250000

     Initial potential from superposition of free atoms

     starting charge  389.99917, renormalised to  406.00000

     negative rho (up, down):  1.659E-02 0.000E+00

     %%%%%%%%%%%%%%%%%%%%%%%%%%%%%%%%%%%%%%%%%%%%%%%%%%%%%%%%%%%%%%%%%%%%%%%%
     %                                                                      %
     % You are using vdW-DF, which was implemented by the Thonhauser group. %
     % Please cite the following two papers that made this development      %
     % possible and the two reviews that describe the various versions:     %
     %                                                                      %
     %   T. Thonhauser et al., PRL 115, 136402 (2015).                      %
     %   T. Thonhauser et al., PRB 76, 125112 (2007).                       %
     %   K. Berland et al., Rep. Prog. Phys. 78, 066501 (2015).             %
     %   D.C. Langreth et al., J. Phys.: Condens. Matter 21, 084203 (2009). %
     %                                                                      %
     %                                                                      %
     % If you are calculating the stress with vdW-DF, please also cite:     %
     %                                                                      %
     %   R. Sabatini et al., J. Phys.: Condens. Matter 24, 424209 (2012).   %
     %                                                                      %
     %%%%%%%%%%%%%%%%%%%%%%%%%%%%%%%%%%%%%%%%%%%%%%%%%%%%%%%%%%%%%%%%%%%%%%%%

     Adding external electric field

     Computed dipole along edir(3) :
        Dipole              -13.7818 Ry au,        -35.0298 Debye
        Dipole field         -0.0260 Ry au,

        Potential amp.        2.4109 Ry
        Total length         46.3494 bohr

     Starting wfcs are  306 atomic wfcs
  @ DRIVER MODE: Message from server: STATUS
  @ DRIVER MODE: Message from server: POSDATA
  @ DRIVER MODE: Reading and sharing cell
  @ DRIVER MODE: Reading and sharing positions
  @ DRIVER MODE: Received positions

     Self-consistent Calculation

     iteration #  1     ecut=    29.40 Ry     beta= 0.05
     Davidson diagonalization with overlap
     c_bands:  1 eigenvalues not converged
     c_bands:  1 eigenvalues not converged
     c_bands:  5 eigenvalues not converged
     c_bands:  5 eigenvalues not converged
     ethr =  1.00E-05,  avg # of iterations = 30.7

[...]

     total energy              =   -2308.65393775 Ry
     estimated scf accuracy    <    7887.75522918 Ry

     iteration #  2     ecut=    29.40 Ry     beta= 0.05
     Davidson diagonalization with overlap
     ethr =  1.00E-02,  avg # of iterations = 25.4

[...]

     iteration # 43     ecut=    29.40 Ry     beta= 0.05
     Davidson diagonalization with overlap
     c_bands:  1 eigenvalues not converged
     c_bands:  1 eigenvalues not converged
     ethr =  1.94E-07,  avg # of iterations = 11.5

[...]

     total energy              =   -3002.64619320 Ry
     estimated scf accuracy    <       0.00000017 Ry

     iteration # 62     ecut=    29.40 Ry     beta= 0.05
     Davidson diagonalization with overlap
     ethr =  2.08E-11,  avg # of iterations =  7.0

     negative rho (up, down):  1.647E-02 0.000E+00

     Adding external electric field

     Computed dipole along edir(3) :
        Dipole                0.4108 Ry au,          1.0443 Debye
        Dipole field          0.0008 Ry au,

        Potential amp.       -0.0719 Ry
        Total length         46.3494 bohr

     End of self-consistent calculation

          k = 0.0000 0.0000 0.0000 ( 18029 PWs)   bands (ev):

   -56.2606 -56.2037 -55.7647 -55.7108 -55.7047 -55.6846 -55.6633 -55.6499
   -55.6174 -55.6169 -55.5760 -55.5492 -55.4898 -55.3175 -54.9098 -54.8759
   -32.6753 -32.5365 -32.4709 -32.4309 -32.3324 -32.2999 -32.2407 -32.2216
   -32.2008 -32.1035 -32.0606 -32.0056 -32.0016 -31.9933 -31.9775 -31.9587
   -31.9536 -31.9489 -31.9306 -31.9166 -31.8695 -31.8671 -31.8642 -31.8545
   -31.8510 -31.8388 -31.8319 -31.8169 -31.8118 -31.8107 -31.8071 -31.7739
   -31.7736 -31.7671 -31.7386 -31.7313 -31.7237 -31.7213 -31.6914 -31.5775
   -31.5364 -31.5277 -31.3063 -31.2478 -31.2236 -31.1228 -31.0376 -30.9264
   -20.5493 -18.5769 -16.5001 -16.4684 -16.3106 -16.1041 -15.9398 -15.8712
   -15.6807 -15.5989 -15.5279 -15.5035 -15.4775 -15.3883 -15.3587 -15.3018
   -15.2609 -15.2460 -15.2123 -15.2036 -15.1919 -15.1897 -15.1841 -15.1560
   -15.1144 -15.0187 -14.9493 -14.9078 -14.8904 -14.8798 -14.8419 -14.5319
   -13.5851 -13.4116 -13.3020  -6.9386  -5.8695  -4.9222  -4.3613  -3.9678
    -3.7879  -3.6946  -3.6248  -3.5615  -3.5318  -3.3392  -3.2916  -3.1521
    -3.0292  -2.9472  -2.8733  -2.8511  -2.8359  -2.7901  -2.7309  -2.7016
    -2.6701  -2.6350  -2.5812  -2.5438  -2.5091  -2.4798  -2.4690  -2.4346
    -2.4155  -2.4133  -2.2655  -2.2200  -2.1803  -2.1697  -2.1447  -2.1235
    -2.0977  -2.0711  -2.0597  -1.9968  -1.9275  -1.8433  -1.8298  -1.7322
    -1.7079  -1.5370  -1.4819  -1.4045  -1.3717  -1.2003  -1.1757  -1.1715
    -1.1469  -1.1248  -0.9990  -0.9698  -0.9291  -0.9228  -0.8880  -0.8697
    -0.8383  -0.7394  -0.6704  -0.6316  -0.6163  -0.5531  -0.4538  -0.3751
    -0.3549  -0.3206  -0.2863  -0.1870  -0.1558  -0.1127  -0.1060  -0.0437
    -0.0064   0.0134   0.0687   0.0983   0.1512   0.1703   0.1844   0.2258
     0.2351   0.2799   0.3513   0.4123   0.5086   0.5312   0.5572   0.5912
     0.6746   0.7460   0.8236   1.0103   1.1084   1.1495   1.3174   1.3589
     1.6589   1.7066   2.5138   3.0306   3.1833   3.4490   3.5003   3.5385
     3.5868   3.6363   3.7685   3.8814   3.9402

[...]

          k = 0.0380-0.0419 0.0000 ( 17876 PWs)   bands (ev):

[...]

          k =-0.0760-0.0000 0.0000 ( 17886 PWs)   bands (ev):

[...]

          k =-0.0760-0.0839 0.0000 ( 17948 PWs)   bands (ev):

   -56.2551 -56.2091 -55.7622 -55.7033 -55.7031 -55.6802 -55.6708 -55.6523
   -55.6219 -55.6079 -55.5849 -55.5502 -55.4881 -55.3191 -54.8930 -54.8925
   -32.5330 -32.5110 -32.4734 -32.4719 -32.3992 -32.3610 -32.1444 -32.0672
   -32.0612 -32.0223 -32.0068 -31.9788 -31.9748 -31.9738 -31.9509 -31.9502
   -31.9353 -31.9328 -31.9260 -31.9235 -31.9042 -31.9029 -31.8802 -31.8773
   -31.8721 -31.8706 -31.8659 -31.8554 -31.8471 -31.8335 -31.8237 -31.8209
   -31.8179 -31.8106 -31.7944 -31.7775 -31.7533 -31.7247 -31.6951 -31.6519
   -31.5762 -31.5303 -31.2367 -31.2365 -31.1219 -31.1197 -31.0796 -31.0785
   -20.5479 -18.5645 -16.4768 -15.8330 -15.8192 -15.7955 -15.7552 -15.7092
   -15.6926 -15.6215 -15.6146 -15.5836 -15.5061 -15.4428 -15.3833 -15.3598
   -15.3577 -15.3354 -15.3061 -15.2699 -15.2454 -15.2400 -15.2257 -15.1741
   -15.1541 -15.1432 -15.1269 -15.1036 -15.0696 -15.0386 -14.8981 -14.6894
   -13.5925 -13.4065 -13.4046  -6.9113  -5.8834  -4.9211  -4.3500  -3.6020
    -3.2749  -3.0913  -3.0596  -2.9839  -2.9261  -2.8291  -2.8040  -2.7775
    -2.7755  -2.7563  -2.7363  -2.7026  -2.6521  -2.6286  -2.5938  -2.5854
    -2.5747  -2.5566  -2.5457  -2.5158  -2.4998  -2.4830  -2.4641  -2.4465
    -2.4258  -2.4152  -2.3431  -2.3108  -2.2693  -2.1124  -2.1051  -2.1027
    -2.0731  -2.0496  -2.0390  -1.9811  -1.9216  -1.9132  -1.8599  -1.8467
    -1.7409  -1.6999  -1.5237  -1.4975  -1.4752  -1.3914  -1.3400  -1.3006
    -1.2800  -1.2476  -1.2142  -1.2004  -1.1638  -1.1095  -1.0359  -1.0079
    -0.9666  -0.9541  -0.9452  -0.8582  -0.7890  -0.7705  -0.7293  -0.7094
    -0.6866  -0.6449  -0.5934  -0.5614  -0.5472  -0.5306  -0.4355  -0.3848
    -0.3308  -0.2211  -0.1912  -0.1324  -0.0167   0.0614   0.0754   0.1719
     0.2140   0.3112   0.3548   0.4047   0.4426   0.4686   0.5009   0.6165
     0.6348   0.6801   0.7594   0.7742   0.8054   0.8520   1.4975   1.5045
     1.5153   1.5166   2.4336   3.5533   3.5815   3.5999   3.6392   3.8429
     3.8742   3.8891   3.9225   3.9352   3.9917

     the Fermi energy is     2.8295 ev

!    total energy              =   -3002.64623713 Ry
     estimated scf accuracy    <       0.00000007 Ry
     smearing contrib. (-TS)   =      -0.00413718 Ry
     internal energy E=F+TS    =   -3002.64209995 Ry

     The total energy is F=E-TS. E is the sum of the following terms:
     one-electron contribution =  -23368.31433062 Ry
     hartree contribution      =   11778.01417360 Ry
     xc contribution           =    -498.78902453 Ry
     ewald contribution        =    9086.44676306 Ry
     electric field correction =       0.00031854 Ry

     convergence has been achieved in  62 iterations

     Forces acting on atoms (cartesian axes, Ry/au):

     atom    1 type  1   force =     0.00016607    0.00010237    0.09953299
     atom    2 type  1   force =     0.00014601    0.00020809    0.09903717
     atom    3 type  2   force =     0.00019099    0.00034814    0.12405814
     atom    4 type  2   force =     0.00044486    0.00004706    0.13863617
     atom    5 type  2   force =    -0.00009538    0.00965475   -0.15988577
     atom    6 type  2   force =     0.00009321   -0.00873341   -0.15967512
     atom    7 type  1   force =    -0.07917383    0.00146622   -0.03326462
     atom    8 type  1   force =    -0.07920570   -0.00182285   -0.03330288
     atom    9 type  1   force =     0.07913074    0.00179613   -0.03334407
     atom   10 type  1   force =     0.07916091   -0.00147562   -0.03332192
     atom   11 type  1   force =    -0.00114013    0.00062236    0.04278597
     atom   12 type  1   force =    -0.00114795    0.00003257    0.04543956
     atom   13 type  1   force =    -0.00039225   -0.00173509   -0.05085267
     atom   14 type  1   force =    -0.00085445    0.00124319   -0.04805612
     atom   15 type  2   force =    -0.00035356   -0.00005222    0.00037934
     atom   16 type  2   force =    -0.00033762    0.00006356    0.00012323
     atom   17 type  2   force =     0.00021525   -0.00037065    0.00011404
     atom   18 type  1   force =    -0.01153232   -0.00689758   -0.00028468
     atom   19 type  1   force =    -0.01366463    0.00097795    0.00207496
     atom   20 type  1   force =     0.01284712   -0.00248977   -0.00230474
     atom   21 type  1   force =     0.01410607    0.00576118    0.00032439
     atom   22 type  2   force =     0.00030561    0.00002539    0.00052100
     atom   23 type  1   force =    -0.00010420   -0.00009136   -0.00029377
     atom   24 type  1   force =    -0.00026528   -0.00001828    0.00006816
     atom   25 type  1   force =     0.00022917    0.00035023   -0.00039352
     atom   26 type  1   force =     0.00034920    0.00013523   -0.00052913
     atom   27 type  2   force =    -0.00030805   -0.00041109    0.00060469
     atom   28 type  2   force =     0.00052529   -0.00031318    0.00035478
     atom   29 type  2   force =    -0.00015869    0.00019413    0.00043454
     atom   30 type  1   force =    -0.00033585   -0.00038556   -0.00034816
     atom   31 type  1   force =     0.00048857   -0.00006934    0.00002966
     atom   32 type  1   force =    -0.00031742    0.00043011   -0.00009643
     atom   33 type  1   force =     0.00024847    0.00036488    0.00001258
     atom   34 type  2   force =     0.00041326    0.00018496    0.00009434
     atom   35 type  1   force =     0.00006469   -0.00011798   -0.00076596
     atom   36 type  1   force =     0.00007954   -0.00005986    0.00006718
     atom   37 type  1   force =    -0.00001880   -0.00021805    0.00017862
     atom   38 type  1   force =     0.00002890    0.00051157   -0.00040280
     atom   39 type  2   force =     0.00007025    0.00040553    0.00072241
     atom   40 type  2   force =    -0.00008512   -0.00025105   -0.00022797
     atom   41 type  2   force =    -0.00035672   -0.00029806    0.00106922
     atom   42 type  1   force =     0.00005707    0.00024505   -0.00022252
     atom   43 type  1   force =    -0.00035098    0.00017163   -0.00025068
     atom   44 type  1   force =     0.00022283   -0.00009911    0.00037155
     atom   45 type  1   force =    -0.00064626   -0.00003263    0.00027397
     atom   46 type  2   force =    -0.00016712    0.00091401    0.00102004
     atom   47 type  1   force =    -0.00000113    0.00024413   -0.00004465
     atom   48 type  1   force =    -0.00306540    0.00145566    0.00762195
     atom   49 type  3   force =     0.00799781    0.00097209   -0.01877954
     atom   50 type  4   force =    -0.00099900    0.00405850    0.00343220
     atom   51 type  5   force =    -0.00340667   -0.00597337    0.00659886
     atom   52 type  5   force =     0.00049748   -0.00095848   -0.00009208
     atom   53 type  1   force =     0.00049925    0.00038411    0.00065409
     atom   54 type  4   force =    -0.00009414   -0.00049614    0.00010402

     Total force =     0.381150     Total SCF correction =     0.001074
  @ DRIVER MODE: Message from server: STATUS
  @ DRIVER MODE: Message from server: GETFORCE
  @ DRIVER MODE: Returning v,forces,stress,ensemble

     Writing output data file ./calc.save/
  @ DRIVER MODE: Message from server: EXIT
  @ DRIVE MODE: Exiting

     General routines

     Parallel routines

   This run was terminated on:  20:41:18  22Sep2021

   JOB DONE.