     Program PWSCF v.6.7GPU starts on 24Sep2021 at  5:55:47

     R & G space division:  proc/nbgrp/npool/nimage =       8
     Reading input from /storage/home/hcoda1/3/ntian30/research/carbon/CxH_vib/H2O_calc/ads_slab/CH2ON2HO_b/out_0043/pw.inp
Warning: card &CELL ignored
Warning: card   CELL_DYNAMICS='IPI', ignored
Warning: card / ignored

     Current dimensions of program PWSCF are:
     Max number of different atomic species (ntypx) = 10
     Max number of k-points (npk) =  40000
     Max angular momentum in pseudopotentials (lmaxx) =  3
     Presently no symmetry can be used with electric field

     Message from routine cell_base_init:
     DEPRECATED: use true lattice parameter, not A to a.u. conversion factor

     IMPORTANT: XC functional enforced from input :
     Exchange-correlation= BEEF-VDW
                           (   1   4  43  14   2   0   0)
     Any further DFT definition will be discarded
     Please, verify this is what you really want

  @ DRIVER MODE: Connecting to
 qe_1139763_2947315.sched-torque.pace.gatech.edu_w1j11ei_scratch
  using UNIX socket
  @ DRIVER MODE: Message from server: STATUS
  @ DRIVER MODE: Message from server: INIT
  @ DRIVER MODE: Receiving replica           0          -1
  @ DRIVER MODE: Receiving encoded integer          25
  @ DRIVER MODE:  SCF:  T  FORCE:  T  STRESS:  F  VC:  F  ENSEMBLE:  F
  @ DRIVER MODE:  SCF:  T  FORCE:  T  STRESS:  F  VC:  F  ENSEMBLE:  F

     Using Slab Decomposition

     bravais-lattice index     =            0
     lattice parameter (alat)  =       1.8897  a.u.
     unit-cell volume          =    6658.9804 (a.u.)^3
     number of atoms/cell      =           55
     number of atomic types    =            5
     number of electrons       =       407.00
     number of Kohn-Sham states=          213
     kinetic-energy cutoff     =      29.3995  Ry
     charge density cutoff     =     293.9946  Ry
     scf convergence threshold =      7.3E-08
     mixing beta               =       0.0500
     number of iterations used =            8  plain     mixing
     Exchange-correlation= BEEF-VDW
                           (   1   4  43  14   2   0   0)

     celldm(1)=   1.889726  celldm(2)=   0.000000  celldm(3)=   0.000000
     celldm(4)=   0.000000  celldm(5)=   0.000000  celldm(6)=   0.000000

     crystal axes: (cart. coord. in units of alat)
               a(1) = (   6.579727   0.000000   0.000000 )
               a(2) = (  -0.000775   5.961596   0.000000 )
               a(3) = (   0.000000   0.000000  25.155947 )

     reciprocal axes: (cart. coord. in units 2 pi/alat)
               b(1) = (  0.151982  0.000020  0.000000 )
               b(2) = (  0.000000  0.167740  0.000000 )
               b(3) = (  0.000000  0.000000  0.039752 )

     PseudoPot. # 1 for C  read from file:
     /storage/coda1/p-amedford6/0/shared/rich_project_chbe-medford/medford-share/data/pseudos_module/espresso/nninc/pbe/van/C.UPF
     MD5 check sum: 1a69bf6b8db32088f5b2163dbdb77a27
     Pseudo is Ultrasoft, Zval =  4.0
     Generated by new atomic code, or converted to UPF format
     Using radial grid of  721 points,  4 beta functions with:
                l(1) =   0
                l(2) =   0
                l(3) =   1
                l(4) =   1
     Q(r) pseudized with  8 coefficients,  rinner =    0.800   0.800   0.800

     PseudoPot. # 2 for H  read from file:
     /storage/coda1/p-amedford6/0/shared/rich_project_chbe-medford/medford-share/data/pseudos_module/espresso/nninc/pbe/van/H.UPF
     MD5 check sum: b5ee9d7bfd3a09ee7748110bda690ff7
     Pseudo is Ultrasoft, Zval =  1.0
     Generated by new atomic code, or converted to UPF format
     Using radial grid of  615 points,  1 beta functions with:
                l(1) =   0
     Q(r) pseudized with  8 coefficients,  rinner =    0.800

     PseudoPot. # 3 for O  read from file:
     /storage/coda1/p-amedford6/0/shared/rich_project_chbe-medford/medford-share/data/pseudos_module/espresso/nninc/pbe/van/O.UPF
     MD5 check sum: 78c19812648e8988a0fe644b0f25305e
     Pseudo is Ultrasoft, Zval =  6.0
     Generated by new atomic code, or converted to UPF format
     Using radial grid of  737 points,  4 beta functions with:
                l(1) =   0
                l(2) =   0
                l(3) =   1
                l(4) =   1
     Q(r) pseudized with  8 coefficients,  rinner =    0.800   0.800   0.800

     PseudoPot. # 4 for Ti read from file:
     /storage/coda1/p-amedford6/0/shared/rich_project_chbe-medford/medford-share/data/pseudos_module/espresso/nninc/pbe/van/Ti.UPF
     MD5 check sum: 8e4df49b7f0d34bbd5052bf3f5ea0213
     Pseudo is Ultrasoft, Zval = 12.0
     Generated by new atomic code, or converted to UPF format
     Using radial grid of  851 points,  6 beta functions with:
                l(1) =   0
                l(2) =   0
                l(3) =   1
                l(4) =   1
                l(5) =   2
                l(6) =   2
     Q(r) pseudized with  8 coefficients,  rinner =    1.000   1.000   1.000
                                                       1.000   1.000

     PseudoPot. # 5 for N  read from file:
     /storage/coda1/p-amedford6/0/shared/rich_project_chbe-medford/medford-share/data/pseudos_module/espresso/nninc/pbe/van/N.UPF
     MD5 check sum: 90d10febe142ad51ac9d5be1deb811c4
     Pseudo is Ultrasoft, Zval =  5.0
     Generated by new atomic code, or converted to UPF format
     Using radial grid of  729 points,  4 beta functions with:
                l(1) =   0
                l(2) =   0
                l(3) =   1
                l(4) =   1
     Q(r) pseudized with  8 coefficients,  rinner =    0.800   0.800   0.800

     atomic species   valence    mass     pseudopotential
        C1             4.00    12.01100     C ( 1.00)
        H1             1.00     1.00800     H ( 1.00)
        O1             6.00    15.99900     O ( 1.00)
        Ti1           12.00    47.86700     Ti( 1.00)
        N1             5.00    14.00700     N ( 1.00)

     No symmetry found

   Cartesian axes

     site n.     atom                  positions (alat units)
         1           C1  tau(   1) = (   6.3959394   2.9948767  18.7016815  )
         2           H1  tau(   2) = (   6.3118651   3.9496324  19.2181435  )
         3           H1  tau(   3) = (   6.2946090   2.0524817  19.2375006  )
         4           O1  tau(   4) = (   3.2904802   0.0005063   4.7018136  )
         5           O1  tau(   5) = (   3.2900926   2.9813045   4.7018136  )
         6           O1  tau(   6) = (   1.3043587   1.4918075   6.0039043  )
         7           O1  tau(   7) = (   1.3039711   4.4726057   6.0039043  )
         8           O1  tau(   8) = (   5.2767064   1.4903225   6.0039473  )
         9           O1  tau(   9) = (   5.2763189   4.4711207   6.0039473  )
        10           O1  tau(  10) = (   3.2906025   0.0005020   7.3038282  )
        11           O1  tau(  11) = (   3.2902150   2.9813002   7.3038282  )
        12           O1  tau(  12) = (   0.0006271   0.0005054   7.9858123  )
        13           O1  tau(  13) = (   0.0002396   2.9813036   7.9858123  )
        14           O1  tau(  14) = (   4.5942328   1.4918067   9.2879030  )
        15           O1  tau(  15) = (   4.5938453   4.4726049   9.2879030  )
        16           O1  tau(  16) = (   1.9868534   1.4903216   9.2879459  )
        17           O1  tau(  17) = (   1.9864658   4.4711199   9.2879459  )
        18           O1  tau(  18) = (   0.0129981   2.9922367  10.5657274  )
        19           O1  tau(  19) = (   0.0144279   0.0091559  10.5889743  )
        20           O1  tau(  20) = (   3.3117767   2.9674386  11.3102582  )
        21           O1  tau(  21) = (   3.3129298   0.0243810  11.3450129  )
        22           O1  tau(  22) = (   5.3345884   1.4970258  12.6342112  )
        23           O1  tau(  23) = (   5.3394917   4.4808886  12.6396439  )
        24           O1  tau(  24) = (   1.3039726   1.5040805  12.6380785  )
        25           O1  tau(  25) = (   1.3005587   4.4728597  12.6427203  )
        26           O1  tau(  26) = (   3.3397831   2.9746101  13.9049785  )
        27           O1  tau(  27) = (   3.3223070   5.9049495  13.9699414  )
        28           O1  tau(  28) = (   0.0408547   5.9558716  14.6791314  )
        29           O1  tau(  29) = (   0.0240783   2.9814708  14.7219997  )
        30           O1  tau(  30) = (   4.6055448   4.4181431  16.1204950  )
        31           O1  tau(  31) = (   4.6084482   1.5084077  16.0967128  )
        32           O1  tau(  32) = (   2.0524258   4.3896087  16.0537013  )
        33           O1  tau(  33) = (   2.0565100   1.5382275  16.0573534  )
        34           O1  tau(  34) = (   0.0881354   5.9599038  17.1931241  )
        35           O1  tau(  35) = (   0.0264254   2.9794292  17.4619454  )
        36           Ti1 tau(  36) = (   0.0004258   2.9801865   6.0000000  )
        37           Ti1 tau(  37) = (   0.0000382   5.9609847   6.0000000  )
        38           Ti1 tau(  38) = (   3.2906075   1.4906267   6.0002472  )
        39           Ti1 tau(  39) = (   3.2902200   4.4714249   6.0002472  )
        40           Ti1 tau(  40) = (   3.3176177   0.0844252   9.1703869  )
        41           Ti1 tau(  41) = (   3.3271239   3.0668301   9.1994626  )
        42           Ti1 tau(  42) = (   0.0459265   4.5214211   9.2633915  )
        43           Ti1 tau(  43) = (   0.0410032   1.6055327   9.3499854  )
        44           Ti1 tau(  44) = (   3.3214603   4.6642404  12.6916750  )
        45           Ti1 tau(  45) = (   3.3199143   1.5801738  12.4350604  )
        46           Ti1 tau(  46) = (   0.0219714   0.0386744  12.4748393  )
        47           Ti1 tau(  47) = (   0.0368166   3.0234317  12.7766128  )
        48           Ti1 tau(  48) = (   3.3281430   2.9430002  15.6816790  )
        49           Ti1 tau(  49) = (   3.4175200   5.9218210  16.2589141  )
        50           Ti1 tau(  50) = (   0.0864224   1.3736379  15.9343534  )
        51           Ti1 tau(  51) = (   0.1056494   4.5744356  15.9464672  )
        52           N1  tau(  52) = (   3.6299987   3.2157240  20.3374172  )
        53           N1  tau(  53) = (   2.7220030   2.6454082  20.0695964  )
        54           O1  tau(  54) = (   3.1925635   5.9265077  18.0938652  )
        55           H1  tau(  55) = (   2.2701939   0.0950383  18.3989923  )

     number of k points=    10  Fermi-Dirac smearing, width (Ry)=  0.0073
                       cart. coord. in units 2pi/alat
        k(    1) = (   0.0000000   0.0000000   0.0000000), wk =   0.1250000
        k(    2) = (   0.0000000   0.0419351   0.0000000), wk =   0.2500000
        k(    3) = (   0.0000000  -0.0838702   0.0000000), wk =   0.1250000
        k(    4) = (   0.0379955   0.0000049   0.0000000), wk =   0.2500000
        k(    5) = (   0.0379955   0.0419400   0.0000000), wk =   0.2500000
        k(    6) = (   0.0379955  -0.0838652   0.0000000), wk =   0.2500000
        k(    7) = (   0.0379955  -0.0419301   0.0000000), wk =   0.2500000
        k(    8) = (  -0.0759910  -0.0000099   0.0000000), wk =   0.1250000
        k(    9) = (  -0.0759910   0.0419252   0.0000000), wk =   0.2500000
        k(   10) = (  -0.0759910  -0.0838800   0.0000000), wk =   0.1250000

     Initial potential from superposition of free atoms

     starting charge  390.99916, renormalised to  407.00000

     negative rho (up, down):  1.488E-02 0.000E+00

     %%%%%%%%%%%%%%%%%%%%%%%%%%%%%%%%%%%%%%%%%%%%%%%%%%%%%%%%%%%%%%%%%%%%%%%%
     %                                                                      %
     % You are using vdW-DF, which was implemented by the Thonhauser group. %
     % Please cite the following two papers that made this development      %
     % possible and the two reviews that describe the various versions:     %
     %                                                                      %
     %   T. Thonhauser et al., PRL 115, 136402 (2015).                      %
     %   T. Thonhauser et al., PRB 76, 125112 (2007).                       %
     %   K. Berland et al., Rep. Prog. Phys. 78, 066501 (2015).             %
     %   D.C. Langreth et al., J. Phys.: Condens. Matter 21, 084203 (2009). %
     %                                                                      %
     %                                                                      %
     % If you are calculating the stress with vdW-DF, please also cite:     %
     %                                                                      %
     %   R. Sabatini et al., J. Phys.: Condens. Matter 24, 424209 (2012).   %
     %                                                                      %
     %%%%%%%%%%%%%%%%%%%%%%%%%%%%%%%%%%%%%%%%%%%%%%%%%%%%%%%%%%%%%%%%%%%%%%%%

     Adding external electric field

     Computed dipole along edir(3) :
        Dipole              -15.3787 Ry au,        -39.0886 Debye
        Dipole field         -0.0290 Ry au,

        Potential amp.        2.6903 Ry
        Total length         46.3494 bohr

     Starting wfcs are  307 atomic wfcs
  @ DRIVER MODE: Message from server: STATUS
  @ DRIVER MODE: Message from server: POSDATA
  @ DRIVER MODE: Reading and sharing cell
  @ DRIVER MODE: Reading and sharing positions
  @ DRIVER MODE: Received positions

     Self-consistent Calculation

     iteration #  1     ecut=    29.40 Ry     beta= 0.05
     Davidson diagonalization with overlap
     c_bands:  1 eigenvalues not converged
     c_bands:  1 eigenvalues not converged
     c_bands:  1 eigenvalues not converged
     c_bands:  3 eigenvalues not converged
     ethr =  1.00E-05,  avg # of iterations = 34.0

[...]

     total energy              =   -2231.74061349 Ry
     estimated scf accuracy    <    8831.96408086 Ry

     iteration #  2     ecut=    29.40 Ry     beta= 0.05
     Davidson diagonalization with overlap
     ethr =  1.00E-02,  avg # of iterations = 31.9

[...]

     iteration # 57     ecut=    29.40 Ry     beta= 0.05
     Davidson diagonalization with overlap
     c_bands:  1 eigenvalues not converged
     c_bands:  2 eigenvalues not converged
     ethr =  4.12E-07,  avg # of iterations = 16.2

[...]

     total energy              =   -3003.97493459 Ry
     estimated scf accuracy    <       0.00000017 Ry

     iteration # 76     ecut=    29.40 Ry     beta= 0.05
     Davidson diagonalization with overlap
     ethr =  4.23E-11,  avg # of iterations =  8.8

     negative rho (up, down):  1.524E-02 0.000E+00

     Adding external electric field

     Computed dipole along edir(3) :
        Dipole                0.9014 Ry au,          2.2910 Debye
        Dipole field          0.0017 Ry au,

        Potential amp.       -0.1577 Ry
        Total length         46.3494 bohr

     End of self-consistent calculation

          k = 0.0000 0.0000 0.0000 ( 18029 PWs)   bands (ev):

   -55.6605 -55.6179 -55.5410 -55.4578 -55.4233 -55.4127 -55.3995 -55.3621
   -55.3058 -55.2733 -55.2680 -55.2351 -55.1913 -55.0992 -54.5090 -54.4750
   -32.1122 -32.0115 -31.9550 -31.9274 -31.9143 -31.8706 -31.8660 -31.8206
   -31.8186 -31.7614 -31.7534 -31.7430 -31.7352 -31.7288 -31.7236 -31.7010
   -31.6802 -31.6744 -31.6343 -31.6234 -31.6108 -31.5995 -31.5974 -31.5963
   -31.5595 -31.5538 -31.5149 -31.5100 -31.5076 -31.4976 -31.4962 -31.4879
   -31.4634 -31.4617 -31.4346 -31.4317 -31.4295 -31.3846 -31.3838 -31.3464
   -31.3075 -31.3045 -30.9116 -30.8352 -30.8119 -30.7285 -30.6426 -30.5313
   -21.1335 -20.0507 -16.2839 -16.1515 -15.9868 -15.7995 -15.7021 -15.6399
   -15.4335 -15.3747 -15.2984 -15.1423 -15.1151 -15.0781 -15.0494 -15.0277
   -15.0191 -14.9953 -14.9855 -14.9445 -14.9209 -14.9171 -14.8721 -14.8085
   -14.7627 -14.7536 -14.7097 -14.6523 -14.6050 -14.5933 -14.5349 -14.3449
   -13.0097 -12.8959  -9.2722  -6.4045  -5.5873  -5.5534  -4.2944  -4.2767
    -3.8750  -3.5532  -3.5138  -3.4694  -3.3862  -3.3638  -3.2353  -3.0690
    -3.0553  -2.8887  -2.7588  -2.6869  -2.6523  -2.6174  -2.5020  -2.4544
    -2.4278  -2.3899  -2.3578  -2.3340  -2.2946  -2.2772  -2.2433  -2.1983
    -2.1692  -2.0784  -2.0752  -2.0294  -1.9477  -1.9121  -1.9062  -1.9026
    -1.8811  -1.8352  -1.7953  -1.7497  -1.7225  -1.6717  -1.5656  -1.5459
    -1.5404  -1.4722  -1.2279  -1.0920  -1.0642  -0.9911  -0.9540  -0.9369
    -0.8985  -0.8936  -0.8790  -0.8429  -0.8154  -0.6961  -0.6336  -0.5722
    -0.5659  -0.5460  -0.5036  -0.4010  -0.3400  -0.3048  -0.2616  -0.2477
    -0.1780  -0.1603  -0.0800  -0.0465   0.0223   0.1265   0.1702   0.1997
     0.2195   0.2337   0.2830   0.3380   0.3919   0.4231   0.4351   0.4641
     0.5343   0.5579   0.5717   0.5978   0.6850   0.7499   0.7681   0.8293
     0.9123   0.9419   1.0357   1.1653   1.2388   1.4870   1.5131   1.5952
     1.7273   2.0752   2.1208   3.5541   3.6324   3.6623   3.7464   3.8090
     3.8361   3.9196   4.0037   4.0908   4.1245

[...]

          k = 0.0380-0.0419 0.0000 ( 17876 PWs)   bands (ev):

[...]

          k =-0.0760-0.0000 0.0000 ( 17886 PWs)   bands (ev):

[...]

          k =-0.0760-0.0839 0.0000 ( 17948 PWs)   bands (ev):

   -55.6521 -55.6261 -55.5401 -55.4459 -55.4350 -55.4058 -55.3971 -55.3688
   -55.3065 -55.2710 -55.2616 -55.2459 -55.1882 -55.1022 -54.4924 -54.4914
   -31.9495 -31.9383 -31.9228 -31.9161 -31.9091 -31.8109 -31.7942 -31.7785
   -31.7627 -31.7598 -31.7564 -31.7477 -31.7401 -31.6975 -31.6964 -31.6756
   -31.6595 -31.6521 -31.6399 -31.6314 -31.6252 -31.6223 -31.6102 -31.5949
   -31.5885 -31.5860 -31.5734 -31.5600 -31.5547 -31.5442 -31.5036 -31.4993
   -31.4930 -31.4759 -31.4709 -31.4660 -31.4524 -31.4488 -31.4186 -31.3867
   -31.3498 -31.3079 -30.8253 -30.8242 -30.7260 -30.7242 -30.6858 -30.6845
   -21.1332 -20.0451 -16.2448 -15.6734 -15.6112 -15.4667 -15.4456 -15.3873
   -15.3572 -15.2811 -15.2375 -15.2282 -15.1992 -15.1805 -15.1554 -15.1371
   -15.0985 -15.0770 -15.0265 -15.0207 -14.9702 -14.9654 -14.9566 -14.9330
   -14.8845 -14.8329 -14.8239 -14.8214 -14.7584 -14.7504 -14.6522 -14.4791
   -12.9995 -12.9971  -9.2805  -6.4018  -5.5761  -5.5082  -4.3022  -4.2768
    -3.8312  -3.6231  -3.0465  -2.9017  -2.8270  -2.6868  -2.5987  -2.5387
    -2.5273  -2.5060  -2.4699  -2.3973  -2.3863  -2.3319  -2.3277  -2.3203
    -2.3093  -2.2901  -2.2464  -2.2236  -2.2086  -2.1991  -2.1732  -2.1503
    -2.1362  -2.1239  -2.1161  -2.1041  -2.0907  -2.0471  -1.9817  -1.9157
    -1.8793  -1.8640  -1.7226  -1.7093  -1.6422  -1.6274  -1.6174  -1.5911
    -1.5834  -1.5048  -1.4537  -1.3113  -1.2881  -1.2540  -1.1955  -1.1514
    -1.0686  -1.0619  -1.0359  -0.9769  -0.9571  -0.9269  -0.9115  -0.8133
    -0.7374  -0.6923  -0.6546  -0.5413  -0.5244  -0.5093  -0.4484  -0.4218
    -0.4141  -0.4000  -0.3552  -0.2835  -0.2367  -0.2150  -0.1779  -0.1662
    -0.1034  -0.0558   0.0138   0.0847   0.1672   0.1865   0.2929   0.3689
     0.4157   0.5282   0.5854   0.6151   0.6445   0.7177   0.7658   0.7796
     0.8782   0.9377   0.9580   1.0258   1.0543   1.0951   1.1296   1.8841
     1.8971   1.9300   1.9422   3.5053   4.0415   4.0515   4.0654   4.0876
     4.1119   4.1353   4.2105   4.2508   4.2661

     the Fermi energy is     3.4954 ev

!    total energy              =   -3003.97495251 Ry
     estimated scf accuracy    <       0.00000007 Ry
     smearing contrib. (-TS)   =      -0.01900134 Ry
     internal energy E=F+TS    =   -3003.95595117 Ry

     The total energy is F=E-TS. E is the sum of the following terms:
     one-electron contribution =  -23046.78869678 Ry
     hartree contribution      =   11620.49683594 Ry
     xc contribution           =    -499.45673660 Ry
     ewald contribution        =    8921.79111307 Ry
     electric field correction =       0.00153320 Ry

     convergence has been achieved in  76 iterations

     Forces acting on atoms (cartesian axes, Ry/au):

     atom    1 type  1   force =    -0.00036281   -0.00002555    0.00063860
     atom    2 type  2   force =    -0.00047094   -0.00008572   -0.00021129
     atom    3 type  2   force =    -0.00054351    0.00008363   -0.00026007
     atom    4 type  3   force =    -0.00006389    0.00011664    0.10180880
     atom    5 type  3   force =    -0.00006411    0.00014962    0.10147990
     atom    6 type  3   force =    -0.07458672    0.00082360   -0.03019533
     atom    7 type  3   force =    -0.07405533   -0.00148603   -0.03018198
     atom    8 type  3   force =     0.07426383    0.00138350   -0.03024619
     atom    9 type  3   force =     0.07390599   -0.00108620   -0.03029061
     atom   10 type  3   force =     0.00081783    0.00106709    0.04836114
     atom   11 type  3   force =     0.00087544    0.00076190    0.05012141
     atom   12 type  3   force =     0.00040446   -0.00630196   -0.03720977
     atom   13 type  3   force =     0.00063793    0.00423091   -0.03094809
     atom   14 type  3   force =    -0.01075916   -0.00219748    0.00091500
     atom   15 type  3   force =    -0.01063217    0.00460000    0.00171995
     atom   16 type  3   force =     0.01297142   -0.00502144    0.00201273
     atom   17 type  3   force =     0.01232606    0.00211803    0.00232823
     atom   18 type  3   force =    -0.00037419    0.00006088    0.00007041
     atom   19 type  3   force =    -0.00020736    0.00027229    0.00001463
     atom   20 type  3   force =     0.00003106   -0.00077828    0.00007863
     atom   21 type  3   force =    -0.00022293   -0.00038759   -0.00000134
     atom   22 type  3   force =     0.00023735   -0.00047426   -0.00005612
     atom   23 type  3   force =     0.00005301    0.00035729    0.00058822
     atom   24 type  3   force =    -0.00046283   -0.00034755   -0.00036586
     atom   25 type  3   force =    -0.00014874    0.00044062    0.00013978
     atom   26 type  3   force =    -0.00040075   -0.00025904   -0.00032125
     atom   27 type  3   force =    -0.00011794    0.00014298    0.00003800
     atom   28 type  3   force =     0.00046600    0.00008935    0.00009995
     atom   29 type  3   force =    -0.00012045   -0.00023449    0.00017723
     atom   30 type  3   force =    -0.00041076   -0.00013508   -0.00048007
     atom   31 type  3   force =    -0.00040354    0.00007563   -0.00023050
     atom   32 type  3   force =    -0.00029452    0.00028373   -0.00006256
     atom   33 type  3   force =    -0.00050507   -0.00010012   -0.00001129
     atom   34 type  3   force =    -0.00060137   -0.00022876   -0.00019001
     atom   35 type  3   force =    -0.00023181   -0.00010690    0.00037478
     atom   36 type  4   force =    -0.00033027   -0.00158971    0.10370956
     atom   37 type  4   force =    -0.00011368    0.00148372    0.11782927
     atom   38 type  4   force =    -0.00038718    0.00606091   -0.16914413
     atom   39 type  4   force =    -0.00011090   -0.00503981   -0.16938893
     atom   40 type  4   force =     0.00030991    0.00007718   -0.00054806
     atom   41 type  4   force =     0.00003978   -0.00019825   -0.00019439
     atom   42 type  4   force =    -0.00017247    0.00082409   -0.00000329
     atom   43 type  4   force =    -0.00019088   -0.00052810    0.00000731
     atom   44 type  4   force =    -0.00006868   -0.00023962    0.00032529
     atom   45 type  4   force =     0.00000685   -0.00019031   -0.00106907
     atom   46 type  4   force =    -0.00034167    0.00031758    0.00055047
     atom   47 type  4   force =    -0.00079139    0.00066319   -0.00004791
     atom   48 type  4   force =     0.00050574   -0.00023425    0.00006333
     atom   49 type  4   force =     0.00058632    0.00014415   -0.00017800
     atom   50 type  4   force =     0.00040823    0.00024023   -0.00043978
     atom   51 type  4   force =     0.00017947   -0.00034853   -0.00060596
     atom   52 type  5   force =    -0.00121568   -0.00092443   -0.00061655
     atom   53 type  5   force =     0.00071847    0.00089541    0.00024494
     atom   54 type  3   force =    -0.01713930    0.00313944    0.00554146
     atom   55 type  2   force =     0.01715784   -0.00235415   -0.00574063

     Total force =     0.370019     Total SCF correction =     0.000737
  @ DRIVER MODE: Message from server: STATUS
  @ DRIVER MODE: Message from server: GETFORCE
  @ DRIVER MODE: Returning v,forces,stress,ensemble

     Writing output data file ./calc.save/
  @ DRIVER MODE: Message from server: EXIT
  @ DRIVE MODE: Exiting

     General routines

     Parallel routines

   This run was terminated on:   6:23:50  24Sep2021

   JOB DONE.