     Program PWSCF v.6.7GPU starts on 24Aug2021 at 12:17: 3

     R & G space division:  proc/nbgrp/npool/nimage =      72
     Reading input from /storage/home/hcoda1/3/ntian30/research/carbon/CH2_vib/ads_slab/CH2_a/out_0008/pw.inp
Warning: card &CELL ignored
Warning: card   CELL_DYNAMICS='IPI', ignored
Warning: card / ignored

     Current dimensions of program PWSCF are:
     Max number of different atomic species (ntypx) = 10
     Max number of k-points (npk) =  40000
     Max angular momentum in pseudopotentials (lmaxx) =  3
     Presently no symmetry can be used with electric field

     Message from routine cell_base_init:
     DEPRECATED: use true lattice parameter, not A to a.u. conversion factor

     IMPORTANT: XC functional enforced from input :
     Exchange-correlation= BEEF-VDW
                           (   1   4  43  14   2   0   0)
     Any further DFT definition will be discarded
     Please, verify this is what you really want

  @ DRIVER MODE: Connecting to
 qe_1139763_2641437.sched-torque.pace.gatech.eduazwr22_y_scratch
  using UNIX socket
  @ DRIVER MODE: Message from server: STATUS
  @ DRIVER MODE: Message from server: INIT
  @ DRIVER MODE: Receiving replica           0          -1
  @ DRIVER MODE: Receiving encoded integer          25
  @ DRIVER MODE:  SCF:  T  FORCE:  T  STRESS:  F  VC:  F  ENSEMBLE:  F
  @ DRIVER MODE:  SCF:  T  FORCE:  T  STRESS:  F  VC:  F  ENSEMBLE:  F

     Using Slab Decomposition

     bravais-lattice index     =            0
     lattice parameter (alat)  =       1.8897  a.u.
     unit-cell volume          =    6658.9804 (a.u.)^3
     number of atoms/cell      =           50
     number of atomic types    =            4
     number of electrons       =       384.00
     number of Kohn-Sham states=          202
     kinetic-energy cutoff     =      29.3995  Ry
     charge density cutoff     =     293.9946  Ry
     scf convergence threshold =      7.3E-08
     mixing beta               =       0.0500
     number of iterations used =            8  plain     mixing
     Exchange-correlation= BEEF-VDW
                           (   1   4  43  14   2   0   0)

     celldm(1)=   1.889726  celldm(2)=   0.000000  celldm(3)=   0.000000
     celldm(4)=   0.000000  celldm(5)=   0.000000  celldm(6)=   0.000000

     crystal axes: (cart. coord. in units of alat)
               a(1) = (   6.579727   0.000000   0.000000 )
               a(2) = (  -0.000775   5.961596   0.000000 )
               a(3) = (   0.000000   0.000000  25.155947 )

     reciprocal axes: (cart. coord. in units 2 pi/alat)
               b(1) = (  0.151982  0.000020  0.000000 )
               b(2) = (  0.000000  0.167740  0.000000 )
               b(3) = (  0.000000  0.000000  0.039752 )

     PseudoPot. # 1 for Ti read from file:
     /storage/coda1/p-amedford6/0/shared/rich_project_chbe-medford/medford-share/data/pseudos_module/espresso/nninc/pbe/van/Ti.UPF
     MD5 check sum: 8e4df49b7f0d34bbd5052bf3f5ea0213
     Pseudo is Ultrasoft, Zval = 12.0
     Generated by new atomic code, or converted to UPF format
     Using radial grid of  851 points,  6 beta functions with:
                l(1) =   0
                l(2) =   0
                l(3) =   1
                l(4) =   1
                l(5) =   2
                l(6) =   2
     Q(r) pseudized with  8 coefficients,  rinner =    1.000   1.000   1.000
                                                       1.000   1.000

     PseudoPot. # 2 for O  read from file:
     /storage/coda1/p-amedford6/0/shared/rich_project_chbe-medford/medford-share/data/pseudos_module/espresso/nninc/pbe/van/O.UPF
     MD5 check sum: 78c19812648e8988a0fe644b0f25305e
     Pseudo is Ultrasoft, Zval =  6.0
     Generated by new atomic code, or converted to UPF format
     Using radial grid of  737 points,  4 beta functions with:
                l(1) =   0
                l(2) =   0
                l(3) =   1
                l(4) =   1
     Q(r) pseudized with  8 coefficients,  rinner =    0.800   0.800   0.800

     PseudoPot. # 3 for C  read from file:
     /storage/coda1/p-amedford6/0/shared/rich_project_chbe-medford/medford-share/data/pseudos_module/espresso/nninc/pbe/van/C.UPF
     MD5 check sum: 1a69bf6b8db32088f5b2163dbdb77a27
     Pseudo is Ultrasoft, Zval =  4.0
     Generated by new atomic code, or converted to UPF format
     Using radial grid of  721 points,  4 beta functions with:
                l(1) =   0
                l(2) =   0
                l(3) =   1
                l(4) =   1
     Q(r) pseudized with  8 coefficients,  rinner =    0.800   0.800   0.800

     PseudoPot. # 4 for H  read from file:
     /storage/coda1/p-amedford6/0/shared/rich_project_chbe-medford/medford-share/data/pseudos_module/espresso/nninc/pbe/van/H.UPF
     MD5 check sum: b5ee9d7bfd3a09ee7748110bda690ff7
     Pseudo is Ultrasoft, Zval =  1.0
     Generated by new atomic code, or converted to UPF format
     Using radial grid of  615 points,  1 beta functions with:
                l(1) =   0
     Q(r) pseudized with  8 coefficients,  rinner =    0.800

     atomic species   valence    mass     pseudopotential
        Ti1           12.00    47.86700     Ti( 1.00)
        O1             6.00    15.99900     O ( 1.00)
        C1             4.00    12.01100     C ( 1.00)
        H1             1.00     1.00800     H ( 1.00)

     No symmetry found

   Cartesian axes

     site n.     atom                  positions (alat units)
         1           Ti1 tau(   1) = (   0.0004258   2.9801865   6.0000000  )
         2           Ti1 tau(   2) = (   3.2906075   1.4906267   6.0002472  )
         3           O1  tau(   3) = (   0.0006271   0.0005054   7.9858123  )
         4           O1  tau(   4) = (   3.2906025   0.0005020   7.3038282  )
         5           O1  tau(   5) = (   4.5942328   1.4918067   9.2879030  )
         6           O1  tau(   6) = (   1.9868534   1.4903216   9.2879459  )
         7           Ti1 tau(   7) = (   3.2756478   2.8760420   9.1630771  )
         8           Ti1 tau(   8) = (   6.5651030   1.4385007   9.3790407  )
         9           O1  tau(   9) = (   3.2651923   0.0045787  11.3553482  )
        10           O1  tau(  10) = (   6.5766178   5.9492394  10.5646413  )
        11           O1  tau(  11) = (   1.2591847   1.4977620  12.6679731  )
        12           O1  tau(  12) = (   5.2482661   1.4982983  12.6347741  )
        13           Ti1 tau(  13) = (   0.0651775   2.9654633  12.8696618  )
        14           Ti1 tau(  14) = (   3.3800656   1.4924449  12.4946823  )
        15           O1  tau(  15) = (   6.5296085   5.9207011  14.6097682  )
        16           O1  tau(  16) = (   3.2682314   0.0147111  13.9481481  )
        17           O1  tau(  17) = (   4.4912147   1.5408453  16.1034427  )
        18           O1  tau(  18) = (   2.0062121   1.5430191  16.1010343  )
        19           Ti1 tau(  19) = (   3.2584153   3.0188911  15.7272741  )
        20           Ti1 tau(  20) = (   6.5595668   1.6180917  16.2090303  )
        21           O1  tau(  21) = (   3.2904802   0.0005063   4.7018136  )
        22           O1  tau(  22) = (   6.5447935   0.0528136  17.2578995  )
        23           O1  tau(  23) = (   1.3043587   1.4918075   6.0039043  )
        24           O1  tau(  24) = (   5.2767064   1.4903225   6.0039473  )
        25           Ti1 tau(  25) = (   0.0000382   5.9609847   6.0000000  )
        26           Ti1 tau(  26) = (   3.2902200   4.4714249   6.0002472  )
        27           O1  tau(  27) = (   0.0002396   2.9813036   7.9858123  )
        28           O1  tau(  28) = (   3.2902150   2.9813002   7.3038282  )
        29           O1  tau(  29) = (   4.5938453   4.4726049   9.2879030  )
        30           O1  tau(  30) = (   1.9864658   4.4711199   9.2879459  )
        31           Ti1 tau(  31) = (   3.2806623   5.8565216   9.1617982  )
        32           Ti1 tau(  32) = (   6.5670484   4.4138833   9.3856844  )
        33           O1  tau(  33) = (   3.2704644   2.9808095  11.3502114  )
        34           O1  tau(  34) = (   6.5770050   2.9672111  10.5601139  )
        35           O1  tau(  35) = (   1.2614422   4.4490125  12.6594447  )
        36           O1  tau(  36) = (   5.2451530   4.4578719  12.6250501  )
        37           Ti1 tau(  37) = (   0.0436288   5.9429386  12.8080954  )
        38           Ti1 tau(  38) = (   3.3780510   4.4695497  12.4860242  )
        39           O1  tau(  39) = (   6.5513063   2.9765972  14.7162787  )
        40           O1  tau(  40) = (   3.2682626   2.9952000  13.9367060  )
        41           O1  tau(  41) = (   4.4851171   4.5114873  16.1027694  )
        42           O1  tau(  42) = (   2.0082088   4.5103763  16.0975713  )
        43           Ti1 tau(  43) = (   3.2690221   0.0357551  15.7449602  )
        44           Ti1 tau(  44) = (   6.5655258   4.6249605  16.1704562  )
        45           O1  tau(  45) = (   3.2900926   2.9813045   4.7018136  )
        46           O1  tau(  46) = (   1.3039711   4.4726057   6.0039043  )
        47           O1  tau(  47) = (   5.2763189   4.4711207   6.0039473  )
        48           C1  tau(  48) = (   6.5259393   3.0234738  17.6125649  )
        49           H1  tau(  49) = (   0.8572112   3.1395175  18.2203151  )
        50           H1  tau(  50) = (   5.6209537   3.1160310  18.2142257  )

     number of k points=    10  Fermi-Dirac smearing, width (Ry)=  0.0073
                       cart. coord. in units 2pi/alat
        k(    1) = (   0.0000000   0.0000000   0.0000000), wk =   0.1250000
        k(    2) = (   0.0000000   0.0419351   0.0000000), wk =   0.2500000
        k(    3) = (   0.0000000  -0.0838702   0.0000000), wk =   0.1250000
        k(    4) = (   0.0379955   0.0000049   0.0000000), wk =   0.2500000
        k(    5) = (   0.0379955   0.0419400   0.0000000), wk =   0.2500000
        k(    6) = (   0.0379955  -0.0838652   0.0000000), wk =   0.2500000
        k(    7) = (   0.0379955  -0.0419301   0.0000000), wk =   0.2500000
        k(    8) = (  -0.0759910  -0.0000099   0.0000000), wk =   0.1250000
        k(    9) = (  -0.0759910   0.0419252   0.0000000), wk =   0.2500000
        k(   10) = (  -0.0759910  -0.0838800   0.0000000), wk =   0.1250000

     Initial potential from superposition of free atoms

     starting charge  367.99919, renormalised to  384.00000

     negative rho (up, down):  2.116E-02 0.000E+00

     %%%%%%%%%%%%%%%%%%%%%%%%%%%%%%%%%%%%%%%%%%%%%%%%%%%%%%%%%%%%%%%%%%%%%%%%
     %                                                                      %
     % You are using vdW-DF, which was implemented by the Thonhauser group. %
     % Please cite the following two papers that made this development      %
     % possible and the two reviews that describe the various versions:     %
     %                                                                      %
     %   T. Thonhauser et al., PRL 115, 136402 (2015).                      %
     %   T. Thonhauser et al., PRB 76, 125112 (2007).                       %
     %   K. Berland et al., Rep. Prog. Phys. 78, 066501 (2015).             %
     %   D.C. Langreth et al., J. Phys.: Condens. Matter 21, 084203 (2009). %
     %                                                                      %
     %                                                                      %
     % If you are calculating the stress with vdW-DF, please also cite:     %
     %                                                                      %
     %   R. Sabatini et al., J. Phys.: Condens. Matter 24, 424209 (2012).   %
     %                                                                      %
     %%%%%%%%%%%%%%%%%%%%%%%%%%%%%%%%%%%%%%%%%%%%%%%%%%%%%%%%%%%%%%%%%%%%%%%%

     Adding external electric field

     Computed dipole along edir(3) :
        Dipole               -0.5194 Ry au,         -1.3201 Debye
        Dipole field         -0.0010 Ry au,

        Potential amp.        0.0909 Ry
        Total length         46.3494 bohr

     Starting wfcs are  290 atomic wfcs
  @ DRIVER MODE: Message from server: STATUS
  @ DRIVER MODE: Message from server: POSDATA
  @ DRIVER MODE: Reading and sharing cell
  @ DRIVER MODE: Reading and sharing positions
  @ DRIVER MODE: Received positions

     Self-consistent Calculation

     iteration #  1     ecut=    29.40 Ry     beta= 0.05
     Davidson diagonalization with overlap
     c_bands:  1 eigenvalues not converged
     c_bands:  2 eigenvalues not converged
     c_bands:  3 eigenvalues not converged
     c_bands:  1 eigenvalues not converged
     c_bands:  1 eigenvalues not converged
     c_bands:  2 eigenvalues not converged
     c_bands:  1 eigenvalues not converged
     c_bands:  2 eigenvalues not converged
     c_bands:  1 eigenvalues not converged
     c_bands:  2 eigenvalues not converged
     ethr =  1.00E-05,  avg # of iterations = 22.0

[...]

     total energy              =   -2899.22636744 Ry
     estimated scf accuracy    <      12.09406968 Ry

     iteration #  2     ecut=    29.40 Ry     beta= 0.05
     Davidson diagonalization with overlap
     ethr =  3.15E-03,  avg # of iterations =  1.0

[...]

     iteration # 72     ecut=    29.40 Ry     beta= 0.05
     Davidson diagonalization with overlap
     c_bands:  1 eigenvalues not converged
     ethr =  1.66E-10,  avg # of iterations =  7.4

[...]

     total energy              =   -2897.72456949 Ry
     estimated scf accuracy    <       0.00000130 Ry

     iteration # 73     ecut=    29.40 Ry     beta= 0.05
     Davidson diagonalization with overlap
     ethr =  1.66E-10,  avg # of iterations =  5.6

     negative rho (up, down):  2.037E-02 0.000E+00

     Adding external electric field

     Computed dipole along edir(3) :
        Dipole                0.2828 Ry au,          0.7189 Debye
        Dipole field          0.0005 Ry au,

        Potential amp.       -0.0495 Ry
        Total length         46.3494 bohr

     End of self-consistent calculation

          k = 0.0000 0.0000 0.0000 ( 18029 PWs)   bands (ev):

   -56.6531 -56.6191 -56.3991 -56.3624 -56.3256 -56.2729 -56.0912 -56.0858
   -56.0519 -55.9844 -55.9588 -55.9205 -55.5525 -55.4717 -55.4378 -55.4273
   -33.0827 -32.9454 -32.9020 -32.8732 -32.8436 -32.7765 -32.7521 -32.7229
   -32.7092 -32.6433 -32.6249 -32.5989 -32.5908 -32.5673 -32.5617 -32.5513
   -32.5482 -32.5305 -32.4591 -32.4538 -32.3872 -32.3491 -32.3375 -32.3258
   -32.3084 -32.3082 -32.2369 -32.2245 -32.2154 -32.1964 -32.1954 -32.1591
   -32.1502 -32.1369 -32.1128 -32.0576 -32.0196 -31.8732 -31.8608 -31.8068
   -31.7952 -31.7715 -31.7463 -31.6915 -31.6065 -31.6044 -31.4945 -31.4743
   -17.0503 -16.8387 -16.6269 -16.4781 -16.3965 -16.3442 -16.0510 -16.0338
   -16.0246 -15.9245 -15.9134 -15.8599 -15.8263 -15.8230 -15.8138 -15.8074
   -15.7719 -15.7290 -15.6972 -15.6618 -15.6289 -15.5949 -15.5042 -15.4657
   -15.4472 -15.3226 -15.2650 -15.2309 -15.0944 -13.9650 -13.8504  -8.3687
    -4.4331  -4.3839  -4.2311  -4.2220  -4.1032  -3.8885  -3.7067  -3.5190
    -3.4875  -3.4581  -3.4522  -3.3485  -3.2955  -3.1851  -3.1840  -3.1526
    -3.1379  -3.1065  -3.0849  -3.0804  -3.0402  -3.0218  -2.9550  -2.9146
    -2.9052  -2.8487  -2.7684  -2.6750  -2.6554  -2.6267  -2.5942  -2.5550
    -2.5376  -2.4386  -2.4324  -2.3670  -2.2322  -2.2095  -2.1615  -2.1331
    -2.1016  -2.0624  -1.9250  -1.7858  -1.7421  -1.7257  -1.6953  -1.6852
    -1.6549  -1.5325  -1.4896  -1.3906  -1.3591  -1.2475  -1.2350  -1.2176
    -1.2019  -1.1717  -1.1029  -1.0754  -1.0405  -0.9584  -0.8977  -0.7676
    -0.7342  -0.7153  -0.6868  -0.6792  -0.6209  -0.5789  -0.5211  -0.5106
    -0.4517  -0.4096  -0.3927  -0.3765  -0.3519  -0.2925  -0.2158  -0.1956
    -0.1325  -0.0948   0.1021   0.1409   0.1687   0.1916   0.2686   0.3017
     0.4789   0.4926   0.5569   0.7597   0.7989   1.1504   1.2298   1.7139
     2.6103   2.7905   2.9856   3.0432   3.0873   3.1670   3.2218   3.2998
     3.3327   3.4542

[...]

          k = 0.0380-0.0419 0.0000 ( 17876 PWs)   bands (ev):

[...]

          k =-0.0760-0.0000 0.0000 ( 17886 PWs)   bands (ev):

[...]

          k =-0.0760-0.0839 0.0000 ( 17948 PWs)   bands (ev):

   -56.6388 -56.6333 -56.3844 -56.3769 -56.3192 -56.2792 -56.0884 -56.0696
   -56.0679 -55.9871 -55.9473 -55.9320 -55.5501 -55.4547 -55.4547 -55.4296
   -32.9023 -32.8977 -32.8906 -32.8838 -32.7984 -32.7938 -32.7531 -32.7467
   -32.6864 -32.6734 -32.6163 -32.6096 -32.5859 -32.5784 -32.5712 -32.5631
   -32.5186 -32.4822 -32.4086 -32.3922 -32.3914 -32.3319 -32.3232 -32.3201
   -32.3079 -32.2932 -32.2880 -32.2844 -32.2623 -32.2534 -32.2342 -32.2177
   -32.1595 -32.1585 -32.1476 -32.1448 -31.9283 -31.8591 -31.8104 -31.7844
   -31.7844 -31.7304 -31.6982 -31.6873 -31.6872 -31.6491 -31.6491 -31.4939
   -16.5194 -16.4922 -16.2737 -16.2601 -16.1504 -16.1477 -16.1355 -16.1344
   -16.0458 -16.0414 -15.9950 -15.9746 -15.9170 -15.9047 -15.8638 -15.8623
   -15.8403 -15.8388 -15.7972 -15.7947 -15.6523 -15.6506 -15.5378 -15.5306
   -15.4930 -15.4511 -15.4110 -15.3984 -15.2347 -13.9526 -13.9522  -8.3706
    -3.8229  -3.7856  -3.4878  -3.4795  -3.2798  -3.2765  -3.2572  -3.2488
    -3.2289  -3.2015  -3.1969  -3.1859  -3.1480  -3.1070  -3.0843  -3.0657
    -3.0548  -3.0471  -3.0424  -3.0415  -3.0214  -3.0022  -2.9869  -2.9624
    -2.9030  -2.8920  -2.8682  -2.8590  -2.7754  -2.6315  -2.5647  -2.5589
    -2.5485  -2.5291  -2.4877  -2.3984  -2.3937  -2.3570  -2.3497  -2.3309
    -2.1375  -2.0730  -2.0696  -2.0076  -1.9788  -1.8751  -1.7287  -1.6951
    -1.6700  -1.6484  -1.5662  -1.5266  -1.5127  -1.4889  -1.4814  -1.4547
    -1.4446  -1.3580  -1.3500  -1.3170  -1.2713  -1.2098  -1.2059  -1.1839
    -1.1633  -1.0644  -0.9958  -0.9796  -0.9653  -0.9234  -0.8553  -0.8036
    -0.7632  -0.6755  -0.6597  -0.3913  -0.3894  -0.2523  -0.2378  -0.1119
    -0.1005  -0.0080   0.0231   0.0668   0.1820   0.1955   0.2003   0.2261
     0.3273   0.3286   0.3642   0.9406   0.9409   1.0063   1.0076   1.9885
     3.0337   3.0506   3.1319   3.1488   3.1534   3.1713   3.2151   3.2176
     3.5119   3.5244

     the Fermi energy is     2.3264 ev

!    total energy              =   -2897.72458138 Ry
     estimated scf accuracy    <       0.00000005 Ry
     smearing contrib. (-TS)   =      -0.00185438 Ry
     internal energy E=F+TS    =   -2897.72272700 Ry

     The total energy is F=E-TS. E is the sum of the following terms:
     one-electron contribution =  -24684.92903039 Ry
     hartree contribution      =   12420.41618917 Ry
     xc contribution           =    -473.85021819 Ry
     ewald contribution        =    9840.64018145 Ry
     electric field correction =       0.00015096 Ry

     convergence has been achieved in  73 iterations

     Forces acting on atoms (cartesian axes, Ry/au):

     atom    1 type  1   force =     0.00029732   -0.00004021    0.14818988
     atom    2 type  1   force =     0.00005576   -0.00032653   -0.17141880
     atom    3 type  2   force =    -0.00004601    0.00265285   -0.05990892
     atom    4 type  2   force =    -0.00032610   -0.00141206    0.04061007
     atom    5 type  2   force =    -0.02536624    0.00094120    0.00494310
     atom    6 type  2   force =     0.02287603    0.00011803    0.00299125
     atom    7 type  1   force =    -0.00051162   -0.00071947   -0.00010522
     atom    8 type  1   force =     0.00074127   -0.00040865    0.00042893
     atom    9 type  2   force =     0.00089583   -0.00028396    0.00031842
     atom   10 type  2   force =    -0.00010520   -0.00000599   -0.00024412
     atom   11 type  2   force =    -0.00015837    0.00003554    0.00014711
     atom   12 type  2   force =     0.00017738    0.00012063    0.00010373
     atom   13 type  1   force =     0.00002874   -0.00100424    0.00035720
     atom   14 type  1   force =    -0.00004884   -0.00114707   -0.00029251
     atom   15 type  2   force =     0.00023430   -0.00030143   -0.00046949
     atom   16 type  2   force =     0.00002448    0.00015287    0.00037964
     atom   17 type  2   force =     0.00112735    0.00011998    0.00030674
     atom   18 type  2   force =    -0.00065167   -0.00022807    0.00028442
     atom   19 type  1   force =     0.00050459   -0.00026635    0.00006651
     atom   20 type  1   force =     0.00022576   -0.00020632    0.00040294
     atom   21 type  2   force =     0.00014195   -0.00010293    0.10274132
     atom   22 type  2   force =     0.00005969   -0.00010469   -0.00029768
     atom   23 type  2   force =    -0.07352837    0.00029580   -0.03460580
     atom   24 type  2   force =     0.07357661    0.00074163   -0.03465663
     atom   25 type  1   force =     0.00007796   -0.00018394    0.14938452
     atom   26 type  1   force =     0.00000057   -0.00105577   -0.17157909
     atom   27 type  2   force =    -0.00006895    0.00191926   -0.05889636
     atom   28 type  2   force =    -0.00039731   -0.00137152    0.04058018
     atom   29 type  2   force =    -0.02528750    0.00191405    0.00523145
     atom   30 type  2   force =     0.02337863    0.00034690    0.00327959
     atom   31 type  1   force =    -0.00048241   -0.00020034   -0.00005600
     atom   32 type  1   force =     0.00062690   -0.00026970    0.00002570
     atom   33 type  2   force =     0.00005239   -0.00037845    0.00039535
     atom   34 type  2   force =     0.00007333   -0.00014761    0.00002647
     atom   35 type  2   force =    -0.00019043   -0.00035631   -0.00036049
     atom   36 type  2   force =     0.00052419   -0.00063161   -0.00015104
     atom   37 type  1   force =     0.00089907    0.00031530   -0.00002827
     atom   38 type  1   force =    -0.00034808   -0.00015395    0.00023695
     atom   39 type  2   force =     0.00006420    0.00009536   -0.00115259
     atom   40 type  2   force =    -0.00000094    0.00030109   -0.00082448
     atom   41 type  2   force =     0.00027235    0.00019006    0.00030451
     atom   42 type  2   force =     0.00035310    0.00055237    0.00026578
     atom   43 type  1   force =     0.00034877    0.00080296   -0.00077240
     atom   44 type  1   force =    -0.00041868    0.00024861    0.00013872
     atom   45 type  2   force =     0.00013801   -0.00009428    0.10270716
     atom   46 type  2   force =    -0.07355565   -0.00012492   -0.03459621
     atom   47 type  2   force =     0.07361331    0.00033853   -0.03467129
     atom   48 type  3   force =     0.00934338    0.00091557    0.00467283
     atom   49 type  4   force =    -0.00991060   -0.00162033   -0.00494070
     atom   50 type  4   force =     0.00066975    0.00002812    0.00050761

     Total force =     0.404602     Total SCF correction =     0.000556
  @ DRIVER MODE: Message from server: STATUS
  @ DRIVER MODE: Message from server: GETFORCE
  @ DRIVER MODE: Returning v,forces,stress,ensemble

     Writing output data file ./calc.save/
  @ DRIVER MODE: Message from server: EXIT
  @ DRIVE MODE: Exiting

     General routines

     Parallel routines

   This run was terminated on:  12:33:48  24Aug2021

   JOB DONE.