     Program PWSCF v.6.7GPU starts on 10Sep2021 at 17:42:57

     R & G space division:  proc/nbgrp/npool/nimage =      10
     Reading input from /storage/home/hcoda1/3/ntian30/research/carbon/CxH_vib/CH2_calc/ads_slab/CH2OH_f/out_0000/pw.inp
Warning: card &CELL ignored
Warning: card   CELL_DYNAMICS='IPI', ignored
Warning: card / ignored

     Current dimensions of program PWSCF are:
     Max number of different atomic species (ntypx) = 10
     Max number of k-points (npk) =  40000
     Max angular momentum in pseudopotentials (lmaxx) =  3
     Presently no symmetry can be used with electric field

     Message from routine cell_base_init:
     DEPRECATED: use true lattice parameter, not A to a.u. conversion factor

     IMPORTANT: XC functional enforced from input :
     Exchange-correlation= BEEF-VDW
                           (   1   4  43  14   2   0   0)
     Any further DFT definition will be discarded
     Please, verify this is what you really want

  @ DRIVER MODE: Connecting to
 qe_1139763_2792042.sched-torque.pace.gatech.eduluwdt785_scratch
  using UNIX socket
  @ DRIVER MODE: Message from server: STATUS
  @ DRIVER MODE: Message from server: INIT
  @ DRIVER MODE: Receiving replica           0          -1
  @ DRIVER MODE: Receiving encoded integer          25
  @ DRIVER MODE:  SCF:  T  FORCE:  T  STRESS:  F  VC:  F  ENSEMBLE:  F
  @ DRIVER MODE:  SCF:  T  FORCE:  T  STRESS:  F  VC:  F  ENSEMBLE:  F

     Using Slab Decomposition

     bravais-lattice index     =            0
     lattice parameter (alat)  =       1.8897  a.u.
     unit-cell volume          =    6658.9804 (a.u.)^3
     number of atoms/cell      =           52
     number of atomic types    =            4
     number of electrons       =       391.00
     number of Kohn-Sham states=          205
     kinetic-energy cutoff     =      29.3995  Ry
     charge density cutoff     =     293.9946  Ry
     scf convergence threshold =      7.3E-08
     mixing beta               =       0.0500
     number of iterations used =            8  plain     mixing
     Exchange-correlation= BEEF-VDW
                           (   1   4  43  14   2   0   0)

     celldm(1)=   1.889726  celldm(2)=   0.000000  celldm(3)=   0.000000
     celldm(4)=   0.000000  celldm(5)=   0.000000  celldm(6)=   0.000000

     crystal axes: (cart. coord. in units of alat)
               a(1) = (   6.579727   0.000000   0.000000 )
               a(2) = (  -0.000775   5.961596   0.000000 )
               a(3) = (   0.000000   0.000000  25.155947 )

     reciprocal axes: (cart. coord. in units 2 pi/alat)
               b(1) = (  0.151982  0.000020  0.000000 )
               b(2) = (  0.000000  0.167740  0.000000 )
               b(3) = (  0.000000  0.000000  0.039752 )

     PseudoPot. # 1 for O  read from file:
     /storage/coda1/p-amedford6/0/shared/rich_project_chbe-medford/medford-share/data/pseudos_module/espresso/nninc/pbe/van/O.UPF
     MD5 check sum: 78c19812648e8988a0fe644b0f25305e
     Pseudo is Ultrasoft, Zval =  6.0
     Generated by new atomic code, or converted to UPF format
     Using radial grid of  737 points,  4 beta functions with:
                l(1) =   0
                l(2) =   0
                l(3) =   1
                l(4) =   1
     Q(r) pseudized with  8 coefficients,  rinner =    0.800   0.800   0.800

     PseudoPot. # 2 for Ti read from file:
     /storage/coda1/p-amedford6/0/shared/rich_project_chbe-medford/medford-share/data/pseudos_module/espresso/nninc/pbe/van/Ti.UPF
     MD5 check sum: 8e4df49b7f0d34bbd5052bf3f5ea0213
     Pseudo is Ultrasoft, Zval = 12.0
     Generated by new atomic code, or converted to UPF format
     Using radial grid of  851 points,  6 beta functions with:
                l(1) =   0
                l(2) =   0
                l(3) =   1
                l(4) =   1
                l(5) =   2
                l(6) =   2
     Q(r) pseudized with  8 coefficients,  rinner =    1.000   1.000   1.000
                                                       1.000   1.000

     PseudoPot. # 3 for H  read from file:
     /storage/coda1/p-amedford6/0/shared/rich_project_chbe-medford/medford-share/data/pseudos_module/espresso/nninc/pbe/van/H.UPF
     MD5 check sum: b5ee9d7bfd3a09ee7748110bda690ff7
     Pseudo is Ultrasoft, Zval =  1.0
     Generated by new atomic code, or converted to UPF format
     Using radial grid of  615 points,  1 beta functions with:
                l(1) =   0
     Q(r) pseudized with  8 coefficients,  rinner =    0.800

     PseudoPot. # 4 for C  read from file:
     /storage/coda1/p-amedford6/0/shared/rich_project_chbe-medford/medford-share/data/pseudos_module/espresso/nninc/pbe/van/C.UPF
     MD5 check sum: 1a69bf6b8db32088f5b2163dbdb77a27
     Pseudo is Ultrasoft, Zval =  4.0
     Generated by new atomic code, or converted to UPF format
     Using radial grid of  721 points,  4 beta functions with:
                l(1) =   0
                l(2) =   0
                l(3) =   1
                l(4) =   1
     Q(r) pseudized with  8 coefficients,  rinner =    0.800   0.800   0.800

     atomic species   valence    mass     pseudopotential
        O1             6.00    15.99900     O ( 1.00)
        Ti1           12.00    47.86700     Ti( 1.00)
        H1             1.00     1.00800     H ( 1.00)
        C1             4.00    12.01100     C ( 1.00)

     No symmetry found

   Cartesian axes

     site n.     atom                  positions (alat units)
         1           O1  tau(   1) = (   3.2904802   0.0005063   4.7018136  )
         2           O1  tau(   2) = (   3.2900926   2.9813045   4.7018136  )
         3           Ti1 tau(   3) = (   0.0004258   2.9801865   6.0000000  )
         4           Ti1 tau(   4) = (   0.0000382   5.9609847   6.0000000  )
         5           Ti1 tau(   5) = (   3.2906075   1.4906267   6.0002472  )
         6           Ti1 tau(   6) = (   3.2902200   4.4714249   6.0002472  )
         7           O1  tau(   7) = (   1.3043587   1.4918075   6.0039043  )
         8           O1  tau(   8) = (   1.3039711   4.4726057   6.0039043  )
         9           O1  tau(   9) = (   5.2767064   1.4903225   6.0039473  )
        10           O1  tau(  10) = (   5.2763189   4.4711207   6.0039473  )
        11           O1  tau(  11) = (   3.2906025   0.0005020   7.3038282  )
        12           O1  tau(  12) = (   3.2902150   2.9813002   7.3038282  )
        13           O1  tau(  13) = (   0.0006271   0.0005054   7.9858123  )
        14           O1  tau(  14) = (   0.0002396   2.9813036   7.9858123  )
        15           Ti1 tau(  15) = (   3.3208325   5.9232416   9.1783542  )
        16           Ti1 tau(  16) = (   3.3324863   2.9377666   9.1648094  )
        17           Ti1 tau(  17) = (   0.0524917   1.4788520   9.2606301  )
        18           Ti1 tau(  18) = (   0.0483789   4.4105323   9.3105966  )
        19           O1  tau(  19) = (   4.5942328   1.4918067   9.2879030  )
        20           O1  tau(  20) = (   4.5938453   4.4726049   9.2879030  )
        21           O1  tau(  21) = (   1.9868534   1.4903216   9.2879459  )
        22           O1  tau(  22) = (   1.9864658   4.4711199   9.2879459  )
        23           O1  tau(  23) = (   6.5712937   0.0017758  10.5841540  )
        24           O1  tau(  24) = (   0.0002036   2.9871675  10.5944109  )
        25           O1  tau(  25) = (   3.2216619   2.9970402  11.3379169  )
        26           O1  tau(  26) = (   3.2239595   0.0054171  11.3328765  )
        27           Ti1 tau(  27) = (   6.5319223   0.0329622  12.4533321  )
        28           Ti1 tau(  28) = (   3.1914638   1.6317768  12.6145244  )
        29           Ti1 tau(  29) = (   3.1843358   4.5420783  12.4476223  )
        30           Ti1 tau(  30) = (   6.4449355   3.0101977  12.6586491  )
        31           O1  tau(  31) = (   5.2440064   1.5124744  12.5792363  )
        32           O1  tau(  32) = (   5.2402295   4.4617308  12.5795526  )
        33           O1  tau(  33) = (   1.2196697   1.4730338  12.6667888  )
        34           O1  tau(  34) = (   1.2190574   4.4979232  12.6669875  )
        35           O1  tau(  35) = (   3.2067865   2.9341989  13.9395670  )
        36           O1  tau(  36) = (   3.3440650   5.9513154  13.9008253  )
        37           O1  tau(  37) = (   6.3267833   5.9539684  14.6370341  )
        38           O1  tau(  38) = (   6.3913104   2.9714873  14.7475579  )
        39           Ti1 tau(  39) = (   3.1260420   2.9476348  15.9752747  )
        40           Ti1 tau(  40) = (   3.1986908   5.9292636  15.6746755  )
        41           Ti1 tau(  41) = (   6.4744102   1.3498976  15.9078779  )
        42           Ti1 tau(  42) = (   6.4721656   4.5656371  15.8700466  )
        43           O1  tau(  43) = (   1.8677001   4.5604514  15.8157410  )
        44           O1  tau(  44) = (   1.8686447   1.3618557  15.8396546  )
        45           O1  tau(  45) = (   4.4008848   1.5192286  16.2292034  )
        46           O1  tau(  46) = (   4.3978686   4.4066597  16.2143399  )
        47           O1  tau(  47) = (   6.4830960   5.9408203  17.1431429  )
        48           O1  tau(  48) = (   0.4828407   2.9769521  17.4917737  )
        49           H1  tau(  49) = (   6.5026766   3.0145448  18.2851392  )
        50           C1  tau(  50) = (   1.9555054   2.9805414  17.9097346  )
        51           H1  tau(  51) = (   2.0761010   2.0893267  18.5304525  )
        52           H1  tau(  52) = (   2.0801140   3.8867162  18.5073456  )

     number of k points=    10  Fermi-Dirac smearing, width (Ry)=  0.0073
                       cart. coord. in units 2pi/alat
        k(    1) = (   0.0000000   0.0000000   0.0000000), wk =   0.1250000
        k(    2) = (   0.0000000   0.0419351   0.0000000), wk =   0.2500000
        k(    3) = (   0.0000000  -0.0838702   0.0000000), wk =   0.1250000
        k(    4) = (   0.0379955   0.0000049   0.0000000), wk =   0.2500000
        k(    5) = (   0.0379955   0.0419400   0.0000000), wk =   0.2500000
        k(    6) = (   0.0379955  -0.0838652   0.0000000), wk =   0.2500000
        k(    7) = (   0.0379955  -0.0419301   0.0000000), wk =   0.2500000
        k(    8) = (  -0.0759910  -0.0000099   0.0000000), wk =   0.1250000
        k(    9) = (  -0.0759910   0.0419252   0.0000000), wk =   0.2500000
        k(   10) = (  -0.0759910  -0.0838800   0.0000000), wk =   0.1250000

     Initial potential from superposition of free atoms

     starting charge  374.99918, renormalised to  391.00000

     negative rho (up, down):  1.928E-02 0.000E+00

     %%%%%%%%%%%%%%%%%%%%%%%%%%%%%%%%%%%%%%%%%%%%%%%%%%%%%%%%%%%%%%%%%%%%%%%%
     %                                                                      %
     % You are using vdW-DF, which was implemented by the Thonhauser group. %
     % Please cite the following two papers that made this development      %
     % possible and the two reviews that describe the various versions:     %
     %                                                                      %
     %   T. Thonhauser et al., PRL 115, 136402 (2015).                      %
     %   T. Thonhauser et al., PRB 76, 125112 (2007).                       %
     %   K. Berland et al., Rep. Prog. Phys. 78, 066501 (2015).             %
     %   D.C. Langreth et al., J. Phys.: Condens. Matter 21, 084203 (2009). %
     %                                                                      %
     %                                                                      %
     % If you are calculating the stress with vdW-DF, please also cite:     %
     %                                                                      %
     %   R. Sabatini et al., J. Phys.: Condens. Matter 24, 424209 (2012).   %
     %                                                                      %
     %%%%%%%%%%%%%%%%%%%%%%%%%%%%%%%%%%%%%%%%%%%%%%%%%%%%%%%%%%%%%%%%%%%%%%%%

     Adding external electric field

     Computed dipole along edir(3) :
        Dipole               -5.2494 Ry au,        -13.3426 Debye
        Dipole field         -0.0099 Ry au,

        Potential amp.        0.9183 Ry
        Total length         46.3494 bohr

     Starting wfcs are  295 atomic wfcs
  @ DRIVER MODE: Message from server: STATUS
  @ DRIVER MODE: Message from server: POSDATA
  @ DRIVER MODE: Reading and sharing cell
  @ DRIVER MODE: Reading and sharing positions
  @ DRIVER MODE: Received positions

     Self-consistent Calculation

     iteration #  1     ecut=    29.40 Ry     beta= 0.05
     Davidson diagonalization with overlap
     ethr =  1.00E-02,  avg # of iterations =  2.2

[...]

     total energy              =   -2802.50830000 Ry
     estimated scf accuracy    <    1413.32319042 Ry

[...]

     iteration #  3     ecut=    29.40 Ry     beta= 0.05
     Davidson diagonalization with overlap
     c_bands:  1 eigenvalues not converged
     c_bands:  1 eigenvalues not converged
     ethr =  1.00E-02,  avg # of iterations = 15.5

[...]

     iteration # 76     ecut=    29.40 Ry     beta= 0.05
     Davidson diagonalization with overlap
     c_bands:  1 eigenvalues not converged
     c_bands:  2 eigenvalues not converged
     c_bands:  1 eigenvalues not converged
     ethr =  6.95E-08,  avg # of iterations = 15.9

[...]

     total energy              =   -2931.32930879 Ry
     estimated scf accuracy    <       0.00000013 Ry

     iteration # 93     ecut=    29.40 Ry     beta= 0.05
     Davidson diagonalization with overlap
     ethr =  2.41E-11,  avg # of iterations =  8.2

     negative rho (up, down):  1.889E-02 0.000E+00

     Adding external electric field

     Computed dipole along edir(3) :
        Dipole                0.9519 Ry au,          2.4196 Debye
        Dipole field          0.0018 Ry au,

        Potential amp.       -0.1665 Ry
        Total length         46.3494 bohr

     End of self-consistent calculation

          k = 0.0000 0.0000 0.0000 ( 18029 PWs)   bands (ev):

   -55.8496 -55.8120 -55.7579 -55.7456 -55.6922 -55.6844 -55.6695 -55.6650
   -55.6344 -55.6155 -55.6138 -55.5881 -55.5812 -55.5646 -54.8243 -54.7903
   -32.3598 -32.3239 -32.2334 -32.2042 -32.1586 -32.1336 -32.1217 -32.0967
   -32.0882 -32.0611 -32.0350 -32.0129 -32.0044 -31.9916 -31.9646 -31.9570
   -31.9458 -31.9347 -31.9160 -31.9137 -31.9090 -31.9035 -31.8757 -31.8575
   -31.8521 -31.8491 -31.8475 -31.8375 -31.8312 -31.8218 -31.8130 -31.8106
   -31.8007 -31.7882 -31.7845 -31.7840 -31.7705 -31.7647 -31.7478 -31.7363
   -31.7170 -31.6439 -31.2316 -31.1421 -31.1196 -31.0485 -30.9623 -30.8508
   -19.5435 -16.5534 -16.3375 -16.1508 -16.0518 -16.0012 -15.8327 -15.7504
   -15.5403 -15.4878 -15.4762 -15.4498 -15.3939 -15.3773 -15.3709 -15.3521
   -15.3407 -15.3155 -15.2560 -15.2471 -15.2390 -15.2040 -15.1465 -15.1169
   -14.9896 -14.9807 -14.9650 -14.9462 -14.8624 -14.7329 -13.3245 -13.2076
    -9.6113  -6.4438  -4.1999  -4.0007  -3.8647  -3.7676  -3.7523  -3.7312
    -3.5697  -3.4953  -3.2708  -3.1386  -3.0876  -3.0203  -2.9800  -2.9182
    -2.8257  -2.7631  -2.7213  -2.6811  -2.6476  -2.6462  -2.6304  -2.5763
    -2.5465  -2.5023  -2.4006  -2.3979  -2.3461  -2.2892  -2.2492  -2.2074
    -2.1660  -2.1504  -2.1299  -2.0934  -2.0601  -2.0500  -2.0177  -1.9874
    -1.9305  -1.8500  -1.8203  -1.5580  -1.4660  -1.3808  -1.3675  -1.2998
    -1.2761  -1.2467  -1.2319  -1.1928  -1.1807  -1.0937  -1.0847  -1.0123
    -0.9710  -0.8900  -0.8296  -0.7528  -0.6900  -0.6307  -0.6092  -0.5797
    -0.5640  -0.5541  -0.3933  -0.3817  -0.3544  -0.2438  -0.2277  -0.1630
    -0.1395  -0.0771  -0.0540   0.0110   0.0690   0.0907   0.1125   0.1487
     0.1591   0.1712   0.2136   0.2954   0.3853   0.3990   0.4164   0.4795
     0.6452   0.7188   0.8227   0.8866   1.1249   1.2004   1.2376   1.2830
     1.3867   1.7742   1.8272   3.2982   3.3675   3.4155   3.4258   3.4647
     3.5467   3.7368   3.7449   3.8032   3.8861

[...]

          k = 0.0380-0.0419 0.0000 ( 17876 PWs)   bands (ev):

[...]

          k =-0.0760-0.0000 0.0000 ( 17886 PWs)   bands (ev):

[...]

          k =-0.0760-0.0839 0.0000 ( 17948 PWs)   bands (ev):

   -55.8388 -55.8227 -55.7536 -55.7390 -55.6987 -55.6883 -55.6661 -55.6595
   -55.6262 -55.6211 -55.5990 -55.5971 -55.5956 -55.5671 -54.8074 -54.8071
   -32.2826 -32.1474 -32.1361 -32.1318 -32.1084 -32.0843 -32.0798 -32.0522
   -32.0205 -32.0033 -31.9934 -31.9897 -31.9765 -31.9670 -31.9651 -31.9601
   -31.9592 -31.9514 -31.9486 -31.9331 -31.9306 -31.9228 -31.9001 -31.8967
   -31.8925 -31.8858 -31.8843 -31.8744 -31.8661 -31.8598 -31.8463 -31.8435
   -31.8336 -31.8248 -31.8229 -31.8131 -31.8102 -31.8080 -31.8060 -31.7942
   -31.7903 -31.6454 -31.1325 -31.1321 -31.0450 -31.0440 -31.0056 -31.0049
   -19.5376 -16.1427 -15.9584 -15.8043 -15.7906 -15.7848 -15.6331 -15.6295
   -15.6047 -15.5683 -15.5351 -15.5172 -15.4794 -15.4752 -15.4319 -15.3804
   -15.3740 -15.3619 -15.3354 -15.2843 -15.2720 -15.2570 -15.1802 -15.1692
   -15.1610 -15.1346 -15.1319 -15.1003 -15.0997 -15.0261 -13.3113 -13.3074
    -9.6117  -6.4272  -4.2061  -3.8659  -3.2829  -3.2096  -3.0170  -3.0021
    -2.9276  -2.8927  -2.8669  -2.8268  -2.7764  -2.7694  -2.7547  -2.6804
    -2.6564  -2.6519  -2.6073  -2.5943  -2.5839  -2.5675  -2.5539  -2.5166
    -2.4934  -2.4691  -2.4460  -2.4308  -2.4089  -2.4002  -2.3955  -2.3503
    -2.3296  -2.2094  -2.1183  -2.0554  -2.0094  -1.9682  -1.9422  -1.9234
    -1.9057  -1.8911  -1.8781  -1.8380  -1.7694  -1.6038  -1.5248  -1.5198
    -1.4569  -1.4370  -1.3849  -1.3663  -1.2903  -1.2621  -1.2121  -1.1988
    -1.1831  -1.0801  -1.0565  -0.9629  -0.9309  -0.8249  -0.8015  -0.7882
    -0.7690  -0.7275  -0.7052  -0.6419  -0.6188  -0.5812  -0.5537  -0.5029
    -0.4577  -0.4409  -0.3433  -0.3020  -0.2484  -0.2012  -0.1347  -0.0250
     0.1536   0.1757   0.2111   0.3155   0.3545   0.4259   0.4824   0.5008
     0.5648   0.6012   0.6455   0.6945   0.7576   0.7941   1.2455   1.5619
     1.5705   1.6350   1.6466   3.6005   3.6496   3.7692   3.7822   3.8120
     3.8227   3.8358   3.8510   3.9003   3.9568

     the Fermi energy is     3.2915 ev

!    total energy              =   -2931.32931169 Ry
     estimated scf accuracy    <       0.00000004 Ry
     smearing contrib. (-TS)   =      -0.02172910 Ry
     internal energy E=F+TS    =   -2931.30758260 Ry

     The total energy is F=E-TS. E is the sum of the following terms:
     one-electron contribution =  -24944.47946010 Ry
     hartree contribution      =   12558.64905590 Ry
     xc contribution           =    -482.04127430 Ry
     ewald contribution        =    9936.56238578 Ry
     electric field correction =       0.00171012 Ry

     convergence has been achieved in  93 iterations

     Forces acting on atoms (cartesian axes, Ry/au):

     atom    1 type  1   force =    -0.00001285    0.00009924    0.10312476
     atom    2 type  1   force =     0.00000448    0.00011301    0.10345831
     atom    3 type  2   force =    -0.00029338    0.00098713    0.09591800
     atom    4 type  2   force =    -0.00015098   -0.00099919    0.10944831
     atom    5 type  2   force =    -0.00015004   -0.00319018   -0.17643564
     atom    6 type  2   force =    -0.00014246    0.00267201   -0.17604064
     atom    7 type  1   force =    -0.07085861    0.00113721   -0.02854485
     atom    8 type  1   force =    -0.07120426   -0.00152692   -0.02857168
     atom    9 type  1   force =     0.07070376    0.00155313   -0.02857353
     atom   10 type  1   force =     0.07092512   -0.00114896   -0.02861980
     atom   11 type  1   force =     0.00048690   -0.00020890    0.05105497
     atom   12 type  1   force =     0.00072366   -0.00042181    0.05032587
     atom   13 type  1   force =     0.00061355    0.00264748   -0.02980262
     atom   14 type  1   force =     0.00055719   -0.00111950   -0.02627838
     atom   15 type  2   force =     0.00019273   -0.00146018   -0.00051252
     atom   16 type  2   force =    -0.00010945    0.00156752   -0.00010290
     atom   17 type  2   force =    -0.00008293   -0.00003688    0.00029402
     atom   18 type  2   force =     0.00008737    0.00060258    0.00040442
     atom   19 type  1   force =    -0.01648301    0.00013029    0.00404804
     atom   20 type  1   force =    -0.01693343   -0.00138040    0.00404470
     atom   21 type  1   force =     0.01271627    0.00185567    0.00029083
     atom   22 type  1   force =     0.01236456    0.00142571    0.00045483
     atom   23 type  1   force =     0.00020210   -0.00009395   -0.00059359
     atom   24 type  1   force =     0.00017343   -0.00040833   -0.00046627
     atom   25 type  1   force =     0.00035483   -0.00003557   -0.00002252
     atom   26 type  1   force =     0.00007029   -0.00044571   -0.00067809
     atom   27 type  2   force =    -0.00002083   -0.00059332   -0.00026693
     atom   28 type  2   force =     0.00016585    0.00006097   -0.00030245
     atom   29 type  2   force =    -0.00011943   -0.00111352    0.00031172
     atom   30 type  2   force =     0.00035066    0.00034690    0.00018623
     atom   31 type  1   force =     0.00014728    0.00005688   -0.00006690
     atom   32 type  1   force =    -0.00009593   -0.00034502    0.00039558
     atom   33 type  1   force =     0.00022812   -0.00016671   -0.00012949
     atom   34 type  1   force =     0.00049685   -0.00037754    0.00025801
     atom   35 type  1   force =    -0.00011364    0.00015000    0.00179925
     atom   36 type  1   force =     0.00035327    0.00014323    0.00035591
     atom   37 type  1   force =     0.00014474   -0.00000224   -0.00005791
     atom   38 type  1   force =     0.00043938   -0.00037954    0.00014564
     atom   39 type  2   force =     0.00042802    0.00133496   -0.00082402
     atom   40 type  2   force =     0.00045139   -0.00028108    0.00004102
     atom   41 type  2   force =     0.00006623   -0.00073710    0.00037952
     atom   42 type  2   force =     0.00020903    0.00048095   -0.00005509
     atom   43 type  1   force =     0.00095234    0.00011278    0.00001833
     atom   44 type  1   force =     0.00061152   -0.00011085    0.00004488
     atom   45 type  1   force =     0.00013972   -0.00001925    0.00005549
     atom   46 type  1   force =     0.00041547   -0.00027345    0.00022605
     atom   47 type  1   force =     0.00052393    0.00042088   -0.00036877
     atom   48 type  1   force =     0.00011321   -0.00009188   -0.00000112
     atom   49 type  3   force =     0.00017826   -0.00047707    0.00002860
     atom   50 type  4   force =    -0.00046251   -0.00056315    0.00024972
     atom   51 type  3   force =     0.00038953   -0.00000147    0.00006597
     atom   52 type  3   force =     0.00025271    0.00011119   -0.00011327

     Total force =     0.368394     Total SCF correction =     0.000671
  @ DRIVER MODE: Message from server: STATUS
  @ DRIVER MODE: Message from server: GETFORCE
  @ DRIVER MODE: Returning v,forces,stress,ensemble

     Writing output data file ./calc.save/
  @ DRIVER MODE: Message from server: EXIT
  @ DRIVE MODE: Exiting

     General routines

     Parallel routines

   This run was terminated on:  18: 5:33  10Sep2021

   JOB DONE.