     Program PWSCF v.6.7GPU starts on  9Sep2021 at  9:13:29

     R & G space division:  proc/nbgrp/npool/nimage =      10
     Reading input from /storage/home/hcoda1/3/ntian30/research/carbon/CxH_vib/CH2_calc/ads_slab/CH2NNHHH_a/out_0034/pw.inp
Warning: card &CELL ignored
Warning: card   CELL_DYNAMICS='IPI', ignored
Warning: card / ignored

     Current dimensions of program PWSCF are:
     Max number of different atomic species (ntypx) = 10
     Max number of k-points (npk) =  40000
     Max angular momentum in pseudopotentials (lmaxx) =  3
     Presently no symmetry can be used with electric field

     Message from routine cell_base_init:
     DEPRECATED: use true lattice parameter, not A to a.u. conversion factor

     IMPORTANT: XC functional enforced from input :
     Exchange-correlation= BEEF-VDW
                           (   1   4  43  14   2   0   0)
     Any further DFT definition will be discarded
     Please, verify this is what you really want

  @ DRIVER MODE: Connecting to
 qe_1139763_2767390.sched-torque.pace.gatech.eduy87sze1v_scratch
  using UNIX socket
  @ DRIVER MODE: Message from server: STATUS
  @ DRIVER MODE: Message from server: INIT
  @ DRIVER MODE: Receiving replica           0          -1
  @ DRIVER MODE: Receiving encoded integer          25
  @ DRIVER MODE:  SCF:  T  FORCE:  T  STRESS:  F  VC:  F  ENSEMBLE:  F
  @ DRIVER MODE:  SCF:  T  FORCE:  T  STRESS:  F  VC:  F  ENSEMBLE:  F

     Using Slab Decomposition

     bravais-lattice index     =            0
     lattice parameter (alat)  =       1.8897  a.u.
     unit-cell volume          =    6658.9804 (a.u.)^3
     number of atoms/cell      =           55
     number of atomic types    =            5
     number of electrons       =       397.00
     number of Kohn-Sham states=          208
     kinetic-energy cutoff     =      29.3995  Ry
     charge density cutoff     =     293.9946  Ry
     scf convergence threshold =      7.3E-08
     mixing beta               =       0.0500
     number of iterations used =            8  plain     mixing
     Exchange-correlation= BEEF-VDW
                           (   1   4  43  14   2   0   0)

     celldm(1)=   1.889726  celldm(2)=   0.000000  celldm(3)=   0.000000
     celldm(4)=   0.000000  celldm(5)=   0.000000  celldm(6)=   0.000000

     crystal axes: (cart. coord. in units of alat)
               a(1) = (   6.579727   0.000000   0.000000 )
               a(2) = (  -0.000775   5.961596   0.000000 )
               a(3) = (   0.000000   0.000000  25.155947 )

     reciprocal axes: (cart. coord. in units 2 pi/alat)
               b(1) = (  0.151982  0.000020  0.000000 )
               b(2) = (  0.000000  0.167740  0.000000 )
               b(3) = (  0.000000  0.000000  0.039752 )

     PseudoPot. # 1 for Ti read from file:
     /storage/coda1/p-amedford6/0/shared/rich_project_chbe-medford/medford-share/data/pseudos_module/espresso/nninc/pbe/van/Ti.UPF
     MD5 check sum: 8e4df49b7f0d34bbd5052bf3f5ea0213
     Pseudo is Ultrasoft, Zval = 12.0
     Generated by new atomic code, or converted to UPF format
     Using radial grid of  851 points,  6 beta functions with:
                l(1) =   0
                l(2) =   0
                l(3) =   1
                l(4) =   1
                l(5) =   2
                l(6) =   2
     Q(r) pseudized with  8 coefficients,  rinner =    1.000   1.000   1.000
                                                       1.000   1.000

     PseudoPot. # 2 for O  read from file:
     /storage/coda1/p-amedford6/0/shared/rich_project_chbe-medford/medford-share/data/pseudos_module/espresso/nninc/pbe/van/O.UPF
     MD5 check sum: 78c19812648e8988a0fe644b0f25305e
     Pseudo is Ultrasoft, Zval =  6.0
     Generated by new atomic code, or converted to UPF format
     Using radial grid of  737 points,  4 beta functions with:
                l(1) =   0
                l(2) =   0
                l(3) =   1
                l(4) =   1
     Q(r) pseudized with  8 coefficients,  rinner =    0.800   0.800   0.800

     PseudoPot. # 3 for N  read from file:
     /storage/coda1/p-amedford6/0/shared/rich_project_chbe-medford/medford-share/data/pseudos_module/espresso/nninc/pbe/van/N.UPF
     MD5 check sum: 90d10febe142ad51ac9d5be1deb811c4
     Pseudo is Ultrasoft, Zval =  5.0
     Generated by new atomic code, or converted to UPF format
     Using radial grid of  729 points,  4 beta functions with:
                l(1) =   0
                l(2) =   0
                l(3) =   1
                l(4) =   1
     Q(r) pseudized with  8 coefficients,  rinner =    0.800   0.800   0.800

     PseudoPot. # 4 for C  read from file:
     /storage/coda1/p-amedford6/0/shared/rich_project_chbe-medford/medford-share/data/pseudos_module/espresso/nninc/pbe/van/C.UPF
     MD5 check sum: 1a69bf6b8db32088f5b2163dbdb77a27
     Pseudo is Ultrasoft, Zval =  4.0
     Generated by new atomic code, or converted to UPF format
     Using radial grid of  721 points,  4 beta functions with:
                l(1) =   0
                l(2) =   0
                l(3) =   1
                l(4) =   1
     Q(r) pseudized with  8 coefficients,  rinner =    0.800   0.800   0.800

     PseudoPot. # 5 for H  read from file:
     /storage/coda1/p-amedford6/0/shared/rich_project_chbe-medford/medford-share/data/pseudos_module/espresso/nninc/pbe/van/H.UPF
     MD5 check sum: b5ee9d7bfd3a09ee7748110bda690ff7
     Pseudo is Ultrasoft, Zval =  1.0
     Generated by new atomic code, or converted to UPF format
     Using radial grid of  615 points,  1 beta functions with:
                l(1) =   0
     Q(r) pseudized with  8 coefficients,  rinner =    0.800

     atomic species   valence    mass     pseudopotential
        Ti1           12.00    47.86700     Ti( 1.00)
        O1             6.00    15.99900     O ( 1.00)
        N1             5.00    14.00700     N ( 1.00)
        C1             4.00    12.01100     C ( 1.00)
        H1             1.00     1.00800     H ( 1.00)

     No symmetry found

   Cartesian axes

     site n.     atom                  positions (alat units)
         1           Ti1 tau(   1) = (   0.0004258   2.9801865   6.0000000  )
         2           Ti1 tau(   2) = (   3.2906075   1.4906267   6.0002472  )
         3           O1  tau(   3) = (   0.0006271   0.0005054   7.9858123  )
         4           O1  tau(   4) = (   3.2906025   0.0005020   7.3038282  )
         5           O1  tau(   5) = (   4.5942328   1.4918067   9.2879030  )
         6           O1  tau(   6) = (   1.9868534   1.4903216   9.2879459  )
         7           Ti1 tau(   7) = (   3.2907910   2.8959150   9.1758416  )
         8           Ti1 tau(   8) = (   0.0015273   1.4827037   9.2680791  )
         9           O1  tau(   9) = (   3.2797308   5.9473376  11.3602069  )
        10           O1  tau(  10) = (   0.0116148   5.9584955  10.6183126  )
        11           O1  tau(  11) = (   1.2902197   1.4970218  12.6485984  )
        12           O1  tau(  12) = (   5.2825647   1.4998509  12.6204812  )
        13           Ti1 tau(  13) = (   6.5707130   2.9731531  12.5352273  )
        14           Ti1 tau(  14) = (   3.2824754   1.4851695  12.4964603  )
        15           O1  tau(  15) = (   6.5335774   0.0914421  14.6722524  )
        16           O1  tau(  16) = (   3.3157438   0.0180770  13.9903400  )
        17           O1  tau(  17) = (   4.5084513   1.5196572  16.2619966  )
        18           O1  tau(  18) = (   2.0062152   1.4815140  16.1839734  )
        19           Ti1 tau(  19) = (   3.2259906   2.9465836  15.7211513  )
        20           Ti1 tau(  20) = (   6.5090593   1.4075841  16.1508600  )
        21           O1  tau(  21) = (   3.2904802   0.0005063   4.7018136  )
        22           O1  tau(  22) = (   6.5630310   5.8123487  17.2302531  )
        23           O1  tau(  23) = (   1.3043587   1.4918075   6.0039043  )
        24           O1  tau(  24) = (   5.2767064   1.4903225   6.0039473  )
        25           Ti1 tau(  25) = (   0.0000382   5.9609847   6.0000000  )
        26           Ti1 tau(  26) = (   3.2902200   4.4714249   6.0002472  )
        27           O1  tau(  27) = (   0.0002396   2.9813036   7.9858123  )
        28           O1  tau(  28) = (   3.2902150   2.9813002   7.3038282  )
        29           O1  tau(  29) = (   4.5938453   4.4726049   9.2879030  )
        30           O1  tau(  30) = (   1.9864658   4.4711199   9.2879459  )
        31           Ti1 tau(  31) = (   3.2891106   5.8743827   9.1763621  )
        32           Ti1 tau(  32) = (   0.0006254   4.4649316   9.2693709  )
        33           O1  tau(  33) = (   3.2783824   2.9878764  11.3535400  )
        34           O1  tau(  34) = (   0.0092240   2.9805883  10.6323155  )
        35           O1  tau(  35) = (   1.2857266   4.4729298  12.7006550  )
        36           O1  tau(  36) = (   5.2845514   4.4687958  12.6640455  )
        37           Ti1 tau(  37) = (   6.5734551   0.0101047  12.5124135  )
        38           Ti1 tau(  38) = (   3.2852174   4.4611384  12.5175569  )
        39           O1  tau(  39) = (   6.5279837   2.9480221  14.9030702  )
        40           O1  tau(  40) = (   3.2956390   2.9588503  13.9390168  )
        41           O1  tau(  41) = (   4.4992944   4.4159585  16.2207858  )
        42           O1  tau(  42) = (   2.0104883   4.4624356  16.0673450  )
        43           Ti1 tau(  43) = (   3.2790961   0.0058003  15.7788240  )
        44           Ti1 tau(  44) = (   0.0606790   4.6093333  15.7554573  )
        45           O1  tau(  45) = (   3.2900926   2.9813045   4.7018136  )
        46           O1  tau(  46) = (   1.3039711   4.4726057   6.0039043  )
        47           O1  tau(  47) = (   5.2763189   4.4711207   6.0039473  )
        48           N1  tau(  48) = (   0.0403274   2.7191540  18.0026804  )
        49           C1  tau(  49) = (   0.9398849   2.4944932  18.9664025  )
        50           H1  tau(  50) = (   0.9073005   3.0183022  19.9142263  )
        51           H1  tau(  51) = (   1.7098349   1.7704235  18.7615287  )
        52           N1  tau(  52) = (   5.5765855   3.6054979  18.4816711  )
        53           H1  tau(  53) = (   5.9881759   4.5420851  18.7147717  )
        54           H1  tau(  54) = (   4.9344470   3.8465857  17.6610935  )
        55           H1  tau(  55) = (   5.0674124   3.1947177  19.2767304  )

     number of k points=    10  Fermi-Dirac smearing, width (Ry)=  0.0073
                       cart. coord. in units 2pi/alat
        k(    1) = (   0.0000000   0.0000000   0.0000000), wk =   0.1250000
        k(    2) = (   0.0000000   0.0419351   0.0000000), wk =   0.2500000
        k(    3) = (   0.0000000  -0.0838702   0.0000000), wk =   0.1250000
        k(    4) = (   0.0379955   0.0000049   0.0000000), wk =   0.2500000
        k(    5) = (   0.0379955   0.0419400   0.0000000), wk =   0.2500000
        k(    6) = (   0.0379955  -0.0838652   0.0000000), wk =   0.2500000
        k(    7) = (   0.0379955  -0.0419301   0.0000000), wk =   0.2500000
        k(    8) = (  -0.0759910  -0.0000099   0.0000000), wk =   0.1250000
        k(    9) = (  -0.0759910   0.0419252   0.0000000), wk =   0.2500000
        k(   10) = (  -0.0759910  -0.0838800   0.0000000), wk =   0.1250000

     Initial potential from superposition of free atoms

     starting charge  380.99914, renormalised to  397.00000

     negative rho (up, down):  1.588E-02 0.000E+00

     %%%%%%%%%%%%%%%%%%%%%%%%%%%%%%%%%%%%%%%%%%%%%%%%%%%%%%%%%%%%%%%%%%%%%%%%
     %                                                                      %
     % You are using vdW-DF, which was implemented by the Thonhauser group. %
     % Please cite the following two papers that made this development      %
     % possible and the two reviews that describe the various versions:     %
     %                                                                      %
     %   T. Thonhauser et al., PRL 115, 136402 (2015).                      %
     %   T. Thonhauser et al., PRB 76, 125112 (2007).                       %
     %   K. Berland et al., Rep. Prog. Phys. 78, 066501 (2015).             %
     %   D.C. Langreth et al., J. Phys.: Condens. Matter 21, 084203 (2009). %
     %                                                                      %
     %                                                                      %
     % If you are calculating the stress with vdW-DF, please also cite:     %
     %                                                                      %
     %   R. Sabatini et al., J. Phys.: Condens. Matter 24, 424209 (2012).   %
     %                                                                      %
     %%%%%%%%%%%%%%%%%%%%%%%%%%%%%%%%%%%%%%%%%%%%%%%%%%%%%%%%%%%%%%%%%%%%%%%%

     Adding external electric field

     Computed dipole along edir(3) :
        Dipole              -10.3122 Ry au,        -26.2111 Debye
        Dipole field         -0.0195 Ry au,

        Potential amp.        1.8040 Ry
        Total length         46.3494 bohr

     Starting wfcs are  301 atomic wfcs
  @ DRIVER MODE: Message from server: STATUS
  @ DRIVER MODE: Message from server: POSDATA
  @ DRIVER MODE: Reading and sharing cell
  @ DRIVER MODE: Reading and sharing positions
  @ DRIVER MODE: Received positions

     Self-consistent Calculation

     iteration #  1     ecut=    29.40 Ry     beta= 0.05
     Davidson diagonalization with overlap
     c_bands:  3 eigenvalues not converged
     c_bands:  2 eigenvalues not converged
     c_bands:  3 eigenvalues not converged
     c_bands:  2 eigenvalues not converged
     c_bands:  3 eigenvalues not converged
     c_bands:  2 eigenvalues not converged
     c_bands:  3 eigenvalues not converged
     c_bands:  2 eigenvalues not converged
     c_bands:  2 eigenvalues not converged
     c_bands:  3 eigenvalues not converged
     ethr =  1.00E-05,  avg # of iterations = 20.0

[...]

     total energy              =   -2480.08461899 Ry
     estimated scf accuracy    <    5159.16775834 Ry

     iteration #  2     ecut=    29.40 Ry     beta= 0.05
     Davidson diagonalization with overlap
     ethr =  1.00E-02,  avg # of iterations = 22.9

[...]

     iteration # 90     ecut=    29.40 Ry     beta= 0.05
     Davidson diagonalization with overlap
     c_bands:  2 eigenvalues not converged
     ethr =  8.70E-11,  avg # of iterations = 13.8

[...]

     total energy              =   -2941.49078523 Ry
     estimated scf accuracy    <       0.00000011 Ry

     iteration # 92     ecut=    29.40 Ry     beta= 0.05
     Davidson diagonalization with overlap
     ethr =  2.83E-11,  avg # of iterations = 12.6

     negative rho (up, down):  1.345E-02 0.000E+00

     Adding external electric field

     Computed dipole along edir(3) :
        Dipole                1.3629 Ry au,          3.4641 Debye
        Dipole field          0.0026 Ry au,

        Potential amp.       -0.2384 Ry
        Total length         46.3494 bohr

     End of self-consistent calculation

          k = 0.0000 0.0000 0.0000 ( 18029 PWs)   bands (ev):

   -55.2844 -55.2454 -55.2454 -55.2113 -55.1598 -55.1579 -55.1213 -55.0945
   -55.0774 -55.0760 -55.0598 -55.0428 -54.9570 -54.7910 -54.2637 -54.2296
   -31.8566 -31.7361 -31.6463 -31.6112 -31.5843 -31.5819 -31.5792 -31.5350
   -31.5323 -31.4923 -31.4905 -31.4898 -31.4576 -31.4548 -31.4408 -31.4193
   -31.4039 -31.3990 -31.3947 -31.3935 -31.3575 -31.3522 -31.3387 -31.3252
   -31.3023 -31.2971 -31.2908 -31.2867 -31.2743 -31.2712 -31.2614 -31.2512
   -31.2445 -31.2397 -31.2095 -31.2050 -31.1982 -31.1858 -31.1483 -31.1055
   -31.0619 -30.9327 -30.6725 -30.5797 -30.5575 -30.4889 -30.4022 -30.2913
   -19.2005 -16.1258 -15.8636 -15.7357 -15.5442 -15.4781 -15.3826 -15.2446
   -15.1932 -15.1312 -15.0828 -15.0425 -15.0295 -14.9639 -14.9067 -14.8183
   -14.8167 -14.7986 -14.7897 -14.7785 -14.7744 -14.7122 -14.7098 -14.6822
   -14.6677 -14.6575 -14.5167 -14.4327 -14.3713 -14.2639 -14.0272 -12.7662
   -12.6489  -9.1368  -7.7740  -7.0264  -5.9960  -3.8174  -3.4636  -3.2907
    -3.2438  -3.2037  -3.1790  -3.0104  -2.9286  -2.6613  -2.5933  -2.5536
    -2.5062  -2.4949  -2.4694  -2.2970  -2.2665  -2.2271  -2.1905  -2.1663
    -2.1269  -2.0992  -2.0831  -2.0538  -2.0408  -2.0386  -1.8563  -1.7857
    -1.7636  -1.7018  -1.6849  -1.6689  -1.6115  -1.5824  -1.5695  -1.5671
    -1.5440  -1.5270  -1.5044  -1.4614  -1.3743  -1.2829  -1.2381  -1.2170
    -1.1037  -1.0395  -0.9156  -0.8727  -0.8590  -0.8317  -0.7600  -0.6935
    -0.6660  -0.6302  -0.4900  -0.4851  -0.4008  -0.3911  -0.3182  -0.3013
    -0.2615  -0.2162  -0.1036  -0.0707  -0.0493   0.0026   0.0661   0.0880
     0.1697   0.2240   0.2806   0.2945   0.3742   0.4137   0.4518   0.4734
     0.5601   0.6021   0.6616   0.6680   0.7051   0.7083   0.7333   0.8198
     0.8332   0.8530   0.8939   1.0633   1.2624   1.3157   1.3363   1.6690
     1.6884   1.7590   1.9444   2.3338   2.3814   3.8169   3.8824   3.9530
     3.9674   3.9778   4.0495   4.0951   4.2843   4.3133   4.3163   4.3380

[...]

          k = 0.0380-0.0419 0.0000 ( 17876 PWs)   bands (ev):

[...]

          k =-0.0760-0.0000 0.0000 ( 17886 PWs)   bands (ev):

[...]

          k =-0.0760-0.0839 0.0000 ( 17948 PWs)   bands (ev):

   -55.2723 -55.2573 -55.2283 -55.2282 -55.1561 -55.1460 -55.1332 -55.0810
   -55.0782 -55.0753 -55.0600 -55.0593 -54.9554 -54.7925 -54.2466 -54.2465
   -31.6661 -31.6531 -31.5790 -31.5512 -31.5512 -31.5476 -31.5205 -31.5204
   -31.4929 -31.4845 -31.4799 -31.4761 -31.4216 -31.4127 -31.4127 -31.4093
   -31.4073 -31.4030 -31.3964 -31.3812 -31.3692 -31.3585 -31.3542 -31.3476
   -31.3475 -31.3454 -31.3441 -31.3284 -31.3116 -31.3087 -31.2923 -31.2896
   -31.2849 -31.2830 -31.2829 -31.2522 -31.2404 -31.2389 -31.1655 -31.0926
   -31.0627 -31.0103 -30.5702 -30.5702 -30.4851 -30.4850 -30.4456 -30.4456
   -19.1967 -15.5910 -15.5144 -15.4586 -15.3682 -15.2907 -15.2708 -15.2608
   -15.2273 -15.1607 -15.1372 -15.0722 -15.0372 -14.9918 -14.9889 -14.9736
   -14.8890 -14.8698 -14.8547 -14.8505 -14.7895 -14.7881 -14.7611 -14.7387
   -14.7321 -14.7283 -14.6286 -14.6276 -14.4630 -14.4290 -14.1899 -12.7505
   -12.7505  -9.1236  -7.7843  -7.0101  -6.0066  -3.8408  -2.8523  -2.7657
    -2.6762  -2.5197  -2.4823  -2.4725  -2.4172  -2.3264  -2.3006  -2.2874
    -2.2669  -2.2597  -2.1867  -2.1815  -2.1375  -2.1162  -2.1051  -2.0994
    -2.0654  -2.0521  -2.0382  -2.0018  -1.9934  -1.9772  -1.9428  -1.9234
    -1.8989  -1.8710  -1.8568  -1.8277  -1.7040  -1.6753  -1.6310  -1.5686
    -1.5442  -1.4771  -1.4719  -1.3675  -1.3577  -1.3466  -1.3055  -1.2915
    -1.2715  -1.1083  -1.0641  -1.0287  -1.0172  -1.0113  -0.8555  -0.8390
    -0.7708  -0.7550  -0.7400  -0.6638  -0.6225  -0.6061  -0.5260  -0.4865
    -0.4566  -0.4357  -0.2934  -0.2805  -0.2551  -0.2410  -0.2343  -0.1417
    -0.1212  -0.0853  -0.0512  -0.0133   0.0032   0.0625   0.2163   0.2422
     0.2782   0.4219   0.4386   0.5239   0.5715   0.6984   0.7629   0.7654
     0.8466   0.9166   1.0184   1.0310   1.0492   1.1363   1.1825   1.1875
     1.1887   2.1171   2.1179   2.2014   2.2017   3.6929   3.9564   4.0787
     4.0851   4.1273   4.2502   4.3337   4.3572   4.3950   4.3971   4.4727

     the Fermi energy is     3.8718 ev

!    total energy              =   -2941.49078880 Ry
     estimated scf accuracy    <       0.00000004 Ry
     smearing contrib. (-TS)   =      -0.04230326 Ry
     internal energy E=F+TS    =   -2941.44848554 Ry

     The total energy is F=E-TS. E is the sum of the following terms:
     one-electron contribution =  -23921.91332634 Ry
     hartree contribution      =   12054.13905139 Ry
     xc contribution           =    -486.85311155 Ry
     ewald contribution        =    9413.17539581 Ry
     electric field correction =       0.00350515 Ry

     convergence has been achieved in  92 iterations

     Forces acting on atoms (cartesian axes, Ry/au):

     atom    1 type  1   force =     0.00016515   -0.00016616    0.09402469
     atom    2 type  1   force =    -0.00005269   -0.00043151   -0.17755033
     atom    3 type  2   force =     0.00006524   -0.00004449   -0.02101559
     atom    4 type  2   force =     0.00001757   -0.00180162    0.05732889
     atom    5 type  2   force =    -0.01085723   -0.00091096    0.00782710
     atom    6 type  2   force =     0.01207045   -0.00034178    0.00622160
     atom    7 type  1   force =    -0.00065167    0.00289512   -0.01528622
     atom    8 type  1   force =     0.00059325    0.00234039    0.00237344
     atom    9 type  2   force =    -0.00010459    0.00013470    0.00091037
     atom   10 type  2   force =    -0.00165434   -0.00049450   -0.00379041
     atom   11 type  2   force =    -0.00004645   -0.00023592    0.00021080
     atom   12 type  2   force =    -0.00019242   -0.00039678    0.00027876
     atom   13 type  1   force =     0.00042277    0.00108639    0.00060119
     atom   14 type  1   force =     0.00020216   -0.00062172    0.00036469
     atom   15 type  2   force =    -0.00017342    0.00039507    0.00052982
     atom   16 type  2   force =    -0.00016560   -0.00024402   -0.00120201
     atom   17 type  2   force =     0.00009921   -0.00029736    0.00011800
     atom   18 type  2   force =    -0.00081811   -0.00033713    0.00008699
     atom   19 type  1   force =    -0.00050243    0.00110933   -0.00039125
     atom   20 type  1   force =    -0.00038172    0.00146656   -0.00128182
     atom   21 type  2   force =     0.00010897   -0.00003913    0.10377304
     atom   22 type  2   force =     0.00001000    0.00011902    0.00099944
     atom   23 type  2   force =    -0.07063432   -0.00018108   -0.02705709
     atom   24 type  2   force =     0.07057758    0.00029459   -0.02709414
     atom   25 type  1   force =     0.00015043   -0.00024593    0.09335236
     atom   26 type  1   force =    -0.00001033   -0.00037331   -0.17776862
     atom   27 type  2   force =     0.00010942   -0.00039975   -0.02003190
     atom   28 type  2   force =     0.00003424   -0.00146660    0.05681237
     atom   29 type  2   force =    -0.01075916   -0.00066038    0.00674281
     atom   30 type  2   force =     0.01187641   -0.00016714    0.00509799
     atom   31 type  1   force =    -0.00063010    0.00409802   -0.01559703
     atom   32 type  1   force =     0.00067433   -0.00279000    0.00214741
     atom   33 type  2   force =     0.00015451   -0.00022073   -0.00059580
     atom   34 type  2   force =    -0.00109287    0.00272350   -0.00201050
     atom   35 type  2   force =     0.00009349    0.00019958    0.00009940
     atom   36 type  2   force =    -0.00033276    0.00033729   -0.00007080
     atom   37 type  1   force =     0.00046535   -0.00008051    0.00031188
     atom   38 type  1   force =     0.00009517    0.00089947    0.00015152
     atom   39 type  2   force =    -0.00003914   -0.00095530    0.00042692
     atom   40 type  2   force =    -0.00023680   -0.00043379    0.00061065
     atom   41 type  2   force =    -0.00031936    0.00001133   -0.00031473
     atom   42 type  2   force =     0.00011497    0.00001024    0.00023747
     atom   43 type  1   force =     0.00003074   -0.00149193    0.00092166
     atom   44 type  1   force =    -0.00009382   -0.00104933   -0.00149308
     atom   45 type  2   force =     0.00009685   -0.00008205    0.10375721
     atom   46 type  2   force =    -0.07064748   -0.00009427   -0.02706461
     atom   47 type  2   force =     0.07060054    0.00028959   -0.02710302
     atom   48 type  3   force =    -0.00095626    0.00040877    0.00067694
     atom   49 type  4   force =     0.00026716   -0.00065795    0.00113537
     atom   50 type  5   force =     0.00078253    0.00006035   -0.00105464
     atom   51 type  5   force =    -0.00017689    0.00058852   -0.00016871
     atom   52 type  3   force =     0.00346488    0.00964176    0.00235567
     atom   53 type  5   force =    -0.00325240   -0.01141835   -0.00340032
     atom   54 type  5   force =     0.00055988   -0.00048901    0.00124480
     atom   55 type  5   force =     0.00087907    0.00051093   -0.00038863

     Total force =     0.366065     Total SCF correction =     0.000467
  @ DRIVER MODE: Message from server: STATUS
  @ DRIVER MODE: Message from server: GETFORCE
  @ DRIVER MODE: Returning v,forces,stress,ensemble

     Writing output data file ./calc.save/
  @ DRIVER MODE: Message from server: EXIT
  @ DRIVE MODE: Exiting

     General routines

     Parallel routines

   This run was terminated on:   9:37:54   9Sep2021

   JOB DONE.