     Program PWSCF v.6.7GPU starts on 20Jul2021 at  5:28:33

     R & G space division:  proc/nbgrp/npool/nimage =      16
     Reading input from /storage/home/hcoda1/3/ntian30/research/carbon/15Jul_vib/ads_slab/CH3NHH_a/out_0006/pw.inp
Warning: card &CELL ignored
Warning: card   CELL_DYNAMICS='IPI', ignored
Warning: card / ignored

     Current dimensions of program PWSCF are:
     Max number of different atomic species (ntypx) = 10
     Max number of k-points (npk) =  40000
     Max angular momentum in pseudopotentials (lmaxx) =  3
     Presently no symmetry can be used with electric field

     Message from routine cell_base_init:
     DEPRECATED: use true lattice parameter, not A to a.u. conversion factor

     IMPORTANT: XC functional enforced from input :
     Exchange-correlation= BEEF-VDW
                           (   1   4  43  14   2   0   0)
     Any further DFT definition will be discarded
     Please, verify this is what you really want

  @ DRIVER MODE: Connecting to
 qe_1139763_2382402.sched-torque.pace.gatech.edu9cj7uhv0_scratch
  using UNIX socket
  @ DRIVER MODE: Message from server: STATUS
  @ DRIVER MODE: Message from server: INIT
  @ DRIVER MODE: Receiving replica           0          -1
  @ DRIVER MODE: Receiving encoded integer          25
  @ DRIVER MODE:  SCF:  T  FORCE:  T  STRESS:  F  VC:  F  ENSEMBLE:  F
  @ DRIVER MODE:  SCF:  T  FORCE:  T  STRESS:  F  VC:  F  ENSEMBLE:  F

     Using Slab Decomposition

     bravais-lattice index     =            0
     lattice parameter (alat)  =       1.8897  a.u.
     unit-cell volume          =    6658.9804 (a.u.)^3
     number of atoms/cell      =           54
     number of atomic types    =            5
     number of electrons       =       392.00
     number of Kohn-Sham states=          206
     kinetic-energy cutoff     =      29.3995  Ry
     charge density cutoff     =     293.9946  Ry
     scf convergence threshold =      7.3E-08
     mixing beta               =       0.0500
     number of iterations used =            8  plain     mixing
     Exchange-correlation= BEEF-VDW
                           (   1   4  43  14   2   0   0)

     celldm(1)=   1.889726  celldm(2)=   0.000000  celldm(3)=   0.000000
     celldm(4)=   0.000000  celldm(5)=   0.000000  celldm(6)=   0.000000

     crystal axes: (cart. coord. in units of alat)
               a(1) = (   6.579727   0.000000   0.000000 )
               a(2) = (  -0.000775   5.961596   0.000000 )
               a(3) = (   0.000000   0.000000  25.155947 )

     reciprocal axes: (cart. coord. in units 2 pi/alat)
               b(1) = (  0.151982  0.000020  0.000000 )
               b(2) = (  0.000000  0.167740  0.000000 )
               b(3) = (  0.000000  0.000000  0.039752 )

     PseudoPot. # 1 for Ti read from file:
     /storage/coda1/p-amedford6/0/shared/rich_project_chbe-medford/medford-share/data/pseudos_module/espresso/nninc/pbe/van/Ti.UPF
     MD5 check sum: 8e4df49b7f0d34bbd5052bf3f5ea0213
     Pseudo is Ultrasoft, Zval = 12.0
     Generated by new atomic code, or converted to UPF format
     Using radial grid of  851 points,  6 beta functions with:
                l(1) =   0
                l(2) =   0
                l(3) =   1
                l(4) =   1
                l(5) =   2
                l(6) =   2
     Q(r) pseudized with  8 coefficients,  rinner =    1.000   1.000   1.000
                                                       1.000   1.000

     PseudoPot. # 2 for O  read from file:
     /storage/coda1/p-amedford6/0/shared/rich_project_chbe-medford/medford-share/data/pseudos_module/espresso/nninc/pbe/van/O.UPF
     MD5 check sum: 78c19812648e8988a0fe644b0f25305e
     Pseudo is Ultrasoft, Zval =  6.0
     Generated by new atomic code, or converted to UPF format
     Using radial grid of  737 points,  4 beta functions with:
                l(1) =   0
                l(2) =   0
                l(3) =   1
                l(4) =   1
     Q(r) pseudized with  8 coefficients,  rinner =    0.800   0.800   0.800

     PseudoPot. # 3 for N  read from file:
     /storage/coda1/p-amedford6/0/shared/rich_project_chbe-medford/medford-share/data/pseudos_module/espresso/nninc/pbe/van/N.UPF
     MD5 check sum: 90d10febe142ad51ac9d5be1deb811c4
     Pseudo is Ultrasoft, Zval =  5.0
     Generated by new atomic code, or converted to UPF format
     Using radial grid of  729 points,  4 beta functions with:
                l(1) =   0
                l(2) =   0
                l(3) =   1
                l(4) =   1
     Q(r) pseudized with  8 coefficients,  rinner =    0.800   0.800   0.800

     PseudoPot. # 4 for C  read from file:
     /storage/coda1/p-amedford6/0/shared/rich_project_chbe-medford/medford-share/data/pseudos_module/espresso/nninc/pbe/van/C.UPF
     MD5 check sum: 1a69bf6b8db32088f5b2163dbdb77a27
     Pseudo is Ultrasoft, Zval =  4.0
     Generated by new atomic code, or converted to UPF format
     Using radial grid of  721 points,  4 beta functions with:
                l(1) =   0
                l(2) =   0
                l(3) =   1
                l(4) =   1
     Q(r) pseudized with  8 coefficients,  rinner =    0.800   0.800   0.800

     PseudoPot. # 5 for H  read from file:
     /storage/coda1/p-amedford6/0/shared/rich_project_chbe-medford/medford-share/data/pseudos_module/espresso/nninc/pbe/van/H.UPF
     MD5 check sum: b5ee9d7bfd3a09ee7748110bda690ff7
     Pseudo is Ultrasoft, Zval =  1.0
     Generated by new atomic code, or converted to UPF format
     Using radial grid of  615 points,  1 beta functions with:
                l(1) =   0
     Q(r) pseudized with  8 coefficients,  rinner =    0.800

     atomic species   valence    mass     pseudopotential
        Ti1           12.00    47.86700     Ti( 1.00)
        O1             6.00    15.99900     O ( 1.00)
        N1             5.00    14.00700     N ( 1.00)
        C1             4.00    12.01100     C ( 1.00)
        H1             1.00     1.00800     H ( 1.00)

     Starting magnetic structure
     atomic species   magnetization
        Ti1          0.000
        O1           0.000
        N1           0.000
        C1           0.025
        H1           0.000

     No symmetry found

   Cartesian axes

     site n.     atom                  positions (alat units)
         1           Ti1 tau(   1) = (   0.0004258   2.9801865   6.0000000  )
         2           Ti1 tau(   2) = (   3.2906075   1.4906267   6.0002472  )
         3           O1  tau(   3) = (   0.0006271   0.0005054   7.9858123  )
         4           O1  tau(   4) = (   3.2906025   0.0005020   7.3038282  )
         5           O1  tau(   5) = (   4.5942328   1.4918067   9.2879030  )
         6           O1  tau(   6) = (   1.9868534   1.4903216   9.2879459  )
         7           Ti1 tau(   7) = (   3.2907910   2.8959150   9.1758416  )
         8           Ti1 tau(   8) = (   0.0015273   1.4827037   9.2680791  )
         9           O1  tau(   9) = (   3.2893523   5.9576907  11.3759447  )
        10           O1  tau(  10) = (   0.0116148   5.9584955  10.6183126  )
        11           O1  tau(  11) = (   1.2892553   1.4862333  12.6941169  )
        12           O1  tau(  12) = (   5.2958346   1.4833122  12.6807028  )
        13           Ti1 tau(  13) = (   0.0095698   2.9692159  12.5083673  )
        14           Ti1 tau(  14) = (   3.3108451   1.4743585  12.5306019  )
        15           O1  tau(  15) = (   6.5736105   5.8801748  14.6991865  )
        16           O1  tau(  16) = (   3.2979610   5.9450902  14.0010558  )
        17           O1  tau(  17) = (   4.5273680   1.5185660  16.1654609  )
        18           O1  tau(  18) = (   2.0122787   1.5163527  16.1384539  )
        19           Ti1 tau(  19) = (   3.2802752   2.9921964  15.7561315  )
        20           Ti1 tau(  20) = (   0.0093588   1.3049760  15.8672178  )
        21           O1  tau(  21) = (   3.2904802   0.0005063   4.7018136  )
        22           O1  tau(  22) = (   6.5538635   0.1342075  17.2452287  )
        23           O1  tau(  23) = (   1.3043587   1.4918075   6.0039043  )
        24           O1  tau(  24) = (   5.2767064   1.4903225   6.0039473  )
        25           Ti1 tau(  25) = (   0.0000382   5.9609847   6.0000000  )
        26           Ti1 tau(  26) = (   3.2902200   4.4714249   6.0002472  )
        27           O1  tau(  27) = (   0.0002396   2.9813036   7.9858123  )
        28           O1  tau(  28) = (   3.2902150   2.9813002   7.3038282  )
        29           O1  tau(  29) = (   4.5938453   4.4726049   9.2879030  )
        30           O1  tau(  30) = (   1.9864658   4.4711199   9.2879459  )
        31           Ti1 tau(  31) = (   3.2891106   5.8743827   9.1763621  )
        32           Ti1 tau(  32) = (   0.0006254   4.4649316   9.2693709  )
        33           O1  tau(  33) = (   3.2933707   2.9638296  11.3700534  )
        34           O1  tau(  34) = (   0.0092240   2.9805883  10.6323155  )
        35           O1  tau(  35) = (   1.2923283   4.4540072  12.6594629  )
        36           O1  tau(  36) = (   5.2938616   4.4568750  12.6477176  )
        37           Ti1 tau(  37) = (   0.0202681   5.9396231  12.5027719  )
        38           Ti1 tau(  38) = (   3.3116628   4.4527548  12.5215617  )
        39           O1  tau(  39) = (   6.5466975   3.0260875  14.9671898  )
        40           O1  tau(  40) = (   3.2966604   2.9917109  13.9679302  )
        41           O1  tau(  41) = (   4.5116687   4.4737236  16.2360857  )
        42           O1  tau(  42) = (   2.0028912   4.4646324  16.2202640  )
        43           Ti1 tau(  43) = (   3.2937213   0.0113368  15.7972781  )
        44           Ti1 tau(  44) = (   0.0208052   4.5175143  16.0574476  )
        45           O1  tau(  45) = (   3.2900926   2.9813045   4.7018136  )
        46           O1  tau(  46) = (   1.3039711   4.4726057   6.0039043  )
        47           O1  tau(  47) = (   5.2763189   4.4711207   6.0039473  )
        48           N1  tau(  48) = (   6.3337458   3.3624127  18.1370434  )
        49           C1  tau(  49) = (   0.8795605   3.2639204  19.0799812  )
        50           H1  tau(  50) = (   1.4196110   4.2071110  19.0760701  )
        51           H1  tau(  51) = (   0.5395241   3.0459488  20.0957609  )
        52           H1  tau(  52) = (   1.5475163   2.4696122  18.7548312  )
        53           H1  tau(  53) = (   5.6940081   4.0973896  18.4182617  )
        54           H1  tau(  54) = (   5.7906660   2.4998151  18.1411682  )

     number of k points=    10  Fermi-Dirac smearing, width (Ry)=  0.0073
                       cart. coord. in units 2pi/alat
        k(    1) = (   0.0000000   0.0000000   0.0000000), wk =   0.0625000
        k(    2) = (   0.0000000   0.0419351   0.0000000), wk =   0.1250000
        k(    3) = (   0.0000000  -0.0838702   0.0000000), wk =   0.0625000
        k(    4) = (   0.0379955   0.0000049   0.0000000), wk =   0.1250000
        k(    5) = (   0.0379955   0.0419400   0.0000000), wk =   0.1250000
        k(    6) = (   0.0379955  -0.0838652   0.0000000), wk =   0.1250000
        k(    7) = (   0.0379955  -0.0419301   0.0000000), wk =   0.1250000
[...]

     starting charge  375.99915, renormalised to  392.00000

     negative rho (up, down):  8.109E-03 8.115E-03

     %%%%%%%%%%%%%%%%%%%%%%%%%%%%%%%%%%%%%%%%%%%%%%%%%%%%%%%%%%%%%%%%%%%%%%%%
     %                                                                      %
     % You are using vdW-DF, which was implemented by the Thonhauser group. %
     % Please cite the following two papers that made this development      %
     % possible and the two reviews that describe the various versions:     %
     %                                                                      %
     %   T. Thonhauser et al., PRL 115, 136402 (2015).                      %
     %   T. Thonhauser et al., PRB 76, 125112 (2007).                       %
     %   K. Berland et al., Rep. Prog. Phys. 78, 066501 (2015).             %
     %   D.C. Langreth et al., J. Phys.: Condens. Matter 21, 084203 (2009). %
     %                                                                      %
     %                                                                      %
     % If you are calculating the stress with vdW-DF, please also cite:     %
     %                                                                      %
     %   R. Sabatini et al., J. Phys.: Condens. Matter 24, 424209 (2012).   %
     %                                                                      %
     %%%%%%%%%%%%%%%%%%%%%%%%%%%%%%%%%%%%%%%%%%%%%%%%%%%%%%%%%%%%%%%%%%%%%%%%

     Adding external electric field

     Computed dipole along edir(3) :
        Dipole               -7.5511 Ry au,        -19.1930 Debye
        Dipole field         -0.0142 Ry au,

        Potential amp.        1.3209 Ry
        Total length         46.3494 bohr

[...]

     Starting wfcs are  297 atomic wfcs
  @ DRIVER MODE: Message from server: STATUS
  @ DRIVER MODE: Message from server: POSDATA
  @ DRIVER MODE: Reading and sharing cell
  @ DRIVER MODE: Reading and sharing positions
  @ DRIVER MODE: Received positions

     Self-consistent Calculation

     iteration #  1     ecut=    29.40 Ry     beta= 0.05
     Davidson diagonalization with overlap
     c_bands:  1 eigenvalues not converged
     c_bands:  2 eigenvalues not converged
     c_bands:  1 eigenvalues not converged
     c_bands:  1 eigenvalues not converged
     c_bands:  1 eigenvalues not converged
     c_bands:  1 eigenvalues not converged
     c_bands:  1 eigenvalues not converged
     c_bands:  2 eigenvalues not converged
     c_bands:  1 eigenvalues not converged
     c_bands:  1 eigenvalues not converged
     c_bands:  1 eigenvalues not converged
     c_bands:  1 eigenvalues not converged
     ethr =  1.00E-05,  avg # of iterations = 19.6

[...]

     total energy              =   -2679.39132807 Ry
     estimated scf accuracy    <    2680.73166041 Ry

     total magnetization       =     0.00 Bohr mag/cell
     absolute magnetization    =     0.01 Bohr mag/cell

[...]

     iteration #  3     ecut=    29.40 Ry     beta= 0.05
     Davidson diagonalization with overlap
     ethr =  1.00E-02,  avg # of iterations = 15.0

[...]

     iteration # 97     ecut=    29.40 Ry     beta= 0.05
     Davidson diagonalization with overlap
     ethr =  2.12E-11,  avg # of iterations =  1.6

[...]

     total energy              =   -2921.63319268 Ry
     estimated scf accuracy    <       0.00000013 Ry

[...]

     iteration # 99     ecut=    29.40 Ry     beta= 0.05
     Davidson diagonalization with overlap
     c_bands:  3 eigenvalues not converged
     c_bands:  1 eigenvalues not converged
     c_bands:  2 eigenvalues not converged
     c_bands:  2 eigenvalues not converged
     c_bands:  1 eigenvalues not converged
     c_bands:  1 eigenvalues not converged
     ethr =  2.12E-11,  avg # of iterations = 16.1

     negative rho (up, down):  8.580E-03 8.577E-03

[...]

     Adding external electric field

     Computed dipole along edir(3) :
        Dipole                1.2890 Ry au,          3.2764 Debye
        Dipole field          0.0024 Ry au,

        Potential amp.       -0.2255 Ry
        Total length         46.3494 bohr

     Magnetic moment per site  (integrated on atomic sphere of radius R)
     atom   1 (R=0.738)  charge=  8.0426  magn= -0.0037
     atom   2 (R=0.738)  charge=  8.0243  magn= -0.0002
     atom   3 (R=0.738)  charge=  5.0120  magn=  0.0007
     atom   4 (R=0.738)  charge=  5.0489  magn=  0.0000
     atom   5 (R=0.738)  charge=  5.0182  magn=  0.0002
     atom   6 (R=0.738)  charge=  5.0186  magn=  0.0002
     atom   7 (R=0.738)  charge=  8.0244  magn= -0.0004
     atom   8 (R=0.738)  charge=  8.0256  magn= -0.0074
     atom   9 (R=0.738)  charge=  5.0259  magn=  0.0002
     atom  10 (R=0.738)  charge=  5.0261  magn=  0.0005
     atom  11 (R=0.738)  charge=  5.0131  magn=  0.0003
     atom  12 (R=0.738)  charge=  5.0142  magn=  0.0003
     atom  13 (R=0.738)  charge=  8.0323  magn= -0.0024
     atom  14 (R=0.738)  charge=  8.0300  magn= -0.0022
     atom  15 (R=0.738)  charge=  5.0262  magn=  0.0001
     atom  16 (R=0.738)  charge=  5.0222  magn=  0.0004
     atom  17 (R=0.738)  charge=  4.9995  magn=  0.0003
     atom  18 (R=0.738)  charge=  5.0035  magn=  0.0003
     atom  19 (R=0.738)  charge=  8.0638  magn= -0.0048
     atom  20 (R=0.738)  charge=  8.0765  magn= -0.0011
     atom  21 (R=0.738)  charge=  4.8972  magn=  0.0003
     atom  22 (R=0.738)  charge=  4.9757  magn=  0.0002
     atom  23 (R=0.738)  charge=  5.0093  magn=  0.0002
     atom  24 (R=0.738)  charge=  5.0095  magn=  0.0002
     atom  25 (R=0.738)  charge=  8.0426  magn= -0.0037
     atom  26 (R=0.738)  charge=  8.0244  magn= -0.0002
     atom  27 (R=0.738)  charge=  5.0118  magn=  0.0008
     atom  28 (R=0.738)  charge=  5.0493  magn=  0.0000
     atom  29 (R=0.738)  charge=  5.0191  magn=  0.0002
     atom  30 (R=0.738)  charge=  5.0193  magn=  0.0002
     atom  31 (R=0.738)  charge=  8.0246  magn= -0.0004
     atom  32 (R=0.738)  charge=  8.0257  magn= -0.0074
     atom  33 (R=0.738)  charge=  5.0253  magn=  0.0002
     atom  34 (R=0.738)  charge=  5.0228  magn=  0.0005
     atom  35 (R=0.738)  charge=  5.0162  magn=  0.0003
     atom  36 (R=0.738)  charge=  5.0179  magn=  0.0003
     atom  37 (R=0.738)  charge=  8.0281  magn= -0.0025
     atom  38 (R=0.738)  charge=  8.0303  magn= -0.0023
     atom  39 (R=0.738)  charge=  5.0062  magn=  0.0002
     atom  40 (R=0.738)  charge=  5.0343  magn=  0.0004
     atom  41 (R=0.738)  charge=  4.9974  magn=  0.0004
     atom  42 (R=0.738)  charge=  5.0021  magn=  0.0004
     atom  43 (R=0.738)  charge=  8.0613  magn= -0.0050
     atom  44 (R=0.738)  charge=  8.0415  magn= -0.0025
     atom  45 (R=0.738)  charge=  4.8972  magn=  0.0002
     atom  46 (R=0.738)  charge=  5.0093  magn=  0.0002
     atom  47 (R=0.738)  charge=  5.0095  magn=  0.0002
     atom  48 (R=0.418)  charge=  1.3305  magn=  0.0000
     atom  49 (R=0.448)  charge=  0.8453  magn= -0.0000
     atom  50 (R=0.418)  charge=  0.4419  magn=  0.0000
     atom  51 (R=0.418)  charge=  0.4430  magn=  0.0000
     atom  52 (R=0.418)  charge=  0.4415  magn=  0.0000
     atom  53 (R=0.418)  charge=  0.4499  magn= -0.0000
     atom  54 (R=0.418)  charge=  0.4475  magn= -0.0000

     End of self-consistent calculation

 ------ SPIN UP ------------

          k = 0.0000 0.0000 0.0000 ( 18029 PWs)   bands (ev):

   -55.4368 -55.4003 -55.3863 -55.3605 -55.3522 -55.3177 -55.3149 -55.2804
   -55.2580 -55.2385 -55.2236 -55.2134 -55.1797 -55.1199 -54.4185 -54.3845
   -32.0064 -31.8928 -31.8804 -31.8040 -31.7521 -31.7475 -31.7428 -31.7195
   -31.6774 -31.6742 -31.6472 -31.6453 -31.6299 -31.6219 -31.6063 -31.6018
   -31.5930 -31.5789 -31.5746 -31.5536 -31.5385 -31.5350 -31.5084 -31.5018
   -31.4925 -31.4896 -31.4886 -31.4605 -31.4455 -31.4431 -31.4365 -31.4182
   -31.4128 -31.4113 -31.4065 -31.4035 -31.3715 -31.3593 -31.3397 -31.3260
   -31.3244 -31.3037 -30.8278 -30.7335 -30.7114 -30.6441 -30.5573 -30.4464
   -16.3005 -16.1780 -15.9841 -15.8381 -15.7553 -15.6376 -15.5228 -15.5059
   -15.3697 -15.2880 -15.1686 -15.1434 -15.1238 -15.1013 -15.0900 -15.0739
   -14.9828 -14.9773 -14.9632 -14.9322 -14.9297 -14.8850 -14.8769 -14.8354
   -14.8151 -14.8128 -14.6892 -14.5976 -14.5250 -14.2856 -12.9216 -12.8042
   -10.2289  -6.2984  -4.8464  -3.9847  -3.6129  -3.4586  -3.3687  -3.3425
    -3.3298  -3.1942  -3.0487  -2.8936  -2.8502  -2.8349  -2.7257  -2.6522
    -2.6424  -2.6228  -2.4682  -2.4363  -2.3931  -2.3461  -2.3026  -2.2478
    -2.2291  -2.2226  -2.2076  -2.1856  -2.1754  -2.0583  -2.0057  -1.9218
    -1.8645  -1.8419  -1.7918  -1.7700  -1.7477  -1.7278  -1.7184  -1.6739
    -1.6626  -1.6329  -1.5764  -1.4665  -1.3672  -1.3139  -1.1961  -1.0754
    -1.0352  -1.0225  -0.9801  -0.9381  -0.9241  -0.8580  -0.8153  -0.7845
    -0.6922  -0.6635  -0.6054  -0.5577  -0.4873  -0.4699  -0.4251  -0.3715
    -0.2566  -0.2205  -0.2057  -0.1783  -0.0867  -0.0507  -0.0058   0.0771
     0.0872   0.1030   0.2049   0.2173   0.2866   0.3330   0.3511   0.4429
     0.4814   0.4905   0.4961   0.5202   0.5464   0.5981   0.6359   0.6638
     0.7343   0.8595   1.0760   1.1498   1.1742   1.5003   1.5095   1.6038
     1.7873   2.1798   2.2282   3.6664   3.7335   3.8083   3.8132   3.8341
     3.8993   4.1357   4.1585   4.1663   4.1725   4.1947

[...]

          k =-0.0760-0.0000 0.0000 ( 17886 PWs)   bands (ev):

[...]

 ------ SPIN DOWN ----------

[...]

          k = 0.0380-0.0419 0.0000 ( 17876 PWs)   bands (ev):

[...]

          k =-0.0760-0.0839 0.0000 ( 17948 PWs)   bands (ev):

   -55.4256 -55.4192 -55.3752 -55.3747 -55.3632 -55.3224 -55.3036 -55.3003
   -55.2505 -55.2429 -55.2391 -55.2101 -55.2094 -55.1231 -54.4020 -54.4018
   -31.8151 -31.8135 -31.8104 -31.7267 -31.7017 -31.6980 -31.6977 -31.6671
   -31.6669 -31.6498 -31.6424 -31.6402 -31.6353 -31.6064 -31.6001 -31.5809
   -31.5760 -31.5729 -31.5720 -31.5707 -31.5667 -31.5627 -31.5257 -31.5233
   -31.5192 -31.5167 -31.5146 -31.4966 -31.4949 -31.4945 -31.4924 -31.4761
   -31.4723 -31.4560 -31.4523 -31.4400 -31.4389 -31.4361 -31.3922 -31.3919
   -31.3838 -31.3334 -30.7247 -30.7245 -30.6407 -30.6405 -30.6012 -30.6011
   -16.1531 -15.7852 -15.6921 -15.6447 -15.4712 -15.4421 -15.4256 -15.4104
   -15.2780 -15.2598 -15.2358 -15.2077 -15.1860 -15.1513 -15.1418 -15.1393
   -15.0595 -15.0454 -15.0384 -15.0226 -14.9566 -14.9467 -14.9445 -14.9370
   -14.8867 -14.8831 -14.8208 -14.7906 -14.7876 -14.5752 -12.9051 -12.9050
   -10.2323  -6.2697  -4.8424  -3.9496  -2.9619  -2.9264  -2.8978  -2.8954
    -2.6879  -2.6458  -2.6105  -2.5850  -2.4955  -2.4554  -2.4404  -2.4321
    -2.3606  -2.3437  -2.3264  -2.2808  -2.2749  -2.2611  -2.2391  -2.2088
    -2.1869  -2.1679  -2.1584  -2.1398  -2.0935  -2.0822  -2.0570  -2.0423
    -2.0394  -2.0212  -1.9929  -1.9465  -1.8200  -1.8119  -1.7447  -1.6452
    -1.6405  -1.5640  -1.5498  -1.5133  -1.4897  -1.4710  -1.4259  -1.2549
    -1.2115  -1.1849  -1.1753  -1.1123  -1.0531  -1.0304  -0.9594  -0.9446
    -0.9260  -0.8221  -0.7775  -0.7622  -0.6706  -0.6606  -0.5822  -0.5058
    -0.4726  -0.4463  -0.3950  -0.3923  -0.3815  -0.3434  -0.3372  -0.2562
    -0.2091  -0.1727  -0.1582  -0.1288   0.0689   0.0802   0.1055   0.2458
     0.2764   0.3983   0.4320   0.4844   0.5593   0.5922   0.6734   0.7088
     0.8392   0.8680   0.8694   0.9419   0.9532   1.0150   1.0246   1.9608
     1.9614   2.0483   2.0487   3.8108   3.8906   3.9182   3.9601   4.0725
     4.1479   4.1724   4.1932   4.2433   4.2459   4.3057

     the Fermi energy is     3.7232 ev

!    total energy              =   -2921.63319414 Ry
     estimated scf accuracy    <       0.00000007 Ry
     smearing contrib. (-TS)   =      -0.03708010 Ry
     internal energy E=F+TS    =   -2921.59611404 Ry

     The total energy is F=E-TS. E is the sum of the following terms:
     one-electron contribution =  -24026.06167999 Ry
     hartree contribution      =   12102.05973587 Ry
     xc contribution           =    -481.75549197 Ry
     ewald contribution        =    9484.15818644 Ry
     electric field correction =       0.00313561 Ry

     total magnetization       =    -0.06 Bohr mag/cell
     absolute magnetization    =     0.08 Bohr mag/cell

     convergence has been achieved in  99 iterations

     Forces acting on atoms (cartesian axes, Ry/au):

     atom    1 type  1   force =     0.00003506   -0.00021659    0.09330967
     atom    2 type  1   force =    -0.00019529   -0.00036676   -0.17830341
     atom    3 type  2   force =     0.00002869   -0.00039685   -0.02024609
     atom    4 type  2   force =    -0.00002732   -0.00194763    0.05878453
     atom    5 type  2   force =    -0.01020583   -0.00111720    0.00776405
     atom    6 type  2   force =     0.01168019   -0.00039808    0.00693111
     atom    7 type  1   force =    -0.00048889    0.00210554   -0.01457384
     atom    8 type  1   force =     0.00024977   -0.00049622   -0.00480926
     atom    9 type  2   force =     0.00015083    0.00011843   -0.00007182
     atom   10 type  2   force =    -0.00113514    0.00137753    0.00053880
     atom   11 type  2   force =    -0.00010715    0.00016037    0.00006182
     atom   12 type  2   force =    -0.00002638    0.00036651    0.00023984
     atom   13 type  1   force =    -0.00004652   -0.00018272   -0.00020496
     atom   14 type  1   force =    -0.00015734    0.00011964    0.00028399
     atom   15 type  2   force =    -0.00019116   -0.00049290    0.00012814
     atom   16 type  2   force =    -0.00021918    0.00019230    0.00016315
     atom   17 type  2   force =     0.00020026   -0.00006610    0.00008715
     atom   18 type  2   force =    -0.00004012   -0.00020572    0.00012921
     atom   19 type  1   force =    -0.00034293    0.00028577    0.00051466
     atom   20 type  1   force =    -0.00000716   -0.00014578   -0.00015019
     atom   21 type  2   force =     0.00002945   -0.00006092    0.10394037
     atom   22 type  2   force =     0.00024620    0.00034000   -0.00010872
     atom   23 type  2   force =    -0.07042328   -0.00015596   -0.02692893
     atom   24 type  2   force =     0.07026314    0.00028647   -0.02697505
     atom   25 type  1   force =    -0.00001431   -0.00015250    0.09282618
     atom   26 type  1   force =    -0.00021311   -0.00048251   -0.17830725
     atom   27 type  2   force =     0.00008733   -0.00026971   -0.01930943
     atom   28 type  2   force =     0.00004332   -0.00171812    0.05812776
     atom   29 type  2   force =    -0.01072946   -0.00111406    0.00832651
     atom   30 type  2   force =     0.01207562   -0.00083784    0.00744604
     atom   31 type  1   force =    -0.00039846    0.00595000   -0.01545314
     atom   32 type  1   force =     0.00022045   -0.00003664   -0.00517291
     atom   33 type  2   force =    -0.00007766    0.00001154    0.00007372
     atom   34 type  2   force =    -0.00101286   -0.00248656   -0.00000228
     atom   35 type  2   force =    -0.00006327    0.00023144   -0.00005895
     atom   36 type  2   force =    -0.00011927    0.00008864    0.00000272
     atom   37 type  1   force =    -0.00002386    0.00004960   -0.00024949
     atom   38 type  1   force =    -0.00008613   -0.00000053    0.00010727
     atom   39 type  2   force =     0.00020007   -0.00002329    0.00028001
     atom   40 type  2   force =    -0.00029882    0.00024653   -0.00006834
     atom   41 type  2   force =     0.00040853    0.00034287    0.00024604
     atom   42 type  2   force =    -0.00011542    0.00010488    0.00033261
     atom   43 type  1   force =    -0.00035495    0.00031794    0.00018327
     atom   44 type  1   force =    -0.00008561   -0.00012433    0.00066436
     atom   45 type  2   force =     0.00001952   -0.00007296    0.10391638
     atom   46 type  2   force =    -0.07039686   -0.00009740   -0.02687791
     atom   47 type  2   force =     0.07024613    0.00032975   -0.02693013
     atom   48 type  3   force =    -0.00144823   -0.00389019   -0.01049104
     atom   49 type  4   force =     0.00126442   -0.00043646    0.00450303
     atom   50 type  5   force =     0.00088344    0.00100186    0.00003727
     atom   51 type  5   force =     0.00157424    0.00017794    0.00037510
     atom   52 type  5   force =     0.00004579   -0.00042729   -0.00016362
     atom   53 type  5   force =    -0.00193859    0.00366422    0.00401311
     atom   54 type  5   force =     0.00103810    0.00055006    0.00111892

     Total force =     0.366479     Total SCF correction =     0.000487
  @ DRIVER MODE: Message from server: STATUS
  @ DRIVER MODE: Message from server: GETFORCE
  @ DRIVER MODE: Returning v,forces,stress,ensemble

     Writing output data file ./calc.save/
  @ DRIVER MODE: Message from server: EXIT
  @ DRIVE MODE: Exiting

     General routines

     Parallel routines

   This run was terminated on:   6:13: 5  20Jul2021

   JOB DONE.