     Program PWSCF v.6.7GPU starts on 15Sep2021 at 22:16: 9

     R & G space division:  proc/nbgrp/npool/nimage =      10
     Reading input from /storage/home/hcoda1/3/ntian30/research/carbon/CxH_vib/H2O_calc/ads_slab/CHN2HH2O_a/out_0022/pw.inp
Warning: card &CELL ignored
Warning: card   CELL_DYNAMICS='IPI', ignored
Warning: card / ignored

     Current dimensions of program PWSCF are:
     Max number of different atomic species (ntypx) = 10
     Max number of k-points (npk) =  40000
     Max angular momentum in pseudopotentials (lmaxx) =  3
     Presently no symmetry can be used with electric field

     Message from routine cell_base_init:
     DEPRECATED: use true lattice parameter, not A to a.u. conversion factor

     IMPORTANT: XC functional enforced from input :
     Exchange-correlation= BEEF-VDW
                           (   1   4  43  14   2   0   0)
     Any further DFT definition will be discarded
     Please, verify this is what you really want

  @ DRIVER MODE: Connecting to
 qe_1139763_2852626.sched-torque.pace.gatech.edua0o_fqgm_scratch
  using UNIX socket
  @ DRIVER MODE: Message from server: STATUS
  @ DRIVER MODE: Message from server: INIT
  @ DRIVER MODE: Receiving replica           0          -1
  @ DRIVER MODE: Receiving encoded integer          25
  @ DRIVER MODE:  SCF:  T  FORCE:  T  STRESS:  F  VC:  F  ENSEMBLE:  F
  @ DRIVER MODE:  SCF:  T  FORCE:  T  STRESS:  F  VC:  F  ENSEMBLE:  F

     Using Slab Decomposition

     bravais-lattice index     =            0
     lattice parameter (alat)  =       1.8897  a.u.
     unit-cell volume          =    6658.9804 (a.u.)^3
     number of atoms/cell      =           55
     number of atomic types    =            5
     number of electrons       =       402.00
     number of Kohn-Sham states=          211
     kinetic-energy cutoff     =      29.3995  Ry
     charge density cutoff     =     293.9946  Ry
     scf convergence threshold =      7.3E-08
     mixing beta               =       0.0500
     number of iterations used =            8  plain     mixing
     Exchange-correlation= BEEF-VDW
                           (   1   4  43  14   2   0   0)

     celldm(1)=   1.889726  celldm(2)=   0.000000  celldm(3)=   0.000000
     celldm(4)=   0.000000  celldm(5)=   0.000000  celldm(6)=   0.000000

     crystal axes: (cart. coord. in units of alat)
               a(1) = (   6.579727   0.000000   0.000000 )
               a(2) = (  -0.000775   5.961596   0.000000 )
               a(3) = (   0.000000   0.000000  25.155947 )

     reciprocal axes: (cart. coord. in units 2 pi/alat)
               b(1) = (  0.151982  0.000020  0.000000 )
               b(2) = (  0.000000  0.167740  0.000000 )
               b(3) = (  0.000000  0.000000  0.039752 )

     PseudoPot. # 1 for Ti read from file:
     /storage/coda1/p-amedford6/0/shared/rich_project_chbe-medford/medford-share/data/pseudos_module/espresso/nninc/pbe/van/Ti.UPF
     MD5 check sum: 8e4df49b7f0d34bbd5052bf3f5ea0213
     Pseudo is Ultrasoft, Zval = 12.0
     Generated by new atomic code, or converted to UPF format
     Using radial grid of  851 points,  6 beta functions with:
                l(1) =   0
                l(2) =   0
                l(3) =   1
                l(4) =   1
                l(5) =   2
                l(6) =   2
     Q(r) pseudized with  8 coefficients,  rinner =    1.000   1.000   1.000
                                                       1.000   1.000

     PseudoPot. # 2 for O  read from file:
     /storage/coda1/p-amedford6/0/shared/rich_project_chbe-medford/medford-share/data/pseudos_module/espresso/nninc/pbe/van/O.UPF
     MD5 check sum: 78c19812648e8988a0fe644b0f25305e
     Pseudo is Ultrasoft, Zval =  6.0
     Generated by new atomic code, or converted to UPF format
     Using radial grid of  737 points,  4 beta functions with:
                l(1) =   0
                l(2) =   0
                l(3) =   1
                l(4) =   1
     Q(r) pseudized with  8 coefficients,  rinner =    0.800   0.800   0.800

     PseudoPot. # 3 for N  read from file:
     /storage/coda1/p-amedford6/0/shared/rich_project_chbe-medford/medford-share/data/pseudos_module/espresso/nninc/pbe/van/N.UPF
     MD5 check sum: 90d10febe142ad51ac9d5be1deb811c4
     Pseudo is Ultrasoft, Zval =  5.0
     Generated by new atomic code, or converted to UPF format
     Using radial grid of  729 points,  4 beta functions with:
                l(1) =   0
                l(2) =   0
                l(3) =   1
                l(4) =   1
     Q(r) pseudized with  8 coefficients,  rinner =    0.800   0.800   0.800

     PseudoPot. # 4 for C  read from file:
     /storage/coda1/p-amedford6/0/shared/rich_project_chbe-medford/medford-share/data/pseudos_module/espresso/nninc/pbe/van/C.UPF
     MD5 check sum: 1a69bf6b8db32088f5b2163dbdb77a27
     Pseudo is Ultrasoft, Zval =  4.0
     Generated by new atomic code, or converted to UPF format
     Using radial grid of  721 points,  4 beta functions with:
                l(1) =   0
                l(2) =   0
                l(3) =   1
                l(4) =   1
     Q(r) pseudized with  8 coefficients,  rinner =    0.800   0.800   0.800

     PseudoPot. # 5 for H  read from file:
     /storage/coda1/p-amedford6/0/shared/rich_project_chbe-medford/medford-share/data/pseudos_module/espresso/nninc/pbe/van/H.UPF
     MD5 check sum: b5ee9d7bfd3a09ee7748110bda690ff7
     Pseudo is Ultrasoft, Zval =  1.0
     Generated by new atomic code, or converted to UPF format
     Using radial grid of  615 points,  1 beta functions with:
                l(1) =   0
     Q(r) pseudized with  8 coefficients,  rinner =    0.800

     atomic species   valence    mass     pseudopotential
        Ti1           12.00    47.86700     Ti( 1.00)
        O1             6.00    15.99900     O ( 1.00)
        N1             5.00    14.00700     N ( 1.00)
        C1             4.00    12.01100     C ( 1.00)
        H1             1.00     1.00800     H ( 1.00)

     No symmetry found

   Cartesian axes

     site n.     atom                  positions (alat units)
         1           Ti1 tau(   1) = (   0.0004258   2.9801865   6.0000000  )
         2           Ti1 tau(   2) = (   3.2906075   1.4906267   6.0002472  )
         3           O1  tau(   3) = (   0.0006271   0.0005054   7.9858123  )
         4           O1  tau(   4) = (   3.2906025   0.0005020   7.3038282  )
         5           O1  tau(   5) = (   4.5942328   1.4918067   9.2879030  )
         6           O1  tau(   6) = (   1.9868534   1.4903216   9.2879459  )
         7           Ti1 tau(   7) = (   3.2907910   2.8959150   9.1758416  )
         8           Ti1 tau(   8) = (   0.0015273   1.4827037   9.2680791  )
         9           O1  tau(   9) = (   3.2768631   0.0039008  11.3091060  )
        10           O1  tau(  10) = (   0.0116148   5.9584955  10.6183126  )
        11           O1  tau(  11) = (   1.2710838   1.4709840  12.6395574  )
        12           O1  tau(  12) = (   5.2772223   1.5075092  12.6020671  )
        13           Ti1 tau(  13) = (   0.0276258   2.9086511  12.7028215  )
        14           Ti1 tau(  14) = (   3.3492493   1.4375301  12.4845766  )
        15           O1  tau(  15) = (   6.5006329   5.9509897  14.6081112  )
        16           O1  tau(  16) = (   3.3450391   0.0041935  13.9069437  )
        17           O1  tau(  17) = (   4.5555219   1.5659029  16.0522165  )
        18           O1  tau(  18) = (   1.9836904   1.4119734  15.8927236  )
        19           Ti1 tau(  19) = (   3.2827818   2.9316656  15.8555152  )
        20           Ti1 tau(  20) = (   6.5629331   1.3437128  15.9803530  )
        21           O1  tau(  21) = (   3.2904802   0.0005063   4.7018136  )
        22           O1  tau(  22) = (   6.5074089   5.9525318  17.1494500  )
        23           O1  tau(  23) = (   1.3043587   1.4918075   6.0039043  )
        24           O1  tau(  24) = (   5.2767064   1.4903225   6.0039473  )
        25           Ti1 tau(  25) = (   0.0000382   5.9609847   6.0000000  )
        26           Ti1 tau(  26) = (   3.2902200   4.4714249   6.0002472  )
        27           O1  tau(  27) = (   0.0002396   2.9813036   7.9858123  )
        28           O1  tau(  28) = (   3.2902150   2.9813002   7.3038282  )
        29           O1  tau(  29) = (   4.5938453   4.4726049   9.2879030  )
        30           O1  tau(  30) = (   1.9864658   4.4711199   9.2879459  )
        31           Ti1 tau(  31) = (   3.2891106   5.8743827   9.1763621  )
        32           Ti1 tau(  32) = (   0.0006254   4.4649316   9.2693709  )
        33           O1  tau(  33) = (   3.2854303   2.9668816  11.2996989  )
        34           O1  tau(  34) = (   0.0092240   2.9805883  10.6323155  )
        35           O1  tau(  35) = (   1.2743094   4.4851408  12.6236879  )
        36           O1  tau(  36) = (   5.2782958   4.4707264  12.5946799  )
        37           Ti1 tau(  37) = (   0.0481499   5.8920156  12.5607908  )
        38           Ti1 tau(  38) = (   3.3544845   4.3749597  12.5572158  )
        39           O1  tau(  39) = (   6.5410016   3.0017514  14.6365314  )
        40           O1  tau(  40) = (   3.2441134   3.0029108  13.8718978  )
        41           O1  tau(  41) = (   4.5385932   4.4028810  16.0550583  )
        42           O1  tau(  42) = (   1.9619458   4.5383001  15.8611175  )
        43           Ti1 tau(  43) = (   3.2178196   5.9097812  15.7399460  )
        44           Ti1 tau(  44) = (   6.5330930   4.4908980  15.8705378  )
        45           O1  tau(  45) = (   3.2900926   2.9813045   4.7018136  )
        46           O1  tau(  46) = (   1.3039711   4.4726057   6.0039043  )
        47           O1  tau(  47) = (   5.2763189   4.4711207   6.0039473  )
        48           N1  tau(  48) = (   1.2867840   3.0293760  18.3347772  )
        49           C1  tau(  49) = (   2.5003166   3.0326976  17.9707196  )
        50           H1  tau(  50) = (   3.2053588   3.1791635  18.8000936  )
        51           N1  tau(  51) = (   0.2138509   2.9971109  17.4421441  )
        52           H1  tau(  52) = (   5.9621615   2.9869774  18.0311354  )
        53           O1  tau(  53) = (   3.4290693   5.9360351  18.0748810  )
        54           H1  tau(  54) = (   4.3780305   0.1327944  18.2306609  )
        55           H1  tau(  55) = (   2.9458904   0.7245148  18.4607207  )

     number of k points=    10  Fermi-Dirac smearing, width (Ry)=  0.0073
                       cart. coord. in units 2pi/alat
        k(    1) = (   0.0000000   0.0000000   0.0000000), wk =   0.1250000
        k(    2) = (   0.0000000   0.0419351   0.0000000), wk =   0.2500000
        k(    3) = (   0.0000000  -0.0838702   0.0000000), wk =   0.1250000
        k(    4) = (   0.0379955   0.0000049   0.0000000), wk =   0.2500000
        k(    5) = (   0.0379955   0.0419400   0.0000000), wk =   0.2500000
        k(    6) = (   0.0379955  -0.0838652   0.0000000), wk =   0.2500000
        k(    7) = (   0.0379955  -0.0419301   0.0000000), wk =   0.2500000
        k(    8) = (  -0.0759910  -0.0000099   0.0000000), wk =   0.1250000
        k(    9) = (  -0.0759910   0.0419252   0.0000000), wk =   0.2500000
        k(   10) = (  -0.0759910  -0.0838800   0.0000000), wk =   0.1250000

     Initial potential from superposition of free atoms

     starting charge  385.99915, renormalised to  402.00000

     negative rho (up, down):  1.831E-02 0.000E+00

     %%%%%%%%%%%%%%%%%%%%%%%%%%%%%%%%%%%%%%%%%%%%%%%%%%%%%%%%%%%%%%%%%%%%%%%%
     %                                                                      %
     % You are using vdW-DF, which was implemented by the Thonhauser group. %
     % Please cite the following two papers that made this development      %
     % possible and the two reviews that describe the various versions:     %
     %                                                                      %
     %   T. Thonhauser et al., PRL 115, 136402 (2015).                      %
     %   T. Thonhauser et al., PRB 76, 125112 (2007).                       %
     %   K. Berland et al., Rep. Prog. Phys. 78, 066501 (2015).             %
     %   D.C. Langreth et al., J. Phys.: Condens. Matter 21, 084203 (2009). %
     %                                                                      %
     %                                                                      %
     % If you are calculating the stress with vdW-DF, please also cite:     %
     %                                                                      %
     %   R. Sabatini et al., J. Phys.: Condens. Matter 24, 424209 (2012).   %
     %                                                                      %
     %%%%%%%%%%%%%%%%%%%%%%%%%%%%%%%%%%%%%%%%%%%%%%%%%%%%%%%%%%%%%%%%%%%%%%%%

     Adding external electric field

     Computed dipole along edir(3) :
        Dipole              -11.0899 Ry au,        -28.1877 Debye
        Dipole field         -0.0209 Ry au,

        Potential amp.        1.9400 Ry
        Total length         46.3494 bohr

     Starting wfcs are  304 atomic wfcs
  @ DRIVER MODE: Message from server: STATUS
  @ DRIVER MODE: Message from server: POSDATA
  @ DRIVER MODE: Reading and sharing cell
  @ DRIVER MODE: Reading and sharing positions
  @ DRIVER MODE: Received positions

     Self-consistent Calculation

     iteration #  1     ecut=    29.40 Ry     beta= 0.05
     Davidson diagonalization with overlap
     c_bands:  5 eigenvalues not converged
     c_bands:  1 eigenvalues not converged
     c_bands:  3 eigenvalues not converged
     c_bands:  4 eigenvalues not converged
     c_bands:  1 eigenvalues not converged
     c_bands:  1 eigenvalues not converged
     c_bands:  1 eigenvalues not converged
     c_bands:  1 eigenvalues not converged
     ethr =  1.00E-05,  avg # of iterations = 28.9

[...]

     total energy              =   -2403.81864375 Ry
     estimated scf accuracy    <    6374.28924080 Ry

     iteration #  2     ecut=    29.40 Ry     beta= 0.05
     Davidson diagonalization with overlap
     ethr =  1.00E-02,  avg # of iterations = 24.7

[...]

     iteration # 43     ecut=    29.40 Ry     beta= 0.05
     Davidson diagonalization with overlap
     c_bands:  1 eigenvalues not converged
     ethr =  2.09E-07,  avg # of iterations =  5.0

[...]

     total energy              =   -2972.69113411 Ry
     estimated scf accuracy    <       0.00000008 Ry

     iteration # 71     ecut=    29.40 Ry     beta= 0.05
     Davidson diagonalization with overlap
     ethr =  1.98E-11,  avg # of iterations =  4.9

     negative rho (up, down):  1.793E-02 0.000E+00

     Adding external electric field

     Computed dipole along edir(3) :
        Dipole                0.3634 Ry au,          0.9236 Debye
        Dipole field          0.0007 Ry au,

        Potential amp.       -0.0636 Ry
        Total length         46.3494 bohr

     End of self-consistent calculation

          k = 0.0000 0.0000 0.0000 ( 18029 PWs)   bands (ev):

   -56.3414 -56.3076 -55.9395 -55.9058 -55.7516 -55.7151 -55.5603 -55.5559
   -55.5471 -55.5237 -55.5137 -55.4469 -55.2573 -55.2400 -55.1450 -55.1111
   -32.7949 -32.6340 -32.6071 -32.4995 -32.4187 -32.4146 -32.4066 -32.2404
   -32.1570 -32.1528 -32.0943 -32.0816 -32.0679 -32.0428 -32.0374 -31.9785
   -31.9743 -31.9658 -31.9326 -31.9088 -31.9077 -31.8654 -31.8509 -31.8427
   -31.8179 -31.7803 -31.7586 -31.7316 -31.7286 -31.7094 -31.7075 -31.7044
   -31.6869 -31.6694 -31.6525 -31.6350 -31.5523 -31.5436 -31.5128 -31.5007
   -31.4757 -31.4735 -31.4523 -31.4420 -31.3619 -31.3334 -31.2769 -31.1652
   -18.7477 -16.9450 -16.6584 -16.3466 -16.1452 -15.9614 -15.8989 -15.8391
   -15.7866 -15.6658 -15.6044 -15.5755 -15.5036 -15.3985 -15.3790 -15.3527
   -15.3007 -15.2849 -15.2674 -15.2381 -15.1844 -15.1511 -15.1324 -15.0569
   -15.0354 -15.0231 -14.8998 -14.8315 -14.8071 -14.7722 -14.5207 -13.6437
   -13.5307 -12.2849  -6.7346  -6.5292  -4.1601  -4.0824  -3.9052  -3.7749
    -3.6661  -3.6179  -3.4668  -3.4111  -3.3639  -3.2658  -3.1190  -3.0870
    -3.0142  -2.9639  -2.9216  -2.8632  -2.8042  -2.7588  -2.7182  -2.6351
    -2.6291  -2.6166  -2.5986  -2.5795  -2.5628  -2.4474  -2.3558  -2.3378
    -2.3149  -2.2712  -2.2519  -2.2404  -2.1893  -2.1608  -2.0768  -2.0673
    -2.0205  -1.9623  -1.9167  -1.8090  -1.7961  -1.7206  -1.7016  -1.6599
    -1.5282  -1.4046  -1.3738  -1.3223  -1.3080  -1.2250  -1.2034  -1.1757
    -1.0784  -1.0658  -1.0220  -1.0003  -0.8758  -0.8507  -0.8019  -0.7947
    -0.7658  -0.6703  -0.6315  -0.5197  -0.4755  -0.4305  -0.4206  -0.3460
    -0.3171  -0.2725  -0.2222  -0.1694  -0.1673  -0.1394  -0.0569  -0.0152
     0.0305   0.0791   0.1149   0.2034   0.2564   0.2934   0.3070   0.3958
     0.4390   0.4541   0.5190   0.5884   0.6391   0.7056   0.7494   0.8635
     0.8787   0.8958   0.9772   1.1007   1.4097   1.4317   1.4721   1.6541
     2.6493   2.8819   3.0027   3.1668   3.3120   3.3614   3.6305   3.6856
     3.7289   3.7621   3.8406

[...]

          k = 0.0380-0.0419 0.0000 ( 17876 PWs)   bands (ev):

[...]

          k =-0.0760-0.0000 0.0000 ( 17886 PWs)   bands (ev):

[...]

          k =-0.0760-0.0839 0.0000 ( 17948 PWs)   bands (ev):

   -56.3250 -56.3239 -55.9243 -55.9207 -55.7401 -55.7264 -55.5556 -55.5444
   -55.5378 -55.5327 -55.5288 -55.4454 -55.2586 -55.2410 -55.1280 -55.1280
   -32.6201 -32.6189 -32.6110 -32.6104 -32.4519 -32.4506 -32.2399 -32.2359
   -32.1297 -32.1264 -32.1168 -32.1095 -32.0403 -32.0302 -31.9683 -31.9582
   -31.9488 -31.9461 -31.8978 -31.8879 -31.8664 -31.8646 -31.8581 -31.8261
   -31.8121 -31.7816 -31.7741 -31.7578 -31.7550 -31.7471 -31.7454 -31.7304
   -31.7254 -31.7153 -31.7025 -31.6317 -31.6085 -31.5562 -31.5269 -31.5139
   -31.4789 -31.4652 -31.4651 -31.3579 -31.3578 -31.3349 -31.3195 -31.3194
   -18.7453 -16.9237 -16.0627 -16.0504 -15.9326 -15.9276 -15.7491 -15.7306
   -15.6970 -15.6717 -15.6355 -15.5492 -15.4845 -15.4765 -15.4698 -15.4062
   -15.3613 -15.3516 -15.3326 -15.3048 -15.2790 -15.2531 -15.1609 -15.1348
   -15.1310 -15.1013 -15.0196 -15.0074 -14.9468 -14.8097 -14.7397 -13.6338
   -13.6333 -12.3062  -6.7166  -6.4505  -3.9972  -3.8351  -3.2334  -3.1864
    -3.1736  -3.0644  -3.0381  -2.9634  -2.8670  -2.8495  -2.8348  -2.8011
    -2.7761  -2.7677  -2.7516  -2.7074  -2.6596  -2.6379  -2.6223  -2.6137
    -2.6087  -2.5962  -2.5657  -2.5370  -2.4785  -2.4689  -2.4374  -2.4174
    -2.3893  -2.3128  -2.3041  -2.2880  -2.2867  -2.2322  -2.1317  -2.1160
    -2.1072  -2.0643  -2.0012  -1.9305  -1.8419  -1.8003  -1.7348  -1.6780
    -1.6217  -1.5927  -1.5817  -1.4813  -1.4218  -1.4121  -1.3643  -1.3121
    -1.2341  -1.1963  -1.1587  -1.1472  -1.1346  -1.0952  -1.0446  -0.9843
    -0.8690  -0.8457  -0.8346  -0.7713  -0.7673  -0.7571  -0.6480  -0.6175
    -0.5665  -0.5421  -0.5209  -0.4842  -0.4539  -0.3812  -0.2885  -0.2417
    -0.1141  -0.0988  -0.0432   0.0044   0.0161   0.1060   0.1961   0.2201
     0.3587   0.3725   0.4048   0.5369   0.6075   0.6579   0.6759   0.7985
     0.8179   0.8535   1.0205   1.2651   1.2695   1.2884   1.2895   1.6051
     2.6266   3.4210   3.4233   3.4532   3.4553   3.6651   3.6787   3.7564
     3.7943   3.8857   3.9254

     the Fermi energy is     2.8233 ev

!    total energy              =   -2972.69115318 Ry
     estimated scf accuracy    <       0.00000006 Ry
     smearing contrib. (-TS)   =      -0.01345757 Ry
     internal energy E=F+TS    =   -2972.67769561 Ry

     The total energy is F=E-TS. E is the sum of the following terms:
     one-electron contribution =  -24586.76270096 Ry
     hartree contribution      =   12385.40883739 Ry
     xc contribution           =    -493.17500507 Ry
     ewald contribution        =    9721.85092387 Ry
     electric field correction =       0.00024917 Ry

     convergence has been achieved in  71 iterations

     Forces acting on atoms (cartesian axes, Ry/au):

     atom    1 type  1   force =    -0.00000507   -0.00029128    0.10605756
     atom    2 type  1   force =    -0.00021868   -0.00076876   -0.16693937
     atom    3 type  2   force =    -0.00002345   -0.00013637   -0.03888586
     atom    4 type  2   force =    -0.00009929   -0.00037869    0.03649413
     atom    5 type  2   force =    -0.00755572   -0.00012665   -0.00577422
     atom    6 type  2   force =     0.00856885    0.00078125   -0.00746340
     atom    7 type  1   force =    -0.00079391   -0.00145842    0.01970085
     atom    8 type  1   force =     0.00110405    0.01828771    0.06308217
     atom    9 type  2   force =    -0.00008420   -0.00019660    0.00036142
     atom   10 type  2   force =    -0.00264965    0.00203359   -0.04758592
     atom   11 type  2   force =    -0.00022683   -0.00002751    0.00011096
     atom   12 type  2   force =     0.00036777   -0.00014137    0.00007843
     atom   13 type  1   force =     0.00006259   -0.00011456   -0.00041553
     atom   14 type  1   force =    -0.00049280    0.00000556    0.00000249
     atom   15 type  2   force =     0.00026121    0.00096113   -0.00012889
     atom   16 type  2   force =    -0.00012666   -0.00028858    0.00062408
     atom   17 type  2   force =     0.00020646   -0.00025461    0.00048331
     atom   18 type  2   force =    -0.00004578    0.00016247   -0.00014527
     atom   19 type  1   force =     0.00002888    0.00025513    0.00114095
     atom   20 type  1   force =     0.00024476   -0.00000597   -0.00026354
     atom   21 type  2   force =     0.00004830   -0.00001841    0.10090232
     atom   22 type  2   force =     0.00028658    0.00174289    0.00062728
     atom   23 type  2   force =    -0.07580210   -0.00011832   -0.02986231
     atom   24 type  2   force =     0.07569245    0.00033625   -0.02987278
     atom   25 type  1   force =     0.00020014   -0.00055387    0.10641858
     atom   26 type  1   force =    -0.00007128   -0.00026320   -0.16738084
     atom   27 type  2   force =    -0.00006182   -0.00031984   -0.03753705
     atom   28 type  2   force =     0.00007036   -0.00045844    0.03695207
     atom   29 type  2   force =    -0.00852635    0.00126475   -0.00516841
     atom   30 type  2   force =     0.00948085    0.00122776   -0.00688563
     atom   31 type  1   force =    -0.00129755   -0.00008303    0.02603000
     atom   32 type  1   force =     0.00115893   -0.02138731    0.06365314
     atom   33 type  2   force =    -0.00002421    0.00025159   -0.00002302
     atom   34 type  2   force =    -0.00008295    0.00091045   -0.05940610
     atom   35 type  2   force =    -0.00008309    0.00011143   -0.00012796
     atom   36 type  2   force =    -0.00011486    0.00038502   -0.00014544
     atom   37 type  1   force =     0.00002647   -0.00030006   -0.00006275
     atom   38 type  1   force =    -0.00042053   -0.00010002   -0.00017028
     atom   39 type  2   force =    -0.00020684    0.00030496    0.00042795
     atom   40 type  2   force =     0.00045862    0.00013896   -0.00036227
     atom   41 type  2   force =    -0.00019966    0.00037531   -0.00009660
     atom   42 type  2   force =     0.00065493    0.00029388    0.00002577
     atom   43 type  1   force =    -0.00041126   -0.00015010   -0.00019132
     atom   44 type  1   force =     0.00038906   -0.00026769   -0.00040887
     atom   45 type  2   force =     0.00002564   -0.00000262    0.10093477
     atom   46 type  2   force =    -0.07581173   -0.00010706   -0.02981859
     atom   47 type  2   force =     0.07568166    0.00032208   -0.02985655
     atom   48 type  3   force =    -0.00022640    0.00121387    0.00022329
     atom   49 type  4   force =     0.00104781    0.00112707    0.00076458
     atom   50 type  5   force =    -0.00030576   -0.00162210   -0.00018844
     atom   51 type  3   force =     0.00014375   -0.00324184   -0.00017729
     atom   52 type  5   force =     0.00006600    0.00074604    0.00023388
     atom   53 type  2   force =    -0.00056144    0.00002307   -0.00081154
     atom   54 type  5   force =    -0.00024893    0.00009515    0.00043337
     atom   55 type  5   force =     0.00050270   -0.00017413    0.00039267

     Total force =     0.383607     Total SCF correction =     0.000552
  @ DRIVER MODE: Message from server: STATUS
  @ DRIVER MODE: Message from server: GETFORCE
  @ DRIVER MODE: Returning v,forces,stress,ensemble

     Writing output data file ./calc.save/
  @ DRIVER MODE: Message from server: EXIT
  @ DRIVE MODE: Exiting

     General routines

     Parallel routines

   This run was terminated on:  22:35: 8  15Sep2021

   JOB DONE.