     Program PWSCF v.6.7GPU starts on  9Sep2021 at  3:42:50

     R & G space division:  proc/nbgrp/npool/nimage =      10
     Reading input from /storage/home/hcoda1/3/ntian30/research/carbon/CxH_vib/CH3_calc/ads_slab/CH3N_a/out_0023/pw.inp
Warning: card &CELL ignored
Warning: card   CELL_DYNAMICS='IPI', ignored
Warning: card / ignored

     Current dimensions of program PWSCF are:
     Max number of different atomic species (ntypx) = 10
     Max number of k-points (npk) =  40000
     Max angular momentum in pseudopotentials (lmaxx) =  3
     Presently no symmetry can be used with electric field

     Message from routine cell_base_init:
     DEPRECATED: use true lattice parameter, not A to a.u. conversion factor

     IMPORTANT: XC functional enforced from input :
     Exchange-correlation= BEEF-VDW
                           (   1   4  43  14   2   0   0)
     Any further DFT definition will be discarded
     Please, verify this is what you really want

  @ DRIVER MODE: Connecting to
 qe_1139763_2767403.sched-torque.pace.gatech.eduk0w36e50_scratch
  using UNIX socket
  @ DRIVER MODE: Message from server: STATUS
  @ DRIVER MODE: Message from server: INIT
  @ DRIVER MODE: Receiving replica           0          -1
  @ DRIVER MODE: Receiving encoded integer          25
  @ DRIVER MODE:  SCF:  T  FORCE:  T  STRESS:  F  VC:  F  ENSEMBLE:  F
  @ DRIVER MODE:  SCF:  T  FORCE:  T  STRESS:  F  VC:  F  ENSEMBLE:  F

     Using Slab Decomposition

     bravais-lattice index     =            0
     lattice parameter (alat)  =       1.8897  a.u.
     unit-cell volume          =    6658.9804 (a.u.)^3
     number of atoms/cell      =           52
     number of atomic types    =            5
     number of electrons       =       390.00
     number of Kohn-Sham states=          205
     kinetic-energy cutoff     =      29.3995  Ry
     charge density cutoff     =     293.9946  Ry
     scf convergence threshold =      7.3E-08
     mixing beta               =       0.0500
     number of iterations used =            8  plain     mixing
     Exchange-correlation= BEEF-VDW
                           (   1   4  43  14   2   0   0)

     celldm(1)=   1.889726  celldm(2)=   0.000000  celldm(3)=   0.000000
     celldm(4)=   0.000000  celldm(5)=   0.000000  celldm(6)=   0.000000

     crystal axes: (cart. coord. in units of alat)
               a(1) = (   6.579727   0.000000   0.000000 )
               a(2) = (  -0.000775   5.961596   0.000000 )
               a(3) = (   0.000000   0.000000  25.155947 )

     reciprocal axes: (cart. coord. in units 2 pi/alat)
               b(1) = (  0.151982  0.000020  0.000000 )
               b(2) = (  0.000000  0.167740  0.000000 )
               b(3) = (  0.000000  0.000000  0.039752 )

     PseudoPot. # 1 for Ti read from file:
     /storage/coda1/p-amedford6/0/shared/rich_project_chbe-medford/medford-share/data/pseudos_module/espresso/nninc/pbe/van/Ti.UPF
     MD5 check sum: 8e4df49b7f0d34bbd5052bf3f5ea0213
     Pseudo is Ultrasoft, Zval = 12.0
     Generated by new atomic code, or converted to UPF format
     Using radial grid of  851 points,  6 beta functions with:
                l(1) =   0
                l(2) =   0
                l(3) =   1
                l(4) =   1
                l(5) =   2
                l(6) =   2
     Q(r) pseudized with  8 coefficients,  rinner =    1.000   1.000   1.000
                                                       1.000   1.000

     PseudoPot. # 2 for O  read from file:
     /storage/coda1/p-amedford6/0/shared/rich_project_chbe-medford/medford-share/data/pseudos_module/espresso/nninc/pbe/van/O.UPF
     MD5 check sum: 78c19812648e8988a0fe644b0f25305e
     Pseudo is Ultrasoft, Zval =  6.0
     Generated by new atomic code, or converted to UPF format
     Using radial grid of  737 points,  4 beta functions with:
                l(1) =   0
                l(2) =   0
                l(3) =   1
                l(4) =   1
     Q(r) pseudized with  8 coefficients,  rinner =    0.800   0.800   0.800

     PseudoPot. # 3 for N  read from file:
     /storage/coda1/p-amedford6/0/shared/rich_project_chbe-medford/medford-share/data/pseudos_module/espresso/nninc/pbe/van/N.UPF
     MD5 check sum: 90d10febe142ad51ac9d5be1deb811c4
     Pseudo is Ultrasoft, Zval =  5.0
     Generated by new atomic code, or converted to UPF format
     Using radial grid of  729 points,  4 beta functions with:
                l(1) =   0
                l(2) =   0
                l(3) =   1
                l(4) =   1
     Q(r) pseudized with  8 coefficients,  rinner =    0.800   0.800   0.800

     PseudoPot. # 4 for C  read from file:
     /storage/coda1/p-amedford6/0/shared/rich_project_chbe-medford/medford-share/data/pseudos_module/espresso/nninc/pbe/van/C.UPF
     MD5 check sum: 1a69bf6b8db32088f5b2163dbdb77a27
     Pseudo is Ultrasoft, Zval =  4.0
     Generated by new atomic code, or converted to UPF format
     Using radial grid of  721 points,  4 beta functions with:
                l(1) =   0
                l(2) =   0
                l(3) =   1
                l(4) =   1
     Q(r) pseudized with  8 coefficients,  rinner =    0.800   0.800   0.800

     PseudoPot. # 5 for H  read from file:
     /storage/coda1/p-amedford6/0/shared/rich_project_chbe-medford/medford-share/data/pseudos_module/espresso/nninc/pbe/van/H.UPF
     MD5 check sum: b5ee9d7bfd3a09ee7748110bda690ff7
     Pseudo is Ultrasoft, Zval =  1.0
     Generated by new atomic code, or converted to UPF format
     Using radial grid of  615 points,  1 beta functions with:
                l(1) =   0
     Q(r) pseudized with  8 coefficients,  rinner =    0.800

     atomic species   valence    mass     pseudopotential
        Ti1           12.00    47.86700     Ti( 1.00)
        O1             6.00    15.99900     O ( 1.00)
        N1             5.00    14.00700     N ( 1.00)
        C1             4.00    12.01100     C ( 1.00)
        H1             1.00     1.00800     H ( 1.00)

     No symmetry found

   Cartesian axes

     site n.     atom                  positions (alat units)
         1           Ti1 tau(   1) = (   0.0004258   2.9801865   6.0000000  )
         2           Ti1 tau(   2) = (   3.2906075   1.4906267   6.0002472  )
         3           O1  tau(   3) = (   0.0006271   0.0005054   7.9858123  )
         4           O1  tau(   4) = (   3.2906025   0.0005020   7.3038282  )
         5           O1  tau(   5) = (   4.5942328   1.4918067   9.2879030  )
         6           O1  tau(   6) = (   1.9868534   1.4903216   9.2879459  )
         7           Ti1 tau(   7) = (   3.2907910   2.8959150   9.1758416  )
         8           Ti1 tau(   8) = (   0.0015273   1.4827037   9.2680791  )
         9           O1  tau(   9) = (   3.3018735   5.9614316  11.2970789  )
        10           O1  tau(  10) = (   0.0116148   5.9584955  10.6183126  )
        11           O1  tau(  11) = (   1.3353665   1.4968727  12.6140821  )
        12           O1  tau(  12) = (   5.3123320   1.5002621  12.6324210  )
        13           Ti1 tau(  13) = (   6.4913169   2.9877414  12.7576577  )
        14           Ti1 tau(  14) = (   3.1819880   1.4874128  12.4666476  )
        15           O1  tau(  15) = (   0.0325390   5.9514364  14.5942808  )
        16           O1  tau(  16) = (   3.3157460   0.0104736  13.8786857  )
        17           O1  tau(  17) = (   4.5538541   1.5308062  16.0536203  )
        18           O1  tau(  18) = (   2.1012647   1.5271178  16.0466835  )
        19           Ti1 tau(  19) = (   3.3239613   3.0121693  15.6870930  )
        20           Ti1 tau(  20) = (   0.0188375   1.6096557  16.0875739  )
        21           O1  tau(  21) = (   3.2904802   0.0005063   4.7018136  )
        22           O1  tau(  22) = (   0.0443345   0.0604659  17.2041813  )
        23           O1  tau(  23) = (   1.3043587   1.4918075   6.0039043  )
        24           O1  tau(  24) = (   5.2767064   1.4903225   6.0039473  )
        25           Ti1 tau(  25) = (   0.0000382   5.9609847   6.0000000  )
        26           Ti1 tau(  26) = (   3.2902200   4.4714249   6.0002472  )
        27           O1  tau(  27) = (   0.0002396   2.9813036   7.9858123  )
        28           O1  tau(  28) = (   3.2902150   2.9813002   7.3038282  )
        29           O1  tau(  29) = (   4.5938453   4.4726049   9.2879030  )
        30           O1  tau(  30) = (   1.9864658   4.4711199   9.2879459  )
        31           Ti1 tau(  31) = (   3.2891106   5.8743827   9.1763621  )
        32           Ti1 tau(  32) = (   0.0006254   4.4649316   9.2693709  )
        33           O1  tau(  33) = (   3.3028429   2.9834257  11.2952420  )
        34           O1  tau(  34) = (   0.0092240   2.9805883  10.6323155  )
        35           O1  tau(  35) = (   1.3370139   4.4664586  12.6123119  )
        36           O1  tau(  36) = (   5.3107101   4.4655690  12.6333123  )
        37           Ti1 tau(  37) = (   6.5188704   0.0058144  12.7695920  )
        38           Ti1 tau(  38) = (   3.1805296   4.4670443  12.4671176  )
        39           O1  tau(  39) = (   0.0099197   2.9765079  14.6559069  )
        40           O1  tau(  40) = (   3.3143426   2.9928857  13.8797190  )
        41           O1  tau(  41) = (   4.5573730   4.5089470  16.0521860  )
        42           O1  tau(  42) = (   2.1018054   4.5121927  16.0508938  )
        43           Ti1 tau(  43) = (   3.3145791   0.0316975  15.6896801  )
        44           Ti1 tau(  44) = (   0.0207397   4.5876961  16.1385408  )
        45           O1  tau(  45) = (   3.2900926   2.9813045   4.7018136  )
        46           O1  tau(  46) = (   1.3039711   4.4726057   6.0039043  )
        47           O1  tau(  47) = (   5.2763189   4.4711207   6.0039473  )
        48           N1  tau(  48) = (   0.0936308   3.0233000  17.3257847  )
        49           C1  tau(  49) = (   0.4281149   3.0137428  18.7308649  )
        50           H1  tau(  50) = (   0.7292188   4.0033843  19.0862330  )
        51           H1  tau(  51) = (   6.1445545   2.6862439  19.3132575  )
        52           H1  tau(  52) = (   1.2401080   2.3040860  18.9332505  )

     number of k points=    10  Fermi-Dirac smearing, width (Ry)=  0.0073
                       cart. coord. in units 2pi/alat
        k(    1) = (   0.0000000   0.0000000   0.0000000), wk =   0.1250000
        k(    2) = (   0.0000000   0.0419351   0.0000000), wk =   0.2500000
        k(    3) = (   0.0000000  -0.0838702   0.0000000), wk =   0.1250000
        k(    4) = (   0.0379955   0.0000049   0.0000000), wk =   0.2500000
        k(    5) = (   0.0379955   0.0419400   0.0000000), wk =   0.2500000
        k(    6) = (   0.0379955  -0.0838652   0.0000000), wk =   0.2500000
        k(    7) = (   0.0379955  -0.0419301   0.0000000), wk =   0.2500000
        k(    8) = (  -0.0759910  -0.0000099   0.0000000), wk =   0.1250000
        k(    9) = (  -0.0759910   0.0419252   0.0000000), wk =   0.2500000
        k(   10) = (  -0.0759910  -0.0838800   0.0000000), wk =   0.1250000

     Initial potential from superposition of free atoms

     starting charge  373.99917, renormalised to  390.00000

     negative rho (up, down):  1.731E-02 0.000E+00

     %%%%%%%%%%%%%%%%%%%%%%%%%%%%%%%%%%%%%%%%%%%%%%%%%%%%%%%%%%%%%%%%%%%%%%%%
     %                                                                      %
     % You are using vdW-DF, which was implemented by the Thonhauser group. %
     % Please cite the following two papers that made this development      %
     % possible and the two reviews that describe the various versions:     %
     %                                                                      %
     %   T. Thonhauser et al., PRL 115, 136402 (2015).                      %
     %   T. Thonhauser et al., PRB 76, 125112 (2007).                       %
     %   K. Berland et al., Rep. Prog. Phys. 78, 066501 (2015).             %
     %   D.C. Langreth et al., J. Phys.: Condens. Matter 21, 084203 (2009). %
     %                                                                      %
     %                                                                      %
     % If you are calculating the stress with vdW-DF, please also cite:     %
     %                                                                      %
     %   R. Sabatini et al., J. Phys.: Condens. Matter 24, 424209 (2012).   %
     %                                                                      %
     %%%%%%%%%%%%%%%%%%%%%%%%%%%%%%%%%%%%%%%%%%%%%%%%%%%%%%%%%%%%%%%%%%%%%%%%

     Adding external electric field

     Computed dipole along edir(3) :
        Dipole               -4.6264 Ry au,        -11.7591 Debye
        Dipole field         -0.0087 Ry au,

        Potential amp.        0.8093 Ry
        Total length         46.3494 bohr

     Starting wfcs are  295 atomic wfcs
  @ DRIVER MODE: Message from server: STATUS
  @ DRIVER MODE: Message from server: POSDATA
  @ DRIVER MODE: Reading and sharing cell
  @ DRIVER MODE: Reading and sharing positions
  @ DRIVER MODE: Received positions

     Self-consistent Calculation

     iteration #  1     ecut=    29.40 Ry     beta= 0.05
     Davidson diagonalization with overlap
     c_bands:  3 eigenvalues not converged
     c_bands:  3 eigenvalues not converged
     c_bands:  2 eigenvalues not converged
     c_bands:  4 eigenvalues not converged
     c_bands:  4 eigenvalues not converged
     c_bands:  2 eigenvalues not converged
     c_bands:  2 eigenvalues not converged
     c_bands:  4 eigenvalues not converged
     ethr =  1.00E-05,  avg # of iterations = 19.7

[...]

     total energy              =   -2877.66475344 Ry
     estimated scf accuracy    <     478.63197828 Ry

     iteration #  2     ecut=    29.40 Ry     beta= 0.05
     Davidson diagonalization with overlap
     ethr =  1.00E-02,  avg # of iterations = 13.8

[...]

     iteration # 49     ecut=    29.40 Ry     beta= 0.05
     Davidson diagonalization with overlap
     c_bands:  2 eigenvalues not converged
     ethr =  2.26E-10,  avg # of iterations =  6.5

[...]

     total energy              =   -2919.13178177 Ry
     estimated scf accuracy    <       0.00000007 Ry

     iteration # 55     ecut=    29.40 Ry     beta= 0.05
     Davidson diagonalization with overlap
     ethr =  1.92E-11,  avg # of iterations =  5.2

     negative rho (up, down):  1.788E-02 0.000E+00

     Adding external electric field

     Computed dipole along edir(3) :
        Dipole                0.2615 Ry au,          0.6646 Debye
        Dipole field          0.0005 Ry au,

        Potential amp.       -0.0457 Ry
        Total length         46.3494 bohr

     End of self-consistent calculation

          k = 0.0000 0.0000 0.0000 ( 18029 PWs)   bands (ev):

   -56.8870 -56.8534 -56.0091 -55.9973 -55.9741 -55.9644 -55.8622 -55.8235
   -55.6462 -55.6108 -55.5512 -55.5481 -55.5173 -55.4388 -54.9669 -54.9199
   -33.3150 -33.1618 -33.1336 -33.0630 -32.9720 -32.9410 -32.4800 -32.4737
   -32.4029 -32.2932 -32.2468 -32.2228 -32.2045 -32.1831 -32.1495 -32.1451
   -32.1413 -32.1382 -32.1126 -32.1105 -32.0986 -32.0693 -32.0430 -32.0291
   -32.0161 -31.9964 -31.9898 -31.9662 -31.9435 -31.8898 -31.8775 -31.8656
   -31.7896 -31.7849 -31.7622 -31.7231 -31.7128 -31.6788 -31.6681 -31.6432
   -31.6245 -31.5678 -31.4969 -31.2177 -31.1921 -31.1713 -31.1408 -31.0256
   -17.0513 -16.6160 -16.3856 -16.2497 -16.1824 -16.1278 -16.0839 -15.9600
   -15.8867 -15.8819 -15.8416 -15.8094 -15.7386 -15.6003 -15.5017 -15.4445
   -15.4009 -15.2818 -15.2230 -15.1895 -15.1837 -15.1446 -15.1299 -14.9326
   -14.9061 -14.8181 -14.7987 -14.6713 -14.4394 -14.0500 -13.9400 -13.0878
    -7.8170  -4.6168  -4.1123  -3.8712  -3.7883  -3.6800  -3.6673  -3.5871
    -3.4679  -3.4211  -3.3745  -3.2584  -3.2550  -3.1088  -3.1078  -3.0627
    -3.0602  -3.0243  -2.9773  -2.9422  -2.9098  -2.8928  -2.8853  -2.7350
    -2.6322  -2.5653  -2.5383  -2.5253  -2.4949  -2.4230  -2.3931  -2.3837
    -2.3798  -2.2746  -2.1295  -2.1285  -2.0959  -2.0540  -2.0514  -2.0130
    -2.0008  -1.8756  -1.7850  -1.6757  -1.6663  -1.6288  -1.5671  -1.5606
    -1.4640  -1.3885  -1.3181  -1.3005  -1.1910  -1.1469  -1.1238  -1.0345
    -0.9727  -0.9351  -0.9124  -0.8959  -0.7931  -0.7765  -0.7693  -0.6757
    -0.6636  -0.6200  -0.5270  -0.5039  -0.4986  -0.4161  -0.4090  -0.3041
    -0.2757  -0.2310  -0.1982  -0.0934  -0.0728   0.0253   0.0624   0.0811
     0.2025   0.2198   0.2803   0.3527   0.4181   0.4348   0.4703   0.5009
     0.5172   0.5952   0.7074   0.7145   0.8183   0.8513   1.0227   1.0617
     1.3461   1.3545   2.0465   2.3875   2.5472   2.8455   3.0347   3.1480
     3.3624   3.3779   3.3833   3.5549   3.6070

[...]

          k = 0.0380-0.0419 0.0000 ( 17876 PWs)   bands (ev):

[...]

          k =-0.0760-0.0000 0.0000 ( 17886 PWs)   bands (ev):

[...]

          k =-0.0760-0.0839 0.0000 ( 17948 PWs)   bands (ev):

   -56.8703 -56.8700 -55.9939 -55.9881 -55.9816 -55.9810 -55.8507 -55.8349
   -55.6315 -55.6254 -55.5453 -55.5343 -55.5341 -55.4416 -54.9590 -54.9278
   -33.1476 -33.1473 -33.1319 -33.1317 -33.0161 -33.0158 -32.3098 -32.3075
   -32.2982 -32.2916 -32.2386 -32.2352 -32.1967 -32.1926 -32.1914 -32.1875
   -32.1834 -32.1806 -32.1784 -32.1767 -32.1011 -32.0886 -32.0498 -32.0376
   -31.9819 -31.9733 -31.9137 -31.9077 -31.8787 -31.8786 -31.8733 -31.8301
   -31.8283 -31.7982 -31.7614 -31.7598 -31.7597 -31.7207 -31.7207 -31.7189
   -31.6844 -31.6449 -31.3618 -31.2842 -31.1888 -31.1615 -31.1495 -31.1080
   -16.4000 -16.3979 -16.3652 -16.3649 -16.0960 -16.0925 -16.0462 -16.0428
   -15.8714 -15.8642 -15.6592 -15.6504 -15.6433 -15.6405 -15.5128 -15.5071
   -15.4438 -15.4296 -15.3420 -15.3396 -15.2763 -15.2702 -15.2319 -15.2122
   -14.9017 -14.8842 -14.7721 -14.7468 -14.5830 -14.0434 -14.0434 -13.1043
    -7.8079  -3.4985  -3.4977  -3.4341  -3.4332  -3.3088  -3.3029  -3.2297
    -3.2289  -3.1274  -3.1236  -3.0855  -3.0036  -2.9847  -2.9818  -2.9729
    -2.9699  -2.8299  -2.8273  -2.8161  -2.8002  -2.7441  -2.7419  -2.7280
    -2.6522  -2.6378  -2.6039  -2.5656  -2.4569  -2.4434  -2.4303  -2.3987
    -2.3424  -2.3292  -2.3158  -2.2741  -2.2525  -2.1627  -2.1068  -2.0548
    -1.9387  -1.9356  -1.9271  -1.9116  -1.7603  -1.7186  -1.6911  -1.6838
    -1.6758  -1.6325  -1.5336  -1.5270  -1.3924  -1.3918  -1.3120  -1.2331
    -1.2156  -1.1855  -1.0554  -1.0152  -0.9784  -0.9703  -0.9428  -0.9233
    -0.8999  -0.8623  -0.7210  -0.7079  -0.6709  -0.6358  -0.6308  -0.5757
    -0.5172  -0.4374  -0.3609  -0.3599  -0.3058  -0.2331  -0.1728  -0.0914
    -0.0778  -0.0732   0.2070   0.2867   0.3788   0.4552   0.5237   0.5773
     0.6120   0.6769   0.7155   0.8486   0.8532   0.8709   0.8712   0.9335
     0.9351   1.3369   1.9359   2.9605   2.9608   3.0277   3.0281   3.3516
     3.3575   3.4657   3.4752   3.5863   3.5885

     the Fermi energy is     2.2264 ev

!    total energy              =   -2919.13184606 Ry
     estimated scf accuracy    <       0.00000003 Ry
     smearing contrib. (-TS)   =      -0.00481380 Ry
     internal energy E=F+TS    =   -2919.12703225 Ry

     The total energy is F=E-TS. E is the sum of the following terms:
     one-electron contribution =  -24569.88252548 Ry
     hartree contribution      =   12369.17585190 Ry
     xc contribution           =    -479.90404133 Ry
     ewald contribution        =    9761.48355365 Ry
     electric field correction =       0.00012901 Ry

     convergence has been achieved in  55 iterations

     Forces acting on atoms (cartesian axes, Ry/au):

     atom    1 type  1   force =     0.00006129   -0.00051224    0.12429501
     atom    2 type  1   force =    -0.00008933   -0.00055002   -0.16062598
     atom    3 type  2   force =     0.00022097   -0.00024146   -0.06809612
     atom    4 type  2   force =    -0.00000207   -0.00032206    0.02758206
     atom    5 type  2   force =    -0.01621937    0.00174799   -0.00936986
     atom    6 type  2   force =     0.01827340    0.00228677   -0.00892399
     atom    7 type  1   force =     0.00112246   -0.00381602    0.02202283
     atom    8 type  1   force =    -0.00061623   -0.00325199    0.11123050
     atom    9 type  2   force =    -0.00010616    0.00138940   -0.00035167
     atom   10 type  2   force =    -0.00190979    0.00178580   -0.07348732
     atom   11 type  2   force =     0.00081544    0.00006005    0.00004975
     atom   12 type  2   force =    -0.00064955    0.00019765    0.00015089
     atom   13 type  1   force =     0.00004752    0.00022263   -0.00039454
     atom   14 type  1   force =    -0.00101182   -0.00024505   -0.00048905
     atom   15 type  2   force =     0.00000411   -0.00028060    0.00007514
     atom   16 type  2   force =    -0.00006208    0.00106709    0.00076413
     atom   17 type  2   force =     0.00007982    0.00014122   -0.00044168
     atom   18 type  2   force =     0.00006160    0.00020299   -0.00004092
     atom   19 type  1   force =     0.00012960    0.00003048   -0.00077812
     atom   20 type  1   force =     0.00034354   -0.00084285    0.00012912
     atom   21 type  2   force =     0.00003960   -0.00006772    0.09973103
     atom   22 type  2   force =     0.00017068   -0.00050571   -0.00000853
     atom   23 type  2   force =    -0.07919699   -0.00005330   -0.03244090
     atom   24 type  2   force =     0.07906300    0.00038264   -0.03246382
     atom   25 type  1   force =     0.00004525   -0.00050089    0.12374367
     atom   26 type  1   force =    -0.00009666   -0.00050737   -0.16064870
     atom   27 type  2   force =     0.00032704   -0.00048081   -0.06714999
     atom   28 type  2   force =     0.00002616   -0.00014367    0.02727131
     atom   29 type  2   force =    -0.01661861    0.00134998   -0.00957308
     atom   30 type  2   force =     0.01855982    0.00165626   -0.00914238
     atom   31 type  1   force =     0.00110201   -0.00129353    0.02157981
     atom   32 type  1   force =    -0.00052075    0.00069244    0.11187868
     atom   33 type  2   force =    -0.00033974   -0.00115336    0.00015173
     atom   34 type  2   force =    -0.00156700    0.00135616   -0.07242603
     atom   35 type  2   force =    -0.00178573   -0.00019738    0.00026592
     atom   36 type  2   force =     0.00069381   -0.00041763   -0.00005107
     atom   37 type  1   force =     0.00071343   -0.00033251    0.00070643
     atom   38 type  1   force =    -0.00016237    0.00052251    0.00019167
     atom   39 type  2   force =     0.00016394   -0.00030587   -0.00039598
     atom   40 type  2   force =     0.00010517   -0.00017378    0.00035181
     atom   41 type  2   force =     0.00000931    0.00045003   -0.00012331
     atom   42 type  2   force =     0.00027397    0.00053987   -0.00000743
     atom   43 type  1   force =     0.00037400    0.00016194   -0.00038881
     atom   44 type  1   force =    -0.00022188   -0.00003955    0.00005906
     atom   45 type  2   force =     0.00002410   -0.00007099    0.09973680
     atom   46 type  2   force =    -0.07920618   -0.00000482   -0.03243935
     atom   47 type  2   force =     0.07907345    0.00042233   -0.03246303
     atom   48 type  3   force =     0.00054899   -0.00064573   -0.00192147
     atom   49 type  4   force =     0.00332390    0.00128129   -0.00291295
     atom   50 type  5   force =    -0.00095936   -0.00002362    0.00037463
     atom   51 type  5   force =    -0.00395317   -0.00140992    0.00492336
     atom   52 type  5   force =    -0.00050257    0.00044296    0.00029072

     Total force =     0.424694     Total SCF correction =     0.000577
  @ DRIVER MODE: Message from server: STATUS
  @ DRIVER MODE: Message from server: GETFORCE
  @ DRIVER MODE: Returning v,forces,stress,ensemble

     Writing output data file ./calc.save/
  @ DRIVER MODE: Message from server: EXIT
  @ DRIVE MODE: Exiting

     General routines

     Parallel routines

   This run was terminated on:   3:57: 9   9Sep2021

   JOB DONE.