     Program PWSCF v.6.7GPU starts on 15Sep2021 at 21:41: 2

     R & G space division:  proc/nbgrp/npool/nimage =      10
     Reading input from /storage/home/hcoda1/3/ntian30/research/carbon/CxH_vib/H2O_calc/ads_slab/CHNHH2O_a/out_0018/pw.inp
Warning: card &CELL ignored
Warning: card   CELL_DYNAMICS='IPI', ignored
Warning: card / ignored

     Current dimensions of program PWSCF are:
     Max number of different atomic species (ntypx) = 10
     Max number of k-points (npk) =  40000
     Max angular momentum in pseudopotentials (lmaxx) =  3
     Presently no symmetry can be used with electric field

     Message from routine cell_base_init:
     DEPRECATED: use true lattice parameter, not A to a.u. conversion factor

     IMPORTANT: XC functional enforced from input :
     Exchange-correlation= BEEF-VDW
                           (   1   4  43  14   2   0   0)
     Any further DFT definition will be discarded
     Please, verify this is what you really want

  @ DRIVER MODE: Connecting to
 qe_1139763_2852628.sched-torque.pace.gatech.edumy7a5dab_scratch
  using UNIX socket
  @ DRIVER MODE: Message from server: STATUS
  @ DRIVER MODE: Message from server: INIT
  @ DRIVER MODE: Receiving replica           0          -1
  @ DRIVER MODE: Receiving encoded integer          25
  @ DRIVER MODE:  SCF:  T  FORCE:  T  STRESS:  F  VC:  F  ENSEMBLE:  F
  @ DRIVER MODE:  SCF:  T  FORCE:  T  STRESS:  F  VC:  F  ENSEMBLE:  F

     Using Slab Decomposition

     bravais-lattice index     =            0
     lattice parameter (alat)  =       1.8897  a.u.
     unit-cell volume          =    6658.9804 (a.u.)^3
     number of atoms/cell      =           54
     number of atomic types    =            5
     number of electrons       =       397.00
     number of Kohn-Sham states=          208
     kinetic-energy cutoff     =      29.3995  Ry
     charge density cutoff     =     293.9946  Ry
     scf convergence threshold =      7.3E-08
     mixing beta               =       0.0500
     number of iterations used =            8  plain     mixing
     Exchange-correlation= BEEF-VDW
                           (   1   4  43  14   2   0   0)

     celldm(1)=   1.889726  celldm(2)=   0.000000  celldm(3)=   0.000000
     celldm(4)=   0.000000  celldm(5)=   0.000000  celldm(6)=   0.000000

     crystal axes: (cart. coord. in units of alat)
               a(1) = (   6.579727   0.000000   0.000000 )
               a(2) = (  -0.000775   5.961596   0.000000 )
               a(3) = (   0.000000   0.000000  25.155947 )

     reciprocal axes: (cart. coord. in units 2 pi/alat)
               b(1) = (  0.151982  0.000020  0.000000 )
               b(2) = (  0.000000  0.167740  0.000000 )
               b(3) = (  0.000000  0.000000  0.039752 )

     PseudoPot. # 1 for Ti read from file:
     /storage/coda1/p-amedford6/0/shared/rich_project_chbe-medford/medford-share/data/pseudos_module/espresso/nninc/pbe/van/Ti.UPF
     MD5 check sum: 8e4df49b7f0d34bbd5052bf3f5ea0213
     Pseudo is Ultrasoft, Zval = 12.0
     Generated by new atomic code, or converted to UPF format
     Using radial grid of  851 points,  6 beta functions with:
                l(1) =   0
                l(2) =   0
                l(3) =   1
                l(4) =   1
                l(5) =   2
                l(6) =   2
     Q(r) pseudized with  8 coefficients,  rinner =    1.000   1.000   1.000
                                                       1.000   1.000

     PseudoPot. # 2 for O  read from file:
     /storage/coda1/p-amedford6/0/shared/rich_project_chbe-medford/medford-share/data/pseudos_module/espresso/nninc/pbe/van/O.UPF
     MD5 check sum: 78c19812648e8988a0fe644b0f25305e
     Pseudo is Ultrasoft, Zval =  6.0
     Generated by new atomic code, or converted to UPF format
     Using radial grid of  737 points,  4 beta functions with:
                l(1) =   0
                l(2) =   0
                l(3) =   1
                l(4) =   1
     Q(r) pseudized with  8 coefficients,  rinner =    0.800   0.800   0.800

     PseudoPot. # 3 for N  read from file:
     /storage/coda1/p-amedford6/0/shared/rich_project_chbe-medford/medford-share/data/pseudos_module/espresso/nninc/pbe/van/N.UPF
     MD5 check sum: 90d10febe142ad51ac9d5be1deb811c4
     Pseudo is Ultrasoft, Zval =  5.0
     Generated by new atomic code, or converted to UPF format
     Using radial grid of  729 points,  4 beta functions with:
                l(1) =   0
                l(2) =   0
                l(3) =   1
                l(4) =   1
     Q(r) pseudized with  8 coefficients,  rinner =    0.800   0.800   0.800

     PseudoPot. # 4 for C  read from file:
     /storage/coda1/p-amedford6/0/shared/rich_project_chbe-medford/medford-share/data/pseudos_module/espresso/nninc/pbe/van/C.UPF
     MD5 check sum: 1a69bf6b8db32088f5b2163dbdb77a27
     Pseudo is Ultrasoft, Zval =  4.0
     Generated by new atomic code, or converted to UPF format
     Using radial grid of  721 points,  4 beta functions with:
                l(1) =   0
                l(2) =   0
                l(3) =   1
                l(4) =   1
     Q(r) pseudized with  8 coefficients,  rinner =    0.800   0.800   0.800

     PseudoPot. # 5 for H  read from file:
     /storage/coda1/p-amedford6/0/shared/rich_project_chbe-medford/medford-share/data/pseudos_module/espresso/nninc/pbe/van/H.UPF
     MD5 check sum: b5ee9d7bfd3a09ee7748110bda690ff7
     Pseudo is Ultrasoft, Zval =  1.0
     Generated by new atomic code, or converted to UPF format
     Using radial grid of  615 points,  1 beta functions with:
                l(1) =   0
     Q(r) pseudized with  8 coefficients,  rinner =    0.800

     atomic species   valence    mass     pseudopotential
        Ti1           12.00    47.86700     Ti( 1.00)
        O1             6.00    15.99900     O ( 1.00)
        N1             5.00    14.00700     N ( 1.00)
        C1             4.00    12.01100     C ( 1.00)
        H1             1.00     1.00800     H ( 1.00)

     No symmetry found

   Cartesian axes

     site n.     atom                  positions (alat units)
         1           Ti1 tau(   1) = (   0.0004258   2.9801865   6.0000000  )
         2           Ti1 tau(   2) = (   3.2906075   1.4906267   6.0002472  )
         3           O1  tau(   3) = (   0.0006271   0.0005054   7.9858123  )
         4           O1  tau(   4) = (   3.2906025   0.0005020   7.3038282  )
         5           O1  tau(   5) = (   4.5942328   1.4918067   9.2879030  )
         6           O1  tau(   6) = (   1.9868534   1.4903216   9.2879459  )
         7           Ti1 tau(   7) = (   3.2907910   2.8959150   9.1758416  )
         8           Ti1 tau(   8) = (   0.0015273   1.4827037   9.2680791  )
         9           O1  tau(   9) = (   3.2914171   5.9475995  11.3455371  )
        10           O1  tau(  10) = (   0.0116148   5.9584955  10.6183126  )
        11           O1  tau(  11) = (   1.3057669   1.4807986  12.6390077  )
        12           O1  tau(  12) = (   5.3035249   1.4749620  12.6227664  )
        13           Ti1 tau(  13) = (   6.5294082   2.9362577  12.6231083  )
        14           Ti1 tau(  14) = (   3.2175537   1.4615748  12.5070279  )
        15           O1  tau(  15) = (   6.5585639   5.9474800  14.6380151  )
        16           O1  tau(  16) = (   3.3125803   5.9531145  13.9695519  )
        17           O1  tau(  17) = (   4.5393379   1.5011389  16.1071157  )
        18           O1  tau(  18) = (   2.0094023   1.5044898  16.0307267  )
        19           Ti1 tau(  19) = (   3.2760958   2.9523363  15.6877793  )
        20           Ti1 tau(  20) = (   0.0277933   1.3451898  16.0452527  )
        21           O1  tau(  21) = (   3.2904802   0.0005063   4.7018136  )
        22           O1  tau(  22) = (   0.0198929   5.9263875  17.1601691  )
        23           O1  tau(  23) = (   1.3043587   1.4918075   6.0039043  )
        24           O1  tau(  24) = (   5.2767064   1.4903225   6.0039473  )
        25           Ti1 tau(  25) = (   0.0000382   5.9609847   6.0000000  )
        26           Ti1 tau(  26) = (   3.2902200   4.4714249   6.0002472  )
        27           O1  tau(  27) = (   0.0002396   2.9813036   7.9858123  )
        28           O1  tau(  28) = (   3.2902150   2.9813002   7.3038282  )
        29           O1  tau(  29) = (   4.5938453   4.4726049   9.2879030  )
        30           O1  tau(  30) = (   1.9864658   4.4711199   9.2879459  )
        31           Ti1 tau(  31) = (   3.2891106   5.8743827   9.1763621  )
        32           Ti1 tau(  32) = (   0.0006254   4.4649316   9.2693709  )
        33           O1  tau(  33) = (   3.2862706   2.9662616  11.3468726  )
        34           O1  tau(  34) = (   0.0092240   2.9805883  10.6323155  )
        35           O1  tau(  35) = (   1.3102706   4.4726941  12.6361575  )
        36           O1  tau(  36) = (   5.3014905   4.4644878  12.6181669  )
        37           Ti1 tau(  37) = (   6.5311680   5.9227251  12.5202533  )
        38           Ti1 tau(  38) = (   3.2191334   4.4553394  12.5017427  )
        39           O1  tau(  39) = (   6.5614274   2.9920157  14.6796082  )
        40           O1  tau(  40) = (   3.3146075   2.9603188  13.8993185  )
        41           O1  tau(  41) = (   4.5484517   4.4144432  16.0509510  )
        42           O1  tau(  42) = (   2.0146171   4.4214036  15.9967612  )
        43           Ti1 tau(  43) = (   3.3303817   5.9274347  15.8100502  )
        44           Ti1 tau(  44) = (   0.0273359   4.4939047  15.8144843  )
        45           O1  tau(  45) = (   3.2900926   2.9813045   4.7018136  )
        46           O1  tau(  46) = (   1.3039711   4.4726057   6.0039043  )
        47           O1  tau(  47) = (   5.2763189   4.4711207   6.0039473  )
        48           N1  tau(  48) = (   6.5134970   2.9613368  17.6459670  )
        49           C1  tau(  49) = (   0.7931072   3.0267964  18.6255283  )
        50           H1  tau(  50) = (   1.8307262   2.9311331  18.2495185  )
        51           H1  tau(  51) = (   5.5494773   3.0666896  17.9713127  )
        52           O1  tau(  52) = (   3.1855344   5.8058271  18.1612476  )
        53           H1  tau(  53) = (   3.8461454   0.3022996  18.7034462  )
        54           H1  tau(  54) = (   2.3120581   0.0053998  18.5533318  )

     number of k points=    10  Fermi-Dirac smearing, width (Ry)=  0.0073
                       cart. coord. in units 2pi/alat
        k(    1) = (   0.0000000   0.0000000   0.0000000), wk =   0.1250000
        k(    2) = (   0.0000000   0.0419351   0.0000000), wk =   0.2500000
        k(    3) = (   0.0000000  -0.0838702   0.0000000), wk =   0.1250000
        k(    4) = (   0.0379955   0.0000049   0.0000000), wk =   0.2500000
        k(    5) = (   0.0379955   0.0419400   0.0000000), wk =   0.2500000
        k(    6) = (   0.0379955  -0.0838652   0.0000000), wk =   0.2500000
        k(    7) = (   0.0379955  -0.0419301   0.0000000), wk =   0.2500000
        k(    8) = (  -0.0759910  -0.0000099   0.0000000), wk =   0.1250000
        k(    9) = (  -0.0759910   0.0419252   0.0000000), wk =   0.2500000
        k(   10) = (  -0.0759910  -0.0838800   0.0000000), wk =   0.1250000

     Initial potential from superposition of free atoms

     starting charge  380.99916, renormalised to  397.00000

     negative rho (up, down):  1.755E-02 0.000E+00

     %%%%%%%%%%%%%%%%%%%%%%%%%%%%%%%%%%%%%%%%%%%%%%%%%%%%%%%%%%%%%%%%%%%%%%%%
     %                                                                      %
     % You are using vdW-DF, which was implemented by the Thonhauser group. %
     % Please cite the following two papers that made this development      %
     % possible and the two reviews that describe the various versions:     %
     %                                                                      %
     %   T. Thonhauser et al., PRL 115, 136402 (2015).                      %
     %   T. Thonhauser et al., PRB 76, 125112 (2007).                       %
     %   K. Berland et al., Rep. Prog. Phys. 78, 066501 (2015).             %
     %   D.C. Langreth et al., J. Phys.: Condens. Matter 21, 084203 (2009). %
     %                                                                      %
     %                                                                      %
     % If you are calculating the stress with vdW-DF, please also cite:     %
     %                                                                      %
     %   R. Sabatini et al., J. Phys.: Condens. Matter 24, 424209 (2012).   %
     %                                                                      %
     %%%%%%%%%%%%%%%%%%%%%%%%%%%%%%%%%%%%%%%%%%%%%%%%%%%%%%%%%%%%%%%%%%%%%%%%

     Adding external electric field

     Computed dipole along edir(3) :
        Dipole               -9.1674 Ry au,        -23.3013 Debye
        Dipole field         -0.0173 Ry au,

        Potential amp.        1.6037 Ry
        Total length         46.3494 bohr

     Starting wfcs are  300 atomic wfcs
  @ DRIVER MODE: Message from server: STATUS
  @ DRIVER MODE: Message from server: POSDATA
  @ DRIVER MODE: Reading and sharing cell
  @ DRIVER MODE: Reading and sharing positions
  @ DRIVER MODE: Received positions

     Self-consistent Calculation

     iteration #  1     ecut=    29.40 Ry     beta= 0.05
     Davidson diagonalization with overlap
     c_bands:  1 eigenvalues not converged
     c_bands:  1 eigenvalues not converged
     c_bands:  1 eigenvalues not converged
     c_bands:  1 eigenvalues not converged
     c_bands:  1 eigenvalues not converged
     c_bands:  1 eigenvalues not converged
     c_bands:  1 eigenvalues not converged
     c_bands:  1 eigenvalues not converged
     c_bands:  1 eigenvalues not converged
     ethr =  1.00E-05,  avg # of iterations = 19.8

[...]

     total energy              =   -2547.26042879 Ry
     estimated scf accuracy    <    4504.96583024 Ry

     iteration #  2     ecut=    29.40 Ry     beta= 0.05
     Davidson diagonalization with overlap
     ethr =  1.00E-02,  avg # of iterations = 24.1

[...]

     iteration # 59     ecut=    29.40 Ry     beta= 0.05
     Davidson diagonalization with overlap
     c_bands:  1 eigenvalues not converged
     ethr =  9.76E-09,  avg # of iterations = 15.7

[...]

     total energy              =   -2952.61569999 Ry
     estimated scf accuracy    <       0.00000009 Ry

     iteration # 70     ecut=    29.40 Ry     beta= 0.05
     Davidson diagonalization with overlap
     ethr =  2.36E-11,  avg # of iterations =  9.6

     negative rho (up, down):  1.615E-02 0.000E+00

     Adding external electric field

     Computed dipole along edir(3) :
        Dipole                0.4111 Ry au,          1.0450 Debye
        Dipole field          0.0008 Ry au,

        Potential amp.       -0.0719 Ry
        Total length         46.3494 bohr

     End of self-consistent calculation

          k = 0.0000 0.0000 0.0000 ( 18029 PWs)   bands (ev):

   -56.0198 -55.9956 -55.9890 -55.9857 -55.9593 -55.8657 -55.8334 -55.8244
   -55.8214 -55.8078 -55.7991 -55.7743 -55.7456 -55.5760 -55.0054 -54.9713
   -32.5415 -32.5037 -32.3975 -32.3652 -32.3322 -32.3118 -32.3034 -32.2979
   -32.2632 -32.2332 -32.2210 -32.2148 -32.2061 -32.1929 -32.1746 -32.1723
   -32.1478 -32.1255 -32.1245 -32.1214 -32.0886 -32.0771 -32.0684 -32.0363
   -32.0254 -32.0242 -32.0206 -32.0158 -32.0130 -32.0076 -31.9932 -31.9826
   -31.9799 -31.9783 -31.9663 -31.9606 -31.9576 -31.9381 -31.9189 -31.8368
   -31.8198 -31.7330 -31.4128 -31.3236 -31.3012 -31.2295 -31.1429 -31.0319
   -19.2372 -16.7530 -16.5128 -16.3388 -16.1975 -16.1669 -15.9501 -15.8486
   -15.7778 -15.7239 -15.6543 -15.6035 -15.5686 -15.5590 -15.5424 -15.5203
   -15.5005 -15.4762 -15.4532 -15.4423 -15.4352 -15.3975 -15.3856 -15.3694
   -15.3510 -15.2457 -15.1808 -15.1562 -15.1111 -15.0879 -14.7363 -13.5076
   -13.3910  -7.8818  -7.0891  -4.1527  -4.0592  -3.9815  -3.9427  -3.9261
    -3.7729  -3.6916  -3.5527  -3.5155  -3.3074  -3.2905  -3.2176  -3.1918
    -3.1307  -3.0689  -2.9744  -2.9310  -2.8545  -2.8369  -2.8240  -2.8018
    -2.7831  -2.7652  -2.7252  -2.6605  -2.5907  -2.5588  -2.4449  -2.4175
    -2.4110  -2.3437  -2.3356  -2.3251  -2.3118  -2.2795  -2.2575  -2.2544
    -2.1837  -2.1519  -2.0808  -2.0289  -1.9699  -1.8500  -1.6988  -1.6359
    -1.5866  -1.5269  -1.5004  -1.4644  -1.4427  -1.4177  -1.3625  -1.3008
    -1.2370  -1.2248  -1.1539  -1.0615  -0.9903  -0.9541  -0.8830  -0.8203
    -0.7985  -0.7705  -0.7626  -0.7535  -0.7062  -0.5321  -0.4766  -0.4625
    -0.4235  -0.3398  -0.3103  -0.2994  -0.2507  -0.2427  -0.2025  -0.1134
    -0.0943  -0.0593  -0.0415  -0.0281   0.0048   0.0238   0.1790   0.1998
     0.2427   0.2642   0.3655   0.4721   0.5391   0.6275   0.7213   0.9409
     1.0171   1.0936   1.2079   1.5890   1.6351   2.7860   3.1083   3.1968
     3.2345   3.2406   3.2747   3.3456   3.5623   3.5928   3.6103   3.6668

[...]

          k = 0.0380-0.0419 0.0000 ( 17876 PWs)   bands (ev):

[...]

          k =-0.0760-0.0000 0.0000 ( 17886 PWs)   bands (ev):

[...]

          k =-0.0760-0.0839 0.0000 ( 17948 PWs)   bands (ev):

   -56.0034 -56.0019 -55.9877 -55.9794 -55.9749 -55.8564 -55.8338 -55.8230
   -55.8169 -55.8148 -55.7918 -55.7906 -55.7440 -55.5774 -54.9884 -54.9882
   -32.3553 -32.3395 -32.3194 -32.3184 -32.2979 -32.2966 -32.2764 -32.2686
   -32.2488 -32.2157 -32.2008 -32.1967 -32.1921 -32.1709 -32.1430 -32.1378
   -32.1335 -32.1310 -32.1295 -32.1282 -32.1271 -32.1241 -32.1230 -32.1214
   -32.0745 -32.0557 -32.0468 -32.0351 -32.0233 -32.0210 -32.0196 -32.0179
   -32.0176 -32.0068 -32.0049 -31.9949 -31.9882 -31.9745 -31.9692 -31.8407
   -31.8248 -31.8198 -31.3140 -31.3138 -31.2256 -31.2254 -31.1863 -31.1862
   -19.2362 -16.2120 -16.0922 -16.0378 -15.9443 -15.9193 -15.9046 -15.8311
   -15.7794 -15.7254 -15.7155 -15.6917 -15.6775 -15.6708 -15.6114 -15.5827
   -15.5579 -15.5471 -15.5041 -15.4910 -15.4829 -15.4690 -15.4670 -15.4607
   -15.4172 -15.3918 -15.3488 -15.3449 -15.2058 -15.0974 -15.0088 -13.4929
   -13.4925  -7.8910  -7.0909  -3.9175  -3.6593  -3.4901  -3.3131  -3.2629
    -3.1750  -3.1634  -3.1200  -3.1007  -2.9911  -2.9316  -2.9191  -2.8970
    -2.8558  -2.8460  -2.8395  -2.8347  -2.8005  -2.7986  -2.7622  -2.7441
    -2.7116  -2.6978  -2.6931  -2.6852  -2.6618  -2.6422  -2.6050  -2.5872
    -2.5714  -2.5417  -2.5049  -2.3734  -2.3014  -2.2234  -2.2177  -2.1759
    -2.1632  -2.1442  -2.1005  -2.0825  -2.0557  -1.9759  -1.8999  -1.7449
    -1.7265  -1.7033  -1.6726  -1.6121  -1.5202  -1.4954  -1.4671  -1.4197
    -1.4038  -1.3468  -1.3260  -1.2933  -1.2381  -1.1756  -1.1376  -1.1108
    -1.0658  -1.0005  -0.9793  -0.9591  -0.9453  -0.8846  -0.7756  -0.7690
    -0.7632  -0.7136  -0.6982  -0.6688  -0.6496  -0.5560  -0.4765  -0.4169
    -0.3199  -0.1558  -0.0774   0.0219   0.0595   0.1035   0.1489   0.1898
     0.2877   0.2898   0.3609   0.3918   0.4085   0.4920   0.5031   0.5260
     0.6866   1.3796   1.3808   1.4546   1.4551   2.8211   3.3646   3.4114
     3.4455   3.4925   3.5953   3.6155   3.6443   3.6461   3.7239   3.7721

     the Fermi energy is     3.1113 ev

!    total energy              =   -2952.61573127 Ry
     estimated scf accuracy    <       0.00000007 Ry
     smearing contrib. (-TS)   =      -0.02591123 Ry
     internal energy E=F+TS    =   -2952.58982004 Ry

     The total energy is F=E-TS. E is the sum of the following terms:
     one-electron contribution =  -24509.07331953 Ry
     hartree contribution      =   12341.76120444 Ry
     xc contribution           =    -487.96437824 Ry
     ewald contribution        =    9702.68635429 Ry
     electric field correction =       0.00031899 Ry

     convergence has been achieved in  70 iterations

     Forces acting on atoms (cartesian axes, Ry/au):

     atom    1 type  1   force =    -0.00003598   -0.00030303    0.09591082
     atom    2 type  1   force =     0.00005737   -0.00049054   -0.17611263
     atom    3 type  2   force =     0.00010353   -0.00009495   -0.02430140
     atom    4 type  2   force =     0.00000949   -0.00163108    0.05392953
     atom    5 type  2   force =    -0.01178270   -0.00141936    0.00393447
     atom    6 type  2   force =     0.01321137   -0.00102632    0.00317769
     atom    7 type  1   force =     0.00034294    0.00069329   -0.00764458
     atom    8 type  1   force =     0.00026510    0.01497251    0.02334011
     atom    9 type  2   force =    -0.00005123    0.00018711    0.00011965
     atom   10 type  2   force =    -0.00219212    0.00050104   -0.01744383
     atom   11 type  2   force =     0.00046548   -0.00026129   -0.00020649
     atom   12 type  2   force =    -0.00084447   -0.00017360    0.00000836
     atom   13 type  1   force =     0.00045810    0.00044536    0.00000357
     atom   14 type  1   force =    -0.00018264    0.00004832    0.00085453
     atom   15 type  2   force =    -0.00014779   -0.00004065   -0.00072345
     atom   16 type  2   force =     0.00001191    0.00051427   -0.00019439
     atom   17 type  2   force =    -0.00042614    0.00030216    0.00016039
     atom   18 type  2   force =     0.00024849    0.00021075   -0.00008755
     atom   19 type  1   force =     0.00071274    0.00060293   -0.00062897
     atom   20 type  1   force =    -0.00048968    0.00036786   -0.00024534
     atom   21 type  2   force =     0.00006492   -0.00000329    0.10332589
     atom   22 type  2   force =    -0.00026299   -0.00025747    0.00083335
     atom   23 type  2   force =    -0.07137392   -0.00010769   -0.02763289
     atom   24 type  2   force =     0.07129632    0.00034335   -0.02770345
     atom   25 type  1   force =     0.00023837   -0.00029694    0.09574992
     atom   26 type  1   force =     0.00011438   -0.00029324   -0.17604878
     atom   27 type  2   force =     0.00013910   -0.00029188   -0.02319924
     atom   28 type  2   force =     0.00000131   -0.00132505    0.05368793
     atom   29 type  2   force =    -0.01212938    0.00039215    0.00378436
     atom   30 type  2   force =     0.01351740    0.00100883    0.00302671
     atom   31 type  1   force =     0.00024252    0.00375652   -0.01143774
     atom   32 type  1   force =     0.00044271   -0.01662037    0.02315279
     atom   33 type  2   force =     0.00017495    0.00009949   -0.00032281
     atom   34 type  2   force =    -0.00191317   -0.00010937   -0.02070706
     atom   35 type  2   force =     0.00045675    0.00005400    0.00007928
     atom   36 type  2   force =    -0.00089212   -0.00001238    0.00033305
     atom   37 type  1   force =     0.00080977    0.00005721   -0.00032146
     atom   38 type  1   force =     0.00001047    0.00012961    0.00035833
     atom   39 type  2   force =    -0.00025337    0.00042574   -0.00051799
     atom   40 type  2   force =    -0.00039108   -0.00007901   -0.00013439
     atom   41 type  2   force =    -0.00053185    0.00029063    0.00030702
     atom   42 type  2   force =     0.00004498    0.00017134    0.00025148
     atom   43 type  1   force =     0.00035023   -0.00010857    0.00016036
     atom   44 type  1   force =    -0.00004271   -0.00025295    0.00026228
     atom   45 type  2   force =     0.00006954   -0.00000094    0.10328882
     atom   46 type  2   force =    -0.07136006   -0.00004965   -0.02761335
     atom   47 type  2   force =     0.07127937    0.00038319   -0.02768806
     atom   48 type  3   force =     0.00267102    0.00087109    0.00065121
     atom   49 type  4   force =    -0.00442814    0.00021210    0.00171655
     atom   50 type  5   force =     0.00248689   -0.00092602   -0.00229022
     atom   51 type  5   force =     0.00033800   -0.00051186    0.00011379
     atom   52 type  2   force =    -0.00021052   -0.00019809    0.00148640
     atom   53 type  5   force =    -0.00079215   -0.00026787   -0.00024566
     atom   54 type  5   force =     0.00009864    0.00011260   -0.00055687

     Total force =     0.367881     Total SCF correction =     0.000605
  @ DRIVER MODE: Message from server: STATUS
  @ DRIVER MODE: Message from server: GETFORCE
  @ DRIVER MODE: Returning v,forces,stress,ensemble

     Writing output data file ./calc.save/
  @ DRIVER MODE: Message from server: EXIT
  @ DRIVE MODE: Exiting

     General routines

     Parallel routines

   This run was terminated on:  21:59:32  15Sep2021

   JOB DONE.