     Program PWSCF v.6.7GPU starts on 23Sep2021 at  6:49:26

     R & G space division:  proc/nbgrp/npool/nimage =      10
     Reading input from /storage/home/hcoda1/3/ntian30/research/carbon/CxH_vib/H2O_calc/ads_slab/CH2NHHHO_a/out_0042/pw.inp
Warning: card &CELL ignored
Warning: card   CELL_DYNAMICS='IPI', ignored
Warning: card / ignored

     Current dimensions of program PWSCF are:
     Max number of different atomic species (ntypx) = 10
     Max number of k-points (npk) =  40000
     Max angular momentum in pseudopotentials (lmaxx) =  3
     Presently no symmetry can be used with electric field

     Message from routine cell_base_init:
     DEPRECATED: use true lattice parameter, not A to a.u. conversion factor

     IMPORTANT: XC functional enforced from input :
     Exchange-correlation= BEEF-VDW
                           (   1   4  43  14   2   0   0)
     Any further DFT definition will be discarded
     Please, verify this is what you really want

  @ DRIVER MODE: Connecting to
 qe_1139763_2937325.sched-torque.pace.gatech.edu3owjzjlq_scratch
  using UNIX socket
  @ DRIVER MODE: Message from server: STATUS
  @ DRIVER MODE: Message from server: INIT
  @ DRIVER MODE: Receiving replica           0          -1
  @ DRIVER MODE: Receiving encoded integer          25
  @ DRIVER MODE:  SCF:  T  FORCE:  T  STRESS:  F  VC:  F  ENSEMBLE:  F
  @ DRIVER MODE:  SCF:  T  FORCE:  T  STRESS:  F  VC:  F  ENSEMBLE:  F

     Using Slab Decomposition

     bravais-lattice index     =            0
     lattice parameter (alat)  =       1.8897  a.u.
     unit-cell volume          =    6658.9804 (a.u.)^3
     number of atoms/cell      =           55
     number of atomic types    =            5
     number of electrons       =       398.00
     number of Kohn-Sham states=          209
     kinetic-energy cutoff     =      29.3995  Ry
     charge density cutoff     =     293.9946  Ry
     scf convergence threshold =      7.3E-08
     mixing beta               =       0.0500
     number of iterations used =            8  plain     mixing
     Exchange-correlation= BEEF-VDW
                           (   1   4  43  14   2   0   0)

     celldm(1)=   1.889726  celldm(2)=   0.000000  celldm(3)=   0.000000
     celldm(4)=   0.000000  celldm(5)=   0.000000  celldm(6)=   0.000000

     crystal axes: (cart. coord. in units of alat)
               a(1) = (   6.579727   0.000000   0.000000 )
               a(2) = (  -0.000775   5.961596   0.000000 )
               a(3) = (   0.000000   0.000000  25.155947 )

     reciprocal axes: (cart. coord. in units 2 pi/alat)
               b(1) = (  0.151982  0.000020  0.000000 )
               b(2) = (  0.000000  0.167740  0.000000 )
               b(3) = (  0.000000  0.000000  0.039752 )

     PseudoPot. # 1 for Ti read from file:
     /storage/coda1/p-amedford6/0/shared/rich_project_chbe-medford/medford-share/data/pseudos_module/espresso/nninc/pbe/van/Ti.UPF
     MD5 check sum: 8e4df49b7f0d34bbd5052bf3f5ea0213
     Pseudo is Ultrasoft, Zval = 12.0
     Generated by new atomic code, or converted to UPF format
     Using radial grid of  851 points,  6 beta functions with:
                l(1) =   0
                l(2) =   0
                l(3) =   1
                l(4) =   1
                l(5) =   2
                l(6) =   2
     Q(r) pseudized with  8 coefficients,  rinner =    1.000   1.000   1.000
                                                       1.000   1.000

     PseudoPot. # 2 for O  read from file:
     /storage/coda1/p-amedford6/0/shared/rich_project_chbe-medford/medford-share/data/pseudos_module/espresso/nninc/pbe/van/O.UPF
     MD5 check sum: 78c19812648e8988a0fe644b0f25305e
     Pseudo is Ultrasoft, Zval =  6.0
     Generated by new atomic code, or converted to UPF format
     Using radial grid of  737 points,  4 beta functions with:
                l(1) =   0
                l(2) =   0
                l(3) =   1
                l(4) =   1
     Q(r) pseudized with  8 coefficients,  rinner =    0.800   0.800   0.800

     PseudoPot. # 3 for N  read from file:
     /storage/coda1/p-amedford6/0/shared/rich_project_chbe-medford/medford-share/data/pseudos_module/espresso/nninc/pbe/van/N.UPF
     MD5 check sum: 90d10febe142ad51ac9d5be1deb811c4
     Pseudo is Ultrasoft, Zval =  5.0
     Generated by new atomic code, or converted to UPF format
     Using radial grid of  729 points,  4 beta functions with:
                l(1) =   0
                l(2) =   0
                l(3) =   1
                l(4) =   1
     Q(r) pseudized with  8 coefficients,  rinner =    0.800   0.800   0.800

     PseudoPot. # 4 for C  read from file:
     /storage/coda1/p-amedford6/0/shared/rich_project_chbe-medford/medford-share/data/pseudos_module/espresso/nninc/pbe/van/C.UPF
     MD5 check sum: 1a69bf6b8db32088f5b2163dbdb77a27
     Pseudo is Ultrasoft, Zval =  4.0
     Generated by new atomic code, or converted to UPF format
     Using radial grid of  721 points,  4 beta functions with:
                l(1) =   0
                l(2) =   0
                l(3) =   1
                l(4) =   1
     Q(r) pseudized with  8 coefficients,  rinner =    0.800   0.800   0.800

     PseudoPot. # 5 for H  read from file:
     /storage/coda1/p-amedford6/0/shared/rich_project_chbe-medford/medford-share/data/pseudos_module/espresso/nninc/pbe/van/H.UPF
     MD5 check sum: b5ee9d7bfd3a09ee7748110bda690ff7
     Pseudo is Ultrasoft, Zval =  1.0
     Generated by new atomic code, or converted to UPF format
     Using radial grid of  615 points,  1 beta functions with:
                l(1) =   0
     Q(r) pseudized with  8 coefficients,  rinner =    0.800

     atomic species   valence    mass     pseudopotential
        Ti1           12.00    47.86700     Ti( 1.00)
        O1             6.00    15.99900     O ( 1.00)
        N1             5.00    14.00700     N ( 1.00)
        C1             4.00    12.01100     C ( 1.00)
        H1             1.00     1.00800     H ( 1.00)

     No symmetry found

   Cartesian axes

     site n.     atom                  positions (alat units)
         1           Ti1 tau(   1) = (   0.0004258   2.9801865   6.0000000  )
         2           Ti1 tau(   2) = (   3.2906075   1.4906267   6.0002472  )
         3           O1  tau(   3) = (   0.0006271   0.0005054   7.9858123  )
         4           O1  tau(   4) = (   3.2906025   0.0005020   7.3038282  )
         5           O1  tau(   5) = (   4.5942328   1.4918067   9.2879030  )
         6           O1  tau(   6) = (   1.9868534   1.4903216   9.2879459  )
         7           Ti1 tau(   7) = (   3.2907910   2.8959150   9.1758416  )
         8           Ti1 tau(   8) = (   0.0015273   1.4827037   9.2680791  )
         9           O1  tau(   9) = (   3.3134935   5.9450930  11.3716456  )
        10           O1  tau(  10) = (   0.0116148   5.9584955  10.6183126  )
        11           O1  tau(  11) = (   1.3009377   1.4930576  12.6823270  )
        12           O1  tau(  12) = (   5.3410967   1.4903504  12.6863499  )
        13           Ti1 tau(  13) = (   0.0342001   2.9430440  12.5112676  )
        14           Ti1 tau(  14) = (   3.3297267   1.2953541  12.7310232  )
        15           O1  tau(  15) = (   0.0493764   5.9086628  14.6689690  )
        16           O1  tau(  16) = (   3.3288597   0.0714287  14.0177558  )
        17           O1  tau(  17) = (   4.6153468   1.5975901  16.1787110  )
        18           O1  tau(  18) = (   2.0592605   1.5839887  16.0909148  )
        19           Ti1 tau(  19) = (   3.3163104   3.0362344  15.7082748  )
        20           Ti1 tau(  20) = (   0.1120434   1.3330501  15.8434463  )
        21           O1  tau(  21) = (   3.2904802   0.0005063   4.7018136  )
        22           O1  tau(  22) = (   0.0690725   0.1374024  17.2087871  )
        23           O1  tau(  23) = (   1.3043587   1.4918075   6.0039043  )
        24           O1  tau(  24) = (   5.2767064   1.4903225   6.0039473  )
        25           Ti1 tau(  25) = (   0.0000382   5.9609847   6.0000000  )
        26           Ti1 tau(  26) = (   3.2902200   4.4714249   6.0002472  )
        27           O1  tau(  27) = (   0.0002396   2.9813036   7.9858123  )
        28           O1  tau(  28) = (   3.2902150   2.9813002   7.3038282  )
        29           O1  tau(  29) = (   4.5938453   4.4726049   9.2879030  )
        30           O1  tau(  30) = (   1.9864658   4.4711199   9.2879459  )
        31           Ti1 tau(  31) = (   3.2891106   5.8743827   9.1763621  )
        32           Ti1 tau(  32) = (   0.0006254   4.4649316   9.2693709  )
        33           O1  tau(  33) = (   3.3165203   3.0043058  11.3207354  )
        34           O1  tau(  34) = (   0.0092240   2.9805883  10.6323155  )
        35           O1  tau(  35) = (   1.3050136   4.4578615  12.6552238  )
        36           O1  tau(  36) = (   5.3353050   4.4620295  12.6594116  )
        37           Ti1 tau(  37) = (   0.0330755   5.9154870  12.5003292  )
        38           Ti1 tau(  38) = (   3.3291962   4.3779952  12.4454333  )
        39           O1  tau(  39) = (   0.0233967   3.0352723  14.9286183  )
        40           O1  tau(  40) = (   3.3272303   3.0068708  13.9347379  )
        41           O1  tau(  41) = (   4.5962338   4.4808180  16.1645836  )
        42           O1  tau(  42) = (   2.0526765   4.4464907  16.1857218  )
        43           Ti1 tau(  43) = (   3.4309460   0.0633718  16.3216252  )
        44           Ti1 tau(  44) = (   0.1034465   4.5521166  15.9739525  )
        45           O1  tau(  45) = (   3.2900926   2.9813045   4.7018136  )
        46           O1  tau(  46) = (   1.3039711   4.4726057   6.0039043  )
        47           O1  tau(  47) = (   5.2763189   4.4711207   6.0039473  )
        48           N1  tau(  48) = (   6.1597698   3.4535781  18.2989460  )
        49           C1  tau(  49) = (   0.6557129   3.1470513  19.0816575  )
        50           H1  tau(  50) = (   1.2037892   3.9510289  19.5415217  )
        51           H1  tau(  51) = (   1.0557295   2.1499681  19.0337936  )
        52           H1  tau(  52) = (   5.6880836   4.3337965  18.4846543  )
        53           H1  tau(  53) = (   5.5056413   2.7003945  18.1017309  )
        54           O1  tau(  54) = (   3.2744276   0.0793712  18.1857868  )
        55           H1  tau(  55) = (   2.3604784   5.9194474  18.4805682  )

     number of k points=    10  Fermi-Dirac smearing, width (Ry)=  0.0073
                       cart. coord. in units 2pi/alat
        k(    1) = (   0.0000000   0.0000000   0.0000000), wk =   0.1250000
        k(    2) = (   0.0000000   0.0419351   0.0000000), wk =   0.2500000
        k(    3) = (   0.0000000  -0.0838702   0.0000000), wk =   0.1250000
        k(    4) = (   0.0379955   0.0000049   0.0000000), wk =   0.2500000
        k(    5) = (   0.0379955   0.0419400   0.0000000), wk =   0.2500000
        k(    6) = (   0.0379955  -0.0838652   0.0000000), wk =   0.2500000
        k(    7) = (   0.0379955  -0.0419301   0.0000000), wk =   0.2500000
        k(    8) = (  -0.0759910  -0.0000099   0.0000000), wk =   0.1250000
        k(    9) = (  -0.0759910   0.0419252   0.0000000), wk =   0.2500000
        k(   10) = (  -0.0759910  -0.0838800   0.0000000), wk =   0.1250000

     Initial potential from superposition of free atoms

     starting charge  381.99915, renormalised to  398.00000

     negative rho (up, down):  1.644E-02 0.000E+00

     %%%%%%%%%%%%%%%%%%%%%%%%%%%%%%%%%%%%%%%%%%%%%%%%%%%%%%%%%%%%%%%%%%%%%%%%
     %                                                                      %
     % You are using vdW-DF, which was implemented by the Thonhauser group. %
     % Please cite the following two papers that made this development      %
     % possible and the two reviews that describe the various versions:     %
     %                                                                      %
     %   T. Thonhauser et al., PRL 115, 136402 (2015).                      %
     %   T. Thonhauser et al., PRB 76, 125112 (2007).                       %
     %   K. Berland et al., Rep. Prog. Phys. 78, 066501 (2015).             %
     %   D.C. Langreth et al., J. Phys.: Condens. Matter 21, 084203 (2009). %
     %                                                                      %
     %                                                                      %
     % If you are calculating the stress with vdW-DF, please also cite:     %
     %                                                                      %
     %   R. Sabatini et al., J. Phys.: Condens. Matter 24, 424209 (2012).   %
     %                                                                      %
     %%%%%%%%%%%%%%%%%%%%%%%%%%%%%%%%%%%%%%%%%%%%%%%%%%%%%%%%%%%%%%%%%%%%%%%%

     Adding external electric field

     Computed dipole along edir(3) :
        Dipole              -10.2369 Ry au,        -26.0196 Debye
        Dipole field         -0.0193 Ry au,

        Potential amp.        1.7908 Ry
        Total length         46.3494 bohr

     Starting wfcs are  301 atomic wfcs
  @ DRIVER MODE: Message from server: STATUS
  @ DRIVER MODE: Message from server: POSDATA
  @ DRIVER MODE: Reading and sharing cell
  @ DRIVER MODE: Reading and sharing positions
  @ DRIVER MODE: Received positions

     Self-consistent Calculation

     iteration #  1     ecut=    29.40 Ry     beta= 0.05
     Davidson diagonalization with overlap
     c_bands:  1 eigenvalues not converged
     c_bands:  3 eigenvalues not converged
     c_bands:  2 eigenvalues not converged
     c_bands:  1 eigenvalues not converged
     c_bands:  4 eigenvalues not converged
     c_bands:  4 eigenvalues not converged
     c_bands:  4 eigenvalues not converged
     c_bands:  2 eigenvalues not converged
     c_bands:  3 eigenvalues not converged
     c_bands:  4 eigenvalues not converged
     ethr =  1.00E-05,  avg # of iterations = 20.0

[...]

     total energy              =   -2477.35541348 Ry
     estimated scf accuracy    <    5313.95088552 Ry

     iteration #  2     ecut=    29.40 Ry     beta= 0.05
     Davidson diagonalization with overlap
     ethr =  1.00E-02,  avg # of iterations = 23.6

[...]

     iteration # 65     ecut=    29.40 Ry     beta= 0.05
     Davidson diagonalization with overlap
     c_bands:  1 eigenvalues not converged
     ethr =  3.58E-11,  avg # of iterations = 13.9

[...]

     total energy              =   -2953.88659489 Ry
     estimated scf accuracy    <       0.00000012 Ry

     iteration # 66     ecut=    29.40 Ry     beta= 0.05
     Davidson diagonalization with overlap
     ethr =  2.95E-11,  avg # of iterations = 15.0

     negative rho (up, down):  1.574E-02 0.000E+00

     Adding external electric field

     Computed dipole along edir(3) :
        Dipole                0.8479 Ry au,          2.1550 Debye
        Dipole field          0.0016 Ry au,

        Potential amp.       -0.1483 Ry
        Total length         46.3494 bohr

     End of self-consistent calculation

          k = 0.0000 0.0000 0.0000 ( 18029 PWs)   bands (ev):

   -55.7751 -55.7176 -55.6836 -55.5869 -55.5480 -55.5466 -55.5330 -55.5128
   -55.5043 -55.4536 -55.4532 -55.3425 -55.3119 -55.2699 -54.6959 -54.6618
   -32.2035 -32.0931 -32.0720 -32.0651 -32.0501 -32.0412 -32.0080 -31.9871
   -31.9821 -31.9634 -31.9495 -31.8704 -31.8560 -31.8557 -31.8331 -31.8266
   -31.8254 -31.7961 -31.7752 -31.7495 -31.7481 -31.7409 -31.7316 -31.7283
   -31.7262 -31.7197 -31.6908 -31.6823 -31.6737 -31.6725 -31.6649 -31.6600
   -31.6493 -31.6412 -31.6201 -31.6093 -31.5367 -31.5326 -31.5154 -31.4824
   -31.4745 -31.4648 -31.1020 -31.0153 -30.9928 -30.9196 -30.8332 -30.7213
   -16.8846 -16.5922 -16.3825 -16.2172 -15.9949 -15.9430 -15.8820 -15.7093
   -15.5945 -15.5388 -15.3546 -15.2882 -15.2577 -15.2453 -15.2422 -15.2233
   -15.2107 -15.1672 -15.1497 -15.1474 -15.1417 -15.1078 -15.0801 -15.0390
   -14.9938 -14.9569 -14.8595 -14.8047 -14.7651 -14.5223 -14.4862 -13.1944
   -13.0779  -9.8031  -7.0658  -5.3401  -4.0930  -3.7459  -3.6325  -3.6214
    -3.5619  -3.5054  -3.3379  -3.2280  -3.1461  -3.1299  -2.9779  -2.8643
    -2.8184  -2.7529  -2.7184  -2.6784  -2.6414  -2.6305  -2.5982  -2.5063
    -2.4845  -2.4699  -2.4090  -2.3839  -2.3172  -2.2932  -2.2613  -2.2475
    -2.1419  -2.0912  -2.0559  -2.0473  -2.0310  -2.0034  -1.9761  -1.9685
    -1.9421  -1.8572  -1.8023  -1.7494  -1.7221  -1.7068  -1.3992  -1.3306
    -1.2952  -1.2586  -1.1693  -1.1510  -1.1159  -1.0930  -1.0781  -1.0750
    -0.9581  -0.8832  -0.8303  -0.8031  -0.7595  -0.7228  -0.6147  -0.5538
    -0.5118  -0.4714  -0.4577  -0.4340  -0.3471  -0.3201  -0.3033  -0.1973
    -0.1602  -0.0958  -0.0229  -0.0098   0.0391   0.0673   0.1114   0.1422
     0.2006   0.2330   0.2509   0.2967   0.3336   0.3446   0.4025   0.4191
     0.5150   0.5988   0.6175   0.6983   0.7767   0.8240   0.9431   1.0049
     1.2768   1.3308   1.3434   1.5223   1.8982   1.9437   3.3598   3.3979
     3.5129   3.5261   3.5994   3.6123   3.6969   3.8531   3.8976   4.0096
     4.0498

[...]

          k = 0.0380-0.0419 0.0000 ( 17876 PWs)   bands (ev):

[...]

          k =-0.0760-0.0000 0.0000 ( 17886 PWs)   bands (ev):

[...]

          k =-0.0760-0.0839 0.0000 ( 17948 PWs)   bands (ev):

   -55.7743 -55.7008 -55.7003 -55.5761 -55.5584 -55.5336 -55.5302 -55.5290
   -55.4980 -55.4596 -55.4512 -55.3386 -55.3143 -55.2737 -54.6792 -54.6783
   -32.0387 -32.0220 -32.0190 -32.0186 -31.9937 -31.9933 -31.9870 -31.9777
   -31.9208 -31.8940 -31.8763 -31.8630 -31.8583 -31.8381 -31.8240 -31.8208
   -31.8202 -31.8173 -31.8134 -31.8086 -31.7836 -31.7574 -31.7489 -31.7413
   -31.7342 -31.7315 -31.7166 -31.7152 -31.7140 -31.7052 -31.7045 -31.6846
   -31.6826 -31.6783 -31.6478 -31.6183 -31.5995 -31.5612 -31.5407 -31.5347
   -31.5232 -31.4781 -31.0059 -31.0052 -30.9155 -30.9142 -30.8768 -30.8760
   -16.8670 -16.5796 -16.0560 -15.8074 -15.7139 -15.7035 -15.5718 -15.5048
   -15.4932 -15.4516 -15.4334 -15.4121 -15.4048 -15.3801 -15.3400 -15.2850
   -15.2556 -15.2287 -15.2226 -15.1828 -15.1756 -15.1571 -15.1543 -15.1327
   -15.0833 -15.0417 -15.0281 -15.0138 -14.8289 -14.7738 -14.6463 -13.1799
   -13.1794  -9.8037  -7.0576  -5.3248  -4.0773  -3.3643  -3.1799  -3.0174
    -2.9454  -2.8890  -2.7970  -2.7539  -2.7393  -2.6945  -2.6712  -2.6483
    -2.5682  -2.5546  -2.5249  -2.5129  -2.4837  -2.4691  -2.4625  -2.4529
    -2.4086  -2.3999  -2.3902  -2.3582  -2.3502  -2.3403  -2.3004  -2.2796
    -2.2696  -2.2588  -2.2100  -2.1868  -2.1052  -2.0687  -1.9715  -1.8883
    -1.8777  -1.8543  -1.8068  -1.7950  -1.7527  -1.7369  -1.6935  -1.6188
    -1.5345  -1.4624  -1.3553  -1.3115  -1.3016  -1.2417  -1.2239  -1.1679
    -1.1329  -1.1008  -1.0649  -0.9740  -0.9393  -0.8779  -0.7668  -0.7044
    -0.6918  -0.6687  -0.6576  -0.6227  -0.6024  -0.5872  -0.5530  -0.4744
    -0.4355  -0.4193  -0.4114  -0.3722  -0.2502  -0.1285  -0.0819  -0.0172
     0.0429   0.0635   0.1131   0.1556   0.3062   0.3406   0.4409   0.4528
     0.4733   0.5873   0.5954   0.6808   0.7174   0.7612   0.7901   0.8229
     0.8276   0.8669   1.6921   1.7005   1.7641   1.7642   3.3687   3.7391
     3.8419   3.8594   3.8772   3.9178   3.9318   3.9613   3.9667   4.0309
     4.0459

     the Fermi energy is     3.4019 ev

!    total energy              =   -2953.88661926 Ry
     estimated scf accuracy    <       0.00000006 Ry
     smearing contrib. (-TS)   =      -0.02915735 Ry
     internal energy E=F+TS    =   -2953.85746191 Ry

     The total energy is F=E-TS. E is the sum of the following terms:
     one-electron contribution =  -23666.43422236 Ry
     hartree contribution      =   11924.12283995 Ry
     xc contribution           =    -488.84980384 Ry
     ewald contribution        =    9277.30236778 Ry
     electric field correction =       0.00135657 Ry

     convergence has been achieved in  66 iterations

     Forces acting on atoms (cartesian axes, Ry/au):

     atom    1 type  1   force =    -0.00001765   -0.00028685    0.09377883
     atom    2 type  1   force =    -0.00009450    0.00049191   -0.17553250
     atom    3 type  2   force =     0.00011200   -0.00024470   -0.02088347
     atom    4 type  2   force =     0.00001315   -0.00197806    0.05496587
     atom    5 type  2   force =    -0.00644853   -0.00243904    0.00277272
     atom    6 type  2   force =     0.00860757   -0.00176915    0.00361102
     atom    7 type  1   force =     0.00058650   -0.00335467    0.00965155
     atom    8 type  1   force =    -0.00066795    0.00047443    0.00107882
     atom    9 type  2   force =    -0.00001451    0.00061677   -0.00091888
     atom   10 type  2   force =    -0.00025033    0.00115655   -0.00781889
     atom   11 type  2   force =    -0.00007904   -0.00002250    0.00017040
     atom   12 type  2   force =    -0.00046325   -0.00018485    0.00003392
     atom   13 type  1   force =    -0.00028300    0.00003489   -0.00043838
     atom   14 type  1   force =    -0.00061662    0.00051799    0.00027724
     atom   15 type  2   force =    -0.00007193    0.00102479   -0.00006423
     atom   16 type  2   force =    -0.00003384    0.00002455    0.00013842
     atom   17 type  2   force =    -0.00065523    0.00019100   -0.00021667
     atom   18 type  2   force =     0.00039254    0.00044236   -0.00007790
     atom   19 type  1   force =    -0.00004618   -0.00017363    0.00069077
     atom   20 type  1   force =    -0.00011396   -0.00061781    0.00024647
     atom   21 type  2   force =     0.00001730    0.00008542    0.10332012
     atom   22 type  2   force =    -0.00012456    0.00025396   -0.00039381
     atom   23 type  2   force =    -0.07186529   -0.00017603   -0.02713859
     atom   24 type  2   force =     0.07173396    0.00029659   -0.02721684
     atom   25 type  1   force =     0.00008889   -0.00020083    0.09357793
     atom   26 type  1   force =    -0.00025418   -0.00138183   -0.17564137
     atom   27 type  2   force =     0.00015192   -0.00016164   -0.01963403
     atom   28 type  2   force =     0.00011170   -0.00028602    0.05020883
     atom   29 type  2   force =    -0.00551216    0.00259480    0.00166590
     atom   30 type  2   force =     0.00765949    0.00268825    0.00255854
     atom   31 type  1   force =     0.00070974    0.00798826   -0.00209716
     atom   32 type  1   force =    -0.00071487   -0.00207496    0.00018283
     atom   33 type  2   force =    -0.00016734   -0.00074001   -0.00008444
     atom   34 type  2   force =     0.00011485   -0.00173325   -0.00873687
     atom   35 type  2   force =    -0.00001629   -0.00011722   -0.00058566
     atom   36 type  2   force =    -0.00021826   -0.00019423   -0.00039406
     atom   37 type  1   force =     0.00044627    0.00065934   -0.00071581
     atom   38 type  1   force =    -0.00062144   -0.00056630    0.00017274
     atom   39 type  2   force =    -0.00003306    0.00011527    0.00020586
     atom   40 type  2   force =     0.00012156    0.00000744    0.00066646
     atom   41 type  2   force =    -0.00079556    0.00015277    0.00018353
     atom   42 type  2   force =     0.00086199    0.00034977   -0.00056993
     atom   43 type  1   force =    -0.00065333    0.00049601    0.00502035
     atom   44 type  1   force =     0.00001882   -0.00100314    0.00032553
     atom   45 type  2   force =     0.00001852   -0.00005455    0.10310233
     atom   46 type  2   force =    -0.07187700   -0.00001917   -0.02715201
     atom   47 type  2   force =     0.07178257    0.00040160   -0.02723872
     atom   48 type  3   force =     0.00062374   -0.00026846    0.00013219
     atom   49 type  4   force =     0.00065662    0.00038350    0.00024324
     atom   50 type  5   force =    -0.00042049    0.00019390    0.00016402
     atom   51 type  5   force =    -0.00003896   -0.00066718    0.00072416
     atom   52 type  5   force =    -0.00007367    0.00071643   -0.00056403
     atom   53 type  5   force =    -0.00063050   -0.00119614    0.00004682
     atom   54 type  2   force =     0.00500772    0.00010577   -0.00890056
     atom   55 type  5   force =    -0.00596391   -0.00055210    0.00309739

     Total force =     0.362280     Total SCF correction =     0.000621
  @ DRIVER MODE: Message from server: STATUS
  @ DRIVER MODE: Message from server: GETFORCE
  @ DRIVER MODE: Returning v,forces,stress,ensemble

     Writing output data file ./calc.save/
  @ DRIVER MODE: Message from server: EXIT
  @ DRIVE MODE: Exiting

     General routines

     Parallel routines

   This run was terminated on:   7: 7:24  23Sep2021

   JOB DONE.