     Program PWSCF v.6.7GPU starts on 24Sep2021 at  6:52:34

     R & G space division:  proc/nbgrp/npool/nimage =       8
     Reading input from /storage/home/hcoda1/3/ntian30/research/carbon/CxH_vib/H2O_calc/ads_slab/CH3NH2NHHO_c/out_0046/pw.inp
Warning: card &CELL ignored
Warning: card   CELL_DYNAMICS='IPI', ignored
Warning: card / ignored

     Current dimensions of program PWSCF are:
     Max number of different atomic species (ntypx) = 10
     Max number of k-points (npk) =  40000
     Max angular momentum in pseudopotentials (lmaxx) =  3
     Presently no symmetry can be used with electric field

     Message from routine cell_base_init:
     DEPRECATED: use true lattice parameter, not A to a.u. conversion factor

     IMPORTANT: XC functional enforced from input :
     Exchange-correlation= BEEF-VDW
                           (   1   4  43  14   2   0   0)
     Any further DFT definition will be discarded
     Please, verify this is what you really want

  @ DRIVER MODE: Connecting to
 qe_1139763_2947310.sched-torque.pace.gatech.eduhssifv0s_scratch
  using UNIX socket
  @ DRIVER MODE: Message from server: STATUS
  @ DRIVER MODE: Message from server: INIT
  @ DRIVER MODE: Receiving replica           0          -1
  @ DRIVER MODE: Receiving encoded integer          25
  @ DRIVER MODE:  SCF:  T  FORCE:  T  STRESS:  F  VC:  F  ENSEMBLE:  F
  @ DRIVER MODE:  SCF:  T  FORCE:  T  STRESS:  F  VC:  F  ENSEMBLE:  F

     Using Slab Decomposition

     bravais-lattice index     =            0
     lattice parameter (alat)  =       1.8897  a.u.
     unit-cell volume          =    6658.9804 (a.u.)^3
     number of atoms/cell      =           58
     number of atomic types    =            5
     number of electrons       =       405.00
     number of Kohn-Sham states=          212
     kinetic-energy cutoff     =      29.3995  Ry
     charge density cutoff     =     293.9946  Ry
     scf convergence threshold =      7.3E-08
     mixing beta               =       0.0500
     number of iterations used =            8  plain     mixing
     Exchange-correlation= BEEF-VDW
                           (   1   4  43  14   2   0   0)

     celldm(1)=   1.889726  celldm(2)=   0.000000  celldm(3)=   0.000000
     celldm(4)=   0.000000  celldm(5)=   0.000000  celldm(6)=   0.000000

     crystal axes: (cart. coord. in units of alat)
               a(1) = (   6.579727   0.000000   0.000000 )
               a(2) = (  -0.000775   5.961596   0.000000 )
               a(3) = (   0.000000   0.000000  25.155947 )

     reciprocal axes: (cart. coord. in units 2 pi/alat)
               b(1) = (  0.151982  0.000020  0.000000 )
               b(2) = (  0.000000  0.167740  0.000000 )
               b(3) = (  0.000000  0.000000  0.039752 )

     PseudoPot. # 1 for Ti read from file:
     /storage/coda1/p-amedford6/0/shared/rich_project_chbe-medford/medford-share/data/pseudos_module/espresso/nninc/pbe/van/Ti.UPF
     MD5 check sum: 8e4df49b7f0d34bbd5052bf3f5ea0213
     Pseudo is Ultrasoft, Zval = 12.0
     Generated by new atomic code, or converted to UPF format
     Using radial grid of  851 points,  6 beta functions with:
                l(1) =   0
                l(2) =   0
                l(3) =   1
                l(4) =   1
                l(5) =   2
                l(6) =   2
     Q(r) pseudized with  8 coefficients,  rinner =    1.000   1.000   1.000
                                                       1.000   1.000

     PseudoPot. # 2 for O  read from file:
     /storage/coda1/p-amedford6/0/shared/rich_project_chbe-medford/medford-share/data/pseudos_module/espresso/nninc/pbe/van/O.UPF
     MD5 check sum: 78c19812648e8988a0fe644b0f25305e
     Pseudo is Ultrasoft, Zval =  6.0
     Generated by new atomic code, or converted to UPF format
     Using radial grid of  737 points,  4 beta functions with:
                l(1) =   0
                l(2) =   0
                l(3) =   1
                l(4) =   1
     Q(r) pseudized with  8 coefficients,  rinner =    0.800   0.800   0.800

     PseudoPot. # 3 for N  read from file:
     /storage/coda1/p-amedford6/0/shared/rich_project_chbe-medford/medford-share/data/pseudos_module/espresso/nninc/pbe/van/N.UPF
     MD5 check sum: 90d10febe142ad51ac9d5be1deb811c4
     Pseudo is Ultrasoft, Zval =  5.0
     Generated by new atomic code, or converted to UPF format
     Using radial grid of  729 points,  4 beta functions with:
                l(1) =   0
                l(2) =   0
                l(3) =   1
                l(4) =   1
     Q(r) pseudized with  8 coefficients,  rinner =    0.800   0.800   0.800

     PseudoPot. # 4 for C  read from file:
     /storage/coda1/p-amedford6/0/shared/rich_project_chbe-medford/medford-share/data/pseudos_module/espresso/nninc/pbe/van/C.UPF
     MD5 check sum: 1a69bf6b8db32088f5b2163dbdb77a27
     Pseudo is Ultrasoft, Zval =  4.0
     Generated by new atomic code, or converted to UPF format
     Using radial grid of  721 points,  4 beta functions with:
                l(1) =   0
                l(2) =   0
                l(3) =   1
                l(4) =   1
     Q(r) pseudized with  8 coefficients,  rinner =    0.800   0.800   0.800

     PseudoPot. # 5 for H  read from file:
     /storage/coda1/p-amedford6/0/shared/rich_project_chbe-medford/medford-share/data/pseudos_module/espresso/nninc/pbe/van/H.UPF
     MD5 check sum: b5ee9d7bfd3a09ee7748110bda690ff7
     Pseudo is Ultrasoft, Zval =  1.0
     Generated by new atomic code, or converted to UPF format
     Using radial grid of  615 points,  1 beta functions with:
                l(1) =   0
     Q(r) pseudized with  8 coefficients,  rinner =    0.800

     atomic species   valence    mass     pseudopotential
        Ti1           12.00    47.86700     Ti( 1.00)
        O1             6.00    15.99900     O ( 1.00)
        N1             5.00    14.00700     N ( 1.00)
        C1             4.00    12.01100     C ( 1.00)
        H1             1.00     1.00800     H ( 1.00)

     No symmetry found

   Cartesian axes

     site n.     atom                  positions (alat units)
         1           Ti1 tau(   1) = (   0.0004258   2.9801865   6.0000000  )
         2           Ti1 tau(   2) = (   3.2906075   1.4906267   6.0002472  )
         3           O1  tau(   3) = (   0.0006271   0.0005054   7.9858123  )
         4           O1  tau(   4) = (   3.2906025   0.0005020   7.3038282  )
         5           O1  tau(   5) = (   4.5942328   1.4918067   9.2879030  )
         6           O1  tau(   6) = (   1.9868534   1.4903216   9.2879459  )
         7           Ti1 tau(   7) = (   3.2907910   2.8959150   9.1758416  )
         8           Ti1 tau(   8) = (   0.0015273   1.4827037   9.2680791  )
         9           O1  tau(   9) = (   3.2766908   5.9368450  11.3531397  )
        10           O1  tau(  10) = (   0.0116148   5.9584955  10.6183126  )
        11           O1  tau(  11) = (   1.2656210   1.4746568  12.6519442  )
        12           O1  tau(  12) = (   5.2821112   1.4671822  12.6528637  )
        13           Ti1 tau(  13) = (   0.0097886   3.0246942  12.5604876  )
        14           Ti1 tau(  14) = (   3.2716845   1.2919425  12.6923688  )
        15           O1  tau(  15) = (   6.5701288   5.9533353  14.7096902  )
        16           O1  tau(  16) = (   3.2612835   0.0684280  14.0222998  )
        17           O1  tau(  17) = (   4.5366247   1.5847279  16.0182572  )
        18           O1  tau(  18) = (   1.9973522   1.5932486  16.1410213  )
        19           Ti1 tau(  19) = (   3.3011230   3.0369928  15.6528835  )
        20           Ti1 tau(  20) = (   6.4616919   1.5442775  15.7581475  )
        21           O1  tau(  21) = (   3.2904802   0.0005063   4.7018136  )
        22           O1  tau(  22) = (   6.5264998   0.0144113  17.2942622  )
        23           O1  tau(  23) = (   1.3043587   1.4918075   6.0039043  )
        24           O1  tau(  24) = (   5.2767064   1.4903225   6.0039473  )
        25           Ti1 tau(  25) = (   0.0000382   5.9609847   6.0000000  )
        26           Ti1 tau(  26) = (   3.2902200   4.4714249   6.0002472  )
        27           O1  tau(  27) = (   0.0002396   2.9813036   7.9858123  )
        28           O1  tau(  28) = (   3.2902150   2.9813002   7.3038282  )
        29           O1  tau(  29) = (   4.5938453   4.4726049   9.2879030  )
        30           O1  tau(  30) = (   1.9864658   4.4711199   9.2879459  )
        31           Ti1 tau(  31) = (   3.2891106   5.8743827   9.1763621  )
        32           Ti1 tau(  32) = (   0.0006254   4.4649316   9.2693709  )
        33           O1  tau(  33) = (   3.2807216   2.9716845  11.3098041  )
        34           O1  tau(  34) = (   0.0092240   2.9805883  10.6323155  )
        35           O1  tau(  35) = (   1.2724369   4.4570745  12.6376724  )
        36           O1  tau(  36) = (   5.2808598   4.4590940  12.6336130  )
        37           Ti1 tau(  37) = (   6.5522345   0.0346224  12.5198063  )
        38           Ti1 tau(  38) = (   3.2841791   4.3624788  12.4156291  )
        39           O1  tau(  39) = (   6.5678423   2.9906399  14.7075790  )
        40           O1  tau(  40) = (   3.2630306   2.9991211  13.8878987  )
        41           O1  tau(  41) = (   4.5399391   4.4365880  16.1202346  )
        42           O1  tau(  42) = (   1.9952260   4.4486394  16.1468368  )
        43           Ti1 tau(  43) = (   3.1909378   0.0332154  16.1742435  )
        44           Ti1 tau(  44) = (   6.5525253   4.6749982  16.1158565  )
        45           O1  tau(  45) = (   3.2900926   2.9813045   4.7018136  )
        46           O1  tau(  46) = (   1.3039711   4.4726057   6.0039043  )
        47           O1  tau(  47) = (   5.2763189   4.4711207   6.0039473  )
        48           N1  tau(  48) = (   0.9351815   2.3805788  18.4294677  )
        49           N1  tau(  49) = (   6.5001775   2.8750743  17.5309975  )
        50           C1  tau(  50) = (   1.3386797   3.2909482  19.5301671  )
        51           H1  tau(  51) = (   0.4734699   3.4817333  20.1622224  )
        52           H1  tau(  52) = (   2.1262835   2.8019037  20.1042238  )
        53           H1  tau(  53) = (   1.7016266   4.2178517  19.0939426  )
        54           H1  tau(  54) = (   0.6429753   1.4474929  18.7566963  )
        55           H1  tau(  55) = (   5.6191021   2.8122447  18.0351622  )
        56           H1  tau(  56) = (   1.7303324   2.1440475  17.7969061  )
        57           O1  tau(  57) = (   3.3671931   0.1367260  18.0860582  )
        58           H1  tau(  58) = (   4.3009782   5.9598238  18.3144400  )

     number of k points=    10  Fermi-Dirac smearing, width (Ry)=  0.0073
                       cart. coord. in units 2pi/alat
        k(    1) = (   0.0000000   0.0000000   0.0000000), wk =   0.1250000
        k(    2) = (   0.0000000   0.0419351   0.0000000), wk =   0.2500000
        k(    3) = (   0.0000000  -0.0838702   0.0000000), wk =   0.1250000
        k(    4) = (   0.0379955   0.0000049   0.0000000), wk =   0.2500000
        k(    5) = (   0.0379955   0.0419400   0.0000000), wk =   0.2500000
        k(    6) = (   0.0379955  -0.0838652   0.0000000), wk =   0.2500000
        k(    7) = (   0.0379955  -0.0419301   0.0000000), wk =   0.2500000
        k(    8) = (  -0.0759910  -0.0000099   0.0000000), wk =   0.1250000
        k(    9) = (  -0.0759910   0.0419252   0.0000000), wk =   0.2500000
        k(   10) = (  -0.0759910  -0.0838800   0.0000000), wk =   0.1250000

     Initial potential from superposition of free atoms

     starting charge  388.99913, renormalised to  405.00000

     negative rho (up, down):  1.469E-02 0.000E+00

     %%%%%%%%%%%%%%%%%%%%%%%%%%%%%%%%%%%%%%%%%%%%%%%%%%%%%%%%%%%%%%%%%%%%%%%%
     %                                                                      %
     % You are using vdW-DF, which was implemented by the Thonhauser group. %
     % Please cite the following two papers that made this development      %
     % possible and the two reviews that describe the various versions:     %
     %                                                                      %
     %   T. Thonhauser et al., PRL 115, 136402 (2015).                      %
     %   T. Thonhauser et al., PRB 76, 125112 (2007).                       %
     %   K. Berland et al., Rep. Prog. Phys. 78, 066501 (2015).             %
     %   D.C. Langreth et al., J. Phys.: Condens. Matter 21, 084203 (2009). %
     %                                                                      %
     %                                                                      %
     % If you are calculating the stress with vdW-DF, please also cite:     %
     %                                                                      %
     %   R. Sabatini et al., J. Phys.: Condens. Matter 24, 424209 (2012).   %
     %                                                                      %
     %%%%%%%%%%%%%%%%%%%%%%%%%%%%%%%%%%%%%%%%%%%%%%%%%%%%%%%%%%%%%%%%%%%%%%%%

     Adding external electric field

     Computed dipole along edir(3) :
        Dipole              -13.9957 Ry au,        -35.5736 Debye
        Dipole field         -0.0264 Ry au,

        Potential amp.        2.4483 Ry
        Total length         46.3494 bohr

     Starting wfcs are  307 atomic wfcs
  @ DRIVER MODE: Message from server: STATUS
  @ DRIVER MODE: Message from server: POSDATA
  @ DRIVER MODE: Reading and sharing cell
  @ DRIVER MODE: Reading and sharing positions
  @ DRIVER MODE: Received positions

     Self-consistent Calculation

     iteration #  1     ecut=    29.40 Ry     beta= 0.05
     Davidson diagonalization with overlap
     c_bands:  5 eigenvalues not converged
     c_bands:  5 eigenvalues not converged
     c_bands:  1 eigenvalues not converged
     c_bands:  2 eigenvalues not converged
     c_bands:  3 eigenvalues not converged
     ethr =  1.00E-05,  avg # of iterations = 28.6

[...]

     total energy              =   -2225.13064015 Ry
     estimated scf accuracy    <    8520.68739917 Ry

     iteration #  2     ecut=    29.40 Ry     beta= 0.05
     Davidson diagonalization with overlap
     ethr =  1.00E-02,  avg # of iterations = 25.0

[...]

     iteration # 55     ecut=    29.40 Ry     beta= 0.05
     Davidson diagonalization with overlap
     c_bands:  2 eigenvalues not converged
     ethr =  9.94E-08,  avg # of iterations = 14.9

[...]

     total energy              =   -2976.49320486 Ry
     estimated scf accuracy    <       0.00000014 Ry

     iteration # 71     ecut=    29.40 Ry     beta= 0.05
     Davidson diagonalization with overlap
     ethr =  3.56E-11,  avg # of iterations =  7.7

     negative rho (up, down):  1.567E-02 0.000E+00

     Adding external electric field

     Computed dipole along edir(3) :
        Dipole                1.5013 Ry au,          3.8158 Debye
        Dipole field          0.0028 Ry au,

        Potential amp.       -0.2626 Ry
        Total length         46.3494 bohr

     End of self-consistent calculation

          k = 0.0000 0.0000 0.0000 ( 18029 PWs)   bands (ev):

   -55.2978 -55.1734 -55.1394 -55.0034 -54.9941 -54.9901 -54.9685 -54.9604
   -54.9303 -54.8816 -54.8495 -54.8132 -54.7917 -54.7511 -54.1371 -54.1030
   -31.6562 -31.6253 -31.5442 -31.4954 -31.4929 -31.4886 -31.4656 -31.4465
   -31.4191 -31.4143 -31.3698 -31.3344 -31.3257 -31.2782 -31.2652 -31.2577
   -31.2511 -31.2308 -31.2154 -31.1986 -31.1844 -31.1819 -31.1716 -31.1680
   -31.1490 -31.1263 -31.1239 -31.1203 -31.1104 -31.1026 -31.0967 -31.0763
   -31.0682 -31.0544 -31.0370 -31.0246 -31.0228 -31.0110 -31.0079 -31.0066
   -30.9805 -30.9409 -30.5428 -30.4575 -30.4350 -30.3603 -30.2740 -30.1622
   -18.8699 -16.0446 -15.8058 -15.6549 -15.4867 -15.3410 -15.2546 -15.0551
   -14.9393 -14.9005 -14.8815 -14.8076 -14.7051 -14.7045 -14.6607 -14.6333
   -14.6292 -14.6005 -14.5888 -14.5871 -14.5692 -14.5202 -14.5051 -14.4603
   -14.4541 -14.4149 -14.3027 -14.2331 -14.1885 -14.1162 -13.9987 -13.0877
   -12.6362 -12.5201 -10.7922  -7.5737  -6.2399  -5.5905  -3.7435  -3.6313
    -3.4434  -3.1657  -3.0995  -3.0713  -3.0440  -2.8909  -2.7656  -2.5848
    -2.4743  -2.4306  -2.3126  -2.2951  -2.2135  -2.1650  -2.1207  -2.0725
    -2.0426  -1.9773  -1.9601  -1.9555  -1.9275  -1.8605  -1.8329  -1.7176
    -1.6885  -1.6251  -1.5671  -1.4961  -1.4815  -1.4742  -1.4672  -1.4564
    -1.4278  -1.4126  -1.3811  -1.3413  -1.2601  -1.2065  -1.1999  -1.1600
    -1.0758  -0.8914  -0.7678  -0.7438  -0.6857  -0.6421  -0.5908  -0.5788
    -0.5553  -0.5170  -0.4113  -0.3974  -0.3340  -0.3053  -0.2418  -0.1917
    -0.1641  -0.1002  -0.0389   0.0491   0.0691   0.0870   0.1285   0.1758
     0.2470   0.2822   0.3221   0.3517   0.4405   0.4940   0.5541   0.5610
     0.5937   0.6658   0.7221   0.7695   0.7901   0.8092   0.8603   0.8764
     0.9198   0.9748   1.0154   1.0308   1.1018   1.1602   1.2075   1.2405
     1.3386   1.3551   1.5133   1.5687   1.8363   1.8886   1.9565   2.0822
     2.4551   2.5000   3.9351   4.0556   4.0668   4.0893   4.1684   4.2313
     4.3986   4.4053   4.5174   4.6176

[...]

          k = 0.0380-0.0419 0.0000 ( 17876 PWs)   bands (ev):

[...]

          k =-0.0760-0.0000 0.0000 ( 17886 PWs)   bands (ev):

[...]

          k =-0.0760-0.0839 0.0000 ( 17948 PWs)   bands (ev):

   -55.2970 -55.1568 -55.1559 -54.9907 -54.9873 -54.9844 -54.9780 -54.9761
   -54.9235 -54.8884 -54.8392 -54.8234 -54.7845 -54.7582 -54.1205 -54.1195
   -31.5586 -31.5355 -31.4899 -31.4718 -31.4712 -31.4514 -31.4507 -31.4132
   -31.3137 -31.3069 -31.3016 -31.2999 -31.2948 -31.2765 -31.2755 -31.2663
   -31.2661 -31.2451 -31.2435 -31.2143 -31.2012 -31.1973 -31.1966 -31.1901
   -31.1758 -31.1656 -31.1573 -31.1522 -31.1496 -31.1447 -31.1404 -31.1211
   -31.1098 -31.0879 -31.0731 -31.0668 -31.0323 -31.0298 -31.0185 -31.0154
   -31.0101 -30.9930 -30.4480 -30.4474 -30.3563 -30.3551 -30.3175 -30.3168
   -18.8657 -16.0102 -15.3734 -15.1695 -15.1068 -15.0835 -15.0687 -15.0322
   -15.0055 -14.9519 -14.9326 -14.8749 -14.8440 -14.8311 -14.7595 -14.7438
   -14.6883 -14.6589 -14.6464 -14.6066 -14.6020 -14.5797 -14.5473 -14.5388
   -14.4736 -14.4596 -14.4562 -14.3642 -14.3544 -14.2338 -14.1851 -13.0986
   -12.6223 -12.6216 -10.7943  -7.5846  -6.2259  -5.5802  -3.6866  -3.6473
    -3.3995  -2.5853  -2.4482  -2.4372  -2.3018  -2.2885  -2.1927  -2.1460
    -2.0927  -2.0746  -2.0522  -2.0336  -2.0028  -1.9698  -1.9534  -1.9463
    -1.9182  -1.8959  -1.8708  -1.8649  -1.8292  -1.8243  -1.8030  -1.7798
    -1.7697  -1.7346  -1.7213  -1.7173  -1.7030  -1.6494  -1.6308  -1.4682
    -1.4374  -1.3464  -1.3128  -1.2895  -1.2802  -1.2546  -1.2375  -1.2167
    -1.1614  -1.1084  -1.0476  -0.9208  -0.8757  -0.8113  -0.7756  -0.6971
    -0.6567  -0.6233  -0.5950  -0.5715  -0.5385  -0.4808  -0.4039  -0.3495
    -0.3032  -0.2621  -0.1645  -0.1455  -0.1230  -0.1116  -0.0779  -0.0185
    -0.0119   0.0440   0.0628   0.1258   0.1408   0.1563   0.1743   0.2576
     0.3523   0.4331   0.4568   0.5479   0.5656   0.6554   0.7022   0.8024
     0.9146   0.9607   1.0002   1.0100   1.0932   1.0990   1.1550   1.1778
     1.2607   1.3494   1.4136   1.4218   1.4418   1.4956   2.2515   2.2601
     2.3201   2.3205   4.1858   4.3484   4.4283   4.4400   4.4720   4.4831
     4.5167   4.5197   4.6056   4.6158

     the Fermi energy is     3.9543 ev

!    total energy              =   -2976.49323492 Ry
     estimated scf accuracy    <       0.00000007 Ry
     smearing contrib. (-TS)   =      -0.02056738 Ry
     internal energy E=F+TS    =   -2976.47266753 Ry

     The total energy is F=E-TS. E is the sum of the following terms:
     one-electron contribution =  -23617.07634951 Ry
     hartree contribution      =   11908.27232205 Ry
     xc contribution           =    -495.76726678 Ry
     ewald contribution        =    9228.09437346 Ry
     electric field correction =       0.00425324 Ry

     convergence has been achieved in  71 iterations

     Forces acting on atoms (cartesian axes, Ry/au):

     atom    1 type  1   force =     0.00014157   -0.00013197    0.09536120
     atom    2 type  1   force =    -0.00002979    0.00039537   -0.17474434
     atom    3 type  2   force =     0.00004193   -0.00018313   -0.02258415
     atom    4 type  2   force =     0.00001456   -0.00200409    0.05319860
     atom    5 type  2   force =    -0.00814269   -0.00302415    0.00227222
     atom    6 type  2   force =     0.00923913   -0.00232004    0.00056540
     atom    7 type  1   force =    -0.00079175   -0.00509083    0.00571267
     atom    8 type  1   force =     0.00083674    0.00657182    0.01468626
     atom    9 type  2   force =     0.00011566    0.00043020    0.00071887
     atom   10 type  2   force =    -0.00346341    0.00091897   -0.01236712
     atom   11 type  2   force =    -0.00000196   -0.00055396    0.00028697
     atom   12 type  2   force =     0.00006548   -0.00043086    0.00023746
     atom   13 type  1   force =     0.00092461    0.00087527    0.00010345
     atom   14 type  1   force =    -0.00019297    0.00012923   -0.00043382
     atom   15 type  2   force =     0.00015207   -0.00071570   -0.00076742
     atom   16 type  2   force =     0.00011924   -0.00014417    0.00095492
     atom   17 type  2   force =    -0.00008654    0.00010883   -0.00012289
     atom   18 type  2   force =    -0.00008354    0.00028333    0.00002305
     atom   19 type  1   force =     0.00018827   -0.00009612   -0.00009271
     atom   20 type  1   force =    -0.00007131    0.00008304   -0.00000537
     atom   21 type  2   force =     0.00009254   -0.00000093    0.10302322
     atom   22 type  2   force =     0.00011825    0.00013737    0.00068381
     atom   23 type  2   force =    -0.07213126   -0.00022106   -0.02757579
     atom   24 type  2   force =     0.07208869    0.00026614   -0.02759315
     atom   25 type  1   force =     0.00016074   -0.00029211    0.09519800
     atom   26 type  1   force =     0.00001416   -0.00123703   -0.17522949
     atom   27 type  2   force =    -0.00000454    0.00008329   -0.02155493
     atom   28 type  2   force =     0.00005394   -0.00043630    0.04877806
     atom   29 type  2   force =    -0.00786434    0.00198467    0.00251671
     atom   30 type  2   force =     0.00889047    0.00234286    0.00069530
     atom   31 type  1   force =    -0.00069296    0.00833798   -0.00445235
     atom   32 type  1   force =     0.00106124   -0.00751558    0.01446610
     atom   33 type  2   force =     0.00012616    0.00021974   -0.00002297
     atom   34 type  2   force =    -0.00269935   -0.00027866   -0.01824349
     atom   35 type  2   force =    -0.00055051    0.00026927    0.00008791
     atom   36 type  2   force =     0.00071475    0.00039766    0.00024332
     atom   37 type  1   force =     0.00018380   -0.00037590    0.00024394
     atom   38 type  1   force =    -0.00006172   -0.00005799   -0.00075166
     atom   39 type  2   force =     0.00028583    0.00032802   -0.00015828
     atom   40 type  2   force =     0.00023075    0.00001286    0.00069483
     atom   41 type  2   force =    -0.00013896   -0.00036723    0.00009190
     atom   42 type  2   force =     0.00050484   -0.00011679    0.00044981
     atom   43 type  1   force =    -0.00000184    0.00023476   -0.00042495
     atom   44 type  1   force =     0.00049965   -0.00018775   -0.00016629
     atom   45 type  2   force =     0.00008985   -0.00009741    0.10283682
     atom   46 type  2   force =    -0.07217953   -0.00003889   -0.02760216
     atom   47 type  2   force =     0.07212469    0.00035809   -0.02760862
     atom   48 type  3   force =    -0.00046081    0.00032083    0.00020366
     atom   49 type  3   force =     0.00065337    0.00120253   -0.00160875
     atom   50 type  4   force =     0.00016040    0.00070435    0.00035603
     atom   51 type  5   force =     0.00024176    0.00042735   -0.00022591
     atom   52 type  5   force =    -0.00027722   -0.00021588   -0.00050720
     atom   53 type  5   force =     0.00043235    0.00016016   -0.00025082
     atom   54 type  5   force =    -0.00021287   -0.00044416    0.00006742
     atom   55 type  5   force =    -0.00077523   -0.00117242    0.00098864
     atom   56 type  5   force =    -0.00016638    0.00011657   -0.00061179
     atom   57 type  2   force =     0.00015793   -0.00056223   -0.00015747
     atom   58 type  5   force =     0.00035605    0.00061280    0.00011735

     Total force =     0.363546     Total SCF correction =     0.000702
  @ DRIVER MODE: Message from server: STATUS
  @ DRIVER MODE: Message from server: GETFORCE
  @ DRIVER MODE: Returning v,forces,stress,ensemble

     Writing output data file ./calc.save/
  @ DRIVER MODE: Message from server: EXIT
  @ DRIVE MODE: Exiting

     General routines

     Parallel routines

   This run was terminated on:   7:17:18  24Sep2021

   JOB DONE.