     Program PWSCF v.6.7GPU starts on 22Sep2021 at 23:19: 5

     R & G space division:  proc/nbgrp/npool/nimage =      10
     Reading input from /storage/home/hcoda1/3/ntian30/research/carbon/CxH_vib/H2O_calc/ads_slab/CHNHHHO_a/out_0023/pw.inp
Warning: card &CELL ignored
Warning: card   CELL_DYNAMICS='IPI', ignored
Warning: card / ignored

     Current dimensions of program PWSCF are:
     Max number of different atomic species (ntypx) = 10
     Max number of k-points (npk) =  40000
     Max angular momentum in pseudopotentials (lmaxx) =  3
     Presently no symmetry can be used with electric field

     Message from routine cell_base_init:
     DEPRECATED: use true lattice parameter, not A to a.u. conversion factor

     IMPORTANT: XC functional enforced from input :
     Exchange-correlation= BEEF-VDW
                           (   1   4  43  14   2   0   0)
     Any further DFT definition will be discarded
     Please, verify this is what you really want

  @ DRIVER MODE: Connecting to
 qe_1139763_2937313.sched-torque.pace.gatech.eduvuh7dii1_scratch
  using UNIX socket
  @ DRIVER MODE: Message from server: STATUS
  @ DRIVER MODE: Message from server: INIT
  @ DRIVER MODE: Receiving replica           0          -1
  @ DRIVER MODE: Receiving encoded integer          25
  @ DRIVER MODE:  SCF:  T  FORCE:  T  STRESS:  F  VC:  F  ENSEMBLE:  F
  @ DRIVER MODE:  SCF:  T  FORCE:  T  STRESS:  F  VC:  F  ENSEMBLE:  F

     Using Slab Decomposition

     bravais-lattice index     =            0
     lattice parameter (alat)  =       1.8897  a.u.
     unit-cell volume          =    6658.9804 (a.u.)^3
     number of atoms/cell      =           54
     number of atomic types    =            5
     number of electrons       =       397.00
     number of Kohn-Sham states=          208
     kinetic-energy cutoff     =      29.3995  Ry
     charge density cutoff     =     293.9946  Ry
     scf convergence threshold =      7.3E-08
     mixing beta               =       0.0500
     number of iterations used =            8  plain     mixing
     Exchange-correlation= BEEF-VDW
                           (   1   4  43  14   2   0   0)

     celldm(1)=   1.889726  celldm(2)=   0.000000  celldm(3)=   0.000000
     celldm(4)=   0.000000  celldm(5)=   0.000000  celldm(6)=   0.000000

     crystal axes: (cart. coord. in units of alat)
               a(1) = (   6.579727   0.000000   0.000000 )
               a(2) = (  -0.000775   5.961596   0.000000 )
               a(3) = (   0.000000   0.000000  25.155947 )

     reciprocal axes: (cart. coord. in units 2 pi/alat)
               b(1) = (  0.151982  0.000020  0.000000 )
               b(2) = (  0.000000  0.167740  0.000000 )
               b(3) = (  0.000000  0.000000  0.039752 )

     PseudoPot. # 1 for Ti read from file:
     /storage/coda1/p-amedford6/0/shared/rich_project_chbe-medford/medford-share/data/pseudos_module/espresso/nninc/pbe/van/Ti.UPF
     MD5 check sum: 8e4df49b7f0d34bbd5052bf3f5ea0213
     Pseudo is Ultrasoft, Zval = 12.0
     Generated by new atomic code, or converted to UPF format
     Using radial grid of  851 points,  6 beta functions with:
                l(1) =   0
                l(2) =   0
                l(3) =   1
                l(4) =   1
                l(5) =   2
                l(6) =   2
     Q(r) pseudized with  8 coefficients,  rinner =    1.000   1.000   1.000
                                                       1.000   1.000

     PseudoPot. # 2 for O  read from file:
     /storage/coda1/p-amedford6/0/shared/rich_project_chbe-medford/medford-share/data/pseudos_module/espresso/nninc/pbe/van/O.UPF
     MD5 check sum: 78c19812648e8988a0fe644b0f25305e
     Pseudo is Ultrasoft, Zval =  6.0
     Generated by new atomic code, or converted to UPF format
     Using radial grid of  737 points,  4 beta functions with:
                l(1) =   0
                l(2) =   0
                l(3) =   1
                l(4) =   1
     Q(r) pseudized with  8 coefficients,  rinner =    0.800   0.800   0.800

     PseudoPot. # 3 for N  read from file:
     /storage/coda1/p-amedford6/0/shared/rich_project_chbe-medford/medford-share/data/pseudos_module/espresso/nninc/pbe/van/N.UPF
     MD5 check sum: 90d10febe142ad51ac9d5be1deb811c4
     Pseudo is Ultrasoft, Zval =  5.0
     Generated by new atomic code, or converted to UPF format
     Using radial grid of  729 points,  4 beta functions with:
                l(1) =   0
                l(2) =   0
                l(3) =   1
                l(4) =   1
     Q(r) pseudized with  8 coefficients,  rinner =    0.800   0.800   0.800

     PseudoPot. # 4 for C  read from file:
     /storage/coda1/p-amedford6/0/shared/rich_project_chbe-medford/medford-share/data/pseudos_module/espresso/nninc/pbe/van/C.UPF
     MD5 check sum: 1a69bf6b8db32088f5b2163dbdb77a27
     Pseudo is Ultrasoft, Zval =  4.0
     Generated by new atomic code, or converted to UPF format
     Using radial grid of  721 points,  4 beta functions with:
                l(1) =   0
                l(2) =   0
                l(3) =   1
                l(4) =   1
     Q(r) pseudized with  8 coefficients,  rinner =    0.800   0.800   0.800

     PseudoPot. # 5 for H  read from file:
     /storage/coda1/p-amedford6/0/shared/rich_project_chbe-medford/medford-share/data/pseudos_module/espresso/nninc/pbe/van/H.UPF
     MD5 check sum: b5ee9d7bfd3a09ee7748110bda690ff7
     Pseudo is Ultrasoft, Zval =  1.0
     Generated by new atomic code, or converted to UPF format
     Using radial grid of  615 points,  1 beta functions with:
                l(1) =   0
     Q(r) pseudized with  8 coefficients,  rinner =    0.800

     atomic species   valence    mass     pseudopotential
        Ti1           12.00    47.86700     Ti( 1.00)
        O1             6.00    15.99900     O ( 1.00)
        N1             5.00    14.00700     N ( 1.00)
        C1             4.00    12.01100     C ( 1.00)
        H1             1.00     1.00800     H ( 1.00)

     No symmetry found

   Cartesian axes

     site n.     atom                  positions (alat units)
         1           Ti1 tau(   1) = (   0.0004258   2.9801865   6.0000000  )
         2           Ti1 tau(   2) = (   3.2906075   1.4906267   6.0002472  )
         3           O1  tau(   3) = (   0.0006271   0.0005054   7.9858123  )
         4           O1  tau(   4) = (   3.2906025   0.0005020   7.3038282  )
         5           O1  tau(   5) = (   4.5942328   1.4918067   9.2879030  )
         6           O1  tau(   6) = (   1.9868534   1.4903216   9.2879459  )
         7           Ti1 tau(   7) = (   3.2907910   2.8959150   9.1758416  )
         8           Ti1 tau(   8) = (   0.0015273   1.4827037   9.2680791  )
         9           O1  tau(   9) = (   3.2973591   5.9237820  11.3497511  )
        10           O1  tau(  10) = (   0.0116148   5.9584955  10.6183126  )
        11           O1  tau(  11) = (   1.2811460   1.4768824  12.6391447  )
        12           O1  tau(  12) = (   5.3079631   1.4871840  12.6405626  )
        13           Ti1 tau(  13) = (   6.5754896   2.9244875  12.5445406  )
        14           Ti1 tau(  14) = (   3.3102182   1.2813077  12.7057081  )
        15           O1  tau(  15) = (   6.5763362   0.0566486  14.6337039  )
        16           O1  tau(  16) = (   3.2990834   0.0566264  13.9960278  )
        17           O1  tau(  17) = (   4.5749688   1.5338778  16.1314031  )
        18           O1  tau(  18) = (   2.0677763   1.5208417  16.2171153  )
        19           Ti1 tau(  19) = (   3.2830944   2.9922577  15.6820260  )
        20           Ti1 tau(  20) = (   6.5002293   1.4748383  16.0237708  )
        21           O1  tau(  21) = (   3.2904802   0.0005063   4.7018136  )
        22           O1  tau(  22) = (   0.0234767   5.8639946  17.1540191  )
        23           O1  tau(  23) = (   1.3043587   1.4918075   6.0039043  )
        24           O1  tau(  24) = (   5.2767064   1.4903225   6.0039473  )
        25           Ti1 tau(  25) = (   0.0000382   5.9609847   6.0000000  )
        26           Ti1 tau(  26) = (   3.2902200   4.4714249   6.0002472  )
        27           O1  tau(  27) = (   0.0002396   2.9813036   7.9858123  )
        28           O1  tau(  28) = (   3.2902150   2.9813002   7.3038282  )
        29           O1  tau(  29) = (   4.5938453   4.4726049   9.2879030  )
        30           O1  tau(  30) = (   1.9864658   4.4711199   9.2879459  )
        31           Ti1 tau(  31) = (   3.2891106   5.8743827   9.1763621  )
        32           Ti1 tau(  32) = (   0.0006254   4.4649316   9.2693709  )
        33           O1  tau(  33) = (   3.2952530   2.9960894  11.3054589  )
        34           O1  tau(  34) = (   0.0092240   2.9805883  10.6323155  )
        35           O1  tau(  35) = (   1.2848436   4.4566134  12.6628561  )
        36           O1  tau(  36) = (   5.3073415   4.4462911  12.6631571  )
        37           Ti1 tau(  37) = (   0.0411484   5.9123939  12.5136797  )
        38           Ti1 tau(  38) = (   3.3147701   4.3652790  12.4361622  )
        39           O1  tau(  39) = (   0.0290229   2.9306538  14.8412286  )
        40           O1  tau(  40) = (   3.2875986   2.9640914  13.9120161  )
        41           O1  tau(  41) = (   4.5659564   4.3862643  16.1232528  )
        42           O1  tau(  42) = (   2.0245242   4.4195217  16.0560026  )
        43           Ti1 tau(  43) = (   3.2475481   5.9608109  16.2864591  )
        44           Ti1 tau(  44) = (   0.0132903   4.6514137  15.7972829  )
        45           O1  tau(  45) = (   3.2900926   2.9813045   4.7018136  )
        46           O1  tau(  46) = (   1.3039711   4.4726057   6.0039043  )
        47           O1  tau(  47) = (   5.2763189   4.4711207   6.0039473  )
        48           N1  tau(  48) = (   5.7184149   3.3872802  18.6644769  )
        49           C1  tau(  49) = (   6.5536674   2.6142045  18.0347456  )
        50           H1  tau(  50) = (   0.7520291   2.2354638  18.7052436  )
        51           H1  tau(  51) = (   4.9873861   3.8928837  18.1515307  )
        52           H1  tau(  52) = (   5.8197376   3.6397576  19.6419508  )
        53           O1  tau(  53) = (   3.3578172   5.8156178  18.1613732  )
        54           H1  tau(  54) = (   2.9124532   0.5526369  18.6599525  )

     number of k points=    10  Fermi-Dirac smearing, width (Ry)=  0.0073
                       cart. coord. in units 2pi/alat
        k(    1) = (   0.0000000   0.0000000   0.0000000), wk =   0.1250000
        k(    2) = (   0.0000000   0.0419351   0.0000000), wk =   0.2500000
        k(    3) = (   0.0000000  -0.0838702   0.0000000), wk =   0.1250000
        k(    4) = (   0.0379955   0.0000049   0.0000000), wk =   0.2500000
        k(    5) = (   0.0379955   0.0419400   0.0000000), wk =   0.2500000
        k(    6) = (   0.0379955  -0.0838652   0.0000000), wk =   0.2500000
        k(    7) = (   0.0379955  -0.0419301   0.0000000), wk =   0.2500000
        k(    8) = (  -0.0759910  -0.0000099   0.0000000), wk =   0.1250000
        k(    9) = (  -0.0759910   0.0419252   0.0000000), wk =   0.2500000
        k(   10) = (  -0.0759910  -0.0838800   0.0000000), wk =   0.1250000

     Initial potential from superposition of free atoms

     starting charge  380.99916, renormalised to  397.00000

     negative rho (up, down):  1.674E-02 0.000E+00

     %%%%%%%%%%%%%%%%%%%%%%%%%%%%%%%%%%%%%%%%%%%%%%%%%%%%%%%%%%%%%%%%%%%%%%%%
     %                                                                      %
     % You are using vdW-DF, which was implemented by the Thonhauser group. %
     % Please cite the following two papers that made this development      %
     % possible and the two reviews that describe the various versions:     %
     %                                                                      %
     %   T. Thonhauser et al., PRL 115, 136402 (2015).                      %
     %   T. Thonhauser et al., PRB 76, 125112 (2007).                       %
     %   K. Berland et al., Rep. Prog. Phys. 78, 066501 (2015).             %
     %   D.C. Langreth et al., J. Phys.: Condens. Matter 21, 084203 (2009). %
     %                                                                      %
     %                                                                      %
     % If you are calculating the stress with vdW-DF, please also cite:     %
     %                                                                      %
     %   R. Sabatini et al., J. Phys.: Condens. Matter 24, 424209 (2012).   %
     %                                                                      %
     %%%%%%%%%%%%%%%%%%%%%%%%%%%%%%%%%%%%%%%%%%%%%%%%%%%%%%%%%%%%%%%%%%%%%%%%

     Adding external electric field

     Computed dipole along edir(3) :
        Dipole               -9.3081 Ry au,        -23.6588 Debye
        Dipole field         -0.0176 Ry au,

        Potential amp.        1.6283 Ry
        Total length         46.3494 bohr

     Starting wfcs are  300 atomic wfcs
  @ DRIVER MODE: Message from server: STATUS
  @ DRIVER MODE: Message from server: POSDATA
  @ DRIVER MODE: Reading and sharing cell
  @ DRIVER MODE: Reading and sharing positions
  @ DRIVER MODE: Received positions

     Self-consistent Calculation

     iteration #  1     ecut=    29.40 Ry     beta= 0.05
     Davidson diagonalization with overlap
     c_bands:  1 eigenvalues not converged
     c_bands:  2 eigenvalues not converged
     c_bands:  1 eigenvalues not converged
     c_bands:  1 eigenvalues not converged
     c_bands:  1 eigenvalues not converged
     c_bands:  2 eigenvalues not converged
     c_bands:  1 eigenvalues not converged
     c_bands:  1 eigenvalues not converged
     c_bands:  2 eigenvalues not converged
     ethr =  1.00E-05,  avg # of iterations = 19.6

[...]

     total energy              =   -2539.09094546 Ry
     estimated scf accuracy    <    4593.57910877 Ry

     iteration #  2     ecut=    29.40 Ry     beta= 0.05
     Davidson diagonalization with overlap
     ethr =  1.00E-02,  avg # of iterations = 24.2

[...]

     iteration # 43     ecut=    29.40 Ry     beta= 0.05
     Davidson diagonalization with overlap
     c_bands:  1 eigenvalues not converged
     ethr =  2.67E-07,  avg # of iterations = 11.0

[...]

     total energy              =   -2952.67093399 Ry
     estimated scf accuracy    <       0.00000017 Ry

     iteration # 68     ecut=    29.40 Ry     beta= 0.05
     Davidson diagonalization with overlap
     ethr =  4.35E-11,  avg # of iterations =  7.8

     negative rho (up, down):  1.682E-02 0.000E+00

     Adding external electric field

     Computed dipole along edir(3) :
        Dipole                1.3064 Ry au,          3.3206 Debye
        Dipole field          0.0025 Ry au,

        Potential amp.       -0.2285 Ry
        Total length         46.3494 bohr

     End of self-consistent calculation

          k = 0.0000 0.0000 0.0000 ( 18029 PWs)   bands (ev):

   -55.6261 -55.5464 -55.5123 -55.3634 -55.3396 -55.3293 -55.3042 -55.2981
   -55.2791 -55.2287 -55.1429 -55.1072 -55.0304 -55.0061 -54.4978 -54.4638
   -32.0277 -31.9586 -31.8655 -31.8495 -31.8381 -31.8259 -31.8249 -31.7912
   -31.7628 -31.7206 -31.6989 -31.6714 -31.6499 -31.6267 -31.6218 -31.6096
   -31.6041 -31.5869 -31.5529 -31.5379 -31.5234 -31.5181 -31.5052 -31.5027
   -31.4915 -31.4812 -31.4763 -31.4760 -31.4473 -31.4363 -31.4262 -31.4048
   -31.3872 -31.3864 -31.3842 -31.3086 -31.2973 -31.2763 -31.2441 -31.2350
   -31.2255 -31.1544 -30.9026 -30.8191 -30.7965 -30.7204 -30.6342 -30.5222
   -17.2921 -16.4842 -16.1318 -15.9677 -15.7708 -15.6659 -15.5967 -15.4076
   -15.3232 -15.2666 -15.0766 -15.0712 -15.0423 -15.0224 -14.9965 -14.9678
   -14.9591 -14.9532 -14.9265 -14.8932 -14.8764 -14.8479 -14.8305 -14.7726
   -14.7473 -14.7282 -14.6678 -14.5721 -14.5086 -14.2960 -14.1488 -12.9960
   -12.8800  -9.6051  -7.3168  -4.7617  -4.0635  -3.5007  -3.4334  -3.3726
    -3.3245  -3.2481  -3.0170  -2.8690  -2.7639  -2.7366  -2.6490  -2.6172
    -2.5712  -2.4925  -2.4252  -2.4018  -2.3571  -2.3185  -2.2873  -2.2659
    -2.2401  -2.2189  -2.1630  -2.1239  -2.0469  -1.9988  -1.9305  -1.9074
    -1.8496  -1.8114  -1.8089  -1.7941  -1.7576  -1.7522  -1.7436  -1.7235
    -1.6173  -1.5853  -1.5354  -1.4925  -1.3282  -1.1408  -1.1203  -1.0253
    -0.9907  -0.9507  -0.9237  -0.9082  -0.8825  -0.8591  -0.7653  -0.7458
    -0.6644  -0.6020  -0.5575  -0.5078  -0.4082  -0.3402  -0.3130  -0.2664
    -0.2619  -0.2312  -0.2147  -0.1262  -0.0490  -0.0023   0.0099   0.0622
     0.1477   0.1656   0.2211   0.2513   0.2930   0.3273   0.3999   0.4265
     0.4488   0.4597   0.4776   0.5344   0.5737   0.6069   0.6764   0.7782
     0.7858   0.8604   0.8620   0.8722   1.0723   1.1620   1.1800   1.2631
     1.4876   1.5288   1.6200   1.7248   2.0933   2.1376   3.5567   3.7002
     3.7180   3.7826   3.8310   3.9430   3.9558   4.0416   4.1697   4.2518

[...]

          k = 0.0380-0.0419 0.0000 ( 17876 PWs)   bands (ev):

[...]

          k =-0.0760-0.0000 0.0000 ( 17886 PWs)   bands (ev):

[...]

          k =-0.0760-0.0839 0.0000 ( 17948 PWs)   bands (ev):

   -55.6255 -55.5295 -55.5290 -55.3465 -55.3460 -55.3261 -55.3175 -55.2986
   -55.2726 -55.2352 -55.1407 -55.1035 -55.0340 -55.0083 -54.4811 -54.4803
   -31.9041 -31.8432 -31.8430 -31.8382 -31.8275 -31.8238 -31.8234 -31.7016
   -31.6717 -31.6653 -31.6495 -31.6489 -31.6433 -31.6345 -31.6210 -31.6022
   -31.5968 -31.5944 -31.5590 -31.5584 -31.5406 -31.5386 -31.5244 -31.5223
   -31.5155 -31.5108 -31.5034 -31.5018 -31.4908 -31.4849 -31.4588 -31.4528
   -31.4086 -31.3905 -31.3814 -31.3643 -31.3124 -31.3009 -31.2839 -31.2460
   -31.2389 -31.2277 -30.8096 -30.8089 -30.7162 -30.7150 -30.6777 -30.6770
   -17.2878 -16.4745 -15.5946 -15.5844 -15.4729 -15.4565 -15.3541 -15.2869
   -15.2544 -15.2303 -15.2101 -15.1784 -15.1731 -15.1279 -15.0807 -15.0668
   -15.0341 -15.0083 -14.9910 -14.9537 -14.9235 -14.9070 -14.8830 -14.8452
   -14.8388 -14.8237 -14.8104 -14.6423 -14.5943 -14.4506 -14.4228 -12.9824
   -12.9816  -9.6067  -7.3162  -4.7566  -4.0601  -2.8588  -2.8001  -2.6824
    -2.6428  -2.5861  -2.5109  -2.4780  -2.4647  -2.3779  -2.3668  -2.3627
    -2.3250  -2.2993  -2.2814  -2.2532  -2.2493  -2.2398  -2.2051  -2.1981
    -2.1804  -2.1596  -2.1432  -2.1283  -2.1134  -2.1046  -2.0816  -2.0584
    -2.0325  -1.9892  -1.8328  -1.7954  -1.7673  -1.6497  -1.6405  -1.6224
    -1.6114  -1.5980  -1.5665  -1.5005  -1.4820  -1.4759  -1.3171  -1.2326
    -1.1914  -1.1258  -1.1065  -1.0769  -0.9874  -0.9744  -0.9458  -0.9088
    -0.8613  -0.7888  -0.6898  -0.6825  -0.6383  -0.5307  -0.4803  -0.4675
    -0.4645  -0.4146  -0.4045  -0.3882  -0.3471  -0.2753  -0.2593  -0.2333
    -0.2010  -0.1858  -0.1447  -0.0781   0.0266   0.1082   0.2130   0.2496
     0.3309   0.3574   0.3722   0.5228   0.5874   0.6258   0.6742   0.6823
     0.7847   0.7956   0.8097   0.8901   0.9871   1.0081   1.0690   1.0860
     1.1057   1.1434   1.8940   1.9021   1.9578   1.9582   3.7448   4.0309
     4.0836   4.0935   4.1145   4.1294   4.1348   4.1638   4.2205   4.2503

     the Fermi energy is     3.5815 ev

!    total energy              =   -2952.67095363 Ry
     estimated scf accuracy    <       0.00000005 Ry
     smearing contrib. (-TS)   =      -0.02001587 Ry
     internal energy E=F+TS    =   -2952.65093777 Ry

     The total energy is F=E-TS. E is the sum of the following terms:
     one-electron contribution =  -23943.80685677 Ry
     hartree contribution      =   12064.83231889 Ry
     xc contribution           =    -487.97426203 Ry
     ewald contribution        =    9414.29464122 Ry
     electric field correction =       0.00322091 Ry

     convergence has been achieved in  68 iterations

     Forces acting on atoms (cartesian axes, Ry/au):

     atom    1 type  1   force =     0.00003971   -0.00030585    0.09543563
     atom    2 type  1   force =    -0.00013970    0.00031868   -0.17425629
     atom    3 type  2   force =    -0.00001887   -0.00015613   -0.02259337
     atom    4 type  2   force =     0.00003766   -0.00185483    0.05175668
     atom    5 type  2   force =    -0.00668470   -0.00270361    0.00170239
     atom    6 type  2   force =     0.00823661   -0.00219710    0.00118178
     atom    7 type  1   force =    -0.00012394   -0.00381439    0.01181104
     atom    8 type  1   force =     0.00015841    0.00376463    0.01273616
     atom    9 type  2   force =     0.00021144    0.00038378    0.00086534
     atom   10 type  2   force =    -0.00197692   -0.00130499   -0.01610430
     atom   11 type  2   force =     0.00117922   -0.00021551   -0.00027484
     atom   12 type  2   force =    -0.00062335    0.00012381   -0.00023213
     atom   13 type  1   force =    -0.00021782   -0.00145815    0.00049593
     atom   14 type  1   force =     0.00009530   -0.00044471   -0.00012254
     atom   15 type  2   force =     0.00008428    0.00031830   -0.00087445
     atom   16 type  2   force =     0.00006405    0.00103931   -0.00044184
     atom   17 type  2   force =    -0.00016462    0.00022755    0.00012958
     atom   18 type  2   force =     0.00012140    0.00023447   -0.00015925
     atom   19 type  1   force =    -0.00046846   -0.00020770    0.00009817
     atom   20 type  1   force =     0.00022736    0.00023759   -0.00045550
     atom   21 type  2   force =     0.00005835    0.00010453    0.10284431
     atom   22 type  2   force =    -0.00034215    0.00046312    0.00042040
     atom   23 type  2   force =    -0.07251480   -0.00013510   -0.02756102
     atom   24 type  2   force =     0.07242011    0.00027356   -0.02758969
     atom   25 type  1   force =     0.00009208   -0.00014317    0.09504670
     atom   26 type  1   force =    -0.00010992   -0.00129106   -0.17428112
     atom   27 type  2   force =     0.00015752   -0.00025847   -0.02135012
     atom   28 type  2   force =     0.00004887   -0.00014778    0.04736065
     atom   29 type  2   force =    -0.00546127    0.00230602   -0.00003102
     atom   30 type  2   force =     0.00703557    0.00273924   -0.00054139
     atom   31 type  1   force =    -0.00016630    0.00659519    0.00051531
     atom   32 type  1   force =     0.00008728   -0.00557309    0.01179729
     atom   33 type  2   force =    -0.00014411   -0.00039308    0.00016099
     atom   34 type  2   force =    -0.00121577    0.00016579   -0.01564170
     atom   35 type  2   force =    -0.00037353    0.00043346    0.00016685
     atom   36 type  2   force =     0.00102032    0.00058940    0.00043365
     atom   37 type  1   force =    -0.00023555    0.00177613    0.00015578
     atom   38 type  1   force =    -0.00006153    0.00027299    0.00034863
     atom   39 type  2   force =    -0.00012004    0.00009198   -0.00019284
     atom   40 type  2   force =     0.00038221   -0.00032332   -0.00012074
     atom   41 type  2   force =    -0.00031252    0.00028033    0.00062104
     atom   42 type  2   force =     0.00068827    0.00016884    0.00025057
     atom   43 type  1   force =     0.00007702    0.00037960    0.00048935
     atom   44 type  1   force =     0.00055633    0.00021287    0.00067213
     atom   45 type  2   force =     0.00006208   -0.00008831    0.10265815
     atom   46 type  2   force =    -0.07256019   -0.00005172   -0.02758592
     atom   47 type  2   force =     0.07248776    0.00040080   -0.02761080
     atom   48 type  3   force =    -0.00424037    0.00200630   -0.00635896
     atom   49 type  4   force =     0.00039147   -0.00019132    0.00009408
     atom   50 type  5   force =    -0.00046013   -0.00054407   -0.00013643
     atom   51 type  5   force =     0.00489463   -0.00254149    0.00540071
     atom   52 type  5   force =    -0.00099680    0.00111441   -0.00007064
     atom   53 type  2   force =    -0.00011538    0.00005472   -0.00092881
     atom   54 type  5   force =    -0.00106655   -0.00073244   -0.00013356

     Total force =     0.362462     Total SCF correction =     0.000663
  @ DRIVER MODE: Message from server: STATUS
  @ DRIVER MODE: Message from server: GETFORCE
  @ DRIVER MODE: Returning v,forces,stress,ensemble

     Writing output data file ./calc.save/
  @ DRIVER MODE: Message from server: EXIT
  @ DRIVE MODE: Exiting

     General routines

     Parallel routines

   This run was terminated on:  23:36:42  22Sep2021

   JOB DONE.