     Program PWSCF v.6.7GPU starts on 24Sep2021 at 13:58:35

     R & G space division:  proc/nbgrp/npool/nimage =       8
     Reading input from /storage/home/hcoda1/3/ntian30/research/carbon/CxH_vib/H2O_calc/ads_slab/CH3NNHHHHO_a/out_0065/pw.inp
Warning: card &CELL ignored
Warning: card   CELL_DYNAMICS='IPI', ignored
Warning: card / ignored

     Current dimensions of program PWSCF are:
     Max number of different atomic species (ntypx) = 10
     Max number of k-points (npk) =  40000
     Max angular momentum in pseudopotentials (lmaxx) =  3
     Presently no symmetry can be used with electric field

     Message from routine cell_base_init:
     DEPRECATED: use true lattice parameter, not A to a.u. conversion factor

     IMPORTANT: XC functional enforced from input :
     Exchange-correlation= BEEF-VDW
                           (   1   4  43  14   2   0   0)
     Any further DFT definition will be discarded
     Please, verify this is what you really want

  @ DRIVER MODE: Connecting to
 qe_1139763_2947308.sched-torque.pace.gatech.educj497jlj_scratch
  using UNIX socket
  @ DRIVER MODE: Message from server: STATUS
  @ DRIVER MODE: Message from server: INIT
  @ DRIVER MODE: Receiving replica           0          -1
  @ DRIVER MODE: Receiving encoded integer          25
  @ DRIVER MODE:  SCF:  T  FORCE:  T  STRESS:  F  VC:  F  ENSEMBLE:  F
  @ DRIVER MODE:  SCF:  T  FORCE:  T  STRESS:  F  VC:  F  ENSEMBLE:  F

     Using Slab Decomposition

     bravais-lattice index     =            0
     lattice parameter (alat)  =       1.8897  a.u.
     unit-cell volume          =    6658.9804 (a.u.)^3
     number of atoms/cell      =           58
     number of atomic types    =            5
     number of electrons       =       405.00
     number of Kohn-Sham states=          212
     kinetic-energy cutoff     =      29.3995  Ry
     charge density cutoff     =     293.9946  Ry
     scf convergence threshold =      7.3E-08
     mixing beta               =       0.0500
     number of iterations used =            8  plain     mixing
     Exchange-correlation= BEEF-VDW
                           (   1   4  43  14   2   0   0)

     celldm(1)=   1.889726  celldm(2)=   0.000000  celldm(3)=   0.000000
     celldm(4)=   0.000000  celldm(5)=   0.000000  celldm(6)=   0.000000

     crystal axes: (cart. coord. in units of alat)
               a(1) = (   6.579727   0.000000   0.000000 )
               a(2) = (  -0.000775   5.961596   0.000000 )
               a(3) = (   0.000000   0.000000  25.155947 )

     reciprocal axes: (cart. coord. in units 2 pi/alat)
               b(1) = (  0.151982  0.000020  0.000000 )
               b(2) = (  0.000000  0.167740  0.000000 )
               b(3) = (  0.000000  0.000000  0.039752 )

     PseudoPot. # 1 for Ti read from file:
     /storage/coda1/p-amedford6/0/shared/rich_project_chbe-medford/medford-share/data/pseudos_module/espresso/nninc/pbe/van/Ti.UPF
     MD5 check sum: 8e4df49b7f0d34bbd5052bf3f5ea0213
     Pseudo is Ultrasoft, Zval = 12.0
     Generated by new atomic code, or converted to UPF format
     Using radial grid of  851 points,  6 beta functions with:
                l(1) =   0
                l(2) =   0
                l(3) =   1
                l(4) =   1
                l(5) =   2
                l(6) =   2
     Q(r) pseudized with  8 coefficients,  rinner =    1.000   1.000   1.000
                                                       1.000   1.000

     PseudoPot. # 2 for O  read from file:
     /storage/coda1/p-amedford6/0/shared/rich_project_chbe-medford/medford-share/data/pseudos_module/espresso/nninc/pbe/van/O.UPF
     MD5 check sum: 78c19812648e8988a0fe644b0f25305e
     Pseudo is Ultrasoft, Zval =  6.0
     Generated by new atomic code, or converted to UPF format
     Using radial grid of  737 points,  4 beta functions with:
                l(1) =   0
                l(2) =   0
                l(3) =   1
                l(4) =   1
     Q(r) pseudized with  8 coefficients,  rinner =    0.800   0.800   0.800

     PseudoPot. # 3 for N  read from file:
     /storage/coda1/p-amedford6/0/shared/rich_project_chbe-medford/medford-share/data/pseudos_module/espresso/nninc/pbe/van/N.UPF
     MD5 check sum: 90d10febe142ad51ac9d5be1deb811c4
     Pseudo is Ultrasoft, Zval =  5.0
     Generated by new atomic code, or converted to UPF format
     Using radial grid of  729 points,  4 beta functions with:
                l(1) =   0
                l(2) =   0
                l(3) =   1
                l(4) =   1
     Q(r) pseudized with  8 coefficients,  rinner =    0.800   0.800   0.800

     PseudoPot. # 4 for C  read from file:
     /storage/coda1/p-amedford6/0/shared/rich_project_chbe-medford/medford-share/data/pseudos_module/espresso/nninc/pbe/van/C.UPF
     MD5 check sum: 1a69bf6b8db32088f5b2163dbdb77a27
     Pseudo is Ultrasoft, Zval =  4.0
     Generated by new atomic code, or converted to UPF format
     Using radial grid of  721 points,  4 beta functions with:
                l(1) =   0
                l(2) =   0
                l(3) =   1
                l(4) =   1
     Q(r) pseudized with  8 coefficients,  rinner =    0.800   0.800   0.800

     PseudoPot. # 5 for H  read from file:
     /storage/coda1/p-amedford6/0/shared/rich_project_chbe-medford/medford-share/data/pseudos_module/espresso/nninc/pbe/van/H.UPF
     MD5 check sum: b5ee9d7bfd3a09ee7748110bda690ff7
     Pseudo is Ultrasoft, Zval =  1.0
     Generated by new atomic code, or converted to UPF format
     Using radial grid of  615 points,  1 beta functions with:
                l(1) =   0
     Q(r) pseudized with  8 coefficients,  rinner =    0.800

     atomic species   valence    mass     pseudopotential
        Ti1           12.00    47.86700     Ti( 1.00)
        O1             6.00    15.99900     O ( 1.00)
        N1             5.00    14.00700     N ( 1.00)
        C1             4.00    12.01100     C ( 1.00)
        H1             1.00     1.00800     H ( 1.00)

     No symmetry found

   Cartesian axes

     site n.     atom                  positions (alat units)
         1           Ti1 tau(   1) = (   0.0004258   2.9801865   6.0000000  )
         2           Ti1 tau(   2) = (   3.2906075   1.4906267   6.0002472  )
         3           O1  tau(   3) = (   0.0006271   0.0005054   7.9858123  )
         4           O1  tau(   4) = (   3.2906025   0.0005020   7.3038282  )
         5           O1  tau(   5) = (   4.5942328   1.4918067   9.2879030  )
         6           O1  tau(   6) = (   1.9868534   1.4903216   9.2879459  )
         7           Ti1 tau(   7) = (   3.2907910   2.8959150   9.1758416  )
         8           Ti1 tau(   8) = (   0.0015273   1.4827037   9.2680791  )
         9           O1  tau(   9) = (   3.3066316   0.0080679  11.3583267  )
        10           O1  tau(  10) = (   0.0116148   5.9584955  10.6183126  )
        11           O1  tau(  11) = (   1.3000076   1.5005770  12.6434233  )
        12           O1  tau(  12) = (   5.3281586   1.4930334  12.6431679  )
        13           Ti1 tau(  13) = (   0.0126194   3.0144704  12.5166071  )
        14           Ti1 tau(  14) = (   3.3185830   1.5708444  12.4374219  )
        15           O1  tau(  15) = (   0.0449490   0.0685618  14.6579901  )
        16           O1  tau(  16) = (   3.3164028   5.8986079  13.9921319  )
        17           O1  tau(  17) = (   4.5763498   1.4919541  16.1892649  )
        18           O1  tau(  18) = (   2.0390356   1.5007807  16.1677599  )
        19           Ti1 tau(  19) = (   3.3152479   2.9236451  15.6986563  )
        20           Ti1 tau(  20) = (   0.0808212   1.4292116  16.0039943  )
        21           O1  tau(  21) = (   3.2904802   0.0005063   4.7018136  )
        22           O1  tau(  22) = (   0.0303022   5.8046116  17.1736243  )
        23           O1  tau(  23) = (   1.3043587   1.4918075   6.0039043  )
        24           O1  tau(  24) = (   5.2767064   1.4903225   6.0039473  )
        25           Ti1 tau(  25) = (   0.0000382   5.9609847   6.0000000  )
        26           Ti1 tau(  26) = (   3.2902200   4.4714249   6.0002472  )
        27           O1  tau(  27) = (   0.0002396   2.9813036   7.9858123  )
        28           O1  tau(  28) = (   3.2902150   2.9813002   7.3038282  )
        29           O1  tau(  29) = (   4.5938453   4.4726049   9.2879030  )
        30           O1  tau(  30) = (   1.9864658   4.4711199   9.2879459  )
        31           Ti1 tau(  31) = (   3.2891106   5.8743827   9.1763621  )
        32           Ti1 tau(  32) = (   0.0006254   4.4649316   9.2693709  )
        33           O1  tau(  33) = (   3.3101163   2.9547251  11.3177968  )
        34           O1  tau(  34) = (   0.0092240   2.9805883  10.6323155  )
        35           O1  tau(  35) = (   1.2917786   4.4638488  12.6831265  )
        36           O1  tau(  36) = (   5.3332004   4.4701953  12.6833355  )
        37           Ti1 tau(  37) = (   0.0360484   0.0435164  12.5022323  )
        38           Ti1 tau(  38) = (   3.3166134   4.6596848  12.7231989  )
        39           O1  tau(  39) = (   6.5734590   2.9070644  14.8960501  )
        40           O1  tau(  40) = (   3.3256711   2.9499323  13.9293234  )
        41           O1  tau(  41) = (   4.5718193   4.3849529  16.1598725  )
        42           O1  tau(  42) = (   2.0293811   4.3548050  16.0908550  )
        43           Ti1 tau(  43) = (   3.3839698   5.9011270  16.3477160  )
        44           Ti1 tau(  44) = (   0.0762916   4.6312412  15.8077656  )
        45           O1  tau(  45) = (   3.2900926   2.9813045   4.7018136  )
        46           O1  tau(  46) = (   1.3039711   4.4726057   6.0039043  )
        47           O1  tau(  47) = (   5.2763189   4.4711207   6.0039473  )
        48           N1  tau(  48) = (   1.0338470   3.0145746  18.8549854  )
        49           N1  tau(  49) = (   6.4614719   2.5758313  18.0922931  )
        50           C1  tau(  50) = (   0.6385090   3.7489381  20.0602371  )
        51           H1  tau(  51) = (   6.5128770   4.5633600  19.8465500  )
        52           H1  tau(  52) = (   0.1876125   3.0656416  20.7809517  )
        53           H1  tau(  53) = (   1.5398112   4.1767214  20.4987412  )
        54           H1  tau(  54) = (   5.7034478   3.2665398  18.1448723  )
        55           H1  tau(  55) = (   6.1095767   1.7263867  18.5341855  )
        56           H1  tau(  56) = (   1.5400177   3.6533120  18.2466354  )
        57           O1  tau(  57) = (   3.2295176   5.8880611  18.1942677  )
        58           H1  tau(  58) = (   2.6769533   0.6239085  18.5754980  )

     number of k points=    10  Fermi-Dirac smearing, width (Ry)=  0.0073
                       cart. coord. in units 2pi/alat
        k(    1) = (   0.0000000   0.0000000   0.0000000), wk =   0.1250000
        k(    2) = (   0.0000000   0.0419351   0.0000000), wk =   0.2500000
        k(    3) = (   0.0000000  -0.0838702   0.0000000), wk =   0.1250000
        k(    4) = (   0.0379955   0.0000049   0.0000000), wk =   0.2500000
        k(    5) = (   0.0379955   0.0419400   0.0000000), wk =   0.2500000
        k(    6) = (   0.0379955  -0.0838652   0.0000000), wk =   0.2500000
        k(    7) = (   0.0379955  -0.0419301   0.0000000), wk =   0.2500000
        k(    8) = (  -0.0759910  -0.0000099   0.0000000), wk =   0.1250000
        k(    9) = (  -0.0759910   0.0419252   0.0000000), wk =   0.2500000
        k(   10) = (  -0.0759910  -0.0838800   0.0000000), wk =   0.1250000

     Initial potential from superposition of free atoms

     starting charge  388.99913, renormalised to  405.00000

     negative rho (up, down):  1.325E-02 0.000E+00

     %%%%%%%%%%%%%%%%%%%%%%%%%%%%%%%%%%%%%%%%%%%%%%%%%%%%%%%%%%%%%%%%%%%%%%%%
     %                                                                      %
     % You are using vdW-DF, which was implemented by the Thonhauser group. %
     % Please cite the following two papers that made this development      %
     % possible and the two reviews that describe the various versions:     %
     %                                                                      %
     %   T. Thonhauser et al., PRL 115, 136402 (2015).                      %
     %   T. Thonhauser et al., PRB 76, 125112 (2007).                       %
     %   K. Berland et al., Rep. Prog. Phys. 78, 066501 (2015).             %
     %   D.C. Langreth et al., J. Phys.: Condens. Matter 21, 084203 (2009). %
     %                                                                      %
     %                                                                      %
     % If you are calculating the stress with vdW-DF, please also cite:     %
     %                                                                      %
     %   R. Sabatini et al., J. Phys.: Condens. Matter 24, 424209 (2012).   %
     %                                                                      %
     %%%%%%%%%%%%%%%%%%%%%%%%%%%%%%%%%%%%%%%%%%%%%%%%%%%%%%%%%%%%%%%%%%%%%%%%

     Adding external electric field

     Computed dipole along edir(3) :
        Dipole              -14.7644 Ry au,        -37.5273 Debye
        Dipole field         -0.0279 Ry au,

        Potential amp.        2.5828 Ry
        Total length         46.3494 bohr

     Starting wfcs are  307 atomic wfcs
  @ DRIVER MODE: Message from server: STATUS
  @ DRIVER MODE: Message from server: POSDATA
  @ DRIVER MODE: Reading and sharing cell
  @ DRIVER MODE: Reading and sharing positions
  @ DRIVER MODE: Received positions

     Self-consistent Calculation

     iteration #  1     ecut=    29.40 Ry     beta= 0.05
     Davidson diagonalization with overlap
     c_bands:  4 eigenvalues not converged
     c_bands:  4 eigenvalues not converged
     c_bands:  2 eigenvalues not converged
     c_bands:  3 eigenvalues not converged
     c_bands:  3 eigenvalues not converged
     c_bands:  3 eigenvalues not converged
     ethr =  1.00E-05,  avg # of iterations = 23.4

[...]

     total energy              =   -2204.22122003 Ry
     estimated scf accuracy    <    8785.83017139 Ry

     iteration #  2     ecut=    29.40 Ry     beta= 0.05
     Davidson diagonalization with overlap
     ethr =  1.00E-02,  avg # of iterations = 27.8

[...]

     iteration # 50     ecut=    29.40 Ry     beta= 0.05
     Davidson diagonalization with overlap
     c_bands:  1 eigenvalues not converged
     ethr =  3.64E-06,  avg # of iterations =  7.9

[...]

     total energy              =   -2976.49823401 Ry
     estimated scf accuracy    <       0.00000013 Ry

     iteration # 74     ecut=    29.40 Ry     beta= 0.05
     Davidson diagonalization with overlap
     ethr =  3.31E-11,  avg # of iterations =  5.4

     negative rho (up, down):  1.443E-02 0.000E+00

     Adding external electric field

     Computed dipole along edir(3) :
        Dipole                0.9892 Ry au,          2.5143 Debye
        Dipole field          0.0019 Ry au,

        Potential amp.       -0.1730 Ry
        Total length         46.3494 bohr

     End of self-consistent calculation

          k = 0.0000 0.0000 0.0000 ( 18029 PWs)   bands (ev):

   -55.5839 -55.5007 -55.4667 -55.3663 -55.3448 -55.3287 -55.3154 -55.3084
   -55.2949 -55.2650 -55.2213 -55.0995 -55.0887 -55.0117 -54.4699 -54.4359
   -31.9852 -31.9207 -31.8799 -31.8323 -31.8308 -31.8111 -31.8012 -31.7916
   -31.7515 -31.7467 -31.7292 -31.6534 -31.6299 -31.6093 -31.6072 -31.6052
   -31.5998 -31.5879 -31.5855 -31.5584 -31.5523 -31.5273 -31.5261 -31.5146
   -31.4998 -31.4880 -31.4806 -31.4635 -31.4587 -31.4560 -31.4464 -31.4403
   -31.4367 -31.4170 -31.3752 -31.3735 -31.3032 -31.2961 -31.2821 -31.2613
   -31.2244 -31.2171 -30.8757 -30.7900 -30.7675 -30.6933 -30.6069 -30.4951
   -17.5805 -16.4281 -16.1421 -15.9798 -15.7638 -15.6781 -15.6497 -15.4568
   -15.3516 -15.2986 -15.1126 -15.0666 -15.0355 -15.0253 -15.0091 -14.9864
   -14.9667 -14.9283 -14.9199 -14.9097 -14.9041 -14.8655 -14.8430 -14.7927
   -14.7704 -14.7072 -14.6350 -14.5673 -14.5200 -14.2589 -14.2410 -12.9684
   -12.9663 -12.8521  -9.4589  -6.1523  -5.2013  -4.6345  -3.9678  -3.5062
    -3.4054  -3.3895  -3.3342  -3.2709  -3.1672  -2.9981  -2.8892  -2.8349
    -2.7347  -2.6273  -2.5724  -2.5088  -2.4782  -2.4323  -2.3996  -2.3875
    -2.3809  -2.2848  -2.2763  -2.2493  -2.2138  -2.1578  -2.1421  -2.0642
    -2.0278  -2.0194  -1.8954  -1.8822  -1.8165  -1.8121  -1.8060  -1.7723
    -1.7512  -1.7363  -1.7074  -1.6235  -1.5706  -1.5000  -1.4773  -1.4477
    -1.1883  -1.0963  -1.0588  -1.0310  -0.9330  -0.9165  -0.9045  -0.9000
    -0.8859  -0.8370  -0.7901  -0.7059  -0.5962  -0.5760  -0.5673  -0.5224
    -0.4580  -0.3751  -0.3022  -0.2725  -0.2355  -0.2217  -0.1571  -0.0783
    -0.0621  -0.0499   0.0586   0.0726   0.1555   0.2138   0.2280   0.2728
     0.3133   0.3470   0.4032   0.4397   0.4701   0.4760   0.5088   0.5537
     0.6096   0.6401   0.6675   0.7494   0.8054   0.8511   0.8787   1.0503
     1.0806   1.1403   1.1764   1.2636   1.5063   1.5565   1.5959   1.7510
     2.1229   2.1681   3.5839   3.7350   3.7502   3.8195   3.8449   3.9356
     4.0732   4.1408   4.2727   4.2813

[...]

          k = 0.0380-0.0419 0.0000 ( 17876 PWs)   bands (ev):

[...]

          k =-0.0760-0.0000 0.0000 ( 17886 PWs)   bands (ev):

[...]

          k =-0.0760-0.0839 0.0000 ( 17948 PWs)   bands (ev):

   -55.5832 -55.4838 -55.4835 -55.3651 -55.3317 -55.3214 -55.3160 -55.3118
   -55.3114 -55.2571 -55.2293 -55.0964 -55.0898 -55.0147 -54.4530 -54.4527
   -31.8679 -31.8101 -31.8054 -31.8006 -31.8004 -31.7859 -31.7773 -31.7769
   -31.7087 -31.6522 -31.6441 -31.6366 -31.6320 -31.6191 -31.6038 -31.6038
   -31.6014 -31.6013 -31.5867 -31.5766 -31.5690 -31.5608 -31.5395 -31.5213
   -31.5189 -31.5144 -31.5071 -31.5043 -31.4920 -31.4845 -31.4821 -31.4759
   -31.4710 -31.4522 -31.4465 -31.3697 -31.3579 -31.3436 -31.3052 -31.3002
   -31.2665 -31.2205 -30.7803 -30.7801 -30.6888 -30.6884 -30.6503 -30.6499
   -17.5745 -16.4152 -15.7500 -15.5721 -15.4755 -15.4690 -15.3383 -15.2728
   -15.2637 -15.2295 -15.2107 -15.1967 -15.1627 -15.1453 -15.1061 -15.0527
   -15.0195 -14.9968 -14.9852 -14.9482 -14.9357 -14.9138 -14.9063 -14.8976
   -14.8394 -14.8073 -14.7981 -14.7677 -14.5721 -14.5500 -14.3735 -12.9678
   -12.9541 -12.9539  -9.4564  -6.1375  -5.2030  -4.6446  -3.9636  -3.1667
    -2.9241  -2.7809  -2.7045  -2.5704  -2.5607  -2.5028  -2.4898  -2.4500
    -2.4415  -2.4005  -2.3464  -2.3305  -2.2873  -2.2823  -2.2517  -2.2393
    -2.2284  -2.2194  -2.1943  -2.1746  -2.1656  -2.1250  -2.1204  -2.1048
    -2.0849  -2.0685  -2.0409  -2.0300  -1.9899  -1.9503  -1.8849  -1.8117
    -1.7257  -1.6428  -1.6322  -1.6213  -1.5751  -1.5685  -1.5219  -1.5102
    -1.4634  -1.4115  -1.2978  -1.1750  -1.1345  -1.1085  -1.0765  -1.0442
    -0.9897  -0.9669  -0.9318  -0.8836  -0.8523  -0.7280  -0.7174  -0.6518
    -0.5666  -0.5335  -0.4579  -0.4446  -0.4299  -0.4141  -0.3921  -0.3760
    -0.3457  -0.3294  -0.2254  -0.2021  -0.1982  -0.1754  -0.1249  -0.0225
     0.0506   0.1348   0.2378   0.2872   0.3152   0.3490   0.4479   0.5665
     0.5917   0.6550   0.6872   0.7300   0.7970   0.8180   0.8657   0.9505
     1.0044   1.0367   1.0631   1.0680   1.1229   1.1569   1.9196   1.9281
     1.9884   1.9886   3.7973   4.0736   4.0995   4.1154   4.1527   4.1570
     4.1789   4.1938   4.2584   4.2741

     the Fermi energy is     3.6208 ev

!    total energy              =   -2976.49825378 Ry
     estimated scf accuracy    <       0.00000005 Ry
     smearing contrib. (-TS)   =      -0.01953058 Ry
     internal energy E=F+TS    =   -2976.47872320 Ry

     The total energy is F=E-TS. E is the sum of the following terms:
     one-electron contribution =  -23034.96967286 Ry
     hartree contribution      =   11613.81667668 Ry
     xc contribution           =    -495.71320618 Ry
     ewald contribution        =    8940.38563250 Ry
     electric field correction =       0.00184665 Ry

     convergence has been achieved in  74 iterations

     Forces acting on atoms (cartesian axes, Ry/au):

     atom    1 type  1   force =     0.00000896   -0.00022218    0.09406666
     atom    2 type  1   force =    -0.00016039    0.00025532   -0.17513640
     atom    3 type  2   force =     0.00007475   -0.00016175   -0.02115727
     atom    4 type  2   force =     0.00000365   -0.00104215    0.05354931
     atom    5 type  2   force =    -0.00455503   -0.00322469    0.00115199
     atom    6 type  2   force =     0.00661320   -0.00242295    0.00161595
     atom    7 type  1   force =     0.00037448    0.00456875    0.01037454
     atom    8 type  1   force =    -0.00056085    0.00198904    0.00311325
     atom    9 type  2   force =     0.00010434   -0.00049729   -0.00047677
     atom   10 type  2   force =    -0.00030918   -0.00004394   -0.01127562
     atom   11 type  2   force =    -0.00024206    0.00046195    0.00004107
     atom   12 type  2   force =    -0.00026044    0.00067741    0.00007652
     atom   13 type  1   force =     0.00061309   -0.00065124    0.00022179
     atom   14 type  1   force =    -0.00035444    0.00015125    0.00018165
     atom   15 type  2   force =    -0.00016770    0.00009859    0.00051828
     atom   16 type  2   force =     0.00004291   -0.00004440    0.00031873
     atom   17 type  2   force =    -0.00039001    0.00025907    0.00008321
     atom   18 type  2   force =     0.00008288    0.00002552    0.00035824
     atom   19 type  1   force =    -0.00005437    0.00060655   -0.00031569
     atom   20 type  1   force =    -0.00011236   -0.00009161   -0.00007809
     atom   21 type  2   force =     0.00002944   -0.00001262    0.10311410
     atom   22 type  2   force =    -0.00004764   -0.00015083   -0.00041020
     atom   23 type  2   force =    -0.07212342   -0.00020920   -0.02725576
     atom   24 type  2   force =     0.07202796    0.00023294   -0.02733351
     atom   25 type  1   force =     0.00007006   -0.00034955    0.09405035
     atom   26 type  1   force =    -0.00000392   -0.00128652   -0.17516519
     atom   27 type  2   force =     0.00015377   -0.00021446   -0.01993411
     atom   28 type  2   force =     0.00008650   -0.00111014    0.04906849
     atom   29 type  2   force =    -0.00669054    0.00152885    0.00212872
     atom   30 type  2   force =     0.00855976    0.00170801    0.00249854
     atom   31 type  1   force =     0.00049707   -0.00020460    0.00053194
     atom   32 type  1   force =    -0.00020193   -0.00145269    0.00350373
     atom   33 type  2   force =    -0.00007817   -0.00001433   -0.00002022
     atom   34 type  2   force =    -0.00088767    0.00246380   -0.01148535
     atom   35 type  2   force =     0.00002551   -0.00043503    0.00048247
     atom   36 type  2   force =    -0.00052369   -0.00041277    0.00033940
     atom   37 type  1   force =     0.00037101    0.00029130    0.00001231
     atom   38 type  1   force =    -0.00038300    0.00024492    0.00030952
     atom   39 type  2   force =    -0.00050291    0.00040480    0.00045972
     atom   40 type  2   force =    -0.00002155   -0.00007849   -0.00003122
     atom   41 type  2   force =    -0.00042328   -0.00022498    0.00028137
     atom   42 type  2   force =    -0.00022761   -0.00026003   -0.00026886
     atom   43 type  1   force =     0.00026980   -0.00073134    0.00022994
     atom   44 type  1   force =    -0.00016340    0.00017307    0.00016603
     atom   45 type  2   force =     0.00002193   -0.00001602    0.10297493
     atom   46 type  2   force =    -0.07213048   -0.00008559   -0.02725206
     atom   47 type  2   force =     0.07198430    0.00035125   -0.02729524
     atom   48 type  3   force =     0.00054124   -0.00050948   -0.00032752
     atom   49 type  3   force =    -0.00068373    0.00010043    0.00003124
     atom   50 type  4   force =     0.00033589   -0.00027801    0.00021589
     atom   51 type  5   force =    -0.00029246    0.00023517    0.00003617
     atom   52 type  5   force =    -0.00009348   -0.00079652   -0.00000128
     atom   53 type  5   force =     0.00019118   -0.00052672    0.00000602
     atom   54 type  5   force =     0.00017336    0.00020815   -0.00054309
     atom   55 type  5   force =    -0.00017170    0.00032655    0.00043794
     atom   56 type  5   force =     0.00029023    0.00022570   -0.00036724
     atom   57 type  2   force =     0.00397709   -0.00473231   -0.00410528
     atom   58 type  5   force =    -0.00470695    0.00490601    0.00368598

     Total force =     0.361843     Total SCF correction =     0.000360
  @ DRIVER MODE: Message from server: STATUS
  @ DRIVER MODE: Message from server: GETFORCE
  @ DRIVER MODE: Returning v,forces,stress,ensemble

     Writing output data file ./calc.save/
  @ DRIVER MODE: Message from server: EXIT
  @ DRIVE MODE: Exiting

     General routines

     Parallel routines

   This run was terminated on:  14:27: 7  24Sep2021

   JOB DONE.